# el_label, x, y, sXX, sYY, sZZ, sXY
1.000000000000000000e+00 5.522918701171875000e+01 -2.776927566528320312e+01 -7.055567502975463867e-01 -3.043828718364238739e-02 -2.207985073328018188e-01 -9.200438857078552246e-01
2.000000000000000000e+00 5.541610336303710938e+01 -2.783768653869628906e+01 1.337284922599792480e+00 2.072235494852066040e-01 4.633525609970092773e-01 -9.800840914249420166e-02
3.000000000000000000e+00 5.560302352905273438e+01 -2.790609931945800781e+01 4.125508964061737061e-01 -9.631482511758804321e-02 9.487082809209823608e-02 -1.756921410560607910e-01
4.000000000000000000e+00 5.578993988037109375e+01 -2.797451019287109375e+01 2.619788646697998047e-01 1.455182489007711411e-02 8.295920491218566895e-02 4.139722511172294617e-02
5.000000000000000000e+00 5.524379348754882812e+01 -2.771278953552246094e+01 4.750934123992919922e+00 -3.532034754753112793e-01 1.319319248199462891e+00 -1.877659201622009277e+00
6.000000000000000000e+00 5.544044494628906250e+01 -2.774354362487792969e+01 2.481281280517578125e+00 2.366500347852706909e-02 7.514838576316833496e-01 -4.443197548389434814e-01
7.000000000000000000e+00 5.563709640502929688e+01 -2.777429771423339844e+01 2.495763540267944336e+00 -7.196852564811706543e-02 7.271384596824645996e-01 -1.071704179048538208e-01
8.000000000000000000e+00 5.583375167846679688e+01 -2.780505371093750000e+01 1.697993159294128418e+00 -1.457086354494094849e-01 4.656853675842285156e-01 -9.439592808485031128e-02
9.000000000000000000e+00 5.524713134765625000e+01 -2.765454292297363281e+01 8.314747810363769531e+00 -6.844601035118103027e-01 2.289086341857910156e+00 -2.766092717647552490e-01
1.000000000000000000e+01 5.544601058959960938e+01 -2.764646530151367188e+01 5.198427200317382812e+00 -3.129068017005920410e-01 1.465656042098999023e+00 -1.738095283508300781e-01
1.100000000000000000e+01 5.564488983154296875e+01 -2.763838768005371094e+01 3.850639820098876953e+00 -2.046206146478652954e-01 1.093805789947509766e+00 2.238869220018386841e-01
1.200000000000000000e+01 5.584376907348632812e+01 -2.763031005859375000e+01 3.431964635848999023e+00 -1.778295189142227173e-01 9.762405753135681152e-01 3.595451414585113525e-01
1.300000000000000000e+01 5.523908233642578125e+01 -2.759675788879394531e+01 1.060676193237304688e+01 -8.321317285299301147e-02 3.157064676284790039e+00 1.673303246498107910e+00
1.400000000000000000e+01 5.543259048461914062e+01 -2.755015754699707031e+01 6.974730491638183594e+00 -2.566489875316619873e-01 2.015424489974975586e+00 1.144790053367614746e+00
1.500000000000000000e+01 5.562610244750976562e+01 -2.750355529785156250e+01 5.553825855255126953e+00 -1.377112716436386108e-01 1.624834299087524414e+00 1.033617138862609863e+00
1.600000000000000000e+01 5.581961441040039062e+01 -2.745695495605468750e+01 4.493120193481445312e+00 -1.613388657569885254e-01 1.299534440040588379e+00 1.084249973297119141e+00
1.700000000000000000e+01 5.521994400024414062e+01 -2.754164123535156250e+01 1.139480018615722656e+01 1.224082589149475098e+00 3.785664796829223633e+00 3.859330177307128906e+00
1.800000000000000000e+01 5.540069961547851562e+01 -2.745829772949218750e+01 8.140406608581542969e+00 5.547786951065063477e-01 2.608555555343627930e+00 2.602610588073730469e+00
1.900000000000000000e+01 5.558145141601562500e+01 -2.737495231628417969e+01 6.412465572357177734e+00 3.156325519084930420e-01 2.018429517745971680e+00 2.235584497451782227e+00
2.000000000000000000e+01 5.576220703125000000e+01 -2.729160881042480469e+01 5.497163772583007812e+00 2.548796236515045166e-01 1.725613117218017578e+00 2.113148212432861328e+00
2.100000000000000000e+01 5.519045639038085938e+01 -2.749129867553710938e+01 1.128473854064941406e+01 3.333584547042846680e+00 4.385497093200683594e+00 5.567040443420410156e+00
2.200000000000000000e+01 5.535154724121093750e+01 -2.737439537048339844e+01 8.295610427856445312e+00 1.900940775871276855e+00 3.058965206146240234e+00 4.007040023803710938e+00
2.300000000000000000e+01 5.551264190673828125e+01 -2.725749015808105469e+01 6.825975418090820312e+00 1.348662257194519043e+00 2.452391386032104492e+00 3.390910863876342773e+00
2.400000000000000000e+01 5.567373657226562500e+01 -2.714058303833007812e+01 5.820691108703613281e+00 1.013643980026245117e+00 2.050300359725952148e+00 3.090162992477416992e+00
2.500000000000000000e+01 5.515173721313476562e+01 -2.744765472412109375e+01 1.029967784881591797e+01 5.861677646636962891e+00 4.848406791687011719e+00 6.621438026428222656e+00
2.600000000000000000e+01 5.528702163696289062e+01 -2.730165100097656250e+01 7.953852176666259766e+00 3.705942869186401367e+00 3.497938394546508789e+00 4.967205524444580078e+00
2.700000000000000000e+01 5.542230224609375000e+01 -2.715564918518066406e+01 6.562076091766357422e+00 2.756930351257324219e+00 2.795701980590820312e+00 4.253071784973144531e+00
2.800000000000000000e+01 5.555758666992187500e+01 -2.700964736938476562e+01 5.709033012390136719e+00 2.221079111099243164e+00 2.379033565521240234e+00 3.843425989151000977e+00
2.900000000000000000e+01 5.510527420043945312e+01 -2.741237068176269531e+01 9.085095405578613281e+00 8.477349281311035156e+00 5.268733501434326172e+00 6.822834968566894531e+00
3.000000000000000000e+01 5.520957946777343750e+01 -2.724284744262695312e+01 7.149061679840087891e+00 5.679126262664794922e+00 3.848456382751464844e+00 5.353466987609863281e+00
3.100000000000000000e+01 5.531388473510742188e+01 -2.707332229614257812e+01 6.004680156707763672e+00 4.396389484405517578e+00 3.120320796966552734e+00 4.644050598144531250e+00
3.200000000000000000e+01 5.541819000244140625e+01 -2.690379905700683594e+01 5.226445198059082031e+00 3.618468999862670898e+00 2.653474330902099609e+00 4.210549831390380859e+00
3.300000000000000000e+01 5.505283355712890625e+01 -2.738679885864257812e+01 7.874471664428710938e+00 1.079670143127441406e+01 5.601352214813232422e+00 6.231651782989501953e+00
3.400000000000000000e+01 5.512217712402343750e+01 -2.720022583007812500e+01 6.319616317749023438e+00 7.568293094635009766e+00 4.166372776031494141e+00 5.132311344146728516e+00
3.500000000000000000e+01 5.519152069091796875e+01 -2.701365280151367188e+01 5.271516799926757812e+00 6.005074977874755859e+00 3.382977485656738281e+00 4.507421016693115234e+00
3.600000000000000000e+01 5.526086807250976562e+01 -2.682708168029785156e+01 4.640071392059326172e+00 5.009870052337646484e+00 2.894982337951660156e+00 4.089634895324707031e+00
3.700000000000000000e+01 5.499641799926757812e+01 -2.737191200256347656e+01 7.101098060607910156e+00 1.253476905822753906e+01 5.890760421752929688e+00 5.070823669433593750e+00
3.800000000000000000e+01 5.502815628051757812e+01 -2.717541694641113281e+01 5.602542877197265625e+00 9.129758834838867188e+00 4.419690608978271484e+00 4.378118038177490234e+00
3.900000000000000000e+01 5.505989456176757812e+01 -2.697891998291015625e+01 4.699626445770263672e+00 7.362749099731445312e+00 3.618712663650512695e+00 3.903001308441162109e+00
4.000000000000000000e+01 5.509162902832031250e+01 -2.678242301940917969e+01 4.047954082489013672e+00 6.219180107116699219e+00 3.080140352249145508e+00 3.534886360168457031e+00
4.100000000000000000e+01 5.493819046020507812e+01 -2.736828231811523438e+01 6.847792625427246094e+00 1.355034923553466797e+01 6.119442462921142578e+00 3.594912052154541016e+00
4.200000000000000000e+01 5.493110656738281250e+01 -2.716936492919921875e+01 5.267379760742187500e+00 1.017899227142333984e+01 4.633911609649658203e+00 3.308401346206665039e+00
4.300000000000000000e+01 5.492402267456054688e+01 -2.697044944763183594e+01 4.369620800018310547e+00 8.319246292114257812e+00 3.806660175323486328e+00 2.943537950515747070e+00
4.400000000000000000e+01 5.491693878173828125e+01 -2.677153205871582031e+01 3.754218816757202148e+00 7.083275318145751953e+00 3.251248359680175781e+00 2.715554952621459961e+00
4.500000000000000000e+01 5.488036727905273438e+01 -2.737604522705078125e+01 7.140566349029541016e+00 1.384322738647460938e+01 6.295137882232666016e+00 2.168516635894775391e+00
4.600000000000000000e+01 5.483473205566406250e+01 -2.718230438232421875e+01 5.387485980987548828e+00 1.064383316040039062e+01 4.809395790100097656e+00 2.091097831726074219e+00
4.700000000000000000e+01 5.478910064697265625e+01 -2.698856163024902344e+01 4.396547794342041016e+00 8.778962135314941406e+00 3.952652931213378906e+00 1.899666547775268555e+00
4.800000000000000000e+01 5.474346542358398438e+01 -2.679482078552246094e+01 3.823764801025390625e+00 7.507718563079833984e+00 3.399445056915283203e+00 1.729048609733581543e+00
4.900000000000000000e+01 5.482515335083007812e+01 -2.739490699768066406e+01 7.924539566040039062e+00 1.353733730316162109e+01 6.438563346862792969e+00 9.897751808166503906e-01
5.000000000000000000e+01 5.474271392822265625e+01 -2.721373748779296875e+01 5.885059833526611328e+00 1.055996990203857422e+01 4.933508872985839844e+00 1.008333206176757812e+00
5.100000000000000000e+01 5.466027450561523438e+01 -2.703256988525390625e+01 4.858751773834228516e+00 8.731974601745605469e+00 4.077218055725097656e+00 9.251194596290588379e-01
5.200000000000000000e+01 5.457783508300781250e+01 -2.685140037536621094e+01 4.155216217041015625e+00 7.471422195434570312e+00 3.487991571426391602e+00 8.309133648872375488e-01
5.300000000000000000e+01 5.477466583251953125e+01 -2.742414474487304688e+01 8.931524276733398438e+00 1.282730865478515625e+01 6.527649879455566406e+00 2.384368926286697388e-01
5.400000000000000000e+01 5.465856552124023438e+01 -2.726246643066406250e+01 6.742537498474121094e+00 1.003061103820800781e+01 5.031944751739501953e+00 2.343331724405288696e-01
5.500000000000000000e+01 5.454246902465820312e+01 -2.710079002380371094e+01 5.565680503845214844e+00 8.293558120727539062e+00 4.157771587371826172e+00 2.149572074413299561e-01
5.600000000000000000e+01 5.442636871337890625e+01 -2.693911361694335938e+01 4.806398391723632812e+00 7.056260108947753906e+00 3.558797597885131836e+00 1.611214280128479004e-01
5.700000000000000000e+01 5.473082733154296875e+01 -2.746264076232910156e+01 1.005324554443359375e+01 1.192191505432128906e+01 6.592548370361328125e+00 -2.834318205714225769e-02
5.800000000000000000e+01 5.458550262451171875e+01 -2.732662963867187500e+01 7.697157859802246094e+00 9.242330551147460938e+00 5.081846237182617188e+00 -1.035577580332756042e-01
5.900000000000000000e+01 5.444017791748046875e+01 -2.719061851501464844e+01 6.440006732940673828e+00 7.604072570800781250e+00 4.213223934173583984e+00 -1.043661311268806458e-01
6.000000000000000000e+01 5.429485321044921875e+01 -2.705460739135742188e+01 5.554874897003173828e+00 6.492629051208496094e+00 3.614251136779785156e+00 -1.661114692687988281e-01
6.100000000000000000e+01 5.469531250000000000e+01 -2.750893020629882812e+01 1.099823665618896484e+01 1.099599266052246094e+01 6.598268985748291016e+00 1.594168096780776978e-01
6.200000000000000000e+01 5.452631378173828125e+01 -2.740377807617187500e+01 8.639387130737304688e+00 8.416721343994140625e+00 5.116832733154296875e+00 5.096248909831047058e-02
6.300000000000000000e+01 5.435731124877929688e+01 -2.729862785339355469e+01 7.210883617401123047e+00 6.866146564483642578e+00 4.223109245300292969e+00 -1.784734427928924561e-02
6.400000000000000000e+01 5.418831253051757812e+01 -2.719347572326660156e+01 6.284454345703125000e+00 5.859882354736328125e+00 3.643301010131835938e+00 -3.513388335704803467e-02
6.500000000000000000e+01 5.466947937011718750e+01 -2.756124114990234375e+01 1.173807048797607422e+01 1.027790164947509766e+01 6.604791641235351562e+00 7.903544902801513672e-01
6.600000000000000000e+01 5.448325729370117188e+01 -2.749096488952636719e+01 9.247007369995117188e+00 7.695271015167236328e+00 5.082683563232421875e+00 5.923203825950622559e-01
6.700000000000000000e+01 5.429703140258789062e+01 -2.742068672180175781e+01 7.792254924774169922e+00 6.322039127349853516e+00 4.234288215637207031e+00 4.941385090351104736e-01
6.800000000000000000e+01 5.411080551147460938e+01 -2.735041046142578125e+01 6.783421516418457031e+00 5.251612663269042969e+00 3.610510349273681641e+00 3.917152583599090576e-01
6.900000000000000000e+01 5.465431213378906250e+01 -2.761757850646972656e+01 1.199077796936035156e+01 9.750596046447753906e+00 6.522412300109863281e+00 1.686710596084594727e+00
7.000000000000000000e+01 5.445797348022460938e+01 -2.758485984802246094e+01 9.484045028686523438e+00 7.391256809234619141e+00 5.062590599060058594e+00 1.465637207031250000e+00
7.100000000000000000e+01 5.426163864135742188e+01 -2.755213928222656250e+01 7.934305191040039062e+00 5.960787296295166016e+00 4.168527603149414062e+00 1.228601694107055664e+00
7.200000000000000000e+01 5.406530380249023438e+01 -2.751942062377929688e+01 6.970185279846191406e+00 5.035914421081542969e+00 3.601829767227172852e+00 1.050125598907470703e+00
7.300000000000000000e+01 5.465039062500000000e+01 -2.767579078674316406e+01 1.178935909271240234e+01 9.753391265869140625e+00 6.462825298309326172e+00 2.784681797027587891e+00
7.400000000000000000e+01 5.445143890380859375e+01 -2.768187904357910156e+01 9.128553390502929688e+00 7.368073463439941406e+00 4.948987960815429688e+00 2.402828454971313477e+00
7.500000000000000000e+01 5.425248718261718750e+01 -2.768796539306640625e+01 7.666800498962402344e+00 6.086777687072753906e+00 4.126073360443115234e+00 2.070749044418334961e+00
7.600000000000000000e+01 5.405353927612304688e+01 -2.769405364990234375e+01 6.648045063018798828e+00 5.085632324218750000e+00 3.520103216171264648e+00 1.772298455238342285e+00
7.700000000000000000e+01 5.465786361694335938e+01 -2.773365211486816406e+01 1.093560028076171875e+01 1.005873489379882812e+01 6.298300743103027344e+00 3.830979108810424805e+00
7.800000000000000000e+01 5.446389389038085938e+01 -2.777831649780273438e+01 8.296586990356445312e+00 7.902673244476318359e+00 4.859777927398681641e+00 3.250627994537353516e+00
7.900000000000000000e+01 5.426992797851562500e+01 -2.782297897338867188e+01 6.864036560058593750e+00 6.445720195770263672e+00 3.992927074432373047e+00 2.765935182571411133e+00
8.000000000000000000e+01 5.407595825195312500e+01 -2.786764144897460938e+01 5.976077556610107422e+00 5.573962688446044922e+00 3.465012073516845703e+00 2.433374643325805664e+00
8.100000000000000000e+01 5.467644882202148438e+01 -2.778895759582519531e+01 9.553022384643554688e+00 1.096416282653808594e+01 6.155155658721923828e+00 4.641420841217041016e+00
8.200000000000000000e+01 5.449486923217773438e+01 -2.787048912048339844e+01 6.964779376983642578e+00 8.602398872375488281e+00 4.670153617858886719e+00 3.756994962692260742e+00
8.300000000000000000e+01 5.431328964233398438e+01 -2.795202255249023438e+01 5.720600605010986328e+00 7.221400260925292969e+00 3.882600307464599609e+00 3.196108818054199219e+00
8.400000000000000000e+01 5.413171386718750000e+01 -2.803355407714843750e+01 4.904524326324462891e+00 6.158879756927490234e+00 3.319021224975585938e+00 2.781908035278320312e+00
8.500000000000000000e+01 5.470543289184570312e+01 -2.783959197998046875e+01 7.663959503173828125e+00 1.201037597656250000e+01 5.902300834655761719e+00 4.966941833496093750e+00
8.600000000000000000e+01 5.454317474365234375e+01 -2.795487976074218750e+01 5.386389255523681641e+00 9.614614486694335938e+00 4.500301361083984375e+00 3.803438186645507812e+00
8.700000000000000000e+01 5.438092422485351562e+01 -2.807016754150390625e+01 4.317133426666259766e+00 7.946265220642089844e+00 3.679019689559936523e+00 3.186988592147827148e+00
8.800000000000000000e+01 5.421866989135742188e+01 -2.818545722961425781e+01 3.648507595062255859e+00 6.966983318328857422e+00 3.184647321701049805e+00 2.785985946655273438e+00
8.900000000000000000e+01 5.474370956420898438e+01 -2.788362121582031250e+01 5.567452907562255859e+00 1.330341911315917969e+01 5.661261558532714844e+00 4.621330261230468750e+00
9.000000000000000000e+01 5.460697555541992188e+01 -2.802826499938964844e+01 3.723091363906860352e+00 1.036861515045166016e+01 4.227511882781982422e+00 3.325285911560058594e+00
9.100000000000000000e+01 5.447023773193359375e+01 -2.817290687561035156e+01 2.901470184326171875e+00 8.743683815002441406e+00 3.493546247482299805e+00 2.717316627502441406e+00
9.200000000000000000e+01 5.433350372314453125e+01 -2.831754875183105469e+01 2.388094186782836914e+00 7.500494956970214844e+00 2.966576576232910156e+00 2.360980510711669922e+00
9.300000000000000000e+01 5.478982162475585938e+01 -2.791936683654785156e+01 3.517804622650146484e+00 1.413871002197265625e+01 5.296954631805419922e+00 3.611056566238403320e+00
9.400000000000000000e+01 5.468382644653320312e+01 -2.808784103393554688e+01 2.261212587356567383e+00 1.098937797546386719e+01 3.975177288055419922e+00 2.327356338500976562e+00
9.500000000000000000e+01 5.457783126831054688e+01 -2.825631332397460938e+01 1.652838230133056641e+00 9.053400039672851562e+00 3.211871385574340820e+00 1.862273216247558594e+00
9.600000000000000000e+01 5.447183609008789062e+01 -2.842478561401367188e+01 1.296411991119384766e+00 7.927125930786132812e+00 2.767061471939086914e+00 1.550747513771057129e+00
9.700000000000000000e+01 5.484200286865234375e+01 -2.794546318054199219e+01 1.937711358070373535e+00 1.460230827331542969e+01 4.962006092071533203e+00 1.904044628143310547e+00
9.800000000000000000e+01 5.477079391479492188e+01 -2.813133239746093750e+01 1.128743529319763184e+00 1.083558940887451172e+01 3.589299917221069336e+00 1.073940157890319824e+00
9.900000000000000000e+01 5.469958877563476562e+01 -2.831720352172851562e+01 7.819185256958007812e-01 9.104712486267089844e+00 2.965989351272583008e+00 6.856648325920104980e-01
1.000000000000000000e+02 5.462837982177734375e+01 -2.850307273864746094e+01 5.367824435234069824e-01 7.768836498260498047e+00 2.491685628890991211e+00 5.808568596839904785e-01
1.010000000000000000e+02 5.489826202392578125e+01 -2.796091270446777344e+01 8.568521738052368164e-01 1.396727180480957031e+01 4.447237014770507812e+00 2.816590666770935059e-02
1.020000000000000000e+02 5.486456298828125000e+01 -2.815708160400390625e+01 6.378889083862304688e-01 1.023869609832763672e+01 3.262975454330444336e+00 -4.453041255474090576e-01
1.030000000000000000e+02 5.483086395263671875e+01 -2.835325050354003906e+01 2.582506239414215088e-01 8.308435440063476562e+00 2.570005655288696289e+00 -3.873111307621002197e-01
1.040000000000000000e+02 5.479716110229492188e+01 -2.854941940307617188e+01 2.386790812015533447e-01 7.358314037322998047e+00 2.279097795486450195e+00 -4.879284203052520752e-01
1.050000000000000000e+02 5.495645523071289062e+01 -2.796512603759765625e+01 7.843210697174072266e-01 1.253908252716064453e+01 3.997021198272705078e+00 -1.963558077812194824e+00
1.060000000000000000e+02 5.496154785156250000e+01 -2.816410255432128906e+01 4.157868027687072754e-01 8.752211570739746094e+00 2.750399589538574219e+00 -1.615273118019104004e+00
1.070000000000000000e+02 5.496664047241210938e+01 -2.836308097839355469e+01 3.957212567329406738e-01 7.139049053192138672e+00 2.260431051254272461e+00 -1.469151973724365234e+00
1.080000000000000000e+02 5.497173309326171875e+01 -2.856205749511718750e+01 1.358071565628051758e-01 6.078917980194091797e+00 1.864417433738708496e+00 -1.162756323814392090e+00
1.090000000000000000e+02 5.501435470581054688e+01 -2.795793914794921875e+01 1.014487028121948242e+00 1.006756973266601562e+01 3.324617147445678711e+00 -3.308291673660278320e+00
1.100000000000000000e+02 5.505804443359375000e+01 -2.815212821960449219e+01 9.045147895812988281e-01 6.807160377502441406e+00 2.313502550125122070e+00 -2.537062406539916992e+00
1.110000000000000000e+02 5.510173797607421875e+01 -2.834631729125976562e+01 5.505820512771606445e-01 5.382295608520507812e+00 1.779863357543945312e+00 -1.940708279609680176e+00
1.120000000000000000e+02 5.514543151855468750e+01 -2.854050445556640625e+01 5.111407041549682617e-01 4.628386497497558594e+00 1.541858196258544922e+00 -1.748283386230468750e+00
1.130000000000000000e+02 5.506974792480468750e+01 -2.793963241577148438e+01 1.933260798454284668e+00 6.976891040802001953e+00 2.673045635223388672e+00 -3.982033729553222656e+00
1.140000000000000000e+02 5.515037536621093750e+01 -2.812161636352539062e+01 1.183833360671997070e+00 4.466169834136962891e+00 1.695000886917114258e+00 -2.626331806182861328e+00
1.150000000000000000e+02 5.523099899291992188e+01 -2.830360031127929688e+01 1.085467457771301270e+00 3.534609317779541016e+00 1.386023044586181641e+00 -2.076016426086425781e+00
1.160000000000000000e+02 5.531161880493164062e+01 -2.848558235168457031e+01 6.270076632499694824e-01 3.050727128982543945e+00 1.103320479393005371e+00 -1.634078383445739746e+00
1.170000000000000000e+02 5.512052536010742188e+01 -2.791090202331542969e+01 2.357340335845947266e+00 3.646076202392578125e+00 1.801024913787841797e+00 -3.478741645812988281e+00
1.180000000000000000e+02 5.523500442504882812e+01 -2.807373046875000000e+01 1.580679774284362793e+00 2.111253976821899414e+00 1.107580184936523438e+00 -2.123334884643554688e+00
1.190000000000000000e+02 5.534947967529296875e+01 -2.823656082153320312e+01 1.008000493049621582e+00 1.908566474914550781e+00 8.749700784683227539e-01 -1.436293125152587891e+00
1.200000000000000000e+02 5.546395492553710938e+01 -2.839938926696777344e+01 8.559803366661071777e-01 1.776581645011901855e+00 7.897685766220092773e-01 -1.343730211257934570e+00
1.210000000000000000e+02 5.516474914550781250e+01 -2.787284469604492188e+01 2.358313322067260742e+00 1.024234071373939514e-01 7.382210493087768555e-01 -1.987731575965881348e+00
1.220000000000000000e+02 5.530870437622070312e+01 -2.801030158996582031e+01 8.748194575309753418e-01 5.959022641181945801e-01 4.412165284156799316e-01 -6.573168039321899414e-01
1.230000000000000000e+02 5.545266342163085938e+01 -2.814775848388671875e+01 6.688919067382812500e-01 8.783316016197204590e-01 4.641670584678649902e-01 -8.829246759414672852e-01
1.240000000000000000e+02 5.559661865234375000e+01 -2.828521537780761719e+01 5.431762337684631348e-01 6.379650235176086426e-01 3.543423712253570557e-01 -5.894041657447814941e-01
1.250000000000000000e+02 5.520072555541992188e+01 -2.782691192626953125e+01 -7.715880870819091797e-01 -1.749281764030456543e+00 -7.562609910964965820e-01 1.074081778526306152e+00
1.260000000000000000e+02 5.536866378784179688e+01 -2.793375015258789062e+01 -7.797598093748092651e-02 3.178890645503997803e-01 7.197392731904983521e-02 -9.888705611228942871e-02
1.270000000000000000e+02 5.553660583496093750e+01 -2.804058647155761719e+01 -1.703722476959228516e-01 -6.788728386163711548e-02 -7.147786021232604980e-02 1.020251438021659851e-01
1.280000000000000000e+02 5.570454788208007812e+01 -2.814742279052734375e+01 -2.595717012882232666e-01 -5.343883857131004333e-02 -9.390316903591156006e-02 6.773271411657333374e-02
1.290000000000000000e+02 5.654518508911132812e+01 -2.691181564331054688e+01 3.574019670486450195e+00 2.458453625440597534e-01 1.145959496498107910e+00 2.062593460083007812e+00
1.300000000000000000e+02 5.360322189331054688e+01 -2.747988128662109375e+01 5.464405059814453125e+00 3.631027936935424805e+00 2.728629827499389648e+00 7.983703613281250000e-01
1.310000000000000000e+02 5.398663711547851562e+01 -2.816950416564941406e+01 4.137733936309814453e+00 5.663355827331542969e+00 2.940326929092407227e+00 2.528568029403686523e+00
1.320000000000000000e+02 5.625227737426757812e+01 -2.968245315551757812e+01 1.418828219175338745e-01 6.771609783172607422e-01 2.457131445407867432e-01 -3.047474324703216553e-01
1.330000000000000000e+02 5.416808700561523438e+01 -2.856797790527343750e+01 1.670225858688354492e+00 6.443459987640380859e+00 2.434105634689331055e+00 1.778356909751892090e+00
1.340000000000000000e+02 5.456258010864257812e+01 -2.633039665222167969e+01 2.837521076202392578e+00 5.497152805328369141e+00 2.500402212142944336e+00 1.216705799102783203e+00
1.350000000000000000e+02 5.685884475708007812e+01 -2.799005889892578125e+01 1.435487419366836548e-01 -8.719871193170547485e-02 1.690500788390636444e-02 -1.418936159461736679e-02
1.360000000000000000e+02 5.577348327636718750e+01 -2.672810363769531250e+01 4.759980201721191406e+00 1.833435654640197754e+00 1.978024721145629883e+00 3.487292051315307617e+00
1.370000000000000000e+02 5.511498641967773438e+01 -2.656733894348144531e+01 3.614566802978515625e+00 5.434701442718505859e+00 2.714780569076538086e+00 3.250551462173461914e+00
1.380000000000000000e+02 5.385432052612304688e+01 -2.749619102478027344e+01 6.191274166107177734e+00 4.311664581298828125e+00 3.150881767272949219e+00 9.556529521942138672e-01
1.390000000000000000e+02 5.385221862792968750e+01 -2.787929534912109375e+01 5.405884265899658203e+00 4.662172794342041016e+00 3.020417213439941406e+00 2.048936367034912109e+00
1.400000000000000000e+02 5.518302917480468750e+01 -2.874579429626464844e+01 2.269603163003921509e-01 4.108752727508544922e+00 1.300713896751403809e+00 -1.377227425575256348e+00
1.410000000000000000e+02 5.547657012939453125e+01 -2.893774795532226562e+01 2.274170815944671631e-01 2.764633893966674805e+00 8.976153135299682617e-01 -1.136842489242553711e+00
1.420000000000000000e+02 5.538980102539062500e+01 -2.870267677307128906e+01 5.677933692932128906e-01 2.944297313690185547e+00 1.053627133369445801e+00 -1.482357978820800781e+00
1.430000000000000000e+02 5.633080291748046875e+01 -2.992668914794921875e+01 -6.685560345649719238e-01 4.785474538803100586e-01 -5.700256675481796265e-02 4.992997050285339355e-01
1.440000000000000000e+02 5.578849792480468750e+01 -2.934331321716308594e+01 6.837359070777893066e-02 2.036114931106567383e+00 6.313465237617492676e-01 -7.356709837913513184e-01
1.450000000000000000e+02 5.622611236572265625e+01 -2.843104743957519531e+01 -1.496557891368865967e-01 -7.806684076786041260e-02 -6.831678748130798340e-02 1.398749947547912598e-01
1.460000000000000000e+02 5.629095077514648438e+01 -2.871011352539062500e+01 1.242299824953079224e-01 -2.273886837065219879e-02 3.044733405113220215e-02 2.808836847543716431e-02
1.470000000000000000e+02 5.587572097778320312e+01 -2.825236511230468750e+01 -2.757883071899414062e-01 -6.987967062741518021e-03 -8.483287692070007324e-02 1.440820842981338501e-01
1.480000000000000000e+02 5.389965438842773438e+01 -2.730857658386230469e+01 6.088289737701416016e+00 4.528724670410156250e+00 3.185104370117187500e+00 3.650895655155181885e-01
1.490000000000000000e+02 5.402175140380859375e+01 -2.846287727355957031e+01 2.500852823257446289e+00 5.996681213378906250e+00 2.549260377883911133e+00 2.161544561386108398e+00
1.500000000000000000e+02 5.440538406372070312e+01 -2.874179649353027344e+01 7.172822952270507812e-01 6.692662239074707031e+00 2.222983360290527344e+00 8.927860260009765625e-01
1.510000000000000000e+02 5.479382705688476562e+01 -2.878940963745117188e+01 3.001090697944164276e-02 6.153027057647705078e+00 1.854911327362060547e+00 -5.274784564971923828e-01
1.520000000000000000e+02 5.499255371093750000e+01 -2.877785682678222656e+01 1.012491211295127869e-01 5.527727603912353516e+00 1.688692927360534668e+00 -1.192875504493713379e+00
1.530000000000000000e+02 5.576181030273437500e+01 -2.844030380249023438e+01 4.467470645904541016e-01 4.933141767978668213e-01 2.820183634757995605e-01 -5.173541307449340820e-01
1.540000000000000000e+02 5.643116760253906250e+01 -2.744631195068359375e+01 2.514480829238891602e+00 1.515832729637622833e-02 7.588917016983032227e-01 9.665799736976623535e-01
1.550000000000000000e+02 5.582773208618164062e+01 -2.701430702209472656e+01 5.223589420318603516e+00 9.237713813781738281e-01 1.844208240509033203e+00 2.943705081939697266e+00
1.560000000000000000e+02 5.553218841552734375e+01 -2.676885795593261719e+01 4.839644908905029297e+00 3.074952602386474609e+00 2.374379158020019531e+00 3.915606737136840820e+00
1.570000000000000000e+02 5.513375091552734375e+01 -2.631664276123046875e+01 3.149687767028808594e+00 4.672056198120117188e+00 2.346523284912109375e+00 2.903288602828979492e+00
1.580000000000000000e+02 5.430103683471679688e+01 -2.681705665588378906e+01 4.404241561889648438e+00 6.306252956390380859e+00 3.213148355484008789e+00 5.550957843661308289e-02
1.590000000000000000e+02 5.604570007324218750e+01 -2.783761405944824219e+01 1.386306166648864746e+00 -6.462970376014709473e-02 3.965029418468475342e-01 2.428971603512763977e-02
1.600000000000000000e+02 5.650962066650390625e+01 -2.831739234924316406e+01 -1.186378002166748047e-01 4.814113676548004150e-02 -2.114899829030036926e-02 3.983878716826438904e-02
1.610000000000000000e+02 5.668997573852539062e+01 -2.838942527770996094e+01 -7.299128919839859009e-02 -1.028856821358203888e-02 -2.498395740985870361e-02 -2.775791287422180176e-02
1.620000000000000000e+02 5.660156250000000000e+01 -2.724617576599121094e+01 2.915969371795654297e+00 7.979116588830947876e-02 8.987281322479248047e-01 1.429152369499206543e+00
1.630000000000000000e+02 5.710595703125000000e+01 -2.716718673706054688e+01 2.439853668212890625e+00 1.628942489624023438e-01 7.808243632316589355e-01 1.507315993309020996e+00
1.640000000000000000e+02 5.726997756958007812e+01 -2.723092269897460938e+01 1.354825258255004883e+00 1.087644100189208984e+00 7.327408194541931152e-01 1.624714612960815430e+00
1.650000000000000000e+02 5.741547393798828125e+01 -2.732215690612792969e+01 -1.552899330854415894e-01 6.133086681365966797e-01 1.374056190252304077e-01 5.215485692024230957e-01
1.660000000000000000e+02 5.586183929443359375e+01 -2.965150070190429688e+01 -4.772827401757240295e-02 2.294824838638305664e+00 6.741290092468261719e-01 -7.312229871749877930e-01
1.670000000000000000e+02 5.603022766113281250e+01 -2.975000190734863281e+01 -1.651590690016746521e-02 1.768307566642761230e+00 5.255374908447265625e-01 -7.373195290565490723e-01
1.680000000000000000e+02 5.640029907226562500e+01 -2.852115249633789062e+01 -4.958531633019447327e-02 -8.694972097873687744e-02 -4.096051305532455444e-02 9.639891982078552246e-02
1.690000000000000000e+02 5.658101272583007812e+01 -2.860686683654785156e+01 -6.507567130029201508e-03 -6.310006976127624512e-02 -2.088228985667228699e-02 2.072216756641864777e-02
1.700000000000000000e+02 5.635384750366210938e+01 -2.975328826904296875e+01 6.127892732620239258e-01 1.236503124237060547e+00 5.547877550125122070e-01 -1.452822834253311157e-01
1.710000000000000000e+02 5.426875305175781250e+01 -2.661838722229003906e+01 3.737240791320800781e+00 5.645208835601806641e+00 2.814734935760498047e+00 1.861327439546585083e-01
1.720000000000000000e+02 5.444332885742187500e+01 -2.670813560485839844e+01 3.828636646270751953e+00 6.578819274902343750e+00 3.122236728668212891e+00 5.861412286758422852e-01
1.730000000000000000e+02 5.383909225463867188e+01 -2.768927574157714844e+01 6.002561569213867188e+00 4.365428924560546875e+00 3.110397100448608398e+00 1.566661357879638672e+00
1.740000000000000000e+02 5.605141448974609375e+01 -2.834449958801269531e+01 -2.376600652933120728e-01 -8.776871114969253540e-02 -9.762863069772720337e-02 1.541355103254318237e-01
1.750000000000000000e+02 5.607270050048828125e+01 -2.761764526367187500e+01 2.648395061492919922e+00 -1.941242963075637817e-01 7.362812161445617676e-01 3.918201923370361328e-01
1.760000000000000000e+02 5.598160552978515625e+01 -2.804255867004394531e+01 3.991313651204109192e-02 -1.065933629870414734e-01 -2.000406756997108459e-02 4.642397165298461914e-02
1.770000000000000000e+02 5.433335494995117188e+01 -2.856122970581054688e+01 1.208406686782836914e+00 7.120445728302001953e+00 2.498655796051025391e+00 1.478394865989685059e+00
1.780000000000000000e+02 5.567308807373046875e+01 -2.646142196655273438e+01 4.162446498870849609e+00 2.527136087417602539e+00 2.006874799728393555e+00 3.551325321197509766e+00
1.790000000000000000e+02 5.409638977050781250e+01 -2.831193542480468750e+01 3.089570283889770508e+00 6.320250034332275391e+00 2.822946071624755859e+00 2.453813552856445312e+00
1.800000000000000000e+02 5.492235183715820312e+01 -2.655537605285644531e+01 3.337441682815551758e+00 6.101403236389160156e+00 2.831653356552124023e+00 2.526571273803710938e+00
1.810000000000000000e+02 5.361219787597656250e+01 -2.805254364013671875e+01 4.437610149383544922e+00 4.018642425537109375e+00 2.536875724792480469e+00 1.949165701866149902e+00
1.820000000000000000e+02 5.473260879516601562e+01 -2.657011222839355469e+01 3.285683155059814453e+00 6.487214565277099609e+00 2.931869268417358398e+00 1.719779849052429199e+00
1.830000000000000000e+02 5.459716415405273438e+01 -2.873853874206542969e+01 3.217664361000061035e-01 6.927289485931396484e+00 2.174716711044311523e+00 2.668354511260986328e-01
1.840000000000000000e+02 5.640764617919921875e+01 -2.898233413696289062e+01 5.520883947610855103e-02 -9.986662119626998901e-02 -1.339733414351940155e-02 -1.056938990950584412e-01
1.850000000000000000e+02 5.386108779907226562e+01 -2.679570198059082031e+01 4.526180744171142578e+00 4.504740715026855469e+00 2.709276437759399414e+00 -2.402647733688354492e-01
1.860000000000000000e+02 5.417686462402343750e+01 -2.693712997436523438e+01 5.085409164428710938e+00 5.783408164978027344e+00 3.260645151138305664e+00 -1.623407304286956787e-01
1.870000000000000000e+02 5.635799026489257812e+01 -2.822270393371582031e+01 -1.622839421033859253e-01 -3.940135985612869263e-02 -6.050559133291244507e-02 5.222973227500915527e-02
1.880000000000000000e+02 5.637345886230468750e+01 -2.681347846984863281e+01 4.033336162567138672e+00 3.373833596706390381e-01 1.311215758323669434e+00 2.363744974136352539e+00
1.890000000000000000e+02 5.594822692871093750e+01 -2.719292831420898438e+01 4.828269958496093750e+00 2.115360200405120850e-01 1.511941909790039062e+00 2.101479053497314453e+00
1.900000000000000000e+02 5.515459060668945312e+01 -2.928931808471679688e+01 -7.799851149320602417e-02 4.091537475585937500e+00 1.204061627388000488e+00 -1.101767182350158691e+00
1.910000000000000000e+02 5.400473403930664062e+01 -2.698841857910156250e+01 5.220694541931152344e+00 5.086070537567138672e+00 3.092029571533203125e+00 -1.694766879081726074e-01
1.920000000000000000e+02 5.396923446655273438e+01 -2.713584899902343750e+01 5.688131809234619141e+00 4.858370780944824219e+00 3.163950920104980469e+00 -3.666995838284492493e-02
1.930000000000000000e+02 5.438934326171875000e+01 -2.635553741455078125e+01 2.977129220962524414e+00 5.482380867004394531e+00 2.537853002548217773e+00 6.492176055908203125e-01
1.940000000000000000e+02 5.425207901000976562e+01 -2.886829948425292969e+01 8.036948442459106445e-01 6.232276916503906250e+00 2.110791444778442383e+00 1.063387632369995117e+00
1.950000000000000000e+02 5.359509277343750000e+01 -2.786489868164062500e+01 4.944990634918212891e+00 3.906130552291870117e+00 2.655336380004882812e+00 1.701524972915649414e+00
1.960000000000000000e+02 5.474942779541015625e+01 -2.631241798400878906e+01 2.833953380584716797e+00 5.419261932373046875e+00 2.475964546203613281e+00 1.772799968719482422e+00
1.970000000000000000e+02 5.415158081054687500e+01 -2.673979759216308594e+01 4.287548542022705078e+00 5.437067031860351562e+00 2.917384624481201172e+00 -9.332559257745742798e-02
1.980000000000000000e+02 5.393904495239257812e+01 -2.863471412658691406e+01 1.984002828598022461e+00 5.655694961547851562e+00 2.291909217834472656e+00 1.832649350166320801e+00
1.990000000000000000e+02 5.377255630493164062e+01 -2.825279235839843750e+01 3.605860233306884766e+00 4.876397609710693359e+00 2.544677257537841797e+00 2.251014471054077148e+00
2.000000000000000000e+02 5.370047378540039062e+01 -2.711193847656250000e+01 5.221275329589843750e+00 3.808620214462280273e+00 2.708968639373779297e+00 3.914479166269302368e-02
2.010000000000000000e+02 5.376991653442382812e+01 -2.694795608520507812e+01 4.913229465484619141e+00 4.041830062866210938e+00 2.686517953872680664e+00 -2.114691585302352905e-01
2.020000000000000000e+02 5.364242935180664062e+01 -2.729015922546386719e+01 5.424383163452148438e+00 3.636537075042724609e+00 2.718276023864746094e+00 3.663373589515686035e-01
2.030000000000000000e+02 5.532047271728515625e+01 -2.634882736206054688e+01 3.452728509902954102e+00 4.052273273468017578e+00 2.251500368118286133e+00 3.279952287673950195e+00
2.040000000000000000e+02 5.424486541748046875e+01 -2.642120933532714844e+01 3.218255758285522461e+00 5.155265808105468750e+00 2.512056589126586914e+00 2.863453030586242676e-01
2.050000000000000000e+02 5.440394210815429688e+01 -2.895554924011230469e+01 2.254440784454345703e-01 6.191897869110107422e+00 1.925202608108520508e+00 4.130332171916961670e-01
2.060000000000000000e+02 5.389632797241210938e+01 -2.834712982177734375e+01 3.112961530685424805e+00 5.436984539031982422e+00 2.564983844757080078e+00 2.281113147735595703e+00
2.070000000000000000e+02 5.529972457885742188e+01 -2.660517883300781250e+01 4.029154300689697266e+00 4.455400466918945312e+00 2.545366525650024414e+00 3.698457241058349609e+00
2.080000000000000000e+02 5.549843978881835938e+01 -2.639501190185546875e+01 3.788499832153320312e+00 3.370311021804809570e+00 2.147643327713012695e+00 3.520431518554687500e+00
2.090000000000000000e+02 5.546757125854492188e+01 -2.661537551879882812e+01 4.308904647827148438e+00 3.526247978210449219e+00 2.350545644760131836e+00 3.796454191207885742e+00
2.100000000000000000e+02 5.567895507812500000e+01 -2.687508773803710938e+01 5.177452564239501953e+00 1.930580377578735352e+00 2.132409811019897461e+00 3.629345893859863281e+00
2.110000000000000000e+02 5.477013397216796875e+01 -2.908215141296386719e+01 1.566304825246334076e-02 5.498578071594238281e+00 1.654272317886352539e+00 -5.492454171180725098e-01
2.120000000000000000e+02 5.457757568359375000e+01 -2.901275062561035156e+01 5.547563359141349792e-02 5.905851840972900391e+00 1.788398265838623047e+00 -3.291104733943939209e-02
2.130000000000000000e+02 5.533289337158203125e+01 -2.938415718078613281e+01 -2.401906438171863556e-02 3.307620525360107422e+00 9.850804805755615234e-01 -1.130671501159667969e+00
2.140000000000000000e+02 5.602384948730468750e+01 -2.664042091369628906e+01 4.403500556945800781e+00 1.166459321975708008e+00 1.670987963676452637e+00 3.120069265365600586e+00
2.150000000000000000e+02 5.594377899169921875e+01 -2.684210014343261719e+01 4.763869285583496094e+00 9.809337258338928223e-01 1.723441004753112793e+00 3.006055116653442383e+00
2.160000000000000000e+02 5.496928787231445312e+01 -2.917804527282714844e+01 -1.148016657680273056e-02 4.616165637969970703e+00 1.381405711174011230e+00 -9.475302696228027344e-01
2.170000000000000000e+02 5.698878479003906250e+01 -2.745944213867187500e+01 1.256515145301818848e+00 2.061846703290939331e-01 4.388099312782287598e-01 9.404835700988769531e-01
2.180000000000000000e+02 5.714101028442382812e+01 -2.733804893493652344e+01 9.814683198928833008e-01 5.393572449684143066e-01 4.562476873397827148e-01 1.049116134643554688e+00
2.190000000000000000e+02 5.698920059204101562e+01 -2.779552650451660156e+01 2.655240595340728760e-01 -5.413053557276725769e-02 6.341806054115295410e-02 1.143178567290306091e-01
2.200000000000000000e+02 5.714473342895507812e+01 -2.763143730163574219e+01 3.114987015724182129e-01 1.180219128727912903e-01 1.288561820983886719e-01 3.212154507637023926e-01
2.210000000000000000e+02 5.728363418579101562e+01 -2.747574996948242188e+01 5.392407774925231934e-01 4.159981608390808105e-01 2.865716814994812012e-01 4.450952410697937012e-01
2.220000000000000000e+02 5.618688583374023438e+01 -2.811725807189941406e+01 -5.439320579171180725e-02 1.929046586155891418e-03 -1.573924720287322998e-02 1.195069029927253723e-01
2.230000000000000000e+02 5.631932449340820312e+01 -2.764617919921875000e+01 2.045592308044433594e+00 1.185436919331550598e-02 6.172339916229248047e-01 4.124462604522705078e-01
2.240000000000000000e+02 5.511255264282226562e+01 -2.894426727294921875e+01 1.259251981973648071e-01 4.559395313262939453e+00 1.405596137046813965e+00 -1.225867152214050293e+00
2.250000000000000000e+02 5.680857849121093750e+01 -2.757972526550292969e+01 1.264049172401428223e+00 1.449499726295471191e-01 4.226997494697570801e-01 6.711976528167724609e-01
2.260000000000000000e+02 5.625436019897460938e+01 -2.728451919555664062e+01 3.622354984283447266e+00 -5.344997346401214600e-02 1.070671439170837402e+00 1.403418302536010742e+00
2.270000000000000000e+02 5.633915328979492188e+01 -2.919549560546875000e+01 -6.032495200634002686e-02 6.538683921098709106e-02 1.518567325547337532e-03 -1.343582272529602051e-01
2.280000000000000000e+02 5.628521347045898438e+01 -2.788607406616210938e+01 9.862531423568725586e-01 -2.215050347149372101e-02 2.892307937145233154e-01 3.444441407918930054e-02
2.290000000000000000e+02 5.603716659545898438e+01 -2.739838981628417969e+01 3.883146762847900391e+00 -7.456001639366149902e-02 1.142575979232788086e+00 1.173810839653015137e+00
2.300000000000000000e+02 5.559976959228515625e+01 -2.859838485717773438e+01 5.559679865837097168e-01 1.463611125946044922e+00 6.058737635612487793e-01 -9.738863706588745117e-01
2.310000000000000000e+02 5.573618698120117188e+01 -2.885892295837402344e+01 5.033099651336669922e-01 1.496954560279846191e+00 6.000793576240539551e-01 -8.907369971275329590e-01
2.320000000000000000e+02 5.581570053100585938e+01 -2.911875152587890625e+01 9.241122752428054810e-02 1.644230961799621582e+00 5.209926366806030273e-01 -7.081689834594726562e-01
2.330000000000000000e+02 5.546017837524414062e+01 -2.915818214416503906e+01 1.818189769983291626e-01 2.943856000900268555e+00 9.377024769783020020e-01 -1.151777148246765137e+00
2.340000000000000000e+02 5.656550216674804688e+01 -2.791726684570312500e+01 5.551099777221679688e-01 1.922565400600433350e-01 2.242099493741989136e-01 1.260593682527542114e-01
2.350000000000000000e+02 5.654350280761718750e+01 -2.814229774475097656e+01 -5.039462819695472717e-02 1.505294293165206909e-01 3.004043921828269958e-02 -6.731700152158737183e-02
2.360000000000000000e+02 5.618510437011718750e+01 -2.984778022766113281e+01 -3.731034398078918457e-01 2.080211400985717773e+00 5.121323466300964355e-01 -8.080253750085830688e-02
2.370000000000000000e+02 5.635490036010742188e+01 -2.959037971496582031e+01 -5.473448634147644043e-01 7.269330024719238281e-01 5.387644097208976746e-02 7.846425287425518036e-03
2.380000000000000000e+02 5.562942886352539062e+01 -2.924951171875000000e+01 1.110278442502021790e-01 2.336406469345092773e+00 7.342302799224853516e-01 -1.040261626243591309e+00
2.390000000000000000e+02 5.568458557128906250e+01 -2.956339454650878906e+01 -1.177701503038406372e-01 2.460956335067749023e+00 7.029558420181274414e-01 -1.005722761154174805e+00
2.400000000000000000e+02 5.550866699218750000e+01 -2.947448539733886719e+01 3.441896289587020874e-02 3.001170396804809570e+00 9.106768369674682617e-01 -1.084076523780822754e+00
2.410000000000000000e+02 5.528673934936523438e+01 -2.906507682800292969e+01 2.203717529773712158e-01 3.554943561553955078e+00 1.132594585418701172e+00 -1.326564431190490723e+00
2.420000000000000000e+02 5.422314071655273438e+01 -2.843817710876464844e+01 2.161633253097534180e+00 7.009149074554443359e+00 2.751234769821166992e+00 2.137856483459472656e+00
2.430000000000000000e+02 5.409598922729492188e+01 -2.875154495239257812e+01 1.338282942771911621e+00 6.024216175079345703e+00 2.208749771118164062e+00 1.463926553726196289e+00
2.440000000000000000e+02 5.381055831909179688e+01 -2.850336837768554688e+01 2.654399633407592773e+00 5.167684555053710938e+00 2.346625328063964844e+00 2.044009208679199219e+00
2.450000000000000000e+02 5.370184707641601562e+01 -2.837149047851562500e+01 3.127719163894653320e+00 4.741932392120361328e+00 2.360895395278930664e+00 2.100386619567871094e+00
2.460000000000000000e+02 5.363664627075195312e+01 -2.822661399841308594e+01 3.800804853439331055e+00 4.360383987426757812e+00 2.448356628417968750e+00 2.121788978576660156e+00
2.470000000000000000e+02 5.382940673828125000e+01 -2.807462882995605469e+01 4.497796058654785156e+00 4.942481517791748047e+00 2.832083225250244141e+00 2.246787309646606445e+00
2.480000000000000000e+02 5.607039260864257812e+01 -2.914912796020507812e+01 1.690724045038223267e-01 1.091216325759887695e+00 3.780866265296936035e-01 -5.126791596412658691e-01
2.490000000000000000e+02 5.358806991577148438e+01 -2.767362785339355469e+01 5.330927371978759766e+00 3.759899139404296875e+00 2.727247953414916992e+00 1.272134304046630859e+00
2.500000000000000000e+02 5.398021697998046875e+01 -2.665571022033691406e+01 4.073656558990478516e+00 4.798041343688964844e+00 2.661509513854980469e+00 -1.659457534551620483e-01
2.510000000000000000e+02 5.411288070678710938e+01 -2.652998733520507812e+01 3.601109027862548828e+00 5.047899723052978516e+00 2.594702720642089844e+00 5.347646307200193405e-03
2.520000000000000000e+02 5.691535186767578125e+01 -2.710697746276855469e+01 2.722737073898315430e+00 2.329227030277252197e-01 8.866978883743286133e-01 1.651949048042297363e+00
2.530000000000000000e+02 5.453931045532226562e+01 -2.654905509948730469e+01 3.364887475967407227e+00 6.224328517913818359e+00 2.876764774322509766e+00 1.022364497184753418e+00
2.540000000000000000e+02 5.494048690795898438e+01 -2.630427551269531250e+01 2.926636457443237305e+00 5.198762893676757812e+00 2.437619686126708984e+00 2.387725830078125000e+00
2.550000000000000000e+02 5.584814071655273438e+01 -2.654862213134765625e+01 4.329656600952148438e+00 1.758989453315734863e+00 1.826593875885009766e+00 3.369923830032348633e+00
2.560000000000000000e+02 5.611991500854492188e+01 -2.691657066345214844e+01 4.532373905181884766e+00 4.983327388763427734e-01 1.509212017059326172e+00 2.568264722824096680e+00
2.570000000000000000e+02 5.619988632202148438e+01 -2.672572708129882812e+01 4.317960739135742188e+00 6.927055120468139648e-01 1.503199934959411621e+00 2.796169757843017578e+00
2.580000000000000000e+02 5.672340774536132812e+01 -2.701193618774414062e+01 3.138564348220825195e+00 1.472578495740890503e-01 9.857466816902160645e-01 1.800819516181945801e+00
2.590000000000000000e+02 5.642091751098632812e+01 -2.711036872863769531e+01 3.540388107299804688e+00 9.242560714483261108e-02 1.089844107627868652e+00 1.757040143013000488e+00
2.600000000000000000e+02 5.649093627929687500e+01 -2.879072952270507812e+01 2.569179609417915344e-02 -1.417831778526306152e-01 -3.482741490006446838e-02 -4.772322718054056168e-03
2.610000000000000000e+02 5.616351318359375000e+01 -2.890729904174804688e+01 1.917807012796401978e-01 3.235801160335540771e-01 1.546082496643066406e-01 -1.416774094104766846e-01
2.620000000000000000e+02 5.597362899780273438e+01 -2.874987030029296875e+01 2.502799034118652344e-01 6.404131650924682617e-01 2.672079205513000488e-01 -3.063332438468933105e-01
2.630000000000000000e+02 5.612328720092773438e+01 -2.860913276672363281e+01 1.725971549749374390e-01 -1.644809730350971222e-02 4.684471711516380310e-02 -7.632948923856019974e-03
2.640000000000000000e+02 5.595238494873046875e+01 -2.854021453857421875e+01 3.158301413059234619e-01 4.879890084266662598e-01 2.411457449197769165e-01 -2.336144447326660156e-01
2.650000000000000000e+02 5.677455902099609375e+01 -2.819868278503417969e+01 -1.634673587977886200e-02 -5.555119365453720093e-02 -2.156937867403030396e-02 -7.961708307266235352e-02
2.660000000000000000e+02 5.561876296997070312e+01 -2.663775634765625000e+01 4.466778755187988281e+00 2.587515354156494141e+00 2.116288185119628906e+00 3.662120342254638672e+00
2.670000000000000000e+02 5.404593276977539062e+01 -2.686213302612304688e+01 4.665865898132324219e+00 5.116915702819824219e+00 2.934834480285644531e+00 -2.033149003982543945e-01
2.680000000000000000e+02 5.436370468139648438e+01 -2.649341583251953125e+01 3.296754598617553711e+00 5.687415599822998047e+00 2.695250988006591797e+00 4.968367516994476318e-01
2.690000000000000000e+02 5.598120117187500000e+01 -2.941415405273437500e+01 -1.369630694389343262e-01 1.490827798843383789e+00 4.061594009399414062e-01 -5.749144554138183594e-01
2.700000000000000000e+02 5.681282043457031250e+01 -2.734026145935058594e+01 2.049379348754882812e+00 8.942664414644241333e-02 6.416417360305786133e-01 1.097092866897583008e+00
2.710000000000000000e+02 5.613308334350585938e+01 -2.710209846496582031e+01 4.388070583343505859e+00 2.462369203567504883e-01 1.390292286872863770e+00 2.086061477661132812e+00
2.720000000000000000e+02 5.627462005615234375e+01 -2.698749351501464844e+01 4.023738861083984375e+00 2.216320782899856567e-01 1.273611187934875488e+00 2.149909734725952148e+00
2.730000000000000000e+02 5.656734848022460938e+01 -2.765060234069824219e+01 1.425671696662902832e+00 3.951440006494522095e-02 4.395558238029479980e-01 4.700742363929748535e-01
2.740000000000000000e+02 5.614300155639648438e+01 -2.954284286499023438e+01 -2.180013209581375122e-01 1.470740437507629395e+00 3.758217096328735352e-01 -3.289282619953155518e-01
2.750000000000000000e+02 5.632644271850585938e+01 -2.941045761108398438e+01 1.256001293659210205e-01 3.071698248386383057e-01 1.298309862613677979e-01 -1.872365474700927734e-01
2.760000000000000000e+02 5.665493011474609375e+01 -2.660021209716796875e+01 3.754770517349243164e+00 4.300883412361145020e-01 1.255457639694213867e+00 2.387664556503295898e+00
2.770000000000000000e+02 5.673225402832031250e+01 -2.618586921691894531e+01 3.704529523849487305e+00 7.563540339469909668e-01 1.338265061378479004e+00 2.679075717926025391e+00
2.780000000000000000e+02 5.804490280151367188e+01 -2.367693138122558594e+01 2.150718450546264648e+00 1.120645642280578613e+00 9.814092516899108887e-01 1.883474230766296387e+00
2.790000000000000000e+02 6.004259872436523438e+01 -2.431342315673828125e+01 4.360865116119384766e+00 2.566908836364746094e+00 2.078332185745239258e+00 3.340939044952392578e+00
2.800000000000000000e+02 6.265817642211914062e+01 -2.301168060302734375e+01 3.206407070159912109e+00 7.964824438095092773e-01 1.200866937637329102e+00 1.425243496894836426e+00
2.810000000000000000e+02 6.405813598632812500e+01 -2.271923255920410156e+01 1.585127234458923340e+00 2.065977007150650024e-01 5.375174880027770996e-01 8.398131132125854492e-01
2.820000000000000000e+02 6.351079177856445312e+01 -2.061971664428710938e+01 -3.320947661995887756e-02 1.377424716949462891e+00 4.032645821571350098e-01 1.442638039588928223e+00
2.830000000000000000e+02 6.253894805908203125e+01 -1.885167694091796875e+01 -1.345472097396850586e+00 1.364727735519409180e+00 5.776699632406234741e-03 7.996576428413391113e-01
2.840000000000000000e+02 6.254082489013671875e+01 -1.691977882385253906e+01 -1.271899580955505371e+00 9.704024195671081543e-01 -9.044916927814483643e-02 6.064669042825698853e-02
2.850000000000000000e+02 6.407250213623046875e+01 -1.601290893554687500e+01 -7.010686993598937988e-01 1.034350752830505371e+00 9.998460859060287476e-02 2.042862027883529663e-01
2.860000000000000000e+02 6.531671142578125000e+01 -1.367588043212890625e+01 -1.320396363735198975e-01 1.062819719314575195e+00 2.792340219020843506e-01 3.175218105316162109e-01
2.870000000000000000e+02 6.513571929931640625e+01 -1.277848720550537109e+01 3.943184856325387955e-03 1.109105348587036133e+00 3.339145779609680176e-01 3.958737552165985107e-01
2.880000000000000000e+02 6.457567596435546875e+01 -1.331813621520996094e+01 -2.247559092938899994e-02 1.034039616584777832e+00 3.034692108631134033e-01 4.109702706336975098e-01
2.890000000000000000e+02 5.780968093872070312e+01 -2.676587104797363281e+01 2.202093601226806641e+00 2.038820505142211914e+00 1.272274255752563477e+00 2.041805028915405273e+00
2.900000000000000000e+02 6.600114440917968750e+01 -2.054192924499511719e+01 9.126415848731994629e-02 7.716932892799377441e-01 2.588872313499450684e-01 8.560423851013183594e-01
2.910000000000000000e+02 6.659905242919921875e+01 -2.154911422729492188e+01 5.471827983856201172e-01 3.557668924331665039e-01 2.708849012851715088e-01 5.594355463981628418e-01
2.920000000000000000e+02 6.563216400146484375e+01 -1.826159858703613281e+01 -5.189415812492370605e-01 1.065563082695007324e+00 1.639864444732666016e-01 7.063002586364746094e-01
2.930000000000000000e+02 6.541345214843750000e+01 -1.697082710266113281e+01 -6.637875437736511230e-01 1.137650966644287109e+00 1.421590298414230347e-01 4.534905850887298584e-01
2.940000000000000000e+02 6.450808715820312500e+01 -1.527616405487060547e+01 -4.356377124786376953e-01 9.949765205383300781e-01 1.678016483783721924e-01 2.548661530017852783e-01
2.950000000000000000e+02 6.463229370117187500e+01 -1.174507522583007812e+01 4.711555838584899902e-01 1.157122254371643066e+00 4.884833395481109619e-01 6.752485036849975586e-01
2.960000000000000000e+02 6.595778656005859375e+01 -1.017902469635009766e+01 3.990500867366790771e-01 1.515082836151123047e+00 5.742398500442504883e-01 7.363144755363464355e-01
2.970000000000000000e+02 6.651775360107421875e+01 -9.015674591064453125e+00 3.954460024833679199e-01 1.767134785652160645e+00 6.487742662429809570e-01 8.050090074539184570e-01
2.980000000000000000e+02 6.930023193359375000e+01 -9.190034866333007812e+00 8.590894192457199097e-02 1.478173375129699707e+00 4.692246913909912109e-01 2.120700925588607788e-01
2.990000000000000000e+02 7.071429443359375000e+01 -9.199529647827148438e+00 1.279812213033437729e-02 1.283813595771789551e+00 3.889834880828857422e-01 -4.934612195938825607e-03
3.000000000000000000e+02 7.236125183105468750e+01 -9.005333900451660156e+00 -3.351369872689247131e-02 9.302847385406494141e-01 2.690313160419464111e-01 -1.986713260412216187e-01
3.010000000000000000e+02 7.227140808105468750e+01 -8.006645202636718750e+00 9.364470024593174458e-04 1.065570831298828125e+00 3.199521899223327637e-01 -1.666202992200851440e-01
3.020000000000000000e+02 7.620555877685546875e+01 -8.061560630798339844e+00 6.358901038765907288e-03 -2.614120543003082275e-01 -7.651595026254653931e-02 -3.837273716926574707e-01
3.030000000000000000e+02 7.832766723632812500e+01 -7.500985145568847656e+00 1.999497413635253906e-03 -1.069502949714660645e+00 -3.202510476112365723e-01 -2.202664017677307129e-01
3.040000000000000000e+02 7.944869232177734375e+01 -7.052190780639648438e+00 -1.525165629573166370e-03 -1.563638687133789062e+00 -4.695491790771484375e-01 -5.039882287383079529e-02
3.050000000000000000e+02 7.792070770263671875e+01 -4.781088352203369141e+00 1.151349209249019623e-02 -1.247549891471862793e+00 -3.708109259605407715e-01 -2.707067131996154785e-01
3.060000000000000000e+02 7.631297302246093750e+01 -4.337139606475830078e+00 2.926024980843067169e-02 -3.453033566474914551e-01 -9.481292963027954102e-02 -3.645071089267730713e-01
3.070000000000000000e+02 7.530193328857421875e+01 -1.792663693428039551e+00 7.693247497081756592e-02 1.600029766559600830e-01 7.108063250780105591e-02 -3.205883800983428955e-01
3.080000000000000000e+02 7.356244659423828125e+01 6.466615200042724609e-01 2.663708031177520752e-01 1.526806831359863281e+00 5.379533171653747559e-01 -1.239417195320129395e-01
3.090000000000000000e+02 7.051306152343750000e+01 3.045218706130981445e+00 1.743474453687667847e-01 4.563922882080078125e+00 1.421481132507324219e+00 9.457772970199584961e-02
3.100000000000000000e+02 6.957068634033203125e+01 -1.137667775154113770e+00 2.716955244541168213e-01 3.873200416564941406e+00 1.243468761444091797e+00 9.008726477622985840e-01
3.110000000000000000e+02 7.326102447509765625e+01 -5.288808345794677734e+00 3.590093553066253662e-02 1.033456087112426758e+00 3.208070993423461914e-01 -2.320089191198348999e-01
3.120000000000000000e+02 7.440800476074218750e+01 -6.455867767333984375e+00 -8.199204690754413605e-03 4.775691032409667969e-01 1.408109664916992188e-01 -3.606230318546295166e-01
3.130000000000000000e+02 7.701548004150390625e+01 -6.526777744293212891e+00 3.712042234838008881e-03 -6.755188703536987305e-01 -2.015420496463775635e-01 -3.504259586334228516e-01
3.140000000000000000e+02 7.588336181640625000e+01 -6.990759849548339844e+00 -1.086617261171340942e-02 -1.230287328362464905e-01 -4.016847163438796997e-02 -3.923110961914062500e-01
3.150000000000000000e+02 7.555722045898437500e+01 -5.920335769653320312e+00 -5.075011285953223705e-04 1.481359824538230896e-02 4.291829187422990799e-03 -3.840881884098052979e-01
3.160000000000000000e+02 7.489063262939453125e+01 -4.250044822692871094e+00 6.253883242607116699e-02 3.400475084781646729e-01 1.207759007811546326e-01 -3.768661916255950928e-01
3.170000000000000000e+02 7.394037628173828125e+01 -1.189980149269104004e+00 1.628449261188507080e-01 1.091554164886474609e+00 3.763197362422943115e-01 -2.290121763944625854e-01
3.180000000000000000e+02 7.034057617187500000e+01 1.546284079551696777e+00 2.823702096939086914e-01 4.655664920806884766e+00 1.481410503387451172e+00 4.141611754894256592e-01
3.190000000000000000e+02 6.993669891357421875e+01 1.783456355333328247e-01 2.391507625579833984e-01 4.387707233428955078e+00 1.388057351112365723e+00 7.965919375419616699e-01
3.200000000000000000e+02 6.772913360595703125e+01 -2.067070007324218750e+01 1.917331246659159660e-04 2.594749033451080322e-01 7.789998501539230347e-02 4.738708436489105225e-01
3.210000000000000000e+02 6.961590576171875000e+01 -2.025508499145507812e+01 -1.036993414163589478e-01 1.058680862188339233e-01 6.506235804408788681e-04 1.938520669937133789e-01
3.220000000000000000e+02 7.110934448242187500e+01 -2.318293952941894531e+01 -1.377330422401428223e-01 -4.698902368545532227e-02 -5.541661754250526428e-02 8.422840386629104614e-02
3.230000000000000000e+02 7.231948089599609375e+01 -2.449308013916015625e+01 -3.881427273154258728e-02 3.235691925510764122e-03 -1.067357417196035385e-02 2.218313142657279968e-02
3.240000000000000000e+02 7.361486816406250000e+01 -2.543806076049804688e+01 -2.298461645841598511e-02 -4.004771355539560318e-03 -8.096816018223762512e-03 5.780830513685941696e-03
3.250000000000000000e+02 7.432397460937500000e+01 -2.544549751281738281e+01 -3.128148242831230164e-02 8.173882961273193359e-03 -6.932279560714960098e-03 4.923996981233358383e-03
3.260000000000000000e+02 7.504077911376953125e+01 -2.544599151611328125e+01 -2.520408295094966888e-02 3.047298640012741089e-03 -6.647035479545593262e-03 -4.248740617185831070e-03
3.270000000000000000e+02 7.576378631591796875e+01 -2.544579315185546875e+01 -2.229232527315616608e-02 4.573743324726819992e-03 -5.315574351698160172e-03 -2.949364250525832176e-03
3.280000000000000000e+02 7.637148284912109375e+01 -2.455903053283691406e+01 -2.951054275035858154e-02 3.252953058108687401e-03 -7.877277210354804993e-03 -1.317089144140481949e-02
3.290000000000000000e+02 7.585842895507812500e+01 -2.184034347534179688e+01 -6.652433425188064575e-02 3.141046734526753426e-03 -1.901498623192310333e-02 -7.971128076314926147e-02
3.300000000000000000e+02 7.566787719726562500e+01 -2.083342170715332031e+01 -7.949899882078170776e-02 9.805457666516304016e-03 -2.090806141495704651e-02 -9.618993848562240601e-02
3.310000000000000000e+02 7.538505554199218750e+01 -1.984932136535644531e+01 -8.640290051698684692e-02 1.981485262513160706e-02 -1.997641287744045258e-02 -1.513807773590087891e-01
3.320000000000000000e+02 7.539182281494140625e+01 -1.525783538818359375e+01 -7.516874372959136963e-02 4.267317056655883789e-02 -9.748672135174274445e-03 -2.516993284225463867e-01
3.330000000000000000e+02 7.566567993164062500e+01 -1.369095706939697266e+01 -6.253322958946228027e-02 -2.102937921881675720e-02 -2.506878226995468140e-02 -2.943287193775177002e-01
3.340000000000000000e+02 7.644372558593750000e+01 -1.255078506469726562e+01 -3.825616464018821716e-02 -1.920410841703414917e-01 -6.908917427062988281e-02 -2.938857078552246094e-01
3.350000000000000000e+02 7.579178619384765625e+01 -9.771739006042480469e+00 -3.360308706760406494e-02 -9.520505368709564209e-02 -3.864244371652603149e-02 -3.611452281475067139e-01
3.360000000000000000e+02 7.354352569580078125e+01 -1.026408481597900391e+01 -6.841094046831130981e-02 4.907652437686920166e-01 1.267062872648239136e-01 -3.041445314884185791e-01
3.370000000000000000e+02 7.581711578369140625e+01 -1.153031349182128906e+01 -4.104215279221534729e-02 -8.448125422000885010e-02 -3.765702247619628906e-02 -3.269717097282409668e-01
3.380000000000000000e+02 7.554408264160156250e+01 -1.283563041687011719e+01 -4.695397987961769104e-02 -7.857664488255977631e-03 -1.644349470734596252e-02 -3.081645369529724121e-01
3.390000000000000000e+02 7.482987976074218750e+01 -1.455280971527099609e+01 -9.084182232618331909e-02 1.396959125995635986e-01 1.465622708201408386e-02 -2.752217650413513184e-01
3.400000000000000000e+02 7.395171356201171875e+01 -1.688624000549316406e+01 -1.150963976979255676e-01 1.757732331752777100e-01 1.820305176079273224e-02 -1.857708245515823364e-01
3.410000000000000000e+02 7.599469757080078125e+01 -1.810894966125488281e+01 -6.611119210720062256e-02 -2.246927656233310699e-02 -2.657414041459560394e-02 -1.826722770929336548e-01
3.420000000000000000e+02 7.395282745361328125e+01 -2.169577980041503906e+01 -1.251085847616195679e-01 7.005915045738220215e-02 -1.651483215391635895e-02 -6.463867425918579102e-02
3.430000000000000000e+02 7.472311401367187500e+01 -2.289784049987792969e+01 -9.462235122919082642e-02 4.241824150085449219e-02 -1.566123403608798981e-02 -4.781052097678184509e-02
3.440000000000000000e+02 7.358074951171875000e+01 -2.461930847167968750e+01 -6.231795623898506165e-02 1.561765559017658234e-02 -1.401008944958448410e-02 1.385817490518093109e-02
3.450000000000000000e+02 7.424349212646484375e+01 -2.460324096679687500e+01 -5.026541277766227722e-02 1.081501040607690811e-02 -1.183512061834335327e-02 -4.036200232803821564e-03
3.460000000000000000e+02 7.152771759033203125e+01 -2.514054298400878906e+01 -6.388157606124877930e-03 1.313254237174987793e-03 -1.522470964118838310e-03 1.692559570074081421e-03
3.470000000000000000e+02 7.224809265136718750e+01 -2.532442665100097656e+01 -1.755169220268726349e-02 -1.281816419214010239e-02 -9.110957384109497070e-03 1.429927255958318710e-02
3.480000000000000000e+02 7.649207305908203125e+01 -2.542986297607421875e+01 -1.703882403671741486e-02 3.188875562045723200e-04 -5.015981383621692657e-03 -7.956598885357379913e-03
3.490000000000000000e+02 7.722353363037109375e+01 -2.539666557312011719e+01 -1.259147655218839645e-02 -1.064164913259446621e-03 -4.096692427992820740e-03 -5.512379109859466553e-03
3.500000000000000000e+02 7.777338409423828125e+01 -2.386348724365234375e+01 -1.972967386245727539e-02 -9.625804610550403595e-03 -8.806643076241016388e-03 -2.127100899815559387e-02
3.510000000000000000e+02 7.806421661376953125e+01 -2.311025619506835938e+01 -1.280461996793746948e-02 -2.008472755551338196e-02 -9.866803884506225586e-03 -2.504774183034896851e-02
3.520000000000000000e+02 7.810335540771484375e+01 -2.065459251403808594e+01 -1.882682926952838898e-02 -7.241630554199218750e-02 -2.737293951213359833e-02 -6.673627346754074097e-02
3.530000000000000000e+02 7.788774108886718750e+01 -1.928895568847656250e+01 -2.800673991441726685e-02 -1.025138124823570251e-01 -3.915616497397422791e-02 -1.032319441437721252e-01
3.540000000000000000e+02 7.629834747314453125e+01 -1.594287395477294922e+01 -4.835845157504081726e-02 -8.955409377813339233e-02 -4.137376323342323303e-02 -2.268502712249755859e-01
3.550000000000000000e+02 7.785887145996093750e+01 -1.366002750396728516e+01 -2.538184449076652527e-02 -4.220598936080932617e-01 -1.342325210571289062e-01 -1.995127946138381958e-01
3.560000000000000000e+02 7.761191558837890625e+01 -1.222224903106689453e+01 -1.419304218143224716e-02 -4.574005901813507080e-01 -1.414780914783477783e-01 -2.398581951856613159e-01
3.570000000000000000e+02 7.685631561279296875e+01 -8.897839546203613281e+00 -8.677445352077484131e-03 -4.594248533248901367e-01 -1.404306888580322266e-01 -3.443336486816406250e-01
3.580000000000000000e+02 7.865451049804687500e+01 -2.524084091186523438e+01 -4.050658550113439560e-03 -5.807343870401382446e-03 -2.957400633022189140e-03 -3.424219321459531784e-03
3.590000000000000000e+02 7.957635498046875000e+01 -2.360131645202636719e+01 -2.792947692796587944e-03 -1.001923717558383942e-02 -3.843655576929450035e-03 -6.289526354521512985e-03
3.600000000000000000e+02 7.885881042480468750e+01 -2.390890312194824219e+01 -7.096434012055397034e-03 -1.350488793104887009e-02 -6.180396769195795059e-03 -1.107655186206102371e-02
3.610000000000000000e+02 7.941730499267578125e+01 -2.216515922546386719e+01 -3.048440907150506973e-03 -3.526766598224639893e-02 -1.149483211338520050e-02 -1.351638510823249817e-02
3.620000000000000000e+02 7.929543304443359375e+01 -1.933580970764160156e+01 -4.025975707918405533e-03 -1.531475633382797241e-01 -4.715206101536750793e-02 -4.037744179368019104e-02
3.630000000000000000e+02 7.923252105712890625e+01 -1.794319343566894531e+01 -5.195054225623607635e-03 -2.402312755584716797e-01 -7.362789660692214966e-02 -4.981210082769393921e-02
3.640000000000000000e+02 7.922875976562500000e+01 -1.655662727355957031e+01 -1.685664523392915726e-03 -3.378190994262695312e-01 -1.018514335155487061e-01 -5.685630068182945251e-02
3.650000000000000000e+02 7.926055145263671875e+01 -1.516268062591552734e+01 -4.085101187229156494e-03 -4.554011821746826172e-01 -1.378458887338638306e-01 -6.320244818925857544e-02
3.660000000000000000e+02 7.913668823242187500e+01 -1.225072956085205078e+01 -1.303620822727680206e-02 -7.608374953269958496e-01 -2.321621030569076538e-01 -9.876339882612228394e-02
3.670000000000000000e+02 7.922091674804687500e+01 -1.076814079284667969e+01 1.894278451800346375e-02 -9.202105998992919922e-01 -2.703803479671478271e-01 -1.049074977636337280e-01
3.680000000000000000e+02 7.951473236083984375e+01 -9.501317024230957031e+00 1.812093518674373627e-02 -1.150189518928527832e+00 -3.396205902099609375e-01 -6.475314497947692871e-02
3.690000000000000000e+02 7.927593231201171875e+01 -4.292891502380371094e+00 4.219472408294677734e-03 -1.880215883255004883e+00 -5.627989172935485840e-01 -5.670933052897453308e-02
3.700000000000000000e+02 7.909320831298828125e+01 -2.870908021926879883e+00 -3.054506704211235046e-02 -2.046898603439331055e+00 -6.232330799102783203e-01 -9.031204879283905029e-02
3.710000000000000000e+02 7.660813903808593750e+01 -2.475947141647338867e+00 3.842798247933387756e-02 -6.198915839195251465e-01 -1.744390726089477539e-01 -3.148740530014038086e-01
3.720000000000000000e+02 7.523554229736328125e+01 8.537406921386718750e-01 1.984419226646423340e-01 2.999326884746551514e-01 1.495123803615570068e-01 -2.394146770238876343e-01
3.730000000000000000e+02 7.048402404785156250e+01 4.550570964813232422e+00 -1.615179935470223427e-03 4.462597370147705078e+00 1.338294744491577148e+00 -5.283383280038833618e-02
3.740000000000000000e+02 7.906653594970703125e+01 -1.382416605949401855e+00 -1.056876871734857559e-02 -2.213233470916748047e+00 -6.671406626701354980e-01 -1.167953312397003174e-01
3.750000000000000000e+02 7.639006042480468750e+01 4.650734066963195801e-01 1.060250028967857361e-01 -5.013650655746459961e-01 -1.186020225286483765e-01 -1.870400160551071167e-01
3.760000000000000000e+02 7.486281585693359375e+01 2.169088840484619141e+00 1.949409395456314087e-01 6.257973313331604004e-01 2.462214827537536621e-01 -1.700768768787384033e-01
3.770000000000000000e+02 7.336817169189453125e+01 3.205923080444335938e+00 2.662669420242309570e-01 1.844061732292175293e+00 6.330986022949218750e-01 -1.418466400355100632e-02
3.780000000000000000e+02 7.031233978271484375e+01 7.395881175994873047e+00 1.543345898389816284e-01 4.591896533966064453e+00 1.423869371414184570e+00 -3.335473537445068359e-01
3.790000000000000000e+02 7.044181060791015625e+01 5.979585647583007812e+00 9.547165036201477051e-02 4.599382877349853516e+00 1.408456325531005859e+00 -1.299022585153579712e-01
3.800000000000000000e+02 7.920726013183593750e+01 8.212336897850036621e-02 3.624676167964935303e-02 -2.418891668319702148e+00 -7.147935032844543457e-01 -9.634555131196975708e-02
3.810000000000000000e+02 7.662513732910156250e+01 1.637813210487365723e+00 1.215668544173240662e-01 -7.219130992889404297e-01 -1.801038682460784912e-01 -1.246898472309112549e-01
3.820000000000000000e+02 7.442610931396484375e+01 5.629704952239990234e+00 1.598146408796310425e-01 1.042806863784790039e+00 3.607864379882812500e-01 3.321585804224014282e-02
3.830000000000000000e+02 7.010457611083984375e+01 8.787849426269531250e+00 8.469453454017639160e-02 4.114693164825439453e+00 1.259816408157348633e+00 -4.594224393367767334e-01
3.840000000000000000e+02 7.927129364013671875e+01 1.484169363975524902e+00 1.250580698251724243e-02 -2.591242551803588867e+00 -7.736210227012634277e-01 -5.192761868238449097e-02
3.850000000000000000e+02 7.787553405761718750e+01 2.894928693771362305e+00 5.634127929806709290e-02 -1.599671959877014160e+00 -4.629992246627807617e-01 -6.454814225435256958e-02
3.860000000000000000e+02 7.777071380615234375e+01 4.235906600952148438e+00 6.141760945320129395e-02 -1.570991992950439453e+00 -4.528723061084747314e-01 -1.987910643219947815e-02
3.870000000000000000e+02 7.604948425292968750e+01 5.465857505798339844e+00 1.406732946634292603e-01 -2.365221083164215088e-01 -2.875464595854282379e-02 3.583142161369323730e-02
3.880000000000000000e+02 7.344819641113281250e+01 6.505828380584716797e+00 1.300401389598846436e-01 1.849549055099487305e+00 5.938767790794372559e-01 1.132814064621925354e-01
3.890000000000000000e+02 7.288331604003906250e+01 9.098229408264160156e+00 -5.766887962818145752e-02 2.184491157531738281e+00 6.380466818809509277e-01 9.796851873397827148e-02
3.900000000000000000e+02 7.114884185791015625e+01 1.285373115539550781e+01 -1.090366169810295105e-01 3.125965595245361328e+00 9.050787091255187988e-01 -1.681541353464126587e-01
3.910000000000000000e+02 6.988668060302734375e+01 1.015246486663818359e+01 -8.031709492206573486e-02 3.529215097427368164e+00 1.034669399261474609e+00 -3.344159126281738281e-01
3.920000000000000000e+02 7.928141021728515625e+01 2.873800516128540039e+00 2.730898745357990265e-02 -2.692361116409301758e+00 -7.995156645774841309e-01 -1.395334769040346146e-02
3.930000000000000000e+02 7.925950622558593750e+01 4.252954959869384766e+00 6.539603229612112045e-03 -2.722261190414428711e+00 -8.147165179252624512e-01 1.845527067780494690e-02
3.940000000000000000e+02 7.767742919921875000e+01 5.572821617126464844e+00 3.723296895623207092e-02 -1.526952981948852539e+00 -4.469160139560699463e-01 2.743948996067047119e-02
3.950000000000000000e+02 7.312151336669921875e+01 7.804774284362792969e+00 5.508605018258094788e-02 2.090358495712280273e+00 6.436333060264587402e-01 9.393914788961410522e-02
3.960000000000000000e+02 7.117547607421875000e+01 1.153860569000244141e+01 -2.942937314510345459e-01 3.235187053680419922e+00 8.822680115699768066e-01 -1.060010865330696106e-01
3.970000000000000000e+02 7.922974395751953125e+01 5.626919269561767578e+00 1.311964541673660278e-02 -2.702714443206787109e+00 -8.068784475326538086e-01 3.676147758960723877e-02
3.980000000000000000e+02 7.761764526367187500e+01 6.951156616210937500e+00 5.377705022692680359e-02 -1.451132535934448242e+00 -4.192066490650177002e-01 7.803643494844436646e-02
3.990000000000000000e+02 7.248675537109375000e+01 1.160847854614257812e+01 -1.813566982746124268e-01 2.363037109375000000e+00 6.545041203498840332e-01 -4.276842996478080750e-02
4.000000000000000000e+02 6.996390533447265625e+01 1.427515316009521484e+01 1.002722159028053284e-01 4.292793750762939453e+00 1.317919731140136719e+00 1.443924009799957275e-01
4.010000000000000000e+02 7.919759368896484375e+01 7.016386508941650391e+00 5.220000166445970535e-03 -2.650382757186889648e+00 -7.935488224029541016e-01 5.301513895392417908e-02
4.020000000000000000e+02 7.752096557617187500e+01 8.384770393371582031e+00 -2.946827374398708344e-02 -1.359371185302734375e+00 -4.166518449783325195e-01 6.242159381508827209e-02
4.030000000000000000e+02 7.429689788818359375e+01 9.312579154968261719e+00 -5.274856090545654297e-02 1.133831262588500977e+00 3.243248164653778076e-01 9.998606890439987183e-02
4.040000000000000000e+02 7.374910736083984375e+01 1.175170230865478516e+01 -1.454677730798721313e-01 1.506369590759277344e+00 4.082705378532409668e-01 1.594618335366249084e-02
4.050000000000000000e+02 7.240795898437500000e+01 1.412523460388183594e+01 -1.783162541687488556e-02 2.372303485870361328e+00 7.063415050506591797e-01 -9.940502047538757324e-02
4.060000000000000000e+02 7.004805755615234375e+01 1.712267112731933594e+01 1.536328718066215515e-02 4.174333095550537109e+00 1.256908893585205078e+00 2.120497170835733414e-03
4.070000000000000000e+02 7.915161132812500000e+01 8.439571380615234375e+00 1.135957334190607071e-02 -2.573007345199584961e+00 -7.684943079948425293e-01 6.762051582336425781e-02
4.080000000000000000e+02 7.733104705810546875e+01 9.905608177185058594e+00 -4.987157881259918213e-02 -1.157583475112915039e+00 -3.622365295886993408e-01 4.712371155619621277e-02
4.090000000000000000e+02 7.540395355224609375e+01 1.086143016815185547e+01 -7.381565123796463013e-02 2.831773161888122559e-01 6.280849874019622803e-02 6.551507860422134399e-02
4.100000000000000000e+02 7.459484863281250000e+01 1.307543468475341797e+01 -6.445027142763137817e-02 8.472979664802551270e-01 2.348543107509613037e-01 9.249818511307239532e-03
4.110000000000000000e+02 7.266400146484375000e+01 1.543444538116455078e+01 2.323062531650066376e-02 2.128320932388305664e+00 6.454654335975646973e-01 -6.051760166883468628e-02
4.120000000000000000e+02 7.907080841064453125e+01 9.952491760253906250e+00 -4.608406871557235718e-02 -2.504518032073974609e+00 -7.651805877685546875e-01 4.315470531582832336e-02
4.130000000000000000e+02 7.679486846923828125e+01 1.136305713653564453e+01 -2.847424894571304321e-02 -7.875061035156250000e-01 -2.447941005229949951e-01 6.990072876214981079e-02
4.140000000000000000e+02 7.437899780273437500e+01 1.398010826110839844e+01 -3.354830667376518250e-02 9.706425666809082031e-01 2.811282873153686523e-01 -8.251192048192024231e-03
4.150000000000000000e+02 7.336714172363281250e+01 1.644281387329101562e+01 4.427601769566535950e-02 1.738333940505981445e+00 5.347830057144165039e-01 -1.051779929548501968e-02
4.160000000000000000e+02 7.001898956298828125e+01 1.852644729614257812e+01 -1.580301555804908276e-03 4.155834197998046875e+00 1.246276140213012695e+00 -1.295597106218338013e-02
4.170000000000000000e+02 7.919651794433593750e+01 1.146263217926025391e+01 -2.380293235182762146e-02 -2.487294197082519531e+00 -7.533291578292846680e-01 -1.143998932093381882e-02
4.180000000000000000e+02 7.695590972900390625e+01 1.330856132507324219e+01 -1.397344097495079041e-02 -8.835721611976623535e-01 -2.692636847496032715e-01 -2.362667582929134369e-03
4.190000000000000000e+02 7.278656005859375000e+01 1.885882377624511719e+01 3.538725152611732483e-02 2.214984416961669922e+00 6.751115322113037109e-01 -1.024285331368446350e-02
4.200000000000000000e+02 6.998128509521484375e+01 1.991929244995117188e+01 1.486188732087612152e-02 4.168735027313232422e+00 1.255079030990600586e+00 -2.637071348726749420e-02
4.210000000000000000e+02 7.950306701660156250e+01 1.275028800964355469e+01 3.643168509006500244e-02 -2.547801017761230469e+00 -7.534108161926269531e-01 -2.483048848807811737e-02
4.220000000000000000e+02 7.868346405029296875e+01 1.346604251861572266e+01 2.728425152599811554e-02 -2.136021852493286133e+00 -6.326212882995605469e-01 -1.186824217438697815e-02
4.230000000000000000e+02 7.630992889404296875e+01 1.404744911193847656e+01 9.432681254111230373e-04 -3.041743934154510498e-01 -9.096933156251907349e-02 -3.085677884519100189e-02
4.240000000000000000e+02 7.564906311035156250e+01 1.651426696777343750e+01 1.296682283282279968e-02 2.899593673646450043e-02 1.258882787078619003e-02 -4.295551683753728867e-03
4.250000000000000000e+02 7.433103942871093750e+01 1.918457031250000000e+01 4.337668791413307190e-02 9.977751970291137695e-01 3.123455643653869629e-01 -4.422771278768777847e-03
4.260000000000000000e+02 7.258332824707031250e+01 2.016791725158691406e+01 3.592095896601676941e-02 2.318958520889282227e+00 7.064638733863830566e-01 -2.131949178874492645e-02
4.270000000000000000e+02 6.988252258300781250e+01 2.410170555114746094e+01 6.800097972154617310e-02 4.454988956451416016e+00 1.356896996498107910e+00 -2.361617386341094971e-01
4.280000000000000000e+02 6.992035675048828125e+01 2.270577812194824219e+01 6.051544845104217529e-02 4.351075649261474609e+00 1.323477387428283691e+00 -9.069837629795074463e-02
4.290000000000000000e+02 7.954305267333984375e+01 1.392371177673339844e+01 -1.894303224980831146e-02 -2.617757081985473633e+00 -7.910100221633911133e-01 1.188112236559391022e-02
4.300000000000000000e+02 7.821060943603515625e+01 1.479280376434326172e+01 1.194811798632144928e-02 -1.776051402091979980e+00 -5.292310118675231934e-01 2.207138016819953918e-02
4.310000000000000000e+02 7.759445953369140625e+01 1.784000587463378906e+01 7.218089420348405838e-03 -1.324269533157348633e+00 -3.951154053211212158e-01 1.095212157815694809e-02
4.320000000000000000e+02 7.598624420166015625e+01 1.933087539672851562e+01 1.200176682323217392e-02 -2.042012214660644531e-01 -5.765983834862709045e-02 1.369018387049436569e-02
4.330000000000000000e+02 7.396618652343750000e+01 2.048779869079589844e+01 3.871392831206321716e-02 1.238695025444030762e+00 3.832226693630218506e-01 -7.898153737187385559e-03
4.340000000000000000e+02 7.221734619140625000e+01 2.276633262634277344e+01 1.602088212966918945e-01 2.517411470413208008e+00 8.032860755920410156e-01 -1.006925329566001892e-01
4.350000000000000000e+02 6.968168640136718750e+01 2.686268806457519531e+01 1.923643946647644043e-01 4.017247676849365234e+00 1.262883543968200684e+00 -6.756600737571716309e-01
4.360000000000000000e+02 7.782685089111328125e+01 1.630669593811035156e+01 6.372956559062004089e-03 -1.444595813751220703e+00 -4.314668476581573486e-01 -6.788517814129590988e-03
4.370000000000000000e+02 7.920491027832031250e+01 1.805697631835937500e+01 -1.140495762228965759e-02 -2.552219152450561523e+00 -7.690872550010681152e-01 2.234962210059165955e-02
4.380000000000000000e+02 7.761177825927734375e+01 1.935014152526855469e+01 -2.719447365961968899e-04 -1.356017231941223145e+00 -4.068867564201354980e-01 1.248385477811098099e-02
4.390000000000000000e+02 7.331462097167968750e+01 2.284918022155761719e+01 1.505652219057083130e-01 1.671823978424072266e+00 5.467167496681213379e-01 -3.274443373084068298e-02
4.400000000000000000e+02 7.219471740722656250e+01 2.403185462951660156e+01 2.381082177162170410e-01 2.421961069107055664e+00 7.980208396911621094e-01 -6.977038085460662842e-02
4.410000000000000000e+02 7.113040924072265625e+01 2.674037170410156250e+01 3.608040213584899902e-01 2.859079360961914062e+00 9.659650325775146484e-01 -2.700077295303344727e-01
4.420000000000000000e+02 6.980797576904296875e+01 2.549311828613281250e+01 2.095250040292739868e-01 4.381636619567871094e+00 1.377348423004150391e+00 -4.851592481136322021e-01
4.430000000000000000e+02 7.920097351074218750e+01 1.947432708740234375e+01 1.370359864085912704e-02 -2.523133516311645508e+00 -7.528290152549743652e-01 2.722846902906894684e-02
4.440000000000000000e+02 7.617084503173828125e+01 2.078254508972167969e+01 5.147707834839820862e-02 -3.064826130867004395e-01 -7.650166004896163940e-02 1.697058044373989105e-02
4.450000000000000000e+02 7.448204803466796875e+01 2.199777221679687500e+01 1.048569232225418091e-01 9.684697985649108887e-01 3.219980001449584961e-01 3.556232899427413940e-02
4.460000000000000000e+02 7.344738006591796875e+01 2.503664207458496094e+01 3.006142377853393555e-01 1.458777308464050293e+00 5.278174877166748047e-01 7.165313512086868286e-02
4.470000000000000000e+02 7.229116058349609375e+01 2.526501464843750000e+01 2.877765595912933350e-01 2.211296558380126953e+00 7.497219443321228027e-01 -9.321226924657821655e-02
4.480000000000000000e+02 6.952433013916015625e+01 2.819136810302734375e+01 4.471386373043060303e-01 3.564634084701538086e+00 1.203531742095947266e+00 -8.536843061447143555e-01
4.490000000000000000e+02 7.921414947509765625e+01 2.088210296630859375e+01 -2.277747355401515961e-02 -2.498003721237182617e+00 -7.562343478202819824e-01 1.620472967624664307e-02
4.500000000000000000e+02 7.624410247802734375e+01 2.359464073181152344e+01 8.841706067323684692e-02 -4.049318134784698486e-01 -9.495442360639572144e-02 1.157466694712638855e-01
4.510000000000000000e+02 7.597962951660156250e+01 2.514453697204589844e+01 1.245191842317581177e-01 -2.341835796833038330e-01 -3.289932012557983398e-02 1.860830634832382202e-01
4.520000000000000000e+02 7.385360717773437500e+01 2.599169349670410156e+01 1.897632926702499390e-01 1.028930902481079102e+00 3.656082451343536377e-01 1.636892855167388916e-01
4.530000000000000000e+02 7.252170562744140625e+01 2.645921516418457031e+01 3.020390868186950684e-01 1.847985506057739258e+00 6.450073719024658203e-01 1.858439482748508453e-02
4.540000000000000000e+02 7.157897186279296875e+01 2.942739486694335938e+01 2.584684491157531738e-01 1.910160779953002930e+00 6.505888104438781738e-01 5.883528292179107666e-02
4.550000000000000000e+02 6.853040313720703125e+01 3.029283332824707031e+01 7.658605575561523438e-01 2.729454517364501953e+00 1.048594474792480469e+00 -1.119718790054321289e+00
4.560000000000000000e+02 6.983261108398437500e+01 2.966186904907226562e+01 5.637230277061462402e-01 2.737630605697631836e+00 9.904060959815979004e-01 -6.098837852478027344e-01
4.570000000000000000e+02 7.922066497802734375e+01 2.229587173461914062e+01 3.520470857620239258e-02 -2.466406583786010742e+00 -7.293605804443359375e-01 3.124849125742912292e-02
4.580000000000000000e+02 7.758732604980468750e+01 2.515653228759765625e+01 3.201372176408767700e-02 -1.271173954010009766e+00 -3.717480599880218506e-01 1.523296982049942017e-01
4.590000000000000000e+02 7.595907592773437500e+01 2.671833610534667969e+01 1.233388856053352356e-01 -2.047091275453567505e-01 -2.441107109189033508e-02 2.626356482505798340e-01
4.600000000000000000e+02 7.435519409179687500e+01 2.710546684265136719e+01 2.142354249954223633e-01 6.695366501808166504e-01 2.651316225528717041e-01 2.051663845777511597e-01
4.610000000000000000e+02 7.316906738281250000e+01 2.897186088562011719e+01 2.157925218343734741e-01 1.245537877082824707e+00 4.383991360664367676e-01 2.084514498710632324e-01
4.620000000000000000e+02 7.042714691162109375e+01 3.118184280395507812e+01 1.790010631084442139e-01 1.828597187995910645e+00 6.022794842720031738e-01 -5.699274688959121704e-02
4.630000000000000000e+02 6.849388122558593750e+01 3.253285598754882812e+01 1.687902063131332397e-01 1.828724026679992676e+00 5.992542505264282227e-01 -5.388228893280029297e-01
4.640000000000000000e+02 6.664913177490234375e+01 3.465699386596679688e+01 1.210295557975769043e-01 1.143640279769897461e+00 3.794009685516357422e-01 -4.719386100769042969e-01
4.650000000000000000e+02 6.677341461181640625e+01 3.755770874023437500e+01 -2.336140424013137817e-01 9.799400568008422852e-01 2.238978147506713867e-01 -2.199616879224777222e-01
4.660000000000000000e+02 6.175893020629882812e+01 4.111491775512695312e+01 -8.164801448583602905e-02 4.095271229743957520e-01 9.836373478174209595e-02 -6.217569112777709961e-02
4.670000000000000000e+02 6.048930740356445312e+01 3.848725128173828125e+01 1.403981633484363556e-02 1.806366890668869019e-01 5.840295180678367615e-02 -1.276465952396392822e-01
4.680000000000000000e+02 5.748795700073242188e+01 4.133320236206054688e+01 5.019455403089523315e-02 4.890434816479682922e-02 2.972967177629470825e-02 8.888904005289077759e-03
4.690000000000000000e+02 5.457619857788085938e+01 3.471260833740234375e+01 -2.686265669763088226e-02 -2.359875012189149857e-03 -8.766760118305683136e-03 -8.651580661535263062e-03
4.700000000000000000e+02 5.745567703247070312e+01 3.637204742431640625e+01 -5.687761679291725159e-02 1.213266514241695404e-02 -1.342348568141460419e-02 -1.776872016489505768e-02
4.710000000000000000e+02 5.947090148925781250e+01 3.621891021728515625e+01 -3.360138833522796631e-02 1.721580140292644501e-02 -4.915675614029169083e-03 -3.382532298564910889e-02
4.720000000000000000e+02 5.738887786865234375e+01 3.888515090942382812e+01 1.133880950510501862e-02 5.017571896314620972e-02 1.845435798168182373e-02 1.812787028029561043e-03
4.730000000000000000e+02 7.772026824951171875e+01 2.222524833679199219e+01 2.260361053049564362e-02 -1.373471140861511230e+00 -4.052602350711822510e-01 6.771555542945861816e-02
4.740000000000000000e+02 7.918981170654296875e+01 2.513065147399902344e+01 1.843671128153800964e-02 -2.298103332519531250e+00 -6.838999986648559570e-01 6.705816835165023804e-02
4.750000000000000000e+02 7.757427978515625000e+01 2.661426544189453125e+01 6.791675835847854614e-02 -1.200834274291992188e+00 -3.398752510547637939e-01 2.049941420555114746e-01
4.760000000000000000e+02 7.610579681396484375e+01 2.816337013244628906e+01 8.090237528085708618e-02 -2.706716060638427734e-01 -5.693077296018600464e-02 2.997835576534271240e-01
4.770000000000000000e+02 7.463931274414062500e+01 2.842643165588378906e+01 1.359131783246994019e-01 4.294006526470184326e-01 1.695941388607025146e-01 3.408126235008239746e-01
4.780000000000000000e+02 7.179709625244140625e+01 3.103608894348144531e+01 1.975067704916000366e-01 1.548467278480529785e+00 5.237922072410583496e-01 1.243496537208557129e-01
4.790000000000000000e+02 6.797677612304687500e+01 3.566152572631835938e+01 -1.486974060535430908e-01 1.159319877624511719e+00 3.031867444515228271e-01 -2.409695684909820557e-01
4.800000000000000000e+02 6.494176483154296875e+01 3.974114227294921875e+01 -2.085637897253036499e-01 7.175102233886718750e-01 1.526839286088943481e-01 -1.332777589559555054e-01
4.810000000000000000e+02 7.918445587158203125e+01 2.654183387756347656e+01 1.520435675047338009e-03 -2.175075769424438477e+00 -6.520665884017944336e-01 8.501882851123809814e-02
4.820000000000000000e+02 7.760389709472656250e+01 2.806867027282714844e+01 4.558583721518516541e-02 -1.119273900985717773e+00 -3.221064209938049316e-01 2.544234991073608398e-01
4.830000000000000000e+02 7.614575195312500000e+01 2.955353164672851562e+01 8.012400567531585693e-02 -2.687380015850067139e-01 -5.658420175313949585e-02 3.876209557056427002e-01
4.840000000000000000e+02 7.379211425781250000e+01 3.008793449401855469e+01 1.349926739931106567e-01 8.051797747611999512e-01 2.820517420768737793e-01 3.370053768157958984e-01
4.850000000000000000e+02 7.045254516601562500e+01 3.257959365844726562e+01 7.049840060062706470e-04 1.595001578330993652e+00 4.787119626998901367e-01 -5.464289337396621704e-02
4.860000000000000000e+02 6.977650451660156250e+01 3.627676391601562500e+01 -2.663718163967132568e-01 1.088650345802307129e+00 2.466835826635360718e-01 -1.703569479286670685e-02
4.870000000000000000e+02 6.519402313232421875e+01 3.609286117553710938e+01 2.228317223489284515e-02 7.944914102554321289e-01 2.450323849916458130e-01 -3.415031731128692627e-01
4.880000000000000000e+02 7.918309020996093750e+01 2.796671104431152344e+01 3.035147115588188171e-02 -2.014759063720703125e+00 -5.953223109245300293e-01 1.105391755700111389e-01
4.890000000000000000e+02 7.757546997070312500e+01 2.960266685485839844e+01 2.342641586437821388e-03 -9.672502279281616211e-01 -2.894722819328308105e-01 2.899538874626159668e-01
4.900000000000000000e+02 7.591213989257812500e+01 3.094463539123535156e+01 3.523097187280654907e-02 -1.662771701812744141e-01 -3.931385651230812073e-02 4.155828654766082764e-01
4.910000000000000000e+02 7.538214111328125000e+01 3.237061691284179688e+01 -2.710169740021228790e-02 8.006833493709564209e-02 1.588999107480049133e-02 4.142433702945709229e-01
4.920000000000000000e+02 7.184481811523437500e+01 3.440663146972656250e+01 -1.735924333333969116e-01 1.042700171470642090e+00 2.607323229312896729e-01 2.091591209173202515e-01
4.930000000000000000e+02 7.916622161865234375e+01 2.946238517761230469e+01 -1.851721294224262238e-02 -1.818529009819030762e+00 -5.511139035224914551e-01 1.268687099218368530e-01
4.940000000000000000e+02 7.723972320556640625e+01 3.119295883178710938e+01 3.328029811382293701e-02 -6.963901519775390625e-01 -1.989329606294631958e-01 3.648815751075744629e-01
4.950000000000000000e+02 7.671161651611328125e+01 3.269274902343750000e+01 -2.046633139252662659e-02 -4.365919530391693115e-01 -1.371174901723861694e-01 3.664353489875793457e-01
4.960000000000000000e+02 7.191716766357421875e+01 3.639412307739257812e+01 -2.567682266235351562e-01 7.979632616043090820e-01 1.623585224151611328e-01 1.914818137884140015e-01
4.970000000000000000e+02 6.913964843750000000e+01 3.849870681762695312e+01 -3.292783498764038086e-01 9.200240969657897949e-01 1.772237271070480347e-01 -5.336885526776313782e-02
4.980000000000000000e+02 7.933482360839843750e+01 3.082780075073242188e+01 -3.454676270484924316e-02 -1.633418679237365723e+00 -5.003896355628967285e-01 8.809011429548263550e-02
4.990000000000000000e+02 7.795703125000000000e+01 3.309753417968750000e+01 2.955687977373600006e-02 -8.118731975555419922e-01 -2.346948981285095215e-01 3.054506182670593262e-01
5.000000000000000000e+02 7.552796936035156250e+01 3.512130355834960938e+01 -1.245093569159507751e-01 1.076510399580001831e-01 -5.057494621723890305e-03 3.454040586948394775e-01
5.010000000000000000e+02 7.233786773681640625e+01 4.113460540771484375e+01 -3.162267804145812988e-01 5.767347216606140137e-01 7.815238833427429199e-02 5.332590639591217041e-02
5.020000000000000000e+02 7.943814086914062500e+01 3.205058670043945312e+01 1.835040748119354248e-02 -1.421137571334838867e+00 -4.208361506462097168e-01 5.986358225345611572e-02
5.030000000000000000e+02 7.928502655029296875e+01 3.338388061523437500e+01 4.378379881381988525e-02 -1.206991553306579590e+00 -3.489623069763183594e-01 1.304826140403747559e-01
5.040000000000000000e+02 7.752464294433593750e+01 3.456801986694335938e+01 -2.492130920290946960e-02 -6.002447605133056641e-01 -1.875498294830322266e-01 2.772629261016845703e-01
5.050000000000000000e+02 7.207623291015625000e+01 3.860924530029296875e+01 -3.030657172203063965e-01 6.423451900482177734e-01 1.017838343977928162e-01 1.441567093133926392e-01
5.060000000000000000e+02 7.910485076904296875e+01 3.483350753784179688e+01 -2.242913236841559410e-03 -9.459331631660461426e-01 -2.844528257846832275e-01 1.631841361522674561e-01
5.070000000000000000e+02 7.681145477294921875e+01 3.620206832885742188e+01 -9.052794426679611206e-02 -2.527042925357818604e-01 -1.029696688055992126e-01 2.577303647994995117e-01
5.080000000000000000e+02 7.881686401367187500e+01 3.648155593872070312e+01 -3.067671693861484528e-02 -7.335913777351379395e-01 -2.292804270982742310e-01 1.414360404014587402e-01
5.090000000000000000e+02 7.898429870605468750e+01 3.791651916503906250e+01 -6.725580245256423950e-02 -5.967860221862792969e-01 -1.992125362157821655e-01 1.035069972276687622e-01
5.100000000000000000e+02 7.935220336914062500e+01 3.903311157226562500e+01 -1.230237260460853577e-02 -4.616866409778594971e-01 -1.421966999769210815e-01 9.597172029316425323e-03
5.110000000000000000e+02 7.598319244384765625e+01 4.004520797729492188e+01 -1.162568703293800354e-01 -6.679337471723556519e-02 -5.491507425904273987e-02 9.869434684514999390e-02
5.120000000000000000e+02 7.911241149902343750e+01 4.015694427490234375e+01 7.631203532218933105e-02 -3.314267396926879883e-01 -7.653441280126571655e-02 9.570188075304031372e-02
5.130000000000000000e+02 7.817681121826171875e+01 4.160017013549804688e+01 -9.240940213203430176e-02 -2.818943858146667480e-01 -1.122911423444747925e-01 2.570202946662902832e-02
5.140000000000000000e+02 5.328948974609375000e+01 4.119628524780273438e+01 2.664074860513210297e-02 -5.959492642432451248e-03 6.204376928508281708e-03 2.721579978242516518e-03
5.150000000000000000e+02 5.576542663574218750e+01 3.573788070678710938e+01 -5.593540146946907043e-02 -6.570457946509122849e-03 -1.875175721943378448e-02 -4.464168567210435867e-03
5.160000000000000000e+02 5.343468856811523438e+01 3.393545532226562500e+01 -1.808037422597408295e-02 -3.147253300994634628e-03 -6.368288304656744003e-03 -5.521382205188274384e-03
5.170000000000000000e+02 5.042451095581054688e+01 3.287121582031250000e+01 -6.812921259552240372e-03 1.223227358423173428e-03 -1.676908112131059170e-03 -9.765215218067169189e-04
5.180000000000000000e+02 5.035346221923828125e+01 3.541858291625976562e+01 -7.116795517504215240e-03 2.430031541734933853e-03 -1.406029216013848782e-03 6.972522009164094925e-03
5.190000000000000000e+02 4.238637542724609375e+01 4.067255401611328125e+01 1.782112056389451027e-03 -1.707597868517041206e-03 2.235427564301062375e-05 4.243258081260137260e-05
5.200000000000000000e+02 3.760885238647460938e+01 4.074398040771484375e+01 8.665146888233721256e-04 -1.072049257345497608e-03 -6.166038656374439597e-05 6.666978006251156330e-04
5.210000000000000000e+02 3.722433471679687500e+01 3.739880371093750000e+01 -8.975626769824884832e-06 -3.456653212197124958e-04 -1.063922900357283652e-04 4.984779516234993935e-04
5.220000000000000000e+02 4.022426605224609375e+01 3.552259826660156250e+01 3.209965943824499846e-04 -5.818897043354809284e-04 -7.826792716514319181e-05 7.421637419611215591e-04
5.230000000000000000e+02 3.886534881591796875e+01 3.303886795043945312e+01 -7.022358477115631104e-04 7.660513801965862513e-05 -1.876892056316137314e-04 7.265608292073011398e-04
5.240000000000000000e+02 4.068693542480468750e+01 3.132044982910156250e+01 -5.144472816027700901e-04 1.193493444588966668e-04 -1.185293804155662656e-04 2.406859421171247959e-04
5.250000000000000000e+02 3.987210464477539062e+01 2.934617996215820312e+01 -7.700275164097547531e-04 1.409441465511918068e-04 -1.887250109575688839e-04 4.078891070093959570e-04
5.260000000000000000e+02 3.922830200195312500e+01 2.750951766967773438e+01 -2.634517441038042307e-04 1.222548016812652349e-04 -4.235908272676169872e-05 -1.015251691569574177e-04
5.270000000000000000e+02 3.859266281127929688e+01 2.596228599548339844e+01 -4.688000190071761608e-04 -7.050070416880771518e-05 -1.617902162251994014e-04 1.286909973714500666e-04
5.280000000000000000e+02 3.790615844726562500e+01 2.471871566772460938e+01 2.720424708968494087e-05 1.101649104384705424e-04 4.121074744034558535e-05 -1.755203411448746920e-04
5.290000000000000000e+02 3.710576629638671875e+01 2.378504371643066406e+01 -2.408447617199271917e-04 -1.136381106334738433e-04 -1.063448653439991176e-04 2.213623229181393981e-04
5.300000000000000000e+02 3.740931701660156250e+01 2.146737670898437500e+01 -3.335268047521822155e-05 -1.109885270125232637e-04 -4.330236333771608770e-05 2.279982873005792499e-04
5.310000000000000000e+02 3.728147125244140625e+01 1.915833663940429688e+01 6.812718493165448308e-05 -6.768157618353143334e-05 1.336832298193257884e-07 1.092705497285351157e-04
5.320000000000000000e+02 3.789196395874023438e+01 1.735803031921386719e+01 -9.040151780936866999e-05 1.827768574003130198e-05 -2.163714816560968757e-05 -2.951450369437225163e-05
5.330000000000000000e+02 3.816186904907226562e+01 1.566016292572021484e+01 1.817127631511539221e-04 2.083349500026088208e-05 6.076387580833397806e-05 7.518622442148625851e-05
5.340000000000000000e+02 3.829235839843750000e+01 1.407614994049072266e+01 -1.520800433354452252e-04 2.084498191834427416e-05 -3.937051951652392745e-05 7.930546416901051998e-06
5.350000000000000000e+02 4.013772583007812500e+01 1.231703853607177734e+01 -1.609685714356601238e-04 5.223091648076660931e-05 -3.262129393988288939e-05 2.736597525654360652e-05
5.360000000000000000e+02 3.810168457031250000e+01 8.372865676879882812e+00 -1.260963472304865718e-04 7.190856649685883895e-06 -3.567164822015911341e-05 2.499652327969670296e-05
5.370000000000000000e+02 3.918927383422851562e+01 6.734790802001953125e+00 -7.440117769874632359e-05 2.259997927467338741e-06 -2.164235411328263581e-05 6.404505256796255708e-05
5.380000000000000000e+02 3.955667877197265625e+01 5.143213748931884766e+00 7.045537586236605421e-06 -2.879159728763625026e-05 -6.523818228743039072e-06 4.628958049579523504e-05
5.390000000000000000e+02 3.841976928710937500e+01 3.484205961227416992e+00 -8.654418343212455511e-05 6.701714301016181707e-05 -5.858111762790940702e-06 1.779116792022250593e-05
5.400000000000000000e+02 3.979639816284179688e+01 1.307755947113037109e+00 -4.535857078735716641e-05 -1.960305235115811229e-05 -1.948848694155458361e-05 2.022849548666272312e-05
5.410000000000000000e+02 3.886597061157226562e+01 -4.014531672000885010e-01 -2.114435847033746541e-05 7.306210591195849702e-06 -4.151444500166689977e-06 1.315260851697530597e-05
5.420000000000000000e+02 3.986032867431640625e+01 -1.850633859634399414e+00 -3.501703395158983767e-05 -7.680901035200804472e-06 -1.280937976844143122e-05 -6.065697562007699162e-06
5.430000000000000000e+02 3.975487899780273438e+01 -3.378466606140136719e+00 1.132940997194964439e-05 -8.620415428595151752e-06 8.126983175316127017e-07 -1.169640472653554752e-05
5.440000000000000000e+02 4.051777267456054688e+01 -5.982688426971435547e+00 2.996685907419305295e-05 5.284142844175221398e-06 1.057530062098521739e-05 9.394304470333736390e-06
5.450000000000000000e+02 3.951208496093750000e+01 -8.891233444213867188e+00 -3.554727300070226192e-06 3.595433099690126255e-06 1.221176670895829375e-08 1.194631113321520388e-05
5.460000000000000000e+02 3.973328781127929688e+01 -1.024068832397460938e+01 -3.908913186023710296e-06 -3.115628260275116190e-06 -2.107362433889647946e-06 8.138919156408519484e-07
5.470000000000000000e+02 3.936829757690429688e+01 -1.217334461212158203e+01 -8.841391718306113034e-06 -5.273519036563811824e-06 -4.234473180986242369e-06 1.150067191701964475e-06
5.480000000000000000e+02 3.953760910034179688e+01 -1.610886573791503906e+01 -7.903017831267789006e-06 -1.208690491694142111e-06 -2.733512474151211791e-06 -3.445531149282032857e-07
5.490000000000000000e+02 3.804877471923828125e+01 -1.711268615722656250e+01 -4.311295072056964273e-07 2.749174655036767945e-06 6.954135187697829679e-07 5.607550519926007837e-06
5.500000000000000000e+02 3.791476058959960938e+01 -1.820994377136230469e+01 -2.468320587922789855e-07 3.194643340975744650e-06 8.843434216032619588e-07 -2.983332478834199719e-06
5.510000000000000000e+02 3.885923385620117188e+01 -1.794957160949707031e+01 -5.642780251946533099e-06 -7.189512871264014393e-06 -3.849687800538958982e-06 -1.674257759987085592e-06
5.520000000000000000e+02 4.047000503540039062e+01 -2.039477920532226562e+01 -4.599462499754736200e-06 -7.456454795828904025e-07 -1.603532382432604209e-06 6.410704713744053151e-07
5.530000000000000000e+02 4.186526870727539062e+01 -1.873235511779785156e+01 5.526891982299275696e-06 -1.799579308681131806e-06 1.118193836191494484e-06 2.511494358259369619e-06
5.540000000000000000e+02 4.117006301879882812e+01 -2.032189369201660156e+01 1.151057062998006586e-06 1.825369622565631289e-06 8.929279715630400460e-07 -1.334813532594125718e-06
5.550000000000000000e+02 4.277853393554687500e+01 -1.893812942504882812e+01 3.878856205119518563e-06 1.370230279462703038e-06 1.574725843056512531e-06 1.508715172349184286e-06
5.560000000000000000e+02 4.243844223022460938e+01 -1.728375434875488281e+01 -7.967922101670410484e-06 6.227998596841644030e-07 -2.203536496381275356e-06 -1.973861117221531458e-06
5.570000000000000000e+02 4.234722137451171875e+01 -1.481816768646240234e+01 -7.436420673911925405e-06 -1.153170501311251428e-06 -2.576877250248799101e-06 -1.925695187310338952e-06
5.580000000000000000e+02 4.240364837646484375e+01 -1.313365459442138672e+01 -7.286284017027355731e-06 -7.105451004463247955e-06 -4.317520506447181106e-06 8.267242037618416362e-07
5.590000000000000000e+02 4.235163879394531250e+01 -1.228712749481201172e+01 9.707150638860184699e-06 6.520493570860708132e-06 4.868293217441532761e-06 -3.346644689372624271e-06
5.600000000000000000e+02 4.237578964233398438e+01 -9.223501205444335938e+00 -2.042271262325812131e-05 3.011224976035009604e-07 -6.036476861481787637e-06 2.027971532925221254e-07
5.610000000000000000e+02 4.305233383178710938e+01 -6.250576019287109375e+00 1.988017356779891998e-05 2.199983100581448525e-06 6.624047273362521082e-06 -7.017702046141494066e-06
5.620000000000000000e+02 4.276086807250976562e+01 -3.649297952651977539e+00 -1.031522788252914324e-05 -5.632483407680410892e-06 -4.784313205163925886e-06 8.748657819523941725e-06
5.630000000000000000e+02 4.274446868896484375e+01 -1.878855347633361816e+00 1.927131961565464735e-05 6.091469003877136856e-06 7.608836767758475617e-06 -6.221865533007076010e-06
5.640000000000000000e+02 4.207386398315429688e+01 -1.302979588508605957e+00 2.210683669545687735e-05 1.487991630710894242e-05 1.109602635551709682e-05 -2.304258669028058648e-05
5.650000000000000000e+02 4.264324951171875000e+01 -3.810143470764160156e-01 -1.169685128843411803e-05 -1.114896531362319365e-05 -6.853745162516133860e-06 1.844365215220022947e-05
5.660000000000000000e+02 4.212379074096679688e+01 1.229581832885742188e+00 -6.039544314262457192e-05 -7.894644113548565656e-06 -2.048702663159929216e-05 8.098972102743573487e-06
5.670000000000000000e+02 4.183089447021484375e+01 3.798203945159912109e+00 -5.350915307644754648e-05 -4.648767117032548413e-06 -1.744737710396293551e-05 -2.249855697300517932e-06
5.680000000000000000e+02 4.233583831787109375e+01 5.640057086944580078e+00 -2.999034404638223350e-05 -4.754577730636810884e-06 -1.042347685142885894e-05 -2.413004222034942359e-05
5.690000000000000000e+02 4.134853744506835938e+01 6.904730319976806641e+00 -4.654050371755147353e-06 -5.672387032973347232e-06 -3.097931312368018553e-06 4.515795808401890099e-05
5.700000000000000000e+02 4.224549865722656250e+01 9.123811721801757812e+00 1.271010260097682476e-04 3.250472218496724963e-05 4.788172373082488775e-05 1.298259030590998009e-05
5.710000000000000000e+02 4.200770950317382812e+01 1.060672664642333984e+01 -1.432820426998659968e-04 5.872043766430579126e-05 -2.536848296585958451e-05 4.051129053550539538e-06
5.720000000000000000e+02 5.031313705444335938e+01 3.952259445190429688e+01 6.157735828310251236e-03 -2.602189313620328903e-03 1.066663884557783604e-03 8.613175712525844574e-03
5.730000000000000000e+02 5.244300460815429688e+01 3.790065765380859375e+01 5.876300390809774399e-03 -3.979411907494068146e-03 5.690665566362440586e-04 1.207982283085584641e-02
5.740000000000000000e+02 5.341989517211914062e+01 3.580561828613281250e+01 -3.051858767867088318e-02 2.619949635118246078e-03 -8.369591087102890015e-03 3.414183622226119041e-03
5.750000000000000000e+02 5.252634429931640625e+01 3.497713470458984375e+01 -1.789167337119579315e-02 4.941778024658560753e-04 -5.219248589128255844e-03 -3.999293316155672073e-03
5.760000000000000000e+02 4.869912719726562500e+01 3.672310638427734375e+01 -2.499062800779938698e-03 -8.493060595355927944e-04 -1.004510675556957722e-03 5.113958381116390228e-03
5.770000000000000000e+02 5.191982269287109375e+01 3.624417877197265625e+01 -1.454211492091417313e-02 7.192600518465042114e-03 -2.204854506999254227e-03 1.288117561489343643e-02
5.780000000000000000e+02 4.688456726074218750e+01 4.072397994995117188e+01 7.288911845535039902e-03 -5.073183681815862656e-03 6.647184491157531738e-04 3.319681389257311821e-03
5.790000000000000000e+02 5.138988876342773438e+01 3.414235687255859375e+01 -1.621123403310775757e-02 3.015746828168630600e-03 -3.958645742386579514e-03 -2.144385798601433635e-04
5.800000000000000000e+02 3.599938583374023438e+01 3.194109725952148438e+01 -5.054728826507925987e-04 8.505058212904259562e-05 -1.261266879737377167e-04 3.170329728163778782e-04
5.810000000000000000e+02 3.757374954223632812e+01 2.879066085815429688e+01 -5.835526390001177788e-04 9.488847717875614762e-05 -1.465992390876635909e-04 2.555486862547695637e-04
5.820000000000000000e+02 3.713961410522460938e+01 2.712727355957031250e+01 -1.202844068757258356e-04 4.711698056780733168e-05 -2.195022716477978975e-05 -1.503376734035555273e-05
5.830000000000000000e+02 3.672085189819335938e+01 2.584310722351074219e+01 -4.188900638837367296e-04 -5.517945101018995047e-05 -1.422208588337525725e-04 1.199346224893815815e-04
5.840000000000000000e+02 3.608425140380859375e+01 2.507275199890136719e+01 -8.392066229134798050e-05 6.328585004666820168e-05 -6.190443400555523112e-06 -2.159958821721374989e-04
5.850000000000000000e+02 3.618106460571289062e+01 2.307308387756347656e+01 -5.598754796665161848e-05 5.276996307657100260e-05 -9.652753760747145861e-07 -2.457663649693131447e-04
5.860000000000000000e+02 3.627504730224609375e+01 2.084568786621093750e+01 -6.000329085509292781e-05 4.875110244029201567e-05 -3.375656206117128022e-06 -1.701191358733922243e-04
5.870000000000000000e+02 3.590505599975585938e+01 1.888604354858398438e+01 -5.409903315012343228e-05 -3.259582399550708942e-06 -1.720758518786169589e-05 -5.008373409509658813e-05
5.880000000000000000e+02 3.620890045166015625e+01 1.735934638977050781e+01 1.065453616320155561e-04 -2.546607174735981971e-05 2.432378823868930340e-05 4.144510239711962640e-05
5.890000000000000000e+02 3.639704895019531250e+01 1.579168510437011719e+01 -8.915153739508241415e-05 -2.168656283174641430e-05 -3.325142824905924499e-05 1.299867108173202723e-06
5.900000000000000000e+02 3.651643371582031250e+01 1.426054191589355469e+01 1.493770250817760825e-04 1.140063523052958772e-05 4.823329800274223089e-05 5.501927807927131653e-05
5.910000000000000000e+02 3.656736373901367188e+01 9.921495437622070312e+00 -1.171727053588256240e-04 -2.403285634500207379e-06 -3.587279570638202131e-05 9.816891179070807993e-06
5.920000000000000000e+02 3.644657135009765625e+01 8.627311706542968750e+00 1.347294892184436321e-04 1.419199361407663673e-05 4.467644612304866314e-05 3.802946230280213058e-05
5.930000000000000000e+02 3.749134445190429688e+01 6.109171867370605469e+00 -1.002286808216013014e-04 1.936401349666994065e-05 -2.425939965178258717e-05 3.761672633117996156e-05
5.940000000000000000e+02 3.730032348632812500e+01 5.066755771636962891e+00 1.064539465005509555e-04 -1.634795808058697730e-05 2.703179779928177595e-05 7.002316237958439160e-07
5.950000000000000000e+02 3.752531051635742188e+01 1.358833551406860352e+00 1.213108225783798844e-05 1.917453846544958651e-05 9.391686035087332129e-06 5.041596978117013350e-06
5.960000000000000000e+02 3.778342056274414062e+01 -1.392587065696716309e+00 1.741282062539539766e-06 -8.433023140241857618e-06 -2.007522425628849305e-06 -1.046011129801627249e-05
5.970000000000000000e+02 3.791941452026367188e+01 -3.431900978088378906e+00 2.497474997653625906e-05 8.763654477661475539e-06 1.012152097246143967e-05 -5.104630872665438801e-06
5.980000000000000000e+02 3.895119857788085938e+01 -5.961135387420654297e+00 1.846386680881551001e-06 -6.675502390862675384e-06 -1.448734792575123720e-06 8.324949703819584101e-06
5.990000000000000000e+02 3.824542999267578125e+01 -6.856216907501220703e+00 1.429027861377107911e-06 5.221706942393211648e-06 1.995220372918993235e-06 -7.714913408563006669e-06
6.000000000000000000e+02 3.781047058105468750e+01 -9.315524101257324219e+00 -6.829814083175733685e-06 1.112446511797315907e-06 -1.715210260044841561e-06 7.898632247815839946e-06
6.010000000000000000e+02 3.730610275268554688e+01 -1.042269897460937500e+01 9.159384717349894345e-06 4.463683580979704857e-06 4.086920398549409583e-06 -1.800274844754312653e-06
6.020000000000000000e+02 3.684342575073242188e+01 -1.285823535919189453e+01 5.910870186198735610e-06 4.258530225342838094e-06 3.050820168937207200e-06 -2.268308207931113429e-06
6.030000000000000000e+02 3.794207763671875000e+01 -1.320064926147460938e+01 -1.465802938582783099e-06 -3.931909304810687900e-06 -1.619313707124092616e-06 3.426471494094585069e-06
6.040000000000000000e+02 3.717334747314453125e+01 -1.552239990234375000e+01 -6.598374397981388029e-07 6.286327902671473566e-07 -9.361399655460900249e-09 4.419359811436152086e-06
6.050000000000000000e+02 3.671870803833007812e+01 -1.795089340209960938e+01 -1.902963163047388662e-06 2.354825028305640444e-06 1.355585652618174208e-07 2.354057187403668649e-06
6.060000000000000000e+02 3.334664154052734375e+01 3.804640579223632812e+01 3.673839091788977385e-04 -5.719885230064392090e-04 -6.138138269307091832e-05 3.998529573436826468e-04
6.070000000000000000e+02 3.358317947387695312e+01 3.520492553710937500e+01 -1.288398343604058027e-04 -1.538316282676532865e-04 -8.480143878841772676e-05 2.132505469489842653e-04
6.080000000000000000e+02 3.370682907104492188e+01 3.263043594360351562e+01 1.707302180875558406e-05 -2.524960727896541357e-04 -7.062691292958334088e-05 4.001548804808408022e-04
6.090000000000000000e+02 3.558492660522460938e+01 2.787751007080078125e+01 -4.242851573508232832e-04 6.924402987351641059e-05 -1.065123360604047775e-04 7.493774319300428033e-05
6.100000000000000000e+02 3.559512710571289062e+01 2.633490180969238281e+01 -9.642332588555291295e-05 -4.341536623542197049e-05 -4.195160727249458432e-05 1.468310365453362465e-04
6.110000000000000000e+02 3.516216278076171875e+01 2.460912704467773438e+01 -1.261562720173969865e-04 -9.698420035419985652e-05 -6.694214243907481432e-05 2.438004739815369248e-04
6.120000000000000000e+02 3.514144515991210938e+01 2.243792724609375000e+01 -4.630660623661242425e-05 -1.039723647409118712e-04 -4.508368874667212367e-05 1.963949471246451139e-04
6.130000000000000000e+02 3.510189056396484375e+01 2.021529579162597656e+01 -1.129308366216719151e-04 -5.106049138703383505e-05 -4.919739876640960574e-05 1.561779354233294725e-04
6.140000000000000000e+02 3.451946640014648438e+01 1.908360481262207031e+01 1.295422989642247558e-04 -4.125689520151354373e-05 2.648562076501548290e-05 -2.587594826763961464e-05
6.150000000000000000e+02 3.456059646606445312e+01 1.750755500793457031e+01 -1.137723811552859843e-04 -1.535018236609175801e-05 -3.873676905641332269e-05 9.261182640329934657e-06
6.160000000000000000e+02 3.465445327758789062e+01 1.595473003387451172e+01 1.230053312610834837e-04 -1.600385257916059345e-05 3.210044451407156885e-05 3.097995431744493544e-05
6.170000000000000000e+02 3.474193954467773438e+01 1.443454360961914062e+01 -8.726903615752235055e-05 -3.323618147987872362e-05 -3.615156674641184509e-05 3.513828687573550269e-06
6.180000000000000000e+02 3.484762573242187500e+01 1.293663597106933594e+01 1.291732478421181440e-04 -6.098071935412008315e-06 3.692255268106237054e-05 4.570849341689608991e-05
6.190000000000000000e+02 3.492899322509765625e+01 1.008373260498046875e+01 1.331512903561815619e-04 5.875918759556952864e-06 4.170816464466042817e-05 4.908394475933164358e-05
6.200000000000000000e+02 3.472538757324218750e+01 7.431480407714843750e+00 1.121301029343158007e-04 5.890781721973326057e-06 3.540626494213938713e-05 4.679419726016931236e-05
6.210000000000000000e+02 3.484363555908203125e+01 6.144872188568115234e+00 -6.510059756692498922e-05 4.599874500854639336e-06 -1.815021641959901899e-05 -1.102407986763864756e-05
6.220000000000000000e+02 3.514157867431640625e+01 5.006950378417968750e+00 7.521242514485493302e-05 -6.993935130594763905e-06 2.046554618573281914e-05 3.353381180204451084e-05
6.230000000000000000e+02 3.627020263671875000e+01 3.975613117218017578e+00 9.300874808104708791e-05 -1.163777324109105393e-05 2.441129254293628037e-05 -4.204692061193782138e-07
6.240000000000000000e+02 3.604461669921875000e+01 1.564510345458984375e+00 1.033696389640681446e-05 6.925195521034765989e-06 5.178647825232474133e-06 2.443804987706243992e-05
6.250000000000000000e+02 3.649016571044921875e+01 6.915935873985290527e-01 -1.102056467061629519e-05 -6.294904778769705445e-06 -5.194640834815800190e-06 3.960254161938792095e-06
6.260000000000000000e+02 3.665646362304687500e+01 -3.348018169403076172e+00 -2.579725332907401025e-05 -1.126536426454549655e-05 -1.111878555093426257e-05 -1.265496848645852879e-05
6.270000000000000000e+02 3.691424942016601562e+01 -5.577309131622314453e+00 -6.785558070987462997e-06 -2.297067567269550636e-06 -2.724787691477104090e-06 -4.846581305173458531e-06
6.280000000000000000e+02 3.572912979125976562e+01 -7.633528232574462891e+00 1.074367173714563251e-05 4.214568434690590948e-06 4.487471869651926681e-06 9.170280463877134025e-06
6.290000000000000000e+02 3.664434432983398438e+01 -8.651624679565429688e+00 7.038578587525989860e-06 -5.613019880001957063e-07 1.943182951436028816e-06 -8.924588655645493418e-06
6.300000000000000000e+02 3.572669601440429688e+01 -1.134938335418701172e+01 1.305479054281022400e-05 2.713187996050692163e-06 4.730393357021966949e-06 -1.132411739490635227e-06
6.310000000000000000e+02 3.573311996459960938e+01 -1.272707557678222656e+01 -9.326055987912695855e-06 -1.753439391904976219e-06 -3.323848659420036711e-06 -7.334639917644381057e-07
6.320000000000000000e+02 3.532178115844726562e+01 -1.533227348327636719e+01 6.960071459616301581e-06 -4.784733960150333587e-07 1.944479436133406125e-06 1.469526296205003746e-06
6.330000000000000000e+02 3.540370941162109375e+01 -1.786596870422363281e+01 3.719639494192961138e-07 -5.010901986679527909e-06 -1.391681394125043880e-06 -7.356790092671872117e-07
6.340000000000000000e+02 3.151793861389160156e+01 3.276979064941406250e+01 -1.714349782560020685e-04 -6.168167601572349668e-05 -6.993499118834733963e-05 4.644222281058318913e-05
6.350000000000000000e+02 3.382506561279296875e+01 3.029648399353027344e+01 -3.538804303389042616e-04 5.287806561682373285e-05 -9.030070941662415862e-05 8.801661897450685501e-05
6.360000000000000000e+02 3.403915786743164062e+01 2.815812301635742188e+01 -8.660151070216670632e-05 -1.087275813915766776e-04 -5.859872544533573091e-05 2.251911209896206856e-04
6.370000000000000000e+02 3.445357131958007812e+01 2.626227378845214844e+01 -2.750021812971681356e-04 6.982139166211709380e-05 -6.155423761811107397e-05 -1.207721361424773932e-04
6.380000000000000000e+02 3.412113952636718750e+01 2.414623832702636719e+01 -1.317656860919669271e-04 4.194724169792607427e-05 -2.694553222681861371e-05 -1.742574240779504180e-04
6.390000000000000000e+02 3.297315979003906250e+01 2.367384529113769531e+01 -9.659064380684867501e-05 -8.485087892040610313e-05 -5.443245754577219486e-05 1.603896962478756905e-04
6.400000000000000000e+02 3.300242233276367188e+01 1.942865562438964844e+01 -1.489322312409058213e-04 -8.403197170991916209e-06 -4.720062497653998435e-05 -3.307303268229588866e-05
6.410000000000000000e+02 3.294070434570312500e+01 1.776509857177734375e+01 1.196490411530248821e-04 -4.807566801900975406e-05 2.147201303159818053e-05 2.183380820497404784e-05
6.420000000000000000e+02 3.293789291381835938e+01 1.459834194183349609e+01 1.172394622699357569e-04 -1.222231730935163796e-05 3.150514385197311640e-05 3.358217145432718098e-05
6.430000000000000000e+02 3.339227294921875000e+01 1.018456459045410156e+01 -8.580264693591743708e-05 -2.361102269787807018e-05 -3.282410034444183111e-05 -1.280743890674784780e-05
6.440000000000000000e+02 3.312910842895507812e+01 7.584513664245605469e+00 -8.409854490309953690e-05 -1.738646642479579896e-05 -3.044550248887389898e-05 2.938756779258255847e-06
6.450000000000000000e+02 3.363206100463867188e+01 5.627460479736328125e+00 2.828728383974521421e-06 5.410474386735586450e-06 2.471760808475664817e-06 3.575934897526167333e-05
6.460000000000000000e+02 3.412291717529296875e+01 4.614881038665771484e+00 -2.868530145860859193e-06 -1.485959728597663343e-05 -5.318438070389674976e-06 -3.017850758624263108e-06
6.470000000000000000e+02 3.512503814697265625e+01 3.285341739654541016e+00 8.243412594310939312e-05 -2.455117464705836028e-05 1.736488593451213092e-05 -7.722102054685819894e-06
6.480000000000000000e+02 3.460793304443359375e+01 2.513790369033813477e+00 -4.766295751323923469e-05 1.457576945540495217e-05 -9.926156053552404046e-06 3.390956044313497841e-05
6.490000000000000000e+02 3.531947326660156250e+01 2.130811661481857300e-01 4.087454362888820469e-05 2.196966079281992279e-06 1.292145316256210208e-05 1.865362173703033477e-05
6.500000000000000000e+02 3.481659317016601562e+01 -2.654174566268920898e+00 -2.012246113736182451e-05 -9.418893569090869278e-06 -8.862406502885278314e-06 -1.192921990877948701e-05
6.510000000000000000e+02 3.527617263793945312e+01 -3.847139596939086914e+00 1.725908077787607908e-05 1.158902796305483207e-05 8.654432349430862814e-06 2.214019878010731190e-05
6.520000000000000000e+02 3.482736968994140625e+01 -5.376936912536621094e+00 3.743816478163353167e-06 2.100012716255150735e-05 7.423183433274971321e-06 1.137187700805952772e-05
6.530000000000000000e+02 3.416984939575195312e+01 -6.699172019958496094e+00 2.572408629930578172e-05 2.413704578430042602e-06 8.441336831310763955e-06 2.417870518911513500e-06
6.540000000000000000e+02 3.454563522338867188e+01 -9.528956413269042969e+00 2.112553920596837997e-05 9.674035936768632382e-07 6.627883067267248407e-06 1.532273131488182116e-06
6.550000000000000000e+02 3.437306594848632812e+01 -1.108863162994384766e+01 -1.340523158432915807e-05 -3.593741837448760634e-07 -4.129381522943731397e-06 6.381965818036405835e-07
6.560000000000000000e+02 3.416611480712890625e+01 -1.231911659240722656e+01 1.598694143467582762e-05 -3.776827725232578814e-06 3.663034249257179908e-06 -2.635994405864039436e-06
6.570000000000000000e+02 3.319194793701171875e+01 -1.331257247924804688e+01 1.033429271046770737e-05 -1.744544078974286094e-06 2.576924543973291293e-06 2.800179800033220090e-06
6.580000000000000000e+02 3.311307907104492188e+01 -1.548740959167480469e+01 3.278102212789235637e-06 -4.371993611584912287e-07 8.522708299096848350e-07 2.137345973096671514e-06
6.590000000000000000e+02 3.408457183837890625e+01 -1.784942626953125000e+01 -1.382870095767430030e-06 4.929316673951689154e-06 1.063934064404747915e-06 -1.937618492320325458e-07
6.600000000000000000e+02 2.823942756652832031e+01 4.094750595092773438e+01 4.945315595250576735e-05 -2.723766956478357315e-04 -6.687705899821594357e-05 2.106558822561055422e-04
6.610000000000000000e+02 2.962973213195800781e+01 3.796378326416015625e+01 5.322038123267702758e-05 -2.166671038139611483e-04 -4.903401713818311691e-05 -8.723358041606843472e-05
6.620000000000000000e+02 2.972293663024902344e+01 3.246342468261718750e+01 -3.743714114534668624e-05 -1.927874400280416012e-04 -6.906737689860165119e-05 3.057847206946462393e-04
6.630000000000000000e+02 3.053442382812500000e+01 3.048574638366699219e+01 -2.375284093432128429e-04 -1.943439019669312984e-05 -7.708883640589192510e-05 3.432796074775978923e-05
6.640000000000000000e+02 3.262014389038085938e+01 2.811952781677246094e+01 -2.415989583823829889e-04 3.560853292583487928e-05 -6.179712363518774509e-05 -7.545291737187653780e-05
6.650000000000000000e+02 3.215679931640625000e+01 2.567016601562500000e+01 -1.331839885096997023e-04 9.217925253324210644e-06 -3.718982043210417032e-05 -9.035155380843207240e-05
6.660000000000000000e+02 3.182813644409179688e+01 2.303199195861816406e+01 -4.694238668889738619e-05 1.405002421961398795e-05 -9.867709195532370359e-06 -8.665092900628224015e-05
6.670000000000000000e+02 3.268733215332031250e+01 2.122287368774414062e+01 1.621933733986224979e-05 -1.021808857331052423e-04 -2.578846397227607667e-05 9.617078467272222042e-05
6.680000000000000000e+02 3.037515449523925781e+01 2.042273902893066406e+01 -4.469140549190342426e-05 -1.054529129760339856e-04 -4.504329626797698438e-05 4.616771911969408393e-05
6.690000000000000000e+02 3.122375869750976562e+01 1.646203613281250000e+01 1.096170090022496879e-04 -3.383310831850394607e-05 2.273517020512372255e-05 1.547493957332335413e-05
6.700000000000000000e+02 3.113591003417968750e+01 1.492421531677246094e+01 -9.495874837739393115e-05 -5.047063314123079181e-05 -4.362881372799165547e-05 9.410618986294139177e-06
6.710000000000000000e+02 3.312017059326171875e+01 1.302764415740966797e+01 -6.605259113712236285e-05 -1.829998836910817772e-05 -2.530577330617234111e-05 -1.107427942770300433e-05
6.720000000000000000e+02 3.196556472778320312e+01 1.026489353179931641e+01 1.012256325338967144e-04 -1.299806967836047988e-06 2.997774754476267844e-05 4.729038482764735818e-05
6.730000000000000000e+02 3.162662124633789062e+01 7.861662387847900391e+00 1.009348707157187164e-04 3.807737357419682667e-06 3.142278364975936711e-05 4.391742913867346942e-05
6.740000000000000000e+02 3.212931823730468750e+01 5.454001903533935547e+00 -6.371186464093625546e-05 4.609322701298879110e-08 -1.909973070723935962e-05 2.923883221228606999e-05
6.750000000000000000e+02 3.197669410705566406e+01 4.597347259521484375e+00 7.995856867637485266e-05 -1.954337676579598337e-05 1.812455593608319759e-05 1.233521197718800977e-05
6.760000000000000000e+02 3.207239151000976562e+01 2.489279747009277344e+00 6.365652370732277632e-05 2.282066589032183401e-06 1.978157706616912037e-05 1.465855984861264005e-05
6.770000000000000000e+02 3.272046279907226562e+01 1.212200284004211426e+00 3.318126255180686712e-05 1.466732555854832754e-05 1.435457670595496893e-05 -2.002691508096177131e-05
6.780000000000000000e+02 3.409623336791992188e+01 -2.035222053527832031e-01 -2.594014586065895855e-05 -3.970561920141335577e-06 -8.973212061391677707e-06 -6.077533726056572050e-06
6.790000000000000000e+02 3.319749069213867188e+01 -1.879737019538879395e+00 -1.387602333124959841e-05 9.360043804917950183e-06 -1.354793653263186570e-06 -1.279589832847705111e-05
6.800000000000000000e+02 3.305801391601562500e+01 -4.164286613464355469e+00 -2.750867133727297187e-05 -1.637490527173213195e-06 -8.743848411540966481e-06 3.964849838666850701e-06
6.810000000000000000e+02 3.279989242553710938e+01 -5.502127647399902344e+00 3.333198765176348388e-05 1.152333879872458056e-06 1.034529668686445802e-05 2.344292369116374175e-07
6.820000000000000000e+02 3.322854232788085938e+01 -9.228451728820800781e+00 -1.337745197815820575e-05 -2.791441147564910352e-06 -4.850668119615875185e-06 1.532750843580288347e-06
6.830000000000000000e+02 3.209037017822265625e+01 -1.149622917175292969e+01 -3.492958512651966885e-06 -2.951377155113732442e-06 -1.933300836753915064e-06 -3.720129598150379024e-06
6.840000000000000000e+02 3.159461021423339844e+01 -1.344562339782714844e+01 6.335621947073377669e-06 1.394770947626966517e-07 1.942529706866480410e-06 3.443500645516905934e-06
6.850000000000000000e+02 3.210250854492187500e+01 -1.538149547576904297e+01 -3.570992021195706911e-06 1.178161141979217064e-06 -7.178492751336307265e-07 -2.747664211710798554e-06
6.860000000000000000e+02 3.151731300354003906e+01 -1.764265823364257812e+01 -1.330492409579164814e-06 1.981897867153747939e-06 1.954216344302039943e-07 -3.153223531171533978e-07
6.870000000000000000e+02 3.183598327636718750e+01 -1.648278999328613281e+01 1.939652975124772638e-06 -1.701715746094123460e-06 7.138121560501531349e-08 2.097254537147819065e-06
6.880000000000000000e+02 2.942510604858398438e+01 3.027002716064453125e+01 -2.327705733478069305e-04 -8.698699093656614423e-05 -9.592727292329072952e-05 1.430693664588034153e-04
6.890000000000000000e+02 3.040165138244628906e+01 2.913205909729003906e+01 1.992186589632183313e-04 -1.328592188656330109e-04 1.990783312066923827e-05 2.929292713815812021e-05
6.900000000000000000e+02 3.037259864807128906e+01 2.709895133972167969e+01 -1.238042168552055955e-04 1.599747338332235813e-05 -3.234202449675649405e-05 -9.625424354453571141e-06
6.910000000000000000e+02 3.097676277160644531e+01 2.553812026977539062e+01 -7.424030627589672804e-06 -1.050373684847727418e-04 -3.373841900611296296e-05 6.213778397068381310e-05
6.920000000000000000e+02 3.078649139404296875e+01 2.431608581542968750e+01 -2.240627218270674348e-04 -5.038675226387567818e-05 -8.233483822550624609e-05 1.000288684736005962e-04
6.930000000000000000e+02 3.074708175659179688e+01 2.233344841003417969e+01 -1.037034871842479333e-05 -1.212909337482415140e-04 -3.949838355765677989e-05 8.365789835806936026e-05
6.940000000000000000e+02 2.971152687072753906e+01 2.177270507812500000e+01 -4.857244130107574165e-05 1.272714052902301773e-05 -1.075358977686846629e-05 -5.175799742573872209e-05
6.950000000000000000e+02 2.916354751586914062e+01 1.994501495361328125e+01 -5.872471228940412402e-05 5.223229891271330416e-06 -1.605044417374301702e-05 -5.094376319902949035e-05
6.960000000000000000e+02 2.959225463867187500e+01 1.830333900451660156e+01 5.623865581583231688e-05 -4.229135083733126521e-05 4.184191311651375145e-06 3.301750621176324785e-05
6.970000000000000000e+02 2.953887557983398438e+01 1.674534606933593750e+01 -7.599886157549917698e-05 -5.773492011940106750e-05 -4.012013596366159618e-05 -1.755980702000670135e-05
6.980000000000000000e+02 2.941288757324218750e+01 1.531054687500000000e+01 8.856057684170082211e-05 -1.604006320121698081e-05 2.175615372834727168e-05 1.359588713967241347e-05
6.990000000000000000e+02 3.056356048583984375e+01 1.260891056060791016e+01 -7.488443225156515837e-05 4.231765160511713475e-06 -2.119579949066974223e-05 3.037642454728484154e-05
7.000000000000000000e+02 3.065568161010742188e+01 1.036889171600341797e+01 -5.731632336392067373e-05 -3.647731864475645125e-05 -2.813809260260313749e-05 -1.478521971876034513e-05
7.010000000000000000e+02 3.017655754089355469e+01 8.052682876586914062e+00 -6.446451152442023158e-05 -3.174865560140460730e-05 -2.886394941015169024e-05 -1.742289350659120828e-05
7.020000000000000000e+02 3.103024482727050781e+01 4.592046737670898438e+00 -5.640856034005992115e-05 2.119987357218633406e-06 -1.628657264518551528e-05 5.905203579459339380e-06
7.030000000000000000e+02 3.099541091918945312e+01 2.523891210556030273e+00 -4.041919237351976335e-05 -1.237529431818984449e-05 -1.583834637131076306e-05 9.192405741487164050e-06
7.040000000000000000e+02 3.085014152526855469e+01 1.430637240409851074e+00 6.339784886222332716e-05 -4.714692749985260889e-06 1.760494706104509532e-05 2.265652938149287365e-06
7.050000000000000000e+02 3.135724067687988281e+01 -2.652989923954010010e-01 2.663572377059608698e-05 8.853557460497540887e-07 8.256323781097307801e-06 -1.624525066290516406e-05
7.060000000000000000e+02 3.153280639648437500e+01 -1.913096308708190918e+00 1.347971010545734316e-05 1.078584955394035205e-05 7.279667897819308564e-06 -9.048571882885880768e-06
7.070000000000000000e+02 3.073709487915039062e+01 -4.723232746124267578e+00 2.515299911465262994e-06 -7.096412446117028594e-06 -1.374333692183427047e-06 1.576824979565571994e-05
7.080000000000000000e+02 3.148530769348144531e+01 -5.803646564483642578e+00 -5.991531907056923956e-06 -4.820514277525944635e-06 -3.243613946324330755e-06 -4.050594725413247943e-06
7.090000000000000000e+02 3.076061248779296875e+01 -7.392211437225341797e+00 -2.584443734576780116e-07 -6.328451490844599903e-06 -1.976068688236409798e-06 -2.616427764223772101e-06
7.100000000000000000e+02 2.991591835021972656e+01 -1.040417671203613281e+01 3.060742983507225290e-06 -6.046751877875067294e-06 -8.958026000982499681e-07 -4.280777829990256578e-06
7.110000000000000000e+02 3.040002441406250000e+01 -1.211967277526855469e+01 -1.186200620395538863e-06 -3.237622877350077033e-06 -1.327147060692368541e-06 -2.190696704928996041e-06
7.120000000000000000e+02 3.094777870178222656e+01 -1.373400115966796875e+01 2.880429519791505300e-06 -2.042291953330277465e-06 2.514412074106076034e-07 -2.250228362754569389e-06
7.130000000000000000e+02 2.990125465393066406e+01 -1.583539485931396484e+01 5.069495273346547037e-06 -8.199644412343332078e-07 1.274859187105903402e-06 1.974781298486050218e-06
7.140000000000000000e+02 2.920730400085449219e+01 -1.687088203430175781e+01 -3.320221367175690830e-06 -1.009739094115502667e-06 -1.298988081543939188e-06 -1.361854629067238420e-06
7.150000000000000000e+02 3.031041145324707031e+01 -1.732736778259277344e+01 4.546878642486262834e-07 -4.571190572733030422e-07 -7.293564641130956261e-10 1.007692162602324970e-06
7.160000000000000000e+02 2.661271286010742188e+01 3.721109390258789062e+01 -9.020412835525348783e-05 -1.704516616882756352e-04 -7.819673919584602118e-05 2.433478657621890306e-04
7.170000000000000000e+02 2.843376159667968750e+01 3.465794372558593750e+01 7.704387098783627152e-05 -1.649393525440245867e-04 -2.636864155647344887e-05 -6.575533188879489899e-05
7.180000000000000000e+02 2.838761711120605469e+01 3.180346679687500000e+01 8.260784670710563660e-05 -1.085513504222035408e-04 -7.783050023135729134e-06 4.301486842450685799e-05
7.190000000000000000e+02 2.863995933532714844e+01 2.959484100341796875e+01 8.763770165387541056e-05 -8.028730371734127402e-05 2.205117880293983035e-06 3.566179293557070196e-05
7.200000000000000000e+02 2.957228279113769531e+01 2.842402076721191406e+01 -1.997860090341418982e-04 -9.676461922936141491e-05 -8.896518556866794825e-05 1.790300739230588078e-04
7.210000000000000000e+02 2.931801795959472656e+01 2.664911270141601562e+01 -7.076597830746322870e-05 -1.150187599705532193e-04 -5.573542148340493441e-05 6.723350088577717543e-05
7.220000000000000000e+02 2.809877204895019531e+01 2.430107688903808594e+01 -6.574981671292334795e-05 3.215459855709923431e-06 -1.876030728453770280e-05 -7.382725016213953495e-05
7.230000000000000000e+02 2.813790130615234375e+01 2.250535583496093750e+01 -3.409891724004410207e-05 -9.517018042970448732e-06 -1.308478022110648453e-05 -8.934958896134048700e-05
7.240000000000000000e+02 2.865451049804687500e+01 2.137382316589355469e+01 3.156311868224292994e-05 -8.248614176409319043e-05 -1.527690619695931673e-05 5.823164246976375580e-05
7.250000000000000000e+02 2.788351440429687500e+01 1.963951683044433594e+01 -1.206773413287010044e-05 -9.435617539566010237e-05 -3.192717485944740474e-05 5.724782749894075096e-05
7.260000000000000000e+02 2.817610931396484375e+01 1.837312507629394531e+01 -7.500633364543318748e-05 -4.867239840677939355e-05 -3.710361852427013218e-05 -1.541891106171533465e-05
7.270000000000000000e+02 2.786035919189453125e+01 1.705247306823730469e+01 6.683526589768007398e-05 -2.639401145643205382e-06 1.925875949382316321e-05 1.235237868968397379e-05
7.280000000000000000e+02 2.769422531127929688e+01 1.555327606201171875e+01 -5.722047717426903546e-05 -4.473936132853850722e-05 -3.058795118704438210e-05 -5.645584224112099037e-06
7.290000000000000000e+02 2.923514747619628906e+01 1.264155101776123047e+01 1.048750855261459947e-04 -4.641366467694751918e-05 1.753842661855742335e-05 2.027312439167872071e-05
7.300000000000000000e+02 2.922758483886718750e+01 9.508936882019042969e+00 -5.196714118937961757e-05 -4.895667734672315419e-05 -3.027714592462871224e-05 -5.339392373571172357e-06
7.310000000000000000e+02 2.883798217773437500e+01 8.423497200012207031e+00 8.613604586571455002e-05 3.415213996049715206e-07 2.594327088445425034e-05 1.656992753851227462e-05
7.320000000000000000e+02 2.894456672668457031e+01 5.545810222625732422e+00 5.243917621555738151e-05 1.401919234922388569e-06 1.615232940821442753e-05 4.776044079335406423e-05
7.330000000000000000e+02 2.894061851501464844e+01 4.476043701171875000e+00 -2.125920400430914015e-05 -2.617339487187564373e-05 -1.422977948095649481e-05 -1.693276863079518080e-05
7.340000000000000000e+02 2.999604988098144531e+01 3.521770477294921875e+00 -3.366506280144676566e-05 -1.490114937041653320e-05 -1.456986319681163877e-05 -6.718113922943302896e-07
7.350000000000000000e+02 2.958265113830566406e+01 -5.346590876579284668e-01 4.633830030797980726e-05 -1.346717544947750866e-05 9.861338185146450996e-06 -1.553903166495729238e-05
7.360000000000000000e+02 2.942508125305175781e+01 -2.600128650665283203e+00 8.924491339712403715e-06 -1.841400990088004619e-05 -2.846855522875557654e-06 1.728883762552868575e-05
7.370000000000000000e+02 2.845452690124511719e+01 -3.976091861724853516e+00 3.283864089098642580e-06 -3.407490567042259499e-06 -3.708789364509357256e-08 -1.364536001347005367e-05
7.380000000000000000e+02 2.883857154846191406e+01 -6.187659263610839844e+00 2.213799916717107408e-06 -9.473602403886616230e-06 -2.177940814362955280e-06 1.145387250289786607e-05
7.390000000000000000e+02 2.857222366333007812e+01 -9.239603042602539062e+00 2.114385097229387611e-05 -2.034698809438850731e-06 5.732745648856507614e-06 3.383282091817818582e-06
7.400000000000000000e+02 2.871496963500976562e+01 -1.092343807220458984e+01 -7.207870112324599177e-06 -2.254060063933138736e-06 -2.838579121089424007e-06 3.106123358520562761e-06
7.410000000000000000e+02 2.960346984863281250e+01 -1.241676807403564453e+01 4.345843080955091864e-06 2.441660626573138870e-06 2.036251089521101676e-06 1.492689989390783012e-06
7.420000000000000000e+02 2.921734237670898438e+01 -1.388841724395751953e+01 -1.557209316160879098e-06 -1.823056322791671846e-06 -1.014079657579713967e-06 1.102685473597375676e-06
7.430000000000000000e+02 2.846364212036132812e+01 -1.611730384826660156e+01 4.061365871166344732e-06 2.230531435998273082e-06 1.887569283098855522e-06 1.168421476904768497e-06
7.440000000000000000e+02 2.920761489868164062e+01 -1.529057312011718750e+01 -3.138891997878090478e-06 -1.736732770041271579e-06 -1.462687464481859934e-06 5.787005541435519262e-09
7.450000000000000000e+02 2.743971824645996094e+01 3.083487129211425781e+01 -1.818365999497473240e-04 -1.223416329594329000e-04 -9.125347423832863569e-05 1.074073516065254807e-04
7.460000000000000000e+02 2.800190544128417969e+01 2.877581405639648438e+01 -1.724254398141056299e-04 -9.029834473039954901e-05 -7.881713099777698517e-05 1.294292451348155737e-04
7.470000000000000000e+02 2.660153961181640625e+01 2.814959335327148438e+01 -1.305562618654221296e-04 -6.045878762961365283e-05 -5.730451448471285403e-05 1.006810125545598567e-04
7.480000000000000000e+02 2.777413940429687500e+01 2.767793273925781250e+01 3.392538565094582736e-05 -1.190352995763532817e-04 -2.553297417762223631e-05 3.023441786353942007e-05
7.490000000000000000e+02 2.722601699829101562e+01 2.367098617553710938e+01 -5.507535388460382819e-05 -8.760188939049839973e-05 -4.280317079974338412e-05 1.020720446831546724e-04
7.500000000000000000e+02 2.752877616882324219e+01 2.177094268798828125e+01 -1.020783311105333269e-04 -6.798518734285607934e-05 -5.101905480842106044e-05 7.035344606265425682e-05
7.510000000000000000e+02 2.686691474914550781e+01 2.089232826232910156e+01 2.494216096238233149e-05 -5.409453024185495451e-06 5.859812517883256078e-06 -6.010682045598514378e-05
7.520000000000000000e+02 2.533567619323730469e+01 1.692444038391113281e+01 2.643309562699869275e-05 -4.638682639779290184e-06 6.538323759741615504e-06 -1.791789873095694929e-05
7.530000000000000000e+02 2.635929679870605469e+01 1.395193004608154297e+01 -2.034127101069316268e-05 -3.709681550390087068e-05 -1.723142486298456788e-05 -5.732117188017582521e-06
7.540000000000000000e+02 2.783165931701660156e+01 1.268949317932128906e+01 -7.393878331640735269e-05 -2.515325104468502104e-05 -2.972761103592347354e-05 -9.054715519596356899e-07
7.550000000000000000e+02 2.710045433044433594e+01 1.035935688018798828e+01 -6.369918992277234793e-05 -4.104768231627531350e-05 -3.142406058032065630e-05 7.957665729918517172e-06
7.560000000000000000e+02 2.729153251647949219e+01 6.948213577270507812e+00 -8.843971954775042832e-06 2.777129566311486997e-06 -1.820052830225904472e-06 -3.688931246870197356e-05
7.570000000000000000e+02 2.782174110412597656e+01 6.196133613586425781e+00 3.238454883103258908e-05 -2.274325743201188743e-05 2.892387328756740317e-06 3.964484858443029225e-05
7.580000000000000000e+02 2.720511245727539062e+01 5.610898971557617188e+00 4.543684917734935880e-05 7.360115432675229385e-06 1.583908851898740977e-05 -3.083267529291333631e-06
7.590000000000000000e+02 2.790108299255371094e+01 3.249104976654052734e+00 -8.162292942870408297e-06 -2.465671059326268733e-05 -9.845701242738869041e-06 -1.264597358385799453e-05
7.600000000000000000e+02 2.713762092590332031e+01 1.864168763160705566e+00 1.736806098051602021e-06 -2.897041122196242213e-05 -8.170081855496391654e-06 -2.131633664248511195e-05
7.610000000000000000e+02 2.876597404479980469e+01 2.129733413457870483e-01 -1.355064341623801738e-06 5.533201147045474499e-06 1.253441041626501828e-06 2.829765071510337293e-05
7.620000000000000000e+02 2.788455200195312500e+01 -2.358644008636474609e+00 -1.822493686631787568e-05 -3.679073643070296384e-06 -6.571203357452759519e-06 -1.547158353787381202e-05
7.630000000000000000e+02 2.756190490722656250e+01 -4.329268455505371094e+00 1.948212957358919084e-05 -5.081134531792486086e-06 4.320298558013746515e-06 1.683523987594526261e-05
7.640000000000000000e+02 2.719045257568359375e+01 -6.110664367675781250e+00 -6.766015303583117202e-06 -2.256549123558215797e-06 -2.706769464566605166e-06 -9.669136488810181618e-06
7.650000000000000000e+02 2.756749916076660156e+01 -7.468856811523437500e+00 -1.512894505140138790e-05 1.388034320370934438e-06 -4.122272912354674190e-06 2.393895556451752782e-06
7.660000000000000000e+02 2.717529296875000000e+01 -8.989270210266113281e+00 6.069729806768009439e-06 3.599814363042241894e-06 2.900863137256237678e-06 -3.906635356543119997e-06
7.670000000000000000e+02 2.726043891906738281e+01 -1.086518478393554688e+01 -6.577904969162773341e-06 -2.083412255160510540e-06 -2.598395212771720253e-06 -2.015503469010582194e-06
7.680000000000000000e+02 2.639054107666015625e+01 -1.363830375671386719e+01 -1.896833964565303177e-06 2.493108922863029875e-06 1.788824590676085791e-07 3.164349891449091956e-06
7.690000000000000000e+02 2.683661842346191406e+01 -1.270048904418945312e+01 1.879137130345043261e-06 1.736748004077526275e-06 1.084765585801505949e-06 2.559903578003286384e-06
7.700000000000000000e+02 2.668415832519531250e+01 -1.430359458923339844e+01 3.668165390990907326e-06 -2.215456561316386797e-06 4.358126091119629564e-07 -2.625457227622973733e-06
7.710000000000000000e+02 2.750024604797363281e+01 -1.644553947448730469e+01 -7.884134447522228584e-07 7.211974093479511794e-07 -2.016481914779433282e-08 2.195419938288978301e-06
7.720000000000000000e+02 2.462164878845214844e+01 3.576682662963867188e+01 2.032346092164516449e-04 -1.627417659619823098e-04 1.214785061165457591e-05 -7.533523330494062975e-06
7.730000000000000000e+02 2.682399559020996094e+01 3.361866760253906250e+01 -1.822255144361406565e-04 -1.327000209130346775e-04 -9.447766205994412303e-05 1.569732994539663196e-04
7.740000000000000000e+02 2.575498199462890625e+01 3.217146682739257812e+01 9.829350892687216401e-05 -1.007545433822087944e-04 -7.383113143077935092e-07 4.943567910231649876e-05
7.750000000000000000e+02 2.527330970764160156e+01 3.034373474121093750e+01 -1.282659795833751559e-04 -6.467264756793156266e-05 -5.788158887298777699e-05 5.650386447086930275e-05
7.760000000000000000e+02 2.536601638793945312e+01 2.854962158203125000e+01 4.740732038044370711e-05 -1.180191466119140387e-04 -2.118354859703686088e-05 6.201166252139955759e-05
7.770000000000000000e+02 2.619904327392578125e+01 2.504099845886230469e+01 -4.903094668406993151e-05 -5.232584953773766756e-06 -1.627906021894887090e-05 -7.247690518852323294e-05
7.780000000000000000e+02 2.642391967773437500e+01 2.294555282592773438e+01 1.848522543923536432e-07 -5.968156074231956154e-06 -1.734991201374214143e-06 -6.367151945596560836e-05
7.790000000000000000e+02 2.565277099609375000e+01 2.215637397766113281e+01 -7.475582242477685213e-05 -7.882227509981021285e-05 -4.607342998497188091e-05 5.328073166310787201e-05
7.800000000000000000e+02 2.484947013854980469e+01 2.131842041015625000e+01 1.492547016823664308e-05 -1.400710857524245512e-06 4.057427759107667953e-06 -3.640017530415207148e-05
7.810000000000000000e+02 2.403057861328125000e+01 2.043351364135742188e+01 -5.580273864325135946e-05 -7.161402027122676373e-05 -3.822502912953495979e-05 2.083947219944093376e-05
7.820000000000000000e+02 2.430890655517578125e+01 1.829954719543457031e+01 -5.432727266452275217e-05 -5.675524516846053302e-05 -3.332475534989498556e-05 7.134306088119046763e-06
7.830000000000000000e+02 2.399996757507324219e+01 1.628763961791992188e+01 4.943176463712006807e-06 -6.106471118982881308e-05 -1.683646041783504188e-05 1.363738078907772433e-06
7.840000000000000000e+02 2.457880592346191406e+01 1.489192867279052734e+01 -2.441258857288630679e-06 -1.464500292058801278e-05 -5.125878487888257951e-06 1.130961493345239433e-07
7.850000000000000000e+02 2.604286766052246094e+01 1.073331546783447266e+01 7.840405305614694953e-05 -7.348091912717791274e-06 2.131678775185719132e-05 5.795951892650919035e-06
7.860000000000000000e+02 2.570047760009765625e+01 9.796103477478027344e+00 -5.520520426216535270e-05 -1.440958567400230095e-05 -2.088443579850718379e-05 6.209521416167262942e-06
7.870000000000000000e+02 2.535365867614746094e+01 6.955298900604248047e+00 7.172612095018848777e-05 -1.515793701400980353e-05 1.697045627224724740e-05 -1.470349161536432803e-06
7.880000000000000000e+02 2.630690574645996094e+01 3.608055353164672852e+00 4.126724525121971965e-05 -1.434690261703508440e-06 1.194976630358723924e-05 -6.906125690875342116e-06
7.890000000000000000e+02 2.632203483581542969e+01 2.059756278991699219e+00 2.906638474087230861e-05 5.470458290801616386e-06 1.036105277307797223e-05 -1.879189852616036660e-07
7.900000000000000000e+02 2.511123847961425781e+01 -2.982947230339050293e-01 1.895410969154909253e-05 -4.125844498048536479e-06 4.448479558050166816e-06 1.255610914085991681e-05
7.910000000000000000e+02 2.541220092773437500e+01 -1.196792721748352051e+00 7.250047929119318724e-06 -1.383353628625627607e-05 -1.975046416191617027e-06 -1.123857146012596786e-05
7.920000000000000000e+02 2.473402595520019531e+01 -3.408649682998657227e+00 2.613804281281773001e-05 2.450875854265177622e-06 8.576676009397488087e-06 9.877453521767165512e-06
7.930000000000000000e+02 2.638163566589355469e+01 -6.430185794830322266e+00 1.562748366268351674e-05 -1.596714923834952060e-06 4.209230610285885632e-06 5.726113158743828535e-06
7.940000000000000000e+02 2.489153099060058594e+01 -7.247714519500732422e+00 9.240694453183095902e-06 7.118121061466808897e-07 2.985751962114591151e-06 2.213327661593211815e-06
7.950000000000000000e+02 2.480737495422363281e+01 -1.015397167205810547e+01 2.819369683493277989e-06 -4.369622956801322289e-07 7.147222618186788168e-07 -3.994231974502326921e-06
7.960000000000000000e+02 2.520629119873046875e+01 -1.082782363891601562e+01 2.220657052021124400e-06 5.042998623139283154e-07 8.174870913535414729e-07 1.028403744385286700e-06
7.970000000000000000e+02 2.583831596374511719e+01 -1.223663234710693359e+01 1.402468228661746252e-06 1.772035375324776396e-06 9.523510584585892502e-07 1.740224661261891015e-06
7.980000000000000000e+02 2.612158584594726562e+01 -1.294778060913085938e+01 1.036052253766683862e-06 -1.757834297677618451e-06 -2.165345875937418896e-07 -3.009275360454921611e-06
7.990000000000000000e+02 2.333021545410156250e+01 3.081293869018554688e+01 6.465152546297758818e-05 -1.203216015710495412e-04 -1.670102210482582450e-05 7.325596379814669490e-05
8.000000000000000000e+02 2.512010765075683594e+01 2.655278205871582031e+01 -3.243326136725954711e-05 -9.694249456515535712e-05 -3.881272641592659056e-05 1.231361238751560450e-04
8.010000000000000000e+02 2.532009887695312500e+01 2.432621002197265625e+01 -7.408750389004126191e-05 -7.797590660629794002e-05 -4.561902460409328341e-05 8.388735295739024878e-05
8.020000000000000000e+02 2.447526931762695312e+01 2.355393028259277344e+01 1.076095395546872169e-05 -9.443953786103520542e-06 3.951001588120561792e-07 -4.070137947564944625e-05
8.030000000000000000e+02 2.363697624206542969e+01 2.269202041625976562e+01 -6.334061617963016033e-05 -7.335216650972142816e-05 -4.100783553440123796e-05 3.555871080607175827e-05
8.040000000000000000e+02 2.280228424072265625e+01 2.174212837219238281e+01 1.770896233210805804e-05 -8.221141797548625618e-06 2.846345978468889371e-06 -3.119069879176095128e-05
8.050000000000000000e+02 2.199292182922363281e+01 2.070574378967285156e+01 -5.606970444205217063e-05 -5.218839942244812846e-05 -3.247743006795644760e-05 2.167760976590216160e-05
8.060000000000000000e+02 2.245831871032714844e+01 1.857388687133789062e+01 -8.013271872187033296e-05 -3.289022788521833718e-05 -3.390688289073295891e-05 1.003815850708633661e-05
8.070000000000000000e+02 2.220461463928222656e+01 1.731191825866699219e+01 4.478363916859962046e-05 -4.509944483288563788e-05 -9.474200624026707374e-08 -8.031853212742134929e-06
8.080000000000000000e+02 2.324678993225097656e+01 1.438210773468017578e+01 8.469440217595547438e-06 -3.490067319944500923e-05 -7.929370440251659602e-06 1.621322326172958128e-06
8.090000000000000000e+02 2.435070419311523438e+01 1.163050460815429688e+01 -1.286914448428433388e-05 -2.738026523729786277e-05 -1.207482273457571864e-05 -2.950051339212222956e-06
8.100000000000000000e+02 2.413880348205566406e+01 9.701294898986816406e+00 -2.146837505279108882e-05 -3.092968108830973506e-05 -1.571941720612812787e-05 -1.434488603990757838e-05
8.110000000000000000e+02 2.421331596374511719e+01 7.749159336090087891e+00 -2.184297954954672605e-05 -2.157040398742537946e-05 -1.302401506109163165e-05 1.168324956779542845e-06
8.120000000000000000e+02 2.361761093139648438e+01 5.644696235656738281e+00 2.587215021776501089e-05 3.950776772398967296e-06 8.946878551796544343e-06 1.624964170332532376e-05
8.130000000000000000e+02 2.370236778259277344e+01 4.522919654846191406e+00 -1.447618387828697450e-06 -2.667951594048645347e-05 -8.438140866928733885e-06 -2.037130980170331895e-05
8.140000000000000000e+02 2.400441932678222656e+01 3.044406414031982422e+00 4.053514203405939043e-05 -1.902596522995736450e-05 6.452753041230607778e-06 -2.841129753505811095e-05
8.150000000000000000e+02 2.305927848815917969e+01 1.397367358207702637e+00 6.549490535689983517e-06 -2.466346131768659689e-06 1.224943389388499781e-06 1.869653533503878862e-05
8.160000000000000000e+02 2.382830810546875000e+01 -3.453430533409118652e-02 1.875000452855601907e-05 -7.841485057724639773e-06 3.272555659350473434e-06 1.420838816557079554e-05
8.170000000000000000e+02 2.350416183471679688e+01 -1.987157583236694336e+00 8.054730074036342558e-07 -5.766163667431101203e-06 -1.488207317379419692e-06 -1.053612413670634851e-05
8.180000000000000000e+02 2.368212127685546875e+01 -3.690469980239868164e+00 2.267308445880189538e-06 -9.553913514537271112e-06 -2.185981429647654295e-06 -1.280757260246900842e-05
8.190000000000000000e+02 2.397137832641601562e+01 -5.248029708862304688e+00 2.087142547679832205e-06 -5.481475909618893638e-06 -1.018300054056453519e-06 -1.148843057308113202e-05
8.200000000000000000e+02 2.264851188659667969e+01 -6.824707031250000000e+00 7.215217920020222664e-06 4.020477717858739197e-06 3.370708554939483292e-06 7.275776852111448534e-07
8.210000000000000000e+02 2.342926979064941406e+01 -6.341558933258056641e+00 3.574054744603927247e-06 -2.120242470482480712e-06 4.361437220268271631e-07 -9.702476745587773621e-06
8.220000000000000000e+02 2.419655990600585938e+01 -7.691519737243652344e+00 4.040098701807437465e-06 -2.106990905303973705e-06 5.799324185318255331e-07 -6.372359166562091559e-06
8.230000000000000000e+02 2.353526306152343750e+01 -8.143517494201660156e+00 5.032537046645302325e-06 2.692160478545702063e-06 2.317409325769403949e-06 6.674680435025948100e-07
8.240000000000000000e+02 2.437609481811523438e+01 -9.483458518981933594e+00 2.181270701839821413e-06 1.475722115173994098e-06 1.097097765523358248e-06 1.007601781566336285e-06
8.250000000000000000e+02 2.402466583251953125e+01 4.054965591430664062e+01 1.448947004973888397e-04 -1.732245582388713956e-04 -8.498956958646886051e-06 -1.343031472060829401e-04
8.260000000000000000e+02 2.412776374816894531e+01 2.835781860351562500e+01 -9.355985093861818314e-05 -1.273875295737525448e-05 -3.188957998645491898e-05 -5.065744699095375836e-05
8.270000000000000000e+02 2.416712188720703125e+01 2.590399169921875000e+01 -4.610777978086844087e-06 -2.143430538126267493e-05 -7.813525371602736413e-06 -5.656526991515420377e-05
8.280000000000000000e+02 2.325302124023437500e+01 2.511445617675781250e+01 -7.483531953766942024e-05 -7.417715096380561590e-05 -4.470374187803827226e-05 5.190531737753190100e-05
8.290000000000000000e+02 2.236548423767089844e+01 2.416727638244628906e+01 7.951209227030631155e-06 -9.192747711495030671e-06 -3.724616135514224879e-07 -2.930360278696753085e-05
8.300000000000000000e+02 2.149992752075195312e+01 2.310009956359863281e+01 -5.399886140367016196e-05 -6.151568231871351600e-05 -3.465436384431086481e-05 2.939208025054540485e-05
8.310000000000000000e+02 2.065784835815429688e+01 2.195151710510253906e+01 1.948233875737059861e-05 -1.029051054501906037e-05 2.757548827503342181e-06 -3.626628313213586807e-05
8.320000000000000000e+02 2.122667312622070312e+01 1.956710815429687500e+01 3.461736196186393499e-05 -1.560348209750372916e-05 5.704164323105942458e-06 -3.723311965586617589e-05
8.330000000000000000e+02 2.101541519165039062e+01 1.740459060668945312e+01 -4.981144593330100179e-05 -2.608656359370797873e-05 -2.276940358569845557e-05 -8.215418347390368581e-06
8.340000000000000000e+02 2.099608039855957031e+01 1.354140663146972656e+01 1.803617487894371152e-05 -2.235889769508503377e-05 -1.296816776630294044e-06 -1.503367639088537544e-05
8.350000000000000000e+02 2.098845672607421875e+01 1.145310211181640625e+01 2.450398278597276658e-05 1.642124516365583986e-05 1.227756820298964158e-05 5.051387688581598923e-06
8.360000000000000000e+02 2.242617225646972656e+01 9.561553001403808594e+00 -1.511705886514391750e-05 -3.927444413420744240e-05 -1.631744999031070620e-05 2.246035364805720747e-06
8.370000000000000000e+02 2.233151817321777344e+01 7.792871475219726562e+00 -1.338619949819985777e-05 -1.681347748672123998e-05 -9.059903277375269681e-06 1.064306616171961650e-05
8.380000000000000000e+02 2.208154106140136719e+01 6.102688789367675781e+00 7.488536084565566853e-06 -1.696921026450581849e-05 -2.844202299456810579e-06 7.573257789772469550e-06
8.390000000000000000e+02 2.162345695495605469e+01 4.601556777954101562e+00 9.708161087473854423e-06 -4.261411959305405617e-06 1.634024670238432009e-06 3.590500227801385336e-06
8.400000000000000000e+02 2.196030616760253906e+01 3.748934268951416016e+00 2.338363083254080266e-05 -1.911928848130628467e-05 1.279302750845090486e-06 -1.198449535877443850e-05
8.410000000000000000e+02 2.266532135009765625e+01 2.136548042297363281e+00 2.754230081336572766e-05 -1.665153104113414884e-05 3.267231022618943825e-06 -1.863335091911721975e-05
8.420000000000000000e+02 2.153152275085449219e+01 4.163420498371124268e-01 1.327485551883000880e-05 -3.797531178406643448e-07 3.868530711770290509e-06 6.725449111399939284e-06
8.430000000000000000e+02 2.248745918273925781e+01 -1.611809730529785156e+00 4.602056833391543478e-06 -1.274271539841720369e-06 9.983356221709982492e-07 -7.799249942763708532e-06
8.440000000000000000e+02 2.167445945739746094e+01 -3.144875049591064453e+00 8.942158274294342846e-06 -6.763413011867669411e-07 2.479745035088853911e-06 -5.230094302532961592e-06
8.450000000000000000e+02 2.049033546447753906e+01 -4.375685214996337891e+00 9.324468010163400322e-06 2.660938434928539209e-06 3.595622047214419581e-06 -5.012534074921859428e-06
8.460000000000000000e+02 2.106813430786132812e+01 -4.931590557098388672e+00 1.530527151771821082e-05 1.258235556633735541e-06 4.969052042724797502e-06 -6.644833320024190471e-06
8.470000000000000000e+02 2.167010688781738281e+01 -5.492738246917724609e+00 5.614467227132990956e-06 2.204344355050125159e-06 2.345643451917567290e-06 -2.686342895685811527e-06
8.480000000000000000e+02 1.934787750244140625e+01 3.261558532714843750e+01 -1.236071984749287367e-04 -4.379274469101801515e-05 -5.021998003940097988e-05 5.161997978575527668e-05
8.490000000000000000e+02 2.296199798583984375e+01 2.779416465759277344e+01 -6.669055437669157982e-05 -7.724592433078214526e-05 -4.318094215705059469e-05 8.736874588066712022e-05
8.500000000000000000e+02 2.193282699584960938e+01 2.686504936218261719e+01 9.152200618700589985e-06 -1.982590765692293644e-05 -3.202112111466703936e-06 -2.474558459653053433e-05
8.510000000000000000e+02 2.100606727600097656e+01 2.570991516113281250e+01 -5.996655090712010860e-05 -6.796193338232114911e-05 -3.837854455923661590e-05 3.840630597551353276e-05
8.520000000000000000e+02 2.014872932434082031e+01 2.446680450439453125e+01 1.138128664024407044e-05 -7.803438165865372866e-06 1.073354496838874184e-06 -3.349134567542932928e-05
8.530000000000000000e+02 1.927921867370605469e+01 2.321950721740722656e+01 -4.662365608965046704e-05 -4.997685027774423361e-05 -2.898015191021841019e-05 2.832501741067972034e-05
8.540000000000000000e+02 1.981394004821777344e+01 2.076047515869140625e+01 -5.392319872044026852e-05 -3.946087599615566432e-05 -2.801522168738301843e-05 2.358712117711547762e-05
8.550000000000000000e+02 1.915961647033691406e+01 1.951082420349121094e+01 4.775122215505689383e-05 -1.987419091165065765e-05 8.363109373021870852e-06 -4.391604670672677457e-05
8.560000000000000000e+02 1.881046867370605469e+01 1.825765609741210938e+01 -5.947865793132223189e-05 -1.283772598981158808e-05 -2.169491563108749688e-05 1.578645242261700332e-05
8.570000000000000000e+02 1.747317314147949219e+01 1.619508361816406250e+01 6.522140756715089083e-05 -3.666936390800401568e-05 8.565613825339823961e-06 -2.370632500969804823e-05
8.580000000000000000e+02 1.908222007751464844e+01 1.368189811706542969e+01 5.308048639562912285e-05 -2.097829747071955353e-05 9.630655767978169024e-06 -2.317676626262255013e-05
8.590000000000000000e+02 1.981536102294921875e+01 1.151037597656250000e+01 -1.768410584190860391e-05 -3.633268715930171311e-05 -1.620503826416097581e-05 -1.773429539753124118e-05
8.600000000000000000e+02 1.967493438720703125e+01 9.388154983520507812e+00 -2.651965951372403651e-05 -1.470987626817077398e-05 -1.236886055266950279e-05 -1.689751843514386564e-05
8.610000000000000000e+02 1.985876846313476562e+01 6.776604175567626953e+00 4.415490184328518808e-05 3.009336069226264954e-07 1.333675027126446366e-05 -2.296873208251781762e-05
8.620000000000000000e+02 1.997698593139648438e+01 5.490082740783691406e+00 2.743937693594489247e-05 1.018755665427306667e-05 1.128807980421697721e-05 -2.945554297184571624e-05
8.630000000000000000e+02 1.975503158569335938e+01 3.021888971328735352e+00 -8.217323738790582865e-06 -9.953101653081830591e-06 -5.451127435662783682e-06 1.189301883641746826e-06
8.640000000000000000e+02 2.048671150207519531e+01 6.666935682296752930e-01 1.244155009771930054e-05 1.982654339371947572e-06 4.327261194703169167e-06 5.102687282487750053e-06
8.650000000000000000e+02 2.019844436645507812e+01 -1.258352518081665039e+00 1.069435165845789015e-05 -1.581859578436706215e-06 2.733747805905295536e-06 -7.477024155377876014e-06
8.660000000000000000e+02 1.934931755065917969e+01 -3.227027416229248047e+00 1.557749237690586597e-05 2.492225576133932918e-06 5.420914931164588779e-06 -7.269833531609037891e-06
8.670000000000000000e+02 1.992013931274414062e+01 -3.806548833847045898e+00 1.537458956590853631e-05 1.991877525142626837e-06 5.209939899941673502e-06 -6.682357252429937944e-06
8.680000000000000000e+02 1.684799003601074219e+01 3.711341476440429688e+01 -1.116237108362838626e-04 -2.566092007327824831e-05 -4.118539072806015611e-05 -3.116834341199137270e-05
8.690000000000000000e+02 1.729006767272949219e+01 4.060261535644531250e+01 6.061828025849536061e-05 -7.851485861465334892e-05 -5.368972779251635075e-06 8.479092502966523170e-05
8.700000000000000000e+02 2.037305831909179688e+01 3.537597656250000000e+01 1.079029898392036557e-04 -1.017883114400319755e-04 1.834402837630477734e-06 1.093044602384907193e-06
8.710000000000000000e+02 2.157881164550781250e+01 3.023644638061523438e+01 1.699971835478208959e-05 -4.131718378630466759e-05 -7.295239356608362868e-06 -3.550730980350635946e-05
8.720000000000000000e+02 2.037129592895507812e+01 2.874860763549804688e+01 -6.539394962601363659e-05 -7.097747584339231253e-05 -4.091142545803450048e-05 5.295381197356618941e-05
8.730000000000000000e+02 1.946735382080078125e+01 2.721251106262207031e+01 2.725930062297265977e-05 -1.974322731257416308e-05 2.254821993119549006e-06 -3.119988105027005076e-05
8.740000000000000000e+02 1.873746490478515625e+01 2.574066925048828125e+01 -6.248398858588188887e-05 -4.955359327141195536e-05 -3.361127528478391469e-05 3.109698809566907585e-05
8.750000000000000000e+02 1.805995750427246094e+01 2.446882247924804688e+01 1.247281670657685027e-05 -4.310111762606538832e-06 2.448811528665828519e-06 -3.644419120973907411e-05
8.760000000000000000e+02 1.849627876281738281e+01 2.197793960571289062e+01 1.623783464310690761e-05 -2.356827963012619875e-06 4.164302026765653864e-06 -4.292162338970229030e-05
8.770000000000000000e+02 1.746186637878417969e+01 2.133378601074218750e+01 5.394421532400883734e-05 -4.854494181927293539e-05 1.619781755834992509e-06 1.305298337683780119e-05
8.780000000000000000e+02 1.760920143127441406e+01 1.994073867797851562e+01 -7.392514817183837295e-05 -6.504276370833395049e-06 -2.412882713542785496e-05 -1.139108098868746310e-05
8.790000000000000000e+02 1.749892807006835938e+01 1.855159950256347656e+01 5.764497109339572489e-05 -3.242932507419027388e-05 7.564693532913224772e-06 -2.126273102476261556e-05
8.800000000000000000e+02 1.657180023193359375e+01 1.626192855834960938e+01 -6.061679232516326010e-05 1.324452568951528519e-05 -1.421167962689651176e-05 -1.823206730477977544e-05
8.810000000000000000e+02 1.800308609008789062e+01 1.390570926666259766e+01 -4.673059083870612085e-05 -8.028731826925650239e-06 -1.642779716348741204e-05 -4.807858658750774339e-06
8.820000000000000000e+02 1.859336090087890625e+01 1.159137725830078125e+01 3.935138738597743213e-05 -4.046560491133277537e-07 1.168401922768680379e-05 -4.715752766060177237e-06
8.830000000000000000e+02 1.841294097900390625e+01 9.498103141784667969e+00 3.815051240962930024e-05 -2.428613015581504442e-06 1.071656970452750102e-05 -4.176454240223392844e-06
8.840000000000000000e+02 1.806978416442871094e+01 7.564764022827148438e+00 4.402694685268215835e-05 -5.949621026957174763e-06 1.142319706559646875e-05 3.146074504911666736e-06
8.850000000000000000e+02 1.870525932312011719e+01 5.923943996429443359e+00 2.208654404967091978e-05 -2.895037141570355743e-06 5.757452072430169210e-06 5.759944542660377920e-06
8.860000000000000000e+02 1.938635253906250000e+01 4.877883911132812500e+00 8.618624747214198578e-07 -2.100205165334045887e-05 -6.042056611477164552e-06 2.274829057569149882e-05
8.870000000000000000e+02 1.765478706359863281e+01 2.599777460098266602e+00 6.642396783718140796e-06 -5.411181973613565788e-06 3.693644714530819329e-07 -2.503704990886035375e-06
8.880000000000000000e+02 1.911893081665039062e+01 1.219512939453125000e+00 2.601273808977566659e-05 2.689167786229518242e-06 8.610571967437863350e-06 -1.795005482563283294e-05
8.890000000000000000e+02 1.830186462402343750e+01 -1.629643142223358154e-01 2.422164652671199292e-05 8.716589945834130049e-06 9.881470759864896536e-06 -1.096975302061764523e-05
8.900000000000000000e+02 1.674908256530761719e+01 -1.235388040542602539e+00 1.593811612110584974e-05 5.199519364396110177e-06 6.341290372802177444e-06 -6.317940005828859285e-06
8.910000000000000000e+02 1.868625259399414062e+01 -1.355646491050720215e+00 2.470504841767251492e-05 5.647840680467197672e-06 9.105867320613469929e-06 -9.812590178626123816e-06
8.920000000000000000e+02 1.809738731384277344e+01 -2.172952890396118164e+00 1.518126646260498092e-05 1.606254386388172861e-06 5.036256425228202716e-06 -4.245087438903283328e-06
8.930000000000000000e+02 1.579761791229248047e+01 3.171897506713867188e+01 -1.120206288760527968e-04 -6.884088634251384065e-06 -3.567141538951545954e-05 7.283064860530430451e-06
8.940000000000000000e+02 1.758054733276367188e+01 2.850436782836914062e+01 -8.603962487541139126e-05 -3.038259455934166908e-05 -3.492666655802167952e-05 2.708487954805605114e-05
8.950000000000000000e+02 1.708385658264160156e+01 2.673776245117187500e+01 5.259427416604012251e-05 -2.993251109728589654e-05 6.798529284424148500e-06 -2.201949791924562305e-05
8.960000000000000000e+02 1.682495498657226562e+01 2.525706100463867188e+01 -9.700650844024494290e-05 -1.614656753190502059e-06 -2.958635013783350587e-05 2.756756884991773404e-06
8.970000000000000000e+02 1.613276100158691406e+01 2.138975334167480469e+01 -8.424141560681164265e-05 5.537609013117616996e-06 -2.361114275117870420e-05 -1.719991632853634655e-05
8.980000000000000000e+02 1.598949813842773438e+01 2.007668113708496094e+01 5.416204658104106784e-05 -1.888313454401213676e-05 1.058367433870444074e-05 -1.524675190012203529e-05
8.990000000000000000e+02 1.605818748474121094e+01 1.860491943359375000e+01 -5.718190004699863493e-05 2.753666421995148994e-06 -1.632846942811738700e-05 -1.921177135955076665e-05
9.000000000000000000e+02 1.582347106933593750e+01 1.598190212249755859e+01 -3.884175384882837534e-06 -1.777983925421722233e-05 -6.499204118881607428e-06 4.663894742407137528e-06
9.010000000000000000e+02 1.646940994262695312e+01 1.320669269561767578e+01 -3.977993765147402883e-05 -9.316360774391796440e-06 -1.472888925491133705e-05 -6.087873316573677585e-06
9.020000000000000000e+02 1.725737190246582031e+01 1.174142074584960938e+01 -3.265412306063808501e-05 -1.629715370654594153e-05 -1.468538357585202903e-05 -1.791589784261304885e-05
9.030000000000000000e+02 1.607269859313964844e+01 9.348215103149414062e+00 1.875114503491204232e-05 3.670967544167069718e-06 6.726634182996349409e-06 -2.269415517730521969e-06
9.040000000000000000e+02 1.626424217224121094e+01 7.530151844024658203e+00 3.087708319071680307e-05 2.509725163690745831e-06 1.001604323391802609e-05 6.005853720125742257e-06
9.050000000000000000e+02 1.623482513427734375e+01 5.855639934539794922e+00 3.737639053724706173e-05 -6.130052497610449791e-06 9.373901775688864291e-06 2.686794232431566343e-06
9.060000000000000000e+02 1.740649604797363281e+01 4.488449096679687500e+00 9.450302968616597354e-06 1.946079464687500149e-06 3.418914729991229251e-06 -2.638897240103688091e-05
9.070000000000000000e+02 1.710860252380371094e+01 2.801341772079467773e+00 3.055783236050046980e-05 1.699411768640857190e-06 9.677173693489748985e-06 2.962481630675029010e-06
9.080000000000000000e+02 1.750171470642089844e+01 1.480490922927856445e+00 1.116510247811675072e-05 -2.041524567175656557e-06 2.737073600656003691e-06 3.852967438433552161e-06
9.090000000000000000e+02 1.606467437744140625e+01 -8.026252985000610352e-01 2.633912117744330317e-05 3.937424480682238936e-06 9.082963515538722277e-06 -1.285172947973478585e-05
9.100000000000000000e+02 1.648228836059570312e+01 -4.823586717247962952e-02 1.099722339858999476e-05 3.299272748336079530e-06 4.288948730390984565e-06 -3.967076736444141716e-06
9.110000000000000000e+02 1.276796817779541016e+01 4.099252319335937500e+01 2.390492568338231649e-07 -2.437845250824466348e-05 -7.241820640047080815e-06 -4.053858719998970628e-05
9.120000000000000000e+02 1.312544059753417969e+01 3.799343872070312500e+01 3.302716140751726925e-05 -1.899371636682190001e-05 4.210033239360200241e-06 5.289212640491314232e-05
9.130000000000000000e+02 1.510026741027832031e+01 2.726499557495117188e+01 -9.258518548449501395e-05 5.291879574542690534e-07 -2.761679934337735176e-05 -8.029346645344048738e-06
9.140000000000000000e+02 1.702017593383789062e+01 2.392626762390136719e+01 5.782179505331441760e-05 -5.460530883283354342e-05 9.649463663663482293e-07 1.015242105495417491e-05
9.150000000000000000e+02 1.589936637878417969e+01 2.261113548278808594e+01 5.825527114211581647e-05 -4.688752960646525025e-05 3.410322278796229511e-06 1.434410023648524657e-05
9.160000000000000000e+02 1.496355533599853516e+01 2.199919128417968750e+01 2.208541263826191425e-05 1.242033476955839433e-06 6.998233857302693650e-06 -4.189309402136132121e-05
9.170000000000000000e+02 1.449363613128662109e+01 2.065533828735351562e+01 -4.355313285486772656e-05 -2.078242323477752507e-05 -1.930066719069145620e-05 1.031916599458782002e-05
9.180000000000000000e+02 1.380167293548583984e+01 1.937299728393554688e+01 1.593792148923967034e-05 2.155635456801974215e-06 5.428067197499331087e-06 -4.349854498286731541e-05
9.190000000000000000e+02 1.471193885803222656e+01 1.816025352478027344e+01 9.752315236255526543e-06 -1.955962034116964787e-05 -2.942191713373176754e-06 2.127027300957706757e-06
9.200000000000000000e+02 1.513162231445312500e+01 1.531648254394531250e+01 2.205259261245373636e-05 -2.009747731790412217e-06 6.012853646097937599e-06 -2.951052192656788975e-05
9.210000000000000000e+02 1.537838745117187500e+01 1.374841594696044922e+01 3.901299351127818227e-05 -3.790279151871800423e-06 1.056681412592297420e-05 -2.404616861895192415e-05
9.220000000000000000e+02 1.478773689270019531e+01 1.028055667877197266e+01 3.215009564883075655e-05 9.939848496287595481e-06 1.262698333448497579e-05 -2.263782334921415895e-05
9.230000000000000000e+02 1.460431861877441406e+01 9.420981407165527344e+00 -2.570910146459937096e-05 -8.682950465299654752e-06 -1.031761530612129718e-05 -1.092489037546329200e-05
9.240000000000000000e+02 1.520957088470458984e+01 8.979274749755859375e+00 3.219988684577401727e-06 1.038212189996556845e-06 1.277460228266136255e-06 -1.177933427243260667e-05
9.250000000000000000e+02 1.542621231079101562e+01 7.393062591552734375e+00 -1.113564849219983444e-05 -8.214950867113657296e-06 -5.805179625895107165e-06 -2.341554136364720762e-05
9.260000000000000000e+02 1.543756008148193359e+01 4.953014850616455078e+00 4.015496233478188515e-05 -4.721850928035564721e-07 1.190483362734084949e-05 -1.294442608923418447e-05
9.270000000000000000e+02 1.513257122039794922e+01 4.276309490203857422e+00 -3.674171239254064858e-06 3.880923941323999316e-06 6.202586888548466959e-08 4.892954166280105710e-06
9.280000000000000000e+02 1.563696861267089844e+01 2.193048477172851562e+00 1.808190177143842448e-06 8.916191518437699415e-07 8.099428328023350332e-07 -5.845871783094480634e-06
9.290000000000000000e+02 1.396411323547363281e+01 3.845341801643371582e-01 1.463080388930393383e-05 9.346421393274795264e-06 7.193167220975738019e-06 -1.078263358067488298e-05
9.300000000000000000e+02 1.536701488494873047e+01 -4.073470234870910645e-01 1.368377252219943330e-05 8.845949196256697178e-06 6.758916697435779497e-06 -7.620789347129175439e-06
9.310000000000000000e+02 5.189147472381591797e+00 4.035379409790039062e+01 3.244562685722485185e-05 3.455405385466292500e-05 2.009990566875785589e-05 -1.617031921341549605e-05
9.320000000000000000e+02 1.318144798278808594e+01 3.513078689575195312e+01 -8.126131433527916670e-05 -7.400576578220352530e-06 -2.659856545506045222e-05 -3.686363197630271316e-05
9.330000000000000000e+02 1.303767299652099609e+01 3.002747726440429688e+01 -9.273624164052307606e-05 8.833090760163031518e-06 -2.517094435461331159e-05 -1.533733484393451363e-05
9.340000000000000000e+02 1.531812667846679688e+01 2.540907478332519531e+01 6.390697672031819820e-05 -4.808973244507797062e-05 4.745172645925777033e-06 2.044255779765080661e-05
9.350000000000000000e+02 1.562396812438964844e+01 2.393317031860351562e+01 -9.102467447519302368e-05 1.103539034374989569e-05 -2.399678487563505769e-05 -2.606470116006676108e-05
9.360000000000000000e+02 1.360507106781005859e+01 2.304380989074707031e+01 -4.526758857537060976e-05 -1.393989714415511116e-05 -1.776224598870612681e-05 1.998120387725066394e-05
9.370000000000000000e+02 1.305801677703857422e+01 2.154907798767089844e+01 3.979040411650203168e-05 -9.133453318099782337e-07 1.166311812994536012e-05 -3.985970397479832172e-05
9.380000000000000000e+02 1.261064147949218750e+01 2.024194145202636719e+01 -5.344007877283729613e-05 1.081312439055182040e-05 -1.278808667848352343e-05 8.108951078611426055e-06
9.390000000000000000e+02 1.202671432495117188e+01 1.924850845336914062e+01 4.456823808141052723e-05 -1.566025275678839535e-05 8.672395779285579920e-06 -4.283745511202141643e-05
9.400000000000000000e+02 1.130914211273193359e+01 1.710498428344726562e+01 3.006786391779314727e-05 1.139844880526652560e-05 1.243989390786737204e-05 -2.964300256280694157e-05
9.410000000000000000e+02 1.345152282714843750e+01 1.532292556762695312e+01 1.339942264166893438e-05 8.449164852208923548e-06 6.554576430062297732e-06 -2.632109863043297082e-05
9.420000000000000000e+02 1.355024242401123047e+01 1.344868659973144531e+01 2.597518141556065530e-05 5.493124263011850417e-06 9.440492249268572778e-06 -2.828520700859371573e-05
9.430000000000000000e+02 1.393181514739990234e+01 1.163733959197998047e+01 4.232345236232504249e-05 -1.410561480952310376e-06 1.227386746904812753e-05 -1.710085780359804630e-05
9.440000000000000000e+02 1.452871704101562500e+01 8.694009780883789062e+00 3.511456088745035231e-05 -9.738421795191243291e-06 7.612842182425083593e-06 -1.568124025652650744e-05
9.450000000000000000e+02 1.461166572570800781e+01 7.330936431884765625e+00 3.406989708309993148e-05 3.960389676649356261e-06 1.140908625529846177e-05 -5.405773663369473070e-06
9.460000000000000000e+02 1.270555019378662109e+01 4.337933063507080078e+00 -5.359807801141869277e-06 9.021806363307405263e-06 1.098599454962823074e-06 -9.206668437400367111e-06
9.470000000000000000e+02 1.401874160766601562e+01 4.341097831726074219e+00 8.577407243137713522e-06 8.558459740015678108e-06 5.140760094946017489e-06 -1.847888256634178106e-06
9.480000000000000000e+02 1.245464420318603516e+01 1.232013106346130371e+00 1.322814750892575830e-05 5.760351541539421305e-06 5.696549578715348616e-06 -1.078039076674031094e-05
9.490000000000000000e+02 1.161528682708740234e+01 2.552516460418701172e+00 1.043291922542266548e-05 2.790254256979096681e-06 3.966952135669998825e-06 -1.449575211154296994e-05
9.500000000000000000e+02 9.547650337219238281e+00 3.827766799926757812e+01 -1.993866135308053344e-05 -1.906537363538518548e-06 -6.553559614985715598e-06 -3.323652344988659024e-05
9.510000000000000000e+02 1.007679653167724609e+01 3.552499008178710938e+01 3.701115201693028212e-05 1.006985348794842139e-05 1.412430174241308123e-05 3.697742795338854194e-05
9.520000000000000000e+02 1.310892486572265625e+01 3.248996734619140625e+01 7.121200906112790108e-05 -3.131978519377298653e-05 1.196766606881283224e-05 2.214943015133030713e-05
9.530000000000000000e+02 1.296916961669921875e+01 2.768220901489257812e+01 6.529918755404651165e-05 -2.129839413100853562e-05 1.320023693551775068e-05 -7.169547188823344186e-06
9.540000000000000000e+02 1.267179107666015625e+01 2.564725303649902344e+01 -7.504704262828454375e-05 -4.656717180751002161e-07 -2.265381408506073058e-05 5.964513093204004690e-06
9.550000000000000000e+02 1.214223194122314453e+01 2.406521606445312500e+01 3.268108412157744169e-05 6.939755621715448797e-06 1.188625174108892679e-05 -3.875513357343152165e-05
9.560000000000000000e+02 1.143731021881103516e+01 2.081743049621582031e+01 6.110138201620429754e-05 -2.266309093101881444e-05 1.153148605226306245e-05 -3.116367952316068113e-05
9.570000000000000000e+02 1.091626071929931641e+01 1.984098625183105469e+01 -5.169233554624952376e-05 1.492477258580038324e-05 -1.103026897908421233e-05 1.374087901240272913e-06
9.580000000000000000e+02 1.045734119415283203e+01 1.879234695434570312e+01 3.233658935641869903e-05 1.202129988087108359e-05 1.330736722593428567e-05 -3.060516610275954008e-05
9.590000000000000000e+02 1.162395191192626953e+01 1.520265102386474609e+01 1.359983889415161684e-05 1.287774739466840401e-05 7.943275704747065902e-06 -2.959275661851279438e-05
9.600000000000000000e+02 1.154843711853027344e+01 1.324734306335449219e+01 7.632390406797640026e-06 6.906888756930129603e-06 4.361783794593065977e-06 -2.742976903391536325e-05
9.610000000000000000e+02 1.161363697052001953e+01 1.103147220611572266e+01 2.952266186184715480e-05 9.499131010670680553e-06 1.170653740700799972e-05 -3.107511292910203338e-05
9.620000000000000000e+02 1.167195796966552734e+01 9.483141899108886719e+00 1.148939008999150246e-05 1.468262871640035883e-05 7.851605914765968919e-06 -2.771372419374529272e-05
9.630000000000000000e+02 1.202883434295654297e+01 8.812852859497070312e+00 8.370662726520095021e-06 1.800320751499384642e-05 7.912160981504712254e-06 -1.082822018361184746e-05
9.640000000000000000e+02 1.229705715179443359e+01 4.932222366333007812e+00 1.474120290367864072e-05 -2.650808710313867778e-06 3.627118303484166972e-06 -9.984919415728654712e-06
9.650000000000000000e+02 1.131732177734375000e+01 3.432259559631347656e+00 1.173418240796308964e-05 9.800699444895144552e-06 6.460464192059589550e-06 -4.788277237821603194e-06
9.660000000000000000e+02 9.967367172241210938e+00 1.830286860466003418e+00 1.805322972359135747e-05 9.803668945096433163e-06 8.357069418707396835e-06 -8.891984180081635714e-06
9.670000000000000000e+02 1.075404739379882812e+01 1.717927813529968262e+00 1.351084210909903049e-05 2.713506546569988132e-06 4.867304596700705588e-06 -1.199032521981280297e-05
9.680000000000000000e+02 1.040759754180908203e+01 3.281997299194335938e+01 -6.020021464792080224e-05 7.083186119416495785e-06 -1.593510751263238490e-05 -3.815051604760810733e-05
9.690000000000000000e+02 1.072699451446533203e+01 3.032903861999511719e+01 5.269153189146891236e-05 -4.530285877990536392e-06 1.444837471353821456e-05 2.331960058654658496e-05
9.700000000000000000e+02 1.083120536804199219e+01 2.810378074645996094e+01 -6.787774327676743269e-05 9.608656910131685436e-06 -1.748072645568754524e-05 -2.993728412548080087e-05
9.710000000000000000e+02 1.078102779388427734e+01 2.618513488769531250e+01 5.686633085133507848e-05 -9.929224233928835019e-07 1.676202191447373480e-05 9.811038580664899200e-06
9.720000000000000000e+02 9.734646797180175781e+00 2.286934280395507812e+01 -3.053592081414535642e-05 8.311816600325983018e-06 -6.667230536550050601e-06 -4.714462920674122870e-05
9.730000000000000000e+02 9.677366256713867188e+00 2.058720588684082031e+01 3.739154999493621290e-05 6.796112757001537830e-06 1.325629909842973575e-05 -2.601796404633205384e-05
9.740000000000000000e+02 9.198334693908691406e+00 1.940468215942382812e+01 -3.809541158261708915e-05 7.556784112239256501e-06 -9.161588423012290150e-06 -4.455237103684339672e-06
9.750000000000000000e+02 8.774427413940429688e+00 1.830402565002441406e+01 3.211081639165058732e-05 1.774697011569514871e-05 1.495733613410266116e-05 -2.609707189549226314e-05
9.760000000000000000e+02 9.498937606811523438e+00 1.670719528198242188e+01 2.596722879388835281e-05 1.579016679897904396e-05 1.252721904165809974e-05 -3.052296960959210992e-05
9.770000000000000000e+02 9.833662033081054688e+00 1.507378673553466797e+01 1.666607568040490150e-05 1.539189361210446805e-05 9.617390787752810866e-06 -3.777605888899415731e-05
9.780000000000000000e+02 9.820672988891601562e+00 1.351679134368896484e+01 2.425619868517969735e-06 1.636003617022652179e-05 5.635697107209125534e-06 -4.190490653854794800e-05
9.790000000000000000e+02 1.020872402191162109e+01 1.138678359985351562e+01 -3.176965401507914066e-05 3.779892495003878139e-06 -8.396928024012595415e-06 -1.675186467764433473e-05
9.800000000000000000e+02 9.558293342590332031e+00 9.158265113830566406e+00 -2.959222365461755544e-05 6.126167136244475842e-06 -7.039817319309804589e-06 -7.190059477579779923e-06
9.810000000000000000e+02 1.033648490905761719e+01 8.088585853576660156e+00 -2.214866981375962496e-05 8.027353715078788809e-07 -6.403780389518942684e-06 -3.121236204606248066e-06
9.820000000000000000e+02 1.059988880157470703e+01 6.314633369445800781e+00 2.855895945685915649e-05 4.999941211281111464e-06 1.006766979116946459e-05 -2.035344186879228801e-05
9.830000000000000000e+02 1.060100841522216797e+01 4.963905334472656250e+00 1.779685953806620091e-05 7.623973942827433348e-06 7.626249953318620101e-06 -9.797450729820411652e-06
9.840000000000000000e+02 1.006877803802490234e+01 3.166839122772216797e+00 1.676177271292544901e-05 1.114219048758968711e-05 8.371189323952421546e-06 -1.560760574648156762e-05
9.850000000000000000e+02 6.981677055358886719e+00 2.822205781936645508e+00 7.024848969194863457e-07 -1.260837166228157002e-06 -1.675056893191140261e-07 -7.171696324803633615e-06
9.860000000000000000e+02 9.219914436340332031e+00 1.860596299171447754e+00 9.618695003155153245e-06 1.626909579499624670e-06 3.373681465745903552e-06 -9.175490049528889358e-06
9.870000000000000000e+02 7.562150001525878906e+00 3.585358810424804688e+01 -3.889362778863869607e-05 1.748199110807036050e-06 -1.114362839871319011e-05 -2.122705518559087068e-05
9.880000000000000000e+02 6.871416568756103516e+00 3.432089996337890625e+01 4.681156133301556110e-05 7.227232345030643046e-06 1.621163755771704018e-05 -2.816428423102479428e-05
9.890000000000000000e+02 8.069101333618164062e+00 3.250957870483398438e+01 -1.301597649217001162e-06 3.301905235275626183e-05 9.515236342849675566e-06 2.738910734478849918e-05
9.900000000000000000e+02 8.569909095764160156e+00 3.031303215026855469e+01 -3.699164153658784926e-05 6.868299806228606030e-06 -9.037002200784627348e-06 -3.998350439360365272e-05
9.910000000000000000e+02 8.748692512512207031e+00 2.826252555847167969e+01 4.172386252321302891e-05 1.536332274554297328e-05 1.712615448923315853e-05 2.092506474582478404e-05
9.920000000000000000e+02 8.775388717651367188e+00 2.632588005065917969e+01 -5.713518839911557734e-05 1.606541809451300651e-05 -1.232093018188606948e-05 -4.151337634539231658e-05
9.930000000000000000e+02 7.721114158630371094e+00 2.393855285644531250e+01 1.028489441523561254e-05 1.074717692972626537e-05 6.309621312539093196e-06 -4.329122384660877287e-05
9.940000000000000000e+02 8.239857673645019531e+00 2.119591140747070312e+01 -4.997372889192774892e-05 1.469342532800510526e-05 -1.058409088727785274e-05 -2.135465729224961251e-05
9.950000000000000000e+02 7.838728427886962891e+00 1.993422317504882812e+01 3.857605406665243208e-05 1.680756759014911950e-05 1.661508576944470406e-05 -1.888687620521523058e-05
9.960000000000000000e+02 7.470311641693115234e+00 1.878368568420410156e+01 -3.712435500347055495e-05 1.355706353933783248e-05 -7.070188075886107981e-06 -9.464860340813174844e-06
9.970000000000000000e+02 7.895269870758056641e+00 1.635952758789062500e+01 2.150331238226499408e-05 2.361067527090199292e-05 1.353419611405115575e-05 -3.005578400916419923e-05
9.980000000000000000e+02 8.168347358703613281e+00 1.490664386749267578e+01 7.972580533532891423e-06 2.417713767499662936e-05 9.644914825912564993e-06 -3.656139233498834074e-05
9.990000000000000000e+02 8.182062149047851562e+00 1.342385578155517578e+01 1.164575223810970783e-05 2.303691508132033050e-05 1.040480037772795185e-05 -3.738329178304411471e-05
1.000000000000000000e+03 8.873241424560546875e+00 1.129454898834228516e+01 2.853900514310225844e-05 1.480688752053538337e-05 1.300376789004076272e-05 -1.488307589170290157e-05
1.001000000000000000e+03 8.372545242309570312e+00 9.189882278442382812e+00 3.428023046581074595e-05 5.366600817069411278e-06 1.189404974866192788e-05 -1.491531293140724301e-05
1.002000000000000000e+03 8.475739479064941406e+00 8.240998268127441406e+00 -2.570718424976803362e-05 1.426084145350614563e-05 -3.433902747929096222e-06 -1.803329359972849488e-05
1.003000000000000000e+03 7.811693668365478516e+00 7.307095050811767578e+00 -1.433819943486014381e-05 1.068189703801181167e-05 -1.096890628105029464e-06 -2.244714232801925391e-05
1.004000000000000000e+03 8.192966461181640625e+00 5.123101711273193359e+00 -9.918726391333620995e-06 4.656933015212416649e-06 -1.578537876412156038e-06 -1.436548609490273520e-05
1.005000000000000000e+03 8.825055122375488281e+00 4.219254970550537109e+00 -5.621886884910054505e-06 3.485807837932952680e-06 -6.408236572497116867e-07 -1.246328884008107707e-05
1.006000000000000000e+03 6.981065273284912109e+00 1.940695881843566895e+00 1.498958681622752920e-05 4.273948434274643660e-06 5.779060757049592212e-06 -6.714628852932946756e-06
1.007000000000000000e+03 7.734457492828369141e+00 1.919692158699035645e+00 5.597881227004108950e-06 -7.566812882942031138e-07 1.452359924769552890e-06 -6.347443104459671304e-06
1.008000000000000000e+03 5.811513900756835938e+00 3.583795166015625000e+01 -2.791394217638298869e-05 7.245166489155963063e-05 1.336131663265405223e-05 5.571091605816036463e-06
1.009000000000000000e+03 4.172492980957031250e+00 3.561420440673828125e+01 -1.608742604730650783e-05 3.518382436595857143e-05 5.728919404646148905e-06 -1.210392565553775057e-05
1.010000000000000000e+03 6.184915542602539062e+00 3.191635131835937500e+01 -1.144120415119687095e-05 2.742931974353268743e-05 4.796434495801804587e-06 -1.725478068692609668e-05
1.011000000000000000e+03 6.572141170501708984e+00 3.016325950622558594e+01 1.685817551333457232e-05 3.787418972933664918e-05 1.641970993659924716e-05 9.193530786433257163e-06
1.012000000000000000e+03 6.722428321838378906e+00 2.835364913940429688e+01 -3.906813435605727136e-05 2.296275306434836239e-05 -4.831614660361083224e-06 -2.697979107324499637e-05
1.013000000000000000e+03 6.696077823638916016e+00 2.653816795349121094e+01 4.518675996223464608e-05 2.338245758437551558e-05 2.057076562778092921e-05 2.546848691054037772e-06
1.014000000000000000e+03 6.267292499542236328e+00 2.489534759521484375e+01 -5.272166890790686011e-05 3.879719588439911604e-05 -4.177342361799674109e-06 -3.605137408158043399e-06
1.015000000000000000e+03 5.636751651763916016e+00 2.344479942321777344e+01 3.280331657151691616e-05 2.923222746176179498e-05 1.861066266428679228e-05 -1.948223689396400005e-05
1.016000000000000000e+03 4.965723514556884766e+00 2.064413261413574219e+01 3.344755168654955924e-05 3.950325481127947569e-05 2.188524194934871048e-05 -1.384481674904236570e-05
1.017000000000000000e+03 6.086207866668701172e+00 1.914211082458496094e+01 3.834850213024765253e-05 2.145875441783573478e-05 1.794217678252607584e-05 -1.500560028944164515e-05
1.018000000000000000e+03 6.840499877929687500e+00 1.680619239807128906e+01 -2.889975621656049043e-05 7.518036454712273553e-06 -6.414516064978670329e-06 -6.521650448121363297e-06
1.019000000000000000e+03 7.349361896514892578e+00 1.551933670043945312e+01 -1.102050373447127640e-05 5.142695044924039394e-06 -1.763342652338906191e-06 2.136684770448482595e-06
1.020000000000000000e+03 6.267214775085449219e+00 1.350620365142822266e+01 -2.788442361634224653e-05 1.921150760608725250e-05 -2.601874712127028033e-06 -2.611726449686102569e-05
1.021000000000000000e+03 6.362574577331542969e+00 1.121864223480224609e+01 -1.036738467519171536e-06 8.235741915996186435e-06 2.159700898118899204e-06 -5.782616881333524361e-06
1.022000000000000000e+03 5.487694740295410156e+00 1.044229125976562500e+01 -2.543744813010562211e-06 1.910895844048354775e-05 4.969564088241895661e-06 -1.744576547935139388e-05
1.023000000000000000e+03 6.105631828308105469e+00 8.094380378723144531e+00 7.330846074182773009e-06 2.358195615670410916e-06 2.906712552430690266e-06 -3.763047288884990849e-06
1.024000000000000000e+03 5.801164627075195312e+00 5.906470775604248047e+00 1.101858470065053552e-05 1.683917616901453584e-05 8.357328624697402120e-06 -1.631436680327169597e-05
1.025000000000000000e+03 6.364636898040771484e+00 4.733814716339111328e+00 1.674956183705944568e-05 1.023299228108953685e-05 8.094765689747873694e-06 -1.140365384344477206e-05
1.026000000000000000e+03 5.506308078765869141e+00 1.898350954055786133e+00 9.974077329388819635e-06 5.960058842902071774e-06 4.780240942636737600e-06 -3.296559953014366329e-06
1.027000000000000000e+03 6.232098579406738281e+00 1.939152598381042480e+00 1.026045538310427219e-06 -1.757079076014633756e-06 -2.193100385738944169e-07 -5.754784979217220098e-06
1.028000000000000000e+03 2.053142309188842773e+00 4.164734649658203125e+01 -1.943469214893411845e-05 7.211073534563183784e-05 1.580281241331249475e-05 -6.508871592814102769e-06
1.029000000000000000e+03 6.843556404113769531e+00 3.807634353637695312e+01 -5.697544565919088200e-06 3.597282557166181505e-05 9.082584256248082966e-06 2.023737943090964109e-05
1.030000000000000000e+03 5.082395076751708984e+00 3.755054473876953125e+01 1.217389763041865081e-05 3.542601552908308804e-05 1.427997358405264094e-05 -7.095371074683498591e-06
1.031000000000000000e+03 3.743246078491210938e+00 3.704087829589843750e+01 -4.099560555914649740e-06 6.306282011792063713e-05 1.768897891452070326e-05 2.330741153855342418e-06
1.032000000000000000e+03 4.138734817504882812e+00 3.425537490844726562e+01 3.925749115296639502e-05 5.027045699534937739e-05 2.685838444449473172e-05 1.108587821363471448e-05
1.033000000000000000e+03 4.104805946350097656e+00 3.303090286254882812e+01 -2.985254832310602069e-05 6.053223114577122033e-05 9.203905392496380955e-06 -7.400058620987692848e-06
1.034000000000000000e+03 4.407507896423339844e+00 3.164950370788574219e+01 1.781735954864416271e-05 4.274670209269970655e-05 1.816921758290845901e-05 -2.850232931450591423e-06
1.035000000000000000e+03 4.636005401611328125e+00 3.011097717285156250e+01 -2.343868436582852155e-05 3.773531716433353722e-05 4.288989657652564347e-06 -9.651217624195851386e-06
1.036000000000000000e+03 4.733201503753662109e+00 2.851371765136718750e+01 2.459558163536712527e-05 4.469999839784577489e-05 2.078867328236810863e-05 1.935614619696934824e-07
1.037000000000000000e+03 4.674674987792968750e+00 2.693800544738769531e+01 -3.611724241636693478e-05 3.643468517111614347e-05 9.523283495127543574e-08 -1.683992741163820028e-05
1.038000000000000000e+03 4.075130462646484375e+00 2.397322273254394531e+01 -3.721646135090850294e-05 4.022003849968314171e-05 9.010731787384429481e-07 -8.087963578873313963e-06
1.039000000000000000e+03 3.652495384216308594e+00 2.253008460998535156e+01 2.562462941568810493e-05 4.237295797793194652e-05 2.039927676378283650e-05 -7.825124157534446567e-06
1.040000000000000000e+03 4.667632579803466797e+00 1.943963241577148438e+01 -3.983470378443598747e-05 3.644943353720009327e-05 -1.015580778584990185e-06 -5.455541668197838590e-06
1.041000000000000000e+03 4.323534488677978516e+00 1.697426795959472656e+01 -3.645843025879003108e-05 1.924646494444459677e-05 -5.163589776202570647e-06 -1.878034527180716395e-05
1.042000000000000000e+03 5.158977985382080078e+00 1.498926639556884766e+01 -1.554056325403507799e-05 2.767864498309791088e-05 3.641424427769379690e-06 -3.557608579285442829e-05
1.043000000000000000e+03 5.163983345031738281e+00 1.362305164337158203e+01 1.818119744712021202e-05 2.196854802605230361e-05 1.204492309625493363e-05 -3.056988862226717174e-05
1.044000000000000000e+03 4.693331718444824219e+00 1.122785758972167969e+01 1.305915702687343583e-06 9.813595170271582901e-06 3.335853307362413034e-06 -1.489969872636720538e-05
1.045000000000000000e+03 4.400683879852294922e+00 7.956712722778320312e+00 5.800210146844619885e-06 -1.310463176196208224e-06 1.346924022982420865e-06 -4.104721028852509335e-06
1.046000000000000000e+03 4.015521049499511719e+00 6.162400245666503906e+00 1.107628486352041364e-05 9.333584785053972155e-06 6.122960712673375383e-06 -8.311498277180362493e-06
1.047000000000000000e+03 4.634060382843017578e+00 5.433846950531005859e+00 1.247384716407395899e-05 8.778355550020933151e-06 6.375661087076878175e-06 -1.761717066983692348e-05
1.048000000000000000e+03 4.933315277099609375e+00 3.268119573593139648e+00 -6.517630481539526954e-06 1.133011892306967638e-06 -1.615385599507135339e-06 -1.756155029397632461e-06
1.049000000000000000e+03 1.896112799644470215e+00 2.018385410308837891e+00 -3.170429749843606260e-07 -5.339230028766905889e-06 -1.696881895441038068e-06 2.470658500897116028e-06
1.050000000000000000e+03 4.077673912048339844e+00 1.860446691513061523e+00 7.671534149267245084e-06 5.768613391410326585e-06 4.032044216728536412e-06 -4.182057637081015855e-06
1.051000000000000000e+03 3.481969356536865234e+00 2.631898164749145508e+00 7.216734047688078135e-06 6.866482635814463720e-06 4.224964868626557291e-06 -3.930329967261059210e-06
1.052000000000000000e+03 3.663420200347900391e+00 3.911705017089843750e+01 -2.358365054533351213e-05 5.840396988787688315e-05 1.044609598466195166e-05 1.078871628124034032e-05
1.053000000000000000e+03 2.754760265350341797e+00 3.809791946411132812e+01 2.939420119218993932e-05 6.782864511478692293e-05 2.916685480158776045e-05 -1.155253085016738623e-05
1.054000000000000000e+03 2.459013462066650391e+00 3.576058959960937500e+01 1.992592842725571245e-05 7.185012509580701590e-05 2.753281660261563957e-05 -4.229663773003267124e-06
1.055000000000000000e+03 2.470295667648315430e+00 3.443603134155273438e+01 -2.810337173286825418e-05 5.530291673494502902e-05 8.159863682521972805e-06 -6.975814358156640083e-06
1.056000000000000000e+03 2.511250257492065430e+00 3.307426834106445312e+01 2.815379048115573823e-05 5.384131145547144115e-05 2.459853021719027311e-05 2.541523372201481834e-06
1.057000000000000000e+03 2.635389328002929688e+00 3.165452003479003906e+01 -2.519981535442639142e-05 6.066330024623312056e-05 1.063904437614837661e-05 -7.798815317983098794e-07
1.058000000000000000e+03 2.751525163650512695e+00 3.019748115539550781e+01 1.946757220139261335e-05 5.742471330449916422e-05 2.306768692506011575e-05 -5.517613317351788282e-06
1.059000000000000000e+03 2.767907857894897461e+00 2.725827789306640625e+01 2.545812822063453496e-05 5.269335451885126531e-05 2.344544554944150150e-05 -4.371701720629062038e-07
1.060000000000000000e+03 2.645253181457519531e+00 2.582277870178222656e+01 -3.148975156364031136e-05 5.072362546343356371e-05 5.770162715634796768e-06 -1.080502988770604134e-05
1.061000000000000000e+03 2.450840473175048828e+00 2.440999603271484375e+01 3.186968388035893440e-05 4.760531010106205940e-05 2.384249819442629814e-05 -4.710339567282062490e-07
1.062000000000000000e+03 2.358184576034545898e+00 1.952047920227050781e+01 3.123986971331760287e-05 4.443768921191804111e-05 2.270326694997493178e-05 6.986859801827449701e-08
1.063000000000000000e+03 3.382979631423950195e+00 1.537991142272949219e+01 -1.118914315156871453e-05 1.873026849352754653e-05 2.262337602587649599e-06 -3.146964445477351546e-05
1.064000000000000000e+03 4.267669200897216797e+00 1.439228439331054688e+01 -1.666437697167566512e-06 2.587747621873859316e-05 7.263311545102624223e-06 7.697870387346483767e-06
1.065000000000000000e+03 2.334092378616333008e+00 1.197839450836181641e+01 -3.256696072639897466e-05 1.701380642771255225e-05 -4.665946562454337254e-06 -5.211568350205197930e-06
1.066000000000000000e+03 2.329722166061401367e+00 1.058785915374755859e+01 3.127778109046630561e-05 1.543994585517793894e-05 1.401531790179433301e-05 -8.616500963398721069e-06
1.067000000000000000e+03 2.293680906295776367e+00 9.232213020324707031e+00 -2.816822234308347106e-05 1.103540489566512406e-05 -5.139845143276033923e-06 -7.563138751720543951e-06
1.068000000000000000e+03 3.464013576507568359e+00 7.171250820159912109e+00 -7.359715709753800184e-06 1.457638882129685953e-05 2.165001887988182716e-06 -1.283581423194846138e-05
1.069000000000000000e+03 1.545395851135253906e+00 5.125670909881591797e+00 1.386201438435819000e-05 9.520541425445117056e-06 7.014766651991521940e-06 -6.909123840159736574e-06
1.070000000000000000e+03 3.049809455871582031e+00 3.500125169754028320e+00 8.804415301710832864e-06 5.169122232473455369e-06 4.192061169305816293e-06 -6.591025339730549604e-06
1.071000000000000000e+03 2.631190061569213867e+00 1.938023328781127930e+00 3.659721187432296574e-06 7.048676252452423796e-06 3.212519231965416111e-06 -3.406902351343887858e-06
1.072000000000000000e+03 1.377667903900146484e+00 4.009648132324218750e+01 4.142251054872758687e-05 6.677660712739452720e-05 3.245973493903875351e-05 -4.650356004276545718e-06
1.073000000000000000e+03 1.018176436424255371e+00 3.873255920410156250e+01 -4.364095002529211342e-05 6.715561903547495604e-05 7.054400612105382606e-06 1.092566344595979899e-05
1.074000000000000000e+03 8.216012120246887207e-01 3.600574493408203125e+01 -2.907752605096902698e-05 6.946914800209924579e-05 1.211748804053058848e-05 6.769676474505104125e-06
1.075000000000000000e+03 8.227026462554931641e-01 3.462129974365234375e+01 2.373831011936999857e-05 7.483639637939631939e-05 2.957241122203413397e-05 -1.773780923031154089e-06
1.076000000000000000e+03 8.416015505790710449e-01 3.321882247924804688e+01 -2.454821878927759826e-05 7.275881216628476977e-05 1.446317764930427074e-05 -5.650364300890942104e-07
1.077000000000000000e+03 8.781853914260864258e-01 3.180022430419921875e+01 2.372488415858242661e-05 6.993076385697349906e-05 2.809669422276783735e-05 -3.211748662579338998e-06
1.078000000000000000e+03 9.121068120002746582e-01 3.037665939331054688e+01 -1.953154242073651403e-05 6.826886965427547693e-05 1.462119871575850993e-05 1.898380219245154876e-06
1.079000000000000000e+03 9.165663719177246094e-01 2.752940559387207031e+01 -1.598014023329596967e-05 6.419431883841753006e-05 1.446425358153646812e-05 -2.210462071161600761e-06
1.080000000000000000e+03 8.773755431175231934e-01 2.611629486083984375e+01 2.130248503817711025e-05 6.194508750922977924e-05 2.497427158232312649e-05 -4.863811113864358049e-07
1.081000000000000000e+03 8.127627968788146973e-01 2.471198654174804688e+01 -3.055095294257625937e-05 5.905087164137512445e-05 8.549975063942838460e-06 -3.500065758998971432e-06
1.082000000000000000e+03 7.275269031524658203e-01 2.332763671875000000e+01 4.265313327778130770e-05 5.545275780605152249e-05 2.943176696135196835e-05 2.368742855196614983e-07
1.083000000000000000e+03 1.911847233772277832e+00 2.184945297241210938e+01 4.057597107021138072e-05 4.015486047137528658e-05 2.421924909867811948e-05 1.985597180009790463e-07
1.084000000000000000e+03 7.770987749099731445e-01 1.924355888366699219e+01 -4.297187115298584104e-05 4.235504820826463401e-05 -1.850469857345160563e-07 -3.540496891218936071e-06
1.085000000000000000e+03 8.796101212501525879e-01 1.783796310424804688e+01 3.642118463176302612e-05 4.068748239660635591e-05 2.313260119990445673e-05 1.258174961549229920e-06
1.086000000000000000e+03 9.800303578376770020e-01 1.636775779724121094e+01 -3.808938708971254528e-05 3.512422335916198790e-05 -8.895491419025347568e-07 -7.870735316828358918e-06
1.087000000000000000e+03 9.184179306030273438e-01 1.487568759918212891e+01 4.357091165729798377e-05 2.626829882501624525e-05 2.095176387229003012e-05 -4.723508027382194996e-06
1.088000000000000000e+03 7.732201218605041504e-01 1.205115032196044922e+01 3.657019624370150268e-05 2.340783794352319092e-05 1.799341043806634843e-05 -5.955344022368080914e-06
1.089000000000000000e+03 7.711184620857238770e-01 1.065229797363281250e+01 -3.310352258267812431e-05 1.740135121508501470e-05 -4.710650955530581996e-06 -6.547139150825387333e-07
1.090000000000000000e+03 7.835425734519958496e-01 9.214855194091796875e+00 3.046785423066467047e-05 1.260526278201723471e-05 1.292193519475404173e-05 -4.407220785651588812e-06
1.091000000000000000e+03 6.717284321784973145e-01 7.779552459716796875e+00 -2.803674033202696592e-05 1.085134408640442416e-05 -5.155618964636232704e-06 3.031169171663350426e-06
1.092000000000000000e+03 5.316829681396484375e-01 6.402819633483886719e+00 2.433382178423926234e-05 6.467167622759006917e-06 9.240297003998421133e-06 -7.199085303000174463e-06
1.093000000000000000e+03 4.664209187030792236e-01 3.595101594924926758e+00 1.031689953379100189e-05 1.650009153308928944e-06 3.590072537917876616e-06 -3.135975020995829254e-06
1.094000000000000000e+03 1.147160530090332031e+00 2.116948366165161133e+00 2.637942998262587935e-06 5.493227035913150758e-06 2.439350964777986519e-06 -3.485788056423189119e-06
1.095000000000000000e+03 2.093999147415161133e+00 2.994700193405151367e+00 3.096630280197132379e-06 7.644433026143815368e-06 3.222319037377019413e-06 -4.349081791588105261e-06
1.096000000000000000e+03 3.844988346099853516e-01 2.187530755996704102e+00 -7.435528914356837049e-06 -1.663118155192933045e-06 -2.729594143602298573e-06 1.117194756261596922e-06
1.097000000000000000e+03 4.310872268676757812e+01 -1.958561706542968750e+01 -2.653012643349939026e-06 -1.218961529048101511e-06 -1.161592194875993300e-06 -2.862484507204499096e-07
1.098000000000000000e+03 4.340478515625000000e+01 -1.856425666809082031e+01 -5.252702521829633042e-06 -6.632134841311199125e-09 -1.577800389895855915e-06 -2.138024001396843232e-06
1.099000000000000000e+03 4.386535263061523438e+01 -1.709499168395996094e+01 -2.181675881729461253e-06 1.963921931746881455e-06 -6.532624041710732854e-08 -1.787489054549951106e-06
1.100000000000000000e+03 4.347035980224609375e+01 -1.311846446990966797e+01 7.701695722062140703e-06 9.221225809596944600e-06 5.076876732346136123e-06 -1.021289563141181134e-06
1.101000000000000000e+03 4.524391555786132812e+01 -9.711988449096679688e+00 1.044961663865251467e-05 8.910367796488571912e-06 5.807995421491796151e-06 7.138980436138808727e-06
1.102000000000000000e+03 4.490201187133789062e+01 -7.943165779113769531e+00 -3.762281266972422600e-06 -2.592410055513028055e-06 -1.906407419483002741e-06 6.090210717957234010e-06
1.103000000000000000e+03 4.428010177612304688e+01 -6.650723457336425781e+00 -1.269376025447854772e-05 2.755150717348442413e-06 -2.981582838401664048e-06 7.423554052365943789e-06
1.104000000000000000e+03 4.404589462280273438e+01 -4.212915420532226562e+00 1.828765198297332972e-05 -2.767114665402914397e-06 4.656161308957962319e-06 2.292393446623464115e-06
1.105000000000000000e+03 4.507719421386718750e+01 -2.361196756362915039e+00 2.477476357398700202e-07 1.023922868625959381e-05 3.146092922179377638e-06 7.486502454412402585e-06
1.106000000000000000e+03 4.512208175659179688e+01 -9.319782257080078125e-01 -2.204020711360499263e-05 -6.982058494031662121e-06 -8.706679182068910450e-06 -3.426316652621608227e-06
1.107000000000000000e+03 4.434167861938476562e+01 -7.652551680803298950e-02 1.276198327104793862e-05 9.044462785823270679e-06 6.541933544212952256e-06 2.211168293797527440e-06
1.108000000000000000e+03 4.446092224121093750e+01 1.841261148452758789e+00 3.365726297488436103e-05 1.044380587700288743e-05 1.323032029176829383e-05 2.654208583408035338e-05
1.109000000000000000e+03 4.511585235595703125e+01 3.872153043746948242e+00 5.468341259984299541e-05 2.165751357097178698e-05 2.290227894263807684e-05 2.656720607774332166e-05
1.110000000000000000e+03 4.441159057617187500e+01 5.096953392028808594e+00 -5.372474697651341558e-05 -1.568492734804749489e-05 -2.082290120597463101e-05 -3.426411421969532967e-05
1.111000000000000000e+03 4.367118835449218750e+01 6.346679687500000000e+00 6.788137397961691022e-05 3.330525214551016688e-05 3.035598820133600384e-05 3.840236240648664534e-05
1.112000000000000000e+03 4.285308074951171875e+01 7.679271221160888672e+00 -9.039317228598520160e-05 2.370969195908401161e-05 -2.000504355237353593e-05 -3.828842454822733998e-05
1.113000000000000000e+03 4.464279174804687500e+01 -1.902477264404296875e+01 -2.633289341247291304e-06 -1.207271452585700899e-06 -1.152168238149897661e-06 1.166761194326682016e-06
1.114000000000000000e+03 4.545133590698242188e+01 -1.887529563903808594e+01 1.380935486849921290e-06 1.633572310311137699e-06 9.043523618856852408e-07 -7.139597073546610773e-07
1.115000000000000000e+03 4.617627716064453125e+01 -1.794824218750000000e+01 2.991074325109366328e-06 1.188395003737241495e-06 1.253840878234768752e-06 -2.341976141906343400e-07
1.116000000000000000e+03 4.585216903686523438e+01 -1.458307933807373047e+01 -9.518087608739733696e-06 -2.306940359630971216e-06 -3.547508413248579018e-06 -2.194666876675910316e-06
1.117000000000000000e+03 4.589700698852539062e+01 -1.311324882507324219e+01 -9.067957762454170734e-06 -8.528209036740008742e-06 -5.278850039758253843e-06 -1.274466740142088383e-06
1.118000000000000000e+03 4.510765075683593750e+01 -1.159662532806396484e+01 -7.435610768879996613e-06 -7.148383701860439032e-06 -4.375198386696865782e-06 -1.088688009076577146e-06
1.119000000000000000e+03 4.540221405029296875e+01 -9.004762649536132812e+00 -1.572729502186120953e-08 -1.564363083161879331e-05 -4.697807526099495590e-06 -2.077036697301082313e-06
1.120000000000000000e+03 4.646550369262695312e+01 -7.803839206695556641e+00 2.229866367997601628e-06 9.010535904963035136e-06 3.372120772837661207e-06 5.604787475022021681e-06
1.121000000000000000e+03 4.543566513061523438e+01 -4.732357025146484375e+00 -1.993029582081362605e-05 1.114567203330807388e-05 -2.635387318150606006e-06 -5.700489396076591220e-07
1.122000000000000000e+03 4.599949264526367188e+01 -2.632851839065551758e+00 -3.269380249548703432e-05 -9.615331691747996956e-06 -1.269274071091786027e-05 -1.250815967068774626e-05
1.123000000000000000e+03 4.671118927001953125e+01 -1.343108296394348145e+00 -4.179975803708657622e-05 -1.411840548826148733e-05 -1.677544969425071031e-05 -1.902378971863072366e-05
1.124000000000000000e+03 4.535374450683593750e+01 7.721895575523376465e-01 -3.119024404441006482e-05 -1.510388392489403486e-05 -1.388823875458911061e-05 -1.935485670401249081e-05
1.125000000000000000e+03 4.582312774658203125e+01 2.672440052032470703e+00 -5.906221122131682932e-05 -1.173145119537366554e-05 -2.123809827025979757e-05 -2.990372740896418691e-05
1.126000000000000000e+03 4.622444152832031250e+01 -1.872787475585937500e+01 -2.018619852606207132e-06 -1.408805360370024573e-06 -1.028227643473655917e-06 4.752586164613603614e-07
1.127000000000000000e+03 4.772953796386718750e+01 -1.846491432189941406e+01 -2.025632966251578182e-06 -2.026830998147488572e-06 -1.215739189319720026e-06 5.584084306065051351e-07
1.128000000000000000e+03 4.767092132568359375e+01 -1.776015853881835938e+01 2.082476157738710754e-06 2.420648115730728023e-06 1.350937282040831633e-06 -1.111025540012633428e-06
1.129000000000000000e+03 4.852082824707031250e+01 -1.489660930633544922e+01 6.284189566940767691e-06 -2.768943204500828870e-06 1.054573885994614102e-06 -3.556074716470902786e-06
1.130000000000000000e+03 4.876981353759765625e+01 -1.409082221984863281e+01 -1.041687301039928570e-05 4.637543952412670478e-06 -1.733798740133352112e-06 6.196705157890392002e-07
1.131000000000000000e+03 4.788738632202148438e+01 -1.184933090209960938e+01 -9.669191058492287993e-06 -6.725738330715103075e-06 -4.918478680338012055e-06 -3.945620392187265679e-06
1.132000000000000000e+03 4.686368179321289062e+01 -1.040166568756103516e+01 -1.871986796686542220e-06 -1.086728480004239827e-05 -3.821781774604460225e-06 4.266093583282781765e-06
1.133000000000000000e+03 4.725292968750000000e+01 -8.708169937133789062e+00 -3.857278443319955841e-06 -2.081812817777972668e-05 -7.402622486551990733e-06 -3.520167183523881249e-06
1.134000000000000000e+03 4.732275009155273438e+01 -7.017195224761962891e+00 6.837060482212109491e-06 -1.951673766598105431e-05 -3.803903155130683444e-06 -9.221861546393483877e-06
1.135000000000000000e+03 4.665373611450195312e+01 -5.410823822021484375e+00 1.278892887057736516e-05 -2.381546983087901026e-05 -3.307962060716818087e-06 3.644978505690232851e-06
1.136000000000000000e+03 4.872749710083007812e+01 -3.431500196456909180e+00 4.588026786223053932e-05 6.839028173999395221e-06 1.581578908371739089e-05 1.303130557062104344e-05
1.137000000000000000e+03 4.831341552734375000e+01 -2.160462617874145508e+00 -5.159408829058520496e-05 -9.335864888271316886e-06 -1.827898631745483726e-05 -1.996713581320364028e-05
1.138000000000000000e+03 4.781118011474609375e+01 -9.105180501937866211e-01 5.760499698226340115e-05 1.148211049439851195e-05 2.072613096970599145e-05 2.474942630215082318e-05
1.139000000000000000e+03 4.720023727416992188e+01 2.957046926021575928e-01 -5.979385605314746499e-05 -1.661575697653461248e-05 -2.292288445460144430e-05 -2.791813858493696898e-05
1.140000000000000000e+03 4.847411727905273438e+01 -1.832276725769042969e+01 1.906595230138918851e-06 2.472672349540516734e-06 1.313780217060411815e-06 -6.873647180327679962e-07
1.141000000000000000e+03 4.920861816406250000e+01 -1.817674827575683594e+01 -1.922823230415815488e-06 -3.074039568673470058e-06 -1.499058839726785664e-06 5.293142635309777688e-07
1.142000000000000000e+03 4.982530975341796875e+01 -1.734057044982910156e+01 -1.923286617966368794e-06 -4.485255431063706055e-06 -1.922562660183757544e-06 1.380958565277978778e-06
1.143000000000000000e+03 5.068575668334960938e+01 -1.786456108093261719e+01 -1.974285623873583972e-06 -3.116182369922171347e-06 -1.527140398138726596e-06 -1.868368002533316030e-07
1.144000000000000000e+03 5.162930679321289062e+01 -1.253334712982177734e+01 -1.685788447503000498e-05 -7.253964895426179282e-07 -5.274984232528368011e-06 -9.976404271583305672e-07
1.145000000000000000e+03 5.149353027343750000e+01 -1.366129398345947266e+01 7.783837645547464490e-06 -7.001307494647335261e-06 2.347591703255602624e-07 -4.501578587223775685e-06
1.146000000000000000e+03 5.018289947509765625e+01 -1.247936344146728516e+01 1.658405926718842238e-05 2.162621370871420368e-07 5.040096311859088019e-06 4.045292371301911771e-06
1.147000000000000000e+03 5.129559326171875000e+01 -1.132367992401123047e+01 1.837477793742436916e-05 3.963639585435885238e-07 5.631342446577036753e-06 2.413186393823707476e-06
1.148000000000000000e+03 4.964535140991210938e+01 -1.032816219329833984e+01 1.635229455132503062e-05 4.175643880444113165e-06 6.158381438581272960e-06 5.270579549687681720e-06
1.149000000000000000e+03 5.089433670043945312e+01 -1.005154609680175781e+01 -1.926108416228089482e-05 -2.266622232127701864e-06 -6.458311872847843915e-06 -3.768812803173204884e-06
1.150000000000000000e+03 5.001870346069335938e+01 -1.144738101959228516e+01 -1.552550747874192894e-05 -3.135681708954507485e-06 -5.598356892733136192e-06 -3.910880877810996026e-06
1.151000000000000000e+03 4.900018310546875000e+01 -1.247699642181396484e+01 -1.574497764522675425e-05 -3.075755614645458991e-07 -4.815765805687988177e-06 -6.895789283589692786e-06
1.152000000000000000e+03 4.943922042846679688e+01 -1.511780643463134766e+01 -4.902518867311300710e-06 3.061006054849713109e-06 -5.524538551071600523e-07 4.271669240552000701e-06
1.153000000000000000e+03 5.033960723876953125e+01 -1.650834274291992188e+01 -3.213774107280187309e-06 -5.625069206871557981e-06 -2.651652948770788498e-06 1.111329311243025586e-06
1.154000000000000000e+03 5.056204605102539062e+01 -1.713704681396484375e+01 2.019732392000150867e-06 5.471856638905592263e-06 2.247476686534355395e-06 1.318293101348899654e-07
1.155000000000000000e+03 5.214321517944335938e+01 -1.761244010925292969e+01 1.235309696312469896e-06 -5.111250629852293059e-06 -1.162782268693263177e-06 1.864898877101950347e-06
1.156000000000000000e+03 5.222341918945312500e+01 -1.688743591308593750e+01 -2.476673898854642175e-06 -5.929370558988011908e-07 -9.208832807416911237e-07 7.841154001653194427e-07
1.157000000000000000e+03 5.272502899169921875e+01 -1.429468536376953125e+01 4.293485744710778818e-06 7.772458047838881612e-06 3.619783001340692863e-06 5.462822173285530880e-06
1.158000000000000000e+03 5.347780609130859375e+01 -1.710276412963867188e+01 -4.223315045237541199e-06 -4.501067451201379299e-06 -2.617314748931676149e-06 -1.561246449455211405e-06
1.159000000000000000e+03 5.520054626464843750e+01 -1.681123924255371094e+01 -8.719280231161974370e-06 1.181537754746386781e-06 -2.261322606500471011e-06 -3.247452241339487955e-06
1.160000000000000000e+03 5.430329132080078125e+01 -1.696622276306152344e+01 2.872496338568453211e-07 2.674581082828808576e-06 8.885492093213542830e-07 5.333056947165459860e-07
1.161000000000000000e+03 5.367932128906250000e+01 -1.525690269470214844e+01 -5.561758371186442673e-06 -6.091760042181704193e-06 -3.496055569485179149e-06 -4.522645667748292908e-06
1.162000000000000000e+03 5.625132751464843750e+01 -1.654991340637207031e+01 -1.810887169995112345e-06 -8.477118171867914498e-06 -3.086401420659967698e-06 -4.089430603926302865e-06
1.163000000000000000e+03 5.849060440063476562e+01 -1.577657508850097656e+01 -8.149686436809133738e-06 -4.373063802631804720e-06 -3.756824980882811360e-06 -8.172744855983182788e-06
1.164000000000000000e+03 5.910190200805664062e+01 -1.544296073913574219e+01 4.100372166249144357e-07 -5.172783858142793179e-06 -1.428824020877073053e-06 -1.037717652252467815e-06
1.165000000000000000e+03 5.775817871093750000e+01 -1.632281303405761719e+01 3.829970410151872784e-06 -3.678396296891150996e-06 4.547223042550285754e-08 -1.201089844471425749e-06
1.166000000000000000e+03 4.910655975341796875e+01 -9.185854911804199219e+00 -1.581276228534989059e-05 -9.790275726118125021e-06 -7.680911039642523974e-06 -8.924434041546192020e-06
1.167000000000000000e+03 4.911899948120117188e+01 -4.714891910552978516e+00 -4.174418791080825031e-05 -3.143338062727707438e-06 -1.346625867881812155e-05 -6.489764018624555320e-06
1.168000000000000000e+03 4.840780639648437500e+01 -8.003197669982910156e+00 1.078820514521794394e-05 1.935110230988357216e-05 9.041791599884163588e-06 1.184102075058035553e-05
1.169000000000000000e+03 4.192568588256835938e+01 1.207418346405029297e+01 1.715807302389293909e-04 6.223544187378138304e-05 7.014485163381323218e-05 -1.041276937030488625e-05
1.170000000000000000e+03 4.008050155639648438e+01 1.385881710052490234e+01 2.135207323590293527e-04 4.310926306061446667e-05 7.698900299146771431e-05 2.450198553560767323e-05
1.171000000000000000e+03 4.282752609252929688e+01 3.716361999511718750e+01 9.015791001729667187e-04 -1.293079461902379990e-03 -1.174501230707392097e-04 2.569274278357625008e-03
1.172000000000000000e+03 4.606668472290039062e+01 3.738676071166992188e+01 -4.752007662318646908e-04 7.278407338162651286e-06 -1.403767091687768698e-04 4.394023679196834564e-03
1.173000000000000000e+03 4.333175277709960938e+01 2.909941101074218750e+01 -1.109580975025892258e-03 -2.282523564645089209e-05 -3.397218533791601658e-04 -1.148635346908122301e-04
1.174000000000000000e+03 4.289679336547851562e+01 2.710568618774414062e+01 -5.254769930616021156e-04 1.951623416971415281e-04 -9.909439540933817625e-05 -1.056434557540342212e-04
1.175000000000000000e+03 4.232334899902343750e+01 2.424362754821777344e+01 6.983691127970814705e-05 2.777844492811709642e-04 1.042864096234552562e-04 -2.262241323478519917e-04
1.176000000000000000e+03 4.156125259399414062e+01 2.284230232238769531e+01 -2.058608224615454674e-04 -1.527986896689981222e-04 -1.075978580047376454e-04 2.013032644754275680e-04
1.177000000000000000e+03 4.215460586547851562e+01 1.833397102355957031e+01 2.351173607166856527e-04 1.972573081729933619e-04 1.297123963013291359e-04 -1.060542927007190883e-04
1.178000000000000000e+03 4.271973800659179688e+01 1.971499061584472656e+01 -1.818884047679603100e-04 -1.847198291216045618e-05 -6.010811557644046843e-05 2.336229663342237473e-04
1.179000000000000000e+03 4.189202117919921875e+01 1.672431564331054688e+01 -1.827688538469374180e-04 8.514264482073485851e-05 -2.928786307165864855e-05 1.199650214402936399e-04
1.180000000000000000e+03 4.194378662109375000e+01 1.504672431945800781e+01 2.072296483675017953e-04 9.733706974657252431e-05 9.137001325143501163e-05 -3.088388257310725749e-05
1.181000000000000000e+03 4.193891143798828125e+01 1.353892326354980469e+01 -1.781148021109402180e-04 7.362948235822841525e-05 -3.134559665340930223e-05 4.855871520703658462e-05
1.182000000000000000e+03 4.383910369873046875e+01 2.236615371704101562e+01 -1.865786180133000016e-04 -6.345527071971446276e-05 -7.501016807509586215e-05 2.688086242415010929e-04
1.183000000000000000e+03 4.322235870361328125e+01 2.525356101989746094e+01 -3.564124926924705505e-04 -2.723273646552115679e-04 -1.886219542939215899e-04 2.333134470973163843e-04
1.184000000000000000e+03 4.448376464843750000e+01 2.356866073608398438e+01 2.598270657472312450e-04 4.205395234748721123e-04 2.041099796770140529e-04 -2.167246275348588824e-04
1.185000000000000000e+03 4.489658737182617188e+01 2.719396972656250000e+01 -8.325411472469568253e-04 -3.436701372265815735e-04 -3.528633969835937023e-04 1.325951889157295227e-04
1.186000000000000000e+03 4.567178344726562500e+01 2.814514732360839844e+01 -5.726285744458436966e-04 2.519462723284959793e-04 -9.620469791116192937e-05 -6.429420318454504013e-04
1.187000000000000000e+03 4.577450942993164062e+01 3.200409698486328125e+01 -2.764106262475252151e-03 1.300994306802749634e-03 -4.389335808809846640e-04 5.251054535619914532e-04
1.188000000000000000e+03 4.589240264892578125e+01 3.440007019042968750e+01 -2.935378113761544228e-03 1.971301971934735775e-04 -8.214744157157838345e-04 1.860599033534526825e-03
1.189000000000000000e+03 4.374697875976562500e+01 3.415089797973632812e+01 -1.939134323038160801e-03 9.944408666342496872e-04 -2.834080369211733341e-04 1.554126618430018425e-03
1.190000000000000000e+03 4.519334411621093750e+01 2.473293495178222656e+01 -2.815618063323199749e-04 -2.127760235453024507e-04 -1.483013475080952048e-04 3.454310353845357895e-04
1.191000000000000000e+03 4.592742538452148438e+01 2.587640571594238281e+01 2.564948226790875196e-04 4.854885919485241175e-04 2.225950156571343541e-04 -3.590647247619926929e-04
1.192000000000000000e+03 4.666466140747070312e+01 2.703508377075195312e+01 -6.360376137308776379e-04 -4.003048525191843510e-04 -3.109027456957846880e-04 2.802140952553600073e-04
1.193000000000000000e+03 4.636545562744140625e+01 2.948007583618164062e+01 -1.394570688717067242e-03 -1.433180586900562048e-04 -4.613666387740522623e-04 -1.470254210289567709e-04
1.194000000000000000e+03 4.744119644165039062e+01 2.825820922851562500e+01 -3.507579676806926727e-04 3.546600928530097008e-04 1.170637574432475958e-06 -7.942784577608108521e-04
1.195000000000000000e+03 4.830957031250000000e+01 2.947300338745117188e+01 -1.446810783818364143e-03 -9.809907060116529465e-04 -7.283404702320694923e-04 -2.598724095150828362e-04
1.196000000000000000e+03 5.033051681518554688e+01 3.147613334655761719e+01 -3.793967654928565025e-03 -1.947845914401113987e-03 -1.722544082440435886e-03 -1.379526453092694283e-03
1.197000000000000000e+03 5.131345367431640625e+01 3.221776962280273438e+01 -6.244828458875417709e-03 -1.245349994860589504e-03 -2.247053664177656174e-03 -4.403848666697740555e-03
1.198000000000000000e+03 4.783770370483398438e+01 3.424752426147460938e+01 -4.977609962224960327e-03 2.428069710731506348e-03 -7.648621103726327419e-04 2.588056959211826324e-03
1.199000000000000000e+03 4.824197769165039062e+01 3.228921508789062500e+01 -4.141839221119880676e-03 2.016803191509097815e-04 -1.182047650218009949e-03 -4.477231123019009829e-04
1.200000000000000000e+03 4.928178787231445312e+01 3.064716911315917969e+01 -1.972194295376539230e-03 8.476313087157905102e-05 -5.662293406203389168e-04 -1.502367202192544937e-03
1.201000000000000000e+03 6.305362701416015625e+01 3.495285034179687500e+01 2.902816534042358398e-01 2.290660142898559570e-01 1.558042913675308228e-01 -1.931754946708679199e-01
1.202000000000000000e+03 6.570008850097656250e+01 3.337989044189453125e+01 5.275079011917114258e-01 8.673415184020996094e-01 4.184548258781433105e-01 -6.598415374755859375e-01
1.203000000000000000e+03 6.670752716064453125e+01 3.228546905517578125e+01 6.326882243156433105e-01 1.214435338973999023e+00 5.541371107101440430e-01 -8.318706750869750977e-01
1.204000000000000000e+03 6.758216857910156250e+01 3.337644577026367188e+01 2.279720902442932129e-01 1.377208590507507324e+00 4.815541803836822510e-01 -6.326076984405517578e-01
1.205000000000000000e+03 7.064278411865234375e+01 -1.364276051521301270e+00 1.829906255006790161e-01 3.276432275772094727e+00 1.037826895713806152e+00 4.725454151630401611e-01
1.206000000000000000e+03 7.318208312988281250e+01 -3.426307916641235352e+00 1.039677187800407410e-01 1.335403561592102051e+00 4.318113923072814941e-01 -2.079646885395050049e-01
1.207000000000000000e+03 7.311782836914062500e+01 -6.011316299438476562e+00 1.427262835204601288e-02 9.658269882202148438e-01 2.940298914909362793e-01 -2.230837494134902954e-01
1.208000000000000000e+03 7.471890258789062500e+01 -7.488814353942871094e+00 3.030619584023952484e-03 2.939640283584594727e-01 8.909839391708374023e-02 -3.722265660762786865e-01
1.209000000000000000e+03 7.097977447509765625e+01 -2.950539588928222656e-01 2.486834377050399780e-01 3.449069023132324219e+00 1.109325766563415527e+00 2.916007637977600098e-01
1.210000000000000000e+03 6.923357391357421875e+01 -2.464664697647094727e+00 3.016781508922576904e-01 3.459871530532836914e+00 1.128464937210083008e+00 9.298192262649536133e-01
1.211000000000000000e+03 7.017416381835937500e+01 -4.060360431671142578e+00 1.842327713966369629e-01 2.532003164291381836e+00 8.148707747459411621e-01 4.185180962085723877e-01
1.212000000000000000e+03 7.210027313232421875e+01 -5.946708679199218750e+00 4.609446972608566284e-02 1.374811887741088867e+00 4.262718856334686279e-01 -1.330376118421554565e-01
1.213000000000000000e+03 7.349462127685546875e+01 -7.837863922119140625e+00 -1.576408930122852325e-02 7.076850533485412598e-01 2.075762748718261719e-01 -3.013864755630493164e-01
1.214000000000000000e+03 6.882365417480468750e+01 -3.804113149642944336e+00 3.219878673553466797e-01 3.122809886932373047e+00 1.033439278602600098e+00 9.304867982864379883e-01
1.215000000000000000e+03 6.931841278076171875e+01 -6.716124057769775391e+00 1.927772611379623413e-01 2.064300298690795898e+00 6.771232485771179199e-01 4.431002438068389893e-01
1.216000000000000000e+03 6.833206176757812500e+01 -5.137849807739257812e+00 3.570420145988464355e-01 2.725250959396362305e+00 9.246879220008850098e-01 9.000928997993469238e-01
1.217000000000000000e+03 7.050363922119140625e+01 -7.869596004486083984e+00 8.025752753019332886e-02 1.572372436523437500e+00 4.957889616489410400e-01 9.483825415372848511e-02
1.218000000000000000e+03 7.073448944091796875e+01 -6.870828628540039062e+00 6.090354919433593750e-02 1.641021490097045898e+00 5.105774998664855957e-01 8.502084016799926758e-02
1.219000000000000000e+03 7.204622650146484375e+01 -6.981112003326416016e+00 2.188606187701225281e-02 1.260531663894653320e+00 3.847253322601318359e-01 -1.263147145509719849e-01
1.220000000000000000e+03 7.140257263183593750e+01 -8.524102210998535156e+00 6.441033910959959030e-04 1.231790304183959961e+00 3.697303235530853271e-01 -9.365455806255340576e-02
1.221000000000000000e+03 6.783038330078125000e+01 -6.479805946350097656e+00 3.447337448596954346e-01 2.315363883972167969e+00 7.980292439460754395e-01 8.456071019172668457e-01
1.222000000000000000e+03 6.721051025390625000e+01 -7.790178298950195312e+00 4.077258706092834473e-01 2.055800437927246094e+00 7.390578985214233398e-01 8.182181119918823242e-01
1.223000000000000000e+03 6.426740264892578125e+01 -1.407789993286132812e+01 -1.198889240622520447e-01 9.075037837028503418e-01 2.362844645977020264e-01 3.202926516532897949e-01
1.224000000000000000e+03 6.136322021484375000e+01 -1.923569488525390625e+01 -1.670685410499572754e+00 1.267731189727783203e+00 -1.208862662315368652e-01 7.467471361160278320e-01
1.225000000000000000e+03 6.122820663452148438e+01 -2.162085914611816406e+01 4.953942596912384033e-01 1.906102180480957031e+00 7.204489707946777344e-01 1.630468964576721191e+00
1.226000000000000000e+03 5.934166717529296875e+01 -1.960276603698730469e+01 -2.665940046310424805e+00 4.789719283580780029e-01 -6.560904383659362793e-01 1.728833168745040894e-01
1.227000000000000000e+03 6.007587051391601562e+01 -2.131777000427246094e+01 -2.638250291347503662e-01 1.427345752716064453e+00 3.490562140941619873e-01 1.243088245391845703e+00
1.228000000000000000e+03 5.829075241088867188e+01 -2.113906097412109375e+01 -1.059476613998413086e+00 6.099424958229064941e-01 -1.348602473735809326e-01 6.384042501449584961e-01
1.229000000000000000e+03 5.743656539916992188e+01 -2.031271934509277344e+01 -2.878085374832153320e+00 -4.257116094231605530e-02 -8.761969804763793945e-01 -2.078059464693069458e-01
1.230000000000000000e+03 5.781768417358398438e+01 -2.285144615173339844e+01 1.139592409133911133e+00 8.740988373756408691e-01 6.041073799133300781e-01 1.321177244186401367e+00
1.231000000000000000e+03 5.893847656250000000e+01 -2.518906211853027344e+01 4.015849113464355469e+00 2.602504730224609375e+00 1.985506057739257812e+00 3.151633024215698242e+00
1.232000000000000000e+03 5.736594390869140625e+01 -2.383967208862304688e+01 2.049827575683593750e+00 1.087428689002990723e+00 9.411768317222595215e-01 1.803266882896423340e+00
1.233000000000000000e+03 5.591024398803710938e+01 -2.633580398559570312e+01 4.027811050415039062e+00 1.777809500694274902e+00 1.741686105728149414e+00 3.308609962463378906e+00
1.234000000000000000e+03 5.651013565063476562e+01 -2.617992019653320312e+01 3.797806739807128906e+00 8.700328469276428223e-01 1.400351881980895996e+00 2.827827692031860352e+00
1.235000000000000000e+03 5.675631332397460938e+01 -2.133256149291992188e+01 -1.764179587364196777e+00 2.161063998937606812e-01 -4.644219577312469482e-01 1.456761956214904785e-01
1.236000000000000000e+03 5.509450149536132812e+01 -2.080662345886230469e+01 -3.457620859146118164e+00 -1.171819120645523071e-01 -1.072440862655639648e+00 -6.485867500305175781e-01
1.237000000000000000e+03 5.358618545532226562e+01 -2.105522155761718750e+01 -3.570824861526489258e+00 -1.062662303447723389e-01 -1.103127360343933105e+00 -1.018817543983459473e+00
1.238000000000000000e+03 5.209931564331054688e+01 -2.132286453247070312e+01 -3.299680471420288086e+00 -1.892179548740386963e-01 -1.046669602394104004e+00 -1.321823120117187500e+00
1.239000000000000000e+03 4.990452957153320312e+01 -2.176387786865234375e+01 -2.474056482315063477e+00 -3.818477392196655273e-01 -8.567712306976318359e-01 -1.534468889236450195e+00
1.240000000000000000e+03 4.918169021606445312e+01 -2.192181587219238281e+01 -2.163831472396850586e+00 -4.544799029827117920e-01 -7.854934334754943848e-01 -1.524979352951049805e+00
1.241000000000000000e+03 4.721963882446289062e+01 -2.314805030822753906e+01 -8.254133462905883789e-01 -6.567672491073608398e-01 -4.446541965007781982e-01 -1.492155909538269043e+00
1.242000000000000000e+03 4.573566818237304688e+01 -2.364449119567871094e+01 -4.380635917186737061e-01 -7.626770734786987305e-01 -3.602221906185150146e-01 -1.287059068679809570e+00
1.243000000000000000e+03 4.489949035644531250e+01 -2.300661468505859375e+01 -5.348279476165771484e-01 -6.226916313171386719e-01 -3.472558557987213135e-01 -1.009835481643676758e+00
1.244000000000000000e+03 4.419098281860351562e+01 -2.319610404968261719e+01 -3.213299810886383057e-01 -6.124468445777893066e-01 -2.801330387592315674e-01 -8.486377000808715820e-01
1.245000000000000000e+03 4.470996093750000000e+01 -2.455954170227050781e+01 -1.200248375535011292e-01 -9.993692040443420410e-01 -3.358182013034820557e-01 -1.105999469757080078e+00
1.246000000000000000e+03 4.651876068115234375e+01 -2.764404296875000000e+01 4.423744678497314453e-01 -8.617072105407714844e-01 -1.257998198270797729e-01 -7.699748873710632324e-01
1.247000000000000000e+03 4.918576431274414062e+01 -2.849139404296875000e+01 1.290592789649963379e+00 -4.743899032473564148e-02 3.729461431503295898e-01 -5.919451639056205750e-02
1.248000000000000000e+03 4.975331497192382812e+01 -3.107701301574707031e+01 8.443134427070617676e-01 7.721121311187744141e-01 4.849276542663574219e-01 6.869149804115295410e-01
1.249000000000000000e+03 4.996518325805664062e+01 -3.310294342041015625e+01 3.147722482681274414e-01 1.038703918457031250e+00 4.060428440570831299e-01 6.977229118347167969e-01
1.250000000000000000e+03 5.157158660888671875e+01 -3.443111801147460938e+01 3.327076509594917297e-02 1.521231770515441895e+00 4.663507640361785889e-01 4.749445915222167969e-01
1.251000000000000000e+03 5.590426254272460938e+01 -3.673722457885742188e+01 -2.215604931116104126e-01 1.478767156600952148e+00 3.771619796752929688e-01 -2.323627471923828125e-01
1.252000000000000000e+03 5.843988418579101562e+01 -4.096442794799804688e+01 -1.848355084657669067e-01 9.106104373931884766e-01 2.177324891090393066e-01 -8.499071747064590454e-02
1.253000000000000000e+03 6.020320892333984375e+01 -3.852831649780273438e+01 -4.022003337740898132e-02 5.775713324546813965e-01 1.612053811550140381e-01 -2.416725754737854004e-01
1.254000000000000000e+03 6.308559417724609375e+01 -3.561809921264648438e+01 -6.132682412862777710e-02 5.404384806752204895e-03 -1.677673123776912689e-02 -4.625732824206352234e-02
1.255000000000000000e+03 6.540844726562500000e+01 -3.455187225341796875e+01 -1.655790954828262329e-01 -1.309107523411512375e-02 -5.360105261206626892e-02 -1.059342548251152039e-02
1.256000000000000000e+03 6.401373291015625000e+01 -3.464133071899414062e+01 -2.097765803337097168e-01 3.109187074005603790e-02 -5.360541120171546936e-02 -1.741368323564529419e-02
1.257000000000000000e+03 6.279447937011718750e+01 -3.460302352905273438e+01 -2.335348576307296753e-01 -3.401223942637443542e-02 -8.026412874460220337e-02 -2.652736380696296692e-02
1.258000000000000000e+03 6.145884323120117188e+01 -3.470639419555664062e+01 -1.676934212446212769e-01 4.306109249591827393e-02 -3.738969564437866211e-02 -4.426686093211174011e-02
1.259000000000000000e+03 5.474351501464843750e+01 -3.951059722900390625e+01 -3.492991030216217041e-01 1.307288169860839844e+00 2.873966991901397705e-01 -5.139310285449028015e-02
1.260000000000000000e+03 4.269603347778320312e+01 -2.372155570983886719e+01 -4.104728996753692627e-02 -7.266187667846679688e-01 -2.302998155355453491e-01 -4.575798809528350830e-01
1.261000000000000000e+03 4.259835815429687500e+01 -2.604088592529296875e+01 6.224051389835949522e-07 -1.704752922058105469e+00 -5.114256739616394043e-01 -3.957637846469879150e-01
1.262000000000000000e+03 4.408716201782226562e+01 -2.767712593078613281e+01 -2.891924381256103516e-01 -1.632019519805908203e+00 -5.763635635375976562e-01 -9.516395926475524902e-01
1.263000000000000000e+03 4.647859573364257812e+01 -2.985575485229492188e+01 3.239191174507141113e-01 -5.642592310905456543e-01 -7.210204005241394043e-02 -2.137205004692077637e-02
1.264000000000000000e+03 4.858359527587890625e+01 -3.177017784118652344e+01 5.662697553634643555e-01 3.147925734519958496e-01 2.643187046051025391e-01 5.785270929336547852e-01
1.265000000000000000e+03 4.879059600830078125e+01 -3.423951721191406250e+01 2.429678142070770264e-01 5.934743285179138184e-01 2.509326338768005371e-01 6.269842982292175293e-01
1.266000000000000000e+03 5.038830566406250000e+01 -3.572945785522460938e+01 -5.730583798140287399e-04 1.060659885406494141e+00 3.180260360240936279e-01 4.935446381568908691e-01
1.267000000000000000e+03 5.221328353881835938e+01 -3.746688842773437500e+01 -2.226450592279434204e-01 1.399784207344055176e+00 3.531417548656463623e-01 2.245596498250961304e-01
1.268000000000000000e+03 4.340997314453125000e+01 -2.412360382080078125e+01 -1.072438061237335205e-01 -8.517878055572509766e-01 -2.877094745635986328e-01 -7.496110200881958008e-01
1.269000000000000000e+03 4.263689422607421875e+01 -2.746205711364746094e+01 -2.176289707422256470e-01 -2.490844488143920898e+00 -8.125420212745666504e-01 -5.268737673759460449e-01
1.270000000000000000e+03 4.405490112304687500e+01 -2.998319244384765625e+01 -3.676795363426208496e-01 -1.336791634559631348e+00 -5.113413929939270020e-01 -2.529834508895874023e-01
1.271000000000000000e+03 4.569458770751953125e+01 -3.126490402221679688e+01 2.053835988044738770e-01 -6.824442148208618164e-01 -1.431181877851486206e-01 2.009488493204116821e-01
1.272000000000000000e+03 4.598389053344726562e+01 -3.405394744873046875e+01 2.698577940464019775e-01 -3.259595632553100586e-01 -1.683052815496921539e-02 4.618023931980133057e-01
1.273000000000000000e+03 4.888658142089843750e+01 -3.679676055908203125e+01 5.231625959277153015e-02 6.890604496002197266e-01 2.224130034446716309e-01 4.678757786750793457e-01
1.274000000000000000e+03 5.343168258666992188e+01 -3.578009414672851562e+01 -2.000429332256317139e-01 1.744836449623107910e+00 4.634380638599395752e-01 1.841594576835632324e-01
1.275000000000000000e+03 4.178751754760742188e+01 -3.025328254699707031e+01 -8.858122229576110840e-01 -2.551786899566650391e+00 -1.031279683113098145e+00 -1.151655316352844238e+00
1.276000000000000000e+03 4.246892547607421875e+01 -2.894182968139648438e+01 -6.133121848106384277e-01 -3.049624443054199219e+00 -1.098881006240844727e+00 -8.784410953521728516e-01
1.277000000000000000e+03 4.219319534301757812e+01 -3.257163619995117188e+01 -7.010252028703689575e-02 -1.465005397796630859e+00 -4.605323672294616699e-01 -2.312603890895843506e-01
1.278000000000000000e+03 4.197424316406250000e+01 -3.422248840332031250e+01 1.704670935869216919e-01 -1.123425483703613281e+00 -2.858875095844268799e-01 -1.653222292661666870e-01
1.279000000000000000e+03 4.296845245361328125e+01 -3.595434570312500000e+01 2.798920869827270508e-01 -7.810134291648864746e-01 -1.503364145755767822e-01 6.436079740524291992e-02
1.280000000000000000e+03 3.814431381225585938e+01 -3.746587753295898438e+01 1.377310305833816528e-01 -5.726608633995056152e-01 -1.304789483547210693e-01 -2.418025434017181396e-01
1.281000000000000000e+03 4.309792327880859375e+01 -4.121221923828125000e+01 3.123092949390411377e-01 -4.078931510448455811e-01 -2.867516130208969116e-02 2.231016010046005249e-02
1.282000000000000000e+03 4.446096038818359375e+01 -3.504373550415039062e+01 2.363826036453247070e-01 -6.006889343261718750e-01 -1.092919036746025085e-01 2.967441380023956299e-01
1.283000000000000000e+03 4.316928100585937500e+01 -3.128644180297851562e+01 -2.280528247356414795e-01 -1.591216087341308594e+00 -5.457806587219238281e-01 -8.262522518634796143e-02
1.284000000000000000e+03 4.079492950439453125e+01 -3.148100852966308594e+01 -7.987202405929565430e-01 -1.408627629280090332e+00 -6.622043848037719727e-01 -9.305385351181030273e-01
1.285000000000000000e+03 4.026224517822265625e+01 -3.436124038696289062e+01 2.538559958338737488e-02 -9.450893998146057129e-01 -2.759111523628234863e-01 -3.603494167327880859e-01
1.286000000000000000e+03 3.950700378417968750e+01 -3.238277435302734375e+01 -6.867887377738952637e-01 -8.258860707283020020e-01 -4.538024365901947021e-01 -6.010318398475646973e-01
1.287000000000000000e+03 3.803804779052734375e+01 -3.290966415405273438e+01 -4.754081070423126221e-01 -2.877397239208221436e-01 -2.289443463087081909e-01 -3.504461348056793213e-01
1.288000000000000000e+03 3.656287384033203125e+01 -3.329708480834960938e+01 -2.638216912746429443e-01 -1.322674751281738281e-01 -1.188267469406127930e-01 -1.921069622039794922e-01
1.289000000000000000e+03 3.231001663208007812e+01 -4.097973632812500000e+01 1.712877117097377777e-02 -1.801140904426574707e-01 -4.889559373259544373e-02 -2.552535198628902435e-02
1.290000000000000000e+03 3.502447891235351562e+01 -3.341899490356445312e+01 -1.005778089165687561e-01 -3.910993412137031555e-02 -4.190632328391075134e-02 -1.030595451593399048e-01
1.291000000000000000e+03 3.570998382568359375e+01 -3.823682785034179688e+01 6.179118156433105469e-02 -3.402808904647827148e-01 -8.354690670967102051e-02 -1.786170005798339844e-01
1.292000000000000000e+03 3.254143142700195312e+01 -3.817502212524414062e+01 -8.816229179501533508e-03 -1.467815637588500977e-01 -4.667934030294418335e-02 -8.813168108463287354e-02
1.293000000000000000e+03 3.198007392883300781e+01 -3.286482238769531250e+01 4.394179582595825195e-02 -3.793366719037294388e-03 1.204452849924564362e-02 -2.882099337875843048e-02
1.294000000000000000e+03 2.984147644042968750e+01 -3.470044708251953125e+01 6.578518077731132507e-03 -1.644069887697696686e-02 -2.958654658868908882e-03 -2.926979213953018188e-04
1.295000000000000000e+03 2.847529792785644531e+01 -3.421497726440429688e+01 1.428811904042959213e-02 -9.487029165029525757e-03 1.440326916053891182e-03 7.110608275979757309e-04
1.296000000000000000e+03 3.012664413452148438e+01 -3.684661865234375000e+01 -1.948317699134349823e-02 -5.583984032273292542e-02 -2.259690500795841217e-02 -2.181741036474704742e-02
1.297000000000000000e+03 2.748931694030761719e+01 -4.089119338989257812e+01 -2.800389192998409271e-02 -4.328551515936851501e-02 -2.138682268559932709e-02 -4.153718240559101105e-03
1.298000000000000000e+03 3.139438056945800781e+01 -3.507272338867187500e+01 -1.376256626099348068e-02 -5.501901730895042419e-02 -2.063447609543800354e-02 -3.999308496713638306e-02
1.299000000000000000e+03 3.056774711608886719e+01 -3.249592208862304688e+01 5.948329716920852661e-02 -1.137107890099287033e-02 1.443366613239049911e-02 -1.503200735896825790e-02
1.300000000000000000e+03 2.787250518798828125e+01 -3.188982963562011719e+01 5.709626898169517517e-02 -1.051176805049180984e-03 1.681352779269218445e-02 -2.935664262622594833e-03
1.301000000000000000e+03 2.728081130981445312e+01 -3.356107711791992188e+01 3.241992741823196411e-02 6.096750730648636818e-04 9.908881038427352905e-03 7.909238338470458984e-03
1.302000000000000000e+03 2.652818107604980469e+01 -3.164476966857910156e+01 5.248108878731727600e-02 1.134177553467452526e-03 1.608457975089550018e-02 -2.003507921472191811e-03
1.303000000000000000e+03 2.605453491210937500e+01 -3.313351440429687500e+01 3.217560425400733948e-02 -3.911454230546951294e-03 8.479245007038116455e-03 4.431113600730895996e-03
1.304000000000000000e+03 2.250822067260742188e+01 -4.080994033813476562e+01 -2.279860712587833405e-02 4.373493138700723648e-03 -5.527534056454896927e-03 7.225063163787126541e-03
1.305000000000000000e+03 2.392337608337402344e+01 -3.126205062866210938e+01 4.159437119960784912e-02 -4.230367776472121477e-04 1.235140021890401840e-02 1.326559227891266346e-03
1.306000000000000000e+03 2.519927978515625000e+01 -3.145401382446289062e+01 4.746650531888008118e-02 -2.106105210259556770e-03 1.360812038183212280e-02 -1.529609668068587780e-03
1.307000000000000000e+03 2.483156967163085938e+01 -3.288874435424804688e+01 3.084298595786094666e-02 -4.064033739268779755e-03 8.033686317503452301e-03 7.198533043265342712e-03
1.308000000000000000e+03 2.328789329528808594e+01 -3.505635833740234375e+01 5.587593652307987213e-03 -3.236099844798445702e-03 7.054482121020555496e-04 1.343824621289968491e-02
1.309000000000000000e+03 2.299020576477050781e+01 -3.760007476806640625e+01 -1.134495809674263000e-02 -2.272801008075475693e-03 -4.085327498614788055e-03 1.046044658869504929e-02
1.310000000000000000e+03 2.274558448791503906e+01 -3.130190277099609375e+01 3.518101200461387634e-02 -3.619151248130947351e-04 1.044572982937097549e-02 2.332939766347408295e-03
1.311000000000000000e+03 2.247019767761230469e+01 -3.330865859985351562e+01 2.395994774997234344e-02 -2.378517296165227890e-03 6.474428810179233551e-03 8.824041113257408142e-03
1.312000000000000000e+03 2.149715423583984375e+01 -3.163125228881835938e+01 2.939078584313392639e-02 -1.829739660024642944e-03 8.268314413726329803e-03 4.995035938918590546e-03
1.313000000000000000e+03 1.795302009582519531e+01 -3.476399993896484375e+01 4.179029259830713272e-03 2.659490099176764488e-03 2.051555784419178963e-03 7.697040215134620667e-03
1.314000000000000000e+03 1.996624755859375000e+01 -3.620934677124023438e+01 -5.372207378968596458e-04 5.975665524601936340e-03 1.631533377803862095e-03 1.087128557264804840e-02
1.315000000000000000e+03 1.745272445678710938e+01 -4.066057968139648438e+01 -1.050437521189451218e-02 7.306885905563831329e-03 -9.592468268238008022e-04 1.825354527682065964e-03
1.316000000000000000e+03 2.005933570861816406e+01 -3.204826736450195312e+01 2.221431583166122437e-02 -9.437722619622945786e-04 6.381162907928228378e-03 6.547889672219753265e-03
1.317000000000000000e+03 1.841650009155273438e+01 -3.213556671142578125e+01 1.733691431581974030e-02 3.295219736173748970e-03 6.189640145748853683e-03 4.921785090118646622e-03
1.318000000000000000e+03 1.677964210510253906e+01 -3.173871040344238281e+01 1.222070399671792984e-02 9.005329338833689690e-04 3.936371300369501114e-03 2.143981400877237320e-03
1.319000000000000000e+03 1.463289928436279297e+01 -3.299443435668945312e+01 5.802312400192022324e-03 -1.449462492018938065e-03 1.305854995734989643e-03 3.904639976099133492e-03
1.320000000000000000e+03 1.533907794952392578e+01 -3.125060272216796875e+01 7.526113186031579971e-03 1.513797324150800705e-03 2.711973153054714203e-03 4.444619407877326012e-04
1.321000000000000000e+03 1.396067905426025391e+01 -3.074277687072753906e+01 4.596086684614419937e-03 -1.502376049757003784e-03 9.281131206080317497e-04 -6.182917859405279160e-04
1.322000000000000000e+03 1.174280166625976562e+01 -3.195788192749023438e+01 3.349312813952565193e-03 -4.533863975666463375e-04 8.687779190950095654e-04 -2.937006647698581219e-04
1.323000000000000000e+03 7.064303398132324219e+00 -3.189336013793945312e+01 1.527673448435962200e-03 8.292227867059409618e-04 7.070688880048692226e-04 3.779826802201569080e-04
1.324000000000000000e+03 5.485585689544677734e+00 -3.206120681762695312e+01 -6.807235768064856529e-04 6.904901238158345222e-05 -1.835023722378537059e-04 7.021230994723737240e-04
1.325000000000000000e+03 4.014939308166503906e+00 -3.210920715332031250e+01 9.448227356187999249e-04 5.763242952525615692e-04 4.563441034406423569e-04 -2.359476929996162653e-04
1.326000000000000000e+03 1.786947607994079590e+00 -3.277127838134765625e+01 1.924893149407580495e-05 2.306382812093943357e-04 7.496616308344528079e-05 -1.661596907069906592e-04
1.327000000000000000e+03 6.802963614463806152e-01 -3.208800125122070312e+01 2.599251456558704376e-04 -3.825860039796680212e-05 6.649996066698804498e-05 -3.571510751498863101e-05
1.328000000000000000e+03 1.276098847389221191e+00 -3.389032745361328125e+01 1.372033057123189792e-05 -1.285587222810136154e-05 2.593374119896907359e-07 1.899516646517440677e-04
1.329000000000000000e+03 4.525481164455413818e-01 -3.338601684570312500e+01 -5.502658314071595669e-04 -1.718802668619900942e-04 -2.166438353015109897e-04 -6.051469972589984536e-05
1.330000000000000000e+03 5.477460384368896484e+00 -3.790662765502929688e+01 -2.355558681301772594e-04 2.039479324594140053e-03 5.411770544014871120e-04 4.220840346533805132e-04
1.331000000000000000e+03 1.251369380950927734e+01 -4.080867767333984375e+01 -4.606996662914752960e-03 5.183399654924869537e-03 1.729209034238010645e-04 2.523294650018215179e-03
1.332000000000000000e+03 7.951443672180175781e+00 -4.096208190917968750e+01 -9.977406589314341545e-04 2.381295664235949516e-03 4.150664608459919691e-04 -1.436824677512049675e-04
1.333000000000000000e+03 1.189104080200195312e+01 -3.747862243652343750e+01 -1.428187988494755700e-05 3.700255183503031731e-03 1.105792005546391010e-03 2.345867920666933060e-03
1.334000000000000000e+03 8.345300674438476562e+00 -3.791962432861328125e+01 -1.913747400976717472e-03 1.692183315753936768e-03 -6.646924157394096255e-05 2.151951659470796585e-03
1.335000000000000000e+03 1.338250160217285156e+01 -3.414336776733398438e+01 6.267538759857416153e-03 1.660536159761250019e-03 2.378422534093260765e-03 4.340905696153640747e-03
1.336000000000000000e+03 1.140935802459716797e+01 -2.923377227783203125e+01 2.692724519874900579e-04 -2.778479829430580139e-04 -2.572661287558730692e-06 -2.381335507379844785e-04
1.337000000000000000e+03 1.038684654235839844e+01 -2.806744766235351562e+01 2.235034626210108399e-04 2.347427289350889623e-05 7.409331738017499447e-05 2.427267609164118767e-04
1.338000000000000000e+03 8.424651145935058594e+00 -2.750644302368164062e+01 9.613633155822753906e-04 1.368006196571514010e-04 3.294491907581686974e-04 5.140988505445420742e-04
1.339000000000000000e+03 7.834470748901367188e+00 -2.605648612976074219e+01 -8.965085726231336594e-04 -2.108765038428828120e-04 -3.322155098430812359e-04 -3.570078697521239519e-04
1.340000000000000000e+03 5.080232143402099609e+00 -2.424172782897949219e+01 -1.250507193617522717e-03 -2.915589429903775454e-04 -4.626198497135192156e-04 6.248431163839995861e-04
1.341000000000000000e+03 4.541951179504394531e+00 -2.273454284667968750e+01 -2.543527807574719191e-04 -2.380180812906473875e-04 -1.477112673455849290e-04 8.613787358626723289e-04
1.342000000000000000e+03 2.054605722427368164e+00 -2.078008079528808594e+01 -1.274681417271494865e-03 8.135648386087268591e-05 -3.579974872991442680e-04 2.561497240094467998e-05
1.343000000000000000e+03 7.312735915184020996e-01 -1.926688003540039062e+01 -1.336014945991337299e-03 2.264604700030758977e-05 -3.940106835216283798e-04 1.085544936358928680e-04
1.344000000000000000e+03 7.055794000625610352e-01 -2.066580963134765625e+01 1.446763286367058754e-03 -9.177800166071392596e-06 4.312756354920566082e-04 -1.754809345584362745e-04
1.345000000000000000e+03 7.505857944488525391e-01 -2.206790924072265625e+01 -1.375474035739898682e-03 -2.825833007591427304e-06 -4.134899645578116179e-04 2.242609043605625629e-04
1.346000000000000000e+03 2.382784366607666016e+00 -2.359762001037597656e+01 -1.218160148710012436e-03 -6.079166996642015874e-05 -3.836855175904929638e-04 3.355760418344289064e-04
1.347000000000000000e+03 3.808227539062500000e+00 -2.677640724182128906e+01 9.482845780439674854e-04 2.669527020771056414e-04 3.645711985882371664e-04 -6.980805192142724991e-04
1.348000000000000000e+03 7.926213264465332031e+00 -2.968918609619140625e+01 2.701379591599106789e-03 -7.295474642887711525e-05 7.885274826548993587e-04 2.656135984580032527e-05
1.349000000000000000e+03 8.759229660034179688e+00 -3.162826156616210938e+01 -5.756922182627022266e-04 -3.367789904586970806e-04 -2.737413742579519749e-04 1.460047438740730286e-03
1.350000000000000000e+03 1.261394119262695312e+01 -3.014849472045898438e+01 2.597450511530041695e-03 6.654094904661178589e-04 9.788579773157835007e-04 8.914208738133311272e-04
1.351000000000000000e+03 9.491717338562011719e+00 -2.686294937133789062e+01 -2.264570648549124599e-04 -2.602128952275961637e-04 -1.460009953007102013e-04 -6.927522190380841494e-05
1.352000000000000000e+03 8.369719505310058594e+00 -2.294201278686523438e+01 6.320550455711781979e-04 2.258805907331407070e-04 2.573806850705295801e-04 4.479963681660592556e-04
1.353000000000000000e+03 8.840671539306640625e+00 -2.557165336608886719e+01 1.486611872678622603e-04 8.276447260868735611e-06 4.708128835773095489e-05 2.882705302909016609e-04
1.354000000000000000e+03 5.518731594085693359e+00 -2.339293670654296875e+01 3.274951595813035965e-04 2.586383016023319215e-05 1.060076974681578577e-04 -9.186305687762796879e-04
1.355000000000000000e+03 3.658369541168212891e+00 -2.178677749633789062e+01 -6.862295558676123619e-04 2.441368560539558530e-04 -1.326277997577562928e-04 -3.420662833377718925e-04
1.356000000000000000e+03 2.091141462326049805e+00 -1.951281356811523438e+01 1.130774500779807568e-03 -2.023061460931785405e-05 3.331631887704133987e-04 -6.857323751319199800e-05
1.357000000000000000e+03 8.754295110702514648e-01 -1.784711837768554688e+01 1.064166775904595852e-03 -6.639799539698287845e-05 2.993306552525609732e-04 4.822748451260849833e-06
1.358000000000000000e+03 7.063435077667236328e+00 -2.360040664672851562e+01 -4.393531417008489370e-04 -3.529042005538940430e-04 -2.376772026764228940e-04 -5.172574310563504696e-04
1.359000000000000000e+03 5.594869613647460938e+00 -2.185860061645507812e+01 4.158253432251513004e-05 1.536190829938277602e-04 5.856048665009438992e-05 -7.314306567423045635e-04
1.360000000000000000e+03 4.593796730041503906e+00 -1.958278846740722656e+01 -6.851191865280270576e-04 2.255827566841617227e-04 -1.378609304083511233e-04 5.793153832200914621e-05
1.361000000000000000e+03 3.275399446487426758e+00 -1.733448219299316406e+01 1.950402947841212153e-04 -1.274224050575867295e-04 2.028536619036458433e-05 -5.346994148567318916e-04
1.362000000000000000e+03 9.086880087852478027e-01 -1.637990760803222656e+01 -7.496384787373244762e-04 -2.446282451273873448e-05 -2.322303917026147246e-04 -5.885985228815115988e-05
1.363000000000000000e+03 7.346262931823730469e+00 -2.003511047363281250e+01 7.391134859062731266e-04 8.140027057379484177e-05 2.461541444063186646e-04 -3.626698744483292103e-04
1.364000000000000000e+03 7.700129985809326172e+00 -2.185636711120605469e+01 1.014422468870179728e-05 -1.793567207641899586e-05 -2.337434125365689397e-06 -6.477124989032745361e-04
1.365000000000000000e+03 5.554171562194824219e+00 -2.024782562255859375e+01 5.050039617344737053e-04 -1.080332003766670823e-04 1.190912225865758955e-04 -3.788153117056936026e-04
1.366000000000000000e+03 4.273737430572509766e+00 -1.818822860717773438e+01 -2.884292334783822298e-04 4.110692534595727921e-04 3.679200744954869151e-05 3.051559324376285076e-04
1.367000000000000000e+03 6.785579919815063477e-01 -1.351773357391357422e+01 -6.640647188760340214e-04 -7.915362402854952961e-06 -2.015940262936055660e-04 2.516530912544112653e-05
1.368000000000000000e+03 7.798685431480407715e-01 -1.492331123352050781e+01 6.525869830511510372e-04 2.377788950980175287e-05 2.029094612225890160e-04 5.476359092426719144e-06
1.369000000000000000e+03 8.646765708923339844e+00 -2.081515121459960938e+01 -8.059879764914512634e-04 -2.196117275161668658e-04 -3.076799039263278246e-04 4.545267147477716208e-04
1.370000000000000000e+03 6.577176094055175781e+00 -2.098765945434570312e+01 -3.888783976435661316e-04 5.673442137776874006e-05 -9.964319906430318952e-05 6.152823334559798241e-04
1.371000000000000000e+03 5.326186656951904297e+00 -1.799884223937988281e+01 -8.533894433639943600e-04 -1.801789330784231424e-04 -3.100705216638743877e-04 1.163476772489957511e-04
1.372000000000000000e+03 6.132203102111816406e+00 -1.526350879669189453e+01 2.424044359941035509e-04 3.723951522260904312e-04 1.844398793764412403e-04 -3.645776596385985613e-04
1.373000000000000000e+03 2.006900787353515625e+00 -1.343481254577636719e+01 5.343364900909364223e-04 8.398399222642183304e-05 1.854961446952074766e-04 6.845502502983435988e-05
1.374000000000000000e+03 6.102331280708312988e-01 -1.214059543609619141e+01 7.143393740989267826e-04 5.885893187951296568e-05 2.319594932487234473e-04 -8.273847925011068583e-05
1.375000000000000000e+03 9.195033073425292969e+00 -1.962089157104492188e+01 8.256309083662927151e-04 2.720580087043344975e-04 3.293066693004220724e-04 -3.723671252373605967e-04
1.376000000000000000e+03 6.626301288604736328e+00 -1.841709899902343750e+01 7.632683846168220043e-04 2.286784438183531165e-04 2.975840470753610134e-04 -2.256581501569598913e-04
1.377000000000000000e+03 5.779675960540771484e+00 -1.606192398071289062e+01 -4.928559646941721439e-04 -4.601345572154968977e-04 -2.858971711248159409e-04 1.778762380126863718e-04
1.378000000000000000e+03 3.654898881912231445e+00 -1.439848804473876953e+01 2.230155369034036994e-04 -8.031843776734604035e-07 6.666370609309524298e-05 1.231656642630696297e-04
1.379000000000000000e+03 1.815153360366821289e+00 -1.215753269195556641e+01 -4.614198114722967148e-04 -1.426882954547181726e-04 -1.812324335332959890e-04 2.076687633234541863e-05
1.380000000000000000e+03 6.008748412132263184e-01 -1.078168678283691406e+01 -7.359968731179833412e-04 -1.742148015182465315e-05 -2.260254987049847841e-04 1.276634284295141697e-04
1.381000000000000000e+03 1.401848030090332031e+01 -4.045228481292724609e+00 -8.334487210959196091e-05 -6.529489473905414343e-05 -4.459193223738111556e-05 -2.055078402918297797e-05
1.382000000000000000e+03 1.517581462860107422e+01 -4.797921657562255859e+00 -1.087226992240175605e-04 -3.607731923693791032e-05 -4.344000626588240266e-05 -3.661853406811133027e-05
1.383000000000000000e+03 1.495668411254882812e+01 -6.281662940979003906e+00 1.241183636011555791e-04 4.090456059202551842e-05 4.950687798555009067e-05 2.516165659471880645e-05
1.384000000000000000e+03 1.662829589843750000e+01 -7.870171070098876953e+00 8.864265691954642534e-05 3.018035749846603721e-05 3.564690268831327558e-05 -3.554007707862183452e-05
1.385000000000000000e+03 1.932192802429199219e+01 -1.026467895507812500e+01 9.672749729361385107e-05 8.873223123373463750e-05 5.563792001339606941e-05 1.383872404403518885e-05
1.386000000000000000e+03 1.977199554443359375e+01 -1.077615642547607422e+01 -1.735805417411029339e-04 -5.917016210332803894e-07 -5.225167114986106753e-05 -1.615659493836574256e-05
1.387000000000000000e+03 2.158518028259277344e+01 -1.199285602569580078e+01 -7.239603746711509302e-06 -7.454157457686960697e-05 -2.453435263305436820e-05 -4.870670181844616309e-06
1.388000000000000000e+03 2.077534294128417969e+01 -1.094201660156250000e+01 -7.309627108043059707e-05 -9.105756180360913277e-05 -4.924615132040344179e-05 -6.219182978384196758e-05
1.389000000000000000e+03 1.355138301849365234e+01 -4.722148895263671875e+00 1.010480191325768828e-04 8.485763828502967954e-05 5.577169577009044588e-05 1.244393570232205093e-05
1.390000000000000000e+03 1.220764732360839844e+01 -2.990418195724487305e+00 5.336794856702908874e-05 9.675433102529495955e-05 4.503668242250569165e-05 4.076415643794462085e-05
1.391000000000000000e+03 1.153323459625244141e+01 -2.641084194183349609e+00 -5.750078344135545194e-05 -9.407463221577927470e-05 -4.547262506093829870e-05 -3.241599188186228275e-05
1.392000000000000000e+03 1.078157329559326172e+01 -2.309918165206909180e+00 7.064594683470204473e-05 1.042096482706256211e-04 5.245667853159829974e-05 1.307220009039156139e-05
1.393000000000000000e+03 9.597017288208007812e+00 -3.288971185684204102e+00 -1.500742073403671384e-04 -3.302355617051944137e-05 -5.492932905326597393e-05 2.628600486787036061e-05
1.394000000000000000e+03 9.741134643554687500e+00 -5.122870445251464844e+00 1.512958697276189923e-04 6.432132067857310176e-05 6.468515493907034397e-05 3.513477349770255387e-05
1.395000000000000000e+03 1.122570133209228516e+01 -7.635602951049804688e+00 6.391568604158237576e-05 1.069060786562658905e-07 1.920677823363803327e-05 6.079266313463449478e-05
1.396000000000000000e+03 9.977924346923828125e+00 -9.337692260742187500e+00 -3.863172896672040224e-04 -7.540357182733714581e-05 -1.385162613587453961e-04 -1.212003553519025445e-06
1.397000000000000000e+03 9.778410911560058594e+00 -1.022948265075683594e+01 3.683230024762451649e-04 1.913442974910140038e-04 1.679001870797947049e-04 -1.187854213640093803e-04
1.398000000000000000e+03 1.000776386260986328e+01 -1.202671337127685547e+01 4.795837230631150305e-05 5.583448000834323466e-05 3.113785714958794415e-05 -1.884580706246197224e-04
1.399000000000000000e+03 1.000041770935058594e+01 -1.472908687591552734e+01 4.251381324138492346e-04 -1.340955932391807437e-04 8.731276466278359294e-05 2.764515811577439308e-04
1.400000000000000000e+03 9.184025764465332031e+00 -1.601759147644042969e+01 6.109103560447692871e-04 1.826294173952192068e-04 2.380619262112304568e-04 -2.677573356777429581e-04
1.401000000000000000e+03 9.787157058715820312e+00 -1.843947982788085938e+01 -9.633132140152156353e-04 -1.515232434030622244e-04 -3.344509459566324949e-04 2.899669343605637550e-04
1.402000000000000000e+03 1.036834144592285156e+01 -1.730656242370605469e+01 1.296494971029460430e-03 1.127615760196931660e-04 4.227769677527248859e-04 -1.576180657139047980e-04
1.403000000000000000e+03 8.422573089599609375e+00 -1.789117240905761719e+01 7.924213423393666744e-04 2.873573394026607275e-04 3.239336074329912663e-04 -1.530334993731230497e-04
1.404000000000000000e+03 1.659090614318847656e+01 -1.036995029449462891e+01 -8.749350672587752342e-05 -1.971476376638747752e-05 -3.216248296666890383e-05 -1.004365039989352226e-04
1.405000000000000000e+03 2.059555625915527344e+01 -1.315612506866455078e+01 8.280065230792388320e-05 2.229710225947201252e-04 9.173150465358048677e-05 -7.111824379535391927e-05
1.406000000000000000e+03 1.926014900207519531e+01 -1.225254058837890625e+01 -4.471483407542109489e-06 6.669152935501188040e-05 1.866601269284728914e-05 4.325168629293330014e-05
1.407000000000000000e+03 2.139239883422851562e+01 -1.387191200256347656e+01 -4.622142296284437180e-05 5.780180435976944864e-05 3.474114919299609028e-06 5.149805474502500147e-06
1.408000000000000000e+03 2.221759605407714844e+01 -1.320831012725830078e+01 -3.323385681142099202e-05 -2.365446744079235941e-05 -1.706649709376506507e-05 3.638446287368424237e-05
1.409000000000000000e+03 2.252796745300292969e+01 -1.428323459625244141e+01 -3.081305112573318183e-05 -6.816266977693885565e-05 -2.969271554320584983e-05 4.637564870790811256e-06
1.410000000000000000e+03 1.662597656250000000e+01 -1.237976551055908203e+01 -7.893071597209200263e-06 1.409615197189850733e-05 1.860923930507851765e-06 -4.354149950813734904e-06
1.411000000000000000e+03 1.955806159973144531e+01 -1.330366039276123047e+01 -3.680683948914520442e-05 -2.512743812985718250e-04 -8.642436296213418245e-05 5.808037894894368947e-05
1.412000000000000000e+03 1.677225875854492188e+01 -1.338458061218261719e+01 -1.641380731598474085e-05 -2.967351465485990047e-04 -9.394468361278995872e-05 3.833644950645975769e-05
1.413000000000000000e+03 1.514773654937744141e+01 -1.239482116699218750e+01 1.866726670414209366e-04 6.604940426768735051e-05 7.581662066513672471e-05 5.066229277872480452e-05
1.414000000000000000e+03 1.247158813476562500e+01 -1.107368469238281250e+01 1.637032255530357361e-04 3.049253427889198065e-04 1.405885705025866628e-04 -4.386532964417710900e-05
1.415000000000000000e+03 1.076722335815429688e+01 -9.554286003112792969e+00 3.698319778777658939e-04 3.659494905150495470e-05 1.219280748046003282e-04 1.137921790359541774e-04
1.416000000000000000e+03 1.027808952331542969e+01 -8.574665069580078125e+00 3.955896245315670967e-04 -1.751773925207089633e-05 1.134215635829605162e-04 9.821215644478797913e-05
1.417000000000000000e+03 2.177699661254882812e+01 -1.344563865661621094e+01 7.900274795247241855e-05 -1.086520114768063650e-05 2.044126267719548196e-05 -1.322536445513833314e-05
1.418000000000000000e+03 2.026888465881347656e+01 -1.219020557403564453e+01 -6.911023956490680575e-05 -1.326719211647287011e-04 -6.053464676369912922e-05 -8.775777678238227963e-05
1.419000000000000000e+03 1.998467254638671875e+01 -9.732087135314941406e+00 -1.003248835331760347e-04 -4.235569940647110343e-05 -4.280417488189414144e-05 -2.859728010662365705e-05
1.420000000000000000e+03 1.911927223205566406e+01 -8.621636390686035156e+00 -8.470327156828716397e-05 -4.868315227213315666e-05 -4.001592606073245406e-05 -3.143100911984220147e-05
1.421000000000000000e+03 1.845889472961425781e+01 -9.135608673095703125e+00 1.370206591673195362e-04 2.686075276869814843e-05 4.916442412650212646e-05 2.995139038830529898e-05
1.422000000000000000e+03 1.823831939697265625e+01 -7.541372299194335938e+00 -7.477574399672448635e-05 -4.666816312237642705e-05 -3.643317177193239331e-05 -2.325094283150974661e-05
1.423000000000000000e+03 1.729202461242675781e+01 -6.525034427642822266e+00 -8.110477938316762447e-05 -4.694595190812833607e-05 -3.841521902359090745e-05 -3.161006679874844849e-05
1.424000000000000000e+03 1.633477592468261719e+01 -6.481966972351074219e+00 -8.637735299998894334e-05 -5.232576586422510445e-05 -4.161093602306209505e-05 -3.191446012351661921e-05
1.425000000000000000e+03 1.676715469360351562e+01 -6.956998348236083984e+00 8.194545080186799169e-05 4.902598448097705841e-05 3.929142985725775361e-05 1.195075856230687350e-05
1.426000000000000000e+03 1.474094867706298828e+01 -5.388661861419677734e+00 1.250963396159932017e-04 4.238597830408252776e-05 5.024469646741636097e-05 2.567991577961947769e-05
1.427000000000000000e+03 1.531793022155761719e+01 -5.718996047973632812e+00 -1.240009733010083437e-04 -2.905037945311050862e-05 -4.591540346154943109e-05 -4.314542093197815120e-05
1.428000000000000000e+03 1.002922630310058594e+01 -2.005821466445922852e+00 -6.255254265852272511e-05 -1.139843006967566907e-04 -5.296105155139230192e-05 1.278984473174205050e-05
1.429000000000000000e+03 8.530329704284667969e+00 -1.854150176048278809e+00 9.976996807381510735e-06 -9.466346818953752518e-05 -2.540594323363620788e-05 2.103333645209204406e-05
1.430000000000000000e+03 7.634881973266601562e+00 -3.345104694366455078e+00 -1.702942245174199343e-04 -7.722834561718627810e-05 -7.425677176797762513e-05 -2.955135641968809068e-05
1.431000000000000000e+03 7.324428081512451172e+00 -4.824606418609619141e+00 -9.345103171654045582e-05 -1.918915077112615108e-04 -8.560276182834059000e-05 2.668008346518035978e-05
1.432000000000000000e+03 7.491953372955322266e+00 -6.205571174621582031e+00 7.100636139512062073e-05 8.210298256017267704e-05 4.593280391418375075e-05 -4.046827598358504474e-05
1.433000000000000000e+03 7.290297031402587891e+00 -8.881495475769042969e+00 1.607167214388027787e-04 5.340808638720773160e-05 6.423744343919679523e-05 -1.455046294722706079e-04
1.434000000000000000e+03 7.751267910003662109e+00 -1.075419712066650391e+01 7.635661313543096185e-05 1.637684908928349614e-04 7.203753193607553840e-05 2.382125530857592821e-04
1.435000000000000000e+03 8.885750770568847656e+00 -1.253989601135253906e+01 1.214022777276113629e-04 -1.302951714023947716e-04 -2.667866965566645376e-06 2.894681529141962528e-04
1.436000000000000000e+03 8.433379173278808594e+00 -1.396552467346191406e+01 3.241200756747275591e-04 -1.170634495792910457e-04 6.211698928382247686e-05 2.660931204445660114e-04
1.437000000000000000e+03 8.198748588562011719e+00 -1.622320938110351562e+01 -1.685992756392806768e-04 -4.490817082114517689e-04 -1.853042922448366880e-04 -1.925326841956120916e-06
1.438000000000000000e+03 6.965385437011718750e+00 -1.740230369567871094e+01 -7.629092433489859104e-04 -4.233844811096787453e-04 -3.558881289791315794e-04 -1.777027136995457113e-05
1.439000000000000000e+03 6.907622337341308594e+00 -2.034143209457397461e+00 -7.475849270122125745e-05 -6.703296821797266603e-05 -4.253743827575817704e-05 -4.815169450012035668e-05
1.440000000000000000e+03 6.000467300415039062e+00 -2.939574003219604492e+00 -9.248744026990607381e-05 -1.020023773889988661e-04 -5.834694457007572055e-05 -9.437453991267830133e-05
1.441000000000000000e+03 5.880689144134521484e+00 -4.621088504791259766e+00 -6.638751074206084013e-05 -1.996695791603997350e-04 -7.981713133631274104e-05 -1.182846390292979777e-04
1.442000000000000000e+03 5.841362953186035156e+00 -7.135329246520996094e+00 3.342215131851844490e-05 -4.483799057197757065e-05 -3.424751639613532461e-06 -9.261268132831901312e-05
1.443000000000000000e+03 5.726513385772705078e+00 -9.427757263183593750e+00 1.315379486186429858e-04 7.904485391918569803e-05 6.317484076134860516e-05 1.252136717084795237e-04
1.444000000000000000e+03 6.884189605712890625e+00 -1.348186397552490234e+01 2.383718383498489857e-04 -2.632992691360414028e-04 -7.478228781110374257e-06 2.960862475447356701e-04
1.445000000000000000e+03 6.683798313140869141e+00 -1.472077941894531250e+01 2.936662640422582626e-04 -3.002527519129216671e-04 -1.975945451704319566e-06 3.346072335261851549e-04
1.446000000000000000e+03 7.078457832336425781e+00 -1.637354469299316406e+01 6.397255347110331059e-04 3.851430956274271011e-04 3.074606065638363361e-04 -2.056828452623449266e-05
1.447000000000000000e+03 1.993595719337463379e+00 -1.805525898933410645e+00 -6.030294025549665093e-05 -1.362093098578043282e-05 -2.217716246377676725e-05 3.391759673831984401e-05
1.448000000000000000e+03 4.743244946002960205e-01 -2.069283246994018555e+00 -9.107259393204003572e-05 -3.361686322023160756e-05 -3.740683678188361228e-05 -3.429392381804063916e-05
1.449000000000000000e+03 1.738174796104431152e+00 -2.376855611801147461e+00 6.177963950904086232e-05 2.772374682535883039e-05 2.685101571842096746e-05 -4.727905252366326749e-05
1.450000000000000000e+03 3.279103279113769531e+00 -3.655920505523681641e+00 -2.469508617650717497e-04 -2.780287786663393490e-07 -7.416866719722747803e-05 -9.270689770346507430e-05
1.451000000000000000e+03 5.394990921020507812e+00 -6.292133808135986328e+00 -6.952315288799582049e-06 1.300238654948771000e-04 3.692146492539905012e-05 1.359439629595726728e-04
1.452000000000000000e+03 5.068968296051025391e+00 -4.618450641632080078e+00 9.532874537399038672e-05 1.715541729936376214e-04 8.006487769307568669e-05 1.810492685763165355e-04
1.453000000000000000e+03 4.169178485870361328e+00 -4.616928100585937500e+00 -1.796963770175352693e-04 -1.063535164576023817e-04 -8.581496513215824962e-05 -1.838844182202592492e-04
1.454000000000000000e+03 4.219212532043457031e+00 -3.736949205398559570e+00 1.837997115217149258e-04 5.963850708212703466e-05 7.303146412596106529e-05 1.405741350026801229e-04
1.455000000000000000e+03 2.550129652023315430e+00 -2.663909673690795898e+00 -1.452602446079254150e-04 1.550428351038135588e-05 -3.892678796546533704e-05 3.028919491043779999e-05
1.456000000000000000e+03 3.436884164810180664e+00 -2.800588369369506836e+00 1.804022322176024318e-04 -1.353848347207531333e-05 5.005912316846661270e-05 3.965907671954482794e-05
1.457000000000000000e+03 7.118001580238342285e-01 -3.906991004943847656e+00 2.337686019018292427e-04 2.057605706795584410e-05 7.630339678144082427e-05 -4.336396887083537877e-05
1.458000000000000000e+03 6.627683639526367188e-01 -5.179270744323730469e+00 -3.261436941102147102e-04 -1.579455783939920366e-05 -1.025814708555117249e-04 2.631574352562893182e-05
1.459000000000000000e+03 3.145318031311035156e+00 -5.534311771392822266e+00 -2.395293413428589702e-04 -7.680802082177251577e-05 -9.490121010458096862e-05 -1.620275288587436080e-04
1.460000000000000000e+03 4.786734580993652344e+00 -7.481039047241210938e+00 6.604719965253025293e-05 7.203665882116183639e-05 4.142515899729914963e-05 1.312145177507773042e-04
1.461000000000000000e+03 4.414516448974609375e+00 -6.497990608215332031e+00 -8.340384374605491757e-05 -1.386566873406991363e-04 -6.661815859843045473e-05 -1.523258106317371130e-04
1.462000000000000000e+03 2.025745868682861328e+00 -4.340134143829345703e+00 -3.063979384023696184e-04 -6.770472737116506323e-06 -9.395051893079653382e-05 -5.759698615293018520e-05
1.463000000000000000e+03 6.949270963668823242e-01 -6.546216011047363281e+00 4.152349138166755438e-04 2.207916850238689221e-06 1.252328511327505112e-04 -1.476078978157602251e-05
1.464000000000000000e+03 2.285027980804443359e+00 -7.988947868347167969e+00 3.467857313808053732e-04 6.901703454786911607e-05 1.247408363269641995e-04 1.966190029634162784e-04
1.465000000000000000e+03 4.754643440246582031e+00 -9.972663879394531250e+00 7.474195444956421852e-05 -6.458964344346895814e-05 3.045694256798014976e-06 -1.711244403850287199e-04
1.466000000000000000e+03 4.101939678192138672e+00 -8.869231224060058594e+00 7.020065822871401906e-05 4.423762220540083945e-05 3.433148594922386110e-05 1.542340178275480866e-04
1.467000000000000000e+03 7.978381514549255371e-01 -7.985148906707763672e+00 -5.110747879371047020e-04 5.145870090927928686e-06 -1.517786731710657477e-04 2.142415542039088905e-05
1.468000000000000000e+03 2.904212951660156250e+00 -9.285878181457519531e+00 -1.013621076708659530e-04 -4.111539965379051864e-05 -4.274325328879058361e-05 -3.176245954819023609e-04
1.469000000000000000e+03 4.243649482727050781e+00 -1.178776741027832031e+01 -3.112906706519424915e-04 -1.413679565303027630e-04 -1.357975852442905307e-04 -1.232850772794336081e-04
1.470000000000000000e+03 7.414791584014892578e-01 -9.415119171142578125e+00 6.595700979232788086e-04 -2.726033926592208445e-05 1.896929170470684767e-04 -8.390376024181023240e-05
1.471000000000000000e+03 2.688808679580688477e+00 -1.089723110198974609e+01 -4.443497891770675778e-05 -1.783727639121934772e-04 -6.684232357656583190e-05 -9.896780829876661301e-05
1.472000000000000000e+03 4.388274669647216797e+00 -1.294162654876708984e+01 3.780011320486664772e-04 2.635837008710950613e-04 1.924754469655454159e-04 7.313676178455352783e-05
1.473000000000000000e+03 7.719871997833251953e-01 -2.490555191040039062e+01 -1.028166385367512703e-03 -6.205371028045192361e-05 -3.270660527050495148e-04 1.556580536998808384e-04
1.474000000000000000e+03 2.303957223892211914e+00 -2.508197212219238281e+01 1.064748968929052353e-03 4.255729800206609070e-05 3.321918775327503681e-04 -4.729270585812628269e-04
1.475000000000000000e+03 5.322707653045654297e+00 -2.682488059997558594e+01 -1.436419086530804634e-03 8.555200474802404642e-05 -4.052601289004087448e-04 2.734346780925989151e-04
1.476000000000000000e+03 5.845813274383544922e+00 -2.843493080139160156e+01 1.688706688582897186e-03 -6.774764187866821885e-05 4.862876958213746548e-04 -2.258322201669216156e-04
1.477000000000000000e+03 7.530723214149475098e-01 -2.632172966003417969e+01 9.195060119964182377e-04 -6.897178536746650934e-05 2.551602665334939957e-04 -2.163992321584373713e-04
1.478000000000000000e+03 2.259216070175170898e+00 -2.650777626037597656e+01 -9.452588274143636227e-04 -1.172005577245727181e-04 -3.187378169968724251e-04 3.471688251011073589e-04
1.479000000000000000e+03 3.612132072448730469e+00 -2.810215187072753906e+01 -5.129694472998380661e-04 -1.135260608862154186e-04 -1.879486517282202840e-04 7.124586263671517372e-04
1.480000000000000000e+03 6.535517692565917969e+00 -3.011377143859863281e+01 -8.285509538836777210e-04 -3.221737279091030359e-05 -2.582304878160357475e-04 6.343764835037291050e-04
1.481000000000000000e+03 7.362465262413024902e-01 -2.772756576538085938e+01 -7.621395052410662174e-04 -1.640965929254889488e-04 -2.778708294499665499e-04 1.691897195996716619e-04
1.482000000000000000e+03 4.629368305206298828e+00 -2.895782089233398438e+01 -7.992592873051762581e-04 2.114827075274661183e-04 -1.763329637469723821e-04 1.904220262076705694e-04
1.483000000000000000e+03 5.148252964019775391e+00 -3.044106864929199219e+01 1.294124056585133076e-03 4.000968474429100752e-04 5.082662682980298996e-04 -1.288142084376886487e-04
1.484000000000000000e+03 7.458718419075012207e-01 -2.915127563476562500e+01 5.583158344961702824e-04 -1.633719657547771931e-04 1.184831635328009725e-04 -2.185373887186869979e-04
1.485000000000000000e+03 3.764824628829956055e+00 -3.063496589660644531e+01 -5.286134546622633934e-04 -8.461439574602991343e-05 -1.839683536672964692e-04 6.549672689288854599e-04
1.486000000000000000e+03 2.320790767669677734e+00 -3.073412322998046875e+01 6.350410985760390759e-04 2.405191917205229402e-04 2.626680943649262190e-04 -2.944776788353919983e-04
1.487000000000000000e+03 5.038940310478210449e-01 -3.457329559326171875e+01 7.036694441922008991e-04 5.531713759410195053e-05 2.276959712617099285e-04 1.571319735376164317e-04
1.488000000000000000e+03 8.866437077522277832e-01 -3.585164642333984375e+01 -4.362502659205347300e-04 2.122328442055732012e-04 -6.720521923853084445e-05 4.181152326054871082e-05
1.489000000000000000e+03 1.078536987304687500e+00 -3.736587905883789062e+01 5.819119396619498730e-04 5.439312080852687359e-04 3.377529501449316740e-04 3.502393665257841349e-04
1.490000000000000000e+03 4.587806224822998047e+00 -4.025830841064453125e+01 2.491510240361094475e-04 1.638942980207502842e-03 5.664281779900193214e-04 4.670985508710145950e-04
1.491000000000000000e+03 9.398229122161865234e-01 -3.885904693603515625e+01 -1.158563885837793350e-03 6.684724357910454273e-04 -1.470274582970887423e-04 -1.152644908870570362e-04
1.492000000000000000e+03 1.115798711776733398e+00 -4.015410232543945312e+01 1.251219538971781731e-03 8.469058666378259659e-04 6.294376216828823090e-04 2.599922881927341223e-04
1.493000000000000000e+03 1.938999533653259277e+00 -4.163657379150390625e+01 -6.511615356430411339e-04 1.071776030585169792e-03 1.261843572137877345e-04 2.025518624577671289e-04
1.494000000000000000e+03 1.742748832702636719e+01 -3.738553237915039062e+01 -4.803907591849565506e-03 6.106682587414979935e-03 3.908326325472444296e-04 9.213500656187534332e-03
1.495000000000000000e+03 1.333721065521240234e+01 -3.240670394897460938e+01 2.818915294483304024e-03 1.313851214945316315e-03 1.239829929545521736e-03 2.348192967474460602e-03
1.496000000000000000e+03 1.465136528015136719e+01 -3.616007232666015625e+01 -3.423952031880617142e-03 2.946043852716684341e-03 -1.433724537491798401e-04 5.950962658971548080e-03
1.497000000000000000e+03 3.315490341186523438e+01 -3.566507720947265625e+01 -5.900305509567260742e-02 -7.649362832307815552e-02 -4.064900428056716919e-02 -1.070127040147781372e-01
1.498000000000000000e+03 3.346496963500976562e+01 -3.324218750000000000e+01 -1.494522672146558762e-03 -1.832954399287700653e-02 -5.947220139205455780e-03 -5.561301857233047485e-02
1.499000000000000000e+03 5.160456085205078125e+01 -4.115185546875000000e+01 -2.648045420646667480e-01 1.064779281616210938e+00 2.399924248456954956e-01 5.539108067750930786e-02
1.500000000000000000e+03 4.459781646728515625e+01 -3.250789642333984375e+01 1.257338523864746094e-01 -8.541306257247924805e-01 -2.185190320014953613e-01 2.505906820297241211e-01
1.501000000000000000e+03 4.692476654052734375e+01 -3.706574249267578125e+01 1.679218560457229614e-01 1.139921322464942932e-01 8.457419276237487793e-02 4.225696623325347900e-01
1.502000000000000000e+03 4.752978897094726562e+01 -3.543229675292968750e+01 1.905616968870162964e-01 2.185230702161788940e-01 1.227254346013069153e-01 5.341125130653381348e-01
1.503000000000000000e+03 4.735871124267578125e+01 -4.139904785156250000e+01 5.526680126786231995e-02 3.224422931671142578e-01 1.133127287030220032e-01 9.459219872951507568e-02
1.504000000000000000e+03 5.004402160644531250e+01 -3.872231292724609375e+01 -1.290139853954315186e-01 8.864399790763854980e-01 2.272278070449829102e-01 2.771858274936676025e-01
1.505000000000000000e+03 6.790868377685546875e+01 -3.765464019775390625e+01 1.265905797481536865e-02 -2.343841362744569778e-03 3.094564890488982201e-03 3.820791095495223999e-02
1.506000000000000000e+03 6.695272064208984375e+01 -3.402832794189453125e+01 -1.114309877157211304e-01 6.052209530025720596e-03 -3.161363303661346436e-02 -1.173383463174104691e-02
1.507000000000000000e+03 6.739501953125000000e+01 -3.591660308837890625e+01 -4.937134683132171631e-02 -4.828306846320629120e-03 -1.625989563763141632e-02 4.651492834091186523e-02
1.508000000000000000e+03 6.907034301757812500e+01 -3.530719757080078125e+01 -4.558504000306129456e-02 1.620602793991565704e-02 -8.813703432679176331e-03 2.431888505816459656e-02
1.509000000000000000e+03 7.079326629638671875e+01 -3.552262115478515625e+01 -2.141905948519706726e-02 4.432266112416982651e-03 -5.096037872135639191e-03 2.593612112104892731e-02
1.510000000000000000e+03 7.279967498779296875e+01 -3.603941345214843750e+01 -9.425385855138301849e-03 4.130371380597352982e-03 -1.588504412211477757e-03 2.271324396133422852e-02
1.511000000000000000e+03 7.487615203857421875e+01 -3.591158294677734375e+01 -4.623179556801915169e-04 -6.978975143283605576e-03 -2.232387894764542580e-03 1.808338239789009094e-02
1.512000000000000000e+03 7.657616424560546875e+01 -3.570417404174804688e+01 -2.183472272008657455e-03 -9.179802611470222473e-03 -3.408982418477535248e-03 9.003229439258575439e-03
1.513000000000000000e+03 7.937540435791015625e+01 -3.481599426269531250e+01 2.578692976385354996e-03 -6.650809664279222488e-03 -1.221635029651224613e-03 1.146774506196379662e-03
1.514000000000000000e+03 7.944063568115234375e+01 -3.347476577758789062e+01 -2.497919835150241852e-03 -3.626891179010272026e-03 -1.837443327531218529e-03 1.333441003225743771e-03
1.515000000000000000e+03 7.954692840576171875e+01 -3.067784118652343750e+01 -1.757514313794672489e-03 1.645452139200642705e-04 -4.778907168656587601e-04 5.836401833221316338e-04
1.516000000000000000e+03 7.737669372558593750e+01 -2.930516433715820312e+01 -1.646254328079521656e-03 1.355423883069306612e-04 -4.532135790213942528e-04 2.843313268385827541e-04
1.517000000000000000e+03 7.809614562988281250e+01 -3.022780227661132812e+01 -1.675219391472637653e-03 -4.260494024492800236e-04 -6.303806439973413944e-04 4.808990343008190393e-04
1.518000000000000000e+03 7.583996582031250000e+01 -2.936997222900390625e+01 -2.606986323371529579e-03 1.793784467736259103e-04 -7.282823789864778519e-04 3.154073783662170172e-04
1.519000000000000000e+03 7.581669616699218750e+01 -3.034312629699707031e+01 -2.588846487924456596e-03 -2.374082687310874462e-04 -8.478764793835580349e-04 1.197861623950302601e-03
1.520000000000000000e+03 7.502800750732421875e+01 -2.937915802001953125e+01 -7.338763680309057236e-04 -2.773082815110683441e-04 -3.033553948625922203e-04 4.451420390978455544e-04
1.521000000000000000e+03 7.219667816162109375e+01 -2.938840675354003906e+01 -6.422080914489924908e-04 -1.597049646079540253e-03 -6.717772921547293663e-04 8.535706438124179840e-04
1.522000000000000000e+03 7.189766693115234375e+01 -3.095693778991699219e+01 -1.217271760106086731e-02 -1.218626392073929310e-03 -4.017403349280357361e-03 5.439497181214392185e-04
1.523000000000000000e+03 7.276024627685546875e+01 -3.409180831909179688e+01 -1.697333902120590210e-02 3.902247641235589981e-03 -3.921327646821737289e-03 1.527909189462661743e-02
1.524000000000000000e+03 6.602880859375000000e+01 -3.844913482666015625e+01 4.485372453927993774e-02 3.973096609115600586e-02 2.537540718913078308e-02 3.560075908899307251e-02
1.525000000000000000e+03 6.551926422119140625e+01 -3.651708984375000000e+01 -2.412063442170619965e-02 3.707253187894821167e-02 3.885569516569375992e-03 2.563212811946868896e-02
1.526000000000000000e+03 6.341336059570312500e+01 -3.907301330566406250e+01 6.980344653129577637e-02 1.719895601272583008e-01 7.253790646791458130e-02 -5.199770256876945496e-02
1.527000000000000000e+03 7.339022827148437500e+01 -3.827875137329101562e+01 7.750893943011760712e-03 -9.470026008784770966e-03 -5.157397827133536339e-04 2.704151719808578491e-02
1.528000000000000000e+03 7.088125610351562500e+01 -3.902095794677734375e+01 2.598986588418483734e-02 -5.120216868817806244e-03 6.260894704610109329e-03 2.999463863670825958e-02
1.529000000000000000e+03 7.492198181152343750e+01 -4.046731185913085938e+01 1.248532999306917191e-02 -2.470367774367332458e-02 -3.665504278615117073e-03 8.992782793939113617e-03
1.530000000000000000e+03 6.984992218017578125e+01 -3.705369567871093750e+01 -1.054891943931579590e-02 6.461788900196552277e-03 -1.226139138452708721e-03 4.296606406569480896e-02
1.531000000000000000e+03 7.795327758789062500e+01 -4.165866470336914062e+01 1.717430423013865948e-03 -2.466108836233615875e-02 -6.883097346872091293e-03 4.114608454983681440e-04
1.532000000000000000e+03 7.189598846435546875e+01 -4.135258483886718750e+01 3.101156093180179596e-02 -1.607927493751049042e-02 4.479685798287391663e-03 1.155864540487527847e-02
1.533000000000000000e+03 7.531073760986328125e+01 -3.775512695312500000e+01 1.686158007942140102e-03 -1.450107060372829437e-02 -3.844473743811249733e-03 1.137778814882040024e-02
1.534000000000000000e+03 7.638613128662109375e+01 -3.921715927124023438e+01 1.389725599437952042e-03 -1.637227833271026611e-02 -4.494765773415565491e-03 1.143153756856918335e-02
1.535000000000000000e+03 7.701416778564453125e+01 -3.800414276123046875e+01 2.845519222319126129e-03 -1.423799712210893631e-02 -3.417743369936943054e-03 9.129434823989868164e-03
1.536000000000000000e+03 7.749475097656250000e+01 -3.685244369506835938e+01 -3.438983345404267311e-03 -1.229191850870847702e-02 -4.719270393252372742e-03 9.326378814876079559e-03
1.537000000000000000e+03 7.862057495117187500e+01 -4.012400817871093750e+01 3.162159584462642670e-03 -2.385857887566089630e-02 -6.208925973623991013e-03 2.470950130373239517e-03
1.538000000000000000e+03 7.893990325927734375e+01 -3.875683593750000000e+01 -3.452639095485210419e-03 -2.040646225214004517e-02 -7.157730404287576675e-03 3.785271430388092995e-03
1.539000000000000000e+03 7.929056549072265625e+01 -3.614088439941406250e+01 -3.708098316565155983e-03 -1.122204866260290146e-02 -4.479044117033481598e-03 3.048416925594210625e-03
1.540000000000000000e+03 7.962129211425781250e+01 -2.934051704406738281e+01 1.184034044854342937e-03 5.237412988208234310e-04 5.123325972817838192e-04 -3.435334365349262953e-04
1.541000000000000000e+03 7.876499176025390625e+01 -3.041377067565917969e+01 3.875476540997624397e-04 3.347757447045296431e-04 2.166970225516706705e-04 -4.423957434482872486e-04
1.542000000000000000e+03 7.246178436279296875e+01 -3.037987327575683594e+01 -3.929044585675001144e-03 1.948567223735153675e-03 -5.941431154496967793e-04 -4.442640580236911774e-03
1.543000000000000000e+03 7.107762145996093750e+01 -3.021366310119628906e+01 -1.260063145309686661e-04 4.202490206807851791e-03 1.222945167683064938e-03 -4.603729583323001862e-03
1.544000000000000000e+03 7.146810913085937500e+01 -2.933752250671386719e+01 -4.166529513895511627e-03 -6.602907669730484486e-04 -1.448046066798269749e-03 1.495381933636963367e-03
1.545000000000000000e+03 7.034588623046875000e+01 -3.109890365600585938e+01 -1.278112642467021942e-02 -4.632927477359771729e-03 -5.224216263741254807e-03 2.849934680853039026e-04
1.546000000000000000e+03 7.149345397949218750e+01 -3.207016754150390625e+01 -1.566482707858085632e-02 3.003692487254738808e-03 -3.798340447247028351e-03 -3.875176422297954559e-03
1.547000000000000000e+03 6.954584503173828125e+01 -3.232847213745117188e+01 -2.767569199204444885e-02 1.398098771460354328e-03 -7.883277721703052521e-03 -9.932323358952999115e-03
1.548000000000000000e+03 7.104170989990234375e+01 -3.356834411621093750e+01 -3.540844470262527466e-02 1.056479942053556442e-02 -7.453093770891427994e-03 9.259772486984729767e-03
1.549000000000000000e+03 6.004122543334960938e+01 -3.475412368774414062e+01 1.521388348191976547e-02 2.278923988342285156e-02 1.140093710273504257e-02 -1.126921698451042175e-01
1.550000000000000000e+03 5.849661636352539062e+01 -3.460696792602539062e+01 3.467932641506195068e-01 8.372057676315307617e-01 3.551996946334838867e-01 -5.095518827438354492e-01
1.551000000000000000e+03 5.293449783325195312e+01 -2.174772453308105469e+01 -2.628366231918334961e+00 4.409198462963104248e-02 -7.752822637557983398e-01 -1.091525793075561523e+00
1.552000000000000000e+03 5.063452148437500000e+01 -2.161088371276855469e+01 -2.786621093750000000e+00 -3.332469463348388672e-01 -9.359604120254516602e-01 -1.503447651863098145e+00
1.553000000000000000e+03 5.220862579345703125e+01 -2.186724090576171875e+01 -2.506813764572143555e+00 -3.419043123722076416e-02 -7.623012661933898926e-01 -1.285137534141540527e+00
1.554000000000000000e+03 4.863596343994140625e+01 -2.273732566833496094e+01 -1.271730780601501465e+00 -5.422141551971435547e-01 -5.441834926605224609e-01 -1.604056239128112793e+00
1.555000000000000000e+03 5.642308807373046875e+01 -3.230724716186523438e+01 7.112707495689392090e-01 2.742255210876464844e+00 1.036057829856872559e+00 -1.159927964210510254e+00
1.556000000000000000e+03 5.446689987182617188e+01 -2.936935424804687500e+01 9.771766513586044312e-02 5.205526828765869141e+00 1.590973377227783203e+00 -3.175088390707969666e-02
1.557000000000000000e+03 5.069275283813476562e+01 -2.733294296264648438e+01 2.174461603164672852e+00 3.662521541118621826e-01 7.622141242027282715e-01 -2.542902231216430664e-01
1.558000000000000000e+03 4.857773590087890625e+01 -2.493636131286621094e+01 3.299890756607055664e-01 -6.013568043708801270e-01 -8.141031861305236816e-02 -1.459974765777587891e+00
1.559000000000000000e+03 4.775019073486328125e+01 -2.224750709533691406e+01 -1.561857938766479492e+00 -5.179144740104675293e-01 -6.239317059516906738e-01 -1.434544801712036133e+00
1.560000000000000000e+03 4.741868591308593750e+01 -2.384742164611816406e+01 -4.143430590629577637e-01 -7.133640646934509277e-01 -3.383121490478515625e-01 -1.549508810043334961e+00
1.561000000000000000e+03 4.762065124511718750e+01 -2.454291152954101562e+01 -4.182966053485870361e-02 -7.449699044227600098e-01 -2.360398769378662109e-01 -1.513344645500183105e+00
1.562000000000000000e+03 4.650005340576171875e+01 -2.337299728393554688e+01 -6.171417832374572754e-01 -6.991184949874877930e-01 -3.948780894279479980e-01 -1.417747259140014648e+00
1.563000000000000000e+03 4.632395553588867188e+01 -2.260769081115722656e+01 -1.000207066535949707e+00 -5.668789744377136230e-01 -4.701258242130279541e-01 -1.246852278709411621e+00
1.564000000000000000e+03 5.604500961303710938e+01 -3.013152313232421875e+01 9.575647860765457153e-02 2.343182086944580078e+00 7.316815853118896484e-01 -7.604920268058776855e-01
1.565000000000000000e+03 5.543471908569335938e+01 -3.153351974487304688e+01 6.790851354598999023e-01 2.965775489807128906e+00 1.093458175659179688e+00 -8.298398256301879883e-01
1.566000000000000000e+03 5.307371139526367188e+01 -2.695568084716796875e+01 4.215099811553955078e+00 2.559787511825561523e+00 2.032466173171997070e+00 -1.318558454513549805e-01
1.567000000000000000e+03 4.903825378417968750e+01 -2.400074005126953125e+01 -2.081158906221389771e-01 -5.392144322395324707e-01 -2.241991013288497925e-01 -1.601891517639160156e+00
1.568000000000000000e+03 5.370038604736328125e+01 -2.644040679931640625e+01 3.497797727584838867e+00 3.764295339584350586e+00 2.178627967834472656e+00 -3.570005297660827637e-01
1.569000000000000000e+03 5.307291793823242188e+01 -2.337453651428222656e+01 -5.452281236648559570e-01 7.812304496765136719e-01 7.080069929361343384e-02 -8.065357208251953125e-01
1.570000000000000000e+03 5.126158905029296875e+01 -2.374561309814453125e+01 -2.441272884607315063e-01 1.113854348659515381e-01 -3.982255607843399048e-02 -1.473326206207275391e+00
1.571000000000000000e+03 4.903367614746093750e+01 -2.625269126892089844e+01 1.127065777778625488e+00 -4.551507532596588135e-01 2.015745192766189575e-01 -1.047096729278564453e+00
1.572000000000000000e+03 5.028120803833007812e+01 -2.801952934265136719e+01 1.893333435058593750e+00 3.665710687637329102e-01 6.779713630676269531e-01 2.418948337435722351e-02
1.573000000000000000e+03 5.057650756835937500e+01 -3.044467735290527344e+01 1.096552014350891113e+00 1.220379114151000977e+00 6.950793266296386719e-01 7.721927165985107422e-01
1.574000000000000000e+03 5.075700759887695312e+01 -3.192172050476074219e+01 5.308911204338073730e-01 1.395382881164550781e+00 5.778822302818298340e-01 7.298729419708251953e-01
1.575000000000000000e+03 4.806461715698242188e+01 -2.593731880187988281e+01 6.566593647003173828e-01 -6.630554199218750000e-01 -1.918820431455969810e-03 -1.191246628761291504e+00
1.576000000000000000e+03 4.836569213867187500e+01 -2.659506416320800781e+01 9.745987057685852051e-01 -5.867081880569458008e-01 1.163671687245368958e-01 -9.550999402999877930e-01
1.577000000000000000e+03 4.716194915771484375e+01 -2.863599777221679688e+01 5.833802819252014160e-01 -6.160714030265808105e-01 -9.807345457375049591e-03 -3.933425247669219971e-01
1.578000000000000000e+03 4.798006057739257812e+01 -2.787001037597656250e+01 1.019030332565307617e+00 -5.596839785575866699e-01 1.378039121627807617e-01 -5.583667159080505371e-01
1.579000000000000000e+03 4.531636428833007812e+01 -2.774622154235839844e+01 1.351921111345291138e-01 -1.058136582374572754e+00 -2.768833637237548828e-01 -7.787674665451049805e-01
1.580000000000000000e+03 4.619657516479492188e+01 -2.569174766540527344e+01 1.100593209266662598e-01 -9.465696811676025391e-01 -2.509531080722808838e-01 -1.296189665794372559e+00
1.581000000000000000e+03 4.343277740478515625e+01 -2.339491081237792969e+01 -2.416101545095443726e-01 -5.800864696502685547e-01 -2.465089857578277588e-01 -6.628431081771850586e-01
1.582000000000000000e+03 4.404682540893554688e+01 -2.643930244445800781e+01 -3.955766186118125916e-02 -1.632408738136291504e+00 -5.015898942947387695e-01 -1.057246088981628418e+00
1.583000000000000000e+03 4.999613571166992188e+01 -2.749041366577148438e+01 1.810580730438232422e+00 2.123014815151691437e-02 5.495432615280151367e-01 -3.581249415874481201e-01
1.584000000000000000e+03 5.116083908081054688e+01 -2.772365951538085938e+01 2.412283420562744141e+00 7.036924362182617188e-01 9.347927570343017578e-01 9.273671358823776245e-02
1.585000000000000000e+03 5.684692764282226562e+01 -2.440613174438476562e+01 2.378663301467895508e+00 1.104487180709838867e+00 1.044945120811462402e+00 2.035697698593139648e+00
1.586000000000000000e+03 5.519159698486328125e+01 -2.221607971191406250e+01 -1.283918857574462891e+00 4.526786506175994873e-01 -2.493720650672912598e-01 4.114846885204315186e-02
1.587000000000000000e+03 5.283901214599609375e+01 -2.118657684326171875e+01 -3.477144002914428711e+00 -1.007897183299064636e-01 -1.073380112648010254e+00 -1.172768950462341309e+00
1.588000000000000000e+03 7.702516937255859375e+01 -2.181727790832519531e+01 -4.031259939074516296e-02 -2.424656227231025696e-02 -1.936774887144565582e-02 -6.322240084409713745e-02
1.589000000000000000e+03 7.613982391357421875e+01 -2.278234291076660156e+01 -5.559327080845832825e-02 4.291224293410778046e-03 -1.539061404764652252e-02 -4.600014537572860718e-02
1.590000000000000000e+03 7.539251708984375000e+01 -2.290364265441894531e+01 -6.310531497001647949e-02 9.413313120603561401e-03 -1.610760018229484558e-02 -5.060962587594985962e-02
1.591000000000000000e+03 7.214447021484375000e+01 -1.013758087158203125e+01 -5.775937810540199280e-02 8.684027791023254395e-01 2.431930303573608398e-01 -1.986668258905410767e-01
1.592000000000000000e+03 7.397154998779296875e+01 -1.261849403381347656e+01 -9.401404857635498047e-02 3.145334720611572266e-01 6.615582853555679321e-02 -2.970092296600341797e-01
1.593000000000000000e+03 7.322766876220703125e+01 -1.439928531646728516e+01 -1.192983686923980713e-01 3.694981336593627930e-01 7.505993545055389404e-02 -2.231780439615249634e-01
1.594000000000000000e+03 7.275635528564453125e+01 -1.649532890319824219e+01 -1.421137154102325439e-01 3.324018716812133789e-01 5.708644911646842957e-02 -1.417438685894012451e-01
1.595000000000000000e+03 7.294912719726562500e+01 -1.901943016052246094e+01 -1.347120553255081177e-01 1.677575260400772095e-01 9.913641028106212616e-03 -9.558326005935668945e-02
1.596000000000000000e+03 7.139035034179687500e+01 -1.968619537353515625e+01 -1.511118859052658081e-01 1.809501200914382935e-01 8.951468393206596375e-03 4.068224225193262100e-03
1.597000000000000000e+03 7.240752410888671875e+01 -2.141086578369140625e+01 -2.164455950260162354e-01 9.642644226551055908e-02 -3.600574657320976257e-02 -5.327882617712020874e-02
1.598000000000000000e+03 7.011856842041015625e+01 -2.206473350524902344e+01 -3.931626975536346436e-01 -8.317519724369049072e-02 -1.429013758897781372e-01 1.314716190099716187e-01
1.599000000000000000e+03 6.697336578369140625e+01 -1.975961685180664062e+01 -5.691182985901832581e-02 6.400178074836730957e-01 1.749317944049835205e-01 7.028533220291137695e-01
1.600000000000000000e+03 6.862501525878906250e+01 -1.959426879882812500e+01 -1.337578892707824707e-01 2.971188426017761230e-01 4.900828748941421509e-02 3.846084773540496826e-01
1.601000000000000000e+03 6.702360534667968750e+01 -1.807006645202636719e+01 -3.582818508148193359e-01 8.626099228858947754e-01 1.512984186410903931e-01 5.635024905204772949e-01
1.602000000000000000e+03 6.629216003417968750e+01 -1.894198036193847656e+01 -3.220506310462951660e-01 9.242280721664428711e-01 1.806532293558120728e-01 7.375144958496093750e-01
1.603000000000000000e+03 6.534615325927734375e+01 -2.216897964477539062e+01 1.148297071456909180e+00 5.081622004508972168e-01 4.969377815723419189e-01 7.885837554931640625e-01
1.604000000000000000e+03 6.127677536010742188e+01 -2.348829841613769531e+01 4.644001483917236328e+00 2.078032732009887695e+00 2.016610383987426758e+00 2.674038887023925781e+00
1.605000000000000000e+03 6.259236145019531250e+01 -2.081173324584960938e+01 -2.997469343245029449e-02 1.521620154380798340e+00 4.474936425685882568e-01 1.492506146430969238e+00
1.606000000000000000e+03 6.068728637695312500e+01 -2.269541549682617188e+01 2.290751457214355469e+00 2.025687456130981445e+00 1.294931650161743164e+00 1.929264545440673828e+00
1.607000000000000000e+03 5.900201416015625000e+01 -2.209103012084960938e+01 4.362233579158782959e-01 1.210257172584533691e+00 4.939441680908203125e-01 1.196853518486022949e+00
1.608000000000000000e+03 5.684297180175781250e+01 -2.220547294616699219e+01 -3.423394262790679932e-01 5.157005190849304199e-01 5.200832709670066833e-02 6.970915198326110840e-01
1.609000000000000000e+03 5.517729949951171875e+01 -2.150695419311523438e+01 -2.280520915985107422e+00 1.570857763290405273e-01 -6.370305418968200684e-01 -2.976869344711303711e-01
1.610000000000000000e+03 7.219541931152343750e+01 -2.276545715332031250e+01 -1.882964372634887695e-01 4.351577907800674438e-02 -4.343419522047042847e-02 3.854958340525627136e-02
1.611000000000000000e+03 7.708617401123046875e+01 -2.455419540405273438e+01 -2.115227468311786652e-02 -2.973581198602914810e-03 -7.237757090479135513e-03 -1.590612344443798065e-02
1.612000000000000000e+03 7.686738586425781250e+01 -2.067982101440429688e+01 -4.816936701536178589e-02 -3.510166704654693604e-02 -2.498131059110164642e-02 -9.755377471446990967e-02
1.613000000000000000e+03 7.263208770751953125e+01 -2.008231353759765625e+01 -1.341169178485870361e-01 1.263384968042373657e-01 -2.333523007109761238e-03 -8.452772349119186401e-02
1.614000000000000000e+03 7.027504730224609375e+01 -1.913727188110351562e+01 -1.533809751272201538e-01 2.729622721672058105e-01 3.587439283728599548e-02 1.052712798118591309e-01
1.615000000000000000e+03 6.849155426025390625e+01 -1.797866249084472656e+01 -2.392448037862777710e-01 5.993270277976989746e-01 1.080246567726135254e-01 3.535305261611938477e-01
1.616000000000000000e+03 6.612706756591796875e+01 -1.550851821899414062e+01 -4.481635689735412598e-01 1.066120624542236328e+00 1.853871345520019531e-01 2.987178564071655273e-01
1.617000000000000000e+03 6.652341461181640625e+01 -1.657701110839843750e+01 -4.815945625305175781e-01 1.019963622093200684e+00 1.615107208490371704e-01 4.045647680759429932e-01
1.618000000000000000e+03 6.878450012207031250e+01 -2.137851715087890625e+01 -2.254752367734909058e-01 -1.986588723957538605e-02 -7.360233366489410400e-02 2.287419289350509644e-01
1.619000000000000000e+03 6.424401855468750000e+01 -1.924500274658203125e+01 -6.369503736495971680e-01 1.316029429435729980e+00 2.037236988544464111e-01 1.020556330680847168e+00
1.620000000000000000e+03 6.075000381469726562e+01 -1.867112159729003906e+01 -2.306864261627197266e+00 8.902821540832519531e-01 -4.249746203422546387e-01 2.131381779909133911e-01
1.621000000000000000e+03 6.294766235351562500e+01 -1.999816131591796875e+01 -6.251615881919860840e-01 1.452701926231384277e+00 2.482621222734451294e-01 1.294699907302856445e+00
1.622000000000000000e+03 5.994107055664062500e+01 -2.035650634765625000e+01 -1.279858112335205078e+00 1.197428822517395020e+00 -2.472879923880100250e-02 8.418036103248596191e-01
1.623000000000000000e+03 5.821241760253906250e+01 -2.016614341735839844e+01 -2.646083354949951172e+00 2.084700167179107666e-01 -7.312840223312377930e-01 6.545591354370117188e-02
1.624000000000000000e+03 7.936650085449218750e+01 -2.073301506042480469e+01 -8.245321922004222870e-03 -8.209346234798431396e-02 -2.710163593292236328e-02 -2.676087059080600739e-02
1.625000000000000000e+03 7.361480712890625000e+01 -1.801852035522460938e+01 -1.145013347268104553e-01 1.636392623186111450e-01 1.474137790501117706e-02 -1.568259447813034058e-01
1.626000000000000000e+03 7.372567749023437500e+01 -1.975531959533691406e+01 -1.329312622547149658e-01 1.063176095485687256e-01 -7.984097115695476532e-03 -1.265927702188491821e-01
1.627000000000000000e+03 7.078804016113281250e+01 -1.796188545227050781e+01 -1.691884845495223999e-01 3.834794759750366211e-01 6.428729742765426636e-02 4.424977675080299377e-02
1.628000000000000000e+03 6.847063446044921875e+01 -1.652208709716796875e+01 -3.002988696098327637e-01 7.705739140510559082e-01 1.410825252532958984e-01 2.410553544759750366e-01
1.629000000000000000e+03 6.627615356445312500e+01 -1.476774024963378906e+01 -3.274966180324554443e-01 1.077355980873107910e+00 2.249577939510345459e-01 2.682335674762725830e-01
1.630000000000000000e+03 6.931739807128906250e+01 -1.859362411499023438e+01 -1.644273847341537476e-01 4.021235108375549316e-01 7.130882889032363892e-02 2.394801378250122070e-01
1.631000000000000000e+03 6.248691558837890625e+01 -1.811455535888671875e+01 -1.421923041343688965e+00 1.204573512077331543e+00 -6.520486623048782349e-02 4.454997777938842773e-01
1.632000000000000000e+03 6.310469055175781250e+01 -1.754007530212402344e+01 -1.231610894203186035e+00 1.185248494148254395e+00 -1.390874478965997696e-02 3.726267218589782715e-01
1.633000000000000000e+03 7.765012359619140625e+01 -1.641216087341308594e+01 -2.322581224143505096e-02 -2.162952870130538940e-01 -7.185633480548858643e-02 -1.672659069299697876e-01
1.634000000000000000e+03 7.297267150878906250e+01 -1.548357295989990234e+01 -1.321461200714111328e-01 3.532555401325225830e-01 6.633283197879791260e-02 -1.718248277902603149e-01
1.635000000000000000e+03 7.237522888183593750e+01 -1.747346305847167969e+01 -1.475132107734680176e-01 2.996654510498046875e-01 4.564567282795906067e-02 -9.179107844829559326e-02
1.636000000000000000e+03 7.042928314208984375e+01 -1.602887535095214844e+01 -2.064399123191833496e-01 6.250333189964294434e-01 1.255780160427093506e-01 1.444177236407995224e-02
1.637000000000000000e+03 6.867610931396484375e+01 -1.519421291351318359e+01 -2.807306349277496338e-01 9.059981107711791992e-01 1.875802427530288696e-01 1.541678607463836670e-01
1.638000000000000000e+03 6.617501831054687500e+01 -1.264911842346191406e+01 7.814544253051280975e-03 1.172314763069152832e+00 3.540388047695159912e-01 3.369812667369842529e-01
1.639000000000000000e+03 6.626361846923828125e+01 -1.379082870483398438e+01 -2.153064012527465820e-01 1.129093170166015625e+00 2.741360366344451904e-01 2.913364470005035400e-01
1.640000000000000000e+03 6.907514190673828125e+01 -1.720399475097656250e+01 -2.454565018415451050e-01 6.357995271682739258e-01 1.171029135584831238e-01 2.325459420680999756e-01
1.641000000000000000e+03 6.471884918212890625e+01 -1.649559402465820312e+01 -7.101563215255737305e-01 1.143089413642883301e+00 1.298799216747283936e-01 3.672509491443634033e-01
1.642000000000000000e+03 7.665789031982421875e+01 -1.480735397338867188e+01 -3.984366729855537415e-02 -1.775612980127334595e-01 -6.522148847579956055e-02 -2.438496202230453491e-01
1.643000000000000000e+03 7.476919555664062500e+01 -1.285724258422851562e+01 -7.558451592922210693e-02 1.936224251985549927e-01 3.541137278079986572e-02 -3.041817545890808105e-01
1.644000000000000000e+03 7.467524719238281250e+01 -1.370043182373046875e+01 -7.965445518493652344e-02 1.796581447124481201e-01 3.000110946595668793e-02 -2.835934460163116455e-01
1.645000000000000000e+03 7.202825164794921875e+01 -1.520326328277587891e+01 -1.546640694141387939e-01 4.870451092720031738e-01 9.971430897712707520e-02 -1.425172388553619385e-01
1.646000000000000000e+03 7.181099700927734375e+01 -1.604953193664550781e+01 -1.622269898653030396e-01 4.511434435844421387e-01 8.667493611574172974e-02 -8.756441622972488403e-02
1.647000000000000000e+03 6.974470520019531250e+01 -1.423442840576171875e+01 -2.009960860013961792e-01 8.645737171173095703e-01 1.990732997655868530e-01 2.869664691388607025e-02
1.648000000000000000e+03 6.972129821777343750e+01 -1.308988380432128906e+01 -1.438633352518081665e-01 9.782083034515380859e-01 2.503035068511962891e-01 2.645752951502799988e-02
1.649000000000000000e+03 6.742760467529296875e+01 -1.054229927062988281e+01 1.512838900089263916e-01 1.453163623809814453e+00 4.813342690467834473e-01 4.103661477565765381e-01
1.650000000000000000e+03 6.734181213378906250e+01 -1.159982204437255859e+01 5.648219585418701172e-02 1.328996896743774414e+00 4.156437516212463379e-01 3.364884257316589355e-01
1.651000000000000000e+03 7.786226654052734375e+01 -1.502398777008056641e+01 -1.098142284899950027e-02 -3.271275758743286133e-01 -1.014326959848403931e-01 -1.819808036088943481e-01
1.652000000000000000e+03 7.669248962402343750e+01 -1.367462635040283203e+01 -3.630019351840019226e-02 -2.170309126377105713e-01 -7.599932700395584106e-02 -2.687053978443145752e-01
1.653000000000000000e+03 7.509693908691406250e+01 -1.216028594970703125e+01 -6.769818067550659180e-02 1.017377376556396484e-01 1.021186728030443192e-02 -3.297162353992462158e-01
1.654000000000000000e+03 7.365665435791015625e+01 -1.344878101348876953e+01 -9.962327778339385986e-02 3.619469702243804932e-01 7.869710773229598999e-02 -2.623710632324218750e-01
1.655000000000000000e+03 7.074031066894531250e+01 -1.297543621063232422e+01 -1.470247656106948853e-01 8.522092103958129883e-01 2.115553170442581177e-01 -9.237863123416900635e-02
1.656000000000000000e+03 6.959283447265625000e+01 -1.050197505950927734e+01 7.806439884006977081e-03 1.273605704307556152e+00 3.844236433506011963e-01 1.051890105009078979e-01
1.657000000000000000e+03 6.999916076660156250e+01 -1.212012386322021484e+01 -1.023694425821304321e-01 1.028556823730468750e+00 2.778562307357788086e-01 -8.883525617420673370e-03
1.658000000000000000e+03 6.589311981201171875e+01 -1.141149044036865234e+01 3.087570071220397949e-01 1.331985116004943848e+00 4.922226369380950928e-01 5.564471483230590820e-01
1.659000000000000000e+03 7.924320983886718750e+01 -1.374641609191894531e+01 -9.942368604242801666e-03 -5.970510244369506836e-01 -1.820980161428451538e-01 -7.721917331218719482e-02
1.660000000000000000e+03 7.308767700195312500e+01 -1.261327838897705078e+01 -1.064715012907981873e-01 4.701815247535705566e-01 1.091130077838897705e-01 -2.524044215679168701e-01
1.661000000000000000e+03 7.056585693359375000e+01 -1.112340927124023438e+01 -8.189237117767333984e-02 1.053954958915710449e+00 2.916187644004821777e-01 -5.641617625951766968e-02
1.662000000000000000e+03 7.009408569335937500e+01 -9.771035194396972656e+00 1.364243961870670319e-02 1.262776136398315430e+00 3.829255700111389160e-01 7.971864193677902222e-02
1.663000000000000000e+03 7.095951080322265625e+01 -1.006160354614257812e+01 -5.560337007045745850e-02 1.138726353645324707e+00 3.249368965625762939e-01 -8.266915380954742432e-02
1.664000000000000000e+03 6.996202850341796875e+01 -8.560290336608886719e+00 7.059110701084136963e-02 1.484161496162414551e+00 4.664257764816284180e-01 1.629139184951782227e-01
1.665000000000000000e+03 6.967356872558593750e+01 -5.424430847167968750e+00 1.887018978595733643e-01 2.286351203918457031e+00 7.425159215927124023e-01 4.552671015262603760e-01
1.666000000000000000e+03 7.530698394775390625e+01 -4.961838245391845703e+00 3.389967605471611023e-02 1.270316392183303833e-01 4.827939718961715698e-02 -3.864088952541351318e-01
1.667000000000000000e+03 7.237916564941406250e+01 -4.996135711669921875e+00 6.472789496183395386e-02 1.356678366661071777e+00 4.264218807220458984e-01 -1.236434727907180786e-01
1.668000000000000000e+03 7.671932220458984375e+01 -5.369915485382080078e+00 7.664148230105638504e-03 -5.593580007553100586e-01 -1.655081510543823242e-01 -3.840813636779785156e-01
1.669000000000000000e+03 7.197082519531250000e+01 -2.457784652709960938e+00 1.398157626390457153e-01 2.098505020141601562e+00 6.714962124824523926e-01 2.051361370831727982e-03
1.670000000000000000e+03 7.053652954101562500e+01 -2.648205280303955078e+00 1.816787719726562500e-01 2.895512104034423828e+00 9.231572747230529785e-01 4.134656190872192383e-01
1.671000000000000000e+03 7.463914489746093750e+01 -2.837149858474731445e+00 6.685911864042282104e-02 5.006365180015563965e-01 1.702487021684646606e-01 -3.289252519607543945e-01
1.672000000000000000e+03 7.273787689208984375e+01 -3.249956369400024414e-01 2.441189289093017578e-01 1.921089649200439453e+00 6.495625376701354980e-01 -5.040453001856803894e-02
1.673000000000000000e+03 7.737351989746093750e+01 -1.188881516456604004e+00 2.410899102687835693e-02 -1.123108744621276855e+00 -3.296999037265777588e-01 -2.224775105714797974e-01
1.674000000000000000e+03 7.466950988769531250e+01 -1.147363409399986267e-01 1.791155338287353516e-01 6.844571828842163086e-01 2.590718269348144531e-01 -2.482269406318664551e-01
1.675000000000000000e+03 7.560244750976562500e+01 1.768492579460144043e+00 1.855961531400680542e-01 2.692801691591739655e-02 6.375725567340850830e-02 -1.234011054039001465e-01
1.676000000000000000e+03 7.356334686279296875e+01 2.235263109207153320e+00 2.597415447235107422e-01 1.714031457901000977e+00 5.921319127082824707e-01 -5.450715869665145874e-02
1.677000000000000000e+03 7.258663177490234375e+01 1.713209390640258789e+00 3.438782393932342529e-01 2.410644054412841797e+00 8.263566493988037109e-01 5.951611325144767761e-02
1.678000000000000000e+03 7.657624816894531250e+01 2.849213361740112305e+00 1.059492677450180054e-01 -6.507660746574401855e-01 -1.634450405836105347e-01 -5.997026339173316956e-02
1.679000000000000000e+03 7.553979492187500000e+01 2.659975051879882812e+00 1.410045474767684937e-01 1.042379811406135559e-02 4.542850330471992493e-02 -9.462402015924453735e-02
1.680000000000000000e+03 7.209476470947265625e+01 3.096421480178833008e+00 2.766162753105163574e-01 2.929784774780273438e+00 9.619202613830566406e-01 1.405367702245712280e-01
1.681000000000000000e+03 7.623091888427734375e+01 4.117868423461914062e+00 9.607701003551483154e-02 -3.855980038642883301e-01 -8.685629814863204956e-02 -2.622524090111255646e-02
1.682000000000000000e+03 7.379339599609375000e+01 4.394416809082031250e+00 2.311228811740875244e-01 1.453361392021179199e+00 5.053452849388122559e-01 2.847796864807605743e-02
1.683000000000000000e+03 7.451608276367187500e+01 8.046800613403320312e+00 3.167341649532318115e-02 9.054182171821594238e-01 2.811274826526641846e-01 1.246492788195610046e-01
1.684000000000000000e+03 7.576845550537109375e+01 9.572292327880859375e+00 -1.911641657352447510e-02 1.195222884416580200e-02 -2.149256411939859390e-03 9.712974727153778076e-02
1.685000000000000000e+03 7.402883148193359375e+01 1.055596446990966797e+01 -9.646020829677581787e-02 1.300377964973449707e+00 3.611753284931182861e-01 6.161171942949295044e-02
1.686000000000000000e+03 6.977429199218750000e+01 1.150933265686035156e+01 -1.824252903461456299e-01 3.294413805007934570e+00 9.335965514183044434e-01 -3.703232854604721069e-02
1.687000000000000000e+03 7.606676483154296875e+01 1.252149295806884766e+01 -6.449759751558303833e-02 -2.398511767387390137e-01 -9.130463004112243652e-02 1.197962649166584015e-02
1.688000000000000000e+03 7.353245544433593750e+01 1.289787101745605469e+01 -9.350290149450302124e-02 1.599910736083984375e+00 4.519223570823669434e-01 -4.287984594702720642e-02
1.689000000000000000e+03 6.984233856201171875e+01 1.287618923187255859e+01 -2.160816639661788940e-02 3.770803451538085938e+00 1.124758601188659668e+00 1.929551213979721069e-01
1.690000000000000000e+03 7.715674591064453125e+01 1.443763256072998047e+01 -2.917269710451364517e-03 -1.053417682647705078e+00 -3.169004917144775391e-01 1.176971103996038437e-02
1.691000000000000000e+03 7.509520721435546875e+01 1.426706504821777344e+01 -6.910365074872970581e-03 5.100915431976318359e-01 1.509543508291244507e-01 -3.227363340556621552e-03
1.692000000000000000e+03 7.368183898925781250e+01 1.503247737884521484e+01 -1.893360167741775513e-02 1.385703325271606445e+00 4.100309312343597412e-01 -4.089635610580444336e-02
1.693000000000000000e+03 7.003095245361328125e+01 1.570207309722900391e+01 1.151545532047748566e-02 4.233705043792724609e+00 1.273566126823425293e+00 2.876689098775386810e-02
1.694000000000000000e+03 7.663224792480468750e+01 1.568906784057617188e+01 -5.885166116058826447e-03 -6.338171362876892090e-01 -1.919106990098953247e-01 -2.562501700595021248e-03
1.695000000000000000e+03 7.503412628173828125e+01 1.552908420562744141e+01 2.751858264673501253e-04 5.496982336044311523e-01 1.649920195341110229e-01 -2.310973964631557465e-02
1.696000000000000000e+03 7.452548980712890625e+01 1.474872112274169922e+01 -3.614403773099184036e-03 8.717354536056518555e-01 2.604363262653350830e-01 -2.380169555544853210e-02
1.697000000000000000e+03 7.414419555664062500e+01 1.590728950500488281e+01 -8.470426313579082489e-03 1.114547133445739746e+00 3.318229913711547852e-01 -4.903837293386459351e-02
1.698000000000000000e+03 7.141841888427734375e+01 1.570430183410644531e+01 7.157099246978759766e-02 3.091682672500610352e+00 9.489760994911193848e-01 4.667896404862403870e-02
1.699000000000000000e+03 7.598101043701171875e+01 1.782724761962890625e+01 1.792980171740055084e-02 -1.629093885421752930e-01 -4.349387809634208679e-02 -7.107758894562721252e-03
1.700000000000000000e+03 7.443043518066406250e+01 1.785092735290527344e+01 1.196981035172939301e-02 9.191677570343017578e-01 2.793412804603576660e-01 -1.251447852700948715e-02
1.701000000000000000e+03 7.295451354980468750e+01 1.751150894165039062e+01 3.437570855021476746e-02 2.035505294799804688e+00 6.209642887115478516e-01 -1.676082052290439606e-02
1.702000000000000000e+03 7.767314147949218750e+01 2.078367805480957031e+01 2.179513499140739441e-02 -1.397420287132263184e+00 -4.126875400543212891e-01 4.892854019999504089e-02
1.703000000000000000e+03 7.501255035400390625e+01 2.116913223266601562e+01 8.336902409791946411e-02 4.722562134265899658e-01 1.666875779628753662e-01 2.582596614956855774e-02
1.704000000000000000e+03 7.638503265380859375e+01 2.217661094665527344e+01 4.822092130780220032e-02 -5.125133991241455078e-01 -1.392877548933029175e-01 6.292166560888290405e-02
1.705000000000000000e+03 7.533542633056640625e+01 2.217440414428710938e+01 7.988745719194412231e-02 1.221879273653030396e-01 6.062261387705802917e-02 5.581184849143028259e-02
1.706000000000000000e+03 7.351312255859375000e+01 2.167463874816894531e+01 1.371019482612609863e-01 1.605573415756225586e+00 5.228025913238525391e-01 -3.372423723340034485e-02
1.707000000000000000e+03 7.235926055908203125e+01 2.146584892272949219e+01 7.001832127571105957e-02 2.407497406005859375e+00 7.432547211647033691e-01 -3.949233144521713257e-02
1.708000000000000000e+03 6.994644927978515625e+01 2.131035423278808594e+01 -1.082183048129081726e-02 4.208995342254638672e+00 1.259451985359191895e+00 -3.171562775969505310e-02
1.709000000000000000e+03 7.767026519775390625e+01 2.368771934509277344e+01 5.567004531621932983e-02 -1.335004687309265137e+00 -3.838003873825073242e-01 9.095403552055358887e-02
1.710000000000000000e+03 7.282463836669921875e+01 2.765840721130371094e+01 2.730198204517364502e-01 1.591953873634338379e+00 5.594921112060546875e-01 1.519867926836013794e-01
1.711000000000000000e+03 7.127702331542968750e+01 2.802300643920898438e+01 3.993969857692718506e-01 2.296627998352050781e+00 8.088074922561645508e-01 -1.507363319396972656e-01
1.712000000000000000e+03 7.840580749511718750e+01 3.168139266967773438e+01 1.793929003179073334e-02 -1.193088889122009277e+00 -3.525448739528656006e-01 2.862700223922729492e-01
1.713000000000000000e+03 7.487879943847656250e+01 2.960153198242187500e+01 1.460392028093338013e-01 3.291408121585845947e-01 1.425540000200271606e-01 3.583347797393798828e-01
1.714000000000000000e+03 7.475019073486328125e+01 3.067088890075683594e+01 4.251416027545928955e-02 3.287135064601898193e-01 1.113682985305786133e-01 3.939189314842224121e-01
1.715000000000000000e+03 7.181861114501953125e+01 3.267596817016601562e+01 -7.465788722038269043e-02 1.174209117889404297e+00 3.298653960227966309e-01 2.059804499149322510e-01
1.716000000000000000e+03 6.941877746582031250e+01 3.177721405029296875e+01 9.351462125778198242e-02 1.893174171447753906e+00 5.960066318511962891e-01 -2.201310396194458008e-01
1.717000000000000000e+03 6.764933013916015625e+01 3.127117729187011719e+01 7.428008913993835449e-01 1.710222721099853516e+00 7.359070777893066406e-01 -1.084162354469299316e+00
1.718000000000000000e+03 7.506556701660156250e+01 3.382931137084960938e+01 -8.243671059608459473e-02 2.170028686523437500e-01 4.036984592676162720e-02 4.075807631015777588e-01
1.719000000000000000e+03 7.014673614501953125e+01 3.425373077392578125e+01 -1.334718912839889526e-01 1.261159658432006836e+00 3.383063375949859619e-01 -5.032783839851617813e-03
1.720000000000000000e+03 6.867050933837890625e+01 3.397034454345703125e+01 -8.833502978086471558e-02 1.511106014251708984e+00 4.268313050270080566e-01 -2.488998323678970337e-01
1.721000000000000000e+03 6.440861511230468750e+01 3.445587158203125000e+01 4.324689507484436035e-01 5.958642363548278809e-01 3.084999620914459229e-01 -4.585475921630859375e-01
1.722000000000000000e+03 7.399945831298828125e+01 3.592969131469726562e+01 -1.859227418899536133e-01 4.294084608554840088e-01 7.304571568965911865e-02 3.295402824878692627e-01
1.723000000000000000e+03 6.313232040405273438e+01 3.746116638183593750e+01 3.137404564768075943e-03 4.446075260639190674e-01 1.343234777450561523e-01 -2.536627948284149170e-01
1.724000000000000000e+03 6.224071502685546875e+01 3.593920516967773438e+01 1.437050849199295044e-01 1.998076736927032471e-01 1.030538305640220642e-01 -2.497661709785461426e-01
1.725000000000000000e+03 6.186646270751953125e+01 3.506167221069335938e+01 1.186625063419342041e-01 -3.208599984645843506e-02 2.597295120358467102e-02 -4.986386001110076904e-02
1.726000000000000000e+03 4.207132339477539062e+01 2.983229255676269531e+01 -1.146388705819845200e-03 2.554855309426784515e-04 -2.672709524631500244e-04 5.379518843255937099e-04
1.727000000000000000e+03 4.146069717407226562e+01 2.790749931335449219e+01 -4.660978738684207201e-04 1.280414580833166838e-04 -1.014169247355312109e-04 -1.946138945640996099e-04
1.728000000000000000e+03 4.080517196655273438e+01 2.602817153930664062e+01 -5.144973983988165855e-04 -8.361310028703883290e-05 -1.794331619748845696e-04 1.247053151018917561e-04
1.729000000000000000e+03 4.003837203979492188e+01 2.451566314697265625e+01 4.562306639854796231e-05 1.579919335199519992e-04 6.108450179453939199e-05 -2.095172530971467495e-04
1.730000000000000000e+03 3.924712753295898438e+01 2.325241661071777344e+01 -2.439576637698337436e-04 -1.630264014238491654e-04 -1.220952253788709641e-04 1.699723070487380028e-04
1.731000000000000000e+03 3.839172363281250000e+01 2.223874855041503906e+01 7.028436812106519938e-05 1.101898233173415065e-04 5.414225961430929601e-05 -2.021699474425986409e-04
1.732000000000000000e+03 3.877670669555664062e+01 1.950613021850585938e+01 -9.881916776066645980e-05 1.117258289013989270e-04 3.871997705573448911e-06 -1.234773808391764760e-04
1.733000000000000000e+03 3.968525695800781250e+01 1.735653305053710938e+01 2.525370800867676735e-04 -4.037888174934778363e-06 7.454976002918556333e-05 7.930840365588665009e-05
1.734000000000000000e+03 3.996368789672851562e+01 1.547955036163330078e+01 -2.119782730005681515e-04 6.410284549929201603e-05 -4.436262679519131780e-05 2.610298361105378717e-05
1.735000000000000000e+03 3.644891357421875000e+01 3.445764160156250000e+01 1.250120549229905009e-04 -4.004449292551726103e-04 -8.262987103080376983e-05 5.507834721356630325e-04
1.736000000000000000e+03 2.342518043518066406e+01 3.355377578735351562e+01 -1.471862778998911381e-04 -7.978254143381491303e-05 -6.809064507251605392e-05 4.927510235575027764e-05
1.737000000000000000e+03 1.633188819885253906e+01 3.421186065673828125e+01 9.721144306240603328e-05 -6.691855378448963165e-05 9.087867510970681906e-06 1.767126923368778080e-05
1.738000000000000000e+03 4.193844223022460938e+01 3.305058670043945312e+01 -1.071891980245709419e-03 2.185109951824415475e-05 -3.150122647639364004e-04 1.480937120504677296e-03
1.739000000000000000e+03 7.497608184814453125e+01 3.776337051391601562e+01 -1.784496158361434937e-01 1.836892515420913696e-01 1.571887172758579254e-03 2.554741501808166504e-01
1.740000000000000000e+03 5.426656723022460938e+01 3.706151199340820312e+01 -1.809783466160297394e-02 1.039280183613300323e-02 -2.311509801074862480e-03 2.439177036285400391e-02
1.741000000000000000e+03 2.142947006225585938e+01 3.863343811035156250e+01 -1.524756808066740632e-04 -7.964696123963221908e-05 -6.963679334148764610e-05 3.147968891425989568e-05
1.742000000000000000e+03 7.809671020507812500e+01 3.905089187622070312e+01 1.031882595270872116e-02 -4.922274649143218994e-01 -1.445726007223129272e-01 2.294490635395050049e-01
1.743000000000000000e+03 6.812516784667968750e+01 4.108841323852539062e+01 -3.494615256786346436e-01 8.567151427268981934e-01 1.521760821342468262e-01 -2.996062487363815308e-02
1.744000000000000000e+03 8.551637530326843262e-01 3.738111877441406250e+01 3.678697612485848367e-05 7.317320705624297261e-05 3.298805677331984043e-05 -8.188050742319319397e-06
1.745000000000000000e+03 3.283981323242187500e+01 4.101329040527343750e+01 2.197537396568804979e-04 -4.145370039623230696e-04 -5.843497274327091873e-05 -1.994838967220857739e-04
1.746000000000000000e+03 8.312692642211914062e+00 4.107143402099609375e+01 -8.244952368841040879e-06 1.723188142932485789e-05 2.696078581720939837e-06 3.011771696037612855e-05
1.747000000000000000e+03 1.831331825256347656e+01 3.046208190917968750e+01 6.257037603063508868e-05 -4.755570626002736390e-05 4.504400749283377081e-06 -2.855310049199033529e-05
1.748000000000000000e+03 3.809188079833984375e+01 3.077371788024902344e+01 -2.010626340052112937e-04 -7.455049490090459585e-05 -8.268393867183476686e-05 2.024378190981224179e-04
1.749000000000000000e+03 4.304827117919921875e+01 3.103902816772460938e+01 -1.413924153894186020e-03 8.356482139788568020e-04 -1.734827965265139937e-04 1.258520642295479774e-04
1.750000000000000000e+03 4.519548034667968750e+01 3.041164779663085938e+01 -1.741611398756504059e-03 4.706900508608669043e-04 -3.812763898167759180e-04 -2.222934126621112227e-04
1.751000000000000000e+03 4.435461044311523438e+01 3.179533386230468750e+01 -2.001690678298473358e-03 2.860937456716783345e-05 -5.919243558309972286e-04 5.891270702704787254e-04
1.752000000000000000e+03 1.536770629882812500e+01 2.943373870849609375e+01 7.340667798416689038e-05 -4.120549783692695200e-05 9.660354407969862223e-06 -6.836731699877418578e-06
1.753000000000000000e+03 2.684224319458007812e+01 2.957254028320312500e+01 4.565312337945215404e-05 -8.587371848989278078e-05 -1.206617798743536696e-05 2.129300810338463634e-05
1.754000000000000000e+03 3.205745315551757812e+01 3.042040061950683594e+01 -1.918321322591509670e-05 -1.623861171538010240e-04 -5.447079820442013443e-05 3.234233008697628975e-04
1.755000000000000000e+03 3.573020172119140625e+01 2.976206779479980469e+01 -9.980122558772563934e-05 -1.149474046542309225e-04 -6.442458834499120712e-05 2.046594454441219568e-04
1.756000000000000000e+03 4.458071517944335938e+01 2.883671188354492188e+01 -9.216418256983160973e-04 3.961195761803537607e-04 -1.576566719450056553e-04 -1.205181688419543207e-04
1.757000000000000000e+03 2.803434371948242188e+00 2.872089576721191406e+01 -2.217011024185921997e-05 4.974871262675151229e-05 8.273580533568747342e-06 -5.515683824341977015e-06
1.758000000000000000e+03 2.609003257751464844e+01 2.714372444152832031e+01 -6.536750152008607984e-05 -8.270462785731069744e-06 -2.209138983744196594e-05 -6.345706060528755188e-05
1.759000000000000000e+03 3.141492080688476562e+01 2.768536376953125000e+01 -2.039099490502849221e-04 -7.692196231801062822e-05 -8.424957195529714227e-05 2.150790387531742454e-04
1.760000000000000000e+03 9.277114868164062500e-01 2.895080375671386719e+01 1.503033854532986879e-05 6.824023876106366515e-05 2.498117282812017947e-05 -2.828020342349191196e-06
1.761000000000000000e+03 2.874011802673339844e+01 2.787177276611328125e+01 -6.815126835135743022e-05 -5.860228611709317192e-06 -2.220344867964740843e-05 3.280350938439369202e-05
1.762000000000000000e+03 3.331324768066406250e+01 2.601288986206054688e+01 -1.063508243532851338e-04 -8.955151861300691962e-05 -5.877070361748337746e-05 2.299721236340701580e-04
1.763000000000000000e+03 4.408049774169921875e+01 2.621665382385253906e+01 -1.485832908656448126e-04 3.357680980116128922e-04 5.615544432657770813e-05 -3.452060918789356947e-04
1.764000000000000000e+03 4.436614036560058594e+00 2.543300819396972656e+01 3.955419379053637385e-05 3.351542909513227642e-05 2.192088686570059508e-05 -2.638330670379218645e-06
1.765000000000000000e+03 9.109445571899414062e+00 2.451740074157714844e+01 3.240994919906370342e-05 1.120404431276256219e-05 1.308419814449734986e-05 2.588838287920225412e-05
1.766000000000000000e+03 1.073540115356445312e+01 2.460569000244140625e+01 -6.385564483935013413e-05 1.323376727668801323e-05 -1.518656335974810645e-05 -3.387314427527599037e-05
1.767000000000000000e+03 1.725208282470703125e+01 2.262544822692871094e+01 -9.193715959554538131e-05 4.462920060177566484e-06 -2.624227272463031113e-05 -2.204852353315800428e-05
1.768000000000000000e+03 2.901873016357421875e+01 2.484823226928710938e+01 -7.611622277181595564e-05 -9.398447582498192787e-05 -5.103020885144360363e-05 9.763969865161925554e-05
1.769000000000000000e+03 1.044771957397460938e+01 2.155939674377441406e+01 -1.228131259267684072e-05 1.417350449628429487e-05 5.676576506630226504e-07 1.506074931967305019e-05
1.770000000000000000e+03 1.115720081329345703e+01 2.324429702758789062e+01 3.633622327470220625e-05 -1.734398392727598548e-05 5.697671440429985523e-06 1.646983582759276032e-05
1.771000000000000000e+03 2.898431015014648438e+01 2.302510643005371094e+01 -4.996112693333998322e-05 -9.446448530070483685e-05 -4.332768367021344602e-05 9.871150541584938765e-05
1.772000000000000000e+03 5.162961483001708984e+00 2.200378417968750000e+01 -3.160307096550241113e-05 2.052152558462694287e-05 -3.324463932585786097e-06 -1.176938803837401792e-05
1.773000000000000000e+03 3.398384857177734375e+01 2.175143051147460938e+01 -3.757099693757481873e-05 1.630848601053003222e-05 -6.378752914315555245e-06 -1.306147605646401644e-04
1.774000000000000000e+03 4.326696014404296875e+01 2.106051826477050781e+01 2.025397116085514426e-04 3.214401658624410629e-04 1.571939646964892745e-04 -1.310997031396254897e-04
1.775000000000000000e+03 4.080406951904296875e+01 2.152260589599609375e+01 1.259534765267744660e-04 2.137187548214569688e-04 1.019016708596609533e-04 -1.593901688465848565e-04
1.776000000000000000e+03 3.708444833755493164e+00 2.024501228332519531e+01 -3.359662969160126522e-06 1.506499938841443509e-05 3.511600880301557481e-06 -1.405887542205164209e-05
1.777000000000000000e+03 6.401398181915283203e+00 2.034115791320800781e+01 -3.883802855852991343e-05 1.910895662149414420e-05 -5.918721399211790413e-06 -1.166779657069128007e-05
1.778000000000000000e+03 2.600785255432128906e+01 2.004695892333984375e+01 -4.496104156714864075e-05 -9.080754534807056189e-05 -4.073057425557635725e-05 3.816598473349586129e-05
1.779000000000000000e+03 3.140976715087890625e+01 2.094453620910644531e+01 -1.060715294443070889e-04 3.617673064582049847e-05 -2.096844036714173853e-05 -3.704479604493826628e-05
1.780000000000000000e+03 3.998416137695312500e+01 2.028978538513183594e+01 -1.118556465371511877e-04 -1.106867930502630770e-04 -6.676273187622427940e-05 1.870560372481122613e-04
1.781000000000000000e+03 6.521271467208862305e-01 2.196612358093261719e+01 -5.164065078133717179e-05 5.283495192998088896e-05 3.582904639642947586e-07 -3.310929287181352265e-06
1.782000000000000000e+03 4.303706645965576172e+00 1.820853805541992188e+01 3.791782728512771428e-05 3.323844066471792758e-05 2.134687929356005043e-05 -5.374375632527517155e-06
1.783000000000000000e+03 5.805659294128417969e+00 1.803125762939453125e+01 -3.717168874572962523e-05 1.623215212021023035e-05 -6.281861260504228994e-06 -1.524692834209417924e-05
1.784000000000000000e+03 7.135241985321044922e+00 1.773968696594238281e+01 3.329094033688306808e-05 2.310322815901599824e-05 1.691825127636548132e-05 -2.047398083959706128e-05
1.785000000000000000e+03 1.168858718872070312e+01 1.825121307373046875e+01 -4.558587897918187082e-05 -5.731483838644635398e-07 -1.384770894219400361e-05 -1.024944367600255646e-06
1.786000000000000000e+03 2.322397041320800781e+01 1.952147293090820312e+01 4.029996125609613955e-05 -1.485244501964189112e-05 7.634254870936274529e-06 -2.675819087016861886e-05
1.787000000000000000e+03 2.518924140930175781e+01 1.914441871643066406e+01 2.544749804656021297e-05 9.064870937436353415e-06 1.035371042235055938e-05 -1.694873208180069923e-05
1.788000000000000000e+03 2.706570625305175781e+01 1.893504333496093750e+01 1.753981814545113593e-05 2.227190816483926028e-05 1.194351807498605922e-05 -3.848883352475240827e-05
1.789000000000000000e+03 3.126072120666503906e+01 1.809544754028320312e+01 -1.074632746167480946e-04 -3.256664786022156477e-05 -4.200897456030361354e-05 -8.836251254251692444e-06
1.790000000000000000e+03 2.786382198333740234e+00 1.663878440856933594e+01 3.503912739688530564e-05 3.567080420907586813e-05 2.121297984558623284e-05 9.845443855738267303e-06
1.791000000000000000e+03 5.669132232666015625e+00 1.614827537536621094e+01 -3.423595262574963272e-05 2.129657514160498977e-05 -3.881813427142333239e-06 -1.791044815036002547e-05
1.792000000000000000e+03 6.542760848999023438e+00 1.601039314270019531e+01 2.054310971288941801e-05 2.433872941765002906e-05 1.346455155726289377e-05 -3.004220343427732587e-05
1.793000000000000000e+03 1.351865673065185547e+01 1.730302810668945312e+01 -5.024570782552473247e-06 9.032808520714752376e-06 1.202471480610256549e-06 -3.181053762091323733e-05
1.794000000000000000e+03 1.530779743194580078e+01 1.691673851013183594e+01 -1.452694777981378138e-05 1.309904746449319646e-06 -3.965113137383013964e-06 -3.410083445487543941e-05
1.795000000000000000e+03 1.636086082458496094e+01 1.728429603576660156e+01 5.227196743362583220e-05 -3.444773028604686260e-05 5.347271326172631234e-06 -4.619177616405067965e-06
1.796000000000000000e+03 1.748807144165039062e+01 1.730249595642089844e+01 -6.799521361244842410e-05 7.726433977950364351e-06 -1.808063279895577580e-05 -2.429660298730595969e-06
1.797000000000000000e+03 1.860901260375976562e+01 1.709723281860351562e+01 5.298458563629537821e-05 -3.160108826705254614e-05 6.415049483621260151e-06 -3.014201683981809765e-05
1.798000000000000000e+03 2.046842002868652344e+01 1.862104415893554688e+01 -2.804826181090902537e-05 -4.774819899466820061e-05 -2.273893915116786957e-05 3.544671562849543989e-05
1.799000000000000000e+03 3.293515777587890625e+01 1.617421340942382812e+01 -1.000784031930379570e-04 -3.075616041314788163e-05 -3.925036799046210945e-05 -1.758650967076391680e-07
1.800000000000000000e+03 6.002542495727539062e+00 1.544679164886474609e+01 1.148774481407599524e-05 8.963686923380009830e-06 6.135429430287331343e-06 1.199585130962077528e-05
1.801000000000000000e+03 6.645417213439941406e+00 1.481206035614013672e+01 -3.951874134600075195e-07 1.988836265809368342e-05 5.847952706972137094e-06 -3.811093483818694949e-05
1.802000000000000000e+03 1.598537635803222656e+01 1.465266323089599609e+01 -4.221761628286913037e-05 -7.037613158900057897e-06 -1.477656860515708104e-05 -7.679990972064842936e-07
1.803000000000000000e+03 1.645783424377441406e+01 1.544546985626220703e+01 5.709459583158604801e-05 -2.228811354143545032e-05 1.044194505084306002e-05 -2.868662886612582952e-05
1.804000000000000000e+03 1.830850410461425781e+01 1.496285152435302734e+01 5.832072929479181767e-05 -2.665022839209996164e-05 9.501150998403318226e-06 -2.496134584362152964e-05
1.805000000000000000e+03 2.057273864746093750e+01 1.622418975830078125e+01 3.588567051338031888e-05 -4.615113539330195636e-06 9.381167728861328214e-06 -3.475476478342898190e-05
1.806000000000000000e+03 2.265461730957031250e+01 1.581227016448974609e+01 -1.888067345134913921e-05 1.088315570996201131e-07 -5.631552539853146300e-06 -2.487660640326794237e-05
1.807000000000000000e+03 2.604508590698242188e+01 1.540841007232666016e+01 9.664457138569559902e-06 -3.661328082671388984e-05 -8.084646651695948094e-06 -6.978348778829968069e-07
1.808000000000000000e+03 3.420976638793945312e+00 1.362738132476806641e+01 5.234387117525329813e-06 7.713541890552733094e-06 3.884378656948683783e-06 -1.720449654385447502e-05
1.809000000000000000e+03 6.547633647918701172e+00 1.263154792785644531e+01 2.350917384319473058e-05 1.425136451871367171e-05 1.132816123572411016e-05 -7.102897143340669572e-06
1.810000000000000000e+03 7.619018554687500000e+00 1.262119674682617188e+01 -1.937123670359142125e-05 -3.451871634752023965e-06 -6.846932592452503741e-06 1.058493944583460689e-05
1.811000000000000000e+03 9.150908470153808594e+00 1.279145717620849609e+01 -1.206340948556317016e-05 -9.329888598585966974e-06 -6.417989425244741142e-06 5.610402695310767740e-06
1.812000000000000000e+03 1.467437744140625000e+01 1.274755573272705078e+01 -3.376395761733874679e-05 -5.381769369705580175e-06 -1.174371845991117880e-05 -8.162485755747184157e-06
1.813000000000000000e+03 1.763123893737792969e+01 1.284152221679687500e+01 5.002474063076078892e-05 -1.354603318759473041e-05 1.094361232389928773e-05 -1.502624490967718884e-05
1.814000000000000000e+03 1.880578041076660156e+01 1.262776088714599609e+01 -3.471271338639780879e-05 -1.963443537533748895e-05 -1.630414408282376826e-05 -7.349167844949988648e-06
1.815000000000000000e+03 2.236139678955078125e+01 1.258373832702636719e+01 2.582029082986991853e-05 -1.301676093135029078e-06 7.355584330070996657e-06 -6.641642357863020152e-06
1.816000000000000000e+03 2.370624923706054688e+01 1.294521522521972656e+01 1.550705565023235977e-05 -3.630392166087403893e-05 -6.239059985091444105e-06 -6.393891283096309053e-08
1.817000000000000000e+03 2.549275016784667969e+01 1.237520027160644531e+01 2.985559876833576709e-05 -1.859524672909174114e-05 3.378105475349002518e-06 8.543119292880874127e-06
1.818000000000000000e+03 2.779380989074707031e+01 1.406064224243164062e+01 8.541155693819746375e-05 -3.382296927156858146e-05 1.547657666378654540e-05 1.580531898071058095e-05
1.819000000000000000e+03 2.929334449768066406e+01 1.395996952056884766e+01 -8.768687257543206215e-05 -3.109914541710168123e-05 -3.563580321497283876e-05 -1.217522913066204637e-05
1.820000000000000000e+03 3.079290008544921875e+01 1.366545486450195312e+01 1.426774979336187243e-04 -2.481134288245812058e-05 3.535984433256089687e-05 -4.506799086811952293e-06
1.821000000000000000e+03 7.868216633796691895e-01 1.344292449951171875e+01 -4.201630508759990335e-05 2.493951433280017227e-05 -5.123037226439919323e-06 3.795460088440449908e-06
1.822000000000000000e+03 3.734169483184814453e+00 1.178587245941162109e+01 2.594372563180513680e-05 2.173946450056973845e-05 1.430495740351034328e-05 -1.214493750012479722e-05
1.823000000000000000e+03 5.504827499389648438e+00 1.200152778625488281e+01 1.963237082236446440e-06 1.295889251196058467e-05 4.476638878259109333e-06 -1.913564483402296901e-05
1.824000000000000000e+03 7.099335193634033203e+00 1.191964149475097656e+01 2.851244289558962919e-06 1.962823444046080112e-05 6.743843641743296757e-06 -3.366911914781667292e-05
1.825000000000000000e+03 8.549123764038085938e+00 1.025205516815185547e+01 -2.666371983650606126e-05 6.382806986948708072e-06 -6.084273991291411221e-06 -1.305878504354041070e-05
1.826000000000000000e+03 9.833118438720703125e+00 1.018561649322509766e+01 3.699519947986118495e-05 4.908351002086419612e-06 1.257106578123057261e-05 -1.980769411602523178e-05
1.827000000000000000e+03 1.360969638824462891e+01 1.046479988098144531e+01 -2.878524537663906813e-05 -3.656595708889653906e-06 -9.732552825880702585e-06 -1.664215051278006285e-05
1.828000000000000000e+03 1.587455177307128906e+01 1.037527275085449219e+01 2.043703943854779936e-06 -2.057734491245355457e-05 -5.560092176892794669e-06 -2.003589361265767366e-05
1.829000000000000000e+03 1.712693214416503906e+01 1.059920978546142578e+01 3.303758421679958701e-05 6.124918172645266168e-07 1.009502284432528540e-05 -4.364364031061995775e-06
1.830000000000000000e+03 1.847046470642089844e+01 1.054389381408691406e+01 -2.271376797580160201e-05 -2.047320776910055429e-05 -1.295609308726852760e-05 -1.549609078210778534e-05
1.831000000000000000e+03 1.969388961791992188e+01 1.048046112060546875e+01 3.820098208962008357e-05 -3.794514441324281506e-06 1.032193995342822745e-05 6.508043043140787631e-06
1.832000000000000000e+03 2.164318466186523438e+01 1.021257877349853516e+01 4.426549276104196906e-05 7.714713319728616625e-06 1.559406155138276517e-05 -3.539483032000134699e-06
1.833000000000000000e+03 2.327173995971679688e+01 1.065179443359375000e+01 3.825717794825322926e-05 9.793361641641240567e-06 1.441516178601887077e-05 5.085345492261694744e-06
1.834000000000000000e+03 2.502578353881835938e+01 1.054846382141113281e+01 4.663028448703698814e-05 -4.325215923017822206e-05 1.013437099572911393e-06 1.539008394502161536e-06
1.835000000000000000e+03 2.858093261718750000e+01 1.093701744079589844e+01 -3.564735743566416204e-05 -6.742178811691701412e-05 -3.092074621235951781e-05 2.669760033313650638e-05
1.836000000000000000e+03 3.066378211975097656e+01 1.150043678283691406e+01 8.891063043847680092e-05 -2.992108784383162856e-05 1.769686423358507454e-05 1.396962397848255932e-05
1.837000000000000000e+03 3.194921302795410156e+01 1.151298999786376953e+01 -4.644554792321287096e-05 -3.842643855023197830e-05 -2.546159703342709690e-05 -1.157679889729479328e-05
1.838000000000000000e+03 3.335630798339843750e+01 1.154406070709228516e+01 1.112035824917256832e-04 -3.224889724151580594e-06 3.239360739826224744e-05 5.470590986078605056e-05
1.839000000000000000e+03 3.493073272705078125e+01 1.147340869903564453e+01 -9.852016955846920609e-05 -1.139181676990119740e-05 -3.297359580756165087e-05 -2.181504896725527942e-06
1.840000000000000000e+03 3.661755752563476562e+01 1.130281066894531250e+01 1.463679654989391565e-04 8.691031325724907219e-06 4.651769995689392090e-05 4.002673813374713063e-05
1.841000000000000000e+03 3.837584686279296875e+01 1.105759334564208984e+01 -1.343125768471509218e-04 2.350630711589474231e-05 -3.324188219266943634e-05 2.807231612678151578e-05
1.842000000000000000e+03 4.403098106384277344e+00 9.698991775512695312e+00 7.985597221704665571e-06 5.010659606341505423e-06 3.898877366736996919e-06 -2.385422476436360739e-06
1.843000000000000000e+03 6.426994323730468750e+00 9.663122177124023438e+00 2.917376832556328736e-06 5.095409051136812195e-06 2.403835878794780001e-06 -1.004308955998567399e-06
1.844000000000000000e+03 1.053448677062988281e+01 8.982831001281738281e+00 3.348202153574675322e-05 1.169843199022579938e-05 1.355413587589282542e-05 -3.073461994063109159e-05
1.845000000000000000e+03 1.132524204254150391e+01 8.760758399963378906e+00 -1.538036667625419796e-05 -9.144025170826353133e-06 -7.357317372225224972e-06 2.435863507344038226e-06
1.846000000000000000e+03 1.368342685699462891e+01 9.410362243652343750e+00 3.071582614211365581e-05 3.472214075372903608e-06 1.025641267915489152e-05 -4.386027285363525152e-06
1.847000000000000000e+03 1.721297073364257812e+01 8.526590347290039062e+00 3.347460369695909321e-05 1.519031002317206003e-06 1.049808997777290642e-05 3.546246261976193637e-06
1.848000000000000000e+03 1.829630851745605469e+01 8.489599227905273438e+00 -2.051769661193247885e-05 -1.723598325042985380e-05 -1.132610395870869979e-05 -1.797207914933096617e-05
1.849000000000000000e+03 1.947095108032226562e+01 8.275023460388183594e+00 5.408239667303860188e-05 -5.793033778900280595e-06 1.448680905014043674e-05 -6.156012204883154482e-06
1.850000000000000000e+03 2.145757484436035156e+01 8.665183067321777344e+00 3.756339356186799705e-05 -7.107006695150630549e-06 9.136915650742594153e-06 -2.449903331580571830e-05
1.851000000000000000e+03 2.327443504333496094e+01 8.710712432861328125e+00 4.391570837469771504e-05 -9.544998647470492870e-06 1.031121246342081577e-05 -1.915162329169106670e-06
1.852000000000000000e+03 2.503492355346679688e+01 8.853264808654785156e+00 6.521512113977223635e-05 -1.598946255398914218e-05 1.476769648434128612e-05 5.115491148899309337e-06
1.853000000000000000e+03 2.608349609375000000e+01 8.195160865783691406e+00 -5.584261816693469882e-05 -1.854310539783909917e-05 -2.231571670563425869e-05 4.281405836081830785e-06
1.854000000000000000e+03 2.767871856689453125e+01 8.902913093566894531e+00 -5.982629227219149470e-05 -3.189662675140425563e-05 -2.751687497948296368e-05 -6.774974281142931432e-06
1.855000000000000000e+03 3.047427940368652344e+01 9.226032257080078125e+00 9.515639976598322392e-05 2.504235453670844436e-06 2.929818947450257838e-05 4.252182770869694650e-05
1.856000000000000000e+03 3.184285545349121094e+01 9.042739868164062500e+00 -7.137706415960565209e-05 -3.118005406577140093e-05 -3.076713619520887733e-05 -1.490916383772855625e-05
1.857000000000000000e+03 3.330652999877929688e+01 8.881956100463867188e+00 1.207413151860237122e-04 6.225379820534726605e-07 3.640915747382678092e-05 4.486343823373317719e-05
1.858000000000000000e+03 3.484624099731445312e+01 8.755714416503906250e+00 -1.030672428896650672e-04 -8.388582500629127026e-06 -3.343674688949249685e-05 -8.001491551112849265e-06
1.859000000000000000e+03 3.830726623535156250e+01 9.653537750244140625e+00 1.449722039978951216e-04 3.220341022824868560e-05 5.315268572303466499e-05 1.679714659985620528e-05
1.860000000000000000e+03 2.643654346466064453e+00 8.121396064758300781e+00 1.162987246061675251e-05 2.598237870188313536e-06 4.268433258403092623e-06 8.881858775566797704e-06
1.861000000000000000e+03 6.171739578247070312e+00 6.724102497100830078e+00 -6.547636530740419403e-07 1.538498679565236671e-07 -1.502741326930845389e-07 -8.454313501715660095e-06
1.862000000000000000e+03 8.541485786437988281e+00 7.408412456512451172e+00 3.184529850841499865e-05 1.315003373747458681e-06 9.948090337275061756e-06 -8.616540981165599078e-06
1.863000000000000000e+03 1.014964485168457031e+01 7.253405094146728516e+00 3.239281795686110854e-05 6.160616521810879931e-06 1.156603048002580181e-05 -1.842806523200124502e-05
1.864000000000000000e+03 1.163469696044921875e+01 6.462761878967285156e+00 8.333841833518818021e-06 7.444696166203357279e-06 4.733561581815592945e-06 -1.333853833784814924e-05
1.865000000000000000e+03 1.359378337860107422e+01 6.311908245086669922e+00 1.834560134739149362e-05 8.874410013959277421e-06 8.166003681253641844e-06 -5.353798769647255540e-06
1.866000000000000000e+03 1.540070629119873047e+01 8.193690299987792969e+00 2.185317316616419703e-05 5.055695510236546397e-06 8.072660421021282673e-06 -2.962101007142337039e-06
1.867000000000000000e+03 1.714467620849609375e+01 7.619207859039306641e+00 -1.804510065994691104e-05 -8.997644727060105652e-06 -8.112823707051575184e-06 -2.673071321623865515e-05
1.868000000000000000e+03 1.843309402465820312e+01 6.519672870635986328e+00 2.656079595908522606e-05 -1.016408646137278993e-06 7.663315955142024904e-06 -2.226573633379302919e-05
1.869000000000000000e+03 2.140868759155273438e+01 6.967917919158935547e+00 3.421237124712206423e-05 -3.828266471828101203e-06 9.115231478062923998e-06 -1.791983777366112918e-05
1.870000000000000000e+03 2.315835762023925781e+01 6.806306838989257812e+00 2.850146483979187906e-05 -1.575016540300566703e-05 3.825389740086393431e-06 -1.670916026341728866e-05
1.871000000000000000e+03 2.480539703369140625e+01 5.664965629577636719e+00 -2.832415339071303606e-05 -3.017604285560082644e-05 -1.755005905579309911e-05 3.880580607074080035e-06
1.872000000000000000e+03 2.878980255126953125e+01 6.614389896392822266e+00 -2.511832917662104592e-06 -2.817395761667285115e-05 -9.205737114825751632e-06 -2.674988900253083557e-05
1.873000000000000000e+03 3.002348518371582031e+01 6.840762138366699219e+00 8.515488298144191504e-05 -7.832887604308780283e-06 2.319659870408941060e-05 3.882727833115495741e-05
1.874000000000000000e+03 3.136492156982421875e+01 6.728558540344238281e+00 -7.175092468969523907e-05 -1.154535220848629251e-05 -2.498888352420181036e-05 -6.257929271669127047e-06
1.875000000000000000e+03 3.268013381958007812e+01 6.399495124816894531e+00 9.950871026376262307e-05 -1.528921166027430445e-05 2.526584830775391310e-05 5.002464149583829567e-06
1.876000000000000000e+03 3.630208969116210938e+01 7.402587413787841797e+00 -1.072100712917745113e-04 6.241101800696924329e-06 -3.029069193871691823e-05 8.542830983060412109e-06
1.877000000000000000e+03 3.778864669799804688e+01 7.199238300323486328e+00 1.227007014676928520e-04 6.079107606637990102e-06 3.863394522340968251e-05 -1.870764549494197126e-06
1.878000000000000000e+03 3.986024475097656250e+01 7.874317169189453125e+00 1.137979052145965397e-04 3.694706902024336159e-05 4.522349263424985111e-05 -2.812586899381130934e-05
1.879000000000000000e+03 2.520097494125366211e+00 6.539546012878417969e+00 7.443457889166893438e-06 7.687724973948206753e-06 4.539354904409265146e-06 -5.383512416301527992e-06
1.880000000000000000e+03 4.286341190338134766e+00 4.583828449249267578e+00 -8.000322850421071053e-06 -5.222087224865390453e-07 -2.556759454819257371e-06 -9.649924095356254838e-07
1.881000000000000000e+03 6.906580448150634766e+00 6.307613372802734375e+00 1.481750496168388054e-05 9.977456102205906063e-06 7.438488410116406158e-06 -1.221302500198362395e-05
1.882000000000000000e+03 8.361323356628417969e+00 5.876849651336669922e+00 2.633104850247036666e-05 4.428826741786906496e-06 9.227962436852976680e-06 -9.462327398068737239e-06
1.883000000000000000e+03 1.048486328125000000e+01 5.685681343078613281e+00 -1.113298731070244685e-05 7.946388905111234635e-06 -9.559794307278934866e-07 -1.198583140649134293e-05
1.884000000000000000e+03 1.133675765991210938e+01 5.285598278045654297e+00 7.529456070187734440e-06 1.829889356486091856e-06 2.807803639370831661e-06 -1.000362408376531675e-05
1.885000000000000000e+03 1.374236869812011719e+01 5.272876739501953125e+00 3.581086957638035528e-06 -4.581020675686886534e-06 -2.999801438363647321e-07 -1.804725616239011288e-05
1.886000000000000000e+03 1.539847183227539062e+01 6.575469493865966797e+00 2.896488513215444982e-05 3.423418547754408792e-06 9.716491149447392672e-06 -1.247759428224526346e-06
1.887000000000000000e+03 1.713365364074707031e+01 5.203169822692871094e+00 3.242551611037924886e-05 -8.463488484267145395e-06 7.188607924035750329e-06 7.985463525983504951e-06
1.888000000000000000e+03 1.899844360351562500e+01 4.267442226409912109e+00 3.745455614989623427e-05 6.441183359129354358e-06 1.316872203460661694e-05 -3.020232543349266052e-05
1.889000000000000000e+03 2.120255661010742188e+01 5.439811229705810547e+00 2.186402343795634806e-05 -3.314219611638691276e-06 5.564941147895297036e-06 -1.207085551868658513e-05
1.890000000000000000e+03 2.587121963500976562e+01 5.190985202789306641e+00 4.217551395413465798e-05 1.289450847252737731e-05 1.652100581850390881e-05 -2.507108092686394230e-06
1.891000000000000000e+03 3.113315582275390625e+01 5.643222332000732422e+00 9.628482803236693144e-05 -2.393098293396178633e-05 2.170615334762260318e-05 2.006729300774168223e-05
1.892000000000000000e+03 3.863103103637695312e+01 5.762024402618408203e+00 7.009824184933677316e-05 2.530949313950259238e-05 2.862232213374227285e-05 -3.205442772014066577e-05
1.893000000000000000e+03 4.122201919555664062e+01 4.930220603942871094e+00 3.178707629558630288e-05 -1.220980493599199690e-06 9.169829354505054653e-06 1.463668377255089581e-05
1.894000000000000000e+03 4.036267852783203125e+01 5.949578762054443359e+00 2.507225417502922937e-06 5.742179564549587667e-05 1.797870572772808373e-05 -3.154279693262651563e-05
1.895000000000000000e+03 1.821293592453002930e+00 7.364377975463867188e+00 1.246299962076591328e-05 1.259922373719746247e-05 7.518667189287953079e-06 -1.669818266236688942e-05
1.896000000000000000e+03 2.441042184829711914e+00 3.798468112945556641e+00 -5.596121610551563208e-08 -1.494139610258571338e-06 -4.650302400932559976e-07 4.392760502014425583e-07
1.897000000000000000e+03 5.216523647308349609e+00 4.112387657165527344e+00 1.530632653157226741e-05 8.027983312786091119e-06 7.000292953307507560e-06 -1.099008204619167373e-05
1.898000000000000000e+03 7.877816200256347656e+00 3.565060138702392578e+00 -1.339471282335580327e-06 5.041322879151266534e-07 -2.506017153791617602e-07 -1.070212601916864514e-05
1.899000000000000000e+03 9.405787467956542969e+00 3.316819429397583008e+00 2.795943885303131538e-07 3.580555812732200138e-06 1.158045051852241158e-06 -8.556049579055979848e-06
1.900000000000000000e+03 1.163965606689453125e+01 4.553679466247558594e+00 5.783746928500477225e-06 1.030164185067405924e-05 4.825616542802890763e-06 -8.876048923411872238e-06
1.901000000000000000e+03 1.324600124359130859e+01 3.690663814544677734e+00 1.893956323328893632e-05 1.525624043097195681e-06 6.139556262496626005e-06 -1.451966090826317668e-05
1.902000000000000000e+03 1.559395408630371094e+01 3.873312711715698242e+00 2.130922985088545829e-05 6.784388233427307568e-07 6.596300863748183474e-06 -1.897473157441709191e-05
1.903000000000000000e+03 1.658484649658203125e+01 3.442497968673706055e+00 3.851705696433782578e-05 -3.246723053962341510e-06 1.058109955920372158e-05 -1.506435182818677276e-05
1.904000000000000000e+03 1.775139427185058594e+01 3.818187952041625977e+00 1.152126696979394183e-05 1.256534119420393836e-06 3.833340542769292369e-06 4.751257165480637923e-06
1.905000000000000000e+03 2.305551528930664062e+01 3.361317634582519531e+00 2.500003938621375710e-05 -2.469201535859610885e-05 9.240763176876498619e-08 -2.216699249402154237e-05
1.906000000000000000e+03 2.546287727355957031e+01 4.154422760009765625e+00 -1.530189001641701907e-05 -2.826536547217983752e-05 -1.307017646468011662e-05 1.221194361278321594e-05
1.907000000000000000e+03 2.683197212219238281e+01 4.637470722198486328e+00 -1.420143507857574150e-05 -3.755742000066675246e-05 -1.552765570522751659e-05 5.895685262657934800e-06
1.908000000000000000e+03 2.999739265441894531e+01 4.566157817840576172e+00 6.879393185954540968e-05 -9.526276699034497142e-06 1.778029763954691589e-05 2.788665915431920439e-05
1.909000000000000000e+03 3.317253494262695312e+01 3.989493846893310547e+00 1.696723302302416414e-05 5.417849024524912238e-06 6.715524705214193091e-06 1.900999632198363543e-05
1.910000000000000000e+03 3.531136322021484375e+01 4.062368869781494141e+00 -6.663267413387075067e-05 1.241020436282269657e-05 -1.626674202270805836e-05 5.813976258650654927e-06
1.911000000000000000e+03 3.888137817382812500e+01 4.511968135833740234e+00 -3.760235995287075639e-05 6.685310654575005174e-05 8.775224159762728959e-06 -1.194305514218285680e-05
1.912000000000000000e+03 3.929527664184570312e+01 3.807385444641113281e+00 6.367352762026712298e-05 -2.768296326394192874e-05 1.079716821550391614e-05 8.882834663381800056e-06
1.913000000000000000e+03 4.065582275390625000e+01 3.354633569717407227e+00 5.318562034517526627e-05 1.594437890162225813e-05 2.073900031973607838e-05 -1.093585524358786643e-05
1.914000000000000000e+03 4.022037506103515625e+01 4.304298400878906250e+00 -4.752932727569714189e-05 4.180338510195724666e-05 -1.717782538435130846e-06 2.647854216775158420e-06
1.915000000000000000e+03 5.216735005378723145e-01 5.021461009979248047e+00 -1.605454781383741647e-05 1.493127797402848955e-06 -4.368425834400113672e-06 3.455064415902597830e-06
1.916000000000000000e+03 1.302360630035400391e+01 2.177111387252807617e+00 2.256414882140234113e-05 3.677368113130796701e-06 7.872455171309411526e-06 -1.185636392619926482e-05
1.917000000000000000e+03 1.425296401977539062e+01 2.239762067794799805e+00 2.015418795053847134e-05 -1.412113874721399043e-06 5.622622211376437917e-06 -1.339354184892727062e-05
1.918000000000000000e+03 1.711266708374023438e+01 2.103595733642578125e+00 9.154225153906736523e-06 1.168638391391141340e-06 3.096859245488303714e-06 -1.579249146743677557e-05
1.919000000000000000e+03 1.812241363525390625e+01 2.109317541122436523e+00 2.430657696095295250e-05 2.343034338991856202e-06 7.994884072104468942e-06 -1.415191945852711797e-05
1.920000000000000000e+03 1.968375015258789062e+01 1.851860761642456055e+00 5.287552539812168106e-06 -7.623253168276278302e-06 -7.007101885392330587e-07 8.992195034807082266e-06
1.921000000000000000e+03 2.152704048156738281e+01 2.419503688812255859e+00 2.680822944967076182e-05 -1.459358554711798206e-05 3.664393034341628663e-06 -1.443527889932738617e-05
1.922000000000000000e+03 2.426016807556152344e+01 1.243795514106750488e+00 7.366698810074012727e-06 -7.398180969175882638e-06 -9.444637072419936885e-09 2.052189483947586268e-05
1.923000000000000000e+03 2.566808509826660156e+01 2.705332517623901367e+00 -1.400280439156631473e-06 -2.215697350038681179e-05 -7.067176284181186929e-06 1.800910285965073854e-05
1.924000000000000000e+03 2.695392799377441406e+01 2.849401712417602539e+00 1.087330656446283683e-05 -4.974166131432866678e-06 1.769742084434255958e-06 1.957143285835627466e-05
1.925000000000000000e+03 2.995310974121093750e+01 1.628006815910339355e+00 -2.736786700552329421e-05 -1.808456727303564548e-05 -1.363573028356768191e-05 1.233156308444449678e-05
1.926000000000000000e+03 3.183505439758300781e+01 1.380650758743286133e+00 -3.938681038562208414e-05 -6.014487553329672664e-06 -1.362038892693817616e-05 -3.028421588169294409e-06
1.927000000000000000e+03 3.413653945922851562e+01 1.569691419601440430e+00 4.543377872323617339e-05 6.135033345344709232e-06 1.547064312035217881e-05 -9.421506547369062901e-06
1.928000000000000000e+03 3.599267959594726562e+01 2.941403627395629883e+00 -6.490729720098897815e-05 1.771598181221634150e-05 -1.415739370713708922e-05 3.804117295658215880e-05
1.929000000000000000e+03 3.687781524658203125e+01 2.306027412414550781e+00 7.652286512893624604e-06 1.424777292413637042e-05 6.570017831108998507e-06 -1.018656621454283595e-05
1.930000000000000000e+03 3.859512329101562500e+01 1.872326850891113281e+00 -3.321931217215023935e-05 -1.762672764016315341e-05 -1.525381139799719676e-05 2.074728035950101912e-05
1.931000000000000000e+03 3.971887969970703125e+01 2.143668174743652344e+00 4.228272882755845785e-05 3.960426693083718419e-05 2.456609945511445403e-05 -1.589143903402145952e-05
1.932000000000000000e+03 4.088149642944335938e+01 2.352988004684448242e+00 -4.894028825219720602e-05 -2.759007293207105249e-05 -2.295910962857306004e-05 1.983404581551440060e-05
1.933000000000000000e+03 1.866708946228027344e+01 5.616449713706970215e-01 8.455213901470415294e-06 -8.358557352039497346e-06 2.899714068860248517e-08 5.328243787516839802e-06
1.934000000000000000e+03 2.012973403930664062e+01 1.310354590415954590e+00 2.358072379138320684e-05 -4.998488748242380098e-06 5.574670467467512935e-06 -1.324351160292280838e-05
1.935000000000000000e+03 2.615375518798828125e+01 2.883352041244506836e-01 1.364349100185791031e-05 -1.578979572514072061e-05 -6.438913260353729129e-07 -1.076411626854678616e-05
1.936000000000000000e+03 2.727345466613769531e+01 7.716449499130249023e-01 2.222754483227618039e-05 3.937895598937757313e-06 7.849632311263121665e-06 2.548791417211759835e-05
1.937000000000000000e+03 2.917579078674316406e+01 1.539560556411743164e+00 1.920352224260568619e-05 1.317878286499762908e-05 9.714692168927285820e-06 2.297420542163308710e-05
1.938000000000000000e+03 3.038796424865722656e+01 3.852750360965728760e-01 -3.269719309173524380e-05 8.502912010044383351e-07 -9.554070857120677829e-06 2.771558683889452368e-05
1.939000000000000000e+03 3.213429260253906250e+01 4.983449578285217285e-01 1.121096101996954530e-05 -1.907899422803893685e-05 -2.360410235269227996e-06 4.659904880099929869e-05
1.940000000000000000e+03 3.543354797363281250e+01 2.110326051712036133e+00 6.932593532837927341e-05 -2.020109786826651543e-05 1.473745214752852917e-05 -1.825406070565804839e-05
1.941000000000000000e+03 3.953467559814453125e+01 5.051892995834350586e-01 3.925642158719711006e-05 5.680737558577675372e-06 1.348114801658084616e-05 -6.384059815900400281e-06
1.942000000000000000e+03 4.112274932861328125e+01 -9.979375600814819336e-01 -3.796998134930618107e-05 -7.982711395015940070e-06 -1.378580691380193457e-05 2.017861879721749574e-05
1.943000000000000000e+03 4.083589553833007812e+01 1.303406119346618652e+00 5.233402043813839555e-05 2.957464676001109183e-05 2.457260052324272692e-05 2.244798452011309564e-06
1.944000000000000000e+03 4.337227630615234375e+01 7.618202567100524902e-01 5.840455287398071960e-06 1.650072408665437251e-05 6.702353857690468431e-06 -1.130810778704471886e-05
1.945000000000000000e+03 2.298237991333007812e+01 -5.104539394378662109e-01 9.005509127746336162e-06 -3.903609922417672351e-06 1.530569647911761422e-06 -1.222701030201278627e-05
1.946000000000000000e+03 2.328134155273437500e+01 -1.219420671463012695e+00 2.543873779359273612e-05 -6.409146863006753847e-06 5.708877779397880659e-06 8.096591955109033734e-06
1.947000000000000000e+03 2.785339355468750000e+01 -1.389642357826232910e+00 4.053517841384746134e-05 -5.601482939709967468e-07 1.199250891659175977e-05 2.368339301028754562e-05
1.948000000000000000e+03 2.898166656494140625e+01 -1.458717346191406250e+00 -3.084477793890982866e-05 -4.685355634137522429e-06 -1.065904052666155621e-05 7.325299520744010806e-06
1.949000000000000000e+03 3.060017967224121094e+01 -1.178178071975708008e+00 -9.696112101664766669e-06 -6.740538537997053936e-06 -4.930995146423811093e-06 2.077453973470255733e-05
1.950000000000000000e+03 3.236959075927734375e+01 -1.038849472999572754e+00 -2.504855501683778130e-06 -1.229373265232425183e-05 -4.439576514414511621e-06 3.022041710210032761e-05
1.951000000000000000e+03 3.441801071166992188e+01 -1.399465560913085938e+00 3.683954128064215183e-05 -3.969500994571717456e-06 9.861011676548514515e-06 2.229388701380230486e-05
1.952000000000000000e+03 3.703990936279296875e+01 -3.258152902126312256e-01 8.802650881989393383e-06 1.682739093666896224e-05 7.689012818445917219e-06 1.736804188112728298e-05
1.953000000000000000e+03 4.086420440673828125e+01 -1.887469530105590820e+00 2.586825030448380858e-05 2.985613718919921666e-05 1.671731661190278828e-05 -2.528705590520985425e-05
1.954000000000000000e+03 4.351263427734375000e+01 -1.005648493766784668e+00 -1.293056266149505973e-05 1.160160445579094812e-05 -3.986874901329429122e-07 8.788427294348366559e-06
1.955000000000000000e+03 4.610398483276367188e+01 -2.746624946594238281e-01 3.775309232878498733e-05 1.702711961115710437e-05 1.643406358198262751e-05 1.845109909481834620e-05
1.956000000000000000e+03 2.114686012268066406e+01 -2.589546680450439453e+00 1.455599522159900516e-05 -8.500531407662492711e-07 4.111782800464425236e-06 -4.333443030191119760e-06
1.957000000000000000e+03 2.274294281005859375e+01 -2.905250787734985352e+00 -6.284600658545969054e-06 -8.057916602410841733e-06 -4.302755314711248502e-06 -5.188196155359037220e-06
1.958000000000000000e+03 2.459486579895019531e+01 -2.514268875122070312e+00 1.865634089881496038e-06 -1.155475820269202814e-05 -2.906737336161313578e-06 -1.192001218441873789e-05
1.959000000000000000e+03 2.718573379516601562e+01 -3.508765697479248047e+00 -7.655880835955031216e-07 -5.316054284776328132e-06 -1.824492755986284465e-06 -1.534184775664471090e-05
1.960000000000000000e+03 2.808093070983886719e+01 -3.193965435028076172e+00 2.832805148500483483e-05 -7.247738722071517259e-06 6.324093646981054917e-06 1.695875835139304399e-05
1.961000000000000000e+03 3.075469970703125000e+01 -2.787278890609741211e+00 6.646655947406543419e-06 -1.245628118340391666e-05 -1.742887548061844427e-06 1.084640371118439361e-05
1.962000000000000000e+03 3.239859008789062500e+01 -2.619133472442626953e+00 2.166326794394990429e-06 -2.425354796287138015e-05 -6.626166396017652005e-06 1.480318223912036046e-05
1.963000000000000000e+03 3.872238159179687500e+01 -2.445162296295166016e+00 -1.797257141333830077e-06 1.287751911149825901e-05 3.324078534205909818e-06 1.868430808826815337e-05
1.964000000000000000e+03 4.048845291137695312e+01 -2.631718158721923828e+00 -4.803154752153204754e-06 -1.111968686018371955e-06 -1.774537054188840557e-06 2.674226197996176779e-05
1.965000000000000000e+03 4.154341888427734375e+01 -3.135068893432617188e+00 1.887760481622535735e-05 1.226323911396320909e-05 9.342253179056569934e-06 -1.595439971424639225e-05
1.966000000000000000e+03 4.428839874267578125e+01 -1.720827221870422363e+00 1.182643154606921598e-05 -3.983639544458128512e-06 2.352837327634915709e-06 -7.848668246879242361e-06
1.967000000000000000e+03 2.296002006530761719e+01 -4.828809261322021484e+00 3.014593630723538809e-06 -1.064809111994691193e-05 -2.290049224029644392e-06 -1.413399149896577001e-05
1.968000000000000000e+03 2.579941940307617188e+01 -5.124112606048583984e+00 1.257456005987478420e-05 -1.020381432681460865e-06 3.466253701844834723e-06 7.179549811553442851e-06
1.969000000000000000e+03 2.794512748718261719e+01 -5.140298843383789062e+00 -8.127114597300533205e-06 8.753388556215213612e-07 -2.175532699766336009e-06 -1.174186036223545671e-05
1.970000000000000000e+03 3.424201583862304688e+01 -4.572436332702636719e+00 2.313667573616839945e-05 -5.867688742000609636e-06 5.180696007300866768e-06 -4.514574811764759943e-06
1.971000000000000000e+03 3.573805236816406250e+01 -4.952235221862792969e+00 -8.262765732069965452e-06 -1.280860851693432778e-05 -6.321412001852877438e-06 -1.554797199787572026e-05
1.972000000000000000e+03 3.816118621826171875e+01 -4.765603065490722656e+00 -2.082588434859644622e-05 9.193700861942488700e-06 -3.489655455268803053e-06 3.251286216254811734e-06
1.973000000000000000e+03 3.987589645385742188e+01 -5.089093685150146484e+00 -5.268785116641083732e-06 1.646256464482576121e-06 -1.086758516066765878e-06 -1.397143478243378922e-05
1.974000000000000000e+03 4.212063217163085938e+01 -4.773967742919921875e+00 2.239228524558711797e-05 7.573061111543211155e-07 6.944877441128483042e-06 -1.110053653974318877e-05
1.975000000000000000e+03 4.084234237670898438e+01 -4.174361705780029297e+00 -1.012903885566629469e-05 3.119792836514534429e-06 -2.102773805745528080e-06 1.922230330819729716e-05
1.976000000000000000e+03 4.458772659301757812e+01 -3.234489679336547852e+00 -1.409077231073752046e-05 -1.278509444091469049e-06 -4.610784344549756497e-06 -8.085475201369263232e-06
1.977000000000000000e+03 4.588367843627929688e+01 -3.663419485092163086e+00 2.550660246924962848e-05 8.736798008612822741e-06 1.027302005240926519e-05 1.086072643374791369e-05
1.978000000000000000e+03 4.732411193847656250e+01 -3.698734521865844727e+00 -3.559888500603847206e-05 -1.339843311143340543e-05 -1.469919516239315271e-05 -1.577476177772041410e-05
1.979000000000000000e+03 2.739772415161132812e+01 -6.786211967468261719e+00 2.397347270743921399e-05 -7.105273198249051347e-06 5.060459898231783882e-06 6.525482149299932644e-06
1.980000000000000000e+03 3.031097793579101562e+01 -6.426055908203125000e+00 1.241110385308274999e-05 -1.805132342269644141e-06 3.181791498718666844e-06 4.864979018748272210e-06
1.981000000000000000e+03 3.303861236572265625e+01 -6.795818328857421875e+00 -1.938626337505411357e-05 -6.115843689258326776e-07 -5.999354470986872911e-06 1.973979578906437382e-06
1.982000000000000000e+03 3.670403289794921875e+01 -6.930253028869628906e+00 -3.727477633219677955e-06 -8.678803737893758807e-07 -1.378607407787058037e-06 -6.383468189596896991e-06
1.983000000000000000e+03 3.749443054199218750e+01 -7.707262039184570312e+00 1.965630417544161901e-06 -7.069515959301497787e-07 3.776036407998617506e-07 1.260831322724698111e-05
1.984000000000000000e+03 4.049419784545898438e+01 -6.933214664459228516e+00 -2.582772867754101753e-05 9.198894076689612120e-06 -4.988650744053302333e-06 2.166874082831782289e-06
1.985000000000000000e+03 4.271779251098632812e+01 -7.275984764099121094e+00 -1.894768683996517211e-05 2.090049974867724814e-06 -5.057291218690807000e-06 8.632516255602240562e-06
1.986000000000000000e+03 4.155120468139648438e+01 -7.076933383941650391e+00 2.829795812431257218e-05 -5.602302280749427155e-06 6.808696980442618951e-06 -5.850035904586547986e-06
1.987000000000000000e+03 4.480106353759765625e+01 -5.717833518981933594e+00 1.563638033985625952e-05 -5.533529019885463640e-06 3.030855623364914209e-06 -2.694813019843422808e-06
1.988000000000000000e+03 4.603415679931640625e+01 -6.308748245239257812e+00 -1.299317409575451165e-05 1.611771222087554634e-05 9.373614489049941767e-07 3.464483143034158275e-06
1.989000000000000000e+03 2.460637855529785156e+01 -8.349658966064453125e+00 4.866651579504832625e-06 1.687073563516605645e-06 1.966117451956961304e-06 1.453231448067526799e-06
1.990000000000000000e+03 2.672806549072265625e+01 -8.552843093872070312e+00 2.862001338144182228e-06 -2.396204536125878803e-06 1.397390576585166855e-07 4.272077148925745860e-06
1.991000000000000000e+03 2.862413024902343750e+01 -8.283842086791992188e+00 -9.236468031303957105e-06 -3.801046659646090120e-07 -2.884971763705834746e-06 -4.722496669273823500e-06
1.992000000000000000e+03 3.326494216918945312e+01 -8.012831687927246094e+00 2.250328543595969677e-05 2.394051989540457726e-06 7.469201136700576171e-06 3.039709781660349108e-07
1.993000000000000000e+03 3.910907363891601562e+01 -7.426195621490478516e+00 -4.510231065069092438e-06 7.710763725299329963e-07 -1.121746322496619541e-06 6.999690867814933881e-06
1.994000000000000000e+03 4.012145996093750000e+01 -7.923137187957763672e+00 1.698505002423189580e-05 -2.926750767073826864e-06 4.217489731672685593e-06 -5.080319169792346656e-06
1.995000000000000000e+03 4.129109573364257812e+01 -8.176909446716308594e+00 -2.474577922839671373e-05 6.069229129934683442e-06 -5.602965302387019619e-06 2.580436785137862898e-06
1.996000000000000000e+03 2.806036567687988281e+01 -1.087881088256835938e+01 1.209541005664505064e-05 1.384949086968845222e-06 4.044107754452852532e-06 -1.832218231356819160e-06
1.997000000000000000e+03 2.927745437622070312e+01 -1.078264045715332031e+01 3.649989366749650799e-06 2.457542905176524073e-06 1.832259727052587550e-06 -5.234758759797841776e-07
1.998000000000000000e+03 3.312313079833984375e+01 -1.113296413421630859e+01 9.755626706464681774e-06 3.263842927481164224e-06 3.905840912921121344e-06 7.645857294846791774e-06
1.999000000000000000e+03 3.886344909667968750e+01 -9.826987266540527344e+00 6.440929155360208824e-06 2.781775492621818557e-06 2.766811348919873126e-06 -5.018267074774485081e-06
2.000000000000000000e+03 4.053542327880859375e+01 -1.037020778656005859e+01 1.577060356794390827e-05 2.620500708871986717e-06 5.517331373994238675e-06 7.686810931772924960e-06
2.001000000000000000e+03 4.244046401977539062e+01 -1.015200996398925781e+01 2.026208312599919736e-05 -4.104647359781665727e-07 5.955485448794206604e-06 2.904420625782222487e-06
2.002000000000000000e+03 4.127807998657226562e+01 -9.250554084777832031e+00 2.508890429453458637e-05 -9.857471923169214278e-07 7.230947176140034571e-06 2.542136599004152231e-06
2.003000000000000000e+03 4.454619598388671875e+01 -8.730104446411132812e+00 5.956362656434066594e-06 7.962991730892099440e-06 4.175806225248379633e-06 -3.716030505529488437e-06
2.004000000000000000e+03 2.660051727294921875e+01 -1.191372585296630859e+01 -9.384983741256291978e-07 -2.020270812863600440e-06 -8.876307333594013471e-07 -3.675075049613951705e-06
2.005000000000000000e+03 3.235623550415039062e+01 -1.337195396423339844e+01 -5.998294909659307450e-06 1.087453753711997706e-07 -1.766864897945197299e-06 -4.292723133403342217e-06
2.006000000000000000e+03 3.701104736328125000e+01 -1.163803195953369141e+01 -4.873559646512148902e-06 -5.590453838522080332e-06 -3.139203954560798593e-06 2.490589849912794307e-06
2.007000000000000000e+03 3.949160385131835938e+01 -1.113993549346923828e+01 9.776346814760472625e-06 5.413881808635778725e-06 4.557068677968345582e-06 2.826457148330518976e-07
2.008000000000000000e+03 4.044041061401367188e+01 -1.217849636077880859e+01 1.074888587027089670e-05 5.308338586473837495e-06 4.817167337023420259e-06 -5.485964607032656204e-07
2.009000000000000000e+03 4.048691940307617188e+01 -1.125704097747802734e+01 -1.139412961492780596e-05 -3.077499286519014277e-06 -4.341488875070353970e-06 -2.529945277274237014e-06
2.010000000000000000e+03 4.386787033081054688e+01 -1.126776599884033203e+01 -1.197890742332674563e-05 -9.180409961118130013e-07 -3.869084594043670222e-06 -2.080693775496911258e-06
2.011000000000000000e+03 3.148601150512695312e+01 -1.422560024261474609e+01 -7.460438609996344894e-06 2.615421180962584913e-06 -1.453505319659598172e-06 -2.777617055471637286e-06
2.012000000000000000e+03 3.402204895019531250e+01 -1.327631664276123047e+01 -7.748064490442629904e-06 1.473465658818895463e-06 -1.882379592643701471e-06 1.220311901306558866e-06
2.013000000000000000e+03 3.503376007080078125e+01 -1.414390945434570312e+01 -6.644967470492701977e-06 -6.777556222914427053e-07 -2.196816922150901519e-06 -3.134740609311847948e-06
2.014000000000000000e+03 3.951793670654296875e+01 -1.314143466949462891e+01 1.401944518875097856e-05 2.057628080365248024e-06 4.823121798835927621e-06 -1.361740373795328196e-06
2.015000000000000000e+03 4.240291213989257812e+01 -1.398658752441406250e+01 7.164041562646161765e-06 4.473973604035563767e-06 3.491404640953987837e-06 1.546354610582056921e-06
2.016000000000000000e+03 4.051639175415039062e+01 -1.400207424163818359e+01 1.103568229154916480e-05 7.617783239766140468e-07 3.539238150551682338e-06 8.013982011334519484e-08
2.017000000000000000e+03 4.420810699462890625e+01 -1.201095771789550781e+01 9.324087841378059238e-06 7.061912583594676107e-06 4.915800218441290781e-06 9.102883495870628394e-07
2.018000000000000000e+03 4.653818893432617188e+01 -1.177483558654785156e+01 -2.793118255794979632e-06 -1.155008612840902060e-05 -4.302961315261200070e-06 3.731602419065893628e-06
2.019000000000000000e+03 4.790721130371093750e+01 -1.321760272979736328e+01 -1.158364830189384520e-05 7.345977905970357824e-07 -3.254715238654171117e-06 -6.169173502712510526e-06
2.020000000000000000e+03 5.010090637207031250e+01 -1.340955924987792969e+01 -1.419873296981677413e-05 6.438775926653761417e-06 -2.327986976524698548e-06 -5.439045480670756660e-07
2.021000000000000000e+03 4.981227493286132812e+01 -1.428829193115234375e+01 7.973615538503509015e-06 -5.850566594745032489e-06 6.369145353346539196e-07 -3.983013812103308737e-06
2.022000000000000000e+03 3.116335678100585938e+01 -1.514247417449951172e+01 5.425236395240062848e-06 -1.652326091061695479e-06 1.131873091253510211e-06 3.177089638484176248e-06
2.023000000000000000e+03 3.229419326782226562e+01 -1.435538101196289062e+01 6.660800863755866885e-06 -1.190002194562111981e-06 1.641239578020758927e-06 3.803522304224316031e-06
2.024000000000000000e+03 3.411560440063476562e+01 -1.432868194580078125e+01 5.942380994383711368e-06 2.589550263110140804e-07 1.860400857367494609e-06 7.583643650832527783e-07
2.025000000000000000e+03 3.587540435791015625e+01 -1.390069484710693359e+01 8.888815500540658832e-06 9.343300462205661461e-07 2.946943823189940304e-06 4.369431280792923644e-06
2.026000000000000000e+03 3.760005950927734375e+01 -1.436621761322021484e+01 6.118013970990432426e-07 3.224262854928383604e-06 1.150819230133492965e-06 -4.025775069749215618e-06
2.027000000000000000e+03 3.857538604736328125e+01 -1.475349140167236328e+01 -1.627893311706429813e-06 -2.152422894141636789e-06 -1.134094873123103753e-06 2.943257186416303739e-06
2.028000000000000000e+03 3.955603027343750000e+01 -1.495792102813720703e+01 7.808903319528326392e-06 1.630550485742787714e-07 2.391587486272328533e-06 -2.665174925198243727e-08
2.029000000000000000e+03 4.061548614501953125e+01 -1.594514560699462891e+01 7.267498858709586784e-06 1.922361661854665726e-06 2.756958110694540665e-06 1.168991502709104680e-06
2.030000000000000000e+03 4.344655609130859375e+01 -1.404681587219238281e+01 -6.103220584918744862e-06 -2.549909368099179119e-06 -2.595939122329582460e-06 -1.575936721565085463e-06
2.031000000000000000e+03 4.777971649169921875e+01 -1.396401309967041016e+01 9.831086572376079857e-06 -1.972559175555943511e-06 2.357558059884468094e-06 1.518744170425634366e-07
2.032000000000000000e+03 4.985873413085937500e+01 -1.610946655273437500e+01 6.821132956247311085e-07 7.383835054497467354e-08 2.267854881665698485e-07 3.372879064045264386e-06
2.033000000000000000e+03 3.278357315063476562e+01 -1.780353164672851562e+01 -3.088123889938287903e-07 -3.553183887561317533e-06 -1.158598820438783150e-06 4.381200255920703057e-07
2.034000000000000000e+03 4.112280654907226562e+01 -1.773055076599121094e+01 9.340530596091412008e-06 7.275485813806881197e-08 2.823985596478451043e-06 -1.350050638393440749e-06
2.035000000000000000e+03 4.312024307250976562e+01 -1.669099426269531250e+01 5.591659373749280348e-06 -1.307529146288288757e-06 1.285239022763562389e-06 1.138209086093411315e-06
2.036000000000000000e+03 4.087965011596679688e+01 -1.691559410095214844e+01 -8.357827937288675457e-06 -1.756280653353314847e-06 -3.034232349818921648e-06 8.772740898166375700e-07
2.037000000000000000e+03 4.421354675292968750e+01 -1.633401679992675781e+01 3.912637112080119550e-06 -2.150773525499971583e-06 5.285590418679930735e-07 1.225289338435686659e-06
2.038000000000000000e+03 4.661285400390625000e+01 -1.533746528625488281e+01 -6.693163413729052991e-06 2.464178351146983914e-06 -1.268695427825150546e-06 1.590834244780126028e-06
2.039000000000000000e+03 4.786346435546875000e+01 -1.644672012329101562e+01 1.794328596815830679e-07 -1.396407583342806902e-06 -3.650924043085979065e-07 -4.477865331864450127e-06
2.040000000000000000e+03 2.732465171813964844e+01 -1.564017963409423828e+01 1.816242388485989068e-06 -4.794329200308311556e-08 5.304897285896004178e-07 -2.933574933194904588e-06
2.041000000000000000e+03 4.039186859130859375e+01 -1.951973342895507812e+01 2.886352376663126051e-06 -1.201554823637707159e-06 5.054392886449932121e-07 -2.266305955345160328e-06
2.042000000000000000e+03 4.371158599853515625e+01 -1.792333030700683594e+01 -6.290243703688247479e-08 -2.604212340884259902e-06 -8.001344440344837494e-07 1.945380972756538540e-06
2.043000000000000000e+03 4.839157485961914062e+01 -1.762642669677734375e+01 -3.060049493797123432e-06 -2.716711378525360487e-06 -1.733028284434112720e-06 2.172478588136073085e-07
2.044000000000000000e+03 4.492026519775390625e+01 -2.884465217590332031e+01 -1.808137446641921997e-01 -1.188669443130493164e+00 -4.108449518680572510e-01 -5.762152671813964844e-01
2.045000000000000000e+03 5.094212722778320312e+01 -2.929012107849121094e+01 1.664661288261413574e+00 1.204318881034851074e+00 8.606940507888793945e-01 7.511951923370361328e-01
2.046000000000000000e+03 4.342504501342773438e+01 -3.358166885375976562e+01 2.113443762063980103e-01 -1.052246212959289551e+00 -2.522705495357513428e-01 1.885539889335632324e-01
2.047000000000000000e+03 4.800614929199218750e+01 -3.033266258239746094e+01 7.076117396354675293e-01 -8.129648119211196899e-02 1.878945827484130859e-01 3.060590624809265137e-01
2.048000000000000000e+03 5.549798965454101562e+01 -3.272778320312500000e+01 3.954512476921081543e-01 2.450755357742309570e+00 8.538619279861450195e-01 -4.942268431186676025e-01
2.049000000000000000e+03 5.846273040771484375e+01 -3.672404098510742188e+01 -2.155837975442409515e-02 9.067938327789306641e-01 2.655706405639648438e-01 -4.218505024909973145e-01
2.050000000000000000e+03 5.448846435546875000e+01 -3.167056465148925781e+01 3.810580074787139893e-01 2.987667083740234375e+00 1.010617494583129883e+00 -3.541624546051025391e-01
2.051000000000000000e+03 5.494276428222656250e+01 -3.136237716674804688e+01 4.597006738185882568e-01 2.955364227294921875e+00 1.024519443511962891e+00 -5.857013463973999023e-01
2.052000000000000000e+03 3.870067214965820312e+01 -3.470540237426757812e+01 -1.257003843784332275e-01 -6.630676984786987305e-01 -2.366304248571395874e-01 -4.523678719997406006e-01
2.053000000000000000e+03 4.727048492431640625e+01 -3.273872375488281250e+01 3.641398549079895020e-01 -7.070820312947034836e-03 1.071207150816917419e-01 5.384196639060974121e-01
2.054000000000000000e+03 5.263352584838867188e+01 -3.323045730590820312e+01 1.188129410147666931e-01 2.047852754592895508e+00 6.499997377395629883e-01 4.203074276447296143e-01
2.055000000000000000e+03 5.579901504516601562e+01 -3.441554260253906250e+01 5.128708854317665100e-02 1.965240001678466797e+00 6.049581170082092285e-01 -3.793421983718872070e-01
2.056000000000000000e+03 2.184629678726196289e+00 -3.482577896118164062e+01 2.328069385839626193e-04 5.792354349978268147e-04 2.436127106193453074e-04 2.318439801456406713e-04
2.057000000000000000e+03 2.758993864059448242e+00 -3.343865966796875000e+01 1.052143707056529820e-04 7.726192707195878029e-04 2.633501135278493166e-04 2.818449574988335371e-04
2.058000000000000000e+03 2.666140794754028320e+00 -3.214341735839843750e+01 -4.779437731485813856e-04 -1.210175105370581150e-04 -1.796883880160748959e-04 6.007748306728899479e-04
2.059000000000000000e+03 3.669725894927978516e+00 -3.553379440307617188e+01 2.533951774239540100e-04 9.623108198866248131e-04 3.647117991931736469e-04 2.266041847178712487e-04
2.060000000000000000e+03 4.046678543090820312e+00 -3.372980117797851562e+01 -2.849936136044561863e-04 9.540865903545636684e-06 -8.263582276413217187e-05 9.742163238115608692e-04
2.061000000000000000e+03 3.207232952117919922e+00 -3.743029022216796875e+01 -2.659827296156436205e-04 6.849852507002651691e-04 1.257007534150034189e-04 2.155729744117707014e-04
2.062000000000000000e+03 5.631557941436767578e+00 -3.385548019409179688e+01 1.594620407558977604e-03 5.866740248166024685e-04 6.543883355334401131e-04 2.959750127047300339e-04
2.063000000000000000e+03 7.810775279998779297e+00 -3.554628372192382812e+01 2.724853111431002617e-03 9.981563780456781387e-04 1.116902800276875496e-03 1.668009790591895580e-03
2.064000000000000000e+03 7.309386730194091797e+00 -3.374903869628906250e+01 -5.758295301347970963e-04 3.893028479069471359e-04 -5.595800030278041959e-05 5.199685692787170410e-04
2.065000000000000000e+03 9.066699981689453125e+00 -3.396987152099609375e+01 1.348468824289739132e-03 1.242814934812486172e-03 7.773850811645388603e-04 1.123037654906511307e-03
2.066000000000000000e+03 1.127140331268310547e+01 -3.439521408081054688e+01 8.447594009339809418e-04 4.914674791507422924e-04 4.008680698461830616e-04 4.148255102336406708e-03
2.067000000000000000e+03 1.604103851318359375e+01 -3.398295211791992188e+01 7.715329062193632126e-03 2.996876602992415428e-03 3.213661722838878632e-03 7.393511012196540833e-03
2.068000000000000000e+03 2.515074539184570312e+01 -3.442628860473632812e+01 1.576302200555801392e-02 -7.133501116186380386e-03 2.588856266811490059e-03 1.090348977595567703e-02
2.069000000000000000e+03 3.714621734619140625e+01 -3.537042617797851562e+01 -9.996622800827026367e-02 -3.733058571815490723e-01 -1.419816315174102783e-01 -3.284354209899902344e-01
2.070000000000000000e+03 3.980631637573242188e+01 -3.616260910034179688e+01 1.903669238090515137e-01 -7.811672091484069824e-01 -1.772400885820388794e-01 -2.382186800241470337e-01
2.071000000000000000e+03 4.163180160522460938e+01 -3.760117721557617188e+01 3.142636418342590332e-01 -7.013292908668518066e-01 -1.161196902394294739e-01 -5.071665719151496887e-02
2.072000000000000000e+03 5.441199111938476562e+01 -3.268215179443359375e+01 2.595111429691314697e-01 2.509637832641601562e+00 8.307447433471679688e-01 -1.718517690896987915e-01
2.073000000000000000e+03 2.354911804199218750e+01 -3.244521331787109375e+01 3.078662976622581482e-02 -7.857877644710242748e-04 9.000252000987529755e-03 5.837020929902791977e-03
2.074000000000000000e+03 5.653820514678955078e+00 -3.579084014892578125e+01 -9.120108443312346935e-04 6.165347294881939888e-04 -8.864282426657155156e-05 1.584963290952146053e-03
2.075000000000000000e+03 9.220090866088867188e+00 -2.902815246582031250e+01 -7.253318326547741890e-04 -2.430292661301791668e-04 -2.905083238147199154e-04 -5.644903867505490780e-04
2.076000000000000000e+03 7.206613540649414062e+00 -2.802371597290039062e+01 -1.513866125606000423e-03 2.172603853978216648e-04 -3.889817162416875362e-04 -1.624310098122805357e-04
2.077000000000000000e+03 3.505898237228393555e+00 -2.929080390930175781e+01 8.226301288232207298e-04 1.275732211070135236e-04 2.850609889719635248e-04 -5.537025863304734230e-04
2.078000000000000000e+03 6.311203956604003906e+00 -2.518418502807617188e+01 -1.166000845842063427e-03 -2.013250632444396615e-04 -4.101977974642068148e-04 -1.693846425041556358e-04
2.079000000000000000e+03 6.664451122283935547e+00 -2.650946998596191406e+01 1.252545975148677826e-03 1.757588761392980814e-04 4.284914466552436352e-04 1.428321993444114923e-04
2.080000000000000000e+03 5.110958576202392578e+00 -2.539297866821289062e+01 1.303016091696918011e-03 1.851824636105448008e-04 4.464595403987914324e-04 -4.501032235566526651e-04
2.081000000000000000e+03 3.890363693237304688e+00 -2.388966178894042969e+01 9.364550351165235043e-04 3.527256776578724384e-04 3.867542254738509655e-04 -7.714852690696716309e-04
2.082000000000000000e+03 2.279661655426025391e+00 -2.213270950317382812e+01 1.335336128249764442e-03 -1.789099187590181828e-04 3.469278744887560606e-04 -1.655841624597087502e-04
2.083000000000000000e+03 4.005725860595703125e+00 -2.029821205139160156e+01 2.430516615277156234e-04 -7.664493750780820847e-05 4.992201502318494022e-05 -1.018941838992759585e-05
2.084000000000000000e+03 3.197256088256835938e+00 -1.980520057678222656e+01 -1.022303476929664612e-03 6.204766395967453718e-05 -2.880767569877207279e-04 -1.166596339317038655e-04
2.085000000000000000e+03 7.921221733093261719e+00 -1.899240303039550781e+01 -6.975390133447945118e-04 -2.842460526153445244e-04 -2.945355081465095282e-04 2.853817131835967302e-04
2.086000000000000000e+03 5.111993312835693359e+00 -1.884029388427734375e+01 8.751574205234646797e-04 -3.685135743580758572e-04 1.519931538496166468e-04 -2.085224259644746780e-04
2.087000000000000000e+03 2.431395530700683594e+00 -1.829009628295898438e+01 -9.520977619104087353e-04 1.225736923515796661e-04 -2.488572208676487207e-04 1.392560807289555669e-04
2.088000000000000000e+03 5.455415725708007812e+00 -1.701448822021484375e+01 6.355547811836004257e-04 4.788627848029136658e-04 3.343252756167203188e-04 -6.014760947437025607e-05
2.089000000000000000e+03 4.013123035430908203e+00 -1.640986824035644531e+01 -3.980414476245641708e-04 -5.655542481690645218e-04 -2.890787145588546991e-04 1.526483392808586359e-04
2.090000000000000000e+03 2.571010351181030273e+00 -1.621098136901855469e+01 6.258092471398413181e-04 3.563741629477590322e-04 2.946550084743648767e-04 3.351430641487240791e-04
2.091000000000000000e+03 1.363655662536621094e+01 -1.198220252990722656e+01 -3.487192152533680201e-04 -2.063661668216809630e-04 -1.665256131673231721e-04 1.061288130586035550e-04
2.092000000000000000e+03 1.394691944122314453e+01 -1.418078994750976562e+01 -8.610006625531241298e-05 -3.838131378870457411e-04 -1.409739634254947305e-04 1.407948002452030778e-04
2.093000000000000000e+03 1.168634605407714844e+01 -1.569306564331054688e+01 -1.171426702057942748e-04 -2.766996913123875856e-04 -1.181527040898799896e-04 3.185495734214782715e-04
2.094000000000000000e+03 1.044793415069580078e+01 -1.604236602783203125e+01 -9.160633780993521214e-04 4.199387331027537584e-05 -2.622208558022975922e-04 -6.263640534598380327e-05
2.095000000000000000e+03 1.056450366973876953e+01 -1.317796897888183594e+01 6.192526598169934005e-06 2.630317612783983350e-05 9.748710908752400428e-06 2.447576262056827545e-04
2.096000000000000000e+03 1.131266212463378906e+01 -1.160754585266113281e+01 6.549060344696044922e-05 -9.459934517508372664e-05 -8.732624337426386774e-06 1.276306429645046592e-04
2.097000000000000000e+03 1.085678291320800781e+01 -1.045183753967285156e+01 -2.077386307064443827e-04 -9.468452481087297201e-05 -9.072694228962063789e-05 -1.225700107170268893e-04
2.098000000000000000e+03 9.476969718933105469e+00 -1.357985019683837891e+01 -1.999196829274296761e-04 3.907600330421701074e-05 -4.825310315936803818e-05 -2.517261891625821590e-04
2.099000000000000000e+03 7.909958362579345703e+00 -1.525684165954589844e+01 3.742942062672227621e-04 1.661144196987152100e-04 1.621225965209305286e-04 1.511625159764662385e-04
2.100000000000000000e+03 5.325533390045166016e+00 -1.465116786956787109e+01 1.331062667304649949e-04 -5.195334088057279587e-04 -1.159281455329619348e-04 3.464093024376779795e-04
2.101000000000000000e+03 1.278189468383789062e+01 -1.497397422790527344e+01 7.110212754923850298e-05 4.871272831223905087e-04 1.674688246566802263e-04 -2.135780378011986613e-04
2.102000000000000000e+03 1.529833030700683594e+01 -1.361710166931152344e+01 -2.895340185204986483e-05 2.929825859609991312e-04 7.920875941636040807e-05 -1.045850804075598717e-04
2.103000000000000000e+03 1.800696563720703125e+01 -1.227984523773193359e+01 -2.186436904594302177e-05 -5.638222864945419133e-05 -2.347397821722552180e-05 -1.664039155002683401e-05
2.104000000000000000e+03 1.456718635559082031e+01 -9.982031822204589844e+00 -2.613539400044828653e-04 -6.471936649177223444e-05 -9.782199049368500710e-05 9.003528975881636143e-05
2.105000000000000000e+03 1.435284137725830078e+01 -6.029139995574951172e+00 -1.302111631957814097e-04 -5.879490709048695862e-05 -5.670182144967839122e-05 -1.667135074967518449e-05
2.106000000000000000e+03 1.330742835998535156e+01 -6.523361206054687500e+00 -1.264389429707080126e-04 -1.305493351537734270e-04 -7.709648343734443188e-05 1.591951149748638272e-05
2.107000000000000000e+03 1.309981727600097656e+01 -5.421609401702880859e+00 -9.670827421359717846e-05 -1.269887288799509406e-04 -6.710910383844748139e-05 -6.740398475812980905e-06
2.108000000000000000e+03 1.246952819824218750e+01 -5.061923027038574219e+00 9.902319288812577724e-05 1.183009153464809060e-04 6.519722955999895930e-05 3.204509630450047553e-05
2.109000000000000000e+03 1.062526035308837891e+01 -5.162649154663085938e+00 -6.405749445548281074e-05 -1.252477813977748156e-04 -5.679158493876457214e-05 -6.824003503425046802e-05
2.110000000000000000e+03 1.069975471496582031e+01 -5.911541938781738281e+00 8.087926107691600919e-05 -4.678446202888153493e-05 1.022844116960186511e-05 5.140591019880957901e-05
2.111000000000000000e+03 1.098506641387939453e+01 -6.727545738220214844e+00 -1.257822150364518166e-04 7.608897431055083871e-05 -1.490797149017453194e-05 -3.625005047069862485e-05
2.112000000000000000e+03 9.712954521179199219e+00 -6.069786071777343750e+00 -1.776098797563463449e-04 -1.299215546168852597e-05 -5.718061220250092447e-05 -1.293071909458376467e-05
2.113000000000000000e+03 1.213159370422363281e+01 -1.389373588562011719e+01 -1.628264144528657198e-04 -1.511764567112550139e-04 -9.420086280442774296e-05 2.718167670536786318e-04
2.114000000000000000e+03 9.230214118957519531e+00 -1.104402256011962891e+01 -2.415586786810308695e-04 -7.983784598764032125e-05 -9.641895303502678871e-05 2.245827927254140377e-04
2.115000000000000000e+03 7.487582683563232422e+00 -1.434377861022949219e+01 -3.634121385402977467e-04 1.595770154381170869e-04 -6.115053110988810658e-05 -2.746155078057199717e-04
2.116000000000000000e+03 2.996148586273193359e+00 -1.201780128479003906e+01 2.305270172655582428e-04 2.350162831135094166e-04 1.396629813825711608e-04 8.116874960251152515e-05
2.117000000000000000e+03 1.753497314453125000e+01 -1.037494850158691406e+01 5.466922812047414482e-05 5.895481808693148196e-05 3.408721386222168803e-05 6.163314537843689322e-05
2.118000000000000000e+03 1.179987144470214844e+01 -1.013884449005126953e+01 -1.862869830802083015e-04 -2.731520908128004521e-05 -6.408066110452637076e-05 -3.767762609641067684e-05
2.119000000000000000e+03 1.298261165618896484e+01 -8.811511993408203125e+00 -1.677420950727537274e-04 -2.028163726208731532e-04 -1.111675446736626327e-04 1.342700852546840906e-04
2.120000000000000000e+03 1.312190532684326172e+01 -7.401466369628906250e+00 9.048368519870564342e-05 7.976788765517994761e-06 2.953814328066073358e-05 -6.068244329071603715e-05
2.121000000000000000e+03 8.221972465515136719e+00 -1.158571052551269531e+01 -5.469240932143293321e-05 8.509075996698811650e-05 9.119506103161256760e-06 -2.679938625078648329e-04
2.122000000000000000e+03 6.437847614288330078e+00 -1.128769588470458984e+01 1.595818030182272196e-04 7.446234667440876365e-05 7.021324563538655639e-05 -9.428176417713984847e-05
2.123000000000000000e+03 1.761510658264160156e+01 -8.029043197631835938e+00 8.731318666832521558e-05 3.584571095416322351e-05 3.694766928674653172e-05 1.162856187875149772e-05
2.124000000000000000e+03 1.653227043151855469e+01 -9.474168777465820312e+00 2.517058783269021660e-05 2.441782726236851886e-06 8.283711395051795989e-06 1.052592924679629505e-04
2.125000000000000000e+03 1.559342479705810547e+01 -8.416322708129882812e+00 -2.763951488304883242e-05 1.190868715639226139e-04 2.743420554907061160e-05 -1.995974744204431772e-04
2.126000000000000000e+03 1.149351215362548828e+01 -8.419288635253906250e+00 2.075290394714102149e-04 -1.345417404081672430e-04 2.189618862757924944e-05 -7.577689393656328321e-05
2.127000000000000000e+03 1.190813159942626953e+01 -8.981491088867187500e+00 -3.745614667423069477e-04 4.213509600958786905e-05 -9.972791303880512714e-05 -2.174916699004825205e-05
2.128000000000000000e+03 7.339601039886474609e+00 -1.009565448760986328e+01 1.635165826883167028e-04 2.586900882306508720e-05 5.681567927240394056e-05 -2.204474149039015174e-04
2.129000000000000000e+03 1.416726016998291016e+01 -1.089551544189453125e+01 3.096117579843848944e-04 6.664698594249784946e-05 1.128776275436393917e-04 -1.236637472175061703e-04
2.130000000000000000e+03 6.451278209686279297e+00 -8.027205467224121094e+00 -4.563582842820324004e-05 -5.366582627175375819e-05 -2.979049713758286089e-05 1.024155862978659570e-04
2.131000000000000000e+03 2.036224603652954102e+00 -6.652760505676269531e+00 -3.493444237392395735e-04 -3.579961048671975732e-05 -1.155432109953835607e-04 -1.272204244742169976e-04
2.132000000000000000e+03 7.240013599395751953e+00 -5.547809600830078125e+00 4.540652298601344228e-05 2.398902579443529248e-04 8.558903937228024006e-05 1.812734808481764048e-05
2.133000000000000000e+03 1.950505495071411133e+00 -5.415908336639404297e+00 3.058736328966915607e-04 2.830345874826889485e-05 1.002531280391849577e-04 8.102555875666439533e-05
2.134000000000000000e+03 1.341302204132080078e+01 -3.698166608810424805e+00 6.638601917074993253e-05 8.149853965733200312e-05 4.436536983121186495e-05 2.059377220575697720e-05
2.135000000000000000e+03 1.178216266632080078e+01 -3.618127346038818359e+00 -5.845320993103086948e-05 -1.068259225576184690e-04 -4.958374120178632438e-05 -5.056117151980288327e-05
2.136000000000000000e+03 1.021718692779541016e+01 -3.593405008316040039e+00 1.715406251605600119e-04 1.825157960411161184e-05 5.693766070180572569e-05 -1.703950601950054988e-06
2.137000000000000000e+03 8.093603134155273438e+00 -4.312657833099365234e+00 -1.144697162089869380e-04 -9.932301327353343368e-05 -6.413782102754339576e-05 7.231703784782439470e-05
2.138000000000000000e+03 6.620373725891113281e+00 -4.695533275604248047e+00 1.128325748140923679e-04 1.869157713372260332e-04 8.992449875222519040e-05 3.412168734939768910e-05
2.139000000000000000e+03 8.681324005126953125e+00 -2.492141246795654297e+00 -4.412551425048150122e-05 4.018263280158862472e-05 -1.182864707516273484e-06 -8.409678230236750096e-06
2.140000000000000000e+03 6.846002101898193359e+00 -3.034052371978759766e+00 1.438883045921102166e-04 1.015513262245804071e-04 7.363189070019870996e-05 8.986666216515004635e-05
2.141000000000000000e+03 5.095234870910644531e+00 -3.771072387695312500e+00 -1.191960618598386645e-04 -1.134746707975864410e-04 -6.980122270761057734e-05 -1.415330771123990417e-04
2.142000000000000000e+03 4.403946876525878906e+00 -1.959670305252075195e+00 1.032956279232166708e-04 5.349580987967783585e-06 3.259356162743642926e-05 4.979255754733458161e-05
2.143000000000000000e+03 5.162364482879638672e+00 -2.894763469696044922e+00 1.135445854743011296e-04 6.587764073628932238e-05 5.382666859077289701e-05 1.014922672766260803e-04
2.144000000000000000e+03 2.713829040527343750e+01 -3.769525527954101562e+01 -2.083369158208370209e-02 -2.390360645949840546e-02 -1.342118903994560242e-02 8.610506192781031132e-04
2.145000000000000000e+03 6.023581314086914062e+01 -3.608428955078125000e+01 1.559410840272903442e-01 1.769671291112899780e-01 9.987246245145797729e-02 -2.845286726951599121e-01
2.146000000000000000e+03 6.158214950561523438e+01 -3.582521057128906250e+01 -2.020251378417015076e-02 3.213263303041458130e-02 3.579035634174942970e-03 -7.196655869483947754e-02
2.147000000000000000e+03 7.809918212890625000e+01 -3.462176132202148438e+01 -2.608421957120299339e-03 -8.274914696812629700e-03 -3.265000879764556885e-03 5.116282962262630463e-03
2.148000000000000000e+03 7.584984588623046875e+01 -3.128543853759765625e+01 -5.768197122961282730e-03 7.464612135663628578e-04 -1.506520784460008144e-03 3.594987327232956886e-03
2.149000000000000000e+03 7.385910797119140625e+01 -2.984030151367187500e+01 -3.221795195713639259e-03 1.752076437696814537e-03 -4.409156099427491426e-04 -1.446786220185458660e-03
2.150000000000000000e+03 7.503363800048828125e+01 -3.141313934326171875e+01 -7.144941017031669617e-03 1.236827461980283260e-03 -1.772434101440012455e-03 3.933120053261518478e-03
2.151000000000000000e+03 7.410325622558593750e+01 -3.260647964477539062e+01 -1.131667476147413254e-02 2.479880349710583687e-03 -2.651038346812129021e-03 7.484483066946268082e-03
2.152000000000000000e+03 7.277242279052734375e+01 -3.128380584716796875e+01 -1.013734750449657440e-02 6.248921854421496391e-04 -2.853736747056245804e-03 8.210049127228558064e-04
2.153000000000000000e+03 7.675495910644531250e+01 -3.434200668334960938e+01 1.003490295261144638e-03 -5.589645355939865112e-03 -1.375846564769744873e-03 8.738054893910884857e-03
2.154000000000000000e+03 7.441730499267578125e+01 -3.411742782592773438e+01 -1.050490979105234146e-02 2.841323846951127052e-03 -2.299075713381171227e-03 1.169178355485200882e-02
2.155000000000000000e+03 6.839720916748046875e+01 -3.335530853271484375e+01 -6.304665654897689819e-02 -1.036882121115922928e-02 -2.202464267611503601e-02 -3.140100045129656792e-03
2.156000000000000000e+03 4.409348297119140625e+01 -3.882658004760742188e+01 2.814581096172332764e-01 -3.255875408649444580e-01 -1.323883142322301865e-02 1.483110785484313965e-01
2.157000000000000000e+03 6.755786895751953125e+01 -4.144607925415039062e+01 7.872951775789260864e-02 1.407795958220958710e-02 2.784224413335323334e-02 6.928193382918834686e-03
2.158000000000000000e+03 3.676125335693359375e+01 -4.099914932250976562e+01 1.886602640151977539e-01 -4.527286291122436523e-01 -7.922051101922988892e-02 -6.369905918836593628e-02
2.159000000000000000e+03 2.637075185775756836e+00 -3.915647888183593750e+01 -1.247763575520366430e-04 6.159701733849942684e-04 1.473581360187381506e-04 2.336783945793285966e-04
2.160000000000000000e+03 7.831513977050781250e+01 -3.339323425292968750e+01 1.524331280961632729e-03 -4.387556109577417374e-03 -8.589674253016710281e-04 3.533193841576576233e-03
2.161000000000000000e+03 7.746002960205078125e+01 -3.216033554077148438e+01 3.870534710586071014e-04 -2.773634158074855804e-03 -7.159741944633424282e-04 2.501282608136534691e-03
2.162000000000000000e+03 7.724418640136718750e+01 -3.321550369262695312e+01 -5.254374351352453232e-03 -3.164343303069472313e-03 -2.525615273043513298e-03 6.006860639899969101e-03
2.163000000000000000e+03 7.292709350585937500e+01 -2.540490722656250000e+01 -2.450654469430446625e-02 2.056593541055917740e-03 -6.734985392540693283e-03 7.359311915934085846e-03
2.164000000000000000e+03 7.794915008544921875e+01 -2.534698486328125000e+01 -8.356114849448204041e-03 -3.234183415770530701e-03 -3.477089339867234230e-03 -6.244389805942773819e-03
2.165000000000000000e+03 7.933683776855468750e+01 -2.508418655395507812e+01 8.149119094014167786e-04 -1.314644468948245049e-03 -1.499197678640484810e-04 3.185860405210405588e-04
2.166000000000000000e+03 7.920796966552734375e+01 2.371545410156250000e+01 -5.972712300717830658e-03 -2.396598815917968750e+00 -7.207714319229125977e-01 5.643553286790847778e-02
2.167000000000000000e+03 7.927091979980468750e+01 1.663410186767578125e+01 4.941830411553382874e-03 -2.582465648651123047e+00 -7.732571363449096680e-01 3.058136254549026489e-02
2.168000000000000000e+03 7.937442779541015625e+01 -5.676949501037597656e+00 -3.561656223610043526e-03 -1.727823853492736816e+00 -5.194156169891357422e-01 -5.837775766849517822e-02
2.169000000000000000e+03 8.480201721191406250e+00 1.891523480415344238e+00 1.809743844205513597e-05 5.695653726434102282e-06 7.137927696021506563e-06 -9.518669685348868370e-06
2.170000000000000000e+03 4.792557239532470703e+00 1.861220955848693848e+00 4.487698674893181305e-07 -4.043886747240321711e-06 -1.078535092347010504e-06 -2.422468696750001982e-06
2.171000000000000000e+03 3.358405113220214844e+00 1.885319828987121582e+00 -1.409331389368162490e-06 -4.368504960439167917e-06 -1.733350927679566666e-06 -5.631825956697866786e-07
2.172000000000000000e+03 1.160743522644042969e+01 1.543072223663330078e+00 2.415244125586468726e-05 9.034311005962081254e-06 9.956025678548030555e-06 -6.378218586178263649e-06
2.173000000000000000e+03 1.323396492004394531e+01 7.941804528236389160e-01 2.547440271882805973e-05 4.965897460351698101e-06 9.132089871854986995e-06 -9.352806046081241220e-06
2.174000000000000000e+03 1.466761684417724609e+01 -1.709322258830070496e-02 2.828318429237697273e-05 2.362180339332553558e-06 9.193609002977609634e-06 -1.081210757547523826e-05
2.175000000000000000e+03 1.742302894592285156e+01 -1.700828075408935547e+00 2.275762017234228551e-05 5.012782366975443438e-06 8.331120625371113420e-06 -1.166788388218265027e-05
2.176000000000000000e+03 1.874770164489746094e+01 -2.673474788665771484e+00 1.642173810978420079e-05 6.442739049816736951e-06 6.859343557152897120e-06 -9.914590009429957718e-06
2.177000000000000000e+03 2.220291328430175781e+01 -6.135955333709716797e+00 8.161478945112321526e-06 -3.065604460061877035e-06 1.528762254565663170e-06 -6.494546596513828263e-06
2.178000000000000000e+03 2.309964561462402344e+01 -7.481669902801513672e+00 4.857840849581407383e-06 -1.230932980433863122e-06 1.088072281163476873e-06 -7.049869964248500764e-06
2.179000000000000000e+03 2.395276451110839844e+01 -8.814793586730957031e+00 3.616685262386454269e-06 -1.265972628061717842e-06 7.052137789287371561e-07 -4.894074663752689958e-06
2.180000000000000000e+03 2.554098701477050781e+01 -1.152164363861083984e+01 4.103617712303275766e-08 -1.299525138165336102e-06 -3.775466836941632209e-07 -1.972666495930752717e-06
2.181000000000000000e+03 2.702409744262695312e+01 -1.496401309967041016e+01 -2.782461479000630789e-06 -2.358432915627872717e-08 -8.418137440457940102e-07 1.947808186741895042e-06
2.182000000000000000e+03 3.951221847534179688e+01 -1.900057411193847656e+01 3.123172064078971744e-06 1.832187876971147489e-06 1.486607970946351998e-06 2.349126134504331276e-06
2.183000000000000000e+03 4.238526535034179688e+01 -1.983495712280273438e+01 2.082405444525647908e-06 1.536198737994709518e-06 1.085581175175320823e-06 4.326189184666873189e-07
2.184000000000000000e+03 4.176150894165039062e+01 -2.011692047119140625e+01 -1.022498850034025963e-06 -2.293922307217144407e-06 -9.949263812814024277e-07 1.294924771855221479e-07
2.185000000000000000e+03 4.384934997558593750e+01 -1.927342224121093750e+01 2.978239081130595878e-06 1.073997395906189922e-06 1.215670977217087056e-06 8.732091316687728977e-08
2.186000000000000000e+03 4.698003387451171875e+01 -1.859685325622558594e+01 1.780288812369690277e-06 1.617463908587524202e-06 1.019325850393215660e-06 -7.996227964213176165e-07
2.187000000000000000e+03 4.994300842285156250e+01 -1.802886962890625000e+01 1.505771706433733925e-06 3.243821765863685869e-06 1.424878064426593482e-06 -2.793213980112341233e-07
2.188000000000000000e+03 5.143350219726562500e+01 -1.770232963562011719e+01 1.752683488120965194e-06 2.587902372397365980e-06 1.302175746786815580e-06 -7.427817081406828947e-07
2.189000000000000000e+03 5.277198028564453125e+01 -1.744265556335449219e+01 -4.434436959854792804e-07 8.372880984097719193e-06 2.378831140958936885e-06 1.527706814385965117e-07
2.190000000000000000e+03 5.470404434204101562e+01 -1.601642227172851562e+01 9.659736861067358404e-06 5.645970304613001645e-06 4.591712240653578192e-06 6.767590548406587914e-06
2.191000000000000000e+03 5.711889648437500000e+01 -1.648642158508300781e+01 9.575132025929633528e-06 1.218190391227835789e-05 6.527110599563457072e-06 5.801279257866553962e-06
2.192000000000000000e+03 5.838986587524414062e+01 -1.602180290222167969e+01 -6.976948043302400038e-06 2.030803216257481836e-06 -1.483843448113475461e-06 -1.483062646912003402e-06
2.193000000000000000e+03 4.943159103393554688e+01 -6.064788818359375000e+00 3.261727761127986014e-05 -2.379494389970204793e-06 9.071334716281853616e-06 8.922713277570437640e-06
2.194000000000000000e+03 5.229348754882812500e+01 3.316565322875976562e+01 -1.159427221864461899e-02 -4.216128028929233551e-03 -4.743120167404413223e-03 -5.572346970438957214e-03
2.195000000000000000e+03 6.384867858886718750e+01 -1.479511260986328125e+01 -3.053356707096099854e-01 8.678026199340820312e-01 1.687400937080383301e-01 2.443227767944335938e-01
2.196000000000000000e+03 6.299366760253906250e+01 -1.621997451782226562e+01 -8.783958554267883301e-01 8.612262606620788574e-01 -5.150873679667711258e-03 2.915853401646018028e-03
2.197000000000000000e+03 6.205456542968750000e+01 -1.757365226745605469e+01 -1.564468622207641602e+00 9.796264171600341797e-01 -1.754526644945144653e-01 1.600610762834548950e-01
2.198000000000000000e+03 6.004152297973632812e+01 -1.917226791381835938e+01 -2.536112785339355469e+00 6.309694647789001465e-01 -5.715430378913879395e-01 1.810441911220550537e-01
2.199000000000000000e+03 5.586866760253906250e+01 -2.065925407409667969e+01 -3.347043514251708984e+00 -7.517123222351074219e-02 -1.026664376258850098e+00 -4.989554584026336670e-01
2.200000000000000000e+03 5.433705139160156250e+01 -2.093017768859863281e+01 -3.530932188034057617e+00 -8.969467133283615112e-02 -1.086188077926635742e+00 -8.352333307266235352e-01
2.201000000000000000e+03 5.136617660522460938e+01 -2.146355819702148438e+01 -3.061726331710815430e+00 -2.414966672658920288e-01 -9.909669160842895508e-01 -1.434762477874755859e+00
2.202000000000000000e+03 4.703481674194335938e+01 -2.241628646850585938e+01 -1.270759224891662598e+00 -5.247406363487243652e-01 -5.386499166488647461e-01 -1.355285286903381348e+00
2.203000000000000000e+03 4.846563339233398438e+01 -2.208333015441894531e+01 -1.845347523689270020e+00 -4.777142107486724854e-01 -6.969185471534729004e-01 -1.499468088150024414e+00
2.204000000000000000e+03 4.561237335205078125e+01 -2.281729888916015625e+01 -7.431133985519409180e-01 -5.752868056297302246e-01 -3.955200612545013428e-01 -1.148390293121337891e+00
2.205000000000000000e+03 2.243622970581054688e+01 -1.375501537322998047e+01 2.887725167965982109e-05 -1.856924427556805313e-05 3.092401811954914592e-06 -2.580220098025165498e-05
2.206000000000000000e+03 2.188289070129394531e+01 -1.260211563110351562e+01 3.199534694431349635e-05 5.445019996841438115e-05 2.593366480141412467e-05 -1.710354081296827644e-05
2.207000000000000000e+03 2.039636039733886719e+01 -1.030374908447265625e+01 1.022067808662541211e-04 4.201312549412250519e-05 4.326597263570874929e-05 5.563521699514240026e-05
2.208000000000000000e+03 2.120258140563964844e+01 -1.149314689636230469e+01 3.446839764364995062e-05 1.011330532492138445e-04 4.068043563165701926e-05 3.434772952459752560e-05
2.209000000000000000e+03 1.955349731445312500e+01 -9.177219390869140625e+00 8.306017116410657763e-05 5.211143434280529618e-05 4.055148019688203931e-05 2.840205343090929091e-05
2.210000000000000000e+03 1.868666839599609375e+01 -8.072112083435058594e+00 8.033301128307357430e-05 4.447709943633526564e-05 3.744303467101417482e-05 2.616705751279368997e-05
2.211000000000000000e+03 1.681021308898925781e+01 -6.038327217102050781e+00 8.743931539356708527e-05 4.634060678654350340e-05 4.013397847302258015e-05 3.834531526081264019e-05
2.212000000000000000e+03 1.776767158508300781e+01 -7.028806209564208984e+00 7.570429443148896098e-05 4.514132888289168477e-05 3.625368844950571656e-05 2.825995397870428860e-05
2.213000000000000000e+03 1.574103355407714844e+01 -5.190892696380615234e+00 1.060861177393235266e-04 3.476655911072157323e-05 4.225580414640717208e-05 4.611643089447170496e-05
2.214000000000000000e+03 1.460580062866210938e+01 -4.410360813140869141e+00 9.825261076912283897e-05 4.996917050448246300e-05 4.446653474587947130e-05 2.371376285736914724e-05
2.215000000000000000e+03 8.097608566284179688e+00 -2.781205177307128906e+00 1.529180153738707304e-04 -3.228228888474404812e-05 3.619071867433376610e-05 -2.526445678086020052e-05
2.216000000000000000e+03 6.054059505462646484e+00 -1.993670463562011719e+00 7.499875937355682254e-05 5.013897316530346870e-05 3.754131830646656454e-05 5.720946137444116175e-05
2.217000000000000000e+03 5.227747917175292969e+00 -1.974121570587158203e+00 -8.187047205865383148e-05 -3.366002783877775073e-05 -3.465915142442099750e-05 -6.244422547752037644e-05
2.218000000000000000e+03 3.578068017959594727e+00 -1.937312960624694824e+00 -1.061874936567619443e-04 5.643635631713550538e-06 -3.016315895365551114e-05 -1.831287954701110721e-05
2.219000000000000000e+03 2.758934020996093750e+00 -1.889983654022216797e+00 9.156106534646824002e-05 4.797590804628271144e-07 2.761224823188968003e-05 -1.067013818101258948e-05
2.220000000000000000e+03 1.291311025619506836e+00 -1.842539668083190918e+00 8.097029422060586512e-06 3.837714393739588559e-05 1.394225182593800128e-05 -6.921577551111113280e-06
2.221000000000000000e+03 7.913554906845092773e-01 -3.063420677185058594e+01 -3.008213243447244167e-04 -2.481482515577226877e-04 -1.646908785915002227e-04 1.984612463274970651e-04
2.222000000000000000e+03 7.812399864196777344e-01 -2.348179817199707031e+01 1.163930282928049564e-03 3.927521538571454585e-05 3.609616542235016823e-04 -2.222141047241166234e-04
2.223000000000000000e+03 7.947293090820312500e+01 -3.207674407958984375e+01 1.703737303614616394e-03 -1.360957627184689045e-03 1.028338811011053622e-04 4.871584533248096704e-04
2.224000000000000000e+03 7.914383697509765625e+01 -3.744328689575195312e+01 3.405591938644647598e-03 -1.578136160969734192e-02 -3.712730947881937027e-03 2.058202167972922325e-03
2.225000000000000000e+03 7.887131500244140625e+01 -2.930068206787109375e+01 -7.734583341516554356e-04 -3.002691373694688082e-04 -3.221182269044220448e-04 4.622790729627013206e-04
2.226000000000000000e+03 7.812576293945312500e+01 -2.927959823608398438e+01 2.474776119925081730e-04 -2.434848138364031911e-04 1.197838969346776139e-06 -2.793001476675271988e-04
2.227000000000000000e+03 7.661919403076171875e+01 -2.934433937072753906e+01 -4.303607274778187275e-04 -4.298192507121711969e-04 -2.580540021881461143e-04 2.551952202338725328e-04
2.228000000000000000e+03 7.359632110595703125e+01 -2.920375633239746094e+01 -2.355366945266723633e-03 -1.964920520549640059e-04 -7.655576919205486774e-04 -3.340918337926268578e-04
2.229000000000000000e+03 7.291629791259765625e+01 -2.928786277770996094e+01 -2.505999524146318436e-03 6.780741969123482704e-04 -5.483776330947875977e-04 -8.470639586448669434e-04
2.230000000000000000e+03 5.720915222167968750e+01 -3.367553329467773438e+01 5.284941792488098145e-01 1.444027900695800781e+00 5.917566418647766113e-01 -8.391480445861816406e-01
2.231000000000000000e+03 5.505499649047851562e+01 -2.957297325134277344e+01 -8.574295789003372192e-02 3.979106903076171875e+00 1.168009161949157715e+00 -9.764631390571594238e-01
2.232000000000000000e+03 5.574587631225585938e+01 -2.985885047912597656e+01 -4.681284190155565739e-05 2.575584888458251953e+00 7.726614475250244141e-01 -1.011967778205871582e+00
2.233000000000000000e+03 5.473499679565429688e+01 -2.600152015686035156e+01 2.427265644073486328e+00 4.545010089874267578e+00 2.091682672500610352e+00 1.634436130523681641e+00
2.234000000000000000e+03 5.452459716796875000e+01 -2.604177665710449219e+01 2.458317518234252930e+00 4.664347648620605469e+00 2.136799573898315430e+00 1.120094060897827148e+00
2.235000000000000000e+03 5.431423187255859375e+01 -2.610427665710449219e+01 2.593750238418579102e+00 4.646595478057861328e+00 2.172103643417358398e+00 5.830841064453125000e-01
2.236000000000000000e+03 5.390778732299804688e+01 -2.630609703063964844e+01 3.123858690261840820e+00 4.131455898284912109e+00 2.176594257354736328e+00 -1.605638265609741211e-01
2.237000000000000000e+03 5.354700469970703125e+01 -2.662587547302246094e+01 3.902472972869873047e+00 3.490391254425048828e+00 2.217859268188476562e+00 -4.228744506835937500e-01
2.238000000000000000e+03 5.277310180664062500e+01 -2.766496849060058594e+01 3.962879180908203125e+00 2.248619556427001953e+00 1.863449573516845703e+00 7.694569230079650879e-01
2.239000000000000000e+03 5.321626663208007812e+01 -2.769485664367675781e+01 4.498332977294921875e+00 2.904441356658935547e+00 2.220832347869873047e+00 1.046073555946350098e+00
2.240000000000000000e+03 5.323874664306640625e+01 -2.793405532836914062e+01 4.214047431945800781e+00 3.136904001235961914e+00 2.205285310745239258e+00 1.374767780303955078e+00
2.241000000000000000e+03 5.347094726562500000e+01 -2.853962516784667969e+01 2.773023366928100586e+00 4.246049404144287109e+00 2.105721712112426758e+00 1.929467558860778809e+00
2.242000000000000000e+03 5.371027755737304688e+01 -2.893106269836425781e+01 1.462926149368286133e+00 4.827086448669433594e+00 1.887003779411315918e+00 1.486135482788085938e+00
2.243000000000000000e+03 5.330719375610351562e+01 -2.915526580810546875e+01 1.561398148536682129e+00 4.042139053344726562e+00 1.681061148643493652e+00 1.459805369377136230e+00
2.244000000000000000e+03 5.744600677490234375e+01 -2.685541725158691406e+01 2.661132812500000000e+00 9.122667312622070312e-01 1.072019815444946289e+00 1.798683643341064453e+00
2.245000000000000000e+03 5.699415969848632812e+01 -2.619709205627441406e+01 3.590049982070922852e+00 7.222280502319335938e-01 1.293683409690856934e+00 2.505168676376342773e+00
2.246000000000000000e+03 5.704545593261718750e+01 -2.675996017456054688e+01 3.165438890457153320e+00 4.152079224586486816e-01 1.074194073677062988e+00 1.964440584182739258e+00
2.247000000000000000e+03 5.685214614868164062e+01 -2.667006492614746094e+01 3.458860635757446289e+00 4.134830236434936523e-01 1.161703109741210938e+00 2.167637348175048828e+00
2.248000000000000000e+03 5.494386291503906250e+01 -2.598920822143554688e+01 2.538948297500610352e+00 4.317233085632324219e+00 2.056854486465454102e+00 2.119266986846923828e+00
2.249000000000000000e+03 5.518147277832031250e+01 -2.563640403747558594e+01 2.378715991973876953e+00 3.295224905014038086e+00 1.702182173728942871e+00 2.246178627014160156e+00
2.250000000000000000e+03 5.340486145019531250e+01 -2.608410453796386719e+01 2.794875621795654297e+00 2.988325834274291992e+00 1.734960436820983887e+00 -5.191966295242309570e-01
2.251000000000000000e+03 5.341392135620117188e+01 -2.833465576171875000e+01 3.505219936370849609e+00 3.917431116104125977e+00 2.226795434951782227e+00 1.975459218025207520e+00
2.252000000000000000e+03 5.299197006225585938e+01 -2.837636566162109375e+01 3.135059356689453125e+00 3.129781007766723633e+00 1.879452109336853027e+00 1.524424314498901367e+00
2.253000000000000000e+03 5.535674285888671875e+01 -2.606146812438964844e+01 3.042107343673706055e+00 3.539695262908935547e+00 1.974540829658508301e+00 2.940801143646240234e+00
2.254000000000000000e+03 5.332695007324218750e+01 -2.724543380737304688e+01 4.774579524993896484e+00 2.949117422103881836e+00 2.317109107971191406e+00 2.625482678413391113e-01
2.255000000000000000e+03 5.410894775390625000e+01 -2.619222259521484375e+01 2.842601776123046875e+00 4.489264011383056641e+00 2.199559688568115234e+00 1.206884682178497314e-01
2.256000000000000000e+03 5.326724243164062500e+01 -2.745848655700683594e+01 4.730656623840332031e+00 2.871464014053344727e+00 2.280636310577392578e+00 6.376817822456359863e-01
2.257000000000000000e+03 5.339545440673828125e+01 -2.704211235046386719e+01 4.619144439697265625e+00 3.064457654953002930e+00 2.305080652236938477e+00 -6.310085207223892212e-02
2.258000000000000000e+03 5.368788146972656250e+01 -2.596769714355468750e+01 2.579819679260253906e+00 3.459632396697998047e+00 1.811835646629333496e+00 -2.958295047283172607e-01
2.259000000000000000e+03 5.469401931762695312e+01 -2.562621498107910156e+01 2.089201688766479492e+00 3.759975433349609375e+00 1.754753112792968750e+00 1.424028396606445312e+00
2.260000000000000000e+03 5.581233215332031250e+01 -2.601134490966796875e+01 3.467463970184326172e+00 2.167257785797119141e+00 1.690416455268859863e+00 3.145097494125366211e+00
2.261000000000000000e+03 5.425957870483398438e+01 -2.929283905029296875e+01 2.334538549184799194e-01 5.491070747375488281e+00 1.717357397079467773e+00 4.119491577148437500e-01
2.262000000000000000e+03 5.387801361083984375e+01 -2.907632637023925781e+01 1.028471946716308594e+00 5.046692371368408203e+00 1.822549223899841309e+00 1.196443438529968262e+00
2.263000000000000000e+03 5.558494567871093750e+01 -2.998117065429687500e+01 -9.280452877283096313e-02 2.873502492904663086e+00 8.342093825340270996e-01 -1.000650763511657715e+00
2.264000000000000000e+03 5.523989486694335938e+01 -2.965055274963378906e+01 -9.446260333061218262e-02 3.725783348083496094e+00 1.089396238327026367e+00 -1.101245999336242676e+00
2.265000000000000000e+03 5.486664962768554688e+01 -2.949222946166992188e+01 -1.543120443820953369e-01 4.570934772491455078e+00 1.324986815452575684e+00 -7.537463903427124023e-01
2.266000000000000000e+03 5.538919448852539062e+01 -3.000122261047363281e+01 1.090106442570686340e-01 3.363585233688354492e+00 1.041778802871704102e+00 -1.090194106101989746e+00
2.267000000000000000e+03 5.631385803222656250e+01 -2.617923736572265625e+01 3.808983325958251953e+00 1.117557764053344727e+00 1.477962255477905273e+00 2.959006547927856445e+00
2.268000000000000000e+03 5.627449417114257812e+01 -2.647752380371093750e+01 4.110700607299804688e+00 8.770356774330139160e-01 1.496320962905883789e+00 2.899850845336914062e+00
2.269000000000000000e+03 5.467160415649414062e+01 -2.942457199096679688e+01 -6.474492698907852173e-02 4.766896247863769531e+00 1.410645365715026855e+00 -4.762483835220336914e-01
2.270000000000000000e+03 5.542135620117187500e+01 -2.971911048889160156e+01 -1.454298794269561768e-01 3.106565713882446289e+00 8.883407711982727051e-01 -1.043126225471496582e+00
2.271000000000000000e+03 5.559494781494140625e+01 -2.977439689636230469e+01 9.169114381074905396e-02 2.892839193344116211e+00 8.953590989112854004e-01 -1.000260710716247559e+00
2.272000000000000000e+03 5.596133422851562500e+01 -2.611695289611816406e+01 3.716202735900878906e+00 1.837404012680053711e+00 1.666082024574279785e+00 3.231618404388427734e+00
2.273000000000000000e+03 2.802489662170410156e+01 -1.525170898437500000e+01 -4.231774710206082091e-06 -2.210829137538894429e-07 -1.335857291451247875e-06 7.976957050459532184e-08
2.274000000000000000e+03 2.759810638427734375e+01 -1.457422542572021484e+01 3.623236125349649228e-06 3.561192443157779053e-07 1.193806610899628140e-06 -1.946068096003727987e-06
2.275000000000000000e+03 7.427389526367187500e+01 -2.927103233337402344e+01 -3.996791318058967590e-03 -1.925605465658009052e-05 -1.204814179800450802e-03 1.223464147187769413e-03
2.276000000000000000e+03 1.629421997070312500e+01 -5.594435691833496094e+00 -9.989960381062701344e-05 -3.898236172972247005e-05 -4.166458893450908363e-05 -4.582833207678049803e-05
2.277000000000000000e+03 1.585912227630615234e+01 -6.070638179779052734e+00 1.068741257768124342e-04 3.818449113168753684e-05 4.351758252596482635e-05 4.785968849319033325e-05
2.278000000000000000e+03 1.719693565368652344e+01 -7.476435184478759766e+00 -8.560962305637076497e-05 -3.428888885537162423e-05 -3.596955139073543251e-05 -7.177123734436463565e-06
2.279000000000000000e+03 1.802581596374511719e+01 -8.590468406677246094e+00 -1.037279289448633790e-04 -3.936430221074260771e-05 -4.292766971047967672e-05 -7.149714747356483713e-06
2.280000000000000000e+03 1.294489860534667969e+01 -4.371804237365722656e+00 -8.255455031758174300e-05 -9.662516822572797537e-05 -5.375391629058867693e-05 -1.794554555090144277e-05
2.281000000000000000e+03 1.280952358245849609e+01 -3.346256971359252930e+00 -5.397678978624753654e-05 -9.364618745166808367e-05 -4.428689499036408961e-05 -3.000282777065876871e-05
2.282000000000000000e+03 1.234964847564697266e+01 -4.004133224487304688e+00 6.532875704579055309e-05 1.112087265937589109e-04 5.296124800224788487e-05 2.813723585859406739e-05
2.283000000000000000e+03 2.128735733032226562e+01 -1.283958911895751953e+01 -3.294496855232864618e-05 -8.553106454201042652e-05 -3.554280920070596039e-05 7.743424794171005487e-05
2.284000000000000000e+03 5.909751892089843750e+01 -2.120163917541503906e+01 -8.801820278167724609e-01 9.579899311065673828e-01 2.334237471222877502e-02 9.599701762199401855e-01
2.285000000000000000e+03 5.904620361328125000e+01 -2.027399826049804688e+01 -1.923301458358764648e+00 5.873014926910400391e-01 -4.007999897003173828e-01 3.741222620010375977e-01
2.286000000000000000e+03 4.425083923339843750e+01 -2.400748252868652344e+01 -1.932341903448104858e-01 -8.760254979133605957e-01 -3.207778930664062500e-01 -9.525887966156005859e-01
2.287000000000000000e+03 4.792860412597656250e+01 -2.293953895568847656e+01 -1.028920650482177734e+00 -5.917571783065795898e-01 -4.862033426761627197e-01 -1.564734578132629395e+00
2.288000000000000000e+03 4.934387207031250000e+01 -2.254000091552734375e+01 -1.517713665962219238e+00 -4.567929506301879883e-01 -5.923519730567932129e-01 -1.624938726425170898e+00
2.289000000000000000e+03 5.281506729125976562e+01 -1.612378501892089844e+01 6.801354174967855215e-06 4.530659680312965065e-06 3.399604111109510995e-06 2.146928864021901973e-06
2.290000000000000000e+03 1.002185153961181641e+01 2.502495527267456055e+00 9.263507308787666261e-06 1.277343130823282991e-06 3.162255325150908902e-06 -9.316891919297631830e-06
2.291000000000000000e+03 9.286281585693359375e+00 2.582252025604248047e+00 1.833155329222790897e-05 8.837560017127543688e-06 8.150734174705576152e-06 -1.203609372169012204e-05
2.292000000000000000e+03 8.545939445495605469e+00 2.670300483703613281e+00 3.314163222967181355e-06 1.275866679861792363e-06 1.377008970848692115e-06 -8.927665476221591234e-06
2.293000000000000000e+03 7.779269695281982422e+00 2.751500844955444336e+00 1.706626426312141120e-05 6.991394002398010343e-06 7.217297479655826464e-06 -9.618575859349220991e-06
2.294000000000000000e+03 4.152434349060058594e+00 2.583708524703979492e+00 -4.716445801022928208e-06 -8.201580499189731199e-07 -1.660981183704279829e-06 -3.734183792403200641e-06
2.295000000000000000e+03 2.795944213867187500e+00 2.769295454025268555e+00 -1.741052642501017544e-06 -3.489088385322247632e-06 -1.569042296978295781e-06 2.045342171186348423e-07
2.296000000000000000e+03 6.144627571105957031e+00 2.865058898925781250e+00 1.535328738100361079e-05 6.145429324533324689e-06 6.449614829762140289e-06 -7.084970548021374270e-06
2.297000000000000000e+03 5.412558078765869141e+00 2.712846994400024414e+00 2.360416601732140407e-06 -1.590673150531074498e-06 2.309230353603197727e-07 -5.895631147723179311e-06
2.298000000000000000e+03 4.795498371124267578e+00 2.567349672317504883e+00 1.128155599872115999e-05 3.677892664200044237e-06 4.487834758037934080e-06 -7.909220585133880377e-06
2.299000000000000000e+03 1.334351658821105957e+00 3.350548982620239258e+00 -2.070118398478371091e-06 -3.868484782287850976e-06 -1.781580976967234164e-06 3.464792371232761070e-06
2.300000000000000000e+03 2.720127677917480469e+01 -1.400572776794433594e+01 -2.816270580296986736e-06 4.777003255185263697e-07 -7.015710821178799961e-07 3.348140808157040738e-06
2.301000000000000000e+03 2.699202728271484375e+01 -1.341789054870605469e+01 -2.640005902776465518e-07 -2.789358632071525790e-06 -9.160077638625807595e-07 -4.066763267474016175e-06
2.302000000000000000e+03 2.810360717773437500e+01 -1.237805843353271484e+01 7.031150289549259469e-06 1.504636315985408146e-06 2.560735993029084057e-06 -2.621833800731110387e-06
2.303000000000000000e+03 2.600915908813476562e+01 -1.031375408172607422e+01 3.345485765748890117e-06 -1.004563728201901540e-06 7.022765657893614843e-07 -4.500643171923002228e-06
2.304000000000000000e+03 5.077041244506835938e+01 -2.217074966430664062e+01 -2.063125610351562500e+00 -2.598911225795745850e-01 -6.969050168991088867e-01 -1.547079205513000488e+00
2.305000000000000000e+03 5.138041305541992188e+01 -1.685814666748046875e+01 -3.745304411495453678e-06 -3.829514753306284547e-06 -2.272445726703153923e-06 -5.016736963625589851e-07
2.306000000000000000e+03 4.910297012329101562e+01 -1.747647476196289062e+01 3.005959342772257514e-06 2.760336656137951650e-06 1.729888822410430294e-06 -1.312121071350702550e-06
2.307000000000000000e+03 7.738230133056640625e+01 -3.026302909851074219e+01 3.171060598106123507e-05 -1.127015333622694016e-03 -3.285914135631173849e-04 7.883612415753304958e-04
2.308000000000000000e+03 5.596446228027343750e+01 -2.143658638000488281e+01 -2.008332252502441406e+00 1.371192634105682373e-01 -5.613639354705810547e-01 -6.398820132017135620e-02
2.309000000000000000e+03 5.441346740722656250e+01 -2.157281112670898438e+01 -2.515661239624023438e+00 1.239051073789596558e-01 -7.175267934799194336e-01 -5.741788148880004883e-01
2.310000000000000000e+03 5.366880035400390625e+01 -2.165044021606445312e+01 -2.623756647109985352e+00 1.118197664618492126e-01 -7.535810470581054688e-01 -8.372142314910888672e-01
2.311000000000000000e+03 4.693305587768554688e+01 -1.784766006469726562e+01 -3.030312882401631214e-06 -1.508870923316862900e-06 -1.361755153084232006e-06 1.016123064800922293e-06
2.312000000000000000e+03 7.499116516113281250e+01 -3.040325546264648438e+01 -5.793910473585128784e-03 1.226602937094867229e-03 -1.370192272588610649e-03 2.858620428014546633e-04
2.313000000000000000e+03 7.419243621826171875e+01 -3.056360816955566406e+01 -4.101138096302747726e-03 -1.038505812175571918e-03 -1.541893230751156807e-03 2.153629437088966370e-03
2.314000000000000000e+03 7.661576080322265625e+01 -3.029702377319335938e+01 -3.484705230221152306e-03 2.151401276933029294e-04 -9.808695176616311073e-04 1.608287566341459751e-03
2.315000000000000000e+03 1.997453498840332031e+01 -2.564439535140991211e+00 1.617684210941661149e-05 5.111841119287419133e-07 5.006407718610716984e-06 -5.939654784015147015e-06
2.316000000000000000e+03 4.455374526977539062e+01 -1.809691429138183594e+01 1.283007463825924788e-06 1.918339194162399508e-06 9.604040087651810609e-07 -1.023547042677819263e-06
2.317000000000000000e+03 4.238180160522460938e+01 -1.835463333129882812e+01 -6.025417405908228830e-06 -5.787291001979610883e-07 -1.981243940463173203e-06 -1.767726303114613984e-06
2.318000000000000000e+03 2.568181037902832031e+01 -8.509253501892089844e+00 3.744843070307979360e-06 8.123042221086507197e-07 1.367144136565912049e-06 2.192831971115083434e-06
2.319000000000000000e+03 2.454367446899414062e+01 -6.597453117370605469e+00 2.739738420132198371e-06 -1.888823703666275833e-06 2.552744433614861919e-07 -7.704435120103880763e-06
2.320000000000000000e+03 2.309324264526367188e+01 -5.612912654876708984e+00 1.551504647068213671e-05 4.900334261037642136e-06 6.124614174041198567e-06 2.897963440773310140e-06
2.321000000000000000e+03 2.224040794372558594e+01 -4.765573501586914062e+00 1.752810385369230062e-05 6.143750397313851863e-06 7.101556093402905390e-06 -3.952126917283749208e-06
2.322000000000000000e+03 1.761100959777832031e+01 2.620651423931121826e-01 1.017390695778885856e-05 -2.742246351772337221e-06 2.229498250017059036e-06 -1.362573584628989920e-06
2.323000000000000000e+03 1.577204608917236328e+01 3.472437560558319092e-01 3.019834730366710573e-05 2.240636831629672088e-06 9.731695172376930714e-06 -1.148348474089289084e-05
2.324000000000000000e+03 1.505693912506103516e+01 7.140462398529052734e-01 7.754692887829151005e-06 8.762671313888859004e-06 4.955209078616462648e-06 -8.395805707550607622e-06
2.325000000000000000e+03 7.775804901123046875e+01 -2.455393791198730469e+01 -1.397817861288785934e-02 -5.624485667794942856e-03 -5.880799610167741776e-03 -1.139905583113431931e-02
2.326000000000000000e+03 2.109042358398437500e+01 -3.754074096679687500e+00 1.837726085796020925e-05 -5.735591344091517385e-07 5.341110409062821418e-06 -5.492703166964929551e-06
2.327000000000000000e+03 1.790450859069824219e+01 -9.294610023498535156e-01 1.250576224265387282e-05 -1.157814836005854886e-06 3.404384187888354063e-06 -4.698969860328361392e-06
2.328000000000000000e+03 1.718462753295898438e+01 -4.867619574069976807e-01 2.423954720143228769e-05 5.650590992445359007e-06 8.967041139840148389e-06 -1.098467782867373899e-05
2.329000000000000000e+03 1.134939074516296387e+00 -2.973428964614868164e+00 -8.844143303576856852e-05 7.964231372170615941e-06 -2.414316077192779630e-05 9.202148794429376721e-05
2.330000000000000000e+03 9.282622337341308594e+00 -1.840920805931091309e+00 2.449394560244400054e-05 1.022873329930007458e-04 3.803438448812812567e-05 -2.655401840456761420e-05
2.331000000000000000e+03 9.855764389038085938e+00 -2.664872169494628906e+00 1.196096636704169214e-04 5.098660403746180236e-05 5.117887849337421358e-05 -2.795673208311200142e-05
2.332000000000000000e+03 6.362253570556640625e+01 -1.675964164733886719e+01 -9.301084280014038086e-01 1.118558168411254883e+00 5.653493478894233704e-02 2.818158864974975586e-01
2.333000000000000000e+03 6.342389297485351562e+01 -1.550800609588623047e+01 -4.564086496829986572e-01 8.214880228042602539e-01 1.095238178968429565e-01 1.336541026830673218e-01
2.334000000000000000e+03 5.665386199951171875e+01 -2.048503875732421875e+01 -3.193043470382690430e+00 -1.021709665656089783e-01 -9.885643124580383301e-01 -3.686361610889434814e-01
2.335000000000000000e+03 5.753202438354492188e+01 -2.121112060546875000e+01 -1.536282062530517578e+00 3.466627299785614014e-01 -3.568857908248901367e-01 4.221208095550537109e-01
2.336000000000000000e+03 1.078752326965332031e+01 2.477150440216064453e+00 1.648098987061530352e-05 1.157233964477200061e-05 8.415998308919370174e-06 -9.976452020055148751e-06
2.337000000000000000e+03 1.368893909454345703e+01 1.591131091117858887e+00 9.929707630362827331e-06 9.211792530550155789e-06 5.742449957324424759e-06 -9.636671165935695171e-06
2.338000000000000000e+03 6.072756195068359375e+01 -1.991811180114746094e+01 -1.497221469879150391e+00 1.345780611038208008e+00 -4.543225839734077454e-02 9.330189824104309082e-01
2.339000000000000000e+03 6.145182800292968750e+01 -1.814719009399414062e+01 -1.888684511184692383e+00 9.392170906066894531e-01 -2.848402261734008789e-01 2.273152172565460205e-01
2.340000000000000000e+03 3.681374740600585938e+01 -1.674381256103515625e+01 1.845999008764920291e-06 -1.347037027699116152e-06 1.496885886353993556e-07 -3.575631353669450618e-06
2.341000000000000000e+03 3.547709655761718750e+01 -1.661124992370605469e+01 -4.622126652975566685e-06 1.464742013013164978e-06 -9.472154260947718285e-07 5.851525202160701156e-07
2.342000000000000000e+03 4.424577331542968750e+01 -2.540907287597656250e+01 2.566876821219921112e-02 -1.327749729156494141e+00 -3.906242847442626953e-01 -1.036115884780883789e+00
2.343000000000000000e+03 4.206601333618164062e+01 -2.415670585632324219e+01 -1.706418581306934357e-02 -8.649752140045166016e-01 -2.646118104457855225e-01 -1.407033503055572510e-01
2.344000000000000000e+03 1.117830753326416016e+01 -3.253911495208740234e+00 9.290656453231349587e-05 6.476835551438853145e-05 4.730247383122332394e-05 3.855583781842142344e-05
2.345000000000000000e+03 1.083654117584228516e+01 -3.842823743820190430e+00 -1.502718077972531319e-04 -8.566457836423069239e-06 -4.765147969010286033e-05 -5.601051816483959556e-05
2.346000000000000000e+03 5.599967956542968750e+01 -3.135681724548339844e+01 7.127304077148437500e-01 3.611670970916748047e+00 1.297320365905761719e+00 -9.588270187377929688e-01
2.347000000000000000e+03 1.819468498229980469e+01 -1.327484607696533203e+01 1.684440394456032664e-05 2.647967194207012653e-04 8.449233428109437227e-05 -4.115295450901612639e-05
2.348000000000000000e+03 4.310868740081787109e+00 -2.860651493072509766e+00 -1.469841226935386658e-04 -2.832709105859976262e-05 -5.259336467133834958e-05 -8.677367441123351455e-05
2.349000000000000000e+03 2.166307449340820312e+01 -4.283275604248046875e+00 6.088044301577610895e-06 -1.425281880074180663e-06 1.398828658238926437e-06 -2.926428578575723805e-06
2.350000000000000000e+03 1.108546352386474609e+01 -1.436865234375000000e+01 4.063325468450784683e-05 -2.817524000420235097e-05 3.737404085768503137e-06 -3.487157518975436687e-04
2.351000000000000000e+03 6.499015808105468750e+01 -1.451785373687744141e+01 -3.028519451618194580e-01 1.049933195114135742e+00 2.241243720054626465e-01 2.992186248302459717e-01
2.352000000000000000e+03 3.418428039550781250e+01 -1.665971565246582031e+01 1.652682271924277302e-06 -1.268757159778033383e-06 1.151775563812407199e-07 1.401116378474398516e-06
2.353000000000000000e+03 3.297450256347656250e+01 -1.662696266174316406e+01 -1.892855948426586110e-06 1.707718183752149343e-06 -5.554131732310452207e-08 -1.754533172970695887e-06
2.354000000000000000e+03 3.079154014587402344e+01 -1.621461105346679688e+01 -3.457548700680490583e-06 1.430703946425637696e-06 -6.080534262764558662e-07 -2.096129719575401396e-06
2.355000000000000000e+03 5.544944763183593750e+01 -3.080154991149902344e+01 4.213716089725494385e-01 3.443490982055664062e+00 1.159458756446838379e+00 -1.081956267356872559e+00
2.356000000000000000e+03 5.540102767944335938e+01 -3.034143638610839844e+01 -4.967014864087104797e-02 3.129677057266235352e+00 9.240021109580993652e-01 -9.247790575027465820e-01
2.357000000000000000e+03 8.531201362609863281e+00 -2.422126007080078125e+01 -3.929028171114623547e-04 -2.436394861433655024e-04 -1.909626880660653114e-04 -2.832686004694551229e-04
2.358000000000000000e+03 7.431897163391113281e+00 -2.472402954101562500e+01 5.877612857148051262e-04 3.863282327074557543e-04 2.922268467955291271e-04 5.266833468340337276e-04
2.359000000000000000e+03 5.443679809570312500e+01 3.883674621582031250e+01 1.667965017259120941e-02 -2.505243464838713408e-04 4.928737878799438477e-03 2.233813144266605377e-02
2.360000000000000000e+03 7.821903991699218750e+01 -2.200336074829101562e+01 -1.840054057538509369e-02 -4.004585742950439453e-02 -1.753392070531845093e-02 -4.217141866683959961e-02
2.361000000000000000e+03 1.299451255798339844e+01 -1.310473918914794922e+01 3.262231475673615932e-04 3.674630715977400541e-04 2.081058628391474485e-04 -1.822926424210891128e-04
2.362000000000000000e+03 6.465394020080566406e+00 -2.267682075500488281e+01 8.720679034013301134e-06 -2.208611840615049005e-05 -4.009631993540097028e-06 7.678822730667889118e-04
2.363000000000000000e+03 2.920992660522460938e+01 -3.218040847778320312e+01 6.210270151495933533e-02 9.345381986349821091e-04 1.891117170453071594e-02 -2.939936239272356033e-03
2.364000000000000000e+03 8.962468147277832031e+00 -1.692682266235351562e+01 -8.789342828094959259e-04 -1.545211125630885363e-04 -3.100366157013922930e-04 1.423133799107745290e-04
2.365000000000000000e+03 5.188197708129882812e+01 -1.531568622589111328e+01 -4.377988716441905126e-06 -5.302217687130905688e-06 -2.904061830122373067e-06 -3.211782086509629153e-06
2.366000000000000000e+03 5.042058944702148438e+01 -8.768470764160156250e+00 1.993210571527015418e-05 1.065165292857273016e-06 6.299181222857441753e-06 5.660030637955060229e-06
2.367000000000000000e+03 6.086876296997070312e+01 3.559055328369140625e+01 1.646044291555881500e-02 3.051071614027023315e-02 1.409134827554225922e-02 -4.548925161361694336e-02
2.368000000000000000e+03 7.122535705566406250e+01 1.423449134826660156e+01 6.945230066776275635e-02 3.057835817337036133e+00 9.381864070892333984e-01 -2.631283178925514221e-02
2.369000000000000000e+03 7.130084991455078125e+01 1.024326419830322266e+01 -2.410267889499664307e-01 3.184281826019287109e+00 8.829765319824218750e-01 -1.943406416103243828e-03
2.370000000000000000e+03 7.103494262695312500e+01 2.408011436462402344e+01 2.322917878627777100e-01 3.356463193893432617e+00 1.076626539230346680e+00 -2.144185006618499756e-01
2.371000000000000000e+03 7.105285644531250000e+01 2.542477989196777344e+01 2.550445795059204102e-01 3.164294242858886719e+00 1.025801658630371094e+00 -2.260753512382507324e-01
2.372000000000000000e+03 7.165493011474609375e+01 7.962148189544677734e-01 3.490625917911529541e-01 3.096928119659423828e+00 1.033797264099121094e+00 9.259706735610961914e-02
2.373000000000000000e+03 7.106983184814453125e+01 2.272268295288085938e+01 1.000909730792045593e-01 3.387066125869750977e+00 1.046147108078002930e+00 -1.089893206954002380e-01
2.374000000000000000e+03 7.148991394042968750e+01 1.720433425903320312e+01 1.887871325016021729e-02 3.076864957809448242e+00 9.287230968475341797e-01 1.147552393376827240e-02
2.375000000000000000e+03 1.807871103286743164e+00 4.256979465484619141e+00 -9.598264114174526185e-06 1.099389373848680407e-05 4.186890123492048588e-07 -8.667803740536328405e-06
2.376000000000000000e+03 2.258206844329833984e+00 -3.452272653579711914e+00 2.543598529882729053e-04 -3.878954885294660926e-05 6.467109051300212741e-05 -8.259915375674609095e-06
2.377000000000000000e+03 2.355869770050048828e+00 4.953128337860107422e+00 9.694008440419565886e-06 -8.778699339018203318e-06 2.745926508396223653e-07 -2.443332050461322069e-06
2.378000000000000000e+03 4.369176864624023438e+01 3.068264484405517578e+00 -4.975299452780745924e-05 -1.907789010147098452e-05 -2.064926411549095064e-05 -1.907501973619218916e-05
2.379000000000000000e+03 5.781709289550781250e+01 -2.503339004516601562e+01 3.648436307907104492e+00 1.448303937911987305e+00 1.529022097587585449e+00 2.458627700805664062e+00
2.380000000000000000e+03 7.229339599609375000e+01 -2.376352500915527344e+01 -9.087892621755599976e-02 -1.846409030258655548e-02 -3.280290588736534119e-02 5.382287874817848206e-02
2.381000000000000000e+03 7.762445068359375000e+01 -1.785790634155273438e+01 -2.091019600629806519e-02 -1.499153077602386475e-01 -5.124765262007713318e-02 -1.438799351453781128e-01
2.382000000000000000e+03 7.687186431884765625e+01 -1.086075305938720703e+01 -2.109295502305030823e-02 -3.627331256866455078e-01 -1.151478216052055359e-01 -2.968163192272186279e-01
2.383000000000000000e+03 7.789048767089843750e+01 -9.849506378173828125e+00 4.051811527460813522e-03 -6.910466551780700684e-01 -2.060984522104263306e-01 -2.503329217433929443e-01
2.384000000000000000e+03 7.173279571533203125e+01 7.551061153411865234e+00 1.673574447631835938e-01 3.090381383895874023e+00 9.773216247558593750e-01 -3.633461892604827881e-02
2.385000000000000000e+03 2.196518182754516602e+00 2.305634307861328125e+01 -3.457235652604140341e-05 4.780165545525960624e-05 3.968789769714931026e-06 -1.250553032150492072e-05
2.386000000000000000e+03 2.630041837692260742e+00 1.809976577758789062e+01 -3.649943027994595468e-05 2.749073064478579909e-05 -2.702609890548046678e-06 -1.992685247387271374e-05
2.387000000000000000e+03 4.612542629241943359e+00 1.589752578735351562e+01 2.711433990043587983e-05 2.176807902287691832e-05 1.466472531319595873e-05 1.827377218432957307e-06
2.388000000000000000e+03 2.329222202301025391e+00 -1.480830478668212891e+01 -5.819983198307454586e-04 -6.502443284261971712e-05 -1.941068330779671669e-04 -1.120088345487602055e-04
2.389000000000000000e+03 4.550620079040527344e+00 -1.541865348815917969e+01 2.186707570217549801e-04 3.652386367321014404e-04 1.751728123053908348e-04 -2.532655198592692614e-04
2.390000000000000000e+03 4.018575668334960938e+01 1.078641986846923828e+01 1.632776256883516908e-04 2.376148768234997988e-05 5.611173401121050119e-05 9.032861271407455206e-06
2.391000000000000000e+03 7.594165039062500000e+01 -6.760317087173461914e-01 1.304816454648971558e-01 -1.697977930307388306e-01 -1.179484277963638306e-02 -2.895342111587524414e-01
2.392000000000000000e+03 7.215359497070312500e+01 4.608435630798339844e+00 1.462599039077758789e-01 3.038650751113891602e+00 9.554731845855712891e-01 2.856445312500000000e-02
2.393000000000000000e+03 7.204828643798828125e+01 6.101168155670166016e+00 1.846600323915481567e-01 2.981838226318359375e+00 9.499494433403015137e-01 -8.811993151903152466e-02
2.394000000000000000e+03 3.497007846832275391e+00 8.859948158264160156e+00 1.482000925534521230e-06 2.583986133686266840e-05 8.196559065254405141e-06 -1.595499634277075529e-05
2.395000000000000000e+03 4.786538314819335938e+01 -6.011337757110595703e+00 -2.778820453386288136e-05 1.197999426949536428e-05 -4.742462806461844593e-06 -4.639643975679064170e-06
2.396000000000000000e+03 7.751171875000000000e+01 -3.497807741165161133e+00 9.254422970116138458e-03 -1.079813480377197266e+00 -3.211677074432373047e-01 -3.167153596878051758e-01
2.397000000000000000e+03 7.563827514648437500e+01 -3.486318111419677734e+00 4.823641106486320496e-02 -3.363581746816635132e-02 4.380178172141313553e-03 -3.533203005790710449e-01
2.398000000000000000e+03 4.021559524536132812e+01 9.256072044372558594e+00 -1.420789485564455390e-04 1.671153586357831955e-05 -3.761022526305168867e-05 4.128676300751976669e-05
2.399000000000000000e+03 7.788716888427734375e+01 1.237236499786376953e+01 3.275384893640875816e-03 -1.557971835136413574e+00 -4.664089381694793701e-01 7.255837321281433105e-02
2.400000000000000000e+03 3.835983276367187500e+01 1.254785251617431641e+01 1.742091553751379251e-04 1.675745988904964179e-05 5.728998439735732973e-05 3.809587360592558980e-05
2.401000000000000000e+03 6.179448127746582031e+00 -1.937290191650390625e+01 -7.846856606192886829e-04 6.684019172098487616e-05 -2.153536333935335279e-04 3.293172921985387802e-04
2.402000000000000000e+03 5.195485305786132812e+01 -3.204802322387695312e+01 3.405865430831909180e-01 1.976769566535949707e+00 6.952068209648132324e-01 6.046077609062194824e-01
2.403000000000000000e+03 5.127902603149414062e+01 -3.021791076660156250e+01 1.208271980285644531e+00 1.648307323455810547e+00 8.569737672805786133e-01 9.159869551658630371e-01
2.404000000000000000e+03 7.567898559570312500e+01 -3.360360336303710938e+01 -6.523069459944963455e-03 -3.250681562349200249e-03 -2.932125236839056015e-03 1.102389302104711533e-02
2.405000000000000000e+03 3.980016708374023438e+01 -1.727797698974609375e+01 7.916673894214909524e-06 2.705501174204982817e-06 3.186652520525967702e-06 2.304744555203797063e-07
2.406000000000000000e+03 4.926218795776367188e+01 -3.010999107360839844e+01 1.025999069213867188e+00 4.178023338317871094e-01 4.331404268741607666e-01 4.874479174613952637e-01
2.407000000000000000e+03 4.086764907836914062e+01 -1.878679275512695312e+01 3.132279971396201290e-06 2.498372282389027532e-07 1.014635131468821783e-06 5.504284217749955133e-06
2.408000000000000000e+03 5.646161270141601562e+01 -2.653822517395019531e+01 3.965799808502197266e+00 6.035682559013366699e-01 1.370810389518737793e+00 2.643177509307861328e+00
2.409000000000000000e+03 5.377089691162109375e+01 -2.951785850524902344e+01 6.286056041717529297e-01 4.622533321380615234e+00 1.575341701507568359e+00 7.765679955482482910e-01
2.410000000000000000e+03 5.479412841796875000e+01 -2.980941581726074219e+01 -5.334294214844703674e-02 4.184175491333007812e+00 1.239249706268310547e+00 -7.613909244537353516e-01
2.411000000000000000e+03 5.468052673339843750e+01 -3.006067466735839844e+01 -2.273151464760303497e-02 4.119884967803955078e+00 1.229146003723144531e+00 -6.219848990440368652e-01
2.412000000000000000e+03 5.498730087280273438e+01 -2.989774131774902344e+01 -1.524237543344497681e-01 4.059407234191894531e+00 1.172095060348510742e+00 -8.857527375221252441e-01
2.413000000000000000e+03 5.407731628417968750e+01 -2.917035484313964844e+01 5.025750994682312012e-01 5.402817249298095703e+00 1.771617650985717773e+00 7.788633704185485840e-01
2.414000000000000000e+03 5.564068984985351562e+01 -2.585344505310058594e+01 3.065699338912963867e+00 2.596822977066040039e+00 1.698756694793701172e+00 2.942139148712158203e+00
2.415000000000000000e+03 5.515237045288085938e+01 -2.600901603698730469e+01 2.752001762390136719e+00 4.003398418426513672e+00 2.026620149612426758e+00 2.569938898086547852e+00
2.416000000000000000e+03 5.438471984863281250e+01 -2.536260986328125000e+01 1.683135390281677246e+00 3.336771488189697266e+00 1.505972027778625488e+00 7.051641941070556641e-01
2.417000000000000000e+03 5.346619415283203125e+01 -2.684042739868164062e+01 4.330552101135253906e+00 3.287026166915893555e+00 2.285273551940917969e+00 -2.904652953147888184e-01
2.418000000000000000e+03 5.258236694335937500e+01 -2.798424530029296875e+01 3.499386787414550781e+00 2.182802438735961914e+00 1.704656839370727539e+00 9.914714694023132324e-01
2.419000000000000000e+03 5.394258117675781250e+01 -2.583818817138671875e+01 2.272948265075683594e+00 3.697210550308227539e+00 1.791047692298889160e+00 3.588856756687164307e-02
2.420000000000000000e+03 5.298790359497070312e+01 -2.716500473022460938e+01 4.196143627166748047e+00 2.432484865188598633e+00 1.988588571548461914e+00 1.228085756301879883e-01
2.421000000000000000e+03 5.745346832275390625e+01 -2.649669647216796875e+01 3.020136356353759766e+00 9.673512578010559082e-01 1.196246266365051270e+00 2.086638450622558594e+00
2.422000000000000000e+03 5.808451843261718750e+01 -2.583705139160156250e+01 3.445467948913574219e+00 2.081837415695190430e+00 1.658191680908203125e+00 2.680601835250854492e+00
2.423000000000000000e+03 5.589012145996093750e+01 -2.999331474304199219e+01 -6.577917374670505524e-04 2.422078847885131836e+00 7.264263629913330078e-01 -7.260786294937133789e-01
2.424000000000000000e+03 5.519001007080078125e+01 -2.996697235107421875e+01 -4.457513988018035889e-02 3.487404108047485352e+00 1.032848715782165527e+00 -9.428253173828125000e-01
2.425000000000000000e+03 1.889488983154296875e+01 -9.693799018859863281e+00 -1.055633474607020617e-04 -6.049053627066314220e-05 -4.981616439181379974e-05 -5.931315899943001568e-05
2.426000000000000000e+03 1.698434257507324219e+01 -8.457603454589843750e+00 -9.978716843761503696e-05 -4.520712991507025436e-06 -3.129236574750393629e-05 2.737959039222914726e-05
2.427000000000000000e+03 1.733192825317382812e+01 -9.122097015380859375e+00 1.272686204174533486e-04 1.826045445341151208e-05 4.365872518974356353e-05 -1.818030068534426391e-05
2.428000000000000000e+03 3.637965202331542969e+00 3.304732084274291992e+00 -3.293700046924641356e-06 -9.004434105008840561e-07 -1.258243059965025168e-06 2.724025023326248629e-07
2.429000000000000000e+03 4.670196151733398438e+01 -2.407818603515625000e+01 -3.220357000827789307e-01 -7.944572567939758301e-01 -3.349478840827941895e-01 -1.469146609306335449e+00
2.430000000000000000e+03 1.414915180206298828e+01 -5.059397220611572266e+00 -1.192459603771567345e-04 -6.573602877324447036e-05 -5.549459820031188428e-05 -1.508314016973599792e-05
2.431000000000000000e+03 5.444051742553710938e+01 -2.221591949462890625e+01 -1.610345244407653809e+00 4.166837632656097412e-01 -3.580984473228454590e-01 -3.196956515312194824e-01
2.432000000000000000e+03 5.600344467163085938e+01 -2.225663185119628906e+01 -7.522408962249755859e-01 4.748734533786773682e-01 -8.321022987365722656e-02 4.459910690784454346e-01
2.433000000000000000e+03 2.864664840698242188e+01 -1.462762069702148438e+01 2.508939587642089464e-06 2.619240603962680325e-06 1.538454057481430937e-06 -2.438134174553852063e-07
2.434000000000000000e+03 7.410716247558593750e+01 -2.373755455017089844e+01 -8.845752477645874023e-02 3.066879697144031525e-02 -1.733662001788616180e-02 -2.765557495877146721e-03
2.435000000000000000e+03 7.294052886962890625e+01 -2.458564567565917969e+01 -4.287145659327507019e-02 -9.348782710731029510e-03 -1.566607132554054260e-02 2.183545008301734924e-02
2.436000000000000000e+03 1.780883598327636719e+01 -9.668318748474121094e+00 -2.248017699457705021e-04 -1.008519461720425170e-06 -6.774308712920174003e-05 -4.876025195699185133e-05
2.437000000000000000e+03 1.621748924255371094e+01 -7.350148677825927734e+00 -7.519154314650222659e-05 -5.855026392964646220e-05 -4.012254066765308380e-05 2.588662391644902527e-05
2.438000000000000000e+03 2.380314826965332031e+01 -7.024279594421386719e+00 9.292605682276189327e-06 1.308208879891026299e-06 3.180244448230951093e-06 2.193622776758274995e-06
2.439000000000000000e+03 2.105464363098144531e+01 -7.677924036979675293e-01 2.038160710071679205e-05 -2.533765155021683313e-06 5.354352651920635253e-06 6.784325137232372072e-07
2.440000000000000000e+03 1.939783477783203125e+01 -1.906371831893920898e+00 1.652396895224228501e-05 -1.641881567593372893e-06 4.464626272238092497e-06 -4.748661467601777986e-06
2.441000000000000000e+03 9.044712066650390625e+00 -2.947746515274047852e+00 1.480431965319439769e-04 6.178252078825607896e-06 4.626643567462451756e-05 -2.712942296057008207e-05
2.442000000000000000e+03 4.828551101684570312e+01 -1.691835784912109375e+01 4.307273684389656410e-06 3.157309720336343162e-06 2.239374907730962150e-06 6.873513029859168455e-07
2.443000000000000000e+03 1.473962020874023438e+01 1.753612518310546875e+00 3.936919711122754961e-06 9.276363925891928375e-06 3.963985363952815533e-06 -7.125051070033805445e-06
2.444000000000000000e+03 1.378776931762695312e+01 2.922446012496948242e+00 7.614249625476077199e-06 7.958280548336915672e-06 4.671759143093368039e-06 -3.662632025225320831e-06
2.445000000000000000e+03 1.182414436340332031e+01 -4.675284385681152344e+00 -9.071981912711635232e-05 -1.085194962797686458e-04 -5.977179534966126084e-05 -3.108191594947129488e-05
2.446000000000000000e+03 4.764685440063476562e+01 -1.707900238037109375e+01 -1.671587142482167110e-06 -2.662216502358205616e-06 -1.300141093452111818e-06 1.958785560418618843e-06
2.447000000000000000e+03 4.812672042846679688e+01 -2.361328315734863281e+01 -5.549191236495971680e-01 -6.475310921669006348e-01 -3.607350587844848633e-01 -1.599758863449096680e+00
2.448000000000000000e+03 4.882701110839843750e+01 -2.337642097473144531e+01 -7.141517400741577148e-01 -5.483848452568054199e-01 -3.787609636783599854e-01 -1.646733164787292480e+00
2.449000000000000000e+03 4.952372741699218750e+01 -2.314318275451660156e+01 -9.347947835922241211e-01 -4.450174570083618164e-01 -4.139436781406402588e-01 -1.651947855949401855e+00
2.450000000000000000e+03 5.022225189208984375e+01 -2.292153739929199219e+01 -1.158958315849304199e+00 -3.105892241001129150e-01 -4.408642649650573730e-01 -1.625312924385070801e+00
2.451000000000000000e+03 5.005529785156250000e+01 -2.234971427917480469e+01 -1.798412561416625977e+00 -3.781541585922241211e-01 -6.529700160026550293e-01 -1.603798866271972656e+00
2.452000000000000000e+03 7.553347015380859375e+01 -2.371397018432617188e+01 -5.775425955653190613e-02 1.521880738437175751e-02 -1.276063546538352966e-02 -2.909562177956104279e-02
2.453000000000000000e+03 7.626834869384765625e+01 -2.367907142639160156e+01 -3.869187086820602417e-02 -2.204821212217211723e-03 -1.226900704205036163e-02 -3.310443460941314697e-02
2.454000000000000000e+03 5.230857849121093750e+01 -2.240257644653320312e+01 -1.791429758071899414e+00 1.267046779394149780e-01 -4.994175434112548828e-01 -1.236611366271972656e+00
2.455000000000000000e+03 5.300805282592773438e+01 -2.230390167236328125e+01 -1.846358537673950195e+00 2.691532373428344727e-01 -4.731615781784057617e-01 -9.852405190467834473e-01
2.456000000000000000e+03 2.790674591064453125e+01 -1.298891925811767578e+01 -5.247306944511365145e-06 -4.392370271943946136e-07 -1.705963200038240757e-06 5.434054628494777717e-07
2.457000000000000000e+03 2.811681747436523438e+01 -1.403384208679199219e+01 -3.926418685296084732e-06 -1.418554688825679477e-06 -1.603492023605213035e-06 1.211400558531749994e-06
2.458000000000000000e+03 2.757416343688964844e+01 -1.355252838134765625e+01 5.922275249758968130e-06 1.162828880296729039e-06 2.125531182173290290e-06 -6.073923373151046690e-07
2.459000000000000000e+03 5.148813247680664062e+01 -2.200847816467285156e+01 -2.316040515899658203e+00 -1.617223918437957764e-01 -7.433289289474487305e-01 -1.442604780197143555e+00
2.460000000000000000e+03 5.161309432983398438e+01 -2.254124641418457031e+01 -1.626283168792724609e+00 -1.211496070027351379e-02 -4.915194213390350342e-01 -1.420427918434143066e+00
2.461000000000000000e+03 5.091869735717773438e+01 -2.271774482727050781e+01 -1.411845684051513672e+00 -1.752811074256896973e-01 -4.761380553245544434e-01 -1.552881002426147461e+00
2.462000000000000000e+03 4.971968460083007812e+01 -1.670335388183593750e+01 2.150986119886511005e-06 4.260481546225491911e-06 1.923440322570968419e-06 -3.271445621066959575e-06
2.463000000000000000e+03 4.899523925781250000e+01 -1.672791862487792969e+01 -4.617889317160006613e-06 -2.159637233489775099e-06 -2.033257942457566969e-06 2.103960014210315421e-06
2.464000000000000000e+03 7.703337860107421875e+01 -2.370525932312011719e+01 -2.628966234624385834e-02 -5.670744460076093674e-03 -9.588121436536312103e-03 -2.294059284031391144e-02
2.465000000000000000e+03 7.293135070800781250e+01 -2.382778549194335938e+01 -1.123984754085540771e-01 2.522571198642253876e-02 -2.615182846784591675e-02 3.861610591411590576e-02
2.466000000000000000e+03 2.503890419006347656e+01 -9.000452041625976562e+00 4.497562258620746434e-06 -1.623893012947519310e-06 8.621007054898655042e-07 -4.957074906997149810e-06
2.467000000000000000e+03 2.614392089843750000e+01 -9.104338645935058594e+00 6.205585577845340595e-06 -6.982223226259520743e-07 1.652208993618842214e-06 -3.972863851231522858e-06
2.468000000000000000e+03 4.141516876220703125e+01 -1.830117225646972656e+01 -9.597079042578116059e-06 4.193112545181065798e-06 -1.621189994693850167e-06 -2.733158908085897565e-06
2.469000000000000000e+03 4.214617538452148438e+01 -1.922528457641601562e+01 -3.704032224050024524e-06 -1.526750224911666010e-06 -1.569234768794558477e-06 -1.082452172340708785e-06
2.470000000000000000e+03 1.692528152465820312e+01 7.549540400505065918e-01 2.692193993425462395e-05 4.282519512344151735e-06 9.361338015878573060e-06 -1.252403671969659626e-05
2.471000000000000000e+03 4.497694015502929688e+01 -2.380251312255859375e+01 -2.941048741340637207e-01 -7.942758202552795410e-01 -3.265142142772674561e-01 -1.179037451744079590e+00
2.472000000000000000e+03 4.693412017822265625e+01 -1.706166839599609375e+01 3.988684056821512058e-06 5.063636194790888112e-07 1.348514274468470830e-06 -2.219570433226181194e-06
2.473000000000000000e+03 4.615042877197265625e+01 -1.716150665283203125e+01 -5.369869995774934068e-06 -5.798829647574166302e-07 -1.784925984793517273e-06 -1.068165829565259628e-06
2.474000000000000000e+03 8.281517982482910156e+00 -3.788388013839721680e+00 2.091094356728717685e-04 2.408920408925041556e-06 6.345550355035811663e-05 2.373695861024316400e-05
2.475000000000000000e+03 3.161102771759033203e+00 -4.547173500061035156e+00 2.659210003912448883e-04 4.429956607054919004e-05 9.306616993853822351e-05 1.415567967342212796e-04
2.476000000000000000e+03 6.159752655029296875e+01 -2.053901672363281250e+01 -5.483900904655456543e-01 1.531199574470520020e+00 2.948428392410278320e-01 1.377682447433471680e+00
2.477000000000000000e+03 6.211315917968750000e+01 -1.967391777038574219e+01 -1.171447157859802246e+00 1.413059353828430176e+00 7.248365134000778198e-02 1.025117874145507812e+00
2.478000000000000000e+03 4.463988876342773438e+01 -1.728866767883300781e+01 -1.064024559127574321e-06 -1.353755351374275051e-06 -7.253339617818710394e-07 2.669009688816004200e-07
2.479000000000000000e+03 5.921553611755371094e+00 -3.813125133514404297e+00 1.081450318451970816e-04 1.325478806393221021e-04 7.220787665573880076e-05 1.238076947629451752e-04
2.480000000000000000e+03 6.696609497070312500e+00 -3.910250425338745117e+00 -1.455835881642997265e-04 -1.233833900187164545e-04 -8.069009345490485430e-05 -6.653882155660539865e-05
2.481000000000000000e+03 5.022666549682617188e+01 -2.973495292663574219e+01 1.349665164947509766e+00 8.476013541221618652e-01 6.591799259185791016e-01 6.562650799751281738e-01
2.482000000000000000e+03 7.316533660888671875e+01 -3.013527870178222656e+01 -5.020100157707929611e-03 -1.756425248458981514e-03 -2.032957505434751511e-03 1.151795149780809879e-03
2.483000000000000000e+03 1.906983947753906250e+01 -4.924854934215545654e-01 5.962275736237643287e-06 -9.695318112790118903e-06 -1.119912553804169875e-06 -8.441750054544172599e-08
2.484000000000000000e+03 7.831970214843750000e+01 -2.436869239807128906e+01 -8.577400818467140198e-03 -8.653747849166393280e-03 -5.169344600290060043e-03 -1.195744425058364868e-02
2.485000000000000000e+03 1.051469707489013672e+01 -2.939722776412963867e+00 -1.179593600681982934e-04 -4.292762605473399162e-05 -4.826609438168816268e-05 -3.916829882655292749e-06
2.486000000000000000e+03 1.131854629516601562e+01 -4.211105823516845703e+00 7.404162897728383541e-05 4.779512528330087662e-05 3.655102773336693645e-05 7.055309106362983584e-05
2.487000000000000000e+03 6.513726806640625000e+01 -1.575920486450195312e+01 -5.563794970512390137e-01 1.095519185066223145e+00 1.617418974637985229e-01 2.987690865993499756e-01
2.488000000000000000e+03 6.559443664550781250e+01 -1.505137348175048828e+01 -3.853332698345184326e-01 1.079916596412658691e+00 2.083749920129776001e-01 2.858617901802062988e-01
2.489000000000000000e+03 7.481332397460937500e+01 -2.372630500793457031e+01 -7.489160448312759399e-02 2.384773083031177521e-02 -1.531316246837377548e-02 -2.373963035643100739e-02
2.490000000000000000e+03 7.493679809570312500e+01 -2.458742904663085938e+01 -4.806713014841079712e-02 1.338526327162981033e-02 -1.040455978363752365e-02 -5.701711401343345642e-03
2.491000000000000000e+03 2.101991081237792969e+01 -1.210764122009277344e+01 -8.909656571631785482e-06 1.341502793366089463e-04 3.757218655664473772e-05 2.125597529811784625e-05
2.492000000000000000e+03 2.009307861328125000e+01 -1.136304855346679688e+01 1.464966189814731479e-04 -1.280126343772280961e-05 4.010860720882192254e-05 6.894037505844607949e-05
2.493000000000000000e+03 6.491358184814453125e+01 -2.114846038818359375e+01 5.482521057128906250e-01 6.533591151237487793e-01 3.604833781719207764e-01 9.502010941505432129e-01
2.494000000000000000e+03 6.190586471557617188e+01 -1.859547615051269531e+01 -1.731336355209350586e+00 1.201105475425720215e+00 -1.590692698955535889e-01 5.461673736572265625e-01
2.495000000000000000e+03 2.052801704406738281e+01 -3.179098367691040039e+00 1.278332001675153151e-05 1.111274286813568324e-06 4.168378382019000128e-06 -5.553376468014903367e-06
2.496000000000000000e+03 5.407678604125976562e+01 -3.411653137207031250e+01 -1.224379986524581909e-02 1.980608224868774414e+00 5.905093550682067871e-01 4.900435730814933777e-02
2.497000000000000000e+03 1.534415245056152344e+01 -1.127064228057861328e+01 -2.380373043706640601e-04 -6.371288350237591658e-07 -7.160233508329838514e-05 -6.647822738159447908e-05
2.498000000000000000e+03 1.435490417480468750e+01 1.111422777175903320e+00 2.779277929221279919e-05 1.272954705200390890e-06 8.719720426597632468e-06 -8.757948307902552187e-06
2.499000000000000000e+03 1.540715312957763672e+01 1.446760058403015137e+00 3.028920400538481772e-05 2.185824087064247578e-06 9.742509064381010830e-06 -9.016064723255112767e-06
2.500000000000000000e+03 6.426352691650390625e+01 -1.725475883483886719e+01 -9.082210659980773926e-01 1.192695140838623047e+00 8.534222096204757690e-02 4.173378050327301025e-01
2.501000000000000000e+03 3.836763381958007812e+01 -1.596761798858642578e+01 2.376921656832564622e-06 2.251707229561361601e-07 7.806277153576957062e-07 -2.624087301228428259e-06
2.502000000000000000e+03 4.150517272949218750e+01 -1.918238449096679688e+01 -3.645883239755676186e-08 2.011623223552305717e-07 4.941104592148803931e-08 -2.256523202959215268e-06
2.503000000000000000e+03 1.931455039978027344e+01 -1.136649608612060547e+01 9.751764446264132857e-05 1.073815656127408147e-04 6.146976375021040440e-05 9.675438377598766237e-06
2.504000000000000000e+03 4.652834701538085938e+01 1.485392093658447266e+00 5.906119622522965074e-05 1.692653495410922915e-05 2.279631917190272361e-05 3.166217720718123019e-05
2.505000000000000000e+03 2.526802062988281250e+01 -7.886206150054931641e+00 4.481373252929188311e-06 -2.672613845788873732e-06 5.426278448794619180e-07 -5.683581548510119319e-06
2.506000000000000000e+03 2.422678184509277344e+01 -5.936349868774414062e+00 1.574108682689256966e-05 -1.460846533518633805e-06 4.284072019800078124e-06 4.118053766433149576e-06
2.507000000000000000e+03 5.832859802246093750e+01 -2.195171165466308594e+01 -2.577696144580841064e-01 8.655855655670166016e-01 1.823447793722152710e-01 9.923407435417175293e-01
2.508000000000000000e+03 7.744023895263671875e+01 -3.118725204467773438e+01 -4.091127309948205948e-03 1.771522875060327351e-05 -1.222023623995482922e-03 2.267818432301282883e-03
2.509000000000000000e+03 1.245748805999755859e+01 2.959225416183471680e+00 9.836712706601247191e-06 9.570179827278479934e-06 5.822068033012328669e-06 -6.096778633946087211e-06
2.510000000000000000e+03 5.735356140136718750e+01 -2.549861335754394531e+01 3.529804706573486328e+00 1.183823347091674805e+00 1.414088368415832520e+00 2.609030961990356445e+00
2.511000000000000000e+03 7.825177001953125000e+01 -3.106300735473632812e+01 6.915302947163581848e-04 -2.290009986609220505e-03 -4.795438726432621479e-04 2.111254027113318443e-03
2.512000000000000000e+03 4.986056137084960938e+01 -7.443622589111328125e+00 -2.262516863993369043e-05 -4.440889824763871729e-06 -8.119817721308209002e-06 -7.391910912701860070e-06
2.513000000000000000e+03 6.776094818115234375e+01 -9.508351325988769531e+00 2.195544689893722534e-01 1.643059015274047852e+00 5.587840676307678223e-01 4.766277968883514404e-01
2.514000000000000000e+03 2.287026643753051758e+00 1.328967666625976562e+01 3.344442666275426745e-05 2.683778438949957490e-05 1.808466367947403342e-05 -1.237878495885524899e-05
2.515000000000000000e+03 5.345180511474609375e+01 -3.102815246582031250e+01 3.520423471927642822e-01 3.044964551925659180e+00 1.019102096557617188e+00 2.182541638612747192e-01
2.516000000000000000e+03 7.086759185791015625e+01 -2.094083213806152344e+01 -1.760670095682144165e-01 7.421188056468963623e-02 -3.055653534829616547e-02 1.333169522695243359e-03
2.517000000000000000e+03 5.089813613891601562e+01 -1.466145515441894531e+01 -2.233571422038949095e-06 3.960171397920930758e-06 5.179799700272269547e-07 5.018488991481717676e-06
2.518000000000000000e+03 7.280517578125000000e+01 -3.250808334350585938e+01 -1.986724138259887695e-02 6.035840138792991638e-03 -4.149420186877250671e-03 3.157092258334159851e-03
2.519000000000000000e+03 7.386492919921875000e+01 -2.279437828063964844e+01 -1.264788508415222168e-01 5.678511783480644226e-02 -2.090812101960182190e-02 -3.380095958709716797e-02
2.520000000000000000e+03 7.567517852783203125e+01 -1.455164241790771484e+01 -6.426222622394561768e-02 -5.400787107646465302e-03 -2.089890465140342712e-02 -2.734663784503936768e-01
2.521000000000000000e+03 7.266843414306640625e+01 1.036603355407714844e+01 -1.726075112819671631e-01 2.334096193313598633e+00 6.484466195106506348e-01 3.835355490446090698e-02
2.522000000000000000e+03 5.662889003753662109e+00 1.702356529235839844e+01 3.398624903638847172e-05 2.875399150070734322e-05 1.882207288872450590e-05 -1.307090496993623674e-05
2.523000000000000000e+03 7.094602203369140625e+01 -5.706263065338134766e+00 1.020486205816268921e-01 1.848948955535888672e+00 5.852992534637451172e-01 1.178245991468429565e-01
2.524000000000000000e+03 7.174443054199218750e+01 -1.162110805511474609e+00 2.198456376791000366e-01 2.545992374420166016e+00 8.297513723373413086e-01 2.991238422691822052e-02
2.525000000000000000e+03 7.496948242187500000e+01 3.619542360305786133e+00 1.487715095281600952e-01 5.089581012725830078e-01 1.973188817501068115e-01 -6.857053190469741821e-02
2.526000000000000000e+03 4.223015213012695312e+01 2.553566455841064453e+00 6.681278318865224719e-05 3.414238381083123386e-05 3.028655009984504431e-05 3.719118808476196136e-07
2.527000000000000000e+03 5.333341121673583984e+00 8.836639404296875000e+00 -3.240277237637201324e-06 1.947218515852000564e-05 4.869572421739576384e-06 -1.974583392438944429e-05
2.528000000000000000e+03 3.076928138732910156e+00 5.602373600006103516e+00 -9.563769708620384336e-06 9.677400157670490444e-06 3.408893789469402691e-08 -6.003737325954716653e-06
2.529000000000000000e+03 4.576733016967773438e+01 -8.411405563354492188e+00 -4.671125225286232308e-06 -8.739182817407709081e-07 -1.663513103267177939e-06 -5.612409040622878820e-06
2.530000000000000000e+03 3.594176054000854492e+00 -7.747915267944335938e+00 -1.414658618159592152e-04 -9.761489491211250424e-05 -7.172422920120880008e-05 -1.537570933578535914e-04
2.531000000000000000e+03 5.313792705535888672e+00 -8.486688613891601562e+00 -8.213696855818852782e-05 5.371211500460049137e-06 -2.302972643519751728e-05 -1.085603653336875141e-04
2.532000000000000000e+03 7.138744354248046875e+01 -4.498849868774414062e+00 9.093160182237625122e-02 1.954503774642944336e+00 6.136305928230285645e-01 6.193745508790016174e-02
2.533000000000000000e+03 7.339151763916015625e+01 -2.383621215820312500e+00 1.034728959202766418e-01 1.294090151786804199e+00 4.192689359188079834e-01 -2.103278934955596924e-01
2.534000000000000000e+03 7.410910797119140625e+01 -3.757635593414306641e+00 8.433847129344940186e-02 7.797564864158630371e-01 2.592284977436065674e-01 -3.078056573867797852e-01
2.535000000000000000e+03 7.237913513183593750e+01 1.285093307495117188e+01 -1.362945288419723511e-01 2.398569107055664062e+00 6.786823868751525879e-01 -6.513263285160064697e-02
2.536000000000000000e+03 3.659300231933593750e+01 1.276193046569824219e+01 -1.157081205747090280e-04 1.159609155365615152e-06 -3.436455153860151768e-05 8.305650226247962564e-06
2.537000000000000000e+03 1.657695198059082031e+01 -1.136793994903564453e+01 6.656728510279208422e-05 3.630048377090133727e-05 3.086033029831014574e-05 8.739344048080965877e-05
2.538000000000000000e+03 7.496375274658203125e+01 1.203243732452392578e+01 -9.327073395252227783e-02 5.681207776069641113e-01 1.424550116062164307e-01 2.581679262220859528e-02
2.539000000000000000e+03 1.174410247802734375e+01 -1.281548500061035156e+01 -2.115377355949021876e-05 -2.073478535749018192e-04 -6.855048559373244643e-05 -1.882871583802625537e-04
2.540000000000000000e+03 7.639586639404296875e+01 -3.283523178100585938e+01 -1.941973459906876087e-03 -1.286836690269410610e-03 -9.686430566944181919e-04 4.344157874584197998e-03
2.541000000000000000e+03 4.307951736450195312e+01 4.384999752044677734e+00 4.398134115035645664e-05 3.521692997310310602e-05 2.375948133703786880e-05 3.083536284975707531e-05
2.542000000000000000e+03 3.625324249267578125e+01 -1.485604763031005859e+01 -4.517248271440621465e-06 -6.665495106972230133e-07 -1.555139306219643913e-06 -4.542174792732112110e-06
2.543000000000000000e+03 3.318226242065429688e+01 -1.438674545288085938e+01 -5.320335276337573305e-06 7.390284508801414631e-07 -1.374392127218015958e-06 -1.552542244098731317e-06
2.544000000000000000e+03 3.419081115722656250e+01 -1.547410297393798828e+01 -3.477842255961149931e-06 -2.445293034725182224e-07 -1.116711473514442332e-06 -9.825932920648483559e-07
2.545000000000000000e+03 4.711316680908203125e+01 -2.482024431228637695e+00 4.233316212776117027e-05 9.914327165461145341e-06 1.567424624226987362e-05 1.967291973414830863e-05
2.546000000000000000e+03 4.574590301513671875e+01 -1.758760094642639160e+00 2.932537790911737829e-05 1.006464663078077137e-05 1.181700736196944490e-05 9.555436008668038994e-06
2.547000000000000000e+03 6.779322052001953125e+01 -1.885624885559082031e+01 -2.068847864866256714e-01 5.816807150840759277e-01 1.124387755990028381e-01 5.182447433471679688e-01
2.548000000000000000e+03 7.516780853271484375e+01 -3.246449279785156250e+01 -7.713398896157741547e-03 1.959189306944608688e-03 -1.726262969896197319e-03 6.380801554769277573e-03
2.549000000000000000e+03 3.034850692749023438e+01 -1.491275978088378906e+01 -4.524455562204821035e-06 4.252241012636659434e-07 -1.229769395649782382e-06 -3.716851097124163061e-06
2.550000000000000000e+03 1.945804476737976074e+00 2.074664497375488281e+01 -3.741120599443092942e-05 4.209112012176774442e-05 1.403974692948395386e-06 -9.901283192448318005e-06
2.551000000000000000e+03 3.721479177474975586e+00 1.070656585693359375e+01 -2.309337105543818325e-05 1.633819920243695378e-05 -2.026551555900368840e-06 -7.898192961874883622e-06
2.552000000000000000e+03 3.240859508514404297e+00 -1.319234466552734375e+01 -2.854065096471458673e-04 -2.399178192717954516e-04 -1.575973001308739185e-04 -1.602997508598491549e-04
2.553000000000000000e+03 3.716129541397094727e+00 -1.051622867584228516e+01 1.092920865630730987e-04 9.000267164083197713e-05 5.978842818876728415e-05 2.773506566882133484e-04
2.554000000000000000e+03 1.991037845611572266e+00 -9.956407546997070312e+00 -3.998245811089873314e-04 1.081071332009742036e-05 -1.167041627923026681e-04 2.177726128138601780e-04
2.555000000000000000e+03 2.989994764328002930e+00 2.133459091186523438e+01 -1.037278070725733414e-05 4.633352000382728875e-05 1.078822242561727762e-05 -2.677718839549925178e-06
2.556000000000000000e+03 2.453456163406372070e+00 1.447996997833251953e+01 -2.739328738243784755e-05 3.380887574166990817e-05 1.924676325870677829e-06 4.265095412847585976e-06
2.557000000000000000e+03 3.614507913589477539e+00 -1.895439338684082031e+01 9.027050109580159187e-04 -2.416607167106121778e-04 1.983132824534550309e-04 -1.293784498557215557e-05
2.558000000000000000e+03 3.281579971313476562e+00 -6.620678424835205078e+00 1.955384941538795829e-04 1.146760478150099516e-04 9.306436550104990602e-05 1.778640289558097720e-04
2.559000000000000000e+03 4.757580566406250000e+01 -2.711695098876953125e+01 7.627274990081787109e-01 -6.710209250450134277e-01 2.751196175813674927e-02 -8.289711475372314453e-01
2.560000000000000000e+03 7.722938537597656250e+01 -7.773472309112548828e+00 2.195883076637983322e-03 -6.440544128417968750e-01 -1.925575584173202515e-01 -3.153223097324371338e-01
2.561000000000000000e+03 7.654443359375000000e+01 -1.945194053649902344e+01 -5.025821924209594727e-02 -4.541449248790740967e-02 -2.870181389153003693e-02 -1.285770982503890991e-01
2.562000000000000000e+03 7.771439361572265625e+01 1.990397274494171143e-01 5.994388088583946228e-02 -1.464335441589355469e+00 -4.213174879550933838e-01 -1.568286120891571045e-01
2.563000000000000000e+03 7.149505615234375000e+01 8.921810150146484375e+00 -2.079581841826438904e-02 3.178945302963256836e+00 9.474447965621948242e-01 2.008329890668392181e-02
2.564000000000000000e+03 7.608493041992187500e+01 6.852537155151367188e+00 4.289400950074195862e-02 -2.135842144489288330e-01 -5.120705813169479370e-02 5.963559821248054504e-02
2.565000000000000000e+03 7.598633575439453125e+01 8.224791526794433594e+00 -3.239942342042922974e-02 -1.667321473360061646e-01 -5.973947048187255859e-02 4.753189906477928162e-02
2.566000000000000000e+03 7.137632751464843750e+01 1.863540077209472656e+01 3.178269416093826294e-02 3.170153617858886719e+00 9.605808854103088379e-01 -1.022030040621757507e-02
2.567000000000000000e+03 7.115105438232421875e+01 2.135735511779785156e+01 3.757585957646369934e-02 3.372828960418701172e+00 1.023121476173400879e+00 -7.016395032405853271e-02
2.568000000000000000e+03 5.475777435302734375e+01 -3.059981536865234375e+01 2.272324264049530029e-01 3.519559144973754883e+00 1.124037504196166992e+00 -6.623260974884033203e-01
2.569000000000000000e+03 5.679335021972656250e+01 -2.544095230102539062e+01 3.375278234481811523e+00 1.085072875022888184e+00 1.338105320930480957e+00 2.741294145584106445e+00
2.570000000000000000e+03 5.609125900268554688e+01 -2.641167068481445312e+01 4.106549739837646484e+00 1.297134757041931152e+00 1.621105313301086426e+00 3.130884885787963867e+00
2.571000000000000000e+03 5.400624847412109375e+01 -2.982002830505371094e+01 3.074880838394165039e-01 4.439118862152099609e+00 1.423982024192810059e+00 2.865730226039886475e-01
2.572000000000000000e+03 5.555170822143554688e+01 -2.534497833251953125e+01 2.428151607513427734e+00 2.404752969741821289e+00 1.449871420860290527e+00 2.355196475982666016e+00
2.573000000000000000e+03 5.420088958740234375e+01 -2.574562835693359375e+01 2.095923900604248047e+00 3.842131614685058594e+00 1.781416654586791992e+00 4.085057675838470459e-01
2.574000000000000000e+03 5.302141189575195312e+01 -2.615339469909667969e+01 2.865947484970092773e+00 2.349866867065429688e+00 1.564744353294372559e+00 -6.342983841896057129e-01
2.575000000000000000e+03 5.248233413696289062e+01 -2.885801124572753906e+01 2.338874340057373047e+00 2.486480474472045898e+00 1.447606444358825684e+00 1.291771650314331055e+00
2.576000000000000000e+03 5.267256927490234375e+01 -2.845505332946777344e+01 2.899367809295654297e+00 2.539324045181274414e+00 1.631607532501220703e+00 1.353901863098144531e+00
2.577000000000000000e+03 5.289038085937500000e+01 -2.904854393005371094e+01 1.940564513206481934e+00 3.263995885848999023e+00 1.561368107795715332e+00 1.406972050666809082e+00
2.578000000000000000e+03 5.753619766235351562e+01 -2.606035232543945312e+01 3.266083955764770508e+00 1.059103965759277344e+00 1.297556400299072266e+00 2.328456878662109375e+00
2.579000000000000000e+03 5.700212097167968750e+01 -2.574118232727050781e+01 3.478193759918212891e+00 9.138385057449340820e-01 1.317609667778015137e+00 2.628137826919555664e+00
2.580000000000000000e+03 5.672117233276367188e+01 -2.578643989562988281e+01 3.547562837600708008e+00 9.773139357566833496e-01 1.357463002204895020e+00 2.749305725097656250e+00
2.581000000000000000e+03 5.704273986816406250e+01 -2.508494377136230469e+01 3.505944013595581055e+00 1.085267305374145508e+00 1.377363324165344238e+00 2.497459650039672852e+00
2.582000000000000000e+03 4.834080886840820312e+01 -2.427850532531738281e+01 -9.858721494674682617e-02 -6.410074234008789062e-01 -2.218783944845199585e-01 -1.567351222038269043e+00
2.583000000000000000e+03 5.105511856079101562e+01 -1.604976844787597656e+01 6.397503966582007706e-06 3.421984047236037441e-06 2.945846517832251266e-06 9.216427088176715188e-07
2.584000000000000000e+03 1.572630310058593750e+01 -8.879634857177734375e+00 1.757605059538036585e-04 -5.518149191630072892e-05 3.617370384745299816e-05 8.946601883508265018e-05
2.585000000000000000e+03 1.634555053710937500e+01 -8.760046958923339844e+00 1.617081579752266407e-05 1.099597739084856585e-05 8.150037501764018089e-06 -1.160647589131258428e-04
2.586000000000000000e+03 1.586618614196777344e+01 -6.875679016113281250e+00 6.119019235484302044e-05 5.137709376867860556e-05 3.377018583705648780e-05 2.640380625962279737e-05
2.587000000000000000e+03 2.669334602355957031e+01 -9.664826393127441406e+00 -1.558378471600008197e-06 -2.016920916503295302e-06 -1.072589839168358594e-06 4.182552117981686024e-07
2.588000000000000000e+03 2.630854606628417969e+01 -8.032447814941406250e+00 5.776587840955471620e-06 -2.807270220728241839e-06 8.907953770176391117e-07 -5.526877430384047329e-06
2.589000000000000000e+03 1.549146556854248047e+01 -6.524005889892578125e+00 -1.189854592666961253e-04 -2.174539076804649085e-05 -4.221925701131112874e-05 -4.088664718437939882e-05
2.590000000000000000e+03 5.371743392944335938e+01 -2.224382591247558594e+01 -1.804894804954528809e+00 3.704181909561157227e-01 -4.303430020809173584e-01 -6.795760989189147949e-01
2.591000000000000000e+03 5.511409378051757812e+01 -2.290827369689941406e+01 -4.653807282447814941e-01 7.746306061744689941e-01 9.277497231960296631e-02 3.175298571586608887e-01
2.592000000000000000e+03 4.972085571289062500e+01 -2.372497940063476562e+01 -3.577771484851837158e-01 -3.874710202217102051e-01 -2.235744446516036987e-01 -1.635431170463562012e+00
2.593000000000000000e+03 4.597472000122070312e+01 -2.433672523498535156e+01 -1.875941753387451172e-01 -8.876809477806091309e-01 -3.225825428962707520e-01 -1.359328150749206543e+00
2.594000000000000000e+03 4.688832855224609375e+01 -2.477707672119140625e+01 -8.590417914092540741e-03 -8.395941853523254395e-01 -2.544553875923156738e-01 -1.450655102729797363e+00
2.595000000000000000e+03 5.239805221557617188e+01 -2.292113113403320312e+01 -1.136812329292297363e+00 3.377988040447235107e-01 -2.397040575742721558e-01 -1.165523290634155273e+00
2.596000000000000000e+03 1.526547241210937500e+01 -7.525080680847167969e+00 -1.040431016008369625e-04 -7.220906354632461444e-06 -3.337920134072192013e-05 1.020170930132735521e-05
2.597000000000000000e+03 1.532875251770019531e+01 -7.006567001342773438e+00 9.541843610350042582e-05 3.015670472450437956e-06 2.953023249574471265e-05 -6.962692168599460274e-06
2.598000000000000000e+03 5.108034896850585938e+01 -2.324448204040527344e+01 -7.929463386535644531e-01 -4.232123494148254395e-02 -2.505802810192108154e-01 -1.520181298255920410e+00
2.599000000000000000e+03 1.067255020141601562e+01 3.189194679260253906e+00 1.065432024915935472e-05 1.988398025787319057e-06 3.792815505221369676e-06 -1.235669060406507924e-05
2.600000000000000000e+03 9.632478713989257812e+00 4.076325893402099609e+00 2.392276837781537324e-05 7.036728220555232838e-06 9.287849024985916913e-06 -1.343192525382619351e-05
2.601000000000000000e+03 6.736720275878906250e+01 -1.274582576751708984e+01 -6.667782366275787354e-02 1.210087180137634277e+00 3.430227935314178467e-01 2.428393512964248657e-01
2.602000000000000000e+03 7.666262054443359375e+01 -3.207287597656250000e+01 -5.551189184188842773e-03 -9.038153802976012230e-04 -1.936501357704401016e-03 5.274225492030382156e-03
2.603000000000000000e+03 7.664547729492187500e+01 -3.121357154846191406e+01 -1.244205399416387081e-03 -1.656227279454469681e-03 -8.701297920197248459e-04 1.924500102177262306e-03
2.604000000000000000e+03 3.950393438339233398e+00 3.863824844360351562e+00 9.381217751069925725e-06 4.270912086212774739e-06 4.095639269507955760e-06 -1.663686089159455150e-05
2.605000000000000000e+03 2.550352668762207031e+01 -9.650346755981445312e+00 1.297850417358858977e-06 1.243190013155981433e-06 7.623121405231358949e-07 1.822339186219323892e-06
2.606000000000000000e+03 2.638363456726074219e+01 -1.108421707153320312e+01 4.127068677917122841e-06 2.792011855490272865e-06 2.075724296446423978e-06 1.990463488255045377e-06
2.607000000000000000e+03 2.742405700683593750e+01 -9.986144065856933594e+00 1.477443129260791466e-05 6.774023830757869291e-08 4.452651410247199237e-06 1.734152078824990895e-06
2.608000000000000000e+03 6.447938537597656250e+01 -2.017022514343261719e+01 -1.339785940945148468e-02 1.091217517852783203e+00 3.233458995819091797e-01 1.238680362701416016e+00
2.609000000000000000e+03 6.375592422485351562e+01 -1.808943367004394531e+01 -1.047184586524963379e+00 1.291232585906982422e+00 7.321440428495407104e-02 6.320171952247619629e-01
2.610000000000000000e+03 4.052628707885742188e+01 -1.495402336120605469e+01 -9.415116437594406307e-06 -1.802873583756081644e-07 -2.878621216950705275e-06 -2.095812533298158087e-06
2.611000000000000000e+03 1.775067901611328125e+01 -1.127907466888427734e+01 3.600113268475979567e-05 2.175819281546864659e-05 1.732779674057383090e-05 -3.392789585632272065e-05
2.612000000000000000e+03 6.676291656494140625e+01 -1.582039165496826172e+01 -4.310115277767181396e-01 1.032689332962036133e+00 1.805033534765243530e-01 3.180776238441467285e-01
2.613000000000000000e+03 7.421902656555175781e+00 -4.095417022705078125e+00 1.433836150681599975e-04 1.157860097009688616e-04 7.775089034112170339e-05 -2.162429336749482900e-05
2.614000000000000000e+03 2.228850364685058594e+01 -3.609718322753906250e+00 2.426699757052119821e-05 -2.484629249011049978e-06 6.534710337291471660e-06 -6.757770734111545607e-06
2.615000000000000000e+03 2.178543472290039062e+01 -2.059369325637817383e+00 1.957451968337409198e-05 -4.792199433722998947e-06 4.434696165844798088e-06 -1.352429194412252400e-06
2.616000000000000000e+03 1.617111587524414062e+01 1.156583547592163086e+00 2.121748366334941238e-06 4.051669293403392658e-06 1.852025320658867713e-06 -5.707773198082577437e-06
2.617000000000000000e+03 7.842359161376953125e+01 -3.211123657226562500e+01 -2.974958624690771103e-03 -1.413185731507837772e-03 -1.316443318501114845e-03 1.949007273651659489e-03
2.618000000000000000e+03 2.594716835021972656e+01 -7.443768501281738281e+00 8.837473615130875260e-06 5.054821485828142613e-07 2.802886683639371768e-06 2.334525333935744129e-06
2.619000000000000000e+03 2.561949348449707031e+01 -6.821798801422119141e+00 2.025257572313421406e-06 -2.563748466855031438e-06 -1.615472768889958388e-07 -6.569329343619756401e-06
2.620000000000000000e+03 2.076228523254394531e+01 -5.097981169819831848e-02 1.555788912810385227e-05 -9.214105375576764345e-06 1.903134943859186023e-06 -7.951375664561055601e-06
2.621000000000000000e+03 1.992887878417968750e+01 -4.522769749164581299e-01 2.418532858428079635e-05 5.859064458491047844e-06 9.013318049255758524e-06 -1.268153823730244767e-06
2.622000000000000000e+03 4.538078689575195312e+01 -1.730640983581542969e+01 3.351310624566394836e-06 1.269195763597963378e-06 1.386151893711939920e-06 6.773948371119331568e-07
2.623000000000000000e+03 6.494541168212890625e+01 -1.772278022766113281e+01 -7.697783112525939941e-01 1.227442145347595215e+00 1.372991204261779785e-01 6.175901889801025391e-01
2.624000000000000000e+03 4.029807662963867188e+01 -1.819132423400878906e+01 -1.008169510896550491e-05 -1.236736693499551620e-06 -3.395529347471892834e-06 -2.501389644748996943e-06
2.625000000000000000e+03 1.512945842742919922e+01 3.166014432907104492e+00 -2.512087348804925568e-06 3.688260449052904733e-06 3.528518845996586606e-07 -3.969234967371448874e-06
2.626000000000000000e+03 2.280223274230957031e+01 -4.120220184326171875e+00 1.175370016426313668e-05 2.359009386054822244e-06 4.233812887832755223e-06 5.275770035950699821e-06
2.627000000000000000e+03 6.578837585449218750e+01 -1.621454811096191406e+01 -5.478319525718688965e-01 1.100754022598266602e+00 1.658766418695449829e-01 3.803400695323944092e-01
2.628000000000000000e+03 1.372173404693603516e+01 -5.751059055328369141e+00 1.311329106101766229e-04 8.761695789871737361e-05 6.562496128026396036e-05 -2.656123797351028770e-06
2.629000000000000000e+03 1.296254539489746094e+01 5.111022472381591797e+00 2.122986188624054193e-05 1.127835093939211220e-05 9.752463483891915530e-06 -8.118776349874678999e-06
2.630000000000000000e+03 5.762710189819335938e+01 -2.205690956115722656e+01 -1.597689986228942871e-01 6.658005118370056152e-01 1.518094539642333984e-01 8.072514533996582031e-01
2.631000000000000000e+03 5.854274368286132812e+01 -2.264766883850097656e+01 1.373155474662780762e+00 1.145241379737854004e+00 7.555190324783325195e-01 1.255696773529052734e+00
2.632000000000000000e+03 8.663537025451660156e+00 -3.362671375274658203e+00 -2.145419712178409100e-04 3.512759940349496901e-05 -5.382431118050590158e-05 -2.957472133857663721e-05
2.633000000000000000e+03 9.236279487609863281e+00 -3.896350145339965820e+00 1.625433214940130711e-04 4.647664172807708383e-05 6.270598532864823937e-05 1.654802872508298606e-05
2.634000000000000000e+03 1.202348041534423828e+01 3.800092935562133789e+00 1.707063165667932481e-05 1.546367229821044020e-06 5.585099643212743104e-06 -1.721529406495392323e-05
2.635000000000000000e+03 4.184619522094726562e+01 -1.657196617126464844e+01 8.621512279205489904e-06 1.498638880548242014e-06 3.036045427506905980e-06 8.010514420675463043e-07
2.636000000000000000e+03 6.251050567626953125e+01 -2.184543228149414062e+01 1.191568136215209961e+00 1.522630810737609863e+00 8.142597079277038574e-01 1.924822211265563965e+00
2.637000000000000000e+03 4.538685607910156250e+01 -1.805493736267089844e+01 -2.413255742794717662e-06 -1.498049073234142270e-06 -1.173391410702606663e-06 -3.184254353527649073e-07
2.638000000000000000e+03 1.983337211608886719e+01 2.986855208873748779e-01 1.172717838926473632e-05 -7.598525826324475929e-06 1.238595700669975486e-06 -1.081222671928117052e-05
2.639000000000000000e+03 2.973820877075195312e+01 -1.454522228240966797e+01 3.402422862563980743e-06 1.118002501243609004e-06 1.356127654617012013e-06 -3.865330100438768568e-08
2.640000000000000000e+03 2.866194963455200195e+00 4.432214260101318359e+00 -1.881014554783178028e-06 8.033559424802660942e-06 1.845763335950323381e-06 -3.231592017982620746e-06
2.641000000000000000e+03 4.527687072753906250e+01 -2.567000007629394531e+01 1.132087875157594681e-02 -1.151182413101196289e+00 -3.419584631919860840e-01 -1.263338327407836914e+00
2.642000000000000000e+03 9.244003295898437500e+00 -2.461956024169921875e+00 -8.049370080698281527e-05 -6.541168113471940160e-05 -4.377161531010642648e-05 3.048330108867958188e-05
2.643000000000000000e+03 5.646659851074218750e+01 -2.339410591125488281e+01 9.556969404220581055e-01 8.752489089965820312e-01 5.492837429046630859e-01 1.271004915237426758e+00
2.644000000000000000e+03 2.218866920471191406e+01 -2.590295314788818359e+00 1.317045462201349437e-05 1.162444277724716812e-06 4.299869488022523001e-06 -1.947419292491758824e-07
2.645000000000000000e+03 4.629726791381835938e+01 -2.657200622558593750e+01 2.718720138072967529e-01 -9.419963359832763672e-01 -2.010372877120971680e-01 -1.081378579139709473e+00
2.646000000000000000e+03 4.978929138183593750e+01 -2.837512016296386719e+01 1.630715727806091309e+00 2.202169150114059448e-01 5.552797913551330566e-01 6.699782609939575195e-02
2.647000000000000000e+03 1.825771522521972656e+01 -1.017787075042724609e+01 1.316045527346432209e-04 1.494561638537561521e-05 4.396505028125829995e-05 1.055692046065814793e-04
2.648000000000000000e+03 1.865498733520507812e+01 -1.086539459228515625e+01 -9.322475671069696546e-05 -1.594237255631014705e-04 -7.579454540973529220e-05 -4.166891812928952277e-05
2.649000000000000000e+03 4.724060440063476562e+01 -2.630173683166503906e+01 4.848833382129669189e-01 -8.051844239234924316e-01 -9.609032422304153442e-02 -1.135272502899169922e+00
2.650000000000000000e+03 3.669339370727539062e+01 -1.396968460083007812e+01 -1.965525598279782571e-06 -2.372387370996875688e-06 -1.301373913520365022e-06 3.378786004759604111e-06
2.651000000000000000e+03 3.462557315826416016e+00 4.782958984375000000e+00 1.955803054443094879e-05 8.418604920734651387e-06 8.392990821448620409e-06 -6.125136224000016227e-06
2.652000000000000000e+03 3.031177330017089844e+01 -1.409481334686279297e+01 1.988901772165263537e-07 9.381357131132972427e-07 3.411077784676308511e-07 4.794121650775196031e-06
2.653000000000000000e+03 6.163280010223388672e+00 3.827675819396972656e+00 -5.118465651321457699e-06 -9.412394774699350819e-07 -1.817911538637417834e-06 -7.947039193823002279e-06
2.654000000000000000e+03 4.185964584350585938e+01 -1.782246398925781250e+01 4.377292498247697949e-06 -2.121226771123474464e-06 6.768197522433183622e-07 2.895822490245336667e-06
2.655000000000000000e+03 4.297187042236328125e+01 -1.795180702209472656e+01 5.853268703503999859e-06 2.098327513522235677e-06 2.385478865107870661e-06 1.298344045608246233e-06
2.656000000000000000e+03 1.068953418731689453e+01 -4.452008247375488281e+00 9.796564700081944466e-05 7.694208034081384540e-05 5.247231820248998702e-05 2.576576662249863148e-05
2.657000000000000000e+03 5.177559661865234375e+01 -2.910993576049804688e+01 2.011656522750854492e+00 1.804146766662597656e+00 1.144741058349609375e+00 1.030172824859619141e+00
2.658000000000000000e+03 5.266936492919921875e+01 -3.074690246582031250e+01 6.151916384696960449e-01 2.740830183029174805e+00 1.006806492805480957e+00 6.904205679893493652e-01
2.659000000000000000e+03 2.881079292297363281e+01 -1.249492263793945312e+01 -5.067735401098616421e-06 -2.156724121959996410e-06 -2.167337697756011039e-06 1.202775251840648707e-06
2.660000000000000000e+03 2.806730270385742188e+01 -1.165118312835693359e+01 -5.831118869537021965e-06 -1.449314254386990797e-06 -2.184129925808520056e-06 1.996420223804307170e-06
2.661000000000000000e+03 4.909384918212890625e+01 -1.592619991302490234e+01 4.214398359181359410e-06 -1.470034703743294813e-06 8.233091648435220122e-07 -3.884390025632455945e-06
2.662000000000000000e+03 5.067961883544921875e+01 -2.877085685729980469e+01 1.886848092079162598e+00 8.049693703651428223e-01 8.075452446937561035e-01 5.057700872421264648e-01
2.663000000000000000e+03 4.851778030395507812e+01 -2.833136558532714844e+01 1.084148168563842773e+00 -2.769907116889953613e-01 2.421472519636154175e-01 -2.896578609943389893e-01
2.664000000000000000e+03 6.839690399169921875e+01 -8.471988677978515625e+00 1.826486587524414062e-01 1.799967408180236816e+00 5.947848558425903320e-01 4.605589509010314941e-01
2.665000000000000000e+03 4.523390197753906250e+01 -2.661050224304199219e+01 2.757309563457965851e-02 -1.117846488952636719e+00 -3.270820081233978271e-01 -1.121132373809814453e+00
2.666000000000000000e+03 6.376860427856445312e+01 -2.161018753051757812e+01 1.312473893165588379e+00 7.876200675964355469e-01 6.300281882286071777e-01 1.487235665321350098e+00
2.667000000000000000e+03 7.531963348388671875e+01 -1.678421974182128906e+01 -6.766051054000854492e-02 2.443963102996349335e-02 -1.296626403927803040e-02 -2.141059041023254395e-01
2.668000000000000000e+03 7.318010711669921875e+01 -1.146260833740234375e+01 -7.984842360019683838e-02 5.027453899383544922e-01 1.268690824508666992e-01 -2.720313668251037598e-01
2.669000000000000000e+03 7.425689697265625000e+01 -1.170259666442871094e+01 -7.386456429958343506e-02 2.851147055625915527e-01 6.337504833936691284e-02 -3.186281323432922363e-01
2.670000000000000000e+03 7.498426818847656250e+01 -2.220016098022460938e+01 -9.816754609346389771e-02 3.278724104166030884e-02 -1.961409114301204681e-02 -7.370293140411376953e-02
2.671000000000000000e+03 7.705876159667968750e+01 -2.281851005554199219e+01 -3.463787212967872620e-02 -1.625494845211505890e-02 -1.526784524321556091e-02 -4.708184301853179932e-02
2.672000000000000000e+03 5.816015720367431641e+00 1.426347160339355469e+01 7.191502390924142674e-06 1.058474936144193634e-05 5.332875389285618439e-06 1.585834252182394266e-05
2.673000000000000000e+03 5.309451103210449219e+00 7.233270645141601562e+00 6.427631888072937727e-06 1.843055906647350639e-05 7.457457286363933235e-06 -1.783400148269720376e-05
2.674000000000000000e+03 4.542588043212890625e+01 -7.148736000061035156e+00 5.295081336953444406e-06 -4.514165993896313012e-06 2.342745943906265893e-07 -8.088006325124297291e-06
2.675000000000000000e+03 6.996238231658935547e+00 -1.545574665069580078e+01 -6.006932817399501801e-04 -1.467333204345777631e-04 -2.242279879283159971e-04 -9.877427510218694806e-05
2.676000000000000000e+03 5.478683948516845703e+00 -1.162794208526611328e+01 4.029003321193158627e-04 -2.208164914918597788e-05 1.142456021625548601e-04 8.095386874629184604e-05
2.677000000000000000e+03 7.467388916015625000e+01 6.814094543457031250e+00 5.084345117211341858e-02 7.353831529617309570e-01 2.358679771423339844e-01 4.428970813751220703e-02
2.678000000000000000e+03 7.552275085449218750e+01 1.346904182434082031e+01 -3.548010066151618958e-02 1.892527788877487183e-01 4.613180458545684814e-02 6.457836367189884186e-03
2.679000000000000000e+03 7.444216918945312500e+01 1.676227951049804688e+01 4.161431267857551575e-02 9.506585001945495605e-01 2.976818382740020752e-01 -3.567026928067207336e-02
2.680000000000000000e+03 6.679161190986633301e-01 2.061229705810546875e+01 5.089444675832055509e-05 4.712535883300006390e-05 2.940594276878982782e-05 -1.404770614499284420e-06
2.681000000000000000e+03 8.903491020202636719e+00 -1.499082660675048828e+01 -4.968296270817518234e-04 8.988725312519818544e-06 -1.463522639824077487e-04 -4.467710459721274674e-05
2.682000000000000000e+03 4.159670257568359375e+01 2.054857462644577026e-02 4.892505239695310593e-05 6.372374627972021699e-06 1.658922701608389616e-05 -1.596916081325616688e-05
2.683000000000000000e+03 7.428256225585937500e+01 1.445192813873291016e+00 2.795915603637695312e-01 1.111078023910522461e+00 4.172008931636810303e-01 -1.448325961828231812e-01
2.684000000000000000e+03 7.871392059326171875e+01 -8.790387153625488281e+00 6.712575443089008331e-03 -1.039595007896423340e+00 -3.098647594451904297e-01 -1.787609457969665527e-01
2.685000000000000000e+03 7.956612396240234375e+01 -8.335859298706054688e+00 -5.575684830546379089e-03 -1.402082324028015137e+00 -4.222973883152008057e-01 -4.055881500244140625e-02
2.686000000000000000e+03 7.139813899993896484e+00 8.828042984008789062e+00 -1.141395659942645580e-05 1.195863660541363060e-05 1.634038966358275502e-07 -2.148526618839241564e-05
2.687000000000000000e+03 4.349550628662109375e+01 -2.622332334518432617e+00 -4.496173914958490059e-06 9.430043064639903605e-06 1.480160790379159153e-06 2.534355417083133943e-06
2.688000000000000000e+03 7.506560516357421875e+01 -8.666542053222656250e+00 -2.565083652734756470e-02 1.293192505836486816e-01 3.110052645206451416e-02 -3.765010237693786621e-01
2.689000000000000000e+03 6.641776561737060547e+00 -9.518607139587402344e+00 -2.592033415567129850e-04 -2.091369096888229251e-04 -1.405020739184692502e-04 1.885563251562416553e-04
2.690000000000000000e+03 3.956277847290039062e+01 2.994927167892456055e+00 -4.843830538447946310e-05 -2.622396095830481499e-06 -1.531820998934563249e-05 2.487295932951383293e-05
2.691000000000000000e+03 4.433369636535644531e+00 1.277135467529296875e+01 -1.338390484306728467e-05 1.979320586542598903e-05 1.922790488606551662e-06 1.228741325576265808e-06
2.692000000000000000e+03 6.446010589599609375e+01 -1.844621086120605469e+01 -8.194434046745300293e-01 1.272461891174316406e+00 1.359055489301681519e-01 7.549108266830444336e-01
2.693000000000000000e+03 6.776004791259765625e+01 -1.722743797302246094e+01 -3.441771566867828369e-01 8.222954869270324707e-01 1.434354931116104126e-01 3.944704532623291016e-01
2.694000000000000000e+03 6.724967193603515625e+01 -1.640990066528320312e+01 -4.175030291080474854e-01 9.652823805809020996e-01 1.643338054418563843e-01 3.636894822120666504e-01
2.695000000000000000e+03 6.982028961181640625e+01 -1.759281730651855469e+01 -2.074092179536819458e-01 5.163845419883728027e-01 9.269260615110397339e-02 1.375381946563720703e-01
2.696000000000000000e+03 6.880152130126953125e+01 -9.945316314697265625e+00 7.551512867212295532e-02 1.470675587654113770e+00 4.638572037220001221e-01 2.270344793796539307e-01
2.697000000000000000e+03 7.444842529296875000e+01 -4.979019641876220703e+00 2.218704298138618469e-02 5.483905673027038574e-01 1.711732745170593262e-01 -3.404195606708526611e-01
2.698000000000000000e+03 7.578004455566406250e+01 1.489983177185058594e+01 1.054701395332813263e-02 7.023173570632934570e-02 2.423362620174884796e-02 -1.705862767994403839e-02
2.699000000000000000e+03 1.320234870910644531e+01 -1.025731658935546875e+01 -1.534716138849034905e-04 -2.675932191777974367e-04 -1.263194426428526640e-04 1.512544840807095170e-04
2.700000000000000000e+03 3.195203304290771484e+00 -2.072582054138183594e+01 8.566277101635932922e-04 -5.696937932953005657e-06 2.552792138885706663e-04 1.852234563557431102e-04
2.701000000000000000e+03 4.647239685058593750e+00 -1.386620140075683594e+01 -3.405118768569082022e-04 3.773666394408792257e-04 1.105642513721249998e-05 -1.315710251219570637e-04
2.702000000000000000e+03 4.745411682128906250e+01 -1.115618991851806641e+01 4.996335974283283576e-06 1.265504761249758303e-05 5.295415121508995071e-06 2.745459539710282115e-07
2.703000000000000000e+03 7.347307586669921875e+01 1.400451183319091797e+01 -2.293075062334537506e-02 1.563930392265319824e+00 4.622998833656311035e-01 -5.057173967361450195e-02
2.704000000000000000e+03 7.187541961669921875e+01 -1.852068710327148438e+01 -1.441287547349929810e-01 2.537163794040679932e-01 3.287628293037414551e-02 -6.135368347167968750e-02
2.705000000000000000e+03 7.939114379882812500e+01 1.522591495513916016e+01 1.319032534956932068e-02 -2.611410856246948242e+00 -7.794662117958068848e-01 1.344026811420917511e-02
2.706000000000000000e+03 7.787473297119140625e+01 1.545023441314697266e+00 6.768041849136352539e-02 -1.576171517372131348e+00 -4.525473117828369141e-01 -1.130864545702934265e-01
2.707000000000000000e+03 1.717487573623657227e+00 -1.097687339782714844e+01 4.469978739507496357e-04 1.210917762364260852e-04 1.704268943285569549e-04 -1.361228351015597582e-04
2.708000000000000000e+03 7.816368865966796875e+01 -6.093365192413330078e+00 1.432517636567354202e-02 -1.167660117149353027e+00 -3.460004925727844238e-01 -2.306079268455505371e-01
2.709000000000000000e+03 7.126217651367187500e+01 2.000043106079101562e+01 1.117858104407787323e-02 3.268780469894409180e+00 9.839876890182495117e-01 -2.950413711369037628e-02
2.710000000000000000e+03 5.456447982788085938e+01 -3.105922889709472656e+01 2.749834060668945312e-01 3.326934576034545898e+00 1.080575346946716309e+00 -5.051777958869934082e-01
2.711000000000000000e+03 5.613225555419921875e+01 -2.593540573120117188e+01 3.519025564193725586e+00 1.594349265098571777e+00 1.534012436866760254e+00 3.051348924636840820e+00
2.712000000000000000e+03 5.461608123779296875e+01 -2.521267318725585938e+01 1.622577548027038574e+00 2.980427980422973633e+00 1.380901694297790527e+00 1.094648599624633789e+00
2.713000000000000000e+03 5.148693847656250000e+01 -2.836355400085449219e+01 2.469726562500000000e+00 1.293005228042602539e+00 1.128819584846496582e+00 7.185849547386169434e-01
2.714000000000000000e+03 5.268449020385742188e+01 -2.704736328125000000e+01 3.800169229507446289e+00 1.907076478004455566e+00 1.712173700332641602e+00 -3.349936008453369141e-02
2.715000000000000000e+03 5.609574508666992188e+01 -2.505955886840820312e+01 2.633069276809692383e+00 1.550585508346557617e+00 1.255096435546875000e+00 2.341487407684326172e+00
2.716000000000000000e+03 5.524302291870117188e+01 -2.521494865417480469e+01 2.017807006835937500e+00 2.679340362548828125e+00 1.409144163131713867e+00 1.939978480339050293e+00
2.717000000000000000e+03 5.281116867065429688e+01 -2.682454490661621094e+01 3.785667419433593750e+00 2.095147609710693359e+00 1.764244437217712402e+00 -2.236958444118499756e-01
2.718000000000000000e+03 5.491414260864257812e+01 -2.514652252197265625e+01 1.709504604339599609e+00 2.858787775039672852e+00 1.370487689971923828e+00 1.494109272956848145e+00
2.719000000000000000e+03 5.326361465454101562e+01 -2.976573944091796875e+01 8.930969238281250000e-01 3.701251029968261719e+00 1.378304362297058105e+00 9.194833040237426758e-01
2.720000000000000000e+03 5.630522537231445312e+01 -2.555049896240234375e+01 3.229221820831298828e+00 1.392766952514648438e+00 1.386596679687500000e+00 2.823268651962280273e+00
2.721000000000000000e+03 5.647743606567382812e+01 -2.582631874084472656e+01 3.534423589706420898e+00 1.127161145210266113e+00 1.398475408554077148e+00 2.851449966430664062e+00
2.722000000000000000e+03 5.515123748779296875e+01 -3.032619094848632812e+01 1.591381803154945374e-02 3.661241054534912109e+00 1.103146433830261230e+00 -9.959388375282287598e-01
2.723000000000000000e+03 4.782884979248046875e+01 -2.524377822875976562e+01 3.390259742736816406e-01 -7.300808429718017578e-01 -1.173164546489715576e-01 -1.402281284332275391e+00
2.724000000000000000e+03 5.732862472534179688e+01 -2.456793212890625000e+01 2.941631078720092773e+00 1.090520262718200684e+00 1.209645390510559082e+00 2.097509145736694336e+00
2.725000000000000000e+03 5.247315597534179688e+01 -2.341644287109375000e+01 -5.666399002075195312e-01 5.711871385574340820e-01 1.364176627248525620e-03 -1.105367541313171387e+00
2.726000000000000000e+03 1.609286117553710938e+01 -8.189464569091796875e+00 -4.349320442997850478e-05 -5.774038072559051216e-05 -3.037007445527706295e-05 1.049228885676711798e-04
2.727000000000000000e+03 1.567538833618164062e+01 -9.495537757873535156e+00 -2.107286272803321481e-04 2.447649603709578514e-05 -5.587564010056667030e-05 -4.470274143386632204e-05
2.728000000000000000e+03 5.040527343750000000e+01 -2.347281646728515625e+01 -5.903223752975463867e-01 -2.216715812683105469e-01 -2.435981929302215576e-01 -1.600957989692687988e+00
2.729000000000000000e+03 1.576007080078125000e+01 -7.724095344543457031e+00 6.383284198818728328e-05 1.152063705376349390e-04 5.371176303015090525e-05 -9.743098053149878979e-05
2.730000000000000000e+03 5.174146652221679688e+01 -2.305265808105468750e+01 -1.011376380920410156e+00 1.532450318336486816e-01 -2.574394047260284424e-01 -1.385392308235168457e+00
2.731000000000000000e+03 4.877961349487304688e+01 -2.764375114440917969e+01 1.281689405441284180e+00 -3.497645258903503418e-01 2.795774638652801514e-01 -5.061545968055725098e-01
2.732000000000000000e+03 4.642164230346679688e+01 -1.604189682006835938e+01 2.366275339227286167e-06 -2.467998456268105656e-06 -3.051695784961339086e-08 -1.965811861737165600e-06
2.733000000000000000e+03 4.597753906250000000e+01 -1.649473381042480469e+01 8.405858352489303797e-06 -9.048470133166119922e-07 2.250303396067465656e-06 2.046799863819614984e-06
2.734000000000000000e+03 5.305618667602539062e+01 -2.284849357604980469e+01 -1.165418386459350586e+00 5.149824023246765137e-01 -1.951308101415634155e-01 -8.935980796813964844e-01
2.735000000000000000e+03 5.372630310058593750e+01 -2.283039093017578125e+01 -1.050579309463500977e+00 6.890471577644348145e-01 -1.084596514701843262e-01 -5.306609869003295898e-01
2.736000000000000000e+03 1.351802539825439453e+01 -8.141448020935058594e+00 1.589865278219804168e-04 1.419235777575522661e-04 9.027303167385980487e-05 -1.650944468565285206e-04
2.737000000000000000e+03 1.404806232452392578e+01 -6.729102134704589844e+00 1.110635566874407232e-04 8.777924085734412074e-05 5.965284071862697601e-05 -2.750605926848948002e-05
2.738000000000000000e+03 5.707524871826171875e+01 -2.303772354125976562e+01 8.817682862281799316e-01 7.888658046722412109e-01 5.011902451515197754e-01 1.261412382125854492e+00
2.739000000000000000e+03 4.144028472900390625e+01 -1.398778152465820312e+01 -8.789173080003820360e-06 -2.910151579271769151e-06 -3.509797352307941765e-06 -1.104901343751407694e-06
2.740000000000000000e+03 4.761535263061523438e+01 -1.472853469848632812e+01 -8.043324669415596873e-06 2.815562993419007398e-06 -1.568328457324241754e-06 1.628491304472845513e-06
2.741000000000000000e+03 4.739995574951171875e+01 -1.549585151672363281e+01 5.653942025674041361e-06 -2.362115537835052237e-06 9.875478781395941041e-07 -2.738384637268609367e-06
2.742000000000000000e+03 2.946005058288574219e+01 -1.152641487121582031e+01 -8.936357858146948274e-07 -4.055626504850806668e-06 -1.484778636040573474e-06 -1.231671717505378183e-06
2.743000000000000000e+03 1.265154647827148438e+01 -6.153149604797363281e+00 6.304595444817095995e-05 1.882068609120324254e-04 7.537584315286949277e-05 2.677298471098765731e-05
2.744000000000000000e+03 2.773663711547851562e+01 -8.522933006286621094e+00 1.244775648956419900e-05 -3.722602514244499616e-06 2.617546215333277360e-06 5.218630576564464718e-06
2.745000000000000000e+03 2.774685859680175781e+01 -9.196560859680175781e+00 -8.230993444158229977e-06 -2.588490133348386735e-06 -3.245845164201455191e-06 -5.350704668671824038e-06
2.746000000000000000e+03 2.858518981933593750e+01 -1.334043979644775391e+01 6.903158464410807937e-06 1.418480565007484984e-06 2.496491788406274281e-06 -1.123598963204130996e-06
2.747000000000000000e+03 2.988961219787597656e+01 -1.330777931213378906e+01 3.339191607665270567e-07 -6.888524808346119244e-07 -1.064799945993399888e-07 -2.921083478213404305e-06
2.748000000000000000e+03 1.196328830718994141e+01 -6.559939384460449219e+00 1.305750192841514945e-04 -6.646104884566739202e-05 1.923419222293887287e-05 1.820723628043197095e-05
2.749000000000000000e+03 4.942865753173828125e+01 -2.790988922119140625e+01 1.495861172676086426e+00 -1.187754943966865540e-01 4.131256937980651855e-01 -3.143157660961151123e-01
2.750000000000000000e+03 6.737866973876953125e+01 -1.396348953247070312e+01 -2.341748178005218506e-01 1.087636709213256836e+00 2.560385763645172119e-01 2.141054719686508179e-01
2.751000000000000000e+03 2.691708755493164062e+01 -7.625989913940429688e+00 8.969039299699943513e-06 7.324166517719277181e-07 2.910436705860774964e-06 2.178250042561558075e-06
2.752000000000000000e+03 2.665373802185058594e+01 -7.056050300598144531e+00 -1.578960109327454120e-06 -1.687352323642699048e-06 -9.798936844163108617e-07 -5.444942416943376884e-06
2.753000000000000000e+03 6.790214538574218750e+01 -1.569745159149169922e+01 -3.268600106239318848e-01 9.394355416297912598e-01 1.837726533412933350e-01 2.520160377025604248e-01
2.754000000000000000e+03 4.616270828247070312e+01 -2.495136642456054688e+01 -2.370768785476684570e-02 -9.580109119415283203e-01 -2.945155799388885498e-01 -1.401502013206481934e+00
2.755000000000000000e+03 2.531153297424316406e+01 -6.184953212738037109e+00 1.365774187433999032e-05 -1.160659962806676049e-06 3.749124516616575420e-06 4.259028628439409658e-06
2.756000000000000000e+03 5.441009902954101562e+01 -2.285582160949707031e+01 -8.181701302528381348e-01 7.796741724014282227e-01 -1.154878083616495132e-02 -9.919124841690063477e-02
2.757000000000000000e+03 5.368596649169921875e+01 -2.340062713623046875e+01 -4.152450561523437500e-01 1.032538414001464844e+00 1.851880103349685669e-01 -4.298328757286071777e-01
2.758000000000000000e+03 4.479453659057617188e+01 -1.661878585815429688e+01 -1.099648557101318147e-06 6.069438995837117545e-07 -1.478113773600853165e-07 5.924124479861347936e-07
2.759000000000000000e+03 2.066391754150390625e+01 -1.963563919067382812e+00 1.798916309780906886e-05 -1.235882564287749119e-06 5.025984137319028378e-06 -1.706218540675763506e-06
2.760000000000000000e+03 4.155498886108398438e+01 -1.574419784545898438e+01 -8.633567631477490067e-06 -1.282192783946811687e-06 -2.974728204208076932e-06 -2.244523329864023253e-06
2.761000000000000000e+03 1.031479740142822266e+01 3.760245084762573242e+00 3.912859938282053918e-06 4.115203864785144106e-06 2.408419049970689230e-06 -6.251706054172245786e-06
2.762000000000000000e+03 9.786766052246093750e+00 4.882109165191650391e+00 -1.020013769448269159e-05 6.252962975850095972e-06 -1.184152438327146228e-06 -1.151864307757932693e-05
2.763000000000000000e+03 1.134509468078613281e+01 -5.413346767425537109e+00 7.487060793209820986e-05 1.805638894438743591e-04 7.663034921279177070e-05 4.727125087811145931e-06
2.764000000000000000e+03 1.201462554931640625e+01 -5.781825065612792969e+00 -1.345815398963168263e-04 -1.186429944937117398e-04 -7.596735667902976274e-05 -4.744996476802043617e-05
2.765000000000000000e+03 2.358427047729492188e+01 -2.836841821670532227e+00 2.768776539596728981e-05 2.346530663999146782e-06 9.010288522404152900e-06 7.962176823639310896e-06
2.766000000000000000e+03 4.711249160766601562e+01 -1.626699829101562500e+01 -4.135985818720655516e-06 1.935473164849099703e-06 -6.601537734240991995e-07 3.254593821111484431e-06
2.767000000000000000e+03 1.862090301513671875e+01 1.645991325378417969e+00 5.450513981486437842e-06 -6.097378900449257344e-06 -1.940594529514783062e-07 7.283831564564025030e-06
2.768000000000000000e+03 5.032112121582031250e+01 -1.546302604675292969e+01 -5.636816240439657122e-07 -2.991505652971682139e-06 -1.066556251316796988e-06 -5.179028448765166104e-06
2.769000000000000000e+03 5.196205139160156250e+01 -3.022409248352050781e+01 1.135112404823303223e+00 2.204295396804809570e+00 1.001822352409362793e+00 9.820281267166137695e-01
2.770000000000000000e+03 5.192966842651367188e+01 -3.098090934753417969e+01 7.717270851135253906e-01 2.096483469009399414e+00 8.604631423950195312e-01 8.252205252647399902e-01
2.771000000000000000e+03 4.823227310180664062e+01 -1.572230052947998047e+01 -3.676921551232226193e-06 1.675617340879398398e-06 -6.003912744745321106e-07 3.150203838231391273e-06
2.772000000000000000e+03 5.069555282592773438e+01 -2.824939727783203125e+01 2.055469751358032227e+00 6.312523484230041504e-01 8.060166239738464355e-01 2.774953544139862061e-01
2.773000000000000000e+03 5.142888259887695312e+01 -2.960158157348632812e+01 1.562511563301086426e+00 1.679805517196655273e+00 9.726951122283935547e-01 9.834181070327758789e-01
2.774000000000000000e+03 5.846525955200195312e+01 -2.440531730651855469e+01 3.317142009735107422e+00 1.507401347160339355e+00 1.447363018989562988e+00 2.320964336395263672e+00
2.775000000000000000e+03 9.916292190551757812e+00 -4.295003414154052734e+00 -1.812807022361084819e-04 -7.237198587972670794e-05 -7.609580643475055695e-05 -3.469573493930511177e-05
2.776000000000000000e+03 1.450389766693115234e+01 3.622395992279052734e+00 2.299777224834542722e-05 6.488048711617011577e-07 7.093973181326873600e-06 -1.743717257340904325e-05
2.777000000000000000e+03 2.475235748291015625e+01 -4.934505939483642578e+00 2.048391252174042165e-05 -4.702896148955915123e-06 4.734305093734292313e-06 7.886763341957703233e-06
2.778000000000000000e+03 7.051034927368164062e+00 3.688257217407226562e+00 1.636518391023855656e-05 9.262115781893953681e-06 7.688189725740812719e-06 -9.114411113841924816e-06
2.779000000000000000e+03 2.217609977722167969e+01 -9.637063145637512207e-01 2.169786057493183762e-05 -6.083624612074345350e-06 4.684270606958307326e-06 4.694446943176444620e-06
2.780000000000000000e+03 2.876808166503906250e+01 -1.164347076416015625e+01 9.192182005790527910e-06 1.578950673319923226e-06 3.231339860576554202e-06 -2.759557901299558580e-06
2.781000000000000000e+03 1.091241073608398438e+01 4.199202537536621094e+00 8.116794560919515789e-06 5.291416982800001279e-06 4.022463599540060386e-06 -1.812753725971560925e-05
2.782000000000000000e+03 3.479919052124023438e+01 -1.300062084197998047e+01 5.038823474023956805e-06 2.925243279605638236e-06 2.389220071563613601e-06 4.125056420889450237e-06
2.783000000000000000e+03 3.319745254516601562e+01 -1.225947475433349609e+01 -1.099945166060933843e-05 4.751578046580107184e-07 -3.157288119837176055e-06 -5.575282102654455230e-06
2.784000000000000000e+03 8.723641395568847656e+00 -4.306126594543457031e+00 -3.746845322893932462e-05 3.754299905267544091e-05 2.236429708091236535e-08 1.112494737753877416e-05
2.785000000000000000e+03 8.851797103881835938e+00 -5.064901828765869141e+00 -1.156323342001996934e-04 -9.751378820510581136e-05 -6.394383672159165144e-05 2.401271376584190875e-05
2.786000000000000000e+03 8.024206161499023438e+00 4.355369091033935547e+00 1.990156852116342634e-05 8.651568350614979863e-06 8.565941243432462215e-06 -9.629827218304853886e-06
2.787000000000000000e+03 2.140472221374511719e+01 -1.439700365066528320e+00 1.027984944812487811e-05 -1.096566847991198301e-06 2.754984734565368854e-06 -7.257607194333104417e-06
2.788000000000000000e+03 1.808451461791992188e+01 9.752748608589172363e-01 2.556127947173081338e-05 3.836472387774847448e-06 8.819325557851698250e-06 -1.452746892027789727e-05
2.789000000000000000e+03 4.216483592987060547e+00 -5.536724090576171875e+00 1.329411607002839446e-04 1.425554946763440967e-04 8.264899952337145805e-05 1.897508191177621484e-04
2.790000000000000000e+03 1.638432121276855469e+01 2.008060216903686523e+00 3.358963294886052608e-05 9.157801628134620842e-07 1.035162404150469229e-05 -5.497508936969097704e-06
2.791000000000000000e+03 1.491835117340087891e+01 2.415393590927124023e+00 3.177960388711653650e-05 4.474885827221442014e-06 1.087634700525086373e-05 -9.239493920176755637e-06
2.792000000000000000e+03 6.621503448486328125e+01 -1.744217491149902344e+01 -5.320240855216979980e-01 1.054585456848144531e+00 1.567683964967727661e-01 5.362534523010253906e-01
2.793000000000000000e+03 8.351041793823242188e+00 1.728869438171386719e+01 -2.964460145449265838e-05 4.825736596103524789e-06 -7.445659321092534810e-06 -4.928650923829991370e-06
2.794000000000000000e+03 8.883358955383300781e+00 1.576971340179443359e+01 -1.884246012195944786e-05 8.464867278235033154e-07 -5.398791927291313186e-06 2.683190359675791115e-06
2.795000000000000000e+03 6.704939842224121094e+00 2.159452819824218750e+01 2.978969860123470426e-05 3.357745663379319012e-05 1.901014729810412973e-05 -8.127571163640823215e-06
2.796000000000000000e+03 7.331955432891845703e+00 1.410216903686523438e+01 3.993232439825078472e-06 3.782248995776171796e-06 2.332644271518802270e-06 3.858991476590745151e-06
2.797000000000000000e+03 7.346433639526367188e+00 1.056210708618164062e+01 1.278474519494920969e-05 1.974543374672066420e-05 9.759053682500962168e-06 -2.631670213304460049e-05
2.798000000000000000e+03 4.598764038085937500e+01 -1.107458305358886719e+01 7.011687557678669691e-06 6.554378160217311233e-06 4.069819624419324100e-06 -2.694679324122262187e-06
2.799000000000000000e+03 4.543357086181640625e+01 -1.040955162048339844e+01 -1.085698750102892518e-05 -2.383017545071197674e-06 -3.972001195506891236e-06 -1.540126163490640465e-06
2.800000000000000000e+03 7.326746368408203125e+01 -6.842318534851074219e+00 1.590486243367195129e-02 8.492915034294128418e-01 2.595589160919189453e-01 -2.740063071250915527e-01
2.801000000000000000e+03 4.727303981781005859e+00 -2.105581665039062500e+01 7.366076897596940398e-05 -1.580314710736274719e-04 -2.531121026549953967e-05 3.624420496635138988e-04
2.802000000000000000e+03 5.589086055755615234e+00 -1.073214435577392578e+01 -5.379954236559569836e-04 1.169228999060578644e-04 -1.263217563973739743e-04 6.630693678744137287e-05
2.803000000000000000e+03 6.949448585510253906e+00 -1.065905952453613281e+01 -3.580689080990850925e-04 -1.751387462718412280e-04 -1.599622919457033277e-04 2.188639628002420068e-04
2.804000000000000000e+03 6.070490837097167969e+00 -1.401430130004882812e+01 -2.112084621330723166e-04 4.451439890544861555e-04 7.018065662123262882e-05 -2.937624230980873108e-04
2.805000000000000000e+03 7.129811859130859375e+01 -1.688305854797363281e+01 -1.768085807561874390e-01 4.380006194114685059e-01 7.835761457681655884e-02 -3.796018287539482117e-02
2.806000000000000000e+03 7.190563964843750000e+01 -1.139801597595214844e+01 -9.882598370313644409e-02 7.849218845367431641e-01 2.058287709951400757e-01 -1.859196871519088745e-01
2.807000000000000000e+03 4.184076690673828125e+01 -2.163100004196166992e+00 -3.580937118385918438e-05 -1.990012060559820384e-05 -1.671284735493827611e-05 3.547216329025104642e-05
2.808000000000000000e+03 4.349887847900390625e+01 -5.227420330047607422e+00 -1.740022707963362336e-05 2.973421715068980120e-06 -4.328041541157290339e-06 6.143732207419816405e-06
2.809000000000000000e+03 4.386131286621093750e+01 -7.564796447753906250e+00 1.174106728285551071e-05 2.721926193771651015e-06 4.338897724665002897e-06 -7.369435024884296581e-06
2.810000000000000000e+03 7.369254302978515625e+01 -9.008239746093750000e+00 -3.364841267466545105e-02 5.360085964202880859e-01 1.507080495357513428e-01 -3.173607885837554932e-01
2.811000000000000000e+03 7.395709228515625000e+01 -5.688715457916259766e+00 1.853927038609981537e-02 6.858470439910888672e-01 2.113159000873565674e-01 -3.298237621784210205e-01
2.812000000000000000e+03 3.822748947143554688e+01 4.930637359619140625e+00 -6.791069608880206943e-05 7.073991127981571481e-06 -1.825101026042830199e-05 4.615557918441481888e-05
2.813000000000000000e+03 3.816844177246093750e+01 4.185253143310546875e+00 8.636403072159737349e-05 -3.274289701948873699e-05 1.608633829164318740e-05 -1.174778117274399847e-05
2.814000000000000000e+03 3.850764846801757812e+01 2.741597890853881836e+00 5.981915819575078785e-05 2.457584196235984564e-05 2.531850077502895147e-05 -3.369751311765867285e-06
2.815000000000000000e+03 7.152729988098144531e+00 -1.208727169036865234e+01 9.019368735607713461e-05 -1.716052647680044174e-04 -2.442347249598242342e-05 2.316125464858487248e-04
2.816000000000000000e+03 6.869394683837890625e+01 -1.179130363464355469e+01 -4.727771133184432983e-02 1.225968480110168457e+00 3.536072373390197754e-01 1.439690440893173218e-01
2.817000000000000000e+03 7.453042602539062500e+01 -2.059971809387207031e+01 -1.301125138998031616e-01 6.935295462608337402e-02 -1.822786964476108551e-02 -1.154307052493095398e-01
2.818000000000000000e+03 6.972192382812500000e+01 -1.667471694946289062e+01 -2.392152398824691772e-01 6.248068809509277344e-01 1.156774908304214478e-01 1.192484274506568909e-01
2.819000000000000000e+03 3.622611999511718750e+01 6.234278678894042969e+00 1.140161766670644283e-04 -9.294703886553179473e-06 3.141644265269860625e-05 1.766454988683108240e-05
2.820000000000000000e+03 6.739377975463867188e+00 -6.671453952789306641e+00 -9.304372360929846764e-05 -1.879467345133889467e-05 -3.355151784489862621e-05 4.164778874837793410e-05
2.821000000000000000e+03 1.139355087280273438e+01 -9.405584335327148438e+00 3.174819867126643658e-04 -1.727154158288612962e-04 4.342997635831125081e-05 1.622455056349281222e-05
2.822000000000000000e+03 4.801506805419921875e+01 -1.251144123077392578e+01 1.414615690009668469e-05 -1.629709345252194908e-06 3.754934141397825442e-06 8.217611139116343111e-06
2.823000000000000000e+03 4.048353576660156250e+01 2.501511573791503906e-01 -5.595766924670897424e-05 7.344183813984273002e-06 -1.458404585719108582e-05 1.330471786786802113e-05
2.824000000000000000e+03 4.848790359497070312e+01 -1.068433570861816406e+01 -1.106144554796628654e-05 -9.166084964817855507e-06 -6.068259153835242614e-06 -5.464091373141855001e-06
2.825000000000000000e+03 4.886235809326171875e+01 -1.160791778564453125e+01 1.377290664095198736e-05 4.967048425896791741e-06 5.621986474579898641e-06 5.101014721731189638e-06
2.826000000000000000e+03 5.376938629150390625e+01 -3.045114707946777344e+01 3.140870034694671631e-01 3.703227043151855469e+00 1.205194234848022461e+00 1.547393798828125000e-01
2.827000000000000000e+03 5.353543090820312500e+01 -2.565936660766601562e+01 2.123698472976684570e+00 2.929167509078979492e+00 1.515859723091125488e+00 -3.752914667129516602e-01
2.828000000000000000e+03 5.571295166015625000e+01 -2.490181350708007812e+01 2.132860183715820312e+00 1.889806389808654785e+00 1.206799983978271484e+00 2.090475082397460938e+00
2.829000000000000000e+03 5.319895172119140625e+01 -2.537060928344726562e+01 1.765790820121765137e+00 2.213297367095947266e+00 1.193726539611816406e+00 -6.072424054145812988e-01
2.830000000000000000e+03 5.220693206787109375e+01 -2.785430526733398438e+01 3.216715574264526367e+00 1.650882005691528320e+00 1.460279226303100586e+00 6.507093310356140137e-01
2.831000000000000000e+03 5.235908508300781250e+01 -2.751718902587890625e+01 3.485091686248779297e+00 1.654932737350463867e+00 1.542007327079772949e+00 3.877683579921722412e-01
2.832000000000000000e+03 5.495980834960937500e+01 -2.466451835632324219e+01 1.344786167144775391e+00 2.382511377334594727e+00 1.118189334869384766e+00 1.267262935638427734e+00
2.833000000000000000e+03 5.287457656860351562e+01 -2.575369262695312500e+01 2.282649517059326172e+00 2.023306369781494141e+00 1.291786789894104004e+00 -7.480011582374572754e-01
2.834000000000000000e+03 5.247426223754882812e+01 -2.664631462097167969e+01 3.196723222732543945e+00 1.627108097076416016e+00 1.447149395942687988e+00 -4.211957752704620361e-01
2.835000000000000000e+03 5.208914184570312500e+01 -2.870997810363769531e+01 2.425740957260131836e+00 1.963987469673156738e+00 1.316918492317199707e+00 1.086768507957458496e+00
2.836000000000000000e+03 5.234036636352539062e+01 -2.833460426330566406e+01 2.885691404342651367e+00 2.056042909622192383e+00 1.482520341873168945e+00 1.089866280555725098e+00
2.837000000000000000e+03 5.261886978149414062e+01 -3.002772331237792969e+01 1.088564038276672363e+00 2.851122379302978516e+00 1.181905984878540039e+00 1.015954613685607910e+00
2.838000000000000000e+03 5.248765182495117188e+01 -2.952202606201171875e+01 1.472699046134948730e+00 2.764603853225708008e+00 1.271190881729125977e+00 1.191113591194152832e+00
2.839000000000000000e+03 5.417058181762695312e+01 -3.076710510253906250e+01 2.159386128187179565e-01 3.624218940734863281e+00 1.152047276496887207e+00 -2.265905588865280151e-01
2.840000000000000000e+03 5.434192276000976562e+01 -2.985654640197753906e+01 7.383823394775390625e-02 4.397054195404052734e+00 1.341267704963684082e+00 -1.855210512876510620e-01
2.841000000000000000e+03 5.444669342041015625e+01 -3.030559158325195312e+01 1.130471229553222656e-01 3.986489772796630859e+00 1.229861021041870117e+00 -4.273655116558074951e-01
2.842000000000000000e+03 4.928096008300781250e+01 -2.460567283630371094e+01 2.660654485225677490e-01 -4.843780696392059326e-01 -6.549379229545593262e-02 -1.505455136299133301e+00
2.843000000000000000e+03 5.060348892211914062e+01 -2.399890327453613281e+01 -4.751303233206272125e-03 -9.625784307718276978e-02 -3.030274435877799988e-02 -1.542699933052062988e+00
2.844000000000000000e+03 5.200154113769531250e+01 -2.396341705322265625e+01 2.242689952254295349e-02 5.462206602096557617e-01 1.705942600965499878e-01 -1.243153691291809082e+00
2.845000000000000000e+03 5.647949218750000000e+01 -2.420890045166015625e+01 1.886004447937011719e+00 1.063480138778686523e+00 8.848453760147094727e-01 1.807320713996887207e+00
2.846000000000000000e+03 4.993650054931640625e+01 -2.427075004577636719e+01 1.488374322652816772e-01 -3.115891218185424805e-01 -4.882550612092018127e-02 -1.550350427627563477e+00
2.847000000000000000e+03 5.199224090576171875e+01 -2.968568038940429688e+01 1.446398735046386719e+00 2.206255912780761719e+00 1.095796465873718262e+00 1.074594020843505859e+00
2.848000000000000000e+03 1.459468746185302734e+01 -7.578235149383544922e+00 1.467750262236222625e-04 -4.022202483611181378e-05 3.196590114384889603e-05 -9.921959644998423755e-06
2.849000000000000000e+03 5.187341308593750000e+01 -2.352898025512695312e+01 -4.531136751174926758e-01 3.477124869823455811e-01 -3.162035346031188965e-02 -1.326809048652648926e+00
2.850000000000000000e+03 5.351541900634765625e+01 -2.477985191345214844e+01 1.059782147407531738e+00 2.080476522445678711e+00 9.420775771141052246e-01 -3.510258793830871582e-01
2.851000000000000000e+03 2.823222732543945312e+01 -1.009429168701171875e+01 -1.164518926088931039e-05 8.263498898486432154e-07 -3.245651896577328444e-06 -8.596632028456951957e-07
2.852000000000000000e+03 2.731929016113281250e+01 -8.050556182861328125e+00 1.229491772392066196e-05 -3.910061252554442035e-08 3.676745336633757688e-06 -1.055033681041095406e-05
2.853000000000000000e+03 5.432386398315429688e+01 -2.350346755981445312e+01 -8.964741975069046021e-02 1.239711403846740723e+00 3.450191915035247803e-01 9.596903622150421143e-02
2.854000000000000000e+03 7.407228469848632812e+00 5.302340984344482422e+00 1.966479976545087993e-05 8.828493264445569366e-06 8.547987818019464612e-06 -9.654550922277849168e-06
2.855000000000000000e+03 7.205830097198486328e+00 4.517409324645996094e+00 -5.477850663737626746e-06 7.921382803033338860e-07 -1.405713760505022947e-06 -1.181273273687111214e-05
2.856000000000000000e+03 5.585253906250000000e+01 -2.302770423889160156e+01 1.741569042205810547e-01 8.312708139419555664e-01 3.016283214092254639e-01 8.232614994049072266e-01
2.857000000000000000e+03 5.166983032226562500e+01 -2.445355796813964844e+01 6.148487329483032227e-01 5.474588274955749512e-01 3.486922681331634521e-01 -1.330182790756225586e+00
2.858000000000000000e+03 4.704302597045898438e+01 -2.551710700988769531e+01 2.509642839431762695e-01 -8.532990217208862305e-01 -1.807004213333129883e-01 -1.329838633537292480e+00
2.859000000000000000e+03 5.906223297119140625e+00 -5.355647087097167969e+00 -3.134382495773024857e-05 2.550870121922343969e-04 6.712295726174488664e-05 1.163548295153304935e-04
2.860000000000000000e+03 6.567181587219238281e+00 -5.440587520599365234e+00 -1.029578488669358194e-04 -2.458924427628517151e-04 -1.046550896717235446e-04 -8.541165698261465877e-06
2.861000000000000000e+03 6.612791538238525391e+00 5.560091972351074219e+00 -6.324615242192521691e-06 6.602987809856131207e-07 -1.699294898571679369e-06 -9.760649845702573657e-06
2.862000000000000000e+03 5.192124938964843750e+01 -2.705306625366210938e+01 3.015819787979125977e+00 1.153219699859619141e+00 1.250711798667907715e+00 -1.682921200990676880e-01
2.863000000000000000e+03 5.116534423828125000e+01 -2.825490951538085938e+01 2.307529211044311523e+00 9.458930492401123047e-01 9.760267138481140137e-01 4.598158001899719238e-01
2.864000000000000000e+03 8.049006462097167969e+00 -4.975236415863037109e+00 6.118801684351637959e-05 1.916947949212044477e-04 7.586483843624591827e-05 -8.667595830047503114e-05
2.865000000000000000e+03 5.880192947387695312e+01 -2.351665687561035156e+01 2.511938095092773438e+00 1.543732285499572754e+00 1.216701149940490723e+00 1.980850100517272949e+00
2.866000000000000000e+03 4.297032928466796875e+01 -1.564286994934082031e+01 7.464925602107541636e-07 -2.472100049999426119e-06 -5.176822241992340423e-07 3.359473623731901171e-07
2.867000000000000000e+03 4.358361053466796875e+01 -1.597549629211425781e+01 -4.242358045303262770e-06 2.735007001319900155e-06 -4.522052847732993541e-07 -1.231776991517108399e-06
2.868000000000000000e+03 4.673462677001953125e+01 -1.461630344390869141e+01 9.492873687122482806e-06 -2.079571913782274351e-06 2.223990577476797625e-06 -7.403193791333251284e-08
2.869000000000000000e+03 3.064859962463378906e+01 -1.293803119659423828e+01 2.962229700642637908e-06 1.797929144231602550e-06 1.428047653462272137e-06 2.609809143905295059e-06
2.870000000000000000e+03 4.978056335449218750e+01 -2.687778091430664062e+01 1.615368127822875977e+00 -1.524283140897750854e-01 4.388819336891174316e-01 -6.492961049079895020e-01
2.871000000000000000e+03 4.971472549438476562e+01 -2.621040534973144531e+01 1.311294794082641602e+00 -3.203981220722198486e-01 2.972690165042877197e-01 -1.023717164993286133e+00
2.872000000000000000e+03 1.918616104125976562e+01 2.303652048110961914e+00 3.174988887622021139e-05 1.336948116659186780e-07 9.565074833517428488e-06 -1.692991099844221026e-05
2.873000000000000000e+03 1.458506202697753906e+01 5.568987846374511719e+00 2.412556023045908660e-05 5.572437203227309510e-06 8.909399184631183743e-06 -6.645826942985877395e-06
2.874000000000000000e+03 9.099285125732421875e+00 5.770457744598388672e+00 -1.617520683794282377e-05 9.484369911660905927e-06 -2.007251396207720973e-06 -1.347033685306087136e-05
2.875000000000000000e+03 2.264925193786621094e+01 1.883506476879119873e-01 1.595927278685849160e-05 -5.007131221645977348e-06 3.285642151240608655e-06 1.182114010589430109e-05
2.876000000000000000e+03 1.646589279174804688e+01 2.788478136062622070e+00 -5.478462298924569041e-06 3.310668489575618878e-06 -6.503381655420525931e-07 -9.637928997108247131e-06
2.877000000000000000e+03 4.142798995971679688e+01 -1.310856151580810547e+01 9.690725164546165615e-06 5.493883691087830812e-06 4.555382929538609460e-06 -1.040981260302942246e-06
2.878000000000000000e+03 3.886041259765625000e+01 -1.369063377380371094e+01 -6.931050506864266936e-07 1.658993824094068259e-06 2.897666320222924696e-07 -6.630563689213886391e-07
2.879000000000000000e+03 1.030510902404785156e+01 -7.824015140533447266e+00 -1.423816429451107979e-04 6.039418076397851110e-05 -2.459623829054180533e-05 -1.190293187391944230e-04
2.880000000000000000e+03 4.884583663940429688e+01 -2.558752250671386719e+01 7.901334762573242188e-01 -5.365581512451171875e-01 7.607258856296539307e-02 -1.274513244628906250e+00
2.881000000000000000e+03 4.958654403686523438e+01 -2.519150733947753906e+01 7.525824904441833496e-01 -3.833940923213958740e-01 1.107565164566040039e-01 -1.359661936759948730e+00
2.882000000000000000e+03 4.466920852661132812e+01 -1.563388347625732422e+01 -3.117721234957571141e-06 -1.999914275074843317e-06 -1.535290721221826971e-06 -9.278526249545393512e-07
2.883000000000000000e+03 1.554105567932128906e+01 -1.030099391937255859e+01 2.137052506441250443e-04 1.473684676511766156e-07 6.415578536689281464e-05 2.901604966609738767e-05
2.884000000000000000e+03 1.475080108642578125e+01 4.790132045745849609e+00 6.016013685439247638e-06 -3.143528829241404310e-06 8.617454341219854541e-07 -1.431048713129712269e-05
2.885000000000000000e+03 5.328446578979492188e+01 -3.045665740966796875e+01 4.840537309646606445e-01 3.403721332550048828e+00 1.166332483291625977e+00 5.243186950683593750e-01
2.886000000000000000e+03 5.144228935241699219e+00 -5.460124015808105469e+00 -3.440519139985553920e-05 -1.931924925884231925e-04 -6.827930337749421597e-05 -1.701157598290592432e-04
2.887000000000000000e+03 4.557221984863281250e+01 -1.235125255584716797e+01 7.359635674220044166e-06 1.072104987542843446e-05 5.424205937742954120e-06 -2.281344677612651139e-06
2.888000000000000000e+03 2.185459327697753906e+01 -2.894413769245147705e-01 1.360959322482813150e-05 -5.490022886078804731e-06 2.435871238049003296e-06 -1.000543761620065197e-05
2.889000000000000000e+03 1.957002639770507812e+01 8.158580064773559570e-01 9.233386663254350424e-06 -4.248312961863121018e-06 1.495522269578941632e-06 8.898736268747597933e-06
2.890000000000000000e+03 1.095126152038574219e+01 -8.874814033508300781e+00 -4.497008339967578650e-04 7.071522850310429931e-05 -1.136956780101172626e-04 -3.948966696043498814e-05
2.891000000000000000e+03 4.690006256103515625e+01 -1.308273887634277344e+01 8.206621714634820819e-06 4.249752691976027563e-06 3.736912276508519426e-06 2.735887392191216350e-06
2.892000000000000000e+03 8.165242195129394531e+00 -8.228547096252441406e+00 -1.329941296717151999e-04 -1.710313808871433139e-04 -9.120765753323212266e-05 6.911870150361210108e-05
2.893000000000000000e+03 7.964351654052734375e+00 -9.661540031433105469e+00 -1.142575492849573493e-04 1.743417960824444890e-04 1.802527367544826120e-05 1.058443158399313688e-04
2.894000000000000000e+03 6.190015792846679688e+00 -5.989534378051757812e+00 1.526897394796833396e-04 -6.731067696819081903e-05 2.561371911724563688e-05 -6.210672290762886405e-05
2.895000000000000000e+03 1.923949432373046875e+01 2.671586573123931885e-01 3.038581235159654170e-05 5.385585154726868495e-06 1.073141902452334762e-05 -1.388433975080261007e-05
2.896000000000000000e+03 5.506214141845703125e+00 5.040859699249267578e+00 -6.590059001609915867e-06 7.893845577200409025e-09 -1.974649421754293144e-06 -2.273988457091036253e-06
2.897000000000000000e+03 2.502013206481933594e+01 -5.548032760620117188e+00 2.253904312965460122e-06 -1.969825007108738646e-06 8.522381733655493008e-08 -7.842501872801221907e-06
2.898000000000000000e+03 2.539808082580566406e+01 -4.477692127227783203e+00 1.677962245594244450e-05 -3.416984327486716211e-06 4.008791620435658842e-06 -7.430797268170863390e-06
2.899000000000000000e+03 1.202395248413085938e+01 5.682844161987304688e+00 7.913145964266732335e-06 1.021145362756215036e-05 5.437379968498134986e-06 -1.421374508936423808e-05
2.900000000000000000e+03 2.441414070129394531e+01 -1.633870840072631836e+00 2.296132151968777180e-05 -6.953117690500221215e-07 6.679802936560008675e-06 1.014581721392460167e-05
2.901000000000000000e+03 2.274650001525878906e+01 -2.236189126968383789e+00 3.160680716973729432e-05 -6.071121333661722019e-06 7.660705705347936600e-06 1.629680468795413617e-06
2.902000000000000000e+03 4.919468402862548828e+00 6.289850234985351562e+00 -8.408229405176825821e-06 -4.244461251801112667e-06 -3.795807288042851724e-06 2.666596856215619482e-06
2.903000000000000000e+03 5.973485565185546875e+01 -2.333693313598632812e+01 3.156996488571166992e+00 1.809046626091003418e+00 1.489812970161437988e+00 2.031782627105712891e+00
2.904000000000000000e+03 1.002224445343017578e+01 1.772283172607421875e+01 -3.112007834715768695e-05 -4.910332904728420544e-07 -9.483333997195586562e-06 -4.888199782726587728e-06
2.905000000000000000e+03 1.060179424285888672e+01 1.601819801330566406e+01 -2.387040876783430576e-05 -1.186932877317303792e-06 -7.517202448070747778e-06 2.525065099234780064e-07
2.906000000000000000e+03 9.008523941040039062e+00 1.423665142059326172e+01 -8.118269761325791478e-06 -2.069299171125749126e-06 -3.056270770684932359e-06 8.129844900395255536e-06
2.907000000000000000e+03 4.463336181640625000e+01 -1.084501743316650391e+01 7.510050636483356357e-06 4.530294063442852348e-06 3.612103455452597700e-06 1.873430960586119909e-06
2.908000000000000000e+03 4.433723068237304688e+01 -9.542161941528320312e+00 -6.427966127375839278e-06 -7.164753696997649968e-06 -4.077815901837311685e-06 1.129124825638427865e-06
2.909000000000000000e+03 8.456421852111816406e+00 -1.033989143371582031e+01 3.048705402761697769e-04 -1.019123883452266455e-04 6.088744339649565518e-05 -1.625560107640922070e-04
2.910000000000000000e+03 7.089567565917968750e+01 -1.421434307098388672e+01 -1.703655272722244263e-01 7.140781283378601074e-01 1.631137728691101074e-01 -7.928203046321868896e-02
2.911000000000000000e+03 7.204975891113281250e+01 -1.409683227539062500e+01 -1.453302353620529175e-01 5.435355305671691895e-01 1.194615885615348816e-01 -1.672777831554412842e-01
2.912000000000000000e+03 3.808568954467773438e+01 4.053882956504821777e-01 6.723100341332610697e-06 -1.558691110403742641e-05 -2.659143319760914892e-06 7.544151685578981414e-06
2.913000000000000000e+03 4.247391510009765625e+01 -8.274295806884765625e+00 2.124755337717942894e-05 -6.686193501082016155e-07 6.173680503707146272e-06 -3.619575409175013192e-06
2.914000000000000000e+03 4.356134414672851562e+01 -8.458559989929199219e+00 -1.231596343131968752e-05 -2.751064357653376646e-06 -4.520108177530346438e-06 5.227388555795187131e-06
2.915000000000000000e+03 3.765118026733398438e+01 3.057776927947998047e+00 3.669204306788742542e-05 -4.187755985185503960e-05 -1.555655103402386885e-06 3.641544753918424249e-05
2.916000000000000000e+03 4.173998260498046875e+01 -5.933696269989013672e+00 -2.896173282351810485e-05 3.472225671430351213e-07 -8.584353054175153375e-06 8.793020242592319846e-06
2.917000000000000000e+03 8.530340194702148438e+00 1.208305263519287109e+01 1.150239540947950445e-06 2.615609082567971200e-05 8.191898814402520657e-06 -3.827317414106801152e-05
2.918000000000000000e+03 6.117117404937744141e+00 -1.261286640167236328e+01 -1.847568055381998420e-04 2.613120886962860823e-04 2.296658385603222996e-05 -2.448953164275735617e-04
2.919000000000000000e+03 7.833570480346679688e+00 -1.300523090362548828e+01 -1.887168473331257701e-04 1.424755755579099059e-04 -1.387237989547429606e-05 -2.894985664170235395e-04
2.920000000000000000e+03 7.116148376464843750e+01 -1.533556461334228516e+01 -1.885578930377960205e-01 5.890949964523315430e-01 1.201611384749412537e-01 -7.286556065082550049e-02
2.921000000000000000e+03 3.624102401733398438e+01 5.105602264404296875e+00 -9.349538595415651798e-05 2.902563028328586370e-05 -1.934092688316013664e-05 1.778877049218863249e-05
2.922000000000000000e+03 3.964517593383789062e+01 -1.399276542663574219e+01 -1.007760693028103560e-05 1.324169716099277139e-06 -2.626031118779792450e-06 -5.720253284380305558e-07
2.923000000000000000e+03 5.227152252197265625e+01 -2.608190727233886719e+01 2.531986236572265625e+00 1.383546590805053711e+00 1.174659848213195801e+00 -7.835482358932495117e-01
2.924000000000000000e+03 5.498288345336914062e+01 -2.358650398254394531e+01 3.425210118293762207e-01 1.262696862220764160e+00 4.815653562545776367e-01 6.369010806083679199e-01
2.925000000000000000e+03 5.458888626098632812e+01 -2.442698097229003906e+01 9.293799996376037598e-01 2.047943592071533203e+00 8.931971192359924316e-01 7.094607949256896973e-01
2.926000000000000000e+03 5.168001937866210938e+01 -2.806819915771484375e+01 2.682501554489135742e+00 1.308882713317871094e+00 1.197415351867675781e+00 5.945370793342590332e-01
2.927000000000000000e+03 5.074023818969726562e+01 -2.779829216003417969e+01 2.177560806274414062e+00 4.801360368728637695e-01 7.973090410232543945e-01 2.485633082687854767e-02
2.928000000000000000e+03 5.362747573852539062e+01 -2.532887840270996094e+01 1.676878094673156738e+00 2.741899251937866211e+00 1.325633168220520020e+00 -2.735497951507568359e-01
2.929000000000000000e+03 5.036228561401367188e+01 -2.663046264648437500e+01 1.864235758781433105e+00 8.152097463607788086e-02 5.837270021438598633e-01 -7.041672468185424805e-01
2.930000000000000000e+03 5.627006149291992188e+01 -2.462357330322265625e+01 2.225162982940673828e+00 1.311682939529418945e+00 1.061053752899169922e+00 2.052335500717163086e+00
2.931000000000000000e+03 5.666090393066406250e+01 -2.483632850646972656e+01 2.856041669845581055e+00 1.086885809898376465e+00 1.182878255844116211e+00 2.233139991760253906e+00
2.932000000000000000e+03 5.125595855712890625e+01 -2.449198913574218750e+01 5.447499155998229980e-01 2.164360433816909790e-01 2.283557951450347900e-01 -1.393600821495056152e+00
2.933000000000000000e+03 5.142161941528320312e+01 -2.888370513916015625e+01 2.112726688385009766e+00 1.439715385437011719e+00 1.065732598304748535e+00 8.622233867645263672e-01
2.934000000000000000e+03 5.176192092895507812e+01 -2.853997039794921875e+01 2.449996948242187500e+00 1.575589060783386230e+00 1.207675814628601074e+00 8.910546302795410156e-01
2.935000000000000000e+03 5.073024749755859375e+01 -2.451748657226562500e+01 4.585127532482147217e-01 1.352158654481172562e-02 1.416103094816207886e-01 -1.448906421661376953e+00
2.936000000000000000e+03 5.209091567993164062e+01 -2.437901687622070312e+01 5.494984388351440430e-01 7.292788028717041016e-01 3.836331665515899658e-01 -1.196175575256347656e+00
2.937000000000000000e+03 5.080961227416992188e+01 -2.685886764526367188e+01 2.173662185668945312e+00 2.943002283573150635e-01 7.403886914253234863e-01 -5.141963958740234375e-01
2.938000000000000000e+03 5.587518692016601562e+01 -2.441276168823242188e+01 1.701445579528808594e+00 1.499135613441467285e+00 9.601743221282958984e-01 1.752441406250000000e+00
2.939000000000000000e+03 5.252869033813476562e+01 -2.481826782226562500e+01 1.062264323234558105e+00 1.223473191261291504e+00 6.857212781906127930e-01 -9.825824499130249023e-01
2.940000000000000000e+03 1.489322757720947266e+01 -9.241744995117187500e+00 2.594483084976673126e-04 4.437740062712691724e-05 9.114771091844886541e-05 -1.004195219138637185e-04
2.941000000000000000e+03 5.145141601562500000e+01 -2.716165161132812500e+01 2.636439085006713867e+00 7.473703026771545410e-01 1.015142798423767090e+00 -1.887688189744949341e-01
2.942000000000000000e+03 2.415646743774414062e+01 -7.992551326751708984e-01 6.792152817070018500e-06 -6.800879873480880633e-06 -2.618014027788717613e-09 -1.154335677711060271e-05
2.943000000000000000e+03 2.583758163452148438e+01 -3.058825731277465820e+00 2.975543566208216362e-06 -1.279366188100539148e-05 -2.945435426227049902e-06 -1.329422229900956154e-05
2.944000000000000000e+03 8.966563224792480469e+00 -7.494195938110351562e+00 4.003176582045853138e-05 1.743621251080185175e-04 6.431817018892616034e-05 -8.099983824649825692e-05
2.945000000000000000e+03 9.585619926452636719e+00 -8.196619987487792969e+00 -1.365694915875792503e-04 -1.007577811833471060e-04 -7.119817746570333838e-05 6.467406637966632843e-05
2.946000000000000000e+03 4.682355117797851562e+01 -1.387404537200927734e+01 -1.084872292267391458e-05 1.994873855437617749e-06 -2.656154720170889050e-06 -3.231394885006011464e-07
2.947000000000000000e+03 1.247875022888183594e+01 -9.554816246032714844e+00 1.513140450697392225e-04 2.377904602326452732e-04 1.167313530459068716e-04 -3.072858089581131935e-05
2.948000000000000000e+03 1.421098232269287109e+01 -8.729207992553710938e+00 -1.558433577883988619e-04 -1.581472752150148153e-04 -9.419718844583258033e-05 1.575247879372909665e-04
2.949000000000000000e+03 1.682765960693359375e+01 4.010180473327636719e+00 -8.175073162419721484e-06 -1.449502406103420071e-06 -2.887372602344839834e-06 1.310122843278804794e-05
2.950000000000000000e+03 1.605602264404296875e+01 3.576208591461181641e+00 -1.331427120021544397e-05 1.165534195024520159e-05 -4.976786840416025370e-07 -5.720167337130988017e-06
2.951000000000000000e+03 5.344921112060546875e+01 -3.226372528076171875e+01 2.281756252050399780e-01 2.495325565338134766e+00 8.170503377914428711e-01 2.001303434371948242e-01
2.952000000000000000e+03 3.143011665344238281e+01 -1.263636875152587891e+01 -2.888663630074006505e-06 -2.086570702886092477e-06 -1.492570277150662150e-06 -2.764687451417557895e-06
2.953000000000000000e+03 3.120756149291992188e+01 -1.181618213653564453e+01 6.328856670734239742e-06 2.434789166727568954e-06 2.629093842188012786e-06 3.675276275316718966e-06
2.954000000000000000e+03 7.827311992645263672e+00 6.692699432373046875e+00 2.552562727942131460e-05 3.480416580714518204e-06 8.701813385414425284e-06 -7.854102477722335607e-06
2.955000000000000000e+03 4.894323348999023438e+01 -1.329194736480712891e+01 1.492095725552644581e-05 -4.414613613334950060e-06 3.151903001707978547e-06 4.263815299054840580e-06
2.956000000000000000e+03 2.940882110595703125e+01 -9.613283157348632812e+00 -5.632838110614102334e-06 5.362701358535559848e-07 -1.528970415165531449e-06 4.543746399576775730e-06
2.957000000000000000e+03 2.969038772583007812e+01 -7.929170131683349609e+00 8.524311851942911744e-06 2.228268385806586593e-06 3.225774207749054767e-06 4.392571099742781371e-06
2.958000000000000000e+03 1.221303844451904297e+01 -7.481637954711914062e+00 -1.248595362994819880e-04 7.680956514377612621e-06 -3.515357457217760384e-05 1.800676000129897147e-05
2.959000000000000000e+03 2.663712882995605469e+01 -4.696032047271728516e+00 2.917771325883222744e-06 -4.150518179812934250e-06 -3.698240220728621352e-07 -1.225958931172499433e-05
2.960000000000000000e+03 1.276151847839355469e+01 6.024769306182861328e+00 5.677408125848160125e-07 -1.990655164263444021e-06 -4.268742941349046305e-07 -1.590078500157687813e-05
2.961000000000000000e+03 9.822151184082031250e+00 5.692949771881103516e+00 2.989147287735249847e-05 2.424670356049318798e-06 9.694843356555793434e-06 -1.406624596711480990e-05
2.962000000000000000e+03 2.889184951782226562e+01 -1.030076789855957031e+01 1.254155904462095350e-05 2.544283290717430646e-07 3.838796146737877280e-06 -5.575558589043794200e-06
2.963000000000000000e+03 4.398825454711914062e+01 -1.521068000793457031e+01 2.123534613929223269e-06 -1.445256202714517713e-06 2.034835233644116670e-07 4.146342575950257014e-07
2.964000000000000000e+03 1.814894866943359375e+01 3.211846351623535156e+00 2.471034895279444754e-05 -2.204347765655256808e-06 6.751800356141757220e-06 -1.367003824270796031e-05
2.965000000000000000e+03 1.866613960266113281e+01 2.734283685684204102e+00 1.886228801595279947e-06 -5.564376351685496047e-06 -1.103444219552329741e-06 3.481143039607559331e-06
2.966000000000000000e+03 4.232958984375000000e+01 -1.556920623779296875e+01 7.259075573529116809e-06 2.037261538134771399e-06 2.788901156236534007e-06 1.705128966023039538e-06
2.967000000000000000e+03 2.229497718811035156e+01 9.017629623413085938e-01 2.120450335496570915e-05 -1.073744533641729504e-05 3.140117541988729499e-06 -1.517716191301587969e-05
2.968000000000000000e+03 1.388145828247070312e+01 -7.484762191772460938e+00 -1.471875584684312344e-04 -5.142388545209541917e-05 -5.958343535894528031e-05 1.449013361707329750e-04
2.969000000000000000e+03 2.807723617553710938e+01 -5.904698371887207031e+00 3.272150570410303771e-05 -4.718925538327312097e-06 8.400774277106393129e-06 7.477791768906172365e-06
2.970000000000000000e+03 5.609780883789062500e+01 -2.391150093078613281e+01 1.281520009040832520e+00 1.189283490180969238e+00 7.412410378456115723e-01 1.517159342765808105e+00
2.971000000000000000e+03 3.017566299438476562e+01 -1.127905654907226562e+01 4.536524102149996907e-06 3.384069486855878495e-06 2.376178144913865253e-06 3.604686526159639470e-06
2.972000000000000000e+03 4.145591354370117188e+01 -1.487127017974853516e+01 8.761086974118370563e-06 1.540823745926900301e-06 3.090573272857000120e-06 2.037705598922912031e-06
2.973000000000000000e+03 7.392166614532470703e+00 -7.446130275726318359e+00 1.169625102193094790e-04 1.020185954985208809e-04 6.569433026015758514e-05 -8.979801350506022573e-05
2.974000000000000000e+03 8.718478202819824219e+00 -5.971300125122070312e+00 1.780903403414413333e-04 1.449756673537194729e-04 9.691980085335671902e-05 -9.875738032860681415e-05
2.975000000000000000e+03 7.922496795654296875e+00 -5.666495800018310547e+00 -1.988677831832319498e-05 -2.837609790731221437e-04 -9.109432721743360162e-05 5.915845031267963350e-05
2.976000000000000000e+03 2.619292068481445312e+01 -3.922329187393188477e+00 1.402603902533883229e-05 -5.874408657291496638e-07 4.031579464935930446e-06 1.351037008134881034e-05
2.977000000000000000e+03 8.789819717407226562e+00 -9.695994377136230469e+00 -2.883851411752402782e-04 -2.335933822905644774e-04 -1.565935526741668582e-04 8.646431524539366364e-05
2.978000000000000000e+03 4.718946075439453125e+01 -1.233193302154541016e+01 -3.795174279730417766e-06 6.037990260665537789e-06 6.728448056492197793e-07 -2.542485162848606706e-06
2.979000000000000000e+03 1.248609542846679688e+01 1.629298973083496094e+01 -1.267921379621839151e-05 -1.425248501618625596e-05 -8.079509825620334595e-06 -3.776483936235308647e-06
2.980000000000000000e+03 1.073484134674072266e+01 1.424915122985839844e+01 -1.101696943806018680e-05 1.487504391661786940e-06 -2.858839479813468643e-06 1.217992462443362456e-06
2.981000000000000000e+03 1.091612148284912109e+01 9.938127517700195312e+00 -2.415994822513312101e-05 -2.012151071539847180e-06 -7.851629561628215015e-06 4.543042450677603483e-06
2.982000000000000000e+03 3.452952194213867188e+01 3.789370059967041016e+00 7.169605851231608540e-06 4.290567630960140377e-06 3.438052090132259764e-06 3.667677810881286860e-05
2.983000000000000000e+03 3.892797470092773438e+01 -4.214056968688964844e+00 1.090047518914616376e-07 5.258557848719647154e-06 1.610268782314960845e-06 9.465285074838902801e-06
2.984000000000000000e+03 3.814212417602539062e+01 -5.527044296264648438e+00 1.548694308439735323e-05 8.463040103379171342e-06 7.184994956332957372e-06 -4.095500571565935388e-06
2.985000000000000000e+03 4.029121398925781250e+01 -9.551910400390625000e+00 -1.089019770006416366e-05 -3.065335704377503134e-06 -4.186659680271986872e-06 -9.385688827023841441e-06
2.986000000000000000e+03 3.171731185913085938e+01 1.279598045349121094e+01 3.058709626202471554e-05 -4.074737080372869968e-05 -3.048082135137519799e-06 3.465703775873407722e-05
2.987000000000000000e+03 3.278173065185546875e+01 4.910222530364990234e+00 1.151894139184150845e-05 -1.100536223930248525e-06 3.125521743641002104e-06 4.600548891176003963e-06
2.988000000000000000e+03 5.394145965576171875e+01 -2.532725906372070312e+01 1.697546720504760742e+00 3.089766740798950195e+00 1.436194062232971191e+00 1.108396053314208984e-01
2.989000000000000000e+03 5.381988143920898438e+01 -2.499593925476074219e+01 1.291770577430725098e+00 2.496845960617065430e+00 1.136584997177124023e+00 -7.745724171400070190e-02
2.990000000000000000e+03 5.534086608886718750e+01 -2.474966049194335938e+01 1.684957504272460938e+00 2.156677722930908203e+00 1.152490496635437012e+00 1.667285323143005371e+00
2.991000000000000000e+03 5.119729232788085938e+01 -2.607534027099609375e+01 1.985684514045715332e+00 4.138144254684448242e-01 7.198497056961059570e-01 -9.091717600822448730e-01
2.992000000000000000e+03 5.496897888183593750e+01 -2.417893600463867188e+01 8.589233160018920898e-01 1.752110123634338379e+00 7.833099961280822754e-01 9.474038481712341309e-01
2.993000000000000000e+03 5.183673477172851562e+01 -2.775301551818847656e+01 2.952110528945922852e+00 1.292859673500061035e+00 1.273491024971008301e+00 4.041229188442230225e-01
2.994000000000000000e+03 5.286944198608398438e+01 -2.532606506347656250e+01 1.696972727775573730e+00 1.812864065170288086e+00 1.052951097488403320e+00 -7.946490049362182617e-01
2.995000000000000000e+03 5.294353485107421875e+01 -2.487414741516113281e+01 1.154267191886901855e+00 1.645749449729919434e+00 8.400049805641174316e-01 -7.445118427276611328e-01
2.996000000000000000e+03 5.647004318237304688e+01 -2.523776245117187500e+01 3.205310106277465820e+00 1.198446989059448242e+00 1.321127176284790039e+00 2.603823661804199219e+00
2.997000000000000000e+03 5.252696228027343750e+01 -2.389107704162597656e+01 1.598529634065926075e-03 8.051970601081848145e-01 2.420386821031570435e-01 -1.054834365844726562e+00
2.998000000000000000e+03 5.544818878173828125e+01 -2.424473571777343750e+01 1.194339990615844727e+00 1.650547623634338379e+00 8.534662723541259766e-01 1.405476212501525879e+00
2.999000000000000000e+03 5.302167892456054688e+01 -2.438391685485839844e+01 6.018696427345275879e-01 1.382260799407958984e+00 5.952391624450683594e-01 -7.489736080169677734e-01
3.000000000000000000e+03 5.059489440917968750e+01 -2.501224899291992188e+01 9.071466326713562012e-01 -9.701020084321498871e-03 2.692336738109588623e-01 -1.375618219375610352e+00
3.001000000000000000e+03 5.044293212890625000e+01 -2.544401168823242188e+01 1.137495636940002441e+00 -4.256070032715797424e-02 3.284804522991180420e-01 -1.224136948585510254e+00
3.002000000000000000e+03 5.172587203979492188e+01 -2.478470802307128906e+01 8.587972521781921387e-01 6.109969019889831543e-01 4.409382343292236328e-01 -1.256040930747985840e+00
3.003000000000000000e+03 5.118563461303710938e+01 -2.738347053527832031e+01 2.492454051971435547e+00 6.226298213005065918e-01 9.345251917839050293e-01 -1.170538067817687988e-01
3.004000000000000000e+03 5.559708023071289062e+01 -2.368004035949707031e+01 8.046112656593322754e-01 1.227655410766601562e+00 6.096799969673156738e-01 1.129708290100097656e+00
3.005000000000000000e+03 3.175272941589355469e+01 -1.067864513397216797e+01 5.074532055004965514e-06 1.558263534207071643e-06 1.989838665394927375e-06 6.383145318977767602e-06
3.006000000000000000e+03 3.134676933288574219e+01 -9.996788024902343750e+00 8.476688890368677676e-06 -7.988811375980731100e-06 1.463630354692213587e-07 -5.728320047637680545e-06
3.007000000000000000e+03 5.413407516479492188e+01 -2.409255409240722656e+01 4.631286859512329102e-01 1.712415695190429688e+00 6.526633501052856445e-01 1.421365886926651001e-01
3.008000000000000000e+03 2.816697692871093750e+01 -6.595068454742431641e+00 -1.050765877153025940e-05 7.847322194720618427e-06 -7.981008707247383427e-07 -9.163166396319866180e-06
3.009000000000000000e+03 1.867532348632812500e+01 3.722635746002197266e+00 5.888091891392832622e-06 -9.081506505026482046e-06 -9.580244295648299158e-07 1.192334093502722681e-05
3.010000000000000000e+03 1.241329669952392578e+01 6.944190502166748047e+00 1.590517786098644137e-05 5.432018497231183574e-06 6.401158771041082218e-06 -8.905249160306993872e-06
3.011000000000000000e+03 1.105205440521240234e+01 5.930922985076904297e+00 8.904777132556773722e-06 2.375181338720722124e-06 3.383987632332718931e-06 -1.311626238020835444e-05
3.012000000000000000e+03 8.218909263610839844e+00 -6.792520999908447266e+00 -1.503045205026865005e-04 -1.406579831382259727e-04 -8.728874672669917345e-05 8.989164780359715223e-05
3.013000000000000000e+03 2.471681785583496094e+01 5.174475312232971191e-01 1.558846088300924748e-05 -6.427544121834216639e-06 2.748274937403039075e-06 -1.514035011496162042e-05
3.014000000000000000e+03 4.505294036865234375e+01 -1.358474540710449219e+01 1.821025080062099732e-06 8.850010999594815075e-06 3.201310846634441987e-06 -1.701450514701718930e-06
3.015000000000000000e+03 4.444827270507812500e+01 -1.437326145172119141e+01 1.761312091730360407e-07 -2.403064627287676558e-06 -6.680800197500502691e-07 1.145538931268674787e-06
3.016000000000000000e+03 2.111169815063476562e+01 3.208107233047485352e+00 7.891422683314885944e-06 -3.649967084129457362e-06 1.272436634280893486e-06 8.856999556883238256e-06
3.017000000000000000e+03 2.033318328857421875e+01 2.548999786376953125e+00 2.840571869455743581e-05 -3.313585693831555545e-06 7.527639809268293902e-06 -1.158930172096006572e-05
3.018000000000000000e+03 2.079257011413574219e+01 1.867165923118591309e+00 5.476050773722818121e-06 -9.558990541336243041e-07 1.356045459033339284e-06 6.309597665676847100e-06
3.019000000000000000e+03 1.373235988616943359e+01 -9.452385902404785156e+00 1.978906802833080292e-04 1.827535743359476328e-04 1.141932734753936529e-04 -1.572572509758174419e-04
3.020000000000000000e+03 2.563779449462890625e+01 -2.125520467758178711e+00 2.154631874873302877e-05 3.612294449339970015e-06 7.547584118583472446e-06 1.449130741093540564e-05
3.021000000000000000e+03 7.626851081848144531e+00 6.033143520355224609e+00 -1.205347780341980979e-05 6.621788543270668015e-06 -1.629506641620537266e-06 -1.499435711593832821e-05
3.022000000000000000e+03 1.450357913970947266e+01 6.489493370056152344e+00 -8.797869668342173100e-06 -4.930458089802414179e-06 -4.118498054594965652e-06 -1.505885666119866073e-05
3.023000000000000000e+03 4.995003509521484375e+01 -2.563772583007812500e+01 1.178138732910156250e+00 -2.617840170860290527e-01 2.749064266681671143e-01 -1.219119429588317871e+00
3.024000000000000000e+03 9.946765899658203125e+00 6.468222141265869141e+00 -2.116993528034072369e-05 1.043549764290219173e-05 -3.220331109332619235e-06 -1.065045398718211800e-05
3.025000000000000000e+03 1.624374961853027344e+01 4.984563350677490234e+00 -1.797987715690396726e-05 5.365254310163436458e-06 -3.784386535699013621e-06 -1.546294879517517984e-05
3.026000000000000000e+03 1.621778678894042969e+01 4.206190586090087891e+00 5.119544584886170924e-05 -1.136676746682496741e-05 1.194860305986367166e-05 -2.251266323582967743e-06
3.027000000000000000e+03 7.271627426147460938e+00 6.939198017120361328e+00 -1.373889404021610972e-06 7.725454452156554908e-06 1.905469503071799409e-06 -8.716354386706370860e-06
3.028000000000000000e+03 9.225095748901367188e+00 6.566118240356445312e+00 3.191292125848121941e-05 1.664205797169415746e-06 1.007313858281122521e-05 -1.288634484808426350e-05
3.029000000000000000e+03 2.839736938476562500e+01 -7.359772205352783203e+00 2.086200038320384920e-05 -5.709988272428745404e-06 4.545603587757796049e-06 3.346443918417207897e-06
3.030000000000000000e+03 4.587577438354492188e+01 -1.386818218231201172e+01 1.225825508299749345e-05 -4.749451818497618660e-06 2.252641024824697524e-06 2.611806394270388409e-06
3.031000000000000000e+03 6.741187572479248047e+00 7.451248168945312500e+00 2.585156835266388953e-06 8.925563633965793997e-06 3.453216322668595240e-06 -1.769937080098316073e-05
3.032000000000000000e+03 1.434735584259033203e+01 1.622100830078125000e+01 -7.908793122624047101e-06 -1.378238266624975950e-05 -6.507352736662141979e-06 -2.830970515788067132e-06
3.033000000000000000e+03 1.256479072570800781e+01 1.430052185058593750e+01 -1.060152499121613801e-05 -1.132951638282975182e-05 -6.579312412213766947e-06 -6.586810286535182968e-06
3.034000000000000000e+03 2.950697326660156250e+01 1.051230430603027344e+01 7.911081047495827079e-05 1.652801188356534112e-06 2.422908255539368838e-05 3.446080154390074313e-05
3.035000000000000000e+03 3.969007873535156250e+01 -6.573758125305175781e+00 2.875636482713161968e-06 6.392323825821222272e-08 8.818678907118737698e-07 1.314153337261814158e-06
3.036000000000000000e+03 3.212312316894531250e+01 3.610356569290161133e+00 -4.199564500595442951e-05 -5.193970537220593542e-06 -1.415688529959879816e-05 9.330599823442753404e-06
3.037000000000000000e+03 3.314064025878906250e+01 2.176266431808471680e+00 -2.656190736161079258e-05 -1.631891791475936770e-05 -1.286424685531528667e-05 2.398904507572297007e-05
3.038000000000000000e+03 3.632342910766601562e+01 -2.129970312118530273e+00 2.908038550231140107e-05 8.890530807548202574e-06 1.139127471105894074e-05 2.016477810684591532e-05
3.039000000000000000e+03 3.612780761718750000e+01 -6.002180099487304688e+00 1.065746982931159437e-05 7.847629603929817677e-06 5.551529739022953436e-06 1.287930354010313749e-05
3.040000000000000000e+03 3.750365829467773438e+01 -6.257865428924560547e+00 4.203776825306704268e-06 -9.194827725877985358e-07 9.852881248662015423e-07 1.316509769822005183e-05
3.041000000000000000e+03 1.029739761352539062e+01 1.259123802185058594e+01 2.926323213614523411e-05 4.582278506859438494e-06 1.015365251078037545e-05 -7.296483545360388234e-06
3.042000000000000000e+03 1.257980060577392578e+01 1.226926708221435547e+01 -2.165310434065759182e-05 -4.565645213006064296e-06 -7.865624866099096835e-06 -3.292086830697371624e-06
3.043000000000000000e+03 9.432168960571289062e+00 8.236035346984863281e+00 3.710006421897560358e-05 2.904754865085124038e-06 1.200144561153138056e-05 -1.939232242875732481e-05
3.044000000000000000e+03 3.513807296752929688e+01 1.261626124382019043e+00 -5.217343641561456025e-05 3.574216862034518272e-06 -1.457976577512454242e-05 8.007173164514824748e-06
3.045000000000000000e+03 5.438345718383789062e+01 -2.485324859619140625e+01 1.200795769691467285e+00 2.557111024856567383e+00 1.127372026443481445e+00 6.178936958312988281e-01
3.046000000000000000e+03 5.204089355468750000e+01 -2.643826866149902344e+01 2.730748176574707031e+00 1.158771276473999023e+00 1.166855812072753906e+00 -6.071464419364929199e-01
3.047000000000000000e+03 5.254951858520507812e+01 -2.435759162902832031e+01 5.267755985260009766e-01 1.048986673355102539e+00 4.727286994457244873e-01 -9.970231652259826660e-01
3.048000000000000000e+03 5.162027359008789062e+01 -2.623127937316894531e+01 2.306257724761962891e+00 7.374308109283447266e-01 9.131065607070922852e-01 -7.743949294090270996e-01
3.049000000000000000e+03 5.206315231323242188e+01 -2.518209266662597656e+01 1.436431288719177246e+00 9.807775616645812988e-01 7.251626253128051758e-01 -1.098969221115112305e+00
3.050000000000000000e+03 5.153210067749023438e+01 -2.742039299011230469e+01 2.770980119705200195e+00 9.146377444267272949e-01 1.105685353279113770e+00 2.999580092728137970e-02
3.051000000000000000e+03 5.142601394653320312e+01 -2.655404472351074219e+01 2.386686325073242188e+00 6.553635001182556152e-01 9.126149415969848633e-01 -6.442306041717529297e-01
3.052000000000000000e+03 5.101401901245117188e+01 -2.644517517089843750e+01 2.155810594558715820e+00 3.261788785457611084e-01 7.445968389511108398e-01 -7.518079280853271484e-01
3.053000000000000000e+03 5.017448806762695312e+01 -2.475490188598632812e+01 5.899298787117004395e-01 -2.197447270154953003e-01 1.110555529594421387e-01 -1.455734491348266602e+00
3.054000000000000000e+03 5.136441421508789062e+01 -2.572760772705078125e+01 1.767809748649597168e+00 4.948548972606658936e-01 6.787993907928466797e-01 -1.019951701164245605e+00
3.055000000000000000e+03 5.390319061279296875e+01 -2.448697471618652344e+01 7.892507910728454590e-01 2.063159942626953125e+00 8.557232618331909180e-01 2.389996778219938278e-03
3.056000000000000000e+03 5.327413177490234375e+01 -2.501059150695800781e+01 1.275063276290893555e+00 2.021415233612060547e+00 9.889435768127441406e-01 -5.431477427482604980e-01
3.057000000000000000e+03 2.964907264709472656e+01 -5.537559032440185547e+00 5.638296897814143449e-06 3.148189080093288794e-06 2.635945747897494584e-06 -1.218262877955567092e-05
3.058000000000000000e+03 2.895878028869628906e+01 -4.745119571685791016e+00 9.235404831997584552e-06 -4.800968781637493521e-06 1.330330860582762398e-06 1.821089790610130876e-05
3.059000000000000000e+03 2.345427513122558594e+01 6.863121986389160156e-01 1.786665961844846606e-05 -7.619657026225468144e-06 3.074100504818488844e-06 -1.764964690664783120e-05
3.060000000000000000e+03 1.214777660369873047e+01 7.909086704254150391e+00 -4.509227892413036898e-06 -7.578896656923461705e-06 -3.626437319326214492e-06 -1.674610939517151564e-05
3.061000000000000000e+03 1.948864746093750000e+01 3.953399896621704102e+00 1.162434546131407842e-05 -2.942683931905776262e-05 -5.340747975424164906e-06 1.343296116829151288e-05
3.062000000000000000e+03 3.065925216674804688e+01 -1.019253826141357422e+01 1.205999797093681991e-05 1.989812972169602290e-06 4.214943146507721394e-06 4.687769433076027781e-06
3.063000000000000000e+03 3.019362068176269531e+01 -8.858758926391601562e+00 9.080571544473059475e-06 -5.070087809144752100e-06 1.203145188810594846e-06 -5.486520876729628071e-06
3.064000000000000000e+03 2.690237236022949219e+01 -2.645830392837524414e+00 2.522682734706904739e-05 1.451947468922298867e-06 8.003632501640822738e-06 1.856687595136463642e-05
3.065000000000000000e+03 4.453937149047851562e+01 -1.283670616149902344e+01 -5.949850219622021541e-06 -1.162768785434309393e-05 -5.273261194815859199e-06 4.802235480383387767e-07
3.066000000000000000e+03 2.932493209838867188e+01 -6.981283187866210938e+00 -7.897738782958185766e-07 -2.759148856057436205e-07 -3.197066291704686591e-07 -4.411768713907804340e-06
3.067000000000000000e+03 3.194628334045410156e+01 -9.553209304809570312e+00 -1.292812794417841360e-05 9.832917385210748762e-06 -9.285630540034617297e-07 7.413971616188064218e-06
3.068000000000000000e+03 3.114310836791992188e+01 -8.291648864746093750e+00 7.308172826014924794e-06 4.061077106598531827e-06 3.410774979784036987e-06 7.450161774613661692e-06
3.069000000000000000e+03 2.118774986267089844e+01 1.145406723022460938e+00 2.326022149645723403e-05 -1.095292009267723188e-05 3.692190603032940999e-06 -1.213546420331113040e-05
3.070000000000000000e+03 9.339780807495117188e+00 7.381113052368164062e+00 -2.526993011997547001e-05 1.129268821387086064e-05 -4.193172571831382811e-06 -1.238203094544587657e-05
3.071000000000000000e+03 1.819922447204589844e+01 4.886476039886474609e+00 2.381565172981936485e-05 -1.257563599210698158e-05 3.372004584889509715e-06 1.251878529728855938e-05
3.072000000000000000e+03 1.840806579589843750e+01 4.238824844360351562e+00 8.962106790022517089e-07 -1.809512014006031677e-06 -2.739904232385015348e-07 -1.719773172226268798e-05
3.073000000000000000e+03 1.330981349945068359e+01 7.289195537567138672e+00 -5.104349156681564637e-07 -1.111807478082482703e-06 -4.866727181251917500e-07 -1.829325083235744387e-05
3.074000000000000000e+03 1.915577888488769531e+01 3.350448369979858398e+00 2.592717828520108014e-05 5.042185421189060435e-06 9.290809430240187794e-06 -1.314201472268905491e-05
3.075000000000000000e+03 1.281108474731445312e+01 1.842518043518066406e+01 2.258312633784953505e-06 -4.294630798540310934e-06 -6.108954266892396845e-07 4.873235866398317739e-06
3.076000000000000000e+03 1.437981414794921875e+01 1.445812511444091797e+01 -2.363201565458439291e-05 -1.200474798679351807e-05 -1.069102927431231365e-05 -4.468191036721691489e-06
3.077000000000000000e+03 1.246694660186767578e+01 1.015438652038574219e+01 5.249332843959564343e-06 4.501198418438434601e-06 2.925159378719399683e-06 -3.507773499222821556e-06
3.078000000000000000e+03 2.756371307373046875e+01 1.144849300384521484e+01 1.034729648381471634e-04 -1.568533662066329271e-05 2.633628901094198227e-05 1.292633328375814017e-06
3.079000000000000000e+03 2.812538337707519531e+01 9.922888755798339844e+00 8.202772005461156368e-05 9.426438737136777490e-06 2.743624645518139005e-05 4.869813892582897097e-06
3.080000000000000000e+03 3.301847839355468750e+01 -1.512497514486312866e-01 3.267430656705982983e-05 1.243105089088203385e-05 1.353160769212990999e-05 -2.600685184006579220e-05
3.081000000000000000e+03 3.357639312744140625e+01 6.773210167884826660e-01 -5.762828095612348989e-06 -1.218672605318715796e-05 -5.384866199165116996e-06 4.578212974593043327e-05
3.082000000000000000e+03 2.720770454406738281e+01 7.873934268951416016e+00 9.041204612003639340e-05 -1.810562753234989941e-05 2.169192521250806749e-05 2.935398515546694398e-05
3.083000000000000000e+03 2.820956993103027344e+01 7.488836288452148438e+00 -2.484238757460843772e-05 -2.199758273491170257e-05 -1.405199145665392280e-05 3.146331073367036879e-05
3.084000000000000000e+03 3.103422546386718750e+01 3.560064315795898438e+00 6.980870239203795791e-05 -6.505796591227408499e-06 1.899087328638415784e-05 1.014980898617068306e-05
3.085000000000000000e+03 3.520143890380859375e+01 -6.431339263916015625e+00 -5.650365892506670207e-06 -9.748396223585586995e-06 -4.619628725777147338e-06 -6.291181307460647076e-06
3.086000000000000000e+03 1.123465156555175781e+01 7.879823207855224609e+00 2.489535290806088597e-05 1.584950223332270980e-05 1.222345690621295944e-05 -2.293753277626819909e-05
3.087000000000000000e+03 3.002491950988769531e+01 5.667681217193603516e+00 -5.129900455358438194e-05 -6.805739303672453389e-06 -1.743142274790443480e-05 -1.762188367138151079e-05
3.088000000000000000e+03 3.578433990478515625e+01 -9.393422603607177734e-01 -1.911050458147656173e-05 -3.056718242078204639e-06 -6.650167051702737808e-06 -9.740640052768867463e-06
3.089000000000000000e+03 3.846767044067382812e+01 -8.336303710937500000e+00 7.682716386625543237e-06 -1.159652470050787088e-06 1.956919049916905351e-06 -9.013962880999315530e-06
3.090000000000000000e+03 5.180529403686523438e+01 -2.589601516723632812e+01 2.106510877609252930e+00 8.462488651275634766e-01 8.858279585838317871e-01 -9.254812598228454590e-01
3.091000000000000000e+03 5.110211563110351562e+01 -2.517675971984863281e+01 1.187668085098266602e+00 2.656955420970916748e-01 4.360091090202331543e-01 -1.258256196975708008e+00
3.092000000000000000e+03 5.195558929443359375e+01 -2.555011940002441406e+01 1.844401955604553223e+00 9.472867250442504883e-01 8.375065922737121582e-01 -1.021795272827148438e+00
3.093000000000000000e+03 5.211319351196289062e+01 -2.478914833068847656e+01 9.742131829261779785e-01 9.366900324821472168e-01 5.732709765434265137e-01 -1.147119879722595215e+00
3.094000000000000000e+03 5.167952346801757812e+01 -2.508524513244628906e+01 1.282317638397216797e+00 6.268041133880615234e-01 5.727365612983703613e-01 -1.164535760879516602e+00
3.095000000000000000e+03 5.024179840087890625e+01 -2.623329734802246094e+01 1.606398344039916992e+00 -6.567459087818861008e-03 4.799492657184600830e-01 -9.452620744705200195e-01
3.096000000000000000e+03 5.078047561645507812e+01 -2.593391990661621094e+01 1.698123574256896973e+00 1.715123802423477173e-01 5.608907938003540039e-01 -9.812944531440734863e-01
3.097000000000000000e+03 2.875078773498535156e+01 -2.288756608963012695e+00 5.161626540939323604e-05 -9.536955985822714865e-06 1.262379373656585813e-05 3.848222604574402794e-06
3.098000000000000000e+03 3.187928009033203125e+01 -6.985849857330322266e+00 1.866407183115370572e-05 1.909412958411849104e-06 6.172045232233358547e-06 7.073134838719852269e-06
3.099000000000000000e+03 4.328175354003906250e+01 -1.225333118438720703e+01 -9.971326107915956527e-06 -5.836880518472753465e-06 -4.742461896967142820e-06 1.344578436146548484e-06
3.100000000000000000e+03 1.404074478149414062e+01 7.712918758392333984e+00 1.146824615716468543e-05 -3.017976496266783215e-06 2.535080966481473297e-06 -9.956697795132640749e-06
3.101000000000000000e+03 2.078396224975585938e+01 4.052678585052490234e+00 1.483697087678592652e-05 -1.210846767207840458e-05 8.185506885638460517e-07 -1.046925353875849396e-05
3.102000000000000000e+03 2.563601684570312500e+01 1.195556640625000000e+00 2.877099177567288280e-06 -7.894849659351166338e-06 -1.505325144535163417e-06 1.537532625661697239e-05
3.103000000000000000e+03 2.670917510986328125e+01 -1.715899944305419922e+00 -1.769672586249271262e-08 -1.597781556483823806e-05 -4.798654117621481419e-06 -1.564764716022182256e-05
3.104000000000000000e+03 2.192032814025878906e+01 1.645353317260742188e+00 6.453270543715916574e-06 5.181955771149659995e-07 2.091439910145709291e-06 1.207479726872406900e-05
3.105000000000000000e+03 4.146562957763671875e+01 -1.029097366333007812e+01 -1.939202411449514329e-05 2.383550054219085723e-06 -5.102542218082817271e-06 -1.795298203433048911e-06
3.106000000000000000e+03 2.648172760009765625e+01 -7.350460290908813477e-01 2.012629738601390272e-05 2.581965190984192304e-06 6.812479114159941673e-06 1.881307616713456810e-05
3.107000000000000000e+03 4.047575759887695312e+01 -1.308917331695556641e+01 -1.053988671628758311e-05 -3.622061967689660378e-06 -4.248584446031600237e-06 2.016529379034182057e-06
3.108000000000000000e+03 4.142017364501953125e+01 -1.222564220428466797e+01 -1.053744017553981394e-05 -4.446555522008566186e-06 -4.495198481890838593e-06 2.037965259660268202e-06
3.109000000000000000e+03 3.228012847900390625e+01 -1.241042518615722656e+01 7.603379344800487161e-06 2.148922703781863675e-06 2.925690523625235073e-06 5.015040187572594732e-06
3.110000000000000000e+03 2.663688087463378906e+01 9.319610595703125000e+00 9.580275946063920856e-05 -1.905585304484702647e-05 2.302407119714189321e-05 2.490652832420892082e-06
3.111000000000000000e+03 2.895840072631835938e+01 3.419194698333740234e+00 4.473808075999841094e-05 4.310144049668451771e-06 1.471446739742532372e-05 2.184078948630485684e-05
3.112000000000000000e+03 3.345228195190429688e+01 -2.931352138519287109e+00 4.052768053952604532e-05 7.172638106567319483e-06 1.431009604857536033e-05 1.293365221499698237e-05
3.113000000000000000e+03 3.395121383666992188e+01 -5.561970233917236328e+00 -1.792491821106523275e-05 -1.128775147662963718e-05 -8.763800906308460981e-06 9.270401278627105057e-06
3.114000000000000000e+03 1.591222286224365234e+01 1.213910961151123047e+01 4.290478682378306985e-05 -3.270698471169453114e-06 1.189022623293567449e-05 -1.627490928512997925e-05
3.115000000000000000e+03 1.379447555541992188e+01 8.512928009033203125e+00 -9.843782208918128163e-06 -3.067960733460495248e-06 -3.873522928188322112e-06 -2.080027661577332765e-05
3.116000000000000000e+03 1.300944900512695312e+01 8.215324401855468750e+00 1.247383352165343240e-05 1.220961257786257192e-05 7.405034011753741652e-06 -6.309234322543488815e-06
3.117000000000000000e+03 2.799156761169433594e+01 5.405560493469238281e+00 -1.826706466090399772e-05 -3.657774868770502508e-05 -1.645344309508800507e-05 -2.210239836131222546e-05
3.118000000000000000e+03 5.152591323852539062e+01 -2.539253234863281250e+01 1.535346150398254395e+00 5.670258402824401855e-01 6.307115554809570312e-01 -1.145264267921447754e+00
3.119000000000000000e+03 5.092600250244140625e+01 -2.556407737731933594e+01 1.432900309562683105e+00 2.132409214973449707e-01 4.938423633575439453e-01 -1.150052666664123535e+00
3.120000000000000000e+03 4.311120223999023438e+01 -1.151415061950683594e+01 1.344820975646143779e-05 1.848528313530550804e-06 4.589021500578382984e-06 2.690922883630264550e-06
3.121000000000000000e+03 4.235985183715820312e+01 -1.145690059661865234e+01 -8.039927706704474986e-06 -2.531571908548357897e-06 -3.171449861838482320e-06 5.173244971956592053e-06
3.122000000000000000e+03 4.147895812988281250e+01 -1.129381179809570312e+01 1.528162647446151823e-05 9.887630767480004579e-07 4.881116637989180163e-06 -4.609052837167837424e-07
3.123000000000000000e+03 2.884245491027832031e+01 -2.948492765426635742e+00 -1.622003401280380785e-05 8.394607903028372675e-06 -2.347627969356835820e-06 -8.000204616109840572e-06
3.124000000000000000e+03 1.467263984680175781e+01 8.021579742431640625e+00 -1.654148400120902807e-05 3.104638835793593898e-06 -4.031053776998305693e-06 -1.030468683893559501e-05
3.125000000000000000e+03 1.985683631896972656e+01 4.423066139221191406e+00 6.890645636303815991e-06 1.157577207777649164e-05 5.539925496123032644e-06 -2.403709368081763387e-05
3.126000000000000000e+03 1.694891166687011719e+01 1.421062374114990234e+01 5.396973574534058571e-05 -1.777034594852011651e-05 1.085981693904614076e-05 -2.375715303060133010e-05
3.127000000000000000e+03 2.786198043823242188e+01 4.390502452850341797e+00 4.987573993275873363e-05 7.757064850011374801e-06 1.728984170767944306e-05 2.795423461066093296e-05
3.128000000000000000e+03 3.171054458618164062e+01 -3.665412664413452148e+00 1.996363062062300742e-05 6.696590844512684271e-06 7.998066394065972418e-06 -4.859423825109843165e-06
3.129000000000000000e+03 2.635567665100097656e+01 1.173289871215820312e+01 -6.429939821828156710e-05 -3.720730455825105309e-05 -3.045201083295978606e-05 -1.548594809719361365e-05
3.130000000000000000e+03 2.642454528808593750e+01 6.261238574981689453e+00 -1.422313016519183293e-05 -2.774587301246356219e-05 -1.259070086234714836e-05 1.769890695868525654e-05
3.131000000000000000e+03 2.957987213134765625e+01 8.829846978187561035e-01 4.394226198201067746e-05 -1.527003041701391339e-05 8.601669833296909928e-06 -1.255466759175760671e-05
3.132000000000000000e+03 3.821408081054687500e+01 -1.200055217742919922e+01 5.664632681146031246e-06 6.761011263733962551e-06 3.727693183463998139e-06 -2.390328063484048471e-06
3.133000000000000000e+03 2.380136680603027344e+01 1.920217990875244141e+00 2.875879727071151137e-05 -1.270052416657563299e-05 4.817482022190233693e-06 -2.281535853398963809e-05
3.134000000000000000e+03 4.330298233032226562e+01 -1.002838706970214844e+01 -1.723358218441717327e-05 5.509097604772250634e-07 -5.004801550967385992e-06 3.277940834323089803e-07
3.135000000000000000e+03 1.958339691162109375e+01 1.583326053619384766e+01 6.444752943934872746e-05 -5.198207873036153615e-05 3.739635076271952130e-06 -6.230748567759292200e-06
3.136000000000000000e+03 1.624091911315917969e+01 8.404037475585937500e+00 -8.240965144068468362e-06 -1.368432185699930415e-05 -6.577586191269801930e-06 -2.533574479457456619e-05
3.137000000000000000e+03 2.994932746887207031e+01 -1.986388802528381348e+00 2.811182275763712823e-05 1.898961727420100942e-06 9.003235390991903841e-06 -7.925700629130005836e-06
3.138000000000000000e+03 2.809384727478027344e+01 2.161902666091918945e+00 2.637492798385210335e-05 1.003405668598134071e-05 1.092269485525321215e-05 3.071320315939374268e-05
3.139000000000000000e+03 2.832037353515625000e+01 1.157314896583557129e+00 1.521783269708976150e-05 -2.882992157537955791e-05 -4.083626663486938924e-06 -1.707217779767233878e-05
3.140000000000000000e+03 2.338136672973632812e+01 2.603955984115600586e+00 6.219365218385064509e-07 6.432233590203395579e-07 3.795479699419956887e-07 2.552982186898589134e-05
3.141000000000000000e+03 2.501999664306640625e+01 1.905897021293640137e+00 2.852890247595496476e-05 -6.514412689284654334e-06 6.604347163374768570e-06 -1.388395139656495303e-05
3.142000000000000000e+03 2.447476005554199219e+01 2.515585184097290039e+00 -5.442850124381948262e-06 -9.595198207534849644e-06 -4.511414317676099017e-06 2.588068673503585160e-05
3.143000000000000000e+03 3.845340347290039062e+01 -1.085267162322998047e+01 -5.797463018097914755e-06 -4.960269507137127221e-06 -3.227319666621042415e-06 3.017425797224859707e-06
3.144000000000000000e+03 2.993709754943847656e+01 -3.292156934738159180e+00 -1.678002627159003168e-05 5.172861619939794764e-06 -3.482149622868746519e-06 8.532997526344843209e-07
3.145000000000000000e+03 4.404352188110351562e+01 -1.024137210845947266e+01 1.972590098375803791e-06 7.758048923278693110e-07 8.245184517363668419e-07 -4.298774456401588395e-06
3.146000000000000000e+03 4.338267898559570312e+01 -9.297977447509765625e+00 1.429069925507064909e-05 4.310065833124099299e-06 5.580229299084749073e-06 -1.582296704327745829e-06
3.147000000000000000e+03 1.623947525024414062e+01 6.692566394805908203e+00 -1.451556545362109318e-05 -3.690422772706369869e-06 -5.461796718009281904e-06 -2.430298081890214235e-05
3.148000000000000000e+03 1.730750083923339844e+01 1.518574142456054688e+01 -6.019453212502412498e-05 9.007027301777270623e-07 -1.778814839781261981e-05 -1.485813754698028788e-06
3.149000000000000000e+03 2.139101028442382812e+01 1.520192432403564453e+01 -7.583647857245523483e-06 -4.595270729623734951e-05 -1.606090700079221278e-05 1.625472577870823443e-05
3.150000000000000000e+03 2.083889770507812500e+01 9.541338920593261719e+00 1.150889056589221582e-05 -1.589096427778713405e-05 -1.314621840720064938e-06 1.484741096646757796e-05
3.151000000000000000e+03 1.898446273803710938e+01 7.258767604827880859e+00 -2.300737105542793870e-05 -1.324448658124310896e-05 -1.087555756384972483e-05 7.079837018864054698e-07
3.152000000000000000e+03 2.054998207092285156e+01 7.750926494598388672e+00 -2.231753387604840100e-05 -2.298258914379402995e-05 -1.359003726975060999e-05 9.359316209156531841e-06
3.153000000000000000e+03 2.502127647399902344e+01 3.253372192382812500e+00 4.671909482567571104e-05 -4.856635769101558253e-06 1.255873758054804057e-05 -1.521969352324958891e-05
3.154000000000000000e+03 2.253019905090332031e+01 5.160486221313476562e+00 1.911209619720466435e-05 -2.289730400661937892e-05 -1.135562115450738929e-06 -7.492611075576860458e-06
3.155000000000000000e+03 2.460208892822265625e+01 4.505058288574218750e+00 5.783282540505751967e-05 -2.609958755783736706e-06 1.656686072237789631e-05 8.960411719272087794e-07
3.156000000000000000e+03 4.277133178710937500e+01 -1.089697360992431641e+01 -1.571442044223658741e-05 3.880275926348986104e-06 -3.550243263816810213e-06 -1.007500759442336857e-05
3.157000000000000000e+03 2.229767036437988281e+01 2.925151586532592773e+00 4.357971192803233862e-06 1.998744892262038775e-06 1.907014848256949335e-06 1.538333344797138125e-05
3.158000000000000000e+03 1.944788551330566406e+01 1.477732849121093750e+01 -5.501080522662959993e-05 -9.738364497025031596e-06 -1.942475137184374034e-05 2.117423491654335521e-06
3.159000000000000000e+03 2.203580474853515625e+01 1.392237091064453125e+01 7.713837248957133852e-07 -2.052296440524514765e-05 -5.925474397372454405e-06 -1.699355198070406914e-05
3.160000000000000000e+03 2.110173225402832031e+01 1.250846958160400391e+01 -7.902792276581749320e-06 -4.452359280548989773e-05 -1.572791552462149411e-05 -1.173647660834831186e-06
3.161000000000000000e+03 2.219194602966308594e+01 1.127991294860839844e+01 -2.459260940668173134e-05 -5.536194294109009206e-05 -2.398636570433154702e-05 -1.735495789034757763e-05
3.162000000000000000e+03 1.704201698303222656e+01 5.993805408477783203e+00 -1.302370310440892354e-05 1.859607550613873173e-06 -3.349228791194036603e-06 -2.484664764779154211e-05
3.163000000000000000e+03 1.892095375061035156e+01 5.329880237579345703e+00 1.882231299532577395e-05 3.458265382505487651e-06 6.684173058602027595e-06 -3.175647361786104739e-05
3.164000000000000000e+03 2.062350654602050781e+01 6.184411525726318359e+00 -1.767054982337867841e-06 -2.603614666440989822e-05 -8.340960448549594730e-06 1.160557621915359050e-05
3.165000000000000000e+03 2.280911445617675781e+01 4.218495368957519531e+00 8.970000635599717498e-06 7.246440873132087290e-06 4.864932634518481791e-06 1.447702288714936003e-05
3.166000000000000000e+03 2.376012229919433594e+01 3.661654949188232422e+00 2.373011011513881385e-05 3.579956455723731779e-06 8.193020221369806677e-06 2.603994471428450197e-05
3.167000000000000000e+03 1.938689041137695312e+01 5.950070381164550781e+00 -2.057833080471027642e-05 -2.181024137826170772e-05 -1.271657129109371454e-05 1.864082150859758258e-05
3.168000000000000000e+03 2.045926094055175781e+01 4.860216617584228516e+00 1.061795501300366595e-05 -1.739422623359132558e-05 -2.032881184277357534e-06 1.012722168525215238e-05
3.169000000000000000e+03 1.778638267517089844e+01 6.163434982299804688e+00 3.434798418311402202e-05 -1.402339512424077839e-05 6.097377081459853798e-06 8.392156814807094634e-06
3.170000000000000000e+03 1.705601310729980469e+01 6.787363052368164062e+00 3.964737697970122099e-05 -6.623127319471677765e-06 9.907274943543598056e-06 8.613945283286739141e-06
3.171000000000000000e+03 6.296407318115234375e+01 -4.134219741821289062e+01 5.770004540681838989e-02 2.374314665794372559e-01 8.853945136070251465e-02 -1.375891827046871185e-02
3.172000000000000000e+03 4.709593582153320312e+01 -3.918626022338867188e+01 9.928341954946517944e-02 2.276831865310668945e-01 9.808998554944992065e-02 2.680642902851104736e-01
3.173000000000000000e+03 6.791593170166015625e+01 -3.943241119384765625e+01 5.300274118781089783e-02 7.981263101100921631e-03 1.829520240426063538e-02 3.002245537936687469e-02
3.174000000000000000e+03 5.888627243041992188e+01 -1.572361278533935547e+01 2.465176294208504260e-06 -2.873305447792517953e-06 -1.224387915499391966e-07 1.964155899258912541e-06
3.175000000000000000e+03 7.983705139160156250e+01 -2.498179435729980469e+01 4.733013338409364223e-04 5.665827542543411255e-03 1.841738703660666943e-03 3.215176984667778015e-04
3.176000000000000000e+03 5.722560119628906250e+01 -2.685738754272460938e+01 2.819719552993774414e+00 5.621293187141418457e-01 1.014554619789123535e+00 1.747648954391479492e+00
3.177000000000000000e+03 5.723396301269531250e+01 -2.632302093505859375e+01 3.386110305786132812e+00 8.234395384788513184e-01 1.262864947319030762e+00 2.330065250396728516e+00
3.178000000000000000e+03 5.573227310180664062e+01 -2.624331092834472656e+01 3.745377302169799805e+00 2.413506269454956055e+00 1.847665071487426758e+00 3.350832700729370117e+00
3.179000000000000000e+03 5.555082702636718750e+01 -2.614375114440917969e+01 3.400377035140991211e+00 3.027141571044921875e+00 1.928255558013916016e+00 3.226026296615600586e+00
3.180000000000000000e+03 5.542157363891601562e+01 -2.572244453430175781e+01 2.694352388381958008e+00 3.004031896591186523e+00 1.709515213966369629e+00 2.644333124160766602e+00
3.181000000000000000e+03 5.493415832519531250e+01 -2.560258674621582031e+01 2.174494504928588867e+00 3.581623077392578125e+00 1.726835250854492188e+00 1.831361651420593262e+00
3.182000000000000000e+03 5.445526504516601562e+01 -2.568797683715820312e+01 2.051203727722167969e+00 3.817545890808105469e+00 1.760624885559082031e+00 9.286537766456604004e-01
3.183000000000000000e+03 5.310586929321289062e+01 -2.648145675659179688e+01 3.487981081008911133e+00 2.574678659439086914e+00 1.818797945976257324e+00 -4.822428524494171143e-01
3.184000000000000000e+03 5.308933639526367188e+01 -2.673921394348144531e+01 3.887457609176635742e+00 2.553866147994995117e+00 1.932397127151489258e+00 -3.340917825698852539e-01
3.185000000000000000e+03 5.288767242431640625e+01 -2.739630889892578125e+01 4.143137454986572266e+00 2.315631151199340820e+00 1.937630534172058105e+00 4.763031303882598877e-01
3.186000000000000000e+03 5.578218460083007812e+01 -3.054840087890625000e+01 1.765961945056915283e-01 2.904345035552978516e+00 9.242823719978332520e-01 -8.350773453712463379e-01
3.187000000000000000e+03 5.332385635375976562e+01 -2.815053176879882812e+01 3.858915805816650391e+00 3.605329275131225586e+00 2.239273548126220703e+00 1.751020789146423340e+00
3.188000000000000000e+03 5.286587524414062500e+01 -2.814496612548828125e+01 3.583324909210205078e+00 2.637891769409179688e+00 1.866365075111389160e+00 1.305009484291076660e+00
3.189000000000000000e+03 5.315690612792968750e+01 -2.858925247192382812e+01 2.788738250732421875e+00 3.639418363571166992e+00 1.928447008132934570e+00 1.713046669960021973e+00
3.190000000000000000e+03 5.356949615478515625e+01 -2.873510932922363281e+01 2.202870845794677734e+00 4.475457668304443359e+00 2.003498554229736328e+00 1.785150647163391113e+00
3.191000000000000000e+03 5.459817504882812500e+01 -2.978677749633789062e+01 -3.039159066975116730e-02 4.507748126983642578e+00 1.343207001686096191e+00 -5.056397318840026855e-01
3.192000000000000000e+03 5.565814590454101562e+01 -3.023066711425781250e+01 1.434234380722045898e-01 3.033042192459106445e+00 9.529396891593933105e-01 -1.002757191658020020e+00
3.193000000000000000e+03 5.598751068115234375e+01 -3.073612022399902344e+01 3.503952920436859131e-01 2.941852092742919922e+00 9.876742362976074219e-01 -7.551010251045227051e-01
3.194000000000000000e+03 5.619987869262695312e+01 -3.023281478881835938e+01 1.103713922202587128e-02 2.528531074523925781e+00 7.618704438209533691e-01 -4.821421802043914795e-01
3.195000000000000000e+03 7.748775959014892578e+00 -1.975367784500122070e+00 -2.428648076602257788e-05 1.048977719619870186e-04 2.418338590359780937e-05 2.585763650131411850e-05
3.196000000000000000e+03 7.084284210205078125e+01 -2.928927803039550781e+01 -2.215432323282584548e-04 1.337069319561123848e-03 3.346578159835189581e-04 -2.294391626492142677e-03
3.197000000000000000e+03 7.565219116210937500e+01 -2.457456207275390625e+01 -3.800513967871665955e-02 5.477284546941518784e-03 -9.758356958627700806e-03 -1.563413627445697784e-02
3.198000000000000000e+03 5.780937957763671875e+01 -1.596298313140869141e+01 -3.111130581601173617e-06 4.685613930632825941e-06 4.723449649191024946e-07 3.982022917625727132e-06
3.199000000000000000e+03 2.186977386474609375e+00 -2.926016807556152344e+01 -7.109237485565245152e-04 2.009892705245874822e-05 -2.072474453598260880e-04 4.325505869928747416e-04
3.200000000000000000e+03 7.792372894287109375e+01 -3.580829620361328125e+01 1.252013957127928734e-03 -9.355684742331504822e-03 -2.431101398542523384e-03 4.704231861978769302e-03
3.201000000000000000e+03 2.421401739120483398e+00 3.702673721313476562e+01 -2.808501812978647649e-05 5.829779547639191151e-05 9.063833203981630504e-06 1.363747651339508593e-05
3.202000000000000000e+03 4.297097015380859375e+01 -2.495933151245117188e+01 -6.401764601469039917e-02 -1.158125162124633789e+00 -3.666428327560424805e-01 -5.796310305595397949e-01
3.203000000000000000e+03 2.120113754272460938e+01 -3.425720214843750000e+01 7.074186112731695175e-03 -1.551893539726734161e-03 1.656687702052295208e-03 1.252353098243474960e-02
3.204000000000000000e+03 4.767687606811523438e+01 -4.883591175079345703e+00 3.081927934545092285e-05 8.660368621349334717e-06 1.184389475383795798e-05 5.203128239372745156e-06
3.205000000000000000e+03 3.990201950073242188e+01 -3.975857543945312500e+01 2.974826395511627197e-01 -5.783466100692749023e-01 -8.425919711589813232e-02 -6.722334772348403931e-02
3.206000000000000000e+03 4.123311996459960938e+01 -1.973025321960449219e+01 -1.482610286984709091e-06 8.112401133075763937e-07 -2.014110407344560372e-07 1.150097091340285260e-06
3.207000000000000000e+03 5.626383590698242188e+01 -3.074140167236328125e+01 2.357978820800781250e-01 3.206171989440917969e+00 1.032590985298156738e+00 -4.001591801643371582e-01
3.208000000000000000e+03 5.629105758666992188e+01 -2.591835594177246094e+01 3.573799133300781250e+00 1.316135644912719727e+00 1.466980457305908203e+00 2.971036911010742188e+00
3.209000000000000000e+03 5.613118362426757812e+01 -2.615844154357910156e+01 3.813418388366699219e+00 1.452687978744506836e+00 1.579831957817077637e+00 3.116138696670532227e+00
3.210000000000000000e+03 5.595708847045898438e+01 -2.591016387939453125e+01 3.438154220581054688e+00 1.884979009628295898e+00 1.596939921379089355e+00 3.088302612304687500e+00
3.211000000000000000e+03 5.597771072387695312e+01 -2.568384933471679688e+01 3.200795173645019531e+00 1.888649106025695801e+00 1.526833295822143555e+00 2.945617437362670898e+00
3.212000000000000000e+03 5.377703857421875000e+01 -2.554275703430175781e+01 1.927006840705871582e+00 3.172008275985717773e+00 1.529704570770263672e+00 -9.285071492195129395e-02
3.213000000000000000e+03 5.324978256225585938e+01 -2.572194671630859375e+01 2.254383087158203125e+00 2.520392894744873047e+00 1.432432889938354492e+00 -5.948428511619567871e-01
3.214000000000000000e+03 5.269699859619140625e+01 -2.632435226440429688e+01 2.987033843994140625e+00 1.863807559013366699e+00 1.455252408981323242e+00 -6.282461881637573242e-01
3.215000000000000000e+03 7.349135589599609375e+01 -2.383615875244140625e+01 -8.299268037080764771e-02 2.530148997902870178e-02 -1.730735786259174347e-02 3.263502847403287888e-03
3.216000000000000000e+03 7.171717834472656250e+01 -2.414373397827148438e+01 -4.685471951961517334e-02 -3.155035153031349182e-02 -2.352152206003665924e-02 2.841668948531150818e-02
3.217000000000000000e+03 5.981504821777343750e+01 -2.231903648376464844e+01 8.208763003349304199e-01 1.580072522163391113e+00 7.202846407890319824e-01 1.496488213539123535e+00
3.218000000000000000e+03 1.026360797882080078e+01 -3.071651077270507812e+01 3.252427559345960617e-03 1.711048971628770232e-04 1.027059741318225861e-03 8.340101921930909157e-04
3.219000000000000000e+03 5.416269683837890625e+01 -2.541537284851074219e+01 1.744014024734497070e+00 3.335645437240600586e+00 1.523897767066955566e+00 4.031253457069396973e-01
3.220000000000000000e+03 5.424015045166015625e+01 -2.514813423156738281e+01 1.457887768745422363e+00 2.988939046859741211e+00 1.334048032760620117e+00 5.042716860771179199e-01
3.221000000000000000e+03 6.135604476928710938e+01 -3.700146102905273438e+01 1.250886172056198120e-01 1.960141509771347046e-01 9.633082896471023560e-02 -2.357266992330551147e-01
3.222000000000000000e+03 5.201132583618164062e+01 -2.819589614868164062e+01 2.874756574630737305e+00 1.652945280075073242e+00 1.358310580253601074e+00 8.508185744285583496e-01
3.223000000000000000e+03 5.617462921142578125e+01 -2.575039482116699219e+01 3.391397714614868164e+00 1.555411815643310547e+00 1.484042882919311523e+00 2.932528734207153320e+00
3.224000000000000000e+03 7.352609252929687500e+01 -3.097597503662109375e+01 -7.604532875120639801e-03 3.738738829270005226e-03 -1.159738283604383469e-03 -9.579749312251806259e-04
3.225000000000000000e+03 5.217898941040039062e+01 -2.927527046203613281e+01 1.849001526832580566e+00 2.343117952346801758e+00 1.257635831832885742e+00 1.219858884811401367e+00
3.226000000000000000e+03 5.344888687133789062e+01 -2.539160919189453125e+01 1.752313852310180664e+00 2.546811819076538086e+00 1.289737701416015625e+00 -3.956989645957946777e-01
3.227000000000000000e+03 5.247573089599609375e+01 -2.526427459716796875e+01 1.598456978797912598e+00 1.414018630981445312e+00 9.037426710128784180e-01 -9.402318596839904785e-01
3.228000000000000000e+03 5.241513824462890625e+01 -2.569292449951171875e+01 2.141748189926147461e+00 1.472052693367004395e+00 1.084140300750732422e+00 -8.939864039421081543e-01
3.229000000000000000e+03 5.253461456298828125e+01 -2.725599670410156250e+01 3.649700403213500977e+00 1.739349246025085449e+00 1.616714835166931152e+00 1.617678999900817871e-01
3.230000000000000000e+03 5.193332672119140625e+01 -2.741728591918945312e+01 3.151440620422363281e+00 1.230025887489318848e+00 1.314440011978149414e+00 1.582676470279693604e-01
3.231000000000000000e+03 3.524582672119140625e+01 -3.576805877685546875e+01 -8.590853959321975708e-02 -1.936713010072708130e-01 -8.387394994497299194e-02 -2.134261429309844971e-01
3.232000000000000000e+03 6.545838165283203125e+01 -1.965981292724609375e+01 -1.643937677145004272e-01 8.997905254364013672e-01 2.206190228462219238e-01 8.732010126113891602e-01
3.233000000000000000e+03 6.336754226684570312e+01 -1.908228492736816406e+01 -9.487716555595397949e-01 1.371224284172058105e+00 1.267357766628265381e-01 9.173647761344909668e-01
3.234000000000000000e+03 5.578560638427734375e+01 -2.554792976379394531e+01 2.903916597366333008e+00 2.094440221786499023e+00 1.499507069587707520e+00 2.710813760757446289e+00
3.235000000000000000e+03 7.628591918945312500e+01 3.404525375366210938e+01 -4.342214018106460571e-02 -2.323497384786605835e-01 -8.273155987262725830e-02 3.445989191532135010e-01
3.236000000000000000e+03 7.355464935302734375e+01 3.412982940673828125e+01 -1.355708241462707520e-01 6.203777194023132324e-01 1.454420685768127441e-01 3.606617450714111328e-01
3.237000000000000000e+03 8.664375305175781250e+00 3.446510314941406250e+00 1.980424531211610883e-05 7.723530870862305164e-06 8.258332854893524200e-06 -1.093801893148338422e-05
3.238000000000000000e+03 4.228370189666748047e+00 3.314500093460083008e+00 1.333777709078276530e-05 6.452954494307050481e-06 5.937219611951150000e-06 -1.971425945157534443e-06
3.239000000000000000e+03 7.313773345947265625e+01 -2.312221717834472656e+01 -1.537976264953613281e-01 5.628908425569534302e-02 -2.925256453454494476e-02 -3.086916869506239891e-03
3.240000000000000000e+03 6.716809082031250000e+01 -1.503534889221191406e+01 -3.346515297889709473e-01 1.042786598205566406e+00 2.124405205249786377e-01 2.532716095447540283e-01
3.241000000000000000e+03 3.073509979248046875e+01 3.523962020874023438e+01 1.175243887701071799e-04 -3.254031180404126644e-04 -6.236361514311283827e-05 3.524221829138696194e-04
3.242000000000000000e+03 4.927435684204101562e+01 3.364029693603515625e+01 -6.994096562266349792e-03 8.140937425196170807e-04 -1.854000962339341640e-03 1.997832878259941936e-04
3.243000000000000000e+03 5.489982223510742188e+01 -3.023053550720214844e+01 9.593546390533447266e-02 3.769586563110351562e+00 1.159656643867492676e+00 -8.764681220054626465e-01
3.244000000000000000e+03 4.475263214111328125e+01 -3.677738189697265625e+01 2.754493951797485352e-01 -3.585224747657775879e-01 -2.492191456258296967e-02 2.924672961235046387e-01
3.245000000000000000e+03 4.547075653076171875e+01 -2.485972976684570312e+01 -6.126310303807258606e-02 -1.025257587432861328e+00 -3.259562253952026367e-01 -1.295168995857238770e+00
3.246000000000000000e+03 6.868943023681640625e+01 -1.079454994201660156e+01 1.752639375627040863e-02 1.358635544776916504e+00 4.128485918045043945e-01 1.946080625057220459e-01
3.247000000000000000e+03 6.937392425537109375e+01 -7.814013957977294922e+00 1.506435722112655640e-01 1.790031194686889648e+00 5.822024345397949219e-01 3.400721549987792969e-01
3.248000000000000000e+03 5.287642288208007812e+01 -3.154261589050292969e+01 3.441674113273620605e-01 2.636011123657226562e+00 8.940535187721252441e-01 4.298474788665771484e-01
3.249000000000000000e+03 6.338919067382812500e+01 -3.703901290893554688e+01 1.646551862359046936e-02 7.811506092548370361e-02 2.837417460978031158e-02 -5.249037221074104309e-02
3.250000000000000000e+03 6.043432235717773438e+00 -2.413121986389160156e+01 7.560591911897063255e-04 3.451401717029511929e-04 3.303597914054989815e-04 4.281845467630773783e-04
3.251000000000000000e+03 1.574803948402404785e+00 6.290918827056884766e+00 -1.538757715024985373e-05 2.530320443838718347e-06 -3.857177034660708159e-06 7.181320597737794742e-06
3.252000000000000000e+03 4.716551971435546875e+01 3.102179336547851562e+01 -2.526605734601616859e-03 4.427210660651326180e-04 -6.251654122024774551e-04 -7.122525130398571491e-04
3.253000000000000000e+03 2.188068866729736328e+00 -2.787715530395507812e+01 8.769069099798798561e-04 8.316208550240844488e-06 2.655669231899082661e-04 -4.597057995852082968e-04
3.254000000000000000e+03 6.499969482421875000e+01 -1.892405509948730469e+01 -4.684082865715026855e-01 1.170089125633239746e+00 2.105042636394500732e-01 9.436235427856445312e-01
3.255000000000000000e+03 6.858383178710937500e+01 -1.291026020050048828e+01 -1.355375647544860840e-01 1.089687347412109375e+00 2.862449288368225098e-01 1.218892186880111694e-01
3.256000000000000000e+03 5.602083969116210938e+01 -2.542216873168945312e+01 2.947963714599609375e+00 1.746433854103088379e+00 1.408319234848022461e+00 2.697990655899047852e+00
3.257000000000000000e+03 5.402806472778320312e+01 -2.505112075805664062e+01 1.397386789321899414e+00 2.692799806594848633e+00 1.227056026458740234e+00 3.027669191360473633e-01
3.258000000000000000e+03 5.509573364257812500e+01 -3.076969909667968750e+01 4.408937692642211914e-01 3.256566524505615234e+00 1.109238028526306152e+00 -9.934478402137756348e-01
3.259000000000000000e+03 2.749538421630859375e+01 -1.246592807769775391e+01 -2.529540310547417903e-08 -1.617241423446102999e-06 -4.927610461891163141e-07 -1.577815282871597447e-06
3.260000000000000000e+03 2.734612655639648438e+01 -1.171305084228515625e+01 7.182333320088218898e-06 1.179647028948238585e-06 2.508594207029091194e-06 1.034113097375666257e-06
3.261000000000000000e+03 3.353844404220581055e+00 4.123124122619628906e+00 -1.487229019403457642e-05 8.346260074176825583e-06 -1.957808990482590161e-06 -8.119716312648961321e-07
3.262000000000000000e+03 5.388861083984375000e+01 -3.144594573974609375e+01 3.381771147251129150e-01 2.992122650146484375e+00 9.990899562835693359e-01 -5.175365507602691650e-02
3.263000000000000000e+03 4.789902114868164062e+01 -9.723968505859375000e+00 7.467311661457642913e-06 1.501366750744637102e-05 6.744293841620674357e-06 4.186838395980885252e-06
3.264000000000000000e+03 5.174852752685546875e+01 -2.672983169555664062e+01 2.803485155105590820e+00 9.543785452842712402e-01 1.127359151840209961e+00 -4.217496514320373535e-01
3.265000000000000000e+03 7.333083343505859375e+01 2.397138595581054688e+01 1.884076446294784546e-01 1.648458480834960938e+00 5.510598421096801758e-01 5.617988645099103451e-04
3.266000000000000000e+03 7.314296722412109375e+01 3.120221519470214844e+01 8.143209666013717651e-02 1.039220690727233887e+00 3.361958265304565430e-01 3.612367212772369385e-01
3.267000000000000000e+03 7.321803283691406250e+01 3.256166076660156250e+01 -3.693635761737823486e-02 8.974994421005249023e-01 2.581689357757568359e-01 3.775265216827392578e-01
3.268000000000000000e+03 4.535210037231445312e+01 -1.666875839233398438e+01 -7.084050139383180067e-06 8.091282097666407935e-07 -1.882476567516278010e-06 -2.962065991596318781e-06
3.269000000000000000e+03 5.681448745727539062e+01 -2.392636680603027344e+01 1.853493213653564453e+00 1.002891898155212402e+00 8.569155335426330566e-01 1.755029797554016113e+00
3.270000000000000000e+03 5.235475158691406250e+01 -2.698788070678710938e+01 3.381856679916381836e+00 1.502185583114624023e+00 1.465212702751159668e+00 -1.620094031095504761e-01
3.271000000000000000e+03 5.149166107177734375e+01 -2.769339370727539062e+01 2.769822359085083008e+00 9.683843255043029785e-01 1.121461987495422363e+00 2.100623846054077148e-01
3.272000000000000000e+03 5.134421920776367188e+01 -2.795238304138183594e+01 2.456814765930175781e+00 9.511785507202148438e-01 1.022397994995117188e+00 3.551733791828155518e-01
3.273000000000000000e+03 2.471391868591308594e+01 -4.248183250427246094e+00 -9.241149200533982366e-06 -4.704181264969520271e-06 -4.183599230600520968e-06 -1.269488802790874615e-05
3.274000000000000000e+03 2.382456398010253906e+01 -4.496839046478271484e+00 1.910228093038313091e-05 4.913397333439206704e-06 7.204703706520376727e-06 1.043595420924248174e-05
3.275000000000000000e+03 3.773901700973510742e+00 -2.529647636413574219e+01 -1.152310520410537720e-03 -9.623404912417754531e-05 -3.745633875951170921e-04 6.602706853300333023e-04
3.276000000000000000e+03 7.475347900390625000e+01 -1.574865913391113281e+01 -8.963261544704437256e-02 9.658705443143844604e-02 2.086332766339182854e-03 -2.487979978322982788e-01
3.277000000000000000e+03 7.392443084716796875e+01 -1.581421852111816406e+01 -1.093021929264068604e-01 2.200611084699630737e-01 3.322767466306686401e-02 -2.259907275438308716e-01
3.278000000000000000e+03 4.817267608642578125e+01 -2.915126991271972656e+01 8.369890451431274414e-01 -2.152954041957855225e-01 1.865080893039703369e-01 -9.201109409332275391e-03
3.279000000000000000e+03 7.443836212158203125e+01 2.387872505187988281e+01 1.241527795791625977e-01 7.415810227394104004e-01 2.597201466560363770e-01 7.759226113557815552e-02
3.280000000000000000e+03 7.457986450195312500e+01 2.501573371887207031e+01 1.976558566093444824e-01 6.637175679206848145e-01 2.584120333194732666e-01 1.224882006645202637e-01
3.281000000000000000e+03 7.416916656494140625e+01 -1.500667095184326172e+01 -1.019524633884429932e-01 2.138660252094268799e-01 3.357407078146934509e-02 -2.512337863445281982e-01
3.282000000000000000e+03 6.911829376220703125e+01 -1.596142387390136719e+01 -2.611745595932006836e-01 7.526010870933532715e-01 1.474279612302780151e-01 1.514170020818710327e-01
3.283000000000000000e+03 7.218640136718750000e+01 -3.600430727005004883e+00 1.028758957982063293e-01 1.771674871444702148e+00 5.623652338981628418e-01 -4.574774578213691711e-02
3.284000000000000000e+03 8.975729942321777344e+00 4.989584445953369141e+00 2.473371023370418698e-05 6.531967756018275395e-06 9.379703442391473800e-06 -1.142480505222920328e-05
3.285000000000000000e+03 7.483090972900390625e+01 -1.069806957244873047e+01 -5.842398479580879211e-02 1.561630666255950928e-01 2.932172268629074097e-02 -3.519251048564910889e-01
3.286000000000000000e+03 5.407693862915039062e+01 -2.474424552917480469e+01 1.048368215560913086e+00 2.282242536544799805e+00 9.991832375526428223e-01 2.452912777662277222e-01
3.287000000000000000e+03 5.118972396850585938e+01 -2.859310913085937500e+01 2.163789510726928711e+00 1.144046664237976074e+00 9.923508167266845703e-01 6.548566222190856934e-01
3.288000000000000000e+03 7.423699951171875000e+01 2.829722166061401367e+00 2.317920178174972534e-01 1.171641588211059570e+00 4.210300743579864502e-01 -8.819319307804107666e-02
3.289000000000000000e+03 7.421128082275390625e+01 3.182782936096191406e+01 9.050772525370121002e-03 4.538545608520507812e-01 1.388715952634811401e-01 3.998809456825256348e-01
3.290000000000000000e+03 5.375957489013671875e+01 -2.518610763549804688e+01 1.586341500282287598e+00 2.715974092483520508e+00 1.290694713592529297e+00 -1.182986348867416382e-01
3.291000000000000000e+03 7.469028472900390625e+01 -1.884174728393554688e+01 -9.532220661640167236e-02 7.044196128845214844e-02 -7.464073598384857178e-03 -1.620235443115234375e-01
3.292000000000000000e+03 6.855208587646484375e+01 -1.411264610290527344e+01 -2.115684896707534790e-01 1.006636023521423340e+00 2.385202348232269287e-01 1.392048746347427368e-01
3.293000000000000000e+03 2.686530494689941406e+01 -3.522977447509765625e+01 4.908232949674129486e-03 -7.410122081637382507e-03 -7.505667163059115410e-04 4.575298633426427841e-03
3.294000000000000000e+03 5.114213180541992188e+01 -3.092771148681640625e+01 8.773926496505737305e-01 1.644710659980773926e+00 7.566310167312622070e-01 8.441953063011169434e-01
3.295000000000000000e+03 4.998318862915039062e+01 -2.901868057250976562e+01 1.535491943359375000e+00 5.124656558036804199e-01 6.143872737884521484e-01 3.838371336460113525e-01
3.296000000000000000e+03 5.363164520263671875e+01 -2.502636528015136719e+01 1.309945464134216309e+00 2.440198421478271484e+00 1.125043153762817383e+00 -2.970422208309173584e-01
3.297000000000000000e+03 5.381384277343750000e+01 -2.475314140319824219e+01 9.619680643081665039e-01 2.258739471435546875e+00 9.662122726440429688e-01 -6.035335734486579895e-02
3.298000000000000000e+03 5.137687301635742188e+01 -2.488163757324218750e+01 9.150078296661376953e-01 3.464074432849884033e-01 3.784245848655700684e-01 -1.285080671310424805e+00
3.299000000000000000e+03 2.610775947570800781e+01 -5.783903598785400391e+00 1.150594812315830495e-06 -3.272465164627647027e-06 -6.365610829561774153e-07 -8.942334716266486794e-06
3.300000000000000000e+03 5.134390258789062500e+01 -2.687433815002441406e+01 2.557634115219116211e+00 6.668488979339599609e-01 9.673449397087097168e-01 -3.627800643444061279e-01
3.301000000000000000e+03 4.914234161376953125e+01 -2.922232627868652344e+01 1.176890611648559570e+00 1.315643340349197388e-01 3.925364911556243896e-01 2.109489589929580688e-01
3.302000000000000000e+03 6.199010848999023438e+00 -1.012364292144775391e+01 2.059384132735431194e-04 3.629961793194524944e-05 7.267141336342319846e-05 -2.714422589633613825e-04
3.303000000000000000e+03 4.515666961669921875e+01 -1.612131690979003906e+01 5.670039172400720417e-06 3.594853751565096900e-06 2.779467877189745195e-06 3.823286533588543534e-06
3.304000000000000000e+03 1.581459426879882812e+01 2.921815633773803711e+00 3.128220123471692204e-05 1.041242626342864241e-06 9.697033419797662646e-06 -9.663617674959823489e-06
3.305000000000000000e+03 7.534186363220214844e+00 7.992118835449218750e+00 1.766287823556922376e-05 6.161674718896392733e-06 7.147365977289155126e-06 -3.103399649262428284e-06
3.306000000000000000e+03 4.256263351440429688e+01 -1.616977691650390625e+01 -8.100561899482272565e-06 -2.040699769167986233e-07 -2.491389750503003597e-06 -1.654915195103967562e-06
3.307000000000000000e+03 4.320739364624023438e+01 -1.491396999359130859e+01 3.163483825119328685e-06 1.670396500230708625e-06 1.450164063498959877e-06 -9.611824225430609658e-07
3.308000000000000000e+03 3.600027847290039062e+01 -9.891803741455078125e+00 -1.012268603517441079e-05 -3.002503262905520387e-06 -3.937556812161346897e-06 4.546393029158934951e-06
3.309000000000000000e+03 2.714210128784179688e+01 2.575214195251464844e+01 -3.638895941548980772e-05 -1.076670378097333014e-04 -4.321679807617329061e-05 1.100419249269180000e-04
3.310000000000000000e+03 4.583435440063476562e+01 -1.525424194335937500e+01 9.071966815099585801e-06 -5.373535714170429856e-06 1.109529193854541518e-06 -8.677215532770787831e-07
3.311000000000000000e+03 4.577450180053710938e+01 -1.590497875213623047e+01 -9.083834811463020742e-06 1.761587441251322161e-06 -2.196674131482723169e-06 -2.894884573834133334e-06
3.312000000000000000e+03 7.515267944335937500e+01 2.326278686523437500e+01 1.295334398746490479e-01 2.759074568748474121e-01 1.216322705149650574e-01 1.036558151245117188e-01
3.313000000000000000e+03 7.429268646240234375e+01 2.295218849182128906e+01 1.596459448337554932e-01 1.026589751243591309e+00 3.558706939220428467e-01 4.498278722167015076e-02
3.314000000000000000e+03 7.366528320312500000e+01 -4.563422203063964844e+00 5.442139878869056702e-02 9.677817821502685547e-01 3.066609501838684082e-01 -2.706579566001892090e-01
3.315000000000000000e+03 4.624907302856445312e+01 -9.079524040222167969e+00 7.249254849739372730e-06 2.117794792866334319e-05 8.528160833520814776e-06 3.516931883495999500e-06
3.316000000000000000e+03 4.610461807250976562e+01 -9.864282608032226562e+00 -4.347045887698186561e-06 -2.332124267923063599e-06 -2.003750978474272415e-06 -7.168971933424472809e-06
3.317000000000000000e+03 7.285130310058593750e+01 -4.198923110961914062e+00 7.831717282533645630e-02 1.340759515762329102e+00 4.257230162620544434e-01 -1.532039940357208252e-01
3.318000000000000000e+03 5.348531723022460938e+01 -2.517266464233398438e+01 1.504123091697692871e+00 2.442266941070556641e+00 1.183917045593261719e+00 -3.567375838756561279e-01
3.319000000000000000e+03 3.093529701232910156e+01 -1.101081562042236328e+01 -2.944288098660763353e-06 -2.555719902375130914e-06 -1.650002445785503369e-06 -4.297863142710411921e-06
3.320000000000000000e+03 7.416513061523437500e+01 -3.145158004760742188e+01 -1.243145484477281570e-02 2.313116099685430527e-03 -3.035501576960086823e-03 6.207857513800263405e-04
3.321000000000000000e+03 5.342602252960205078e+00 -1.324482440948486328e+01 2.916475023084785789e-05 -4.916504840366542339e-04 -1.387457305099815130e-04 2.513813378755003214e-04
3.322000000000000000e+03 7.596429443359375000e+01 -3.216164779663085938e+01 -4.541286733001470566e-03 -1.955321989953517914e-03 -1.948982593603432178e-03 5.333202425390481949e-03
3.323000000000000000e+03 1.476517295837402344e+01 -8.236441612243652344e+00 -2.252381591461016797e-06 1.621515693841502070e-04 4.796975554199889302e-05 -1.797314907889813185e-04
3.324000000000000000e+03 4.517068099975585938e+01 -1.494515705108642578e+01 -5.145831210029427893e-07 9.609397238818928599e-06 2.728444087551906705e-06 4.890960099146468565e-07
3.325000000000000000e+03 1.471136093139648438e+01 -6.894649982452392578e+00 -1.224534353241324425e-04 -3.613502121879719198e-05 -4.757654096465557814e-05 1.584088749950751662e-05
3.326000000000000000e+03 5.358926010131835938e+01 -2.392948341369628906e+01 1.262006014585494995e-01 1.327593207359313965e+00 4.361381232738494873e-01 -4.055931866168975830e-01
3.327000000000000000e+03 5.348760604858398438e+01 -2.440463829040527344e+01 6.824879646301269531e-01 1.716968059539794922e+00 7.198368310928344727e-01 -3.975637555122375488e-01
3.328000000000000000e+03 9.064815521240234375e+00 -8.898335456848144531e+00 2.640064631123095751e-04 1.597124064574018121e-04 1.271156652364879847e-04 -3.125038711004890501e-05
3.329000000000000000e+03 1.222551918029785156e+01 -8.372396469116210938e+00 2.095362578984349966e-04 1.105019182432442904e-04 9.601144847692921758e-05 -4.264603194314986467e-05
3.330000000000000000e+03 1.541378784179687500e+01 5.744326591491699219e+00 -1.293679633818101138e-05 2.017389704178640386e-07 -3.820517122221644968e-06 -1.312342374149011448e-05
3.331000000000000000e+03 5.035702514648437500e+01 -2.583072853088378906e+01 1.464771270751953125e+00 -2.306817285716533661e-02 4.325109422206878662e-01 -1.114029765129089355e+00
3.332000000000000000e+03 5.062782669067382812e+01 -2.630051994323730469e+01 1.917738676071166992e+00 1.666940897703170776e-01 6.253298521041870117e-01 -8.664183020591735840e-01
3.333000000000000000e+03 5.149921798706054688e+01 -2.413480186462402344e+01 2.013263404369354248e-01 3.225673735141754150e-01 1.571681201457977295e-01 -1.383359909057617188e+00
3.334000000000000000e+03 2.820800971984863281e+01 2.626930618286132812e+01 -1.157901715487241745e-04 9.551123184792231768e-06 -3.187171387253329158e-05 3.415242417759145610e-07
3.335000000000000000e+03 3.451926422119140625e+01 -8.022001266479492188e+00 -1.808193883334752172e-05 -1.427652478014351800e-06 -5.852877166034886613e-06 -2.297858969768640236e-07
3.336000000000000000e+03 3.996374511718750000e+01 -8.118928074836730957e-01 5.126679388922639191e-05 5.868667358299717307e-06 1.714063910185359418e-05 2.329775952603085898e-06
3.337000000000000000e+03 2.989625740051269531e+01 2.360168266296386719e+01 -4.797281508217565715e-05 7.974243089847732335e-06 -1.199957114295102656e-05 -8.724423241801559925e-05
3.338000000000000000e+03 6.960213470458984375e+01 -1.529187583923339844e+01 -2.342248857021331787e-01 7.945567369461059570e-01 1.680995523929595947e-01 5.780011788010597229e-02
3.339000000000000000e+03 1.519780158996582031e+01 -8.711963653564453125e+00 -2.194296394009143114e-04 -4.354248449089936912e-05 -7.889163680374622345e-05 1.798601006157696247e-04
3.340000000000000000e+03 5.451974868774414062e+00 3.346094512939453125e+01 -2.048349961114581674e-05 3.243802348151803017e-05 3.586357479434809648e-06 7.609507974848384038e-06
3.341000000000000000e+03 8.499501228332519531e+00 6.632098674774169922e+00 -2.007008879445493221e-05 1.167436494142748415e-05 -2.518717337807174772e-06 -1.675886596785858274e-05
3.342000000000000000e+03 7.192369842529296875e+01 -1.275375843048095703e+01 -1.173908337950706482e-01 6.628775596618652344e-01 1.636460125446319580e-01 -1.766817718744277954e-01
3.343000000000000000e+03 5.305631637573242188e+01 -2.388056945800781250e+01 6.681644823402166367e-03 1.090908527374267578e+00 3.292770683765411377e-01 -7.552119493484497070e-01
3.344000000000000000e+03 3.894119262695312500e+01 1.037918210029602051e+00 1.239577068190556020e-05 2.728405161178670824e-05 1.190394687000662088e-05 -3.394549992208339972e-07
3.345000000000000000e+03 7.032324314117431641e+00 2.285387039184570312e+01 -2.290336487931199372e-05 8.653128134028520435e-06 -4.275071205483982340e-06 -7.611812179675325751e-06
3.346000000000000000e+03 7.901495456695556641e+00 1.142504501342773438e+01 -7.776632628520019352e-06 -6.514574124594219029e-06 -4.287362116883741692e-06 6.383599156833952293e-06
3.347000000000000000e+03 2.993800926208496094e+01 2.535013389587402344e+01 -6.982861668802797794e-05 -3.866045517497695982e-06 -2.210839920735452324e-05 2.180695082643069327e-05
3.348000000000000000e+03 2.696303367614746094e+01 -5.422639369964599609e+00 1.958657594514079392e-05 -3.002895937243010849e-06 4.975103820470394567e-06 9.959504495782312006e-06
3.349000000000000000e+03 3.083844566345214844e+01 -9.484275817871093750e+00 -1.338253696303581819e-05 8.869527846400160342e-06 -1.353902689515962265e-06 3.811244141616043635e-06
3.350000000000000000e+03 3.148609161376953125e+01 -9.012105941772460938e+00 8.198246177926193923e-06 -1.107059870264492929e-05 -8.617055868853640277e-07 -9.432811566512100399e-06
3.351000000000000000e+03 3.215748977661132812e+01 -8.031363487243652344e+00 -9.952151231118477881e-06 -4.932787305733654648e-06 -4.465481652005109936e-06 -2.789972086247871630e-06
3.352000000000000000e+03 2.765765380859375000e+01 -3.223645389080047607e-01 -4.229810883771278895e-07 -1.296009668294573203e-05 -4.014923433715011925e-06 -2.035846773651428521e-05
3.353000000000000000e+03 3.727969360351562500e+01 4.007476806640625000e+00 -7.615243521286174655e-05 2.793466410366818309e-05 -1.446533042326336727e-05 1.067569883161922917e-05
3.354000000000000000e+03 4.348754501342773438e+01 -1.063657760620117188e+01 1.829979737522080541e-05 -5.373457042878726497e-06 3.877902145177358761e-06 4.400540547067066655e-06
3.355000000000000000e+03 9.928659439086914062e+00 -6.995436668395996094e+00 1.380041503580287099e-04 -1.168551025330089033e-04 6.344713256112299860e-06 6.984960782574489713e-05
3.356000000000000000e+03 3.377046203613281250e+01 3.113679170608520508e+00 3.389456469449214637e-05 -3.703663196574780159e-06 9.057270290213637054e-06 -9.013007002067752182e-06
3.357000000000000000e+03 1.532912254333496094e+01 -7.996539115905761719e+00 8.573586092097684741e-05 -1.691522484179586172e-04 -2.502491588529665023e-05 1.454446028219535947e-04
3.358000000000000000e+03 3.264310836791992188e+01 -1.015648937225341797e+01 8.401705599681008607e-06 -4.419257948029553518e-06 1.194734295495436527e-06 -8.419690857408568263e-06
3.359000000000000000e+03 1.713340187072753906e+01 3.478418111801147461e+00 8.161374353221617639e-06 -6.098613084759563208e-06 6.188283236951974686e-07 -1.497931953053921461e-05
3.360000000000000000e+03 8.346958160400390625e+00 2.257832717895507812e+01 2.691399458853993565e-05 2.591010525065939873e-05 1.584723031555768102e-05 1.152580534835578874e-05
3.361000000000000000e+03 1.097527503967285156e+01 7.010335922241210938e+00 -1.475557019148254767e-05 7.146470579755259678e-07 -4.212276962789474055e-06 -7.580257260997314006e-06
3.362000000000000000e+03 3.147401428222656250e+01 1.959140396118164062e+01 9.674576722318306565e-05 -4.541384987533092499e-05 1.539957702334504575e-05 2.007302828133106232e-05
3.363000000000000000e+03 1.425588321685791016e+01 2.458966064453125000e+01 2.535621206334326416e-05 4.191948335119377589e-07 7.732622179901227355e-06 -4.271325451554730535e-05
3.364000000000000000e+03 3.224978637695312500e+01 -8.915197372436523438e+00 1.927218545461073518e-05 2.047338966804090887e-06 6.395857326424447820e-06 5.527582743525272235e-06
3.365000000000000000e+03 1.720284461975097656e+01 9.512494087219238281e+00 -1.588125815032981336e-05 -1.550415254314430058e-05 -9.415623026143293828e-06 -1.996402352233417332e-05
3.366000000000000000e+03 2.004351997375488281e+01 3.791414022445678711e+00 3.807269604294560850e-05 -7.004477424743527081e-07 1.121167497331043705e-05 -2.258114591313642450e-06
3.367000000000000000e+03 2.980429649353027344e+01 -4.086424827575683594e+00 3.088581797783263028e-05 -1.654813786444719881e-06 8.769301530264783651e-06 -7.246876975841587409e-06
3.368000000000000000e+03 2.919916152954101562e+01 -3.580747842788696289e+00 1.671803693170659244e-05 -9.834331649472005665e-06 2.065111402771435678e-06 4.373079264041734859e-06
3.369000000000000000e+03 1.163188362121582031e+01 2.194205284118652344e+01 -6.737121293554082513e-05 2.010584466916043311e-05 -1.417960993421729654e-05 -2.068018147838301957e-05
3.370000000000000000e+03 4.896464538574218750e+01 -2.694307327270507812e+01 1.303593397140502930e+00 -4.138799607753753662e-01 2.669140398502349854e-01 -7.584863901138305664e-01
3.371000000000000000e+03 1.280098724365234375e+01 9.154983520507812500e+00 -1.392727853044561925e-07 -9.701533599582035094e-06 -2.952242084575118497e-06 -2.671533002285286784e-05
3.372000000000000000e+03 3.753385925292968750e+01 -5.136569976806640625e+00 1.143913686973974109e-05 -4.522216840996406972e-06 2.075075826724059880e-06 -8.612342412561702076e-07
3.373000000000000000e+03 3.657663726806640625e+01 -4.774197101593017578e+00 3.025093792530242354e-05 4.239253939886111766e-06 1.034705746860709041e-05 6.527690857183188200e-06
3.374000000000000000e+03 2.904147338867187500e+01 2.420570850372314453e+00 -1.095854076993418857e-05 -2.446499092911835760e-05 -1.062705996446311474e-05 -7.099800313881132752e-06
3.375000000000000000e+03 3.757133102416992188e+01 -4.205430030822753906e+00 -1.827324558689724654e-05 -3.826184638455742970e-06 -6.629828931181691587e-06 2.376804513914976269e-05
3.376000000000000000e+03 3.686372756958007812e+01 -4.178969383239746094e+00 1.637425339140463620e-05 7.515029210480861366e-06 7.166784598666708916e-06 3.270193701609969139e-05
3.377000000000000000e+03 1.795383262634277344e+01 5.536345958709716797e+00 -1.117320039156766143e-06 6.409860020539781544e-08 -3.159664174745557830e-07 -2.208092337241396308e-05
3.378000000000000000e+03 1.782341766357421875e+01 6.796605587005615234e+00 -2.658378252817783505e-05 1.337189246441994328e-06 -7.573977654828922823e-06 -2.032001611951272935e-05
3.379000000000000000e+03 3.716710662841796875e+01 -4.630725860595703125e+00 -7.093346994224702939e-07 -1.182621986117737833e-06 -5.675870511367975269e-07 -2.229806341347284615e-06
3.380000000000000000e+03 3.000196075439453125e+01 2.534642696380615234e+00 5.360726572689600289e-05 2.732883331191260368e-06 1.690204408077988774e-05 9.657778718974441290e-06
3.381000000000000000e+03 2.943092918395996094e+01 1.148249244689941406e+01 -5.386530028772540390e-05 1.046946454152930528e-05 -1.301874999626306817e-05 -1.996314858843106776e-05
3.382000000000000000e+03 1.522118759155273438e+01 1.117106056213378906e+01 -2.973678965645376593e-05 -4.847823674936080351e-06 -1.037538459058851004e-05 -4.871540568274213001e-06
3.383000000000000000e+03 2.439502716064453125e+01 3.630990505218505859e+00 -2.594031684566289186e-05 -1.527001768408808857e-05 -1.236309981322847307e-05 8.020634595595765859e-06
3.384000000000000000e+03 2.638449478149414062e+01 1.786821365356445312e+01 -5.282073834678158164e-05 -9.660980140324681997e-05 -4.482916119741275907e-05 1.058175530488369986e-05
3.385000000000000000e+03 2.334743499755859375e+01 1.759379768371582031e+01 1.457317739550489932e-05 -1.375413557980209589e-05 2.457126413446530933e-07 -1.352428171230712906e-05
3.386000000000000000e+03 1.995003128051757812e+01 1.251101016998291016e+01 3.389734411030076444e-05 3.580308884920668788e-07 1.027661255648126826e-05 -1.627326491870917380e-05
3.387000000000000000e+03 2.077150726318359375e+01 1.046546268463134766e+01 -1.231253281730460003e-05 -3.713804107974283397e-05 -1.483517280576052144e-05 -3.423666566959582269e-05
3.388000000000000000e+03 2.655839538574218750e+01 1.275108718872070312e+01 6.605353701161220670e-05 -2.782585579552687705e-05 1.146830527432030067e-05 6.730978384439367801e-06
3.389000000000000000e+03 2.502125358581542969e+01 1.354390430450439453e+01 4.464830453798640519e-06 -2.373955067014321685e-05 -5.782416337751783431e-06 -1.448383864044444636e-05
3.390000000000000000e+03 1.848506355285644531e+01 1.601406288146972656e+01 -6.203127122716978192e-05 1.462077875657996628e-06 -1.817075826693326235e-05 -3.048670862426661188e-07
3.391000000000000000e+03 1.995479393005371094e+01 1.775407409667968750e+01 1.383407015964621678e-05 -3.858012860291637480e-06 2.992817144331638701e-06 -3.538035161909647286e-05
3.392000000000000000e+03 1.966630363464355469e+01 1.678391647338867188e+01 -4.765474295709282160e-05 -1.820543911890126765e-05 -1.975805571419186890e-05 -1.242936104972613975e-05
3.393000000000000000e+03 2.047053337097167969e+01 1.436961078643798828e+01 3.159336483804509044e-05 -2.104806981151341461e-06 8.846567652653902769e-06 -4.208142127026803792e-05
3.394000000000000000e+03 2.007388877868652344e+01 1.348023605346679688e+01 -3.330358231323771179e-05 -2.249038698209915310e-05 -1.673819133429788053e-05 1.407080890203360468e-05
3.395000000000000000e+03 7.733950042724609375e+01 -2.693638038635253906e+01 2.920198487117886543e-03 -5.517649697139859200e-04 7.105300901457667351e-04 2.514578909540432505e-06
3.396000000000000000e+03 7.808976745605468750e+01 -2.689747047424316406e+01 3.170786658301949501e-03 1.988594522117637098e-05 9.572017588652670383e-04 4.375698335934430361e-04
3.397000000000000000e+03 7.946337890625000000e+01 -2.608721351623535156e+01 -1.376339583657681942e-03 2.941707614809274673e-03 4.696103860624134541e-04 1.995860133320093155e-03
3.398000000000000000e+03 7.731392669677734375e+01 -2.619355583190917969e+01 -4.864262416958808899e-03 -9.854285744950175285e-04 -1.754907309077680111e-03 -2.986176870763301849e-03
3.399000000000000000e+03 7.658641815185546875e+01 -2.697609710693359375e+01 2.132062567397952080e-03 -2.109089109580963850e-04 5.763461231254041195e-04 -7.775618578307330608e-04
3.400000000000000000e+03 7.882611083984375000e+01 -2.686320304870605469e+01 1.747140311636030674e-03 -3.621618379838764668e-04 4.154935595579445362e-04 9.498668950982391834e-04
3.401000000000000000e+03 7.988860321044921875e+01 -2.624045753479003906e+01 -9.748095180839300156e-04 -5.941897979937493801e-04 -4.706998006440699100e-04 1.634025393286719918e-04
3.402000000000000000e+03 7.656615447998046875e+01 -2.623495864868164062e+01 -6.978483870625495911e-03 1.222376711666584015e-03 -1.726832124404609203e-03 -9.922143071889877319e-04
3.403000000000000000e+03 7.805887603759765625e+01 -2.615296745300292969e+01 -2.158356830477714539e-03 -2.070548245683312416e-03 -1.268671592697501183e-03 -1.033363398164510727e-03
3.404000000000000000e+03 7.878989410400390625e+01 -2.611702537536621094e+01 4.104181716684252024e-04 -1.469283597543835640e-03 -3.176596364937722683e-04 1.309735584072768688e-03
3.405000000000000000e+03 7.950491333007812500e+01 -2.683506774902343750e+01 1.366326934657990932e-03 9.838650003075599670e-04 7.050575804896652699e-04 9.145940566668286920e-06
3.406000000000000000e+03 7.435298156738281250e+01 -2.623328590393066406e+01 -8.988438174128532410e-03 -2.615310717374086380e-03 -3.481124527752399445e-03 9.620814817026257515e-04
3.407000000000000000e+03 7.434702301025390625e+01 -2.697327041625976562e+01 2.929383423179388046e-03 3.668056800961494446e-03 1.979232067242264748e-03 1.371023245155811310e-03
3.408000000000000000e+03 7.360214233398437500e+01 -2.696339035034179688e+01 5.885629914700984955e-03 -3.907954320311546326e-03 5.933025968261063099e-04 1.091901096515357494e-03
3.409000000000000000e+03 7.509201812744140625e+01 -2.698283576965332031e+01 2.130872569978237152e-03 -2.190550556406378746e-03 -1.790344140317756683e-05 -1.835141883930191398e-04
3.410000000000000000e+03 7.582418823242187500e+01 -2.625184822082519531e+01 -8.609178476035594940e-03 -4.997808719053864479e-04 -2.732687862589955330e-03 -2.900684252381324768e-03
3.411000000000000000e+03 7.583707427978515625e+01 -2.699207496643066406e+01 1.363154849968850613e-03 1.418071333318948746e-03 8.343678200617432594e-04 5.545432213693857193e-04
3.412000000000000000e+03 7.361753082275390625e+01 -2.622352600097656250e+01 -1.113731972873210907e-02 4.358885344117879868e-03 -2.033530501648783684e-03 3.296628128737211227e-03
3.413000000000000000e+03 7.508855438232421875e+01 -2.624273109436035156e+01 -1.111843250691890717e-02 4.240750335156917572e-03 -2.063304651528596878e-03 2.438339637592434883e-03
3.414000000000000000e+03 7.157109069824218750e+01 -2.632641410827636719e+01 5.600044503808021545e-03 6.810130551457405090e-03 3.723052563145756721e-03 4.631593765225261450e-04
3.415000000000000000e+03 7.196121978759765625e+01 -2.690628433227539062e+01 -3.159074811264872551e-03 -3.328804159536957741e-03 -1.946363714523613453e-03 -5.085759330540895462e-03
3.416000000000000000e+03 7.278822326660156250e+01 -2.694778633117675781e+01 5.837630946189165115e-03 1.499879406765103340e-03 2.201253082603216171e-03 -7.165418355725705624e-04
3.417000000000000000e+03 7.288609313964843750e+01 -2.621121215820312500e+01 -4.374063573777675629e-03 -8.444201201200485229e-03 -3.845479339361190796e-03 2.734831534326076508e-03
3.418000000000000000e+03 7.221461486816406250e+01 -2.617616653442382812e+01 6.255865097045898438e-03 -2.891797339543700218e-03 1.009220373816788197e-03 -3.445365466177463531e-03
3.419000000000000000e+03 7.174316406250000000e+01 -2.767622184753417969e+01 1.120397471822798252e-03 4.127101972699165344e-03 1.574249821715056896e-03 -1.085087424144148827e-03
3.420000000000000000e+03 7.290261077880859375e+01 -2.808098602294921875e+01 6.430256762541830540e-04 -1.233665738254785538e-03 -1.771920069586485624e-04 -5.462141707539558411e-04
3.421000000000000000e+03 7.162282562255859375e+01 -2.841186141967773438e+01 7.975759799592196941e-04 -4.858342290390282869e-04 9.352252527605742216e-05 1.035052118822932243e-03
3.422000000000000000e+03 7.285732269287109375e+01 -2.857239532470703125e+01 -6.624946763622574508e-06 -2.858591615222394466e-04 -8.774523303145542741e-05 -5.281483026919886470e-05
3.423000000000000000e+03 7.282831573486328125e+01 -2.759895896911621094e+01 -8.108016336336731911e-04 -3.111569443717598915e-03 -1.176711404696106911e-03 2.224101917818188667e-03
3.424000000000000000e+03 7.119623565673828125e+01 -2.820100975036621094e+01 -5.930087063461542130e-04 -3.450165269896388054e-03 -1.212952192872762680e-03 2.279307926073670387e-03
3.425000000000000000e+03 7.222229003906250000e+01 -2.849229240417480469e+01 -3.422023495659232140e-03 1.320817973464727402e-03 -6.303616682998836040e-04 -6.502647884190082550e-04
3.426000000000000000e+03 7.236045074462890625e+01 -2.788129997253417969e+01 3.849745262414216995e-03 3.702657995745539665e-04 1.266003237105906010e-03 -1.725328271277248859e-03
3.427000000000000000e+03 7.898888397216796875e+01 -2.760950279235839844e+01 3.127159725409001112e-04 2.788730198517441750e-04 1.774767006281763315e-04 -9.275945194531232119e-05
3.428000000000000000e+03 7.791374206542968750e+01 -2.760621070861816406e+01 4.149917804170399904e-04 -1.454889774322509766e-03 -3.119694010820239782e-04 -1.658344845054671168e-04
3.429000000000000000e+03 7.662735748291015625e+01 -2.860783195495605469e+01 -1.536039169877767563e-03 4.011293931398540735e-04 -3.404729359317570925e-04 -6.498370566987432539e-06
3.430000000000000000e+03 7.936871337890625000e+01 -2.833490943908691406e+01 -9.013754897750914097e-04 6.943572079762816429e-04 -6.210547871887683868e-05 -4.676922399085015059e-04
3.431000000000000000e+03 7.877022552490234375e+01 -2.845338821411132812e+01 6.500836461782455444e-04 -1.153050834545865655e-05 1.915659522637724876e-04 -6.656774203293025494e-04
3.432000000000000000e+03 7.735025787353515625e+01 -2.800172805786132812e+01 -6.341614061966538429e-04 1.072428538464009762e-03 1.314801484113559127e-04 -3.919184091500937939e-04
3.433000000000000000e+03 7.730879211425781250e+01 -2.756325721740722656e+01 1.046249992214143276e-03 1.556175528094172478e-03 7.807276560924947262e-04 4.898801562376320362e-04
3.434000000000000000e+03 7.740731048583984375e+01 -2.851380729675292969e+01 8.742266800254583359e-04 -1.322305906796827912e-04 2.225988282589241862e-04 -4.260888672433793545e-04
3.435000000000000000e+03 7.659568023681640625e+01 -2.762480163574218750e+01 4.231982748024165630e-04 -8.863279363140463829e-04 -1.389389071846380830e-04 -4.235280212014913559e-04
3.436000000000000000e+03 7.660980987548828125e+01 -2.810980606079101562e+01 1.319194212555885315e-03 -6.436277762986719608e-04 2.026699366979300976e-04 2.627835783641785383e-04
3.437000000000000000e+03 7.813754272460937500e+01 -2.849098777770996094e+01 -9.083737386390566826e-04 -5.312263383530080318e-04 -4.318800347391515970e-04 5.917423986829817295e-04
3.438000000000000000e+03 7.842007446289062500e+01 -2.793042945861816406e+01 4.449724219739437103e-04 2.272191486554220319e-04 2.016574726440012455e-04 -2.332195435883477330e-04
3.439000000000000000e+03 7.964272308349609375e+01 -2.773777580261230469e+01 -1.551194727653637528e-04 -2.754128945525735617e-04 -1.291597145609557629e-04 1.696933031780645251e-04
3.440000000000000000e+03 4.454376983642578125e+01 -2.153533744812011719e+01 -9.280340075492858887e-01 -2.138205468654632568e-01 -3.425563573837280273e-01 -4.613021612167358398e-01
3.441000000000000000e+03 4.525796890258789062e+01 -2.133341026306152344e+01 -1.308087110519409180e+00 -2.080311030149459839e-01 -4.548354744911193848e-01 -5.875663161277770996e-01
3.442000000000000000e+03 4.405188369750976562e+01 -2.244241142272949219e+01 -5.153456330299377441e-01 -3.847641050815582275e-01 -2.700329124927520752e-01 -6.524481177330017090e-01
3.443000000000000000e+03 4.615114593505859375e+01 -2.184869003295898438e+01 -1.388356447219848633e+00 -3.617071509361267090e-01 -5.250190496444702148e-01 -9.910330176353454590e-01
3.444000000000000000e+03 4.545270156860351562e+01 -2.204736137390136719e+01 -1.037443399429321289e+00 -4.142606258392333984e-01 -4.355112016201019287e-01 -8.782590627670288086e-01
3.445000000000000000e+03 4.475288772583007812e+01 -2.224522018432617188e+01 -7.210251092910766602e-01 -3.975213468074798584e-01 -3.355639278888702393e-01 -7.968797683715820312e-01
3.446000000000000000e+03 4.597079086303710938e+01 -2.113067054748535156e+01 -1.685676097869873047e+00 -2.155802398920059204e-01 -5.703769326210021973e-01 -6.561527252197265625e-01
3.447000000000000000e+03 4.382838821411132812e+01 -2.173659515380859375e+01 -5.263311266899108887e-01 -1.340752542018890381e-01 -1.981219053268432617e-01 -3.725768327713012695e-01
3.448000000000000000e+03 4.742242813110351562e+01 -2.080677986145019531e+01 -2.715741634368896484e+00 -2.261597514152526855e-01 -8.825704455375671387e-01 -8.177770376205444336e-01
3.449000000000000000e+03 4.815383148193359375e+01 -2.066137695312500000e+01 -3.259167671203613281e+00 -2.313815057277679443e-01 -1.047164678573608398e+00 -9.279692769050598145e-01
3.450000000000000000e+03 4.686201095581054688e+01 -2.167665290832519531e+01 -1.746523737907409668e+00 -3.818837106227874756e-01 -6.385222077369689941e-01 -1.097150802612304688e+00
3.451000000000000000e+03 4.830693054199218750e+01 -2.138541984558105469e+01 -2.512474298477172852e+00 -3.971022069454193115e-01 -8.728729486465454102e-01 -1.261712670326232910e+00
3.452000000000000000e+03 4.888698577880859375e+01 -2.051945686340332031e+01 -3.784198045730590820e+00 -2.526665627956390381e-01 -1.211059451103210449e+00 -1.018677711486816406e+00
3.453000000000000000e+03 4.903206253051757812e+01 -2.124509811401367188e+01 -2.915931463241577148e+00 -3.662710487842559814e-01 -9.846607446670532227e-01 -1.331340312957763672e+00
3.454000000000000000e+03 4.758355331420898438e+01 -2.152922821044921875e+01 -2.103439569473266602e+00 -3.815150856971740723e-01 -7.454863786697387695e-01 -1.197272062301635742e+00
3.455000000000000000e+03 4.669285964965820312e+01 -2.095580101013183594e+01 -2.149422883987426758e+00 -1.806321144104003906e-01 -6.990165114402770996e-01 -7.289098501205444336e-01
3.456000000000000000e+03 5.036022949218750000e+01 -2.024225044250488281e+01 -4.821670055389404297e+00 -2.695004045963287354e-01 -1.527351140975952148e+00 -1.173685550689697266e+00
3.457000000000000000e+03 5.123764038085937500e+01 -2.082924842834472656e+01 -4.031688690185546875e+00 -3.081491887569427490e-01 -1.301951408386230469e+00 -1.370857596397399902e+00
3.458000000000000000e+03 4.976291656494140625e+01 -2.110580253601074219e+01 -3.311934947967529297e+00 -3.644458353519439697e-01 -1.102914214134216309e+00 -1.374686121940612793e+00
3.459000000000000000e+03 5.197274780273437500e+01 -2.068717575073242188e+01 -4.330661296844482422e+00 -2.559848129749298096e-01 -1.375993847846984863e+00 -1.327018618583679199e+00
3.460000000000000000e+03 5.050101470947265625e+01 -2.096874237060546875e+01 -3.679525852203369141e+00 -3.231776952743530273e-01 -1.200811028480529785e+00 -1.391215085983276367e+00
3.461000000000000000e+03 5.183234024047851562e+01 -1.996061325073242188e+01 -5.681259632110595703e+00 -2.780393958091735840e-01 -1.787789702415466309e+00 -1.282227158546447754e+00
3.462000000000000000e+03 4.962194442749023438e+01 -2.037934684753417969e+01 -4.308460712432861328e+00 -2.436077594757080078e-01 -1.365620493888854980e+00 -1.101911664009094238e+00
3.463000000000000000e+03 5.109704208374023438e+01 -2.010272216796875000e+01 -5.278188228607177734e+00 -2.557462453842163086e-01 -1.660180330276489258e+00 -1.238205075263977051e+00
3.464000000000000000e+03 5.405023574829101562e+01 -1.952743339538574219e+01 -6.344179153442382812e+00 -2.716232240200042725e-01 -1.984740734100341797e+00 -1.350503683090209961e+00
3.465000000000000000e+03 5.331044006347656250e+01 -1.967299842834472656e+01 -6.186871051788330078e+00 -2.834303975105285645e-01 -1.941090345382690430e+00 -1.332394123077392578e+00
3.466000000000000000e+03 5.271442794799804688e+01 -2.054370307922363281e+01 -4.571040630340576172e+00 -2.468024641275405884e-01 -1.445352911949157715e+00 -1.255561113357543945e+00
3.467000000000000000e+03 5.495590972900390625e+01 -2.010264968872070312e+01 -4.755441665649414062e+00 -3.159294128417968750e-01 -1.521411418914794922e+00 -1.056395530700683594e+00
3.468000000000000000e+03 5.478977203369140625e+01 -1.938115119934082031e+01 -6.514150142669677734e+00 -3.997498154640197754e-01 -2.074170112609863281e+00 -1.431896090507507324e+00
3.469000000000000000e+03 5.420899581909179688e+01 -2.025038337707519531e+01 -4.838954448699951172e+00 -2.699366509914398193e-01 -1.532667279243469238e+00 -1.143418073654174805e+00
3.470000000000000000e+03 5.257042312622070312e+01 -1.981785011291503906e+01 -5.982197761535644531e+00 -2.666849493980407715e-01 -1.874664783477783203e+00 -1.318190455436706543e+00
3.471000000000000000e+03 5.346182250976562500e+01 -2.039739990234375000e+01 -4.745076179504394531e+00 -2.024755179882049561e-01 -1.484265565872192383e+00 -1.186592102050781250e+00
3.472000000000000000e+03 5.553008651733398438e+01 -1.920907402038574219e+01 -6.364912986755371094e+00 -4.635922014713287354e-01 -2.048551559448242188e+00 -1.555315971374511719e+00
3.473000000000000000e+03 5.725695419311523438e+01 -1.950564956665039062e+01 -4.366704463958740234e+00 -3.877000212669372559e-01 -1.426321387290954590e+00 -1.015045285224914551e+00
3.474000000000000000e+03 5.571527862548828125e+01 -1.992561912536621094e+01 -4.703312397003173828e+00 -3.340669870376586914e-01 -1.511213779449462891e+00 -9.400079250335693359e-01
3.475000000000000000e+03 5.802567672729492188e+01 -1.928994750976562500e+01 -3.828253269195556641e+00 -4.761096537113189697e-01 -1.291308879852294922e+00 -7.666534781455993652e-01
3.476000000000000000e+03 5.701029205322265625e+01 -1.880601882934570312e+01 -5.832816123962402344e+00 -4.516250789165496826e-01 -1.885332345962524414e+00 -1.582499861717224121e+00
3.477000000000000000e+03 5.627075195312500000e+01 -1.900946998596191406e+01 -6.010273456573486328e+00 -4.430233836174011230e-01 -1.935989022254943848e+00 -1.583417534828186035e+00
3.478000000000000000e+03 5.774827575683593750e+01 -1.859877204895019531e+01 -5.811021327972412109e+00 -7.857801914215087891e-01 -1.979040503501892090e+00 -1.753784060478210449e+00
3.479000000000000000e+03 5.648667907714843750e+01 -1.971755790710449219e+01 -4.613341331481933594e+00 -2.612144351005554199e-01 -1.462366700172424316e+00 -9.634653925895690918e-01
3.480000000000000000e+03 5.914070129394531250e+01 -1.790256118774414062e+01 -3.479838132858276367e+00 -7.090212702751159668e-01 -1.256657838821411133e+00 -1.643396973609924316e+00
3.481000000000000000e+03 5.952583312988281250e+01 -1.853448677062988281e+01 -3.382216930389404297e+00 1.147856116294860840e-01 -9.802293777465820312e-01 -6.139379143714904785e-01
3.482000000000000000e+03 6.026574707031250000e+01 -1.809379196166992188e+01 -2.581045150756835938e+00 1.533409655094146729e-01 -7.283112406730651855e-01 -5.397682785987854004e-01
3.483000000000000000e+03 5.878223419189453125e+01 -1.896722793579101562e+01 -3.706612110137939453e+00 -9.415760636329650879e-02 -1.140230894088745117e+00 -5.309945940971374512e-01
3.484000000000000000e+03 6.099867248535156250e+01 -1.764663124084472656e+01 -2.089723825454711914e+00 4.747265279293060303e-01 -4.844992160797119141e-01 -1.761383861303329468e-01
3.485000000000000000e+03 6.048994827270507812e+01 -1.708762741088867188e+01 -2.183258771896362305e+00 -5.352609753608703613e-01 -8.155559301376342773e-01 -1.018346667289733887e+00
3.486000000000000000e+03 5.845867919921875000e+01 -1.829862213134765625e+01 -4.856015205383300781e+00 -1.015490889549255371e+00 -1.761451721191406250e+00 -1.854788899421691895e+00
3.487000000000000000e+03 5.981904220581054688e+01 -1.749854469299316406e+01 -2.815102100372314453e+00 -5.893403291702270508e-01 -1.021332740783691406e+00 -1.258337378501892090e+00
3.488000000000000000e+03 6.389270019531250000e+01 -1.315513706207275391e+01 1.774221062660217285e-01 8.879175186157226562e-01 3.196018934249877930e-01 5.100015401840209961e-01
3.489000000000000000e+03 6.362155151367187500e+01 -1.258993911743164062e+01 3.380714356899261475e-01 6.480742692947387695e-01 2.958437204360961914e-01 4.863718152046203613e-01
3.490000000000000000e+03 6.364220046997070312e+01 -1.379344177246093750e+01 -6.004539132118225098e-02 7.921612262725830078e-01 2.196347564458847046e-01 3.355991244316101074e-01
3.491000000000000000e+03 6.329390716552734375e+01 -1.445079326629638672e+01 -7.712514698505401611e-02 7.169505953788757324e-01 1.919476389884948730e-01 2.526798546314239502e-01
3.492000000000000000e+03 6.296297836303710938e+01 -1.507676315307617188e+01 -3.526914417743682861e-01 6.880784630775451660e-01 1.006161198019981384e-01 1.252616941928863525e-01
3.493000000000000000e+03 6.250194549560546875e+01 -1.563844871520996094e+01 -4.426593780517578125e-01 5.696391463279724121e-01 3.809393569827079773e-02 -2.413862943649291992e-02
3.494000000000000000e+03 6.201707839965820312e+01 -1.631484985351562500e+01 -9.646449685096740723e-01 5.064002275466918945e-01 -1.374734193086624146e-01 -2.373877316713333130e-01
3.495000000000000000e+03 6.148456954956054688e+01 -1.575653648376464844e+01 -2.450736612081527710e-01 1.201892718672752380e-01 -3.746531531214714050e-02 -1.482498794794082642e-01
3.496000000000000000e+03 6.157407379150390625e+01 -1.705956077575683594e+01 -1.601218104362487793e+00 6.262037158012390137e-01 -2.925043404102325439e-01 -2.132758796215057373e-01
3.497000000000000000e+03 6.322280120849609375e+01 -1.338076305389404297e+01 1.925767064094543457e-01 5.307049155235290527e-01 2.169844806194305420e-01 3.819044232368469238e-01
3.498000000000000000e+03 6.233250427246093750e+01 -1.494980430603027344e+01 -1.611103564500808716e-01 4.744909703731536865e-01 9.401418268680572510e-02 8.712992072105407715e-02
3.499000000000000000e+03 6.185053634643554688e+01 -1.498038387298583984e+01 -8.355783671140670776e-02 3.145506083965301514e-01 6.929782778024673462e-02 9.940145164728164673e-02
3.500000000000000000e+03 6.265357208251953125e+01 -1.377886962890625000e+01 1.407291442155838013e-01 5.243584513664245605e-01 1.995262652635574341e-01 2.745430767536163330e-01
3.501000000000000000e+03 6.103660202026367188e+01 -1.651272010803222656e+01 -1.147410511970520020e+00 -3.053157031536102295e-01 -4.358178675174713135e-01 -5.888718366622924805e-01
3.502000000000000000e+03 6.219382095336914062e+01 -1.432803440093994141e+01 1.347603499889373779e-01 4.599528610706329346e-01 1.784139722585678101e-01 2.359302788972854614e-01
3.503000000000000000e+03 6.283056640625000000e+01 -1.454834175109863281e+01 -7.808553427457809448e-02 5.680642127990722656e-01 1.469936072826385498e-01 1.838270723819732666e-01
3.504000000000000000e+03 6.100513076782226562e+01 -1.542561531066894531e+01 -1.009841639643127564e-06 -6.878605063320719637e-07 -5.093106665299274027e-07 -2.174674449406666099e-07
3.505000000000000000e+03 5.980083084106445312e+01 -1.543185615539550781e+01 2.268477828692994080e-06 4.660757440433371812e-06 2.078770648950012401e-06 1.522827233202406205e-06
3.506000000000000000e+03 6.019709777832031250e+01 -1.577101421356201172e+01 -2.635273403939208947e-06 4.266619768600321549e-08 -7.777821906529425178e-07 -3.865166888772364473e-07
3.507000000000000000e+03 6.056436157226562500e+01 -1.607985115051269531e+01 5.925127197770052589e-07 3.781682380576967262e-07 2.912042873504105955e-07 -2.943934589438867988e-07
3.508000000000000000e+03 6.142192840576171875e+01 -1.476541900634765625e+01 1.640650793888198677e-06 4.905929813503462356e-07 6.393731268872215878e-07 5.772585041086131241e-07
3.509000000000000000e+03 6.213092422485351562e+01 -1.359696483612060547e+01 9.244210446013312321e-07 8.922108207798373769e-08 3.040926230823970400e-07 2.086726169636676786e-07
3.510000000000000000e+03 6.144266128540039062e+01 -1.412735176086425781e+01 2.568856132256769342e-07 2.945481192284660210e-08 8.590212985382095212e-08 2.895549755521642510e-07
3.511000000000000000e+03 6.036208724975585938e+01 -1.491959762573242188e+01 -1.648800349585144431e-07 1.982307594516896643e-06 5.452282607620873023e-07 -2.882001695070357528e-07
3.512000000000000000e+03 6.065115356445312500e+01 -1.523142147064208984e+01 2.647878545758430846e-06 2.494658986051945249e-07 8.692033475199423265e-07 -6.441116511268774047e-07
3.513000000000000000e+03 6.182951354980468750e+01 -1.412581539154052734e+01 -1.940452193593955599e-06 -1.249063359409774421e-07 -6.196075332809414249e-07 -5.501896680470963474e-07
3.514000000000000000e+03 6.099356460571289062e+01 -1.469548988342285156e+01 -1.428458517693798058e-06 -2.400071934971492738e-06 -1.148559135799587239e-06 -1.548448835819726810e-08
3.515000000000000000e+03 5.861434173583984375e+01 -1.637038230895996094e+01 2.365258524150704034e-06 -4.673322280268621398e-07 5.693779030480072834e-07 1.541418441775022075e-07
3.516000000000000000e+03 5.907415390014648438e+01 -1.671718597412109375e+01 -2.344118001929018646e-06 -3.177677854182547890e-06 -1.656538756833469961e-06 -1.126772872339643072e-06
3.517000000000000000e+03 5.928987884521484375e+01 -1.589454174041748047e+01 -3.031853339052759111e-06 -2.987174639201839454e-06 -1.805708393476379570e-06 3.374692312263505301e-07
3.518000000000000000e+03 5.789558410644531250e+01 -1.685814666748046875e+01 -4.915464728583174292e-07 2.325441101902470109e-07 -7.770070453716471093e-08 -8.819491199574258644e-07
3.519000000000000000e+03 5.817584609985351562e+01 -1.755254173278808594e+01 1.581349664547815337e-07 2.274785629197140224e-06 7.298761488527816255e-07 -1.252383299288339913e-06
3.520000000000000000e+03 6.003462982177734375e+01 -1.659701728820800781e+01 -7.605358973705733661e-07 -7.363524190395764890e-08 -2.502513325453037396e-07 3.639920578279998153e-07
3.521000000000000000e+03 5.967214584350585938e+01 -1.625088500976562500e+01 1.467909328312089201e-06 1.608920683793257922e-06 9.230490150002879091e-07 6.975440101086860523e-07
3.522000000000000000e+03 5.885440826416015625e+01 -1.725676536560058594e+01 1.132723127739154734e-06 -3.833630671579157934e-06 -8.102722972580522764e-07 2.394818068296444835e-07
3.523000000000000000e+03 5.944448852539062500e+01 -1.698521423339843750e+01 1.411925040883943439e-06 2.849336169674643315e-06 1.278378363167576026e-06 1.308434434577065986e-06
3.524000000000000000e+03 5.587814712524414062e+01 -1.781697273254394531e+01 6.849861620139563456e-06 4.612223165167961270e-06 3.438625299168052152e-06 -6.733608870490570553e-07
3.525000000000000000e+03 5.585419845581054688e+01 -1.838780212402343750e+01 -1.845444472792223678e-07 7.089903192536439747e-06 2.071607696052524261e-06 -1.847819135036843363e-06
3.526000000000000000e+03 5.528112792968750000e+01 -1.847929763793945312e+01 -5.229337602941086516e-07 -3.348187874507857487e-06 -1.161336513177957386e-06 2.831434358085971326e-06
3.527000000000000000e+03 5.635134124755859375e+01 -1.824832153320312500e+01 1.991013050428591669e-06 -5.090815648145508021e-06 -9.299407111029722728e-07 -4.662132653265871340e-07
3.528000000000000000e+03 5.686418914794921875e+01 -1.803310203552246094e+01 2.104538680214318447e-06 3.525123659642304119e-08 6.419369924515194725e-07 9.301617751589219552e-07
3.529000000000000000e+03 5.634397506713867188e+01 -1.740873908996582031e+01 -7.033016117929946631e-06 -4.240936505084391683e-06 -3.382185923328506760e-06 4.891415755992056802e-06
3.530000000000000000e+03 5.748024749755859375e+01 -1.785220718383789062e+01 -1.100168219636543654e-06 -2.928300943949579960e-07 -4.178994856829376658e-07 1.816258645703783259e-06
3.531000000000000000e+03 5.711166381835937500e+01 -1.718612289428710938e+01 -1.942017661349382252e-06 3.861766799673205242e-06 5.759247301284631249e-07 -1.506768057879526168e-06
3.532000000000000000e+03 5.518711853027343750e+01 -1.773766326904296875e+01 3.397186901565873995e-06 -2.420284545223694295e-06 2.930707694304146571e-07 -3.170531272189691663e-06
3.533000000000000000e+03 5.241899490356445312e+01 -1.905364608764648438e+01 -1.420296200649318052e-07 -2.064739874185761437e-06 -6.620308568017208017e-07 -3.131951871182536706e-07
3.534000000000000000e+03 5.315275955200195312e+01 -1.891308021545410156e+01 -1.403097371621697675e-07 7.756609647913137451e-07 1.906053626044013072e-07 7.165883744164602831e-07
3.535000000000000000e+03 5.388480377197265625e+01 -1.876910972595214844e+01 -7.363020131379016675e-07 4.469652026273251977e-07 -8.680104457425841247e-08 -6.795176545892900322e-07
3.536000000000000000e+03 5.372604370117187500e+01 -1.804615974426269531e+01 2.819323299263487570e-06 3.345204504512366839e-06 1.849358341132756323e-06 8.195838745450600982e-07
3.537000000000000000e+03 5.461503982543945312e+01 -1.862159919738769531e+01 1.925432343341526575e-06 -1.490436005724404822e-07 5.329166583578626160e-07 -1.000232600745221134e-06
3.538000000000000000e+03 5.444890213012695312e+01 -1.790010070800781250e+01 -3.710869577844277956e-06 -7.634647545273764990e-07 -1.342300265605445020e-06 2.626267736616227921e-08
3.539000000000000000e+03 5.227499008178710938e+01 -1.832779121398925781e+01 -8.303584309032885358e-07 4.640091901819687337e-06 1.142920041274919640e-06 1.912308675855456386e-07
3.540000000000000000e+03 5.300137710571289062e+01 -1.818867683410644531e+01 -3.250321469749906100e-07 -4.557799911708571017e-06 -1.464849560761649627e-06 -1.618290184524084907e-06
3.541000000000000000e+03 5.021003341674804688e+01 -1.947287559509277344e+01 3.790019320604187669e-07 2.493238753231707960e-06 8.616722197984927334e-07 -5.004637841921066865e-07
3.542000000000000000e+03 5.094702148437500000e+01 -1.933323669433593750e+01 -5.687316502189787570e-07 -2.678776809261762537e-06 -9.742525435285642743e-07 4.988755790691357106e-07
3.543000000000000000e+03 4.947301483154296875e+01 -1.961274909973144531e+01 -5.869774213351774961e-07 -2.360605094509082846e-06 -8.842747547532781027e-07 4.099921966371766757e-07
3.544000000000000000e+03 5.168397521972656250e+01 -1.919383239746093750e+01 -3.672259296649826865e-08 2.670002913873759098e-06 7.899840852587658446e-07 -2.923100055340910330e-07
3.545000000000000000e+03 5.154356384277343750e+01 -1.846726989746093750e+01 -6.499856795016967226e-07 -3.386540356586920097e-06 -1.210957748298824299e-06 6.993892611717456020e-07
3.546000000000000000e+03 4.933204269409179688e+01 -1.888629341125488281e+01 1.044252257997868583e-06 2.582847400844912045e-06 1.088129920390201733e-06 -5.708610046895046253e-07
3.547000000000000000e+03 5.080642700195312500e+01 -1.860671043395996094e+01 1.161494424195552710e-06 2.752283762674778700e-06 1.174133444692415651e-06 -4.812432052858639508e-07
3.548000000000000000e+03 5.006925201416015625e+01 -1.874638557434082031e+01 -1.309636218138621189e-06 -2.780995373541372828e-06 -1.227189500241365749e-06 3.777493020606925711e-07
3.549000000000000000e+03 4.725450897216796875e+01 -2.004898452758789062e+01 2.740286504376854282e-07 1.483914388700213749e-06 5.273828946883440949e-07 -5.193499532651912887e-07
3.550000000000000000e+03 4.709337997436523438e+01 -1.932653617858886719e+01 -1.516360725872800685e-06 -1.637989157643460203e-06 -9.463049650548782665e-07 6.713977427352801897e-07
3.551000000000000000e+03 4.651494979858398438e+01 -2.019693183898925781e+01 -7.304165592358913273e-07 -8.921778089643339626e-07 -4.867783331974351313e-07 4.655841792100545717e-07
3.552000000000000000e+03 4.799435043334960938e+01 -1.990183448791503906e+01 -6.907204124217969365e-07 -1.867954665613069665e-06 -7.676025575165112969e-07 4.048207813411863754e-07
3.553000000000000000e+03 4.873443222045898438e+01 -1.975547790527343750e+01 3.009605791248759488e-07 2.113643631673767231e-06 7.243812660817638971e-07 -5.104371894049108960e-07
3.554000000000000000e+03 4.858935928344726562e+01 -1.902983856201171875e+01 -1.336638206339557655e-06 -2.365687350902589969e-06 -1.110697667172644287e-06 4.874395358456240501e-07
3.555000000000000000e+03 4.634579849243164062e+01 -1.947607994079589844e+01 1.038874529513122980e-06 1.353717266283638310e-06 7.177775387390283868e-07 -9.546708952257176861e-07
3.556000000000000000e+03 4.784125137329101562e+01 -1.917778968811035156e+01 1.095815036933345255e-06 2.013078528761980124e-06 9.326680583399138413e-07 -7.323994282160128932e-07
3.557000000000000000e+03 4.432126998901367188e+01 -2.078344535827636719e+01 3.227995364341040840e-07 -5.789540864498121664e-07 -7.684636926796883927e-08 1.541388314763025846e-07
3.558000000000000000e+03 4.505051040649414062e+01 -2.057725715637207031e+01 -7.869344358368834946e-07 3.397583441255846992e-07 -1.341528275133896386e-07 -7.381579347764954946e-09
3.559000000000000000e+03 4.359247589111328125e+01 -2.099166297912597656e+01 -5.832916940562427044e-07 4.384375529298267793e-07 -4.345624660118119209e-08 -4.134899995733576361e-07
3.560000000000000000e+03 4.411215209960937500e+01 -2.007356262207031250e+01 -2.214479991380358115e-06 -4.872729277849430218e-07 -8.105258757495903410e-07 -1.698717397857762990e-07
3.561000000000000000e+03 4.578023910522460938e+01 -2.037289810180664062e+01 4.460031277631060220e-07 1.430368001820170321e-07 1.767119783835369162e-07 -3.675817197290598415e-07
3.562000000000000000e+03 4.559988403320312500e+01 -1.965488052368164062e+01 -1.897465722322522197e-06 -9.509760729997651652e-07 -8.545325158593186643e-07 9.494729056314099580e-07
3.563000000000000000e+03 4.336897659301757812e+01 -2.028584671020507812e+01 1.180387130261806305e-06 6.328797326204949059e-07 5.439800361273228191e-07 3.139716966416017385e-07
3.564000000000000000e+03 4.485577392578125000e+01 -1.986330604553222656e+01 1.969053982975310646e-06 4.573878982228052337e-07 7.279326155185117386e-07 -6.674508767900988460e-07
3.565000000000000000e+03 4.104784393310546875e+01 -2.109504699707031250e+01 2.675453060874133371e-06 1.146154673392629775e-07 8.370205364371940959e-07 3.597005218125559622e-07
3.566000000000000000e+03 4.266473007202148438e+01 -2.049994087219238281e+01 -1.200298584080883302e-06 -8.729224418857484125e-07 -6.219663077899895143e-07 -3.677370727928064298e-07
3.567000000000000000e+03 4.164785385131835938e+01 -2.166072845458984375e+01 -5.154942641638626810e-07 -2.552532052391143225e-08 -1.623058807354027522e-07 -7.053171202642261051e-08
3.568000000000000000e+03 4.282600402832031250e+01 -2.122967720031738281e+01 1.939567084718873957e-08 -2.897953947922360385e-07 -8.111992144677060423e-08 1.366372686106842593e-07
3.569000000000000000e+03 4.148378753662109375e+01 -2.086083030700683594e+01 -1.639429342503717635e-06 -4.484087696710048476e-07 -6.263514364945876878e-07 6.004194119668682106e-07
3.570000000000000000e+03 4.205922317504882812e+01 -2.122107124328613281e+01 -9.157267299997329246e-08 3.174652931647869991e-07 6.776778604944411200e-08 1.103380231626260866e-08
3.571000000000000000e+03 4.202204132080078125e+01 -2.066273307800292969e+01 6.351539241222781129e-07 1.242730036210559774e-06 5.633651767311675940e-07 1.361939450106319782e-09
3.572000000000000000e+03 4.183971786499023438e+01 -2.302727508544921875e+01 -1.682043448090553284e-02 -7.699991762638092041e-02 -2.814610674977302551e-02 3.670915216207504272e-02
3.573000000000000000e+03 4.219042205810546875e+01 -2.229762840270996094e+01 -2.926284912973642349e-03 -4.117495194077491760e-02 -1.323037128895521164e-02 -8.505901694297790527e-02
3.574000000000000000e+03 4.326124572753906250e+01 -2.270085716247558594e+01 -2.369099706411361694e-01 -3.964134752750396729e-01 -1.899970322847366333e-01 -5.255897641181945801e-01
3.575000000000000000e+03 4.302730941772460938e+01 -2.199828910827636719e+01 -2.209847271442413330e-01 -1.786867976188659668e-01 -1.199014559388160706e-01 -1.879176944494247437e-01
3.576000000000000000e+03 4.243085479736328125e+01 -2.299776458740234375e+01 -5.663906037807464600e-02 -4.542175829410552979e-01 -1.532569974660873413e-01 -2.219344079494476318e-01
3.577000000000000000e+03 1.605741500854492188e+01 -3.611289262771606445e+00 -4.674526280723512173e-05 -4.972119495505467057e-05 -2.893993769248481840e-05 -4.064432869199663401e-05
3.578000000000000000e+03 1.562254238128662109e+01 -4.210125446319580078e+00 7.412667036987841129e-05 4.359713784651830792e-05 3.531714537530206144e-05 4.023543078801594675e-05
3.579000000000000000e+03 1.505074691772460938e+01 -3.785051584243774414e+00 -6.954194395802915096e-05 -5.148777199792675674e-05 -3.630891296779736876e-05 -3.229141293559223413e-05
3.580000000000000000e+03 1.676181221008300781e+01 -5.065579891204833984e+00 7.257521792780607939e-05 4.862706919084303081e-05 3.636068868217989802e-05 4.697302574641071260e-05
3.581000000000000000e+03 1.619318008422851562e+01 -4.636556148529052734e+00 -7.495652243960648775e-05 -4.318199353292584419e-05 -3.544155697454698384e-05 -4.503726813709363341e-05
3.582000000000000000e+03 1.723610115051269531e+01 -4.496263980865478516e+00 -5.937917740084230900e-05 -6.341123662423342466e-05 -3.683712566271424294e-05 -5.457376028061844409e-05
3.583000000000000000e+03 1.546591091156005859e+01 -3.171455383300781250e+00 3.728653246071189642e-05 4.697231997852213681e-05 2.527765536797232926e-05 3.267756983404979110e-05
3.584000000000000000e+03 1.664776039123535156e+01 -4.052479743957519531e+00 5.282405982143245637e-05 5.642954056384041905e-05 3.277607902418822050e-05 4.961093509336933494e-05
3.585000000000000000e+03 1.831977081298828125e+01 -5.492505550384521484e+00 -6.399198173312470317e-05 -6.513432163046672940e-05 -3.873789319186471403e-05 -5.680096001015044749e-05
3.586000000000000000e+03 1.780974006652832031e+01 -6.028855800628662109e+00 6.437474075937643647e-05 5.618586146738380194e-05 3.616818139562383294e-05 4.354452539701014757e-05
3.587000000000000000e+03 1.730055999755859375e+01 -5.529824733734130859e+00 -6.898454739712178707e-05 -5.484203575178980827e-05 -3.714797639986500144e-05 -4.390499816508963704e-05
3.588000000000000000e+03 1.831691551208496094e+01 -6.530111789703369141e+00 -6.428873166441917419e-05 -5.752237848355434835e-05 -3.654333340818993747e-05 -4.117394564673304558e-05
3.589000000000000000e+03 1.882190132141113281e+01 -7.033396244049072266e+00 6.888976349728181958e-05 5.771432552137412131e-05 3.798122634179890156e-05 3.958378147217445076e-05
3.590000000000000000e+03 1.936644935607910156e+01 -6.531159877777099609e+00 -6.243852112675085664e-05 -5.611914821201935410e-05 -3.556730007403530180e-05 -4.969337169313803315e-05
3.591000000000000000e+03 1.779333305358886719e+01 -4.976417064666748047e+00 6.126487278379499912e-05 6.561160989804193377e-05 3.806294625974260271e-05 5.765235619037412107e-05
3.592000000000000000e+03 1.884420585632324219e+01 -6.010818481445312500e+00 6.154980655992403626e-05 6.056519487174227834e-05 3.663450115709565580e-05 5.575671093538403511e-05
3.593000000000000000e+03 2.031454658508300781e+01 -7.659852027893066406e+00 -5.827223867527209222e-05 -4.288369018468074501e-05 -3.034677865798585117e-05 -4.097653436474502087e-05
3.594000000000000000e+03 2.077073287963867188e+01 -8.240385055541992188e+00 5.637877256958745420e-05 3.543721686583012342e-05 2.754479646682739258e-05 3.785687295021489263e-05
3.595000000000000000e+03 1.929654693603515625e+01 -7.565644741058349609e+00 -6.639582716161385179e-05 -5.618038994725793600e-05 -3.677286440506577492e-05 -3.939706584787927568e-05
3.596000000000000000e+03 2.062350273132324219e+01 -9.254287719726562500e+00 8.006514690350741148e-05 4.226656164973974228e-05 3.669951183837838471e-05 3.818468758254311979e-05
3.597000000000000000e+03 2.018299865722656250e+01 -8.690117835998535156e+00 -7.615475624334067106e-05 -4.649710535886697471e-05 -3.679555811686441302e-05 -3.496943827485665679e-05
3.598000000000000000e+03 1.974063491821289062e+01 -8.127175331115722656e+00 7.017153257038444281e-05 5.225193672231398523e-05 3.672704406199045479e-05 3.580386328394524753e-05
3.599000000000000000e+03 2.122505760192871094e+01 -8.822144508361816406e+00 -5.413372855400666595e-05 -3.177443068125285208e-05 -2.577244777057785541e-05 -3.378870678716339171e-05
3.600000000000000000e+03 1.985663604736328125e+01 -7.080731868743896484e+00 5.924409560975618660e-05 4.759995863423682749e-05 3.205321627319790423e-05 4.694554081652313471e-05
3.601000000000000000e+03 2.203341293334960938e+01 -1.005728912353515625e+01 -5.000524106435477734e-05 -2.360081816732417792e-05 -2.208181649621110409e-05 -2.480870534782297909e-05
3.602000000000000000e+03 2.140859222412109375e+01 -1.045394611358642578e+01 6.746293365722522140e-05 4.637947859009727836e-05 3.415272294660098851e-05 2.712852256081532687e-05
3.603000000000000000e+03 2.103163337707519531e+01 -9.842617988586425781e+00 -7.209127943497151136e-05 -4.613370401784777641e-05 -3.546749576344154775e-05 -3.916533023584634066e-05
3.604000000000000000e+03 2.178438568115234375e+01 -1.106581783294677734e+01 -7.341956370510160923e-05 -2.908561509684659541e-05 -3.075155473197810352e-05 -2.216229950136039406e-05
3.605000000000000000e+03 2.215780448913574219e+01 -1.167914867401123047e+01 5.142637382959946990e-05 3.095093779847957194e-05 2.471319385222159326e-05 2.280909393448382616e-05
3.606000000000000000e+03 2.280443191528320312e+01 -1.131808185577392578e+01 -5.419312219601124525e-05 -1.977613283088430762e-05 -2.219077578047290444e-05 -1.639918082219082862e-05
3.607000000000000000e+03 2.164555168151855469e+01 -9.428166389465332031e+00 5.037408118369057775e-05 2.751759166130796075e-05 2.336750185349956155e-05 2.990626671817153692e-05
3.608000000000000000e+03 2.242011070251464844e+01 -1.068695640563964844e+01 4.613191777025349438e-05 1.812580376281403005e-05 1.927731682371813804e-05 2.428906554996501654e-05
3.609000000000000000e+03 2.317674064636230469e+01 -1.199929141998291016e+01 4.990630259271711111e-05 7.420255769829964265e-06 1.719796819088514894e-05 2.026153015322051942e-05
3.610000000000000000e+03 2.284523010253906250e+01 -1.300796508789062500e+01 4.615761645254679024e-05 -1.966002400877187029e-06 1.325748417002614588e-05 4.905833975499263033e-06
3.611000000000000000e+03 2.406083297729492188e+01 -1.497063064575195312e+01 -1.040420738718239591e-05 5.947532372374553233e-06 -1.337002572654455435e-06 5.934546607022639364e-06
3.612000000000000000e+03 2.462505912780761719e+01 -1.485978507995605469e+01 4.102987804799340665e-05 -3.074153482884867117e-06 1.138671814260305837e-05 -8.144904313667211682e-06
3.613000000000000000e+03 2.389264106750488281e+01 -1.346117115020751953e+01 1.830783548939507455e-05 1.806061300158035010e-05 1.091053491109050810e-05 8.456778232357464731e-06
3.614000000000000000e+03 2.353559875488281250e+01 -1.273112678527832031e+01 -3.339255272294394672e-05 -1.341036204394185916e-05 -1.404087470291415229e-05 -2.219258749391883612e-05
3.615000000000000000e+03 2.488323020935058594e+01 -1.545215702056884766e+01 -1.907535261125303805e-05 -2.112341917381854728e-06 -6.356308404065202922e-06 7.078466524035320617e-08
3.616000000000000000e+03 2.424729537963867188e+01 -1.417472362518310547e+01 -3.026436752406880260e-05 -1.326494384557008743e-05 -1.305879322899272665e-05 1.126842562371166423e-05
3.617000000000000000e+03 2.350594520568847656e+01 -1.435108280181884766e+01 3.758415914489887655e-05 5.537047400139272213e-05 2.788638994388747960e-05 -6.317509814834920689e-06
3.618000000000000000e+03 2.317678260803222656e+01 -1.368776988983154297e+01 -5.093658910482190549e-05 -2.430724453006405383e-05 -2.257315099996048957e-05 -2.492659041308797896e-05
3.619000000000000000e+03 2.251189041137695312e+01 -1.232635593414306641e+01 -2.688014137675054371e-05 -2.791277620417531580e-05 -1.643787436478305608e-05 -1.871822746579709928e-06
3.620000000000000000e+03 2.456154632568359375e+01 -1.316923522949218750e+01 -5.291675506668980233e-07 -3.492805831228906754e-07 -2.635344458212784957e-07 3.403545747460157145e-07
3.621000000000000000e+03 2.482023620605468750e+01 -1.197365283966064453e+01 4.268913755822723033e-07 5.143432417753501795e-07 2.823703937337995740e-07 7.719577155285151093e-08
3.622000000000000000e+03 2.650333786010742188e+01 -1.565426826477050781e+01 1.537912680760200601e-06 -2.558956111897714436e-06 -3.063130122882284923e-07 3.007827729106793413e-07
3.623000000000000000e+03 2.385268974304199219e+01 -1.163848972320556641e+01 5.333802164386725053e-07 3.059513460357266013e-07 2.517994630579778459e-07 -1.028680363113210205e-09
3.624000000000000000e+03 2.484836769104003906e+01 -1.395820903778076172e+01 5.347111482478794642e-07 -7.119312499526131433e-07 -5.316602980087736796e-08 1.152792989955742087e-07
3.625000000000000000e+03 2.532261657714843750e+01 -1.399315357208251953e+01 2.806832071655662730e-06 1.413306222275423352e-06 1.266041522285377141e-06 -1.452071160201739985e-06
3.626000000000000000e+03 2.568108749389648438e+01 -1.559443092346191406e+01 1.543742200738051906e-06 1.307767092839640100e-06 8.554528108106751461e-07 1.301562292610469740e-06
3.627000000000000000e+03 2.449533462524414062e+01 -1.126426315307617188e+01 1.710194226234307280e-07 -3.801835930516972439e-07 -6.274925112847995479e-08 -1.667217816248012241e-06
3.628000000000000000e+03 2.516623687744140625e+01 -1.270689773559570312e+01 1.435164904250996187e-06 -4.165165705671824981e-07 3.055944830521184485e-07 -5.283361019792209845e-07
3.629000000000000000e+03 2.556309509277343750e+01 -1.336782169342041016e+01 -3.223374733352102339e-06 4.566367408642690862e-07 -8.300214062728628051e-07 1.259430518985027447e-06
3.630000000000000000e+03 2.595065307617187500e+01 -1.390986061096191406e+01 4.574606464302632958e-06 -2.014911387959728017e-06 7.679084887968201656e-07 -2.201956249336944893e-06
3.631000000000000000e+03 2.620536613464355469e+01 -1.446394062042236328e+01 -1.770825747371418402e-06 2.107071168211405165e-06 1.008736134622267855e-07 2.910143621193128638e-06
3.632000000000000000e+03 2.637091255187988281e+01 -1.507584285736083984e+01 3.628491356266749790e-07 -1.132663555836188607e-06 -2.309443232206831453e-07 -1.220460148942947853e-06
3.633000000000000000e+03 2.638264656066894531e+01 -1.612632179260253906e+01 -2.822945589286973700e-06 -1.980451088456902653e-06 -1.441019094272633083e-06 -4.762415244385920232e-07
3.634000000000000000e+03 2.419656753540039062e+01 -1.239193534851074219e+01 4.370405406461941311e-07 -5.465897174872225150e-07 -3.286475802610766550e-08 -2.785291997042804724e-07
3.635000000000000000e+03 2.512793922424316406e+01 -1.461182594299316406e+01 -1.206949946208624169e-06 -2.445599875500192866e-06 -1.095764901037910022e-06 2.926968249994388316e-07
3.636000000000000000e+03 2.566095924377441406e+01 -1.495156669616699219e+01 -3.963708650189801119e-07 1.871765903160849120e-06 4.426185000738769304e-07 7.833186259631474968e-07
3.637000000000000000e+03 2.577541732788085938e+01 -1.432993030548095703e+01 -5.436549486148578580e-07 -1.310461925640993286e-06 -5.562350793297810014e-07 4.191557252397615230e-07
3.638000000000000000e+03 2.269077491760253906e+01 -9.641036033630371094e+00 1.174960971184191294e-06 8.287720447697211057e-07 6.011198934174899478e-07 -2.328933078388217837e-06
3.639000000000000000e+03 2.348543930053710938e+01 -1.093805503845214844e+01 9.513790644177788636e-08 3.639284216205851408e-07 1.377199083663072088e-07 -1.349434342046151869e-06
3.640000000000000000e+03 2.229273414611816406e+01 -8.991255760192871094e+00 1.973138978428323753e-06 2.924839463958051056e-06 1.469393509978544898e-06 -1.351666242044302635e-06
3.641000000000000000e+03 2.308835411071777344e+01 -1.029005146026611328e+01 1.226331960424431600e-06 1.467240622332610656e-06 8.080717748271126766e-07 4.484994065023784060e-08
3.642000000000000000e+03 2.413209533691406250e+01 -1.057697391510009766e+01 1.612558776287187357e-06 4.266358644144929713e-07 6.117583666309656110e-07 9.764487458596704528e-07
3.643000000000000000e+03 2.290665245056152344e+01 -8.576805114746093750e+00 2.856361561498488300e-06 -6.401415930668008514e-07 6.648659791608224623e-07 -4.763509878102922812e-06
3.644000000000000000e+03 2.331559562683105469e+01 -9.244379997253417969e+00 2.645957010827260092e-06 2.467186959620448761e-06 1.533943191134312656e-06 4.646716718070820207e-07
3.645000000000000000e+03 2.372407913208007812e+01 -9.911190032958984375e+00 1.766072841746790800e-06 -3.578828682293533348e-07 4.224569920552312396e-07 -3.563134441719739698e-06
3.646000000000000000e+03 2.091797065734863281e+01 -7.169854164123535156e+00 4.325607733335345984e-06 4.396465101308422163e-06 2.616621713968925178e-06 -5.238694484432926401e-06
3.647000000000000000e+03 2.044657707214355469e+01 -6.570147991180419922e+00 7.274431027326500043e-06 6.261142061703139916e-06 4.060671926708891988e-06 -4.840564997721230611e-06
3.648000000000000000e+03 2.138868331909179688e+01 -7.768980979919433594e+00 3.418811274968902580e-06 4.168047780694905668e-06 2.276057784911245108e-06 -3.170606760249938816e-06
3.649000000000000000e+03 2.185866355895996094e+01 -8.367236137390136719e+00 3.187931042702984996e-06 2.488183326931903139e-06 1.702834310890466440e-06 -3.551584995875600725e-06
3.650000000000000000e+03 2.246022033691406250e+01 -7.935092449188232422e+00 4.182327757007442415e-06 3.426912826398620382e-06 2.282772129547083750e-06 -1.582177588943523006e-07
3.651000000000000000e+03 2.100666618347167969e+01 -6.085235118865966797e+00 8.060057552938815206e-06 2.759329618129413575e-06 3.245816060370998457e-06 -7.406600161630194634e-06
3.652000000000000000e+03 2.149188232421875000e+01 -6.702531337738037109e+00 7.201184871519217268e-06 4.381974122225074098e-06 3.474947789072757587e-06 -2.961609880003379658e-06
3.653000000000000000e+03 2.197641754150390625e+01 -7.319247722625732422e+00 5.332641194399911910e-06 -1.256020851769790170e-07 1.562111719977110624e-06 -6.031758857716340572e-06
3.654000000000000000e+03 1.885587120056152344e+01 -4.930348396301269531e+00 1.020429772324860096e-05 6.568378921656403691e-06 5.031803084420971572e-06 -1.055687334883259609e-05
3.655000000000000000e+03 1.831238174438476562e+01 -4.393686294555664062e+00 1.583037374075502157e-05 1.027963935484876856e-05 7.833004019630607218e-06 -8.812279702397063375e-06
3.656000000000000000e+03 1.939846801757812500e+01 -5.466702461242675781e+00 9.553938070894218981e-06 8.482927114528138191e-06 5.411059191828826442e-06 -6.409069555957103148e-06
3.657000000000000000e+03 1.994004440307617188e+01 -6.002428531646728516e+00 7.467594059562543407e-06 5.781726486020488665e-06 3.974796072725439444e-06 -8.841658200253732502e-06
3.658000000000000000e+03 2.048459243774414062e+01 -5.500192165374755859e+00 6.853250852145720273e-06 4.470985004445537925e-06 3.397270802452112548e-06 -3.647539188023074530e-06
3.659000000000000000e+03 1.880515289306640625e+01 -3.840278863906860352e+00 1.287485974899027497e-05 5.266853804641868919e-06 5.442514066089643165e-06 -9.790996955416630954e-06
3.660000000000000000e+03 1.936590194702148438e+01 -4.393997669219970703e+00 1.278382387681631371e-05 6.029097676218952984e-06 5.643876647809520364e-06 -6.858214419480646029e-06
3.661000000000000000e+03 1.992575645446777344e+01 -4.947409152984619141e+00 1.270458506041904911e-05 3.483237833279417828e-06 4.856347004533745348e-06 -8.449278539046645164e-06
3.662000000000000000e+03 1.695117187500000000e+01 -2.380243301391601562e+00 1.878648072306532413e-05 8.534029802831355482e-06 8.196152521122712642e-06 -6.462420969910454005e-06
3.663000000000000000e+03 1.651630020141601562e+01 -2.979079723358154297e+00 1.709041134745348245e-05 4.128945420234231278e-06 6.365807166730519384e-06 -1.774114934960380197e-05
3.664000000000000000e+03 1.590384101867675781e+01 -2.523920059204101562e+00 2.425821912765968591e-05 1.572029941598884761e-05 1.199355574499350041e-05 -9.456916814087890089e-06
3.665000000000000000e+03 1.712716102600097656e+01 -3.436568260192871094e+00 2.006296926992945373e-05 1.243939368578139693e-05 9.750708159117493778e-06 -8.064105713856406510e-06
3.666000000000000000e+03 1.758174324035644531e+01 -2.852491855621337891e+00 1.751173476804979146e-05 6.682894763798685744e-06 7.258388905029278249e-06 -1.481733579566935077e-05
3.667000000000000000e+03 1.773609352111816406e+01 -3.896142244338989258e+00 1.413803329342044890e-05 7.128984179871622473e-06 6.380105332937091589e-06 -1.519438046670984477e-05
3.668000000000000000e+03 1.821038436889648438e+01 -3.326825857162475586e+00 1.712894118099939078e-05 4.884667760052252561e-06 6.604082500416552648e-06 -5.738174422731390223e-06
3.669000000000000000e+03 1.631900405883789062e+01 -1.910323858261108398e+00 2.238502747786697000e-05 3.613762146414956078e-06 7.799636478011962026e-06 -1.478056492487667128e-05
3.670000000000000000e+03 1.460399055480957031e+01 -1.730789542198181152e+00 2.523926195863168687e-05 1.414902453689137474e-05 1.181648622150532901e-05 -1.035991135722724721e-05
3.671000000000000000e+03 1.394003677368164062e+01 -1.356149435043334961e+00 2.573522397142369300e-05 2.178888053094851784e-06 8.374233402719255537e-06 -1.668744698690716177e-05
3.672000000000000000e+03 1.327490711212158203e+01 -9.841976165771484375e-01 2.743892036960460246e-05 1.265733862965134904e-05 1.202887779072625563e-05 -1.179644095827825367e-05
3.673000000000000000e+03 1.429506587982177734e+01 -7.068015336990356445e-01 1.976725252461619675e-05 1.168858125311089680e-05 9.436749678570777178e-06 -1.012680877465754747e-05
3.674000000000000000e+03 1.497913169860839844e+01 -1.092790365219116211e+00 2.667845365067478269e-05 2.330290499230613932e-06 8.702622835699003190e-06 -1.492229785071685910e-05
3.675000000000000000e+03 1.526644039154052734e+01 -2.107936620712280273e+00 2.384131767030339688e-05 2.645695758474175818e-06 7.946104233269579709e-06 -1.851573324529454112e-05
3.676000000000000000e+03 1.566169452667236328e+01 -1.481285929679870605e+00 1.838130083342548460e-05 1.149591298599261791e-05 8.963163963926490396e-06 -7.623319561389507726e-06
3.677000000000000000e+03 1.360982322692871094e+01 -3.235010504722595215e-01 2.747871258179657161e-05 2.785797505566733889e-06 9.079352821572683752e-06 -1.212697679875418544e-05
3.678000000000000000e+03 1.136861705780029297e+01 6.672526597976684570e-01 1.827230516937561333e-05 6.438156106014503166e-06 7.413138519041240215e-06 -1.126524693972896785e-05
3.679000000000000000e+03 1.043688488006591797e+01 2.462611943483352661e-01 2.719681287999264896e-05 7.092173746059415862e-06 1.028669612423982471e-05 -9.942154974851291627e-06
3.680000000000000000e+03 1.187135696411132812e+01 -3.428127467632293701e-01 2.612454773043282330e-05 8.934955076256301254e-06 1.051785056915832683e-05 -1.063277431967435405e-05
3.681000000000000000e+03 1.258574008941650391e+01 -6.459255814552307129e-01 2.918607606261502951e-05 2.780475597319309600e-06 9.589964975020848215e-06 -1.482707557443063706e-05
3.682000000000000000e+03 1.288842964172363281e+01 2.964896708726882935e-02 1.955208063009195030e-05 9.255762051907368004e-06 8.642352440801914781e-06 -1.081266782421153039e-05
3.683000000000000000e+03 1.060655117034912109e+01 9.770575761795043945e-01 2.423229489068035036e-05 7.013309641479281709e-06 9.373681677971035242e-06 -6.579328783118398860e-06
3.684000000000000000e+03 1.212970542907714844e+01 3.511690795421600342e-01 2.877938641177024692e-05 4.686881311499746516e-06 1.003988018055679277e-05 -1.170015275420155376e-05
3.685000000000000000e+03 1.115460968017578125e+01 -4.513646289706230164e-02 2.791029692161828279e-05 2.060023462036042474e-06 8.991096365207340568e-06 -1.186269128083949909e-05
3.686000000000000000e+03 9.852642059326171875e+00 1.127630591392517090e+00 1.608055754331871867e-05 3.791978315348387696e-06 5.961760962236439809e-06 -1.092700222216080874e-05
3.687000000000000000e+03 8.934872627258300781e+00 3.838182985782623291e-01 1.717182021820917726e-05 -1.635470539440575521e-06 4.660904778575059026e-06 -3.088448920607334003e-06
3.688000000000000000e+03 8.173450469970703125e+00 3.805501461029052734e-01 1.477278328820830211e-05 2.543393748055677861e-06 5.194853201828664169e-06 -1.582046593284758274e-06
3.689000000000000000e+03 7.412311553955078125e+00 3.753647208213806152e-01 8.635411177237983793e-06 -2.180906676585436799e-06 1.936351281983661465e-06 -1.976408839254872873e-06
3.690000000000000000e+03 6.650998592376708984e+00 3.733136355876922607e-01 8.983724910649470985e-06 2.840381512214662507e-06 3.547231926859240048e-06 -2.665657632405782351e-07
3.691000000000000000e+03 5.128288269042968750e+00 3.666210770606994629e-01 5.167909876035992056e-06 4.674580395658267662e-06 2.952746854134602472e-06 1.143919803325843532e-06
3.692000000000000000e+03 4.367394924163818359e+00 3.671234846115112305e-01 -6.658707008000419592e-08 -5.122901711729355156e-06 -1.556846655148547143e-06 -2.485464165147277527e-06
3.693000000000000000e+03 2.846046209335327148e+00 3.605891168117523193e-01 -1.199327584799902979e-06 -4.376148808660218492e-06 -1.672642838457250036e-06 -1.268314122171432246e-06
3.694000000000000000e+03 2.087270975112915039e+00 3.584179878234863281e-01 -1.325731773249572143e-07 2.822874648700235412e-06 8.070904300438996870e-07 -3.805077710694604320e-07
3.695000000000000000e+03 2.412721395492553711e+00 1.098417997360229492e+00 -1.857295330864872085e-07 -3.852768259093863890e-06 -1.211549374602327589e-06 5.343096063370467164e-07
3.696000000000000000e+03 1.340976357460021973e+00 3.674286305904388428e-01 -1.541410483696381561e-07 -2.648870918164902832e-07 -1.257084392136675888e-07 1.720166324048477691e-06
3.697000000000000000e+03 1.683374881744384766e+00 1.107428669929504395e+00 9.181902669297414832e-07 4.435645678313449025e-06 1.606150703992170747e-06 -2.666063437573029660e-06
3.698000000000000000e+03 6.602545380592346191e-01 3.962357640266418457e-01 -4.726749921246664599e-06 -3.425203431106638163e-06 -2.445586005705990829e-06 -4.817651188204763457e-06
3.699000000000000000e+03 3.572900295257568359e-01 9.584811329841613770e-01 6.352425316435983405e-06 3.508518375383573584e-06 2.958283175757969730e-06 1.795913590285636019e-06
3.700000000000000000e+03 3.154548645019531250e+00 1.100589156150817871e+00 3.226783064746996388e-06 4.418061507749371231e-06 2.293453462698380463e-06 -1.427960683031415101e-06
3.701000000000000000e+03 3.606354475021362305e+00 3.667278885841369629e-01 2.331077439521322958e-06 5.273499937175074592e-06 2.281373326695756987e-06 1.222894638885918539e-06
3.702000000000000000e+03 5.385946273803710938e+00 1.106621026992797852e+00 1.136454557126853615e-06 -3.127174068140448071e-06 -5.972158874101296533e-07 -4.128714863327331841e-06
3.703000000000000000e+03 5.889441967010498047e+00 3.716917037963867188e-01 3.061481265831389464e-06 -3.483701675577322021e-06 -1.266661939780533430e-07 -2.470304025337100029e-06
3.704000000000000000e+03 7.619125843048095703e+00 1.115364670753479004e+00 1.495077594881877303e-05 3.424288024689303711e-06 5.512519237527158111e-06 -4.338183771324111149e-06
3.705000000000000000e+03 8.363317489624023438e+00 1.120550155639648438e+00 1.107847947423579171e-05 -1.311734308728773613e-06 2.930023583758156747e-06 -5.600658823823323473e-06
3.706000000000000000e+03 9.107789993286132812e+00 1.123818278312683105e+00 2.048942951660137624e-05 4.917569185636239126e-06 7.622099474247079343e-06 -7.335532245633658022e-06
3.707000000000000000e+03 9.696672439575195312e+00 3.876306116580963135e-01 2.704136022657621652e-05 3.660856009446433745e-06 9.210664757119957358e-06 -4.521979917626595125e-06
3.708000000000000000e+03 6.874760627746582031e+00 1.113313674926757812e+00 4.503403943090233952e-06 -2.020762394749908708e-06 7.447924303960462566e-07 -4.372203875391278416e-06
3.709000000000000000e+03 6.130152225494384766e+00 1.111691713333129883e+00 1.113859616452828050e-05 3.454776333455811255e-06 4.378011908556800336e-06 -1.524258323115645908e-06
3.710000000000000000e+03 4.642001152038574219e+00 1.107123494148254395e+00 6.401151040336117148e-06 4.445839294930920005e-06 3.254097237004316412e-06 -8.601629701843194198e-07
3.711000000000000000e+03 3.897908926010131836e+00 1.106727957725524902e+00 -2.331171486957828165e-07 -3.736669441423146054e-06 -1.190936018247157335e-06 -1.820189936552196741e-06
3.712000000000000000e+03 1.019601225852966309e+00 1.136235833168029785e+00 6.344013172565610148e-07 -5.043419605499366298e-06 -1.322705429629422724e-06 3.560283175829681568e-06
3.713000000000000000e+03 1.356510353088378906e+01 -2.044676303863525391e+00 -2.211158243881072849e-05 -6.423170270863920450e-05 -2.590298572613392025e-05 -2.775187567749526352e-05
3.714000000000000000e+03 1.321007442474365234e+01 -2.694024085998535156e+00 3.713562182383611798e-05 8.617794810561463237e-05 3.699407170643098652e-05 2.833300277416128665e-05
3.715000000000000000e+03 1.258673477172851562e+01 -2.342205762863159180e+00 -3.423376256250776350e-05 -9.427218174096196890e-05 -3.855178511003032327e-05 -3.438895873841829598e-05
3.716000000000000000e+03 1.420777034759521484e+01 -2.407426834106445312e+00 2.526588286855258048e-05 5.476352089317515492e-05 2.400882112851832062e-05 2.616854908410459757e-05
3.717000000000000000e+03 1.383262920379638672e+01 -3.045426130294799805e+00 -4.688441185862757266e-05 -7.645697769476100802e-05 -3.700241722981445491e-05 -2.513669642212335020e-05
3.718000000000000000e+03 1.445424365997314453e+01 -3.396085023880004883e+00 5.913935456192120910e-05 6.174998270580545068e-05 3.626679972512647510e-05 2.819934161379933357e-05
3.719000000000000000e+03 1.484949779510498047e+01 -2.769434452056884766e+00 -3.056463174289092422e-05 -4.822176197194494307e-05 -2.363591920584440231e-05 -2.826006493705790490e-05
3.720000000000000000e+03 1.292164993286132812e+01 -1.681509137153625488e+00 2.196509558416437358e-05 6.993230635998770595e-05 2.756922003754880279e-05 3.244942490709945560e-05
3.721000000000000000e+03 7.433924102783203125e+01 -2.812477111816406250e+01 -2.848136646207422018e-04 6.547662778757512569e-04 1.109857767005451024e-04 -7.791200769133865833e-04
3.722000000000000000e+03 7.509891510009765625e+01 -2.813425064086914062e+01 1.010506530292332172e-03 -4.646387824323028326e-04 1.637603272683918476e-04 3.790332411881536245e-04
3.723000000000000000e+03 7.585762023925781250e+01 -2.814273452758789062e+01 -1.003191806375980377e-03 4.098599019926041365e-04 -1.779995509423315525e-04 -3.874400863423943520e-04
3.724000000000000000e+03 7.434243011474609375e+01 -2.763040924072265625e+01 1.359998248517513275e-03 -7.113743340596556664e-04 1.945871772477403283e-04 3.059910086449235678e-04
3.725000000000000000e+03 7.584872436523437500e+01 -2.764876174926757812e+01 1.427498995326459408e-03 2.769283601082861423e-04 5.113281658850610256e-04 2.049384056590497494e-04
3.726000000000000000e+03 7.433468627929687500e+01 -2.861659622192382812e+01 3.089362289756536484e-04 -4.526101110968738794e-04 -4.310216536396183074e-05 -1.013464934658259153e-04
3.727000000000000000e+03 7.358879852294921875e+01 -2.761993026733398438e+01 1.472078613005578518e-03 1.700385240837931633e-03 9.517392027191817760e-04 -9.082782780751585960e-04
3.728000000000000000e+03 7.356816101074218750e+01 -2.860633087158203125e+01 -1.231418456882238388e-03 -3.272761241532862186e-04 -4.676083917729556561e-04 3.002614830620586872e-04
3.729000000000000000e+03 7.357871246337890625e+01 -2.811377334594726562e+01 -1.294795074500143528e-04 -3.713411570060998201e-04 -1.502461964264512062e-04 1.012460328638553619e-03
3.730000000000000000e+03 7.586600494384765625e+01 -2.863568687438964844e+01 1.021984498947858810e-03 -7.830423419363796711e-04 7.168264710344374180e-05 2.880619431380182505e-04
3.731000000000000000e+03 7.510072326660156250e+01 -2.862630081176757812e+01 -2.436237875372171402e-03 9.325116407126188278e-04 -4.511178995016962290e-04 -2.617937279865145683e-04
3.732000000000000000e+03 7.509568023681640625e+01 -2.763993263244628906e+01 7.741500157862901688e-04 1.837050367612391710e-04 2.873565244954079390e-04 -2.538183180149644613e-04
3.733000000000000000e+03 1.114702796936035156e+01 -1.674520134925842285e+00 -4.992142203263938427e-05 -8.695569704286754131e-05 -4.106313645024783909e-05 -3.067500438191927969e-05
3.734000000000000000e+03 1.155607700347900391e+01 -1.043098807334899902e+00 2.595949263195507228e-05 9.551784023642539978e-05 3.644319804152473807e-05 3.624417149694636464e-05
3.735000000000000000e+03 1.007052421569824219e+01 -1.379528045654296875e+00 7.857408490963280201e-05 7.992829341674223542e-05 4.755071495310403407e-05 -1.974752012756653130e-05
3.736000000000000000e+03 1.091052532196044922e+01 -7.195191383361816406e-01 -2.315207893843762577e-05 -1.087736964109353721e-04 -3.957773151341825724e-05 -5.036542279412969947e-05
3.737000000000000000e+03 1.189208316802978516e+01 -2.005299091339111328e+00 3.922042014892213047e-05 8.156830881489440799e-05 3.623661905294284225e-05 3.459136132732965052e-05
3.738000000000000000e+03 1.224500656127929688e+01 -1.350578069686889648e+00 -2.578419480414595455e-05 -7.342045864788815379e-05 -2.976139512611553073e-05 -3.225436739739961922e-05
3.739000000000000000e+03 1.012131404876708984e+01 -8.739756941795349121e-01 -1.184957436635158956e-04 -6.487943028332665563e-05 -5.501255145645700395e-05 -4.975150295649655163e-05
3.740000000000000000e+03 1.027311420440673828e+01 -4.096257984638214111e-01 3.760328399948775768e-05 1.009203915600664914e-04 4.155710121267475188e-05 4.108263237867504358e-05
3.741000000000000000e+03 1.058933448791503906e+01 -1.247088074684143066e+00 3.793712676269933581e-05 5.583424717769958079e-05 2.813141145452391356e-05 7.332228415179997683e-05
3.742000000000000000e+03 8.909210205078125000e+00 -3.212539851665496826e-01 -9.879620483843609691e-05 9.749906166689470410e-05 -3.891430822022812208e-07 -3.594772806536639109e-06
3.743000000000000000e+03 9.317807197570800781e+00 -1.205478549003601074e+00 -3.012794695678167045e-05 -1.349080121144652367e-04 -4.951078881276771426e-05 -5.954327207291498780e-05
3.744000000000000000e+03 9.460213661193847656e+00 -6.912539601325988770e-01 1.821718033170327544e-04 -1.936890839715488255e-05 4.884086592937819660e-05 7.099986396497115493e-05
3.745000000000000000e+03 8.266005516052246094e+00 -6.800254583358764648e-01 1.785263011697679758e-04 6.529888923978433013e-05 7.314755930565297604e-05 2.784540993161499500e-05
3.746000000000000000e+03 7.622209548950195312e+00 -4.054784178733825684e-01 -1.249935739906504750e-04 -1.165556823252700269e-04 -7.246477616718038917e-05 -1.080379297491163015e-04
3.747000000000000000e+03 6.825774669647216797e+00 -3.814763724803924561e-01 6.542275514220818877e-05 8.463289123028516769e-05 4.501669536693952978e-05 7.313056994462385774e-05
3.748000000000000000e+03 6.001619815826416016e+00 -3.739211261272430420e-01 -6.790104816900566220e-05 -6.041108281351625919e-05 -3.849363929475657642e-05 -5.903777491766959429e-05
3.749000000000000000e+03 5.174842834472656250e+00 -3.715220093727111816e-01 4.900666317553259432e-05 3.520000973367132246e-05 2.526200114516541362e-05 3.895768531947396696e-05
3.750000000000000000e+03 4.347759723663330078e+00 -3.725122809410095215e-01 -3.942961848224513233e-05 -1.618146416149102151e-05 -1.668332515691872686e-05 -2.030367613770067692e-05
3.751000000000000000e+03 3.520621299743652344e+00 -3.760701715946197510e-01 2.033961391134653240e-05 7.166333944041980430e-06 8.251784493040759116e-06 7.367399120994377881e-06
3.752000000000000000e+03 2.694509983062744141e+00 -3.805325925350189209e-01 -1.713009805826004595e-05 -6.299575488810660318e-06 -7.028902018646476790e-06 -3.712354555318597704e-06
3.753000000000000000e+03 1.143715500831604004e+00 -3.599454164505004883e-01 -1.518842054792912677e-05 -1.665406307438388467e-05 -9.552744813845492899e-06 -5.746221631852677092e-07
3.754000000000000000e+03 4.021799862384796143e-01 -5.506002306938171387e-01 7.855758667574264109e-06 1.355053154838969931e-05 6.421887064789189026e-06 7.809738235664553940e-06
3.755000000000000000e+03 7.210693359375000000e-01 -1.099945425987243652e+00 7.954262400744482875e-05 -4.686889951699413359e-06 2.245672112621832639e-05 5.654377673636190593e-06
3.756000000000000000e+03 8.506304740905761719e+00 -1.218084216117858887e+00 -8.320443885168060660e-05 2.541156718507409096e-04 5.127336407895199955e-05 2.830571247613988817e-05
3.757000000000000000e+03 7.803927898406982422e+00 -1.221213579177856445e+00 -8.772120054345577955e-05 -1.983716792892664671e-04 -8.582786540500819683e-05 -4.174125569988973439e-05
3.758000000000000000e+03 7.101232528686523438e+00 -1.145478367805480957e+00 1.650636695558205247e-04 8.323405199917033315e-05 7.448931864928454161e-05 1.029015475069172680e-04
3.759000000000000000e+03 6.317089557647705078e+00 -1.121476411819458008e+00 -1.195337099488824606e-04 -5.743592191720381379e-05 -5.309088737703859806e-05 -8.684099157107993960e-05
3.760000000000000000e+03 5.505225658416748047e+00 -1.113921165466308594e+00 1.048106205416843295e-04 2.686264087969902903e-05 3.950197788071818650e-05 6.134652358014136553e-05
3.761000000000000000e+03 4.690740108489990234e+00 -1.111521959304809570e+00 -9.563256026012822986e-05 -8.613502359366975725e-06 -3.127381933154538274e-05 -4.113578324904665351e-05
3.762000000000000000e+03 3.875948190689086914e+00 -1.112512230873107910e+00 7.709681813139468431e-05 -2.487176686827297090e-07 2.305443013028707355e-05 1.968922333617229015e-05
3.763000000000000000e+03 3.061101198196411133e+00 -1.116070151329040527e+00 -5.607136336038820446e-05 -4.896060090686660260e-06 -1.829022585297934711e-05 -1.633952820156991947e-06
3.764000000000000000e+03 2.247281074523925781e+00 -1.120532631874084473e+00 2.802757262543309480e-05 2.323186890862416476e-05 1.537783282401505858e-05 1.871877771009167191e-06
3.765000000000000000e+03 1.882497906684875488e+00 -3.807797729969024658e-01 1.225740561494603753e-05 8.552323379262816161e-06 6.242918971111066639e-06 3.999370164819993079e-06
3.766000000000000000e+03 9.580569267272949219e+00 -2.457754313945770264e-01 -1.019949195324443281e-04 -1.108821670641191304e-04 -6.386312452377751470e-05 2.062718340312130749e-05
3.767000000000000000e+03 1.447560310363769531e+00 -1.120779752731323242e+00 -3.806540917139500380e-05 -2.416242023173253983e-05 -1.866834827524144202e-05 -2.635781493154354393e-05
3.768000000000000000e+03 5.504227447509765625e+01 -2.770086479187011719e+01 1.511693096160888672e+01 1.156099915504455566e+00 4.881909370422363281e+00 -2.362776994705200195e+00
3.769000000000000000e+03 5.504714202880859375e+01 -2.768203544616699219e+01 1.835089492797851562e+01 1.046837091445922852e+00 5.819319725036621094e+00 2.133347272872924805e+00
3.770000000000000000e+03 5.504825592041015625e+01 -2.766262054443359375e+01 1.958856773376464844e+01 2.996523380279541016e+00 6.775527477264404297e+00 5.073274135589599609e+00
3.771000000000000000e+03 5.504557037353515625e+01 -2.764335823059082031e+01 1.953558158874511719e+01 5.614231586456298828e+00 7.544943809509277344e+00 7.718212127685546875e+00
3.772000000000000000e+03 5.503919219970703125e+01 -2.762498664855957031e+01 1.871927833557128906e+01 8.955683708190917969e+00 8.302488327026367188e+00 9.471563339233398438e+00
3.773000000000000000e+03 5.502936172485351562e+01 -2.760820579528808594e+01 1.706721496582031250e+01 1.247751235961914062e+01 8.863418579101562500e+00 1.045162868499755859e+01
3.774000000000000000e+03 5.501645660400390625e+01 -2.759365653991699219e+01 1.522635650634765625e+01 1.593529415130615234e+01 9.348495483398437500e+00 1.041385936737060547e+01
3.775000000000000000e+03 5.500096511840820312e+01 -2.758189582824707031e+01 1.333322715759277344e+01 1.892883872985839844e+01 9.678619384765625000e+00 9.477932929992675781e+00
3.776000000000000000e+03 5.498348617553710938e+01 -2.757337188720703125e+01 1.189038467407226562e+01 2.116376113891601562e+01 9.916243553161621094e+00 7.814488887786865234e+00
3.777000000000000000e+03 5.496468353271484375e+01 -2.756840896606445312e+01 1.100639057159423828e+01 2.245175743103027344e+01 1.003744411468505859e+01 5.704544544219970703e+00
3.778000000000000000e+03 5.494527435302734375e+01 -2.756719970703125000e+01 1.086038398742675781e+01 2.275991821289062500e+01 1.008609104156494141e+01 3.534535408020019531e+00
3.779000000000000000e+03 5.492599868774414062e+01 -2.756978797912597656e+01 1.139917278289794922e+01 2.220689201354980469e+01 1.008181953430175781e+01 1.561578273773193359e+00
3.780000000000000000e+03 5.490759277343750000e+01 -2.757607460021972656e+01 1.242647171020507812e+01 2.100710678100585938e+01 1.003007411956787109e+01 7.690374553203582764e-02
3.781000000000000000e+03 5.489076232910156250e+01 -2.758582115173339844e+01 1.383025074005126953e+01 1.943766975402832031e+01 9.980376243591308594e+00 -8.078877925872802734e-01
3.782000000000000000e+03 5.487615203857421875e+01 -2.759865188598632812e+01 1.531175708770751953e+01 1.776399230957031250e+01 9.922724723815917969e+00 -1.047329664230346680e+00
3.783000000000000000e+03 5.486431121826171875e+01 -2.761408233642578125e+01 1.678894424438476562e+01 1.623725509643554688e+01 9.907859802246093750e+00 -6.504036188125610352e-01
3.784000000000000000e+03 5.485570144653320312e+01 -2.763151931762695312e+01 1.795157623291015625e+01 1.498279476165771484e+01 9.880311012268066406e+00 2.567834854125976562e-01
3.785000000000000000e+03 5.485064697265625000e+01 -2.765029907226562500e+01 1.879500961303710938e+01 1.430699253082275391e+01 9.930601119995117188e+00 1.640031099319458008e+00
3.786000000000000000e+03 5.484933853149414062e+01 -2.766970252990722656e+01 1.901277923583984375e+01 1.409212303161621094e+01 9.931470870971679688e+00 3.270257711410522461e+00
3.787000000000000000e+03 5.485182952880859375e+01 -2.768898963928222656e+01 1.861529922485351562e+01 1.470110034942626953e+01 9.994919776916503906e+00 5.006341457366943359e+00
3.788000000000000000e+03 5.485802459716796875e+01 -2.770742416381835938e+01 1.741629219055175781e+01 1.580420970916748047e+01 9.966150283813476562e+00 6.553733348846435547e+00
3.789000000000000000e+03 5.486768722534179688e+01 -2.772430229187011719e+01 1.554552173614501953e+01 1.762215805053710938e+01 9.950304031372070312e+00 7.648453235626220703e+00
3.790000000000000000e+03 5.488044738769531250e+01 -2.773897933959960938e+01 1.308300971984863281e+01 1.956592750549316406e+01 9.794680595397949219e+00 8.064729690551757812e+00
3.791000000000000000e+03 5.489581680297851562e+01 -2.775089454650878906e+01 1.035561370849609375e+01 2.167124557495117188e+01 9.608057975769042969e+00 7.577155113220214844e+00
3.792000000000000000e+03 5.491321182250976562e+01 -2.775959396362304688e+01 7.586529731750488281e+00 2.312672996520996094e+01 9.213977813720703125e+00 6.333527565002441406e+00
3.793000000000000000e+03 5.493196487426757812e+01 -2.776474380493164062e+01 5.323880672454833984e+00 2.403569602966308594e+01 8.807872772216796875e+00 4.222458839416503906e+00
3.794000000000000000e+03 5.495135879516601562e+01 -2.776614761352539062e+01 3.371959686279296875e+00 2.372540092468261719e+01 8.129207611083984375e+00 1.849244952201843262e+00
3.795000000000000000e+03 5.497066116333007812e+01 -2.776375198364257812e+01 2.451375961303710938e+00 2.243642616271972656e+01 7.466340541839599609e+00 -7.851543426513671875e-01
3.796000000000000000e+03 5.498912429809570312e+01 -2.775765037536621094e+01 1.861777305603027344e+00 2.002924346923828125e+01 6.567306041717529297e+00 -3.057802915573120117e+00
3.797000000000000000e+03 5.500605010986328125e+01 -2.774807357788085938e+01 2.259254693984985352e+00 1.661114883422851562e+01 5.661120891571044922e+00 -4.945229530334472656e+00
3.798000000000000000e+03 5.502079391479492188e+01 -2.773538589477539062e+01 2.981943607330322266e+00 1.265851497650146484e+01 4.692137718200683594e+00 -5.983584403991699219e+00
3.799000000000000000e+03 5.503278350830078125e+01 -2.772007560729980469e+01 5.688592433929443359e+00 6.405793190002441406e+00 3.628315687179565430e+00 -5.673217773437500000e+00
