# el_label, x, y, sXX, sYY, sZZ, sXY
1.000000000000000000e+00 1.752838706970214844e+01 -4.269793510437011719e+00 -6.835247874259948730e-01 1.234109282493591309e+00 1.651753336191177368e-01 -2.840619564056396484e+00
2.000000000000000000e+00 1.735748672485351562e+01 -4.167762279510498047e+00 4.254677295684814453e+00 1.266581416130065918e+00 1.656377553939819336e+00 -1.470770716667175293e+00
3.000000000000000000e+00 1.718658638000488281e+01 -4.065730571746826172e+00 1.875892043113708496e+00 4.183985888957977295e-01 6.882871985435485840e-01 -1.387801408767700195e+00
4.000000000000000000e+00 1.701568603515625000e+01 -3.963698625564575195e+00 1.678228855133056641e+00 4.217800796031951904e-01 6.300026774406433105e-01 -6.454654335975646973e-01
5.000000000000000000e+00 1.750349617004394531e+01 -4.322629451751708984e+00 1.116344738006591797e+01 1.409307479858398438e+00 3.771826267242431641e+00 -7.145729541778564453e+00
6.000000000000000000e+00 1.731600189208984375e+01 -4.255821704864501953e+00 6.709968566894531250e+00 1.181624054908752441e+00 2.367477893829345703e+00 -2.660396337509155273e+00
7.000000000000000000e+00 1.712850761413574219e+01 -4.189013957977294922e+00 6.688490390777587891e+00 4.290569126605987549e-01 2.135264158248901367e+00 -1.991657018661499023e+00
8.000000000000000000e+00 1.694101333618164062e+01 -4.122206211090087891e+00 4.901207447052001953e+00 3.181614875793457031e-01 1.565810680389404297e+00 -1.677777409553527832e+00
9.000000000000000000e+00 1.748936653137207031e+01 -4.379300117492675781e+00 2.086266708374023438e+01 -2.266083210706710815e-01 6.190817356109619141e+00 -4.843267440795898438e+00
1.000000000000000000e+01 1.729245376586914062e+01 -4.350273132324218750e+00 1.303857231140136719e+01 5.707579106092453003e-02 3.928694248199462891e+00 -3.207497596740722656e+00
1.100000000000000000e+01 1.709554100036621094e+01 -4.321245670318603516e+00 1.012281513214111328e+01 2.149404138326644897e-01 3.101326704025268555e+00 -1.718512773513793945e+00
1.200000000000000000e+01 1.689862823486328125e+01 -4.292218685150146484e+00 8.939985275268554688e+00 -2.894398272037506104e-01 2.595163583755493164e+00 -1.287388801574707031e+00
1.300000000000000000e+01 1.748654174804687500e+01 -4.437637329101562500e+00 2.760159873962402344e+01 -6.542907357215881348e-01 8.084192276000976562e+00 -8.809510469436645508e-01
1.400000000000000000e+01 1.728774452209472656e+01 -4.447501659393310547e+00 1.823377418518066406e+01 -3.601683378219604492e-01 5.362082004547119141e+00 -8.134346604347229004e-01
1.500000000000000000e+01 1.708894920349121094e+01 -4.457365512847900391e+00 1.447905921936035156e+01 -5.414400100708007812e-01 4.181285858154296875e+00 -4.602414667606353760e-01
1.600000000000000000e+01 1.689015197753906250e+01 -4.467229843139648438e+00 1.205642032623291016e+01 -3.842474520206451416e-01 3.501652002334594727e+00 1.346768811345100403e-02
1.700000000000000000e+01 1.749512863159179688e+01 -4.495408058166503906e+00 3.130233955383300781e+01 1.010461330413818359e+00 9.693840026855468750e+00 4.395387649536132812e+00
1.800000000000000000e+01 1.730205535888671875e+01 -4.543786525726318359e+00 2.192733764648437500e+01 1.582500040531158447e-01 6.625676631927490234e+00 2.540768623352050781e+00
1.900000000000000000e+01 1.710898399353027344e+01 -4.592164039611816406e+00 1.739817237854003906e+01 -2.397993206977844238e-02 5.212257862091064453e+00 2.109006404876708984e+00
2.000000000000000000e+01 1.691591072082519531e+01 -4.640542030334472656e+00 1.486981487274169922e+01 -4.735200107097625732e-01 4.318888664245605469e+00 2.162568807601928711e+00
2.100000000000000000e+01 1.751479721069335938e+01 -4.550402164459228516e+00 3.227463150024414062e+01 4.389597892761230469e+00 1.099926948547363281e+01 9.345387458801269531e+00
2.200000000000000000e+01 1.733483695983886719e+01 -4.635442733764648438e+00 2.354210853576660156e+01 2.368015766143798828e+00 7.773036956787109375e+00 6.289380073547363281e+00
2.300000000000000000e+01 1.715487670898437500e+01 -4.720483303070068359e+00 1.905164337158203125e+01 1.457238078117370605e+00 6.152664184570312500e+00 5.168872356414794922e+00
2.400000000000000000e+01 1.697491836547851562e+01 -4.805523395538330078e+00 1.614201164245605469e+01 8.023020625114440918e-01 5.083293914794921875e+00 4.580109119415283203e+00
2.500000000000000000e+01 1.754479598999023438e+01 -4.600514411926269531e+00 3.098523330688476562e+01 9.564239501953125000e+00 1.216484165191650391e+01 1.320728206634521484e+01
2.600000000000000000e+01 1.738483619689941406e+01 -4.718963146209716797e+00 2.345428276062011719e+01 5.623812675476074219e+00 8.723428726196289062e+00 9.489219665527343750e+00
2.700000000000000000e+01 1.722487640380859375e+01 -4.837411880493164062e+00 1.917275047302246094e+01 4.241821289062500000e+00 7.024371623992919922e+00 8.010987281799316406e+00
2.800000000000000000e+01 1.706491661071777344e+01 -4.955860137939453125e+00 1.636618995666503906e+01 3.248900413513183594e+00 5.884526729583740234e+00 7.099711894989013672e+00
2.900000000000000000e+01 1.758397865295410156e+01 -4.643827438354492188e+00 2.828903007507324219e+01 1.518112754821777344e+01 1.304104709625244141e+01 1.535415649414062500e+01
3.000000000000000000e+01 1.745013809204101562e+01 -4.791151523590087891e+00 2.207154464721679688e+01 1.007042694091796875e+01 9.642591476440429688e+00 1.156936931610107422e+01
3.100000000000000000e+01 1.731629943847656250e+01 -4.938475608825683594e+00 1.820715522766113281e+01 7.507272720336914062e+00 7.714328289031982422e+00 1.007606697082519531e+01
3.200000000000000000e+01 1.718246078491210938e+01 -5.085799694061279297e+00 1.567189693450927734e+01 6.549019813537597656e+00 6.666275024414062500e+00 9.038292884826660156e+00
3.300000000000000000e+01 1.763084220886230469e+01 -4.678683757781982422e+00 2.534409141540527344e+01 2.104767799377441406e+01 1.391753101348876953e+01 1.543024826049804688e+01
3.400000000000000000e+01 1.752824401855468750e+01 -4.849245548248291016e+00 1.987388992309570312e+01 1.444430351257324219e+01 1.029545783996582031e+01 1.248659324645996094e+01
3.500000000000000000e+01 1.742564773559570312e+01 -5.019806861877441406e+00 1.665363693237304688e+01 1.151894474029541016e+01 8.451774597167968750e+00 1.074111175537109375e+01
3.600000000000000000e+01 1.732305145263671875e+01 -5.190368652343750000e+00 1.429137802124023438e+01 9.445276260375976562e+00 7.120995998382568359e+00 1.000379943847656250e+01
3.700000000000000000e+01 1.768359375000000000e+01 -4.703749656677246094e+00 2.253836822509765625e+01 2.593723106384277344e+01 1.454267978668212891e+01 1.393529510498046875e+01
3.800000000000000000e+01 1.761616706848144531e+01 -4.891021728515625000e+00 1.789275741577148438e+01 1.853910636901855469e+01 1.092955970764160156e+01 1.180660343170166016e+01
3.900000000000000000e+01 1.754873847961425781e+01 -5.078293323516845703e+00 1.474431324005126953e+01 1.514923381805419922e+01 8.968064308166503906e+00 1.051012611389160156e+01
4.000000000000000000e+01 1.748131179809570312e+01 -5.265565395355224609e+00 1.282850933074951172e+01 1.278957271575927734e+01 7.685424804687500000e+00 9.422904014587402344e+00
4.100000000000000000e+01 1.774021911621093750e+01 -4.718065261840820312e+00 2.070943641662597656e+01 2.918920516967773438e+01 1.496959209442138672e+01 1.145098304748535156e+01
4.200000000000000000e+01 1.771054077148437500e+01 -4.914881229400634766e+00 1.640538024902343750e+01 2.200903892517089844e+01 1.152432537078857422e+01 9.943848609924316406e+00
4.300000000000000000e+01 1.768086242675781250e+01 -5.111697196960449219e+00 1.334004688262939453e+01 1.780437469482421875e+01 9.343326568603515625e+00 9.138249397277832031e+00
4.400000000000000000e+01 1.765118217468261719e+01 -5.308512687683105469e+00 1.142600250244140625e+01 1.568035411834716797e+01 8.131906509399414062e+00 8.318456649780273438e+00
4.500000000000000000e+01 1.779854583740234375e+01 -4.721083164215087891e+00 2.077480888366699219e+01 3.117969894409179688e+01 1.558635234832763672e+01 8.216230392456054688e+00
4.600000000000000000e+01 1.780775260925292969e+01 -4.919911384582519531e+00 1.518053722381591797e+01 2.386983680725097656e+01 1.171511173248291016e+01 7.675333976745605469e+00
4.700000000000000000e+01 1.781695938110351562e+01 -5.118739128112792969e+00 1.319425678253173828e+01 1.992313766479492188e+01 9.935218811035156250e+00 6.815706729888916016e+00
4.800000000000000000e+01 1.782616424560546875e+01 -5.317567348480224609e+00 1.054201602935791016e+01 1.684796905517578125e+01 8.216995239257812500e+00 6.676349639892578125e+00
4.900000000000000000e+01 1.785634422302246094e+01 -4.712687969207763672e+00 2.093400573730468750e+01 3.126266288757324219e+01 1.565900039672851562e+01 5.311796665191650391e+00
5.000000000000000000e+01 1.790408325195312500e+01 -4.905919075012207031e+00 1.613391685485839844e+01 2.463029861450195312e+01 1.222926425933837891e+01 5.075392246246337891e+00
5.100000000000000000e+01 1.795182228088378906e+01 -5.099150657653808594e+00 1.273184394836425781e+01 2.043971252441406250e+01 9.951466560363769531e+00 4.589422702789306641e+00
5.200000000000000000e+01 1.799956130981445312e+01 -5.292381763458251953e+00 1.174641990661621094e+01 1.805125045776367188e+01 8.939300537109375000e+00 4.430652618408203125e+00
5.300000000000000000e+01 1.791140365600585938e+01 -4.693201065063476562e+00 2.284137535095214844e+01 3.035923194885253906e+01 1.596018218994140625e+01 3.045939683914184570e+00
5.400000000000000000e+01 1.799584770202636719e+01 -4.873440742492675781e+00 1.716825675964355469e+01 2.390891838073730469e+01 1.232315254211425781e+01 2.889929533004760742e+00
5.500000000000000000e+01 1.808029174804687500e+01 -5.053680896759033203e+00 1.408591365814208984e+01 2.010050773620605469e+01 1.025592613220214844e+01 2.626495599746704102e+00
5.600000000000000000e+01 1.816473770141601562e+01 -5.233921051025390625e+00 1.243269062042236328e+01 1.718392562866210938e+01 8.884984970092773438e+00 2.717749118804931641e+00
5.700000000000000000e+01 1.796161460876464844e+01 -4.663367748260498047e+00 2.502438926696777344e+01 2.864672660827636719e+01 1.610133361816406250e+01 1.846838474273681641e+00
5.800000000000000000e+01 1.807953262329101562e+01 -4.823719024658203125e+00 1.910723686218261719e+01 2.222521972656250000e+01 1.239973735809326172e+01 1.290634632110595703e+00
5.900000000000000000e+01 1.819745254516601562e+01 -4.984069824218750000e+00 1.591966247558593750e+01 1.880615043640136719e+01 1.041774463653564453e+01 1.690471768379211426e+00
6.000000000000000000e+01 1.831537055969238281e+01 -5.144421100616455078e+00 1.363385963439941406e+01 1.535834598541259766e+01 8.697662353515625000e+00 9.480599761009216309e-01
6.100000000000000000e+01 1.800505638122558594e+01 -4.624330043792724609e+00 2.746529197692871094e+01 2.597682571411132812e+01 1.603263473510742188e+01 1.441447377204895020e+00
6.200000000000000000e+01 1.815193748474121094e+01 -4.758656024932861328e+00 2.111052894592285156e+01 2.054883956909179688e+01 1.249781131744384766e+01 1.226576924324035645e+00
6.300000000000000000e+01 1.829881858825683594e+01 -4.892982006072998047e+00 1.803135490417480469e+01 1.636554527282714844e+01 1.031906986236572266e+01 1.002874970436096191e+00
6.400000000000000000e+01 1.844569778442382812e+01 -5.027307987213134766e+00 1.515918159484863281e+01 1.481708049774169922e+01 8.992878913879394531e+00 8.746641278266906738e-01
6.500000000000000000e+01 1.804006767272949219e+01 -4.577581882476806641e+00 2.915735244750976562e+01 2.397439002990722656e+01 1.593952274322509766e+01 2.156124591827392578e+00
6.600000000000000000e+01 1.821028900146484375e+01 -4.680741786956787109e+00 2.339171218872070312e+01 1.808248710632324219e+01 1.244225978851318359e+01 2.185572624206542969e+00
6.700000000000000000e+01 1.838051033020019531e+01 -4.783902168273925781e+00 1.912371826171875000e+01 1.512295627593994141e+01 1.027400207519531250e+01 1.486979246139526367e+00
6.800000000000000000e+01 1.855073165893554688e+01 -4.887062549591064453e+00 1.722367286682128906e+01 1.265164184570312500e+01 8.962594032287597656e+00 1.744284391403198242e+00
6.900000000000000000e+01 1.806530952453613281e+01 -4.524911403656005859e+00 3.074221038818359375e+01 2.214811515808105469e+01 1.586709785461425781e+01 4.235859394073486328e+00
7.000000000000000000e+01 1.825235557556152344e+01 -4.592958450317382812e+00 2.433681488037109375e+01 1.634338760375976562e+01 1.220406150817871094e+01 3.539987802505493164e+00
7.100000000000000000e+01 1.843940353393554688e+01 -4.661005020141601562e+00 2.036404991149902344e+01 1.392090702056884766e+01 1.028548717498779297e+01 3.686724424362182617e+00
7.200000000000000000e+01 1.862645339965820312e+01 -4.729051589965820312e+00 1.737031745910644531e+01 1.137230014801025391e+01 8.622785568237304688e+00 2.477082729339599609e+00
7.300000000000000000e+01 1.807981109619140625e+01 -4.468335151672363281e+00 3.105305099487304688e+01 2.079543304443359375e+01 1.555454540252685547e+01 6.767987251281738281e+00
7.400000000000000000e+01 1.827652740478515625e+01 -4.498664379119873047e+00 2.412717819213867188e+01 1.585200977325439453e+01 1.199375629425048828e+01 6.018819332122802734e+00
7.500000000000000000e+01 1.847324371337890625e+01 -4.528993606567382812e+00 2.067295837402343750e+01 1.275852870941162109e+01 1.002944564819335938e+01 5.480450153350830078e+00
7.600000000000000000e+01 1.866996192932128906e+01 -4.559322834014892578e+00 1.738747024536132812e+01 1.178968048095703125e+01 8.753145217895507812e+00 5.107644557952880859e+00
7.700000000000000000e+01 1.808302307128906250e+01 -4.410017967224121094e+00 2.980668067932128906e+01 2.041219711303710938e+01 1.506566333770751953e+01 9.610422134399414062e+00
7.800000000000000000e+01 1.828187942504882812e+01 -4.401468753814697266e+00 2.292886924743652344e+01 1.635432052612304688e+01 1.178495693206787109e+01 8.633953094482421875e+00
7.900000000000000000e+01 1.848073768615722656e+01 -4.392920017242431641e+00 1.902905845642089844e+01 1.290340614318847656e+01 9.579739570617675781e+00 7.283949851989746094e+00
8.000000000000000000e+01 1.867959403991699219e+01 -4.384370803833007812e+00 1.741779708862304688e+01 1.174617958068847656e+01 8.749193191528320312e+00 7.145526885986328125e+00
8.100000000000000000e+01 1.807481956481933594e+01 -4.352191448211669922e+00 2.726955032348632812e+01 2.207126808166503906e+01 1.480224609375000000e+01 1.243946170806884766e+01
8.200000000000000000e+01 1.826820755004882812e+01 -4.305091381072998047e+00 2.016812133789062500e+01 1.695562171936035156e+01 1.113712215423583984e+01 1.065104293823242188e+01
8.300000000000000000e+01 1.846159362792968750e+01 -4.257991313934326172e+00 1.669754219055175781e+01 1.489291095733642578e+01 9.477135658264160156e+00 9.083311080932617188e+00
8.400000000000000000e+01 1.865498161315917969e+01 -4.210891246795654297e+00 1.419906616210937500e+01 1.170837593078613281e+01 7.772232532501220703e+00 7.949364185333251953e+00
8.500000000000000000e+01 1.805551338195800781e+01 -4.297068595886230469e+00 2.294251251220703125e+01 2.392196464538574219e+01 1.405934333801269531e+01 1.455140399932861328e+01
8.600000000000000000e+01 1.823603057861328125e+01 -4.213220119476318359e+00 1.654060363769531250e+01 1.925686264038085938e+01 1.073923969268798828e+01 1.167191791534423828e+01
8.700000000000000000e+01 1.841654968261718750e+01 -4.129371166229248047e+00 1.329881572723388672e+01 1.619207954406738281e+01 8.847269058227539062e+00 1.013853740692138672e+01
8.800000000000000000e+01 1.859706687927246094e+01 -4.045522689819335938e+00 1.103139019012451172e+01 1.421587467193603516e+01 7.574179649353027344e+00 8.940171241760253906e+00
8.900000000000000000e+01 1.802584648132324219e+01 -4.246758460998535156e+00 1.767785072326660156e+01 2.676516342163085938e+01 1.333290386199951172e+01 1.519376277923583984e+01
9.000000000000000000e+01 1.818658447265625000e+01 -4.129370212554931641e+00 1.223177433013916016e+01 2.146632194519042969e+01 1.010942935943603516e+01 1.153223609924316406e+01
9.100000000000000000e+01 1.834732437133789062e+01 -4.011981964111328125e+00 9.502022743225097656e+00 1.787243080139160156e+01 8.212336540222167969e+00 1.003884124755859375e+01
9.200000000000000000e+01 1.850806617736816406e+01 -3.894593477249145508e+00 8.675947189331054688e+00 1.599155044555664062e+01 7.400249004364013672e+00 8.926443099975585938e+00
9.300000000000000000e+01 1.798695182800292969e+01 -4.203187465667724609e+00 1.211970329284667969e+01 2.973157691955566406e+01 1.255538368225097656e+01 1.396571540832519531e+01
9.400000000000000000e+01 1.812176132202148438e+01 -4.056751251220703125e+00 7.730700969696044922e+00 2.317744827270507812e+01 9.272444725036621094e+00 1.022969627380371094e+01
9.500000000000000000e+01 1.825657272338867188e+01 -3.910315275192260742e+00 6.264624595642089844e+00 1.934298133850097656e+01 7.682281494140625000e+00 8.598077774047851562e+00
9.600000000000000000e+01 1.839138221740722656e+01 -3.763879537582397461e+00 4.935743808746337891e+00 1.676774406433105469e+01 6.511046409606933594e+00 7.403047561645507812e+00
9.700000000000000000e+01 1.794031906127929688e+01 -4.168022155761718750e+00 6.705479145050048828e+00 3.175967979431152344e+01 1.153954792022705078e+01 1.103659343719482422e+01
9.800000000000000000e+01 1.804404067993164062e+01 -3.998142242431640625e+00 4.096537113189697266e+00 2.398374748229980469e+01 8.424085617065429688e+00 7.681359767913818359e+00
9.900000000000000000e+01 1.814776229858398438e+01 -3.828262567520141602e+00 3.095247268676757812e+00 1.985134887695312500e+01 6.883978843688964844e+00 6.116559505462646484e+00
1.000000000000000000e+02 1.825148582458496094e+01 -3.658382892608642578e+00 2.088413476943969727e+00 1.724817657470703125e+01 5.800976753234863281e+00 5.559716224670410156e+00
1.010000000000000000e+02 1.788773155212402344e+01 -4.142608165740966797e+00 2.435979604721069336e+00 3.193508529663085938e+01 1.031131935119628906e+01 6.839456081390380859e+00
1.020000000000000000e+02 1.795639610290527344e+01 -3.955785751342773438e+00 1.585617899894714355e+00 2.342064476013183594e+01 7.501878738403320312e+00 4.243701934814453125e+00
1.030000000000000000e+02 1.802506065368652344e+01 -3.768963575363159180e+00 5.846267342567443848e-01 1.917805480957031250e+01 5.928804397583007812e+00 3.360500097274780273e+00
1.040000000000000000e+02 1.809372520446777344e+01 -3.582141160964965820e+00 9.053782820701599121e-01 1.635638427734375000e+01 5.178528785705566406e+00 2.982372045516967773e+00
1.050000000000000000e+02 1.783120346069335938e+01 -4.127918243408203125e+00 4.118797481060028076e-01 3.003302764892578125e+01 9.133472442626953125e+00 1.961620926856994629e+00
1.060000000000000000e+02 1.786218261718750000e+01 -3.931302547454833984e+00 -2.619570493698120117e-01 2.107558059692382812e+01 6.244086742401123047e+00 7.870073914527893066e-01
1.070000000000000000e+02 1.789316177368164062e+01 -3.734687328338623047e+00 -4.849947616457939148e-02 1.701713752746582031e+01 5.090591430664062500e+00 5.926331877708435059e-01
1.080000000000000000e+02 1.792414093017578125e+01 -3.538071870803833008e+00 -3.998802006244659424e-01 1.439628314971923828e+01 4.198920726776123047e+00 2.955105602741241455e-01
1.090000000000000000e+02 1.777289772033691406e+01 -4.124514579772949219e+00 -5.173600316047668457e-01 2.539849662780761719e+01 7.464341163635253906e+00 -2.466894865036010742e+00
1.100000000000000000e+02 1.776500511169433594e+01 -3.925630092620849609e+00 -1.863118261098861694e-01 1.727000045776367188e+01 5.125106334686279297e+00 -2.052785634994506836e+00
1.110000000000000000e+02 1.775711441040039062e+01 -3.726745605468750000e+00 -3.711974918842315674e-01 1.336507320404052734e+01 3.898162603378295898e+00 -1.719725847244262695e+00
1.120000000000000000e+02 1.774922180175781250e+01 -3.527861356735229492e+00 -2.826108336448669434e-01 1.155924415588378906e+01 3.382990121841430664e+00 -1.296285510063171387e+00
1.130000000000000000e+02 1.771504402160644531e+01 -4.132527828216552734e+00 6.377063393592834473e-01 1.890231323242187500e+01 5.862005710601806641e+00 -5.432693958282470703e+00
1.140000000000000000e+02 1.766858482360839844e+01 -3.938985109329223633e+00 1.047010943293571472e-01 1.174071502685546875e+01 3.553624868392944336e+00 -3.661789894104003906e+00
1.150000000000000000e+02 1.762212371826171875e+01 -3.745442628860473633e+00 3.848167359828948975e-01 9.351024627685546875e+00 2.920752286911010742e+00 -2.696180105209350586e+00
1.160000000000000000e+02 1.757566261291503906e+01 -3.551900148391723633e+00 4.117660224437713623e-03 7.585082530975341797e+00 2.276760101318359375e+00 -2.163044929504394531e+00
1.170000000000000000e+02 1.765985870361328125e+01 -4.151650428771972656e+00 1.545243024826049805e+00 1.049742794036865234e+01 3.612801313400268555e+00 -6.072236537933349609e+00
1.180000000000000000e+02 1.757660675048828125e+01 -3.970856666564941406e+00 1.143743515014648438e+00 6.064121723175048828e+00 2.162359476089477539e+00 -3.494498968124389648e+00
1.190000000000000000e+02 1.749335479736328125e+01 -3.790062665939331055e+00 5.618633031845092773e-01 4.676802158355712891e+00 1.571599602699279785e+00 -2.109276771545410156e+00
1.200000000000000000e+02 1.741010284423828125e+01 -3.609268903732299805e+00 3.155287802219390869e-01 4.680891513824462891e+00 1.498926043510437012e+00 -1.819406867027282715e+00
1.210000000000000000e+02 1.760945129394531250e+01 -4.181151390075683594e+00 2.479326725006103516e+00 1.341288328170776367e+00 1.146184563636779785e+00 -4.030434131622314453e+00
1.220000000000000000e+02 1.749259376525878906e+01 -4.020024776458740234e+00 3.751660585403442383e-01 7.536418437957763672e-01 3.386423587799072266e-01 -7.257598042488098145e-01
1.230000000000000000e+02 1.737573814392089844e+01 -3.858898401260375977e+00 9.652386605739593506e-02 2.145470857620239258e+00 6.725984215736389160e-01 -8.443602323532104492e-01
1.240000000000000000e+02 1.725888061523437500e+01 -3.697771787643432617e+00 -5.233979970216751099e-02 1.005342245101928711e+00 2.859007418155670166e-01 -6.003049612045288086e-01
1.250000000000000000e+02 1.756575202941894531e+01 -4.219901561737060547e+00 -2.782132387161254883e+00 -6.601171970367431641e+00 -2.814991235733032227e+00 3.155590534210205078e+00
1.260000000000000000e+02 1.741976165771484375e+01 -4.084608078002929688e+00 -1.396739721298217773e+00 9.008682519197463989e-02 -3.919958770275115967e-01 1.292643547058105469e+00
1.270000000000000000e+02 1.727377128601074219e+01 -3.949315071105957031e+00 -1.523736238479614258e+00 -1.318702816963195801e+00 -8.527317047119140625e-01 1.045115947723388672e+00
1.280000000000000000e+02 1.712778091430664062e+01 -3.814022064208984375e+00 -1.355266332626342773e+00 -7.235153913497924805e-01 -6.236345171928405762e-01 1.204773068428039551e+00
1.290000000000000000e+02 1.539586257934570312e+01 -2.789536237716674805e+00 -6.933094859123229980e-01 -3.918151259422302246e-01 -3.255373835563659668e-01 5.155116319656372070e-01
1.300000000000000000e+02 1.605174255371093750e+01 -3.531059026718139648e+00 9.028152227401733398e-01 -1.649328917264938354e-01 2.213646918535232544e-01 -6.358204782009124756e-02
1.310000000000000000e+02 1.683968925476074219e+01 -3.858838081359863281e+00 1.015204310417175293e+00 1.293944567441940308e-01 3.433796167373657227e-01 -5.308942794799804688e-01
1.320000000000000000e+02 1.761536026000976562e+01 -5.503577709197998047e+00 1.018470478057861328e+01 1.350739192962646484e+01 7.107628822326660156e+00 7.216018676757812500e+00
1.330000000000000000e+02 1.783774948120117188e+01 -5.525566577911376953e+00 9.233440399169921875e+00 1.577007865905761719e+01 7.501055717468261719e+00 6.072436332702636719e+00
1.340000000000000000e+02 1.879253959655761719e+01 -5.177443504333496094e+00 1.242615604400634766e+01 1.045851516723632812e+01 6.865401268005371094e+00 1.664553880691528320e+00
1.350000000000000000e+02 1.895861625671386719e+01 -4.416141033172607422e+00 1.337138462066650391e+01 9.633115768432617188e+00 6.901350498199462891e+00 5.979788780212402344e+00
1.360000000000000000e+02 1.881018257141113281e+01 -4.826476097106933594e+00 1.693909645080566406e+01 1.031672096252441406e+01 8.176745414733886719e+00 2.108233690261840820e+00
1.370000000000000000e+02 1.800062370300292969e+01 -3.078964471817016602e+00 -3.675633966922760010e-01 1.117999267578125000e+01 3.243728876113891602e+00 4.834805428981781006e-01
1.380000000000000000e+02 1.650277519226074219e+01 -1.775909781455993652e+00 -4.584414362907409668e-01 1.821691393852233887e+00 4.089749753475189209e-01 -5.738202333450317383e-01
1.390000000000000000e+02 1.754910278320312500e+01 -3.060458421707153320e+00 -4.476075768470764160e-01 6.788079261779785156e+00 1.902141451835632324e+00 -1.445208907127380371e+00
1.400000000000000000e+02 1.876609992980957031e+01 -3.789064884185791016e+00 7.081590652465820312e+00 1.292429828643798828e+01 6.001766681671142578e+00 7.454023361206054688e+00
1.410000000000000000e+02 1.691462898254394531e+01 -5.522535324096679688e+00 1.101887989044189453e+01 4.750384807586669922e+00 4.730779647827148438e+00 7.106523513793945312e+00
1.420000000000000000e+02 1.469895362854003906e+01 -3.853422164916992188e+00 2.651331424713134766e+00 -3.305793106555938721e-01 6.962256431579589844e-01 3.632670342922210693e-01
1.430000000000000000e+02 1.500653171539306641e+01 -4.088558197021484375e+00 3.318769454956054688e+00 -4.883043467998504639e-01 8.491395115852355957e-01 4.218747615814208984e-01
1.440000000000000000e+02 1.582009696960449219e+01 -4.645229339599609375e+00 7.329181671142578125e+00 -8.140521049499511719e-01 1.954538822174072266e+00 1.250765085220336914e+00
1.450000000000000000e+02 1.694386100769042969e+01 -5.306371212005615234e+00 1.287540721893310547e+01 4.033079147338867188e+00 5.072545528411865234e+00 7.306812286376953125e+00
1.460000000000000000e+02 1.661702537536621094e+01 -5.263566493988037109e+00 1.240312004089355469e+01 1.720606684684753418e+00 4.237118244171142578e+00 5.949210166931152344e+00
1.470000000000000000e+02 1.597335529327392578e+01 -4.768258571624755859e+00 8.482994079589843750e+00 -7.349184155464172363e-01 2.324422597885131836e+00 1.726195931434631348e+00
1.480000000000000000e+02 1.583725929260253906e+01 -4.304254531860351562e+00 5.577898025512695312e+00 -6.905170679092407227e-01 1.466214299201965332e+00 2.228697687387466431e-01
1.490000000000000000e+02 1.635674285888671875e+01 -1.629250645637512207e+00 -6.082050204277038574e-01 1.443560481071472168e+00 2.506066262722015381e-01 -4.216541349887847900e-01
1.500000000000000000e+02 1.614593887329101562e+01 -1.669509291648864746e+00 -5.640357136726379395e-01 1.031652092933654785e+00 1.402848958969116211e-01 -1.691553592681884766e-01
1.510000000000000000e+02 1.635014533996582031e+01 -3.145967483520507812e+00 -1.611994028091430664e+00 -8.994313478469848633e-01 -7.534276247024536133e-01 1.124168634414672852e+00
1.520000000000000000e+02 1.723434257507324219e+01 -2.572759389877319336e+00 -4.218532145023345947e-01 4.250667572021484375e+00 1.148644328117370605e+00 -1.155752897262573242e+00
1.530000000000000000e+02 1.819030952453613281e+01 -3.002061843872070312e+00 -2.881690561771392822e-01 1.159846019744873047e+01 3.393087387084960938e+00 1.369343042373657227e+00
1.540000000000000000e+02 1.553920745849609375e+01 -2.581904411315917969e+00 -2.250104188919067383e+00 -1.109150290489196777e+00 -1.007776379585266113e+00 1.437317132949829102e+00
1.550000000000000000e+02 1.684604454040527344e+01 -3.208433628082275391e+00 -5.472106933593750000e-01 5.541657805442810059e-01 2.086516702547669411e-03 -1.297682523727416992e-02
1.560000000000000000e+02 1.698068237304687500e+01 -3.678360700607299805e+00 -1.444686532020568848e+00 -9.608826637268066406e-01 -7.216707468032836914e-01 1.031632542610168457e+00
1.570000000000000000e+02 1.894238853454589844e+01 -4.628726005554199219e+00 1.427913951873779297e+01 9.350758552551269531e+00 7.088969230651855469e+00 3.810763359069824219e+00
1.580000000000000000e+02 1.887077713012695312e+01 -4.188526153564453125e+00 1.436229991912841797e+01 1.069165802001953125e+01 7.516187191009521484e+00 8.132894515991210938e+00
1.590000000000000000e+02 1.887895774841308594e+01 -3.979038238525390625e+00 1.042443847656250000e+01 1.126504802703857422e+01 6.506845951080322266e+00 7.136463642120361328e+00
1.600000000000000000e+02 1.732261848449707031e+01 -3.402590274810791016e+00 8.714054524898529053e-02 3.650493860244750977e+00 1.121290326118469238e+00 -1.545507550239562988e+00
1.610000000000000000e+02 1.713709068298339844e+01 -3.531051635742187500e+00 -2.506747543811798096e-01 1.089154601097106934e+00 2.515439391136169434e-01 -3.708146214485168457e-01
1.620000000000000000e+02 1.666624259948730469e+01 -3.743484020233154297e+00 7.822496891021728516e-01 -2.052313415333628654e-03 2.340592145919799805e-01 -2.554904520511627197e-01
1.630000000000000000e+02 1.638833236694335938e+01 -4.500927448272705078e+00 9.033025741577148438e+00 -6.476944684982299805e-01 2.515599250793457031e+00 5.215668678283691406e-01
1.640000000000000000e+02 1.678797912597656250e+01 -4.874468803405761719e+00 1.445071792602539062e+01 4.754509627819061279e-01 4.477850914001464844e+00 4.422084331512451172e+00
1.650000000000000000e+02 1.675465011596679688e+01 -5.395418643951416016e+00 1.235888957977294922e+01 3.398071289062500000e+00 4.727088451385498047e+00 7.332908153533935547e+00
1.660000000000000000e+02 1.846080398559570312e+01 -5.293303012847900391e+00 1.263040447235107422e+01 1.478272438049316406e+01 8.223938941955566406e+00 4.081815481185913086e-01
1.670000000000000000e+02 1.555794811248779297e+01 -2.907104253768920898e+00 -6.766664385795593262e-01 -3.732292950153350830e-01 -3.149687051773071289e-01 5.030226707458496094e-01
1.680000000000000000e+02 1.672632217407226562e+01 -4.050399780273437500e+00 4.287639141082763672e+00 4.076918587088584900e-02 1.298522472381591797e+00 -1.090695261955261230e+00
1.690000000000000000e+02 1.494207572937011719e+01 -3.505345821380615234e+00 1.405628442764282227e+00 -3.105045855045318604e-01 3.285371661186218262e-01 5.161804705858230591e-02
1.700000000000000000e+02 1.709494400024414062e+01 -5.431122303009033203e+00 1.156163024902343750e+01 7.370077610015869141e+00 5.679512500762939453e+00 8.202221870422363281e+00
1.710000000000000000e+02 1.576056861877441406e+01 -3.302733421325683594e+00 2.369422018527984619e-01 -2.234772741794586182e-01 4.039478953927755356e-03 1.526406854391098022e-01
1.720000000000000000e+02 1.669660568237304688e+01 -4.699182987213134766e+00 1.273842048645019531e+01 -2.452654391527175903e-01 3.747946500778198242e+00 2.127855777740478516e+00
1.730000000000000000e+02 1.628862571716308594e+01 -5.007604122161865234e+00 1.064418983459472656e+01 -1.511105298995971680e-01 3.147923946380615234e+00 3.399073362350463867e+00
1.740000000000000000e+02 1.665312194824218750e+01 -4.490995883941650391e+00 1.059135913848876953e+01 -7.179065346717834473e-01 2.962035655975341797e+00 3.812863230705261230e-01
1.750000000000000000e+02 1.666307258605957031e+01 -4.265832901000976562e+00 7.355582237243652344e+00 -3.105174005031585693e-01 2.113519430160522461e+00 -9.464194774627685547e-01
1.760000000000000000e+02 1.791767883300781250e+01 -5.745589256286621094e+00 7.689987182617187500e+00 1.386963176727294922e+01 6.467885971069335938e+00 4.794330120086669922e+00
1.770000000000000000e+02 1.725498771667480469e+01 -5.689246177673339844e+00 9.826008796691894531e+00 9.110683441162109375e+00 5.681007862091064453e+00 8.658809661865234375e+00
1.780000000000000000e+02 1.810065269470214844e+01 -5.549913406372070312e+00 8.763100624084472656e+00 1.425775241851806641e+01 6.906255722045898438e+00 4.064754962921142578e+00
1.790000000000000000e+02 1.830809974670410156e+01 -5.475832462310791016e+00 1.019995689392089844e+01 1.354436779022216797e+01 7.123297214508056641e+00 2.341095447540283203e+00
1.800000000000000000e+02 1.648130798339843750e+01 -4.823727130889892578e+00 1.151697254180908203e+01 -4.587221741676330566e-01 3.317475080490112305e+00 2.685819149017333984e+00
1.810000000000000000e+02 1.685070228576660156e+01 -5.028825283050537109e+00 1.451210784912109375e+01 1.947600245475769043e+00 4.937912464141845703e+00 6.116689205169677734e+00
1.820000000000000000e+02 1.861370468139648438e+01 -5.461973667144775391e+00 1.079316234588623047e+01 1.241200065612792969e+01 6.961548805236816406e+00 8.789126276969909668e-01
1.830000000000000000e+02 1.612895965576171875e+01 -4.888276100158691406e+00 9.686965942382812500e+00 -6.816554069519042969e-01 2.701593160629272461e+00 2.528262376785278320e+00
1.840000000000000000e+02 1.852799034118652344e+01 -3.265696048736572266e+00 1.422903060913085938e+00 1.284020042419433594e+01 4.278931140899658203e+00 3.700536012649536133e+00
1.850000000000000000e+02 1.804835891723632812e+01 -2.881067991256713867e+00 -6.497098207473754883e-01 1.017585945129394531e+01 2.857844829559326172e+00 4.375070631504058838e-01
1.860000000000000000e+02 1.721193695068359375e+01 -2.266764402389526367e+00 -4.608882069587707520e-01 4.077166080474853516e+00 1.084883451461791992e+00 -9.906009435653686523e-01
1.870000000000000000e+02 1.753695297241210938e+01 -3.323834419250488281e+00 -1.509245783090591431e-01 7.185428142547607422e+00 2.110351085662841797e+00 -1.724158406257629395e+00
1.880000000000000000e+02 1.667449569702148438e+01 -3.086158037185668945e+00 -8.415654301643371582e-01 2.102260589599609375e-01 -1.894018054008483887e-01 2.225983738899230957e-01
1.890000000000000000e+02 1.878124427795410156e+01 -3.535119771957397461e+00 5.243178844451904297e+00 1.297474479675292969e+01 5.465376853942871094e+00 7.079748630523681641e+00
1.900000000000000000e+02 1.834285545349121094e+01 -3.142090320587158203e+00 4.340224862098693848e-01 1.312759113311767578e+01 4.068483829498291016e+00 3.091639280319213867e+00
1.910000000000000000e+02 1.901505470275878906e+01 -4.925753593444824219e+00 1.430684947967529297e+01 8.839236259460449219e+00 6.943825721740722656e+00 2.070386648178100586e+00
1.920000000000000000e+02 1.797483825683593750e+01 -3.312302350997924805e+00 -4.366481304168701172e-01 1.282819938659667969e+01 3.717465400695800781e+00 6.166215538978576660e-01
1.930000000000000000e+02 1.837902069091796875e+01 -3.472246885299682617e+00 2.820562362670898438e+00 1.479250144958496094e+01 5.283918857574462891e+00 5.157026767730712891e+00
1.940000000000000000e+02 1.769032859802246094e+01 -2.664094924926757812e+00 -6.653685569763183594e-01 7.347898483276367188e+00 2.004758834838867188e+00 -7.749559283256530762e-01
1.950000000000000000e+02 1.634545135498046875e+01 -3.495548725128173828e+00 1.231718212366104126e-01 -2.068797200918197632e-01 -2.511237002909183502e-02 1.552226394414901733e-01
1.960000000000000000e+02 1.590636348724365234e+01 -3.414447784423828125e+00 4.805625975131988525e-01 -2.306291610002517700e-01 7.498003542423248291e-02 5.048581212759017944e-02
1.970000000000000000e+02 1.528211498260498047e+01 -2.968216657638549805e+00 -3.458035886287689209e-01 -4.209832847118377686e-01 -2.300360649824142456e-01 3.622986972332000732e-01
1.980000000000000000e+02 1.577037906646728516e+01 -3.577918529510498047e+00 1.429962515830993652e+00 -2.096060216426849365e-01 3.661069273948669434e-01 -1.007101014256477356e-01
1.990000000000000000e+02 1.619600677490234375e+01 -3.657770395278930664e+00 1.353097438812255859e+00 -1.479074358940124512e-01 3.615570068359375000e-01 -2.759965360164642334e-01
2.000000000000000000e+02 1.667389488220214844e+01 -3.413767099380493164e+00 -1.502522826194763184e+00 -8.575606942176818848e-01 -7.080250382423400879e-01 1.116203784942626953e+00
2.010000000000000000e+02 1.699984550476074219e+01 -3.366796255111694336e+00 -3.602858781814575195e-01 6.731173992156982422e-01 9.384945034980773926e-02 -2.643033862113952637e-01
2.020000000000000000e+02 1.570607089996337891e+01 -2.711100816726684570e+00 -1.932791829109191895e+00 -1.036875128746032715e+00 -8.909000754356384277e-01 1.440359711647033691e+00
2.030000000000000000e+02 1.686898994445800781e+01 -2.031700134277343750e+00 -4.175221621990203857e-01 2.722469329833984375e+00 6.914841532707214355e-01 -7.853069305419921875e-01
2.040000000000000000e+02 1.672275161743164062e+01 -2.253341436386108398e+00 -4.216983318328857422e-01 1.884999990463256836e+00 4.389905035495758057e-01 -6.222376227378845215e-01
2.050000000000000000e+02 1.753256797790527344e+01 -2.518652915954589844e+00 -6.922576427459716797e-01 6.199496269226074219e+00 1.652171611785888672e+00 -9.082819819450378418e-01
2.060000000000000000e+02 1.579708003997802734e+01 -2.235489130020141602e+00 -1.151747941970825195e+00 -3.516463637351989746e-01 -4.510183036327362061e-01 5.213370323181152344e-01
2.070000000000000000e+02 1.696260452270507812e+01 -2.641402721405029297e+00 -3.760560452938079834e-01 2.480936527252197266e+00 6.314641237258911133e-01 -8.262392878532409668e-01
2.080000000000000000e+02 1.775494384765625000e+01 -3.304567337036132812e+00 -4.869900047779083252e-01 9.969403266906738281e+00 2.844723939895629883e+00 -1.130478858947753906e+00
2.090000000000000000e+02 1.786719894409179688e+01 -2.791028976440429688e+00 -7.310953736305236816e-01 8.830025672912597656e+00 2.429678916931152344e+00 -3.771888315677642822e-01
2.100000000000000000e+02 1.704401016235351562e+01 -2.148586750030517578e+00 -4.059561192989349365e-01 3.368898868560791016e+00 8.888828158378601074e-01 -9.144068956375122070e-01
2.110000000000000000e+02 1.605588340759277344e+01 -1.860134601593017578e+00 -6.476727128028869629e-01 5.398159027099609375e-01 -3.235703334212303162e-02 -7.569018751382827759e-02
2.120000000000000000e+02 1.668948936462402344e+01 -1.909206151962280273e+00 -4.115018546581268311e-01 2.113912582397460938e+00 5.107232332229614258e-01 -7.072854638099670410e-01
2.130000000000000000e+02 1.708224105834960938e+01 -2.455970525741577148e+00 -3.437723219394683838e-01 3.369487047195434570e+00 9.077144265174865723e-01 -9.837240576744079590e-01
2.140000000000000000e+02 1.524972724914550781e+01 -3.466627359390258789e+00 1.331419944763183594e+00 -2.937532663345336914e-01 3.113000094890594482e-01 -3.952306881546974182e-02
2.150000000000000000e+02 1.512745189666748047e+01 -3.645321369171142578e+00 1.903342127799987793e+00 -3.057999312877655029e-01 4.792626500129699707e-01 7.362987846136093140e-02
2.160000000000000000e+02 1.571905803680419922e+01 -3.022680759429931641e+00 -6.027580499649047852e-01 -3.613202869892120361e-01 -2.892235219478607178e-01 5.025234222412109375e-01
2.170000000000000000e+02 1.544757843017578125e+01 -3.084292888641357422e+00 -1.435742825269699097e-01 -2.752061188220977783e-01 -1.256341189146041870e-01 3.215899765491485596e-01
2.180000000000000000e+02 1.498067378997802734e+01 -3.803550958633422852e+00 2.573682785034179688e+00 -4.339853227138519287e-01 6.419092416763305664e-01 1.983512192964553833e-01
2.190000000000000000e+02 1.516945171356201172e+01 -3.149093389511108398e+00 2.836790680885314941e-01 -2.741417884826660156e-01 2.861185930669307709e-03 1.432890892028808594e-01
2.200000000000000000e+02 1.566980648040771484e+01 -2.410593509674072266e+00 -1.645558118820190430e+00 -6.667640209197998047e-01 -6.936966180801391602e-01 8.351753354072570801e-01
2.210000000000000000e+02 1.586809539794921875e+01 -2.562131643295288086e+00 -1.532976746559143066e+00 -6.135800480842590332e-01 -6.439670324325561523e-01 9.465441703796386719e-01
2.220000000000000000e+02 1.485443592071533203e+01 -3.971750736236572266e+00 2.738681554794311523e+00 -5.027804374694824219e-01 6.707703471183776855e-01 2.805810272693634033e-01
2.230000000000000000e+02 1.511705493927001953e+01 -3.928040504455566406e+00 2.824068307876586914e+00 -4.561042487621307373e-01 7.103892564773559570e-01 1.760456264019012451e-01
2.240000000000000000e+02 1.663447952270507812e+01 -4.973729610443115234e+00 1.309112358093261719e+01 6.194699406623840332e-01 4.113178253173828125e+00 4.235458374023437500e+00
2.250000000000000000e+02 1.545157241821289062e+01 -4.056005954742431641e+00 3.744060754776000977e+00 -5.319746136665344238e-01 9.636258482933044434e-01 5.550061911344528198e-02
2.260000000000000000e+02 1.565997791290283203e+01 -4.522915363311767578e+00 6.288306713104248047e+00 -7.486487627029418945e-01 1.661897420883178711e+00 9.058963060379028320e-01
2.270000000000000000e+02 1.549598503112792969e+01 -4.402910232543945312e+00 5.266070365905761719e+00 -7.072595953941345215e-01 1.367643237113952637e+00 6.391603946685791016e-01
2.280000000000000000e+02 1.910439872741699219e+01 -4.203331470489501953e+00 1.258100414276123047e+01 9.333140373229980469e+00 6.574243545532226562e+00 6.579500198364257812e+00
2.290000000000000000e+02 1.587762928009033203e+01 -3.138284206390380859e+00 -5.107835531234741211e-01 -3.762873411178588867e-01 -2.661212682723999023e-01 4.401641190052032471e-01
2.300000000000000000e+02 1.590725708007812500e+01 -3.678800821304321289e+00 1.907606363296508789e+00 -2.329868525266647339e-01 5.023858547210693359e-01 -2.980226874351501465e-01
2.310000000000000000e+02 1.616957473754882812e+01 -3.021269321441650391e+00 -1.693897008895874023e+00 -8.260328173637390137e-01 -7.559789419174194336e-01 1.197008132934570312e+00
2.320000000000000000e+02 1.651311874389648438e+01 -3.287375450134277344e+00 -1.501949071884155273e+00 -8.498012423515319824e-01 -7.055251002311706543e-01 1.156556367874145508e+00
2.330000000000000000e+02 1.623292350769042969e+01 -2.500227212905883789e+00 -8.919147849082946777e-01 6.396386027336120605e-02 -2.483852803707122803e-01 2.828113138675689697e-01
2.340000000000000000e+02 1.599672222137451172e+01 -2.748808383941650391e+00 -1.531904339790344238e+00 -6.898296475410461426e-01 -6.665201783180236816e-01 1.044620156288146973e+00
2.350000000000000000e+02 1.709820938110351562e+01 -2.737026929855346680e+00 -2.092753946781158447e-01 3.178427934646606445e+00 8.907457590103149414e-01 -1.076663255691528320e+00
2.360000000000000000e+02 1.630628013610839844e+01 -1.983579754829406738e+00 -6.156623959541320801e-01 1.006501197814941406e+00 1.172516345977783203e-01 -2.037512063980102539e-01
2.370000000000000000e+02 1.618005371093750000e+01 -3.950443029403686523e+00 3.398229598999023438e+00 -2.052465677261352539e-01 9.578948616981506348e-01 -5.716507434844970703e-01
2.380000000000000000e+02 1.631314849853515625e+01 -4.699668407440185547e+00 1.011253738403320312e+01 -6.978810429573059082e-01 2.824397087097167969e+00 1.636227726936340332e+00
2.390000000000000000e+02 1.639554786682128906e+01 -4.279605388641357422e+00 6.829702854156494141e+00 -5.449344515800476074e-01 1.885430455207824707e+00 -4.096941053867340088e-01
2.400000000000000000e+02 1.703557395935058594e+01 -3.033569097518920898e+00 -3.368860483169555664e-01 2.113540410995483398e+00 5.329963564872741699e-01 -8.005548119544982910e-01
2.410000000000000000e+02 1.664065933227539062e+01 -2.475471019744873047e+00 -5.542231798171997070e-01 1.337948203086853027e+00 2.351175099611282349e-01 -4.256844520568847656e-01
2.420000000000000000e+02 1.621433067321777344e+01 -2.749381065368652344e+00 -1.150941610336303711e+00 -3.752046823501586914e-01 -4.578438997268676758e-01 7.300258278846740723e-01
2.430000000000000000e+02 1.651646614074707031e+01 -2.132372856140136719e+00 -5.306511521339416504e-01 1.466668367385864258e+00 2.808051705360412598e-01 -4.388728737831115723e-01
2.440000000000000000e+02 1.601868629455566406e+01 -2.386116027832031250e+00 -1.080056071281433105e+00 -1.299118846654891968e-01 -3.629904091358184814e-01 4.332259595394134521e-01
2.450000000000000000e+02 1.735561752319335938e+01 -3.019317150115966797e+00 -2.389678061008453369e-01 4.844681262969970703e+00 1.381714105606079102e+00 -1.466219663619995117e+00
2.460000000000000000e+02 1.693363571166992188e+01 -2.841301918029785156e+00 -2.791690826416015625e-01 2.015038013458251953e+00 5.207606554031372070e-01 -6.680772900581359863e-01
2.470000000000000000e+02 1.651703453063964844e+01 -3.934698820114135742e+00 3.104520559310913086e+00 -4.574303328990936279e-02 9.176332354545593262e-01 -8.065404295921325684e-01
2.480000000000000000e+02 1.548310661315917969e+01 -3.788777828216552734e+00 2.542573928833007812e+00 -3.783314824104309082e-01 6.492727398872375488e-01 -7.643719762563705444e-02
2.490000000000000000e+02 1.583725929260253906e+01 -3.965017080307006836e+00 3.497355937957763672e+00 -4.184103906154632568e-01 9.236836433410644531e-01 -2.443818598985671997e-01
2.500000000000000000e+02 1.645367813110351562e+01 -2.738739967346191406e+00 -7.385346293449401855e-01 1.839298307895660400e-01 -1.663814485073089600e-01 2.058890759944915771e-01
2.510000000000000000e+02 1.622728538513183594e+01 -1.503163337707519531e+00 -5.166466236114501953e-01 1.445511698722839355e+00 2.786594927310943604e-01 -1.971636265516281128e-01
2.520000000000000000e+02 1.505823135375976562e+01 -3.329929113388061523e+00 8.838416934013366699e-01 -1.932493895292282104e-01 2.071776986122131348e-01 1.093305870890617371e-01
2.530000000000000000e+02 1.560935211181640625e+01 -3.192455053329467773e+00 3.014572523534297943e-02 -2.692404389381408691e-01 -7.172841578722000122e-02 2.221491485834121704e-01
2.540000000000000000e+02 1.481981849670410156e+01 -3.678342819213867188e+00 1.898566246032714844e+00 -3.268572390079498291e-01 4.715127050876617432e-01 2.181874364614486694e-01
2.550000000000000000e+02 1.516320419311523438e+01 -4.194906711578369141e+00 3.996365547180175781e+00 -6.459764242172241211e-01 1.005116701126098633e+00 3.869591653347015381e-01
2.560000000000000000e+02 1.532873725891113281e+01 -4.293972969055175781e+00 4.676473140716552734e+00 -6.835985183715820312e-01 1.197862505912780762e+00 4.790843427181243896e-01
2.570000000000000000e+02 1.565553379058837891e+01 -4.161437034606933594e+00 4.552179813385009766e+00 -5.837987065315246582e-01 1.190514326095581055e+00 6.870815902948379517e-02
2.580000000000000000e+02 1.601912117004394531e+01 -4.437141418457031250e+00 6.885783195495605469e+00 -6.697551608085632324e-01 1.864808440208435059e+00 5.208090543746948242e-01
2.590000000000000000e+02 1.616461563110351562e+01 -4.579592704772949219e+00 8.199172973632812500e+00 -8.798103928565979004e-01 2.195808649063110352e+00 8.607146739959716797e-01
2.600000000000000000e+02 1.603399658203125000e+01 -3.254945039749145508e+00 -3.609283566474914551e-01 -3.172626495361328125e-01 -2.034573107957839966e-01 3.817844688892364502e-01
2.610000000000000000e+02 1.618978881835937500e+01 -3.373903036117553711e+00 -1.704520136117935181e-01 -2.872184813022613525e-01 -1.373011469841003418e-01 2.733076512813568115e-01
2.620000000000000000e+02 1.634887123107910156e+01 -3.789801359176635742e+00 2.016061544418334961e+00 -6.874058395624160767e-02 5.841962695121765137e-01 -4.750995635986328125e-01
2.630000000000000000e+02 1.650335121154785156e+01 -3.619414567947387695e+00 4.390960335731506348e-01 -1.429121345281600952e-01 8.885517716407775879e-02 -4.675445333123207092e-02
2.640000000000000000e+02 1.646066093444824219e+01 -5.131984710693359375e+00 1.161469078063964844e+01 4.471273124217987061e-01 3.618545532226562500e+00 4.654388427734375000e+00
2.650000000000000000e+02 1.633791732788085938e+01 -4.091702461242675781e+00 4.885159969329833984e+00 -2.938684523105621338e-01 1.377387404441833496e+00 -7.670423388481140137e-01
2.660000000000000000e+02 1.584844779968261719e+01 -2.843124151229858398e+00 -1.876151084899902344e+00 -1.044229388236999512e+00 -8.761141300201416016e-01 1.358130693435668945e+00
2.670000000000000000e+02 1.599050998687744141e+01 -2.942148447036743164e+00 -1.753352046012878418e+00 -8.993466496467590332e-01 -7.958096265792846680e-01 1.311469912528991699e+00
2.680000000000000000e+02 1.615254783630371094e+01 -2.185641765594482422e+00 -7.109789848327636719e-01 4.035587608814239502e-01 -9.222606569528579712e-02 1.005270518362522125e-02
2.690000000000000000e+02 1.592283248901367188e+01 -2.052587032318115234e+00 -8.365976214408874512e-01 1.252022981643676758e-01 -2.134185880422592163e-01 1.829171627759933472e-01
2.700000000000000000e+02 1.672933006286621094e+01 -2.879237413406372070e+00 -4.770970046520233154e-01 9.158322215080261230e-01 1.316205561161041260e-01 -2.938915193080902100e-01
2.710000000000000000e+02 1.682969474792480469e+01 -3.544050216674804688e+00 -1.458600759506225586e+00 -7.839552164077758789e-01 -6.727668046951293945e-01 1.114682078361511230e+00
2.720000000000000000e+02 1.737507057189941406e+01 -2.705388307571411133e+00 -3.809267580509185791e-01 5.267134189605712891e+00 1.465862274169921875e+00 -1.212330341339111328e+00
2.730000000000000000e+02 1.737432479858398438e+01 -2.389438390731811523e+00 -5.097171068191528320e-01 5.032610893249511719e+00 1.356868028640747070e+00 -9.332027435302734375e-01
2.740000000000000000e+02 1.777937507629394531e+01 -3.048745393753051758e+00 -5.931175947189331055e-01 9.389614105224609375e+00 2.638948917388916016e+00 -8.064158558845520020e-01
2.750000000000000000e+02 1.818886947631835938e+01 -3.368166923522949219e+00 2.222768068313598633e-01 1.413579177856445312e+01 4.307420253753662109e+00 2.344518184661865234e+00
2.760000000000000000e+02 1.854872131347656250e+01 -3.616728782653808594e+00 4.104058265686035156e+00 1.533399868011474609e+01 5.831417083740234375e+00 7.284188270568847656e+00
2.770000000000000000e+02 1.870137405395507812e+01 -4.998602390289306641e+00 1.553803730010986328e+01 1.083313179016113281e+01 7.911350727081298828e+00 2.088195562362670898e+00
2.780000000000000000e+02 1.859528160095214844e+01 -5.140407562255859375e+00 1.289521408081054688e+01 1.353010749816894531e+01 7.927596569061279297e+00 1.216873764991760254e+00
2.790000000000000000e+02 1.740728950500488281e+01 -5.428270816802978516e+00 1.166244792938232422e+01 1.046399688720703125e+01 6.637933731079101562e+00 9.389173507690429688e+00
2.800000000000000000e+02 1.755224800109863281e+01 -5.696264266967773438e+00 9.398749351501464844e+00 9.963026046752929688e+00 5.808532714843750000e+00 7.050454616546630859e+00
2.810000000000000000e+02 1.731550407409667969e+01 -5.554002761840820312e+00 1.096912860870361328e+01 1.039391517639160156e+01 6.408913135528564453e+00 9.639840126037597656e+00
2.820000000000000000e+02 1.707357978820800781e+01 -5.215401172637939453e+00 1.393470478057861328e+01 5.481090545654296875e+00 5.824738502502441406e+00 8.015384674072265625e+00
2.830000000000000000e+02 1.722024536132812500e+01 -5.329137325286865234e+00 1.267655372619628906e+01 9.022028923034667969e+00 6.509574890136718750e+00 9.506162643432617188e+00
2.840000000000000000e+02 1.687356567382812500e+01 -5.175316333770751953e+00 1.394460391998291016e+01 2.962424278259277344e+00 5.072108268737792969e+00 7.008032798767089844e+00
2.850000000000000000e+02 1.550650024414062500e+01 -3.359923601150512695e+00 6.488989591598510742e-01 -2.621473073959350586e-01 1.160254925489425659e-01 9.511167556047439575e-02
2.860000000000000000e+02 1.534218788146972656e+01 -3.268556833267211914e+00 4.816366136074066162e-01 -2.841290831565856934e-01 5.925225466489791870e-02 1.524858176708221436e-01
2.870000000000000000e+02 1.563518047332763672e+01 -3.470250606536865234e+00 1.052904486656188965e+00 -2.484364211559295654e-01 2.413404285907745361e-01 -3.020572662353515625e-02
2.880000000000000000e+02 1.719299888610839844e+01 -3.202505826950073242e+00 -1.261610984802246094e-01 3.125236988067626953e+00 8.997227549552917480e-01 -1.154379844665527344e+00
2.890000000000000000e+02 1.603013420104980469e+01 -3.814583301544189453e+00 2.528179168701171875e+00 -1.862816810607910156e-01 7.025692462921142578e-01 -4.452354609966278076e-01
2.900000000000000000e+02 1.652627182006835938e+01 -2.953865289688110352e+00 -9.801843762397766113e-01 -1.732727698981761932e-02 -2.992534935474395752e-01 4.043492078781127930e-01
2.910000000000000000e+02 1.751020050048828125e+01 -2.851181983947753906e+00 -4.227163791656494141e-01 6.565318584442138672e+00 1.842780709266662598e+00 -1.223999142646789551e+00
2.920000000000000000e+02 1.691558456420898438e+01 -2.350700378417968750e+00 -4.058027863502502441e-01 2.679797887802124023e+00 6.821985244750976562e-01 -8.205760717391967773e-01
2.930000000000000000e+02 1.545968437194824219e+01 -3.545231103897094727e+00 1.432550311088562012e+00 -2.496231198310852051e-01 3.548781573772430420e-01 -9.515771269798278809e-02
2.940000000000000000e+02 1.572605419158935547e+01 -3.772671461105346680e+00 2.474951982498168945e+00 -3.084419965744018555e-01 6.499530076980590820e-01 -2.522484660148620605e-01
2.950000000000000000e+02 1.666527557373046875e+01 -2.675674676895141602e+00 -4.136819243431091309e-01 1.140410304069519043e+00 2.180185019969940186e-01 -3.142268359661102295e-01
2.960000000000000000e+02 1.635106086730957031e+01 -2.318511247634887695e+00 -6.922450661659240723e-01 7.301511764526367188e-01 1.137182768434286118e-02 -9.600003063678741455e-02
2.970000000000000000e+02 1.525909042358398438e+01 -4.007173061370849609e+00 3.268660306930541992e+00 -4.993419945240020752e-01 8.307955265045166016e-01 1.781911700963973999e-01
2.980000000000000000e+02 1.721589088439941406e+01 -2.876739263534545898e+00 -1.786846667528152466e-01 3.903426885604858398e+00 1.117422699928283691e+00 -1.290762186050415039e+00
2.990000000000000000e+02 1.617841529846191406e+01 -4.243788242340087891e+00 6.185942649841308594e+00 -5.788553357124328613e-01 1.682126164436340332e+00 -1.359445899724960327e-01
3.000000000000000000e+02 1.600701332092285156e+01 -4.114153385162353516e+00 4.902334690093994141e+00 -4.826907813549041748e-01 1.325893163681030273e+00 -2.820740938186645508e-01
3.010000000000000000e+02 1.644032669067382812e+01 -2.499002695083618164e+00 -6.674060225486755371e-01 7.397275567054748535e-01 2.169647067785263062e-02 -5.233749747276306152e-02
3.020000000000000000e+02 1.680979728698730469e+01 -2.550765037536621094e+00 -3.756369352340698242e-01 1.987958788871765137e+00 4.836965501308441162e-01 -6.334927678108215332e-01
3.030000000000000000e+02 1.525903224945068359e+01 -3.816716909408569336e+00 2.604392051696777344e+00 -4.246133863925933838e-01 6.539335846900939941e-01 1.695258729159832001e-02
3.040000000000000000e+02 1.521564197540283203e+01 -2.339875221252441406e+00 -2.107744693756103516e+00 -8.356450200080871582e-01 -8.830168843269348145e-01 1.331010580062866211e+00
3.050000000000000000e+02 1.553287029266357422e+01 -1.709588766098022461e+00 -1.074784874916076660e+00 1.322477357462048531e-03 -3.220387399196624756e-01 3.658472597599029541e-01
3.060000000000000000e+02 1.399688243865966797e+01 -9.436047673225402832e-01 -1.517857670783996582e+00 -4.828522205352783203e-01 -6.002129316329956055e-01 8.062144517898559570e-01
3.070000000000000000e+02 1.452864742279052734e+01 -1.043939828872680664e+00 -1.138868689537048340e+00 -2.361560761928558350e-01 -4.125074446201324463e-01 5.715021491050720215e-01
3.080000000000000000e+02 1.426952457427978516e+01 -5.481233596801757812e-01 -9.689442515373229980e-01 -1.544696539640426636e-01 -3.370241522789001465e-01 3.769895434379577637e-01
3.090000000000000000e+02 1.578907489776611328e+01 -1.750429511070251465e+00 -7.911161780357360840e-01 3.188616633415222168e-01 -1.416763514280319214e-01 2.796564064919948578e-02
3.100000000000000000e+02 1.536585521697998047e+01 -1.898961067199707031e+00 -1.247880935668945312e+00 -3.387792408466339111e-01 -4.759980440139770508e-01 6.705811023712158203e-01
3.110000000000000000e+02 1.586587524414062500e+01 -1.560534596443176270e+00 -5.981960296630859375e-01 3.484522402286529541e-01 -7.492314279079437256e-02 -1.335031539201736450e-01
3.120000000000000000e+02 1.365059375762939453e+01 -2.031416893005371094e-01 -1.071878910064697266e+00 -2.869398295879364014e-01 -4.076456129550933838e-01 4.875184893608093262e-01
3.130000000000000000e+02 1.384250736236572266e+01 -1.431652545928955078e+00 -1.928704500198364258e+00 -5.823311209678649902e-01 -7.533106803894042969e-01 1.080171346664428711e+00
3.140000000000000000e+02 1.500138568878173828e+01 -1.833172678947448730e+00 -1.666443467140197754e+00 -6.232835054397583008e-01 -6.869180798530578613e-01 9.374008178710937500e-01
3.150000000000000000e+02 1.341769695281982422e+01 -6.372728347778320312e-01 -1.527869820594787598e+00 -4.449298977851867676e-01 -5.918399095535278320e-01 7.524257898330688477e-01
3.160000000000000000e+02 1.320840644836425781e+01 -1.090078592300415039e+00 -2.082150697708129883e+00 -6.307971477508544922e-01 -8.138843178749084473e-01 1.089452028274536133e+00
3.170000000000000000e+02 1.544833469390869141e+01 -2.205965995788574219e+00 -1.508252978324890137e+00 -5.295749306678771973e-01 -6.113483905792236328e-01 9.105594754219055176e-01
3.180000000000000000e+02 1.569886875152587891e+01 -1.910251736640930176e+00 -1.002815961837768555e+00 -1.242064908146858215e-01 -3.381067514419555664e-01 4.213361740112304688e-01
3.190000000000000000e+02 1.588659858703613281e+01 -1.316445350646972656e+00 -6.591078042984008789e-01 6.961909532546997070e-01 1.112494617700576782e-02 -2.027990072965621948e-01
3.200000000000000000e+02 1.558458137512207031e+01 -2.066657543182373047e+00 -1.079582929611206055e+00 -2.950578331947326660e-01 -4.123922586441040039e-01 5.625285506248474121e-01
3.210000000000000000e+02 1.509394645690917969e+01 -1.142061233520507812e+00 -9.007663726806640625e-01 -2.178363129496574402e-02 -2.767649888992309570e-01 2.724503278732299805e-01
3.220000000000000000e+02 1.445616722106933594e+01 -1.715361118316650391e+00 -1.890744566917419434e+00 -6.262512207031250000e-01 -7.550987601280212402e-01 1.058395385742187500e+00
3.230000000000000000e+02 1.554687595367431641e+01 -1.381946444511413574e+00 -7.790641784667968750e-01 3.514092862606048584e-01 -1.282964646816253662e-01 1.234355643391609192e-01
3.240000000000000000e+02 1.052159404754638672e+01 6.193679571151733398e-01 -1.515912294387817383e+00 -4.152317345142364502e-01 -5.793431997299194336e-01 4.885891079902648926e-01
3.250000000000000000e+02 1.111831569671630859e+01 -1.607042253017425537e-01 -1.909560203552246094e+00 -3.470125794410705566e-01 -6.769718527793884277e-01 8.318864703178405762e-01
3.260000000000000000e+02 1.040810298919677734e+01 1.261497586965560913e-01 -2.157874345779418945e+00 -3.807437419891357422e-01 -7.615854740142822266e-01 7.094431519508361816e-01
3.270000000000000000e+02 1.126248645782470703e+01 3.284142911434173584e-01 -1.636504173278808594e+00 -3.294535875320434570e-01 -5.897873044013977051e-01 6.546409130096435547e-01
3.280000000000000000e+02 1.200399494171142578e+01 2.199186943471431732e-02 -1.544648289680480957e+00 -3.950307965278625488e-01 -5.819036960601806641e-01 7.548277974128723145e-01
3.290000000000000000e+02 1.253512859344482422e+01 -7.567027807235717773e-01 -2.116273641586303711e+00 -5.072298645973205566e-01 -7.870510816574096680e-01 9.859949946403503418e-01
3.300000000000000000e+02 1.293969154357910156e+01 1.441244035959243774e-01 -1.124045133590698242e+00 -3.459408581256866455e-01 -4.409957826137542725e-01 5.317858457565307617e-01
3.310000000000000000e+02 1.063408660888671875e+01 1.099988698959350586e+00 -1.075334906578063965e+00 -4.127436280250549316e-01 -4.464235603809356689e-01 4.910878837108612061e-01
3.320000000000000000e+02 1.140299034118652344e+01 7.894302010536193848e-01 -1.209293603897094727e+00 -3.521746993064880371e-01 -4.684405028820037842e-01 4.961063861846923828e-01
3.330000000000000000e+02 1.217302513122558594e+01 4.710266590118408203e-01 -1.205473065376281738e+00 -3.525974154472351074e-01 -4.674211442470550537e-01 5.740808844566345215e-01
3.340000000000000000e+02 1.273955154418945312e+01 -2.999722659587860107e-01 -1.532484054565429688e+00 -4.866995513439178467e-01 -6.057550907135009766e-01 7.487311363220214844e-01
3.350000000000000000e+02 1.182801342010498047e+01 -4.551819860935211182e-01 -1.984810709953308105e+00 -3.874289989471435547e-01 -7.116718888282775879e-01 8.575070500373840332e-01
3.360000000000000000e+02 9.902910232543945312e+00 1.274090170860290527e+00 -9.781932830810546875e-01 -3.576553463935852051e-01 -4.007546007633209229e-01 5.164562463760375977e-01
3.370000000000000000e+02 8.869457244873046875e+00 3.041950166225433350e-01 -1.390236735343933105e+00 -3.181236330419778824e-03 -4.180254042148590088e-01 1.529429256916046143e-01
3.380000000000000000e+02 6.786152362823486328e+00 3.964152634143829346e-01 -6.858609318733215332e-01 3.140724496915936470e-03 -2.048160582780838013e-01 9.382903575897216797e-02
3.390000000000000000e+02 7.530555725097656250e+00 3.708816170692443848e-01 -8.742373585700988770e-01 2.340624481439590454e-02 -2.552493512630462646e-01 7.929585129022598267e-02
3.400000000000000000e+02 4.922715187072753906e+00 1.152722477912902832e+00 -3.229992687702178955e-01 -2.196485735476016998e-02 -1.034892424941062927e-01 1.706914901733398438e-01
3.410000000000000000e+02 3.688813447952270508e+00 4.131651520729064941e-01 -1.632753014564514160e-01 -3.439622465521097183e-03 -5.001447722315788269e-02 5.019204318523406982e-02
3.420000000000000000e+02 2.563667535781860352e+00 1.145097732543945312e+00 -9.382653236389160156e-02 -2.931115403771400452e-02 -3.694130480289459229e-02 8.176787942647933960e-02
3.430000000000000000e+02 1.792344331741333008e+00 1.141945004463195801e+00 -4.470477253198623657e-02 -3.080928698182106018e-02 -2.265421859920024872e-02 4.804249852895736694e-02
3.440000000000000000e+02 2.139188528060913086e+00 4.050976932048797607e-01 -3.155806288123130798e-02 -6.854103878140449524e-03 -1.152365002781152725e-02 2.398353256285190582e-02
3.450000000000000000e+02 3.835110962390899658e-01 9.692106246948242188e-01 -2.967410022392868996e-03 -4.807113669812679291e-03 -2.332357224076986313e-03 2.438186435028910637e-03
3.460000000000000000e+02 6.883544325828552246e-01 4.208092093467712402e-01 8.656898717163130641e-05 -1.996737672016024590e-03 -5.730506381951272488e-04 2.411710098385810852e-03
3.470000000000000000e+02 2.913419246673583984e+00 4.108678102493286133e-01 -8.470292389392852783e-02 -7.287165615707635880e-03 -2.759702689945697784e-02 3.763991594314575195e-02
3.480000000000000000e+02 3.349244117736816406e+00 1.150867819786071777e+00 -1.574845910072326660e-01 -2.194224298000335693e-02 -5.382804945111274719e-02 1.137847825884819031e-01
3.490000000000000000e+02 4.135984420776367188e+00 1.153165102005004883e+00 -2.323465794324874878e-01 -2.454598248004913330e-02 -7.706777006387710571e-02 1.414631307125091553e-01
3.500000000000000000e+02 4.464198112487792969e+00 4.127224981784820557e-01 -2.638884186744689941e-01 -7.422558497637510300e-03 -8.139328658580780029e-02 5.830492451786994934e-02
3.510000000000000000e+02 6.014423370361328125e+00 4.051896929740905762e-01 -5.252987742424011230e-01 -1.007893029600381851e-02 -1.606133133172988892e-01 7.874823361635208130e-02
3.520000000000000000e+02 5.709211349487304688e+00 1.148327946662902832e+00 -4.302141368389129639e-01 -2.758022397756576538e-02 -1.373383104801177979e-01 1.967501044273376465e-01
3.530000000000000000e+02 6.495631694793701172e+00 1.145189642906188965e+00 -5.500530600547790527e-01 -2.825825661420822144e-02 -1.734934002161026001e-01 2.273094803094863892e-01
3.540000000000000000e+02 8.199295997619628906e+00 2.989732325077056885e-01 -1.043511271476745605e+00 -4.443757236003875732e-02 -3.263846635818481445e-01 6.320449709892272949e-02
3.550000000000000000e+02 8.644807815551757812e+00 8.411970138549804688e-01 -1.109495162963867188e+00 -6.690745055675506592e-02 -3.529207706451416016e-01 3.317689001560211182e-01
3.560000000000000000e+02 9.263586997985839844e+00 1.199647307395935059e+00 -1.039455652236938477e+00 -2.608274519443511963e-01 -3.900849223136901855e-01 5.204749703407287598e-01
3.570000000000000000e+02 9.642141342163085938e+00 3.155571222305297852e-01 -1.951489925384521484e+00 -1.780644804239273071e-01 -6.388663053512573242e-01 3.551974594593048096e-01
3.580000000000000000e+02 9.784010887145996094e+00 8.296472430229187012e-01 -1.257782220840454102e+00 -3.432484269142150879e-01 -4.803092181682586670e-01 4.826419949531555176e-01
3.590000000000000000e+02 8.034455299377441406e+00 1.110881567001342773e+00 -8.722361922264099121e-01 -7.504417002201080322e-02 -2.841840982437133789e-01 3.460396230220794678e-01
3.600000000000000000e+02 7.278706550598144531e+00 1.136415243148803711e+00 -6.883748769760131836e-01 -2.689663507044315338e-02 -2.145814597606658936e-01 2.646054029464721680e-01
3.610000000000000000e+02 1.090141892433166504e+00 1.160809159278869629e+00 -1.838740520179271698e-02 -2.728308923542499542e-02 -1.370114833116531372e-02 2.155674993991851807e-02
3.620000000000000000e+02 1.379211068153381348e+00 4.019450545310974121e-01 -7.224821485579013824e-03 -7.803195621818304062e-03 -4.508404992520809174e-03 8.686999790370464325e-03
3.630000000000000000e+02 5.239348888397216797e+00 4.083279371261596680e-01 -3.821978569030761719e-01 -2.693186281248927116e-03 -1.154673174023628235e-01 7.086594402790069580e-02
3.640000000000000000e+02 1.341039943695068359e+01 -2.338620662689208984e+00 -5.198701620101928711e-01 -2.195241153240203857e-01 -2.218182832002639771e-01 3.970204293727874756e-01
3.650000000000000000e+02 1.408835887908935547e+01 -2.666019439697265625e+00 -2.792455852031707764e-01 -2.762440145015716553e-01 -1.666468828916549683e-01 3.841108977794647217e-01
3.660000000000000000e+02 1.253375530242919922e+01 -2.448714971542358398e+00 -2.629582285881042480e-01 -6.771619617938995361e-02 -9.920232743024826050e-02 3.447274267673492432e-01
3.670000000000000000e+02 1.459168243408203125e+01 -2.904685974121093750e+00 1.487903296947479248e-02 -2.907223701477050781e-01 -8.275299519300460815e-02 3.237488865852355957e-01
3.680000000000000000e+02 1.439402770996093750e+01 -3.658876419067382812e+00 1.722307085990905762e+00 -4.198578596115112305e-01 3.907347619533538818e-01 2.710741460323333740e-01
3.690000000000000000e+02 1.472886180877685547e+01 -3.362571954727172852e+00 1.214154601097106934e+00 -3.286814689636230469e-01 2.656419575214385986e-01 1.827445328235626221e-01
3.700000000000000000e+02 1.499268150329589844e+01 -2.587761163711547852e+00 -9.154199361801147461e-01 -3.134491741657257080e-01 -3.686607480049133301e-01 5.730710625648498535e-01
3.710000000000000000e+02 1.297863292694091797e+01 -1.567511796951293945e+00 -1.096160054206848145e+00 -2.641388773918151855e-01 -4.080896973609924316e-01 5.778371691703796387e-01
3.720000000000000000e+02 1.491477203369140625e+01 -3.033826589584350586e+00 2.417725026607513428e-01 -1.357416212558746338e-01 3.180926665663719177e-02 2.280802428722381592e-01
3.730000000000000000e+02 1.495285701751708984e+01 -2.831522703170776367e+00 -3.139308393001556396e-01 -2.283952981233596802e-01 -1.626978516578674316e-01 4.422599673271179199e-01
3.740000000000000000e+02 1.427577972412109375e+01 -3.353683471679687500e+00 1.116701841354370117e+00 -3.206351697444915771e-01 2.388199865818023682e-01 2.701224684715270996e-01
3.750000000000000000e+02 1.459317207336425781e+01 -3.519057750701904297e+00 1.465149641036987305e+00 -3.397258222103118896e-01 3.376271426677703857e-01 8.563958108425140381e-02
3.760000000000000000e+02 1.431793403625488281e+01 -2.271437644958496094e+00 -1.053102016448974609e+00 -3.450630605220794678e-01 -4.194495379924774170e-01 5.914171338081359863e-01
3.770000000000000000e+02 1.483334445953369141e+01 -3.208662748336791992e+00 5.056058764457702637e-01 -2.486866265535354614e-01 7.707577943801879883e-02 2.250740826129913330e-01
3.780000000000000000e+02 1.363437080383300781e+01 -1.921005249023437500e+00 -1.087476015090942383e+00 -3.453230261802673340e-01 -4.298397302627563477e-01 6.229215264320373535e-01
3.790000000000000000e+02 1.378886032104492188e+01 -3.121461629867553711e+00 6.439281105995178223e-01 -2.293156236410140991e-01 1.243837401270866394e-01 3.109619319438934326e-01
3.800000000000000000e+02 1.316193008422851562e+01 -2.787582159042358398e+00 6.894602626562118530e-02 -1.642690747976303101e-01 -2.859691530466079712e-02 3.252884745597839355e-01
3.810000000000000000e+02 1.275902080535888672e+01 -2.003172874450683594e+00 -6.862930059432983398e-01 -1.244081407785415649e-01 -2.432103455066680908e-01 4.204842746257781982e-01
3.820000000000000000e+02 1.454139232635498047e+01 -3.169602632522583008e+00 5.869796872138977051e-01 -3.037843704223632812e-01 8.495859801769256592e-02 3.056090474128723145e-01
3.830000000000000000e+02 1.132753753662109375e+01 -3.143583059310913086e+00 2.203197479248046875e-01 1.303434818983078003e-01 1.051989644765853882e-01 3.431370258331298828e-01
3.840000000000000000e+02 1.184358882904052734e+01 -1.308139610290527344e+01 2.197685241699218750e-01 6.158401012420654297e+00 1.913450956344604492e+00 3.661953210830688477e+00
3.850000000000000000e+02 1.284968662261962891e+01 -1.506172370910644531e+01 4.775542736053466797e+00 3.917744874954223633e+00 2.607986211776733398e+00 4.394107818603515625e+00
3.860000000000000000e+02 1.648046684265136719e+01 -1.335361862182617188e+01 -5.870609760284423828e+00 2.439054250717163086e-01 -1.688011288642883301e+00 8.337382674217224121e-01
3.870000000000000000e+02 1.527787590026855469e+01 -1.380545330047607422e+01 -8.321879506111145020e-01 1.089550495147705078e+00 7.720876485109329224e-02 1.274917721748352051e+00
3.880000000000000000e+02 1.822570228576660156e+01 -6.251980304718017578e+00 6.245582580566406250e+00 1.109562683105468750e+01 5.202362537384033203e+00 3.763486623764038086e+00
3.890000000000000000e+02 1.768601226806640625e+01 -6.598057270050048828e+00 5.425068855285644531e+00 9.026329040527343750e+00 4.335419654846191406e+00 5.733710765838623047e+00
3.900000000000000000e+02 1.347363567352294922e+01 -3.575280427932739258e+00 1.295143246650695801e+00 -2.539186179637908936e-01 3.123674094676971436e-01 4.274328351020812988e-01
3.910000000000000000e+02 1.005175209045410156e+01 -2.014458656311035156e+00 -5.360269546508789062e-01 1.793500036001205444e-01 -1.070030853152275085e-01 1.439736783504486084e-01
3.920000000000000000e+02 7.896665573120117188e+00 -2.545571327209472656e+00 -3.854787945747375488e-01 2.300570309162139893e-01 -4.662652686238288879e-02 -5.285269021987915039e-02
3.930000000000000000e+02 4.140750885009765625e+00 -1.949945092201232910e+00 -3.252452611923217773e-01 -1.792412367649376392e-04 -9.762734919786453247e-02 -3.080845475196838379e-01
3.940000000000000000e+02 1.589373707771301270e+00 -1.083886432647705078e+01 -5.614359863102436066e-03 -1.523563861846923828e+00 -4.587534666061401367e-01 -4.798427224159240723e-01
3.950000000000000000e+02 1.733253836631774902e+00 -1.768525886535644531e+01 1.707872152328491211e-01 -2.129617929458618164e+00 -5.876492261886596680e-01 1.583421230316162109e-02
3.960000000000000000e+02 6.978085041046142578e-01 -3.184546089172363281e+01 -3.165615350008010864e-02 6.580584049224853516e+00 1.964678406715393066e+00 3.594039380550384521e-01
3.970000000000000000e+02 2.496058225631713867e+00 -3.816228866577148438e+01 -2.570044100284576416e-01 6.509865760803222656e+00 1.875858426094055176e+00 -1.279010921716690063e-01
3.980000000000000000e+02 7.639559507369995117e-01 -3.740932464599609375e+01 -1.251422464847564697e-01 7.540059566497802734e+00 2.224475145339965820e+00 -6.015126779675483704e-02
3.990000000000000000e+02 6.376489639282226562e+00 -3.848198699951171875e+01 -2.857749760150909424e-01 3.865743637084960938e+00 1.073990583419799805e+00 1.706494837999343872e-01
4.000000000000000000e+02 8.998477935791015625e+00 -3.905130767822265625e+01 -2.842388451099395752e-01 2.451581954956054688e+00 6.502029299736022949e-01 6.567802280187606812e-02
4.010000000000000000e+02 1.375116157531738281e+01 -3.024894714355468750e+01 -4.969600200653076172e+00 -1.096721887588500977e+00 -1.819896697998046875e+00 1.972429394721984863e+00
4.020000000000000000e+02 1.248911762237548828e+01 -2.962904548645019531e+01 -4.128610610961914062e+00 -1.312583923339843750e+00 -1.632358431816101074e+00 2.140998601913452148e+00
4.030000000000000000e+02 1.137310504913330078e+01 -2.877987480163574219e+01 -2.646187782287597656e+00 -9.513551592826843262e-01 -1.079262852668762207e+00 1.574758410453796387e+00
4.040000000000000000e+02 1.074225807189941406e+01 -2.984685897827148438e+01 -2.835005760192871094e+00 1.081586003303527832e+00 -5.260259509086608887e-01 6.685239076614379883e-01
4.050000000000000000e+02 1.036290836334228516e+01 -2.782446861267089844e+01 -1.444783449172973633e+00 5.064134001731872559e-01 -2.815110087394714355e-01 7.439610362052917480e-01
4.060000000000000000e+02 6.571933031082153320e-01 -2.617200088500976562e+01 1.929135061800479889e-02 1.482853412628173828e+00 4.506434202194213867e-01 7.985191345214843750e-01
4.070000000000000000e+02 8.529761314392089844e+00 -2.214286994934082031e+01 1.215442895889282227e+00 1.583269405364990234e+01 5.114440917968750000e+00 2.837515592575073242e+00
4.080000000000000000e+02 9.397637367248535156e+00 -1.952612304687500000e+01 3.041294336318969727e+00 1.421781253814697266e+01 5.177731990814208984e+00 5.911873817443847656e+00
4.090000000000000000e+02 8.370166778564453125e+00 -1.901588058471679688e+01 2.295471906661987305e+00 1.142217350006103516e+01 4.115293502807617188e+00 3.492143869400024414e+00
4.100000000000000000e+02 1.065792179107666016e+01 -1.695691108703613281e+01 4.738149642944335938e+00 1.093404102325439453e+01 4.701657295227050781e+00 6.115390777587890625e+00
4.110000000000000000e+02 1.162117767333984375e+01 -1.584669017791748047e+01 5.862711429595947266e+00 8.122749328613281250e+00 4.195638179779052734e+00 5.769670486450195312e+00
4.120000000000000000e+02 1.228765487670898438e+01 -1.410826110839843750e+01 1.958058357238769531e+00 6.092618942260742188e+00 2.415203332901000977e+00 4.353394508361816406e+00
4.130000000000000000e+02 5.258581042289733887e-01 -1.073639202117919922e+01 -1.799014396965503693e-02 -2.439672231674194336e+00 -7.372987270355224609e-01 -1.701644957065582275e-01
4.140000000000000000e+02 1.614092636108398438e+01 -3.706951522827148438e+01 -8.999159336090087891e-01 -4.787885248661041260e-01 -4.136113524436950684e-01 5.478054881095886230e-01
4.150000000000000000e+02 1.489939594268798828e+01 -3.886302185058593750e+01 -5.634635686874389648e-01 -1.713258624076843262e-01 -2.204368263483047485e-01 3.265728056430816650e-01
4.160000000000000000e+02 2.325119018554687500e+01 -3.159556388854980469e+01 -2.130790948867797852e+00 -1.484149880707263947e-02 -6.436896920204162598e-01 1.904095560312271118e-01
4.170000000000000000e+02 1.682490730285644531e+01 -3.290641784667968750e+01 -2.765316724777221680e+00 -6.689838767051696777e-01 -1.030290246009826660e+00 9.110572934150695801e-01
4.180000000000000000e+02 1.635814666748046875e+01 -3.105212974548339844e+01 -4.401829719543457031e+00 -3.830132186412811279e-01 -1.435452818870544434e+00 1.061223626136779785e+00
4.190000000000000000e+02 2.019393920898437500e+01 -3.945951080322265625e+01 -9.868782162666320801e-01 -6.066446900367736816e-01 -4.780568778514862061e-01 2.782358527183532715e-01
4.200000000000000000e+02 2.249979972839355469e+01 -3.730071640014648438e+01 -1.530173063278198242e+00 -4.392760992050170898e-01 -5.908347368240356445e-01 4.099003076553344727e-01
4.210000000000000000e+02 2.870516586303710938e+01 -3.183611106872558594e+01 -2.018524646759033203e+00 4.695379466284066439e-04 -6.054165363311767578e-01 1.986791044473648071e-01
4.220000000000000000e+02 3.293559646606445312e+01 -3.632530212402343750e+01 -1.737972378730773926e+00 -1.984458863735198975e-01 -5.809254646301269531e-01 -2.081284373998641968e-01
4.230000000000000000e+02 3.269641113281250000e+01 -3.254611587524414062e+01 -2.717488050460815430e+00 -1.099535375833511353e-01 -8.482324481010437012e-01 4.325964450836181641e-01
4.240000000000000000e+02 3.137169647216796875e+01 -3.225954437255859375e+01 -2.232286691665649414e+00 -1.210500765591859818e-02 -6.733174920082092285e-01 3.722805380821228027e-01
4.250000000000000000e+02 3.579644393920898438e+01 -3.622286224365234375e+01 -1.609091162681579590e+00 -9.753836691379547119e-02 -5.119888782501220703e-01 1.006636302918195724e-02
4.260000000000000000e+02 3.836076736450195312e+01 -4.103901672363281250e+01 -1.376140475273132324e+00 1.733791589736938477e+00 1.072953492403030396e-01 1.615285426378250122e-01
4.270000000000000000e+02 3.966113662719726562e+01 -3.206048202514648438e+01 -1.590042233467102051e+00 8.185492157936096191e-01 -2.314478904008865356e-01 2.206847220659255981e-01
4.280000000000000000e+02 3.541651535034179688e+01 -3.324519729614257812e+01 -3.763129711151123047e+00 -2.891988456249237061e-01 -1.215698599815368652e+00 -5.584127455949783325e-02
4.290000000000000000e+02 3.401884460449218750e+01 -3.289463043212890625e+01 -3.384976863861083984e+00 -1.569443494081497192e-01 -1.062576413154602051e+00 3.249496817588806152e-01
4.300000000000000000e+02 4.294840240478515625e+01 -3.846277236938476562e+01 -1.988434314727783203e+00 4.599939346313476562e+00 7.834515571594238281e-01 4.275373816490173340e-01
4.310000000000000000e+02 4.085690689086914062e+01 -3.140347480773925781e+01 -2.592901587486267090e-01 3.760693311691284180e+00 1.050420880317687988e+00 1.337380528450012207e+00
4.320000000000000000e+02 4.218672561645507812e+01 -2.937064933776855469e+01 8.901625275611877441e-01 9.805942535400390625e+00 3.208831548690795898e+00 1.666281819343566895e+00
4.330000000000000000e+02 5.004404067993164062e+01 -3.961592483520507812e+01 -1.924139261245727539e+00 6.704982280731201172e+00 1.434252858161926270e+00 -2.193169742822647095e-01
4.340000000000000000e+02 5.398634338378906250e+01 -2.990523719787597656e+01 2.282866954803466797e+00 7.399910926818847656e+00 2.904833316802978516e+00 -2.375505924224853516e+00
4.350000000000000000e+02 5.561393356323242188e+01 -2.950017166137695312e+01 6.481153368949890137e-01 8.761836051940917969e+00 2.822985410690307617e+00 1.445897370576858521e-01
4.360000000000000000e+02 5.518915557861328125e+01 -2.817757225036621094e+01 1.275593638420104980e+00 6.608289718627929688e+00 2.365164995193481445e+00 1.431939471513032913e-02
4.370000000000000000e+02 5.941715621948242188e+01 -2.469936752319335938e+01 1.969055175781250000e+00 1.283549547195434570e+00 9.757814407348632812e-01 1.539571285247802734e+00
4.380000000000000000e+02 5.579534530639648438e+01 -1.717381095886230469e+01 -3.194931745529174805e+00 -8.222562670707702637e-01 -1.205156326293945312e+00 8.524090647697448730e-01
4.390000000000000000e+02 5.472822570800781250e+01 -1.612930488586425781e+01 -4.088012218475341797e+00 -9.252389669418334961e-01 -1.503975391387939453e+00 1.364472150802612305e+00
4.400000000000000000e+02 5.190617370605468750e+01 -1.289913749694824219e+01 -3.426068648695945740e-02 2.872242689132690430e+00 8.513945937156677246e-01 -4.734044373035430908e-01
4.410000000000000000e+02 5.075922012329101562e+01 -1.357616519927978516e+01 -9.691166877746582031e-01 4.074369430541992188e+00 9.315758347511291504e-01 -7.897271960973739624e-02
4.420000000000000000e+02 4.846651077270507812e+01 -6.523436069488525391e+00 2.819970250129699707e-01 5.346670627593994141e+00 1.688600301742553711e+00 -1.547828316688537598e+00
4.430000000000000000e+02 4.599164581298828125e+01 -1.941465884447097778e-01 7.620631456375122070e-01 5.451800823211669922e+00 1.864159107208251953e+00 -2.316936969757080078e+00
4.440000000000000000e+02 4.538256835937500000e+01 1.032379746437072754e+00 9.730407595634460449e-01 5.599371910095214844e+00 1.971723914146423340e+00 -2.494983196258544922e+00
4.450000000000000000e+02 4.270627593994140625e+01 9.065480232238769531e+00 1.580531120300292969e+00 1.175493240356445312e+01 4.000638961791992188e+00 -3.268034219741821289e+00
4.460000000000000000e+02 4.106809616088867188e+01 1.183791542053222656e+01 1.308515548706054688e+00 1.081602668762207031e+01 3.637362718582153320e+00 -8.169623613357543945e-01
4.470000000000000000e+02 4.252889633178710938e+01 1.616808700561523438e+01 6.232562065124511719e-01 1.124557971954345703e+01 3.560650587081909180e+00 1.496033072471618652e+00
4.480000000000000000e+02 4.312796401977539062e+01 1.894776535034179688e+01 7.304279208183288574e-01 9.301605224609375000e+00 3.009609937667846680e+00 2.254856586456298828e+00
4.490000000000000000e+02 4.447158050537109375e+01 2.299846649169921875e+01 1.262888431549072266e+00 7.177760124206542969e+00 2.532194614410400391e+00 2.705201625823974609e+00
4.500000000000000000e+02 3.599906921386718750e+01 3.006912612915039062e+01 -5.339553952217102051e-01 5.223745346069335938e+00 1.406937003135681152e+00 -1.842973083257675171e-01
4.510000000000000000e+02 3.231269073486328125e+01 4.074996948242187500e+01 -1.170947551727294922e+00 4.660466194152832031e+00 1.046855688095092773e+00 -7.392717897891998291e-02
4.520000000000000000e+02 2.229351425170898438e+01 4.061622619628906250e+01 -6.974702477455139160e-01 3.388736963272094727e+00 8.073800802230834961e-01 -1.011821925640106201e-01
4.530000000000000000e+02 1.740551185607910156e+01 4.100532913208007812e+01 -4.566948413848876953e-01 2.484869718551635742e+00 6.084524393081665039e-01 -5.030106753110885620e-02
4.540000000000000000e+02 2.111833763122558594e+01 3.705598068237304688e+01 -5.771404504776000977e-01 3.173476934432983398e+00 7.789009809494018555e-01 -2.562746703624725342e-01
4.550000000000000000e+02 1.698948287963867188e+01 3.797695922851562500e+01 -4.167485535144805908e-01 2.416506528854370117e+00 5.999274253845214844e-01 -1.723093092441558838e-01
4.560000000000000000e+02 1.712230300903320312e+01 2.348721885681152344e+01 1.512074768543243408e-01 2.210210800170898438e+00 7.084254622459411621e-01 -4.689635932445526123e-01
4.570000000000000000e+02 1.582785034179687500e+01 6.261983871459960938e+00 3.128889203071594238e-01 1.818339109420776367e+00 6.393684148788452148e-01 -2.671639621257781982e-01
4.580000000000000000e+02 1.083905887603759766e+01 1.875144600868225098e+00 -6.028061509132385254e-01 -3.288466334342956543e-01 -2.794958353042602539e-01 4.159412384033203125e-01
4.590000000000000000e+02 1.459496307373046875e+01 -8.804121613502502441e-02 -6.778345704078674316e-01 1.949706971645355225e-01 -1.448591500520706177e-01 1.063013747334480286e-01
4.600000000000000000e+02 1.528235244750976562e+01 -4.758743047714233398e-01 -5.600290298461914062e-01 5.509268641471862793e-01 -2.730636857450008392e-03 -9.950550645589828491e-02
4.610000000000000000e+02 1.637681961059570312e+01 -1.191971540451049805e+00 -4.356892406940460205e-01 1.949385643005371094e+00 4.541089236736297607e-01 -5.554167032241821289e-01
4.620000000000000000e+02 1.916310691833496094e+01 -3.237078428268432617e+00 4.433001041412353516e+00 1.031906604766845703e+01 4.425620079040527344e+00 5.890382766723632812e+00
4.630000000000000000e+02 1.991303634643554688e+01 -3.567757368087768555e+00 6.959102630615234375e+00 7.351559162139892578e+00 4.293198585510253906e+00 5.657723426818847656e+00
4.640000000000000000e+02 2.027686309814453125e+01 -5.536151409149169922e+00 8.775025367736816406e+00 4.471017360687255859e+00 3.973812580108642578e+00 1.428575873374938965e+00
4.650000000000000000e+02 1.977452468872070312e+01 -4.338132858276367188e+00 1.046946907043457031e+01 6.362867832183837891e+00 5.049701213836669922e+00 4.745808124542236328e+00
4.660000000000000000e+02 2.984025382995605469e+01 -7.127200603485107422e+00 1.220348954200744629e+00 1.745991230010986328e+00 8.899020552635192871e-01 -1.332903265953063965e+00
4.670000000000000000e+02 3.958171844482421875e+01 -3.343903779983520508e+00 2.775240242481231689e-01 5.343782901763916016e+00 1.686392068862915039e+00 -1.844269156455993652e+00
4.680000000000000000e+02 4.590773010253906250e+01 -3.119582176208496094e+00 3.746306002140045166e-01 5.513782501220703125e+00 1.766523957252502441e+00 -2.092705249786376953e+00
4.690000000000000000e+02 4.879089736938476562e+01 -3.521080970764160156e+00 5.502426028251647949e-01 5.207934856414794922e+00 1.727453351020812988e+00 -1.852284431457519531e+00
4.700000000000000000e+02 5.653563690185546875e+01 -3.467600250244140625e+01 -1.899732202291488647e-01 6.436222076416015625e+00 1.873874664306640625e+00 -2.010938405990600586e+00
4.710000000000000000e+02 5.762382888793945312e+01 -4.097326278686523438e+01 -5.172998905181884766e-01 3.938195943832397461e+00 1.026268839836120605e+00 -5.091260075569152832e-01
4.720000000000000000e+02 5.720080566406250000e+01 -3.339590835571289062e+01 2.925656080245971680e+00 4.913108348846435547e+00 2.351629495620727539e+00 -3.380828142166137695e+00
4.730000000000000000e+02 5.797970581054687500e+01 -3.419683074951171875e+01 1.475712060928344727e+00 2.602276325225830078e+00 1.223396539688110352e+00 -2.319862604141235352e+00
4.740000000000000000e+02 5.640257263183593750e+01 -3.258293151855468750e+01 2.780954837799072266e+00 8.864003181457519531e+00 3.493487358093261719e+00 -3.854094743728637695e+00
4.750000000000000000e+02 5.547052001953125000e+01 -3.390108108520507812e+01 3.832870423793792725e-01 6.772988796234130859e+00 2.146882772445678711e+00 -1.211271166801452637e+00
4.760000000000000000e+02 6.266576004028320312e+01 -3.754003143310546875e+01 5.299109816551208496e-01 4.221168458461761475e-01 2.856083512306213379e-01 -3.500171005725860596e-01
4.770000000000000000e+02 6.420489501953125000e+01 -3.485597610473632812e+01 -1.653790473937988281e+00 3.969864454120397568e-03 -4.949461817741394043e-01 -1.935035586357116699e-01
4.780000000000000000e+02 6.566360473632812500e+01 -3.462362670898437500e+01 -1.443286538124084473e+00 9.670027345418930054e-02 -4.039759039878845215e-01 -1.217399537563323975e-01
4.790000000000000000e+02 6.290035247802734375e+01 -3.497380828857421875e+01 -1.660424709320068359e+00 -2.476079761981964111e-02 -5.055556297302246094e-01 -2.128951996564865112e-01
4.800000000000000000e+02 6.162683105468750000e+01 -3.531168365478515625e+01 -1.167641997337341309e+00 2.531881332397460938e-01 -2.743361592292785645e-01 -4.736457765102386475e-01
4.810000000000000000e+02 6.016076278686523438e+01 -3.551487350463867188e+01 -1.633182317018508911e-01 8.655601739883422852e-01 2.106725722551345825e-01 -1.142840027809143066e+00
4.820000000000000000e+02 7.004757690429687500e+01 -3.125966644287109375e+01 9.763298034667968750e-01 3.968964338302612305e+00 1.483588218688964844e+00 2.018560171127319336e+00
4.830000000000000000e+02 7.081372833251953125e+01 -3.236733245849609375e+01 -2.270864099264144897e-01 5.777835369110107422e+00 1.665224671363830566e+00 1.286674618721008301e+00
4.840000000000000000e+02 6.914263153076171875e+01 -3.220444869995117188e+01 5.172518491744995117e-01 2.120066165924072266e+00 7.911953926086425781e-01 1.019356131553649902e+00
4.850000000000000000e+02 7.898694610595703125e+01 -4.023533248901367188e+01 -2.131888270378112793e-01 8.260405540466308594e+00 2.414165019989013672e+00 1.358495950698852539e-01
4.860000000000000000e+02 7.729174041748046875e+01 -3.644679641723632812e+01 -2.121688127517700195e-01 7.706689357757568359e+00 2.248356103897094727e+00 -2.766107320785522461e-01
4.870000000000000000e+02 7.808602905273437500e+01 -2.932674980163574219e+01 1.099970638751983643e-01 6.971772670745849609e+00 2.124530792236328125e+00 -4.631381630897521973e-01
4.880000000000000000e+02 7.364238739013671875e+01 -2.550957107543945312e+01 1.236848354339599609e+00 9.265713691711425781e+00 3.150768518447875977e+00 2.490563094615936279e-01
4.890000000000000000e+02 7.821222686767578125e+01 -1.549191856384277344e+01 -9.172835201025009155e-02 7.818069934844970703e+00 2.317902326583862305e+00 -1.524172425270080566e-01
4.900000000000000000e+02 7.809722137451171875e+01 -8.455460548400878906e+00 -2.066834457218647003e-02 6.931451797485351562e+00 2.073235034942626953e+00 -4.258176088333129883e-01
4.910000000000000000e+02 7.812082672119140625e+01 -1.437049984931945801e+00 7.534042745828628540e-02 5.949969291687011719e+00 1.807592988014221191e+00 -3.050037026405334473e-01
4.920000000000000000e+02 7.820242309570312500e+01 5.477317810058593750e+00 7.263162732124328613e-02 6.012596607208251953e+00 1.825568556785583496e+00 3.140199184417724609e-01
4.930000000000000000e+02 7.815797424316406250e+01 1.244445610046386719e+01 -4.052358120679855347e-02 7.092818260192871094e+00 2.115688323974609375e+00 3.338776528835296631e-01
4.940000000000000000e+02 7.821138000488281250e+01 1.941871452331542969e+01 1.439502742141485214e-02 7.871505737304687500e+00 2.365770339965820312e+00 2.774030268192291260e-01
4.950000000000000000e+02 7.695162963867187500e+01 2.352672767639160156e+01 7.503385096788406372e-02 8.348863601684570312e+00 2.527169227600097656e+00 5.449323058128356934e-01
4.960000000000000000e+02 7.934939575195312500e+01 3.195943069458007812e+01 -5.253265611827373505e-03 1.060732841491699219e+01 3.180622577667236328e+00 1.513007581233978271e-01
4.970000000000000000e+02 7.668331146240234375e+01 3.941999816894531250e+01 -9.459233283996582031e-02 9.896339416503906250e+00 2.940524339675903320e+00 8.836460299789905548e-03
4.980000000000000000e+02 7.912628173828125000e+01 3.745670318603515625e+01 -4.397213086485862732e-02 1.086944675445556641e+01 3.247642517089843750e+00 -8.881361782550811768e-02
4.990000000000000000e+02 7.200814819335937500e+01 4.126307296752929688e+01 4.281098023056983948e-02 5.718880176544189453e+00 1.728507280349731445e+00 -9.998732246458530426e-03
5.000000000000000000e+02 7.062702941894531250e+01 3.637152099609375000e+01 -4.862922430038452148e-01 4.760612964630126953e+00 1.282296180725097656e+00 -2.230755686759948730e-01
5.010000000000000000e+02 6.774796295166015625e+01 3.109691429138183594e+01 -2.644432783126831055e-01 1.558547616004943848e+00 3.882313072681427002e-01 -3.168270885944366455e-01
5.020000000000000000e+02 6.680973815917968750e+01 3.218564224243164062e+01 -7.307072877883911133e-01 4.637303948402404785e-01 -8.009306341409683228e-02 2.536814510822296143e-01
5.030000000000000000e+02 6.855063629150390625e+01 2.987241744995117188e+01 1.932258009910583496e-01 3.444706916809082031e+00 1.091379880905151367e+00 -8.389078974723815918e-01
5.040000000000000000e+02 6.912262725830078125e+01 2.851845169067382812e+01 3.525931239128112793e-01 5.317012786865234375e+00 1.700881719589233398e+00 -1.045452833175659180e+00
5.050000000000000000e+02 6.973670959472656250e+01 2.568674468994140625e+01 2.594169676303863525e-01 8.056921958923339844e+00 2.494901657104492188e+00 -6.979605555534362793e-01
5.060000000000000000e+02 7.938880920410156250e+01 2.365831375122070312e+01 1.438666484318673611e-03 8.505179405212402344e+00 2.551985263824462891e+00 1.683595180511474609e-01
5.070000000000000000e+02 6.226266479492187500e+01 3.551869964599609375e+01 -1.489511251449584961e+00 -3.145345747470855713e-01 -5.412137508392333984e-01 6.189108490943908691e-01
5.080000000000000000e+02 6.018998336791992188e+01 3.879152679443359375e+01 -2.514347732067108154e-01 -4.145332276821136475e-01 -1.997904032468795776e-01 1.792231649160385132e-01
5.090000000000000000e+02 6.354730224609375000e+01 3.717910766601562500e+01 -4.419459998607635498e-01 -2.959983348846435547e-01 -2.213833034038543701e-01 4.558866322040557861e-01
5.100000000000000000e+02 6.361470794677734375e+01 3.499830627441406250e+01 -1.843936800956726074e+00 -4.985614418983459473e-01 -7.027494907379150391e-01 8.506706953048706055e-01
5.110000000000000000e+02 6.492636871337890625e+01 3.649895477294921875e+01 -4.658607244491577148e-01 3.720213174819946289e-01 -2.815181948244571686e-02 1.150848120450973511e-01
5.120000000000000000e+02 5.738815689086914062e+01 3.635374069213867188e+01 -1.135791182518005371e+00 -1.421425044536590576e-01 -3.833801150321960449e-01 4.968514293432235718e-02
5.130000000000000000e+02 5.931589126586914062e+01 3.640567016601562500e+01 -1.311481237411499023e+00 -2.430763840675354004e-01 -4.663673043251037598e-01 2.388920783996582031e-01
5.140000000000000000e+02 6.089985656738281250e+01 3.601587295532226562e+01 -1.303972959518432617e+00 -2.472875863313674927e-01 -4.653781652450561523e-01 4.321051537990570068e-01
5.150000000000000000e+02 5.409650802612304688e+01 3.849090576171875000e+01 -4.152108430862426758e-01 5.948683619499206543e-01 5.389726161956787109e-02 3.221168518066406250e-01
5.160000000000000000e+02 4.996491241455078125e+01 3.591900634765625000e+01 -4.564169943332672119e-01 1.977435231208801270e+00 4.563054740428924561e-01 4.764342010021209717e-01
5.170000000000000000e+02 4.913205337524414062e+01 3.037396812438964844e+01 7.671990394592285156e-01 2.028767585754394531e+00 8.387899994850158691e-01 1.245044469833374023e+00
5.180000000000000000e+02 5.117297744750976562e+01 3.235606002807617188e+01 3.146443367004394531e-01 8.979480266571044922e-01 3.637777268886566162e-01 5.835351347923278809e-01
5.190000000000000000e+02 4.915822219848632812e+01 3.263852310180664062e+01 3.689867211505770683e-03 2.217034578323364258e+00 6.662173271179199219e-01 8.287912011146545410e-01
5.200000000000000000e+02 5.346677398681640625e+01 3.415732574462890625e+01 -2.103082388639450073e-01 2.402286231517791748e-01 8.976115845143795013e-03 8.719454705715179443e-02
5.210000000000000000e+02 5.583687210083007812e+01 3.562443542480468750e+01 -7.763071060180664062e-01 -9.041221439838409424e-02 -2.600157856941223145e-01 -9.180714935064315796e-02
5.220000000000000000e+02 4.552391052246093750e+01 3.757695007324218750e+01 -9.376997947692871094e-01 3.524264574050903320e+00 7.759694457054138184e-01 3.747911155223846436e-01
5.230000000000000000e+02 4.205654144287109375e+01 4.062974548339843750e+01 -1.239365696907043457e+00 4.262482643127441406e+00 9.069350361824035645e-01 4.946477711200714111e-02
5.240000000000000000e+02 4.584436416625976562e+01 3.158510398864746094e+01 -1.851477921009063721e-01 3.845099449157714844e+00 1.097985506057739258e+00 9.270682334899902344e-01
5.250000000000000000e+02 4.506800079345703125e+01 2.429972457885742188e+01 1.282378673553466797e+00 6.086345195770263672e+00 2.210617065429687500e+00 2.611838102340698242e+00
5.260000000000000000e+02 4.572035217285156250e+01 2.558804512023925781e+01 1.196951389312744141e+00 5.150993347167968750e+00 1.904383420944213867e+00 2.396443128585815430e+00
5.270000000000000000e+02 4.723400878906250000e+01 2.811586761474609375e+01 1.157681107521057129e+00 3.624680280685424805e+00 1.434708476066589355e+00 1.948351263999938965e+00
5.280000000000000000e+02 4.675844955444335938e+01 3.278029632568359375e+01 -3.303933441638946533e-01 3.361344814300537109e+00 9.092854261398315430e-01 8.308815360069274902e-01
5.290000000000000000e+02 3.717670822143554688e+01 4.060317230224609375e+01 -1.291648149490356445e+00 4.715966701507568359e+00 1.027295589447021484e+00 -1.627422682940959930e-02
5.300000000000000000e+02 4.203872299194335938e+01 3.725107574462890625e+01 -1.127430796623229980e+00 4.340868949890136719e+00 9.640313982963562012e-01 1.877249181270599365e-01
5.310000000000000000e+02 3.787795639038085938e+01 2.923196411132812500e+01 -4.042314887046813965e-01 5.414148807525634766e+00 1.502975106239318848e+00 -9.528432972729206085e-03
5.320000000000000000e+02 1.266808128356933594e+01 4.115150833129882812e+01 -2.741327583789825439e-01 1.619201064109802246e+00 4.035204648971557617e-01 -5.037207901477813721e-02
5.330000000000000000e+02 6.169324874877929688e+00 3.809339141845703125e+01 -7.332120090723037720e-02 5.130113363265991211e-01 1.319070458412170410e-01 -7.535631209611892700e-02
5.340000000000000000e+02 7.762556552886962891e+00 3.247050094604492188e+01 -6.181852892041206360e-02 6.814158558845520020e-01 1.858792006969451904e-01 -2.189126461744308472e-01
5.350000000000000000e+02 7.481013298034667969e+00 1.587559223175048828e+01 1.933661252260208130e-01 1.789659708738327026e-01 1.116996258497238159e-01 -6.329934298992156982e-02
5.360000000000000000e+02 7.948841094970703125e+00 6.834946632385253906e+00 1.874707639217376709e-01 -8.851167559623718262e-02 2.968772687017917633e-02 3.245555460453033447e-01
5.370000000000000000e+02 5.904325008392333984e+00 1.911639928817749023e+00 -3.920863270759582520e-01 -6.337955594062805176e-02 -1.366397589445114136e-01 2.998417913913726807e-01
5.380000000000000000e+02 1.164343261718750000e+01 1.434965372085571289e+00 -7.282757759094238281e-01 -3.132151067256927490e-01 -3.124472498893737793e-01 3.885807693004608154e-01
5.390000000000000000e+02 2.007552146911621094e+00 4.165404891967773438e+01 -7.933517545461654663e-02 -1.336341202259063721e-01 -6.389078497886657715e-02 -2.247928641736507416e-02
5.400000000000000000e+02 4.229022979736328125e+00 3.801676559448242188e+01 -8.860993199050426483e-03 6.256832927465438843e-02 1.611219905316829681e-02 -2.174954116344451904e-02
5.410000000000000000e+02 2.354853868484497070e+00 3.570292663574218750e+01 5.028708837926387787e-03 -1.739123165607452393e-01 -5.066508054733276367e-02 -7.266008853912353516e-02
5.420000000000000000e+02 2.056406736373901367e+00 2.901670455932617188e+01 1.077239401638507843e-03 -4.372799098491668701e-01 -1.308608055114746094e-01 -9.243869036436080933e-02
5.430000000000000000e+02 2.010114192962646484e+00 2.337782859802246094e+01 8.022932335734367371e-03 -6.659019589424133301e-01 -1.973637193441390991e-01 -8.011990785598754883e-02
5.440000000000000000e+02 1.832558393478393555e+00 1.770536994934082031e+01 1.591202616691589355e-02 -8.430063128471374512e-01 -2.481282800436019897e-01 -2.222588285803794861e-02
5.450000000000000000e+02 5.984875559806823730e-01 6.416821479797363281e+00 3.080179216340184212e-03 -4.865764379501342773e-01 -1.450488865375518799e-01 7.359865307807922363e-02
5.460000000000000000e+02 1.765806078910827637e+00 9.328657150268554688e+00 2.596400491893291473e-02 -6.432284712791442871e-01 -1.851793378591537476e-01 1.494128853082656860e-01
5.470000000000000000e+02 1.815058112144470215e+00 3.766371965408325195e+00 -3.624230995774269104e-02 -1.892874836921691895e-01 -6.765893846750259399e-02 1.609745025634765625e-01
5.480000000000000000e+02 1.958444976806640625e+01 -5.767143726348876953e+00 9.484615325927734375e+00 6.982971668243408203e+00 4.940276145935058594e+00 7.634978890419006348e-01
5.490000000000000000e+02 1.960399436950683594e+01 -5.054010868072509766e+00 1.153332042694091797e+01 6.483344078063964844e+00 5.404999256134033203e+00 2.170261621475219727e+00
5.500000000000000000e+02 6.566619110107421875e+01 -2.198059463500976562e+01 -1.402983069419860840e+00 2.015125006437301636e-01 -3.604411780834197998e-01 -1.207844913005828857e-01
5.510000000000000000e+02 6.430321502685546875e+01 -2.094157981872558594e+01 -6.815293431282043457e-01 8.204407691955566406e-01 4.167343303561210632e-02 9.912472963333129883e-01
5.520000000000000000e+02 5.940833282470703125e+01 -1.587613773345947266e+01 -8.778702020645141602e-01 3.630262315273284912e-01 -1.544532030820846558e-01 5.118917226791381836e-01
5.530000000000000000e+02 7.004406738281250000e+01 -2.076564979553222656e+01 -1.724967360496520996e+00 3.545080184936523438e+00 5.460338592529296875e-01 -1.530355095863342285e+00
5.540000000000000000e+02 7.055028533935546875e+01 -2.175845718383789062e+01 -7.443929314613342285e-01 4.345777988433837891e+00 1.080415487289428711e+00 -1.401627421379089355e+00
5.550000000000000000e+02 7.209619903564453125e+01 -2.211168289184570312e+01 -1.206842303276062012e+00 8.574513435363769531e+00 2.210301399230957031e+00 -1.831743121147155762e-01
5.560000000000000000e+02 7.165033721923828125e+01 -2.393828582763671875e+01 1.402963161468505859e+00 1.144184970855712891e+01 3.853443861007690430e+00 -2.004497766494750977e+00
5.570000000000000000e+02 7.187274169921875000e+01 -2.597106361389160156e+01 6.962738633155822754e-01 1.316335487365722656e+01 4.157888889312744141e+00 -2.523429393768310547e-01
5.580000000000000000e+02 7.158773803710937500e+01 -2.839472389221191406e+01 1.346251964569091797e+00 1.204827594757080078e+01 4.018358230590820312e+00 2.209007263183593750e+00
5.590000000000000000e+02 7.124867248535156250e+01 -3.364817810058593750e+01 -8.879243135452270508e-01 5.776073932647705078e+00 1.466444849967956543e+00 7.304299473762512207e-01
5.600000000000000000e+02 7.925378417968750000e+01 -3.349599075317382812e+01 -7.440841943025588989e-02 7.831970214843750000e+00 2.327268600463867188e+00 -2.426637709140777588e-01
5.610000000000000000e+02 5.837244415283203125e+01 -2.555309867858886719e+01 1.736201047897338867e+00 1.760709285736083984e+00 1.049073100090026855e+00 1.531961202621459961e+00
5.620000000000000000e+02 6.052059173583984375e+01 -2.390137863159179688e+01 1.971483111381530762e+00 1.066196322441101074e+00 9.113038182258605957e-01 1.373207092285156250e+00
5.630000000000000000e+02 6.306276321411132812e+01 -2.266367340087890625e+01 2.716207504272460938e-01 4.378073811531066895e-01 2.128284424543380737e-01 6.722690463066101074e-01
5.640000000000000000e+02 6.441466522216796875e+01 -2.242160415649414062e+01 -5.200158357620239258e-01 2.784774005413055420e-01 -7.246152311563491821e-02 2.356667965650558472e-01
5.650000000000000000e+02 7.086981201171875000e+01 2.590260124206542969e+01 3.286214470863342285e-01 7.619804382324218750e+00 2.384527683258056641e+00 -5.468896776437759399e-02
5.660000000000000000e+02 6.993989562988281250e+01 2.004652023315429688e+01 6.828156299889087677e-03 8.991020202636718750e+00 2.699354410171508789e+00 1.087762713432312012e-01
5.670000000000000000e+02 7.939698028564453125e+01 1.669304656982421875e+01 1.604336546733975410e-03 7.304139137268066406e+00 2.191723108291625977e+00 1.084826365113258362e-01
5.680000000000000000e+02 6.991976928710937500e+01 1.584877300262451172e+01 2.729638945311307907e-03 9.786403656005859375e+00 2.936740159988403320e+00 1.823974251747131348e-01
5.690000000000000000e+02 6.980248260498046875e+01 1.033400630950927734e+01 -2.022961974143981934e-01 8.660035133361816406e+00 2.537321567535400391e+00 -5.777853727340698242e-01
5.700000000000000000e+02 7.939060211181640625e+01 9.718671798706054688e+00 1.221071742475032806e-02 6.064807891845703125e+00 1.823105573654174805e+00 1.598119139671325684e-01
5.710000000000000000e+02 6.997132873535156250e+01 8.958792686462402344e+00 5.940674990415573120e-02 1.038410758972167969e+01 3.133054256439208984e+00 -9.946074485778808594e-01
5.720000000000000000e+02 7.013352203369140625e+01 7.567200660705566406e+00 3.599216938018798828e-01 1.238835048675537109e+01 3.824481487274169922e+00 -7.700243592262268066e-01
5.730000000000000000e+02 7.020952606201171875e+01 1.890806555747985840e+00 5.589989423751831055e-01 1.402090072631835938e+01 4.373970031738281250e+00 1.086457371711730957e+00
5.740000000000000000e+02 6.969612121582031250e+01 -9.571071863174438477e-01 7.681424617767333984e-01 1.135235309600830078e+01 3.636148691177368164e+00 2.440586566925048828e+00
5.750000000000000000e+02 6.710408020019531250e+01 -7.583452701568603516e+00 9.163161516189575195e-01 5.018386840820312500e+00 1.780410885810852051e+00 2.038256406784057617e+00
5.760000000000000000e+02 6.770419311523437500e+01 -6.296187877655029297e+00 9.113585352897644043e-01 5.933134078979492188e+00 2.053347826004028320e+00 2.212965488433837891e+00
5.770000000000000000e+02 6.672767639160156250e+01 -1.069344711303710938e+01 8.970270156860351562e-01 3.881962537765502930e+00 1.433696866035461426e+00 1.437898397445678711e+00
5.780000000000000000e+02 6.574956512451171875e+01 -1.008685779571533203e+01 1.041685104370117188e+00 3.474066495895385742e+00 1.354725480079650879e+00 1.787873625755310059e+00
5.790000000000000000e+02 6.496851348876953125e+01 -1.129664897918701172e+01 1.306143641471862793e+00 2.891854763031005859e+00 1.259399533271789551e+00 1.737275838851928711e+00
5.800000000000000000e+02 6.306350326538085938e+01 -1.960248374938964844e+01 -4.351813197135925293e-01 1.242321610450744629e+00 2.421420812606811523e-01 1.546845078468322754e+00
5.810000000000000000e+02 6.829557800292968750e+01 -2.139032363891601562e+01 -3.309186697006225586e+00 -3.853934584185481071e-03 -9.939121603965759277e-01 -1.796500086784362793e-01
5.820000000000000000e+02 6.941607666015625000e+01 -1.992475128173828125e+01 -9.795584678649902344e-01 2.674763441085815430e+00 5.085614919662475586e-01 -1.382987022399902344e+00
5.830000000000000000e+02 6.694078826904296875e+01 -2.155994987487792969e+01 -3.050592422485351562e+00 -1.779441833496093750e-01 -9.685609936714172363e-01 -3.018478155136108398e-01
5.840000000000000000e+02 1.855250549316406250e+01 -1.311269855499267578e+01 -1.040723133087158203e+01 -2.673015892505645752e-01 -3.202359676361083984e+00 1.053770542144775391e+00
5.850000000000000000e+02 2.251067161560058594e+01 -1.390854263305664062e+01 -9.590352058410644531e+00 -1.003613829612731934e+00 -3.178189754486083984e+00 2.581857919692993164e+00
5.860000000000000000e+02 2.297080230712890625e+01 -1.276198577880859375e+01 -6.382482528686523438e+00 -4.365084171295166016e-01 -2.045697450637817383e+00 3.908109366893768311e-01
5.870000000000000000e+02 3.028094863891601562e+01 -1.599830818176269531e+01 -2.754951715469360352e+00 3.480762541294097900e-01 -7.220626473426818848e-01 3.118811249732971191e-01
5.880000000000000000e+02 3.250763702392578125e+01 -1.777044486999511719e+01 -2.533327341079711914e+00 1.317470222711563110e-01 -7.204741239547729492e-01 1.857580095529556274e-01
5.890000000000000000e+02 3.265242767333984375e+01 -1.656476020812988281e+01 -2.030591726303100586e+00 3.889110982418060303e-01 -4.925042092800140381e-01 -9.744035452604293823e-02
5.900000000000000000e+02 3.623404693603515625e+01 -1.547353649139404297e+01 -3.502346277236938477e-01 2.339262008666992188e+00 5.967082381248474121e-01 -2.594762802124023438e+00
5.910000000000000000e+02 3.705169677734375000e+01 -1.395480728149414062e+01 -5.174907445907592773e-01 3.646435022354125977e+00 9.386832714080810547e-01 -2.936717271804809570e+00
5.920000000000000000e+02 3.591147232055664062e+01 -1.425794410705566406e+01 -4.838124811649322510e-01 2.580242633819580078e+00 6.289290785789489746e-01 -2.418729305267333984e+00
5.930000000000000000e+02 2.836999511718750000e+01 -1.404002380371093750e+01 -3.098501443862915039e+00 5.915871858596801758e-01 -7.520742416381835938e-01 2.180519327521324158e-02
5.940000000000000000e+02 2.948402404785156250e+01 -1.447052478790283203e+01 -2.680262804031372070e+00 6.366996169090270996e-01 -6.130689382553100586e-01 -8.548831939697265625e-02
5.950000000000000000e+02 2.557807922363281250e+01 -1.395420551300048828e+01 -5.042291164398193359e+00 7.560662180185317993e-02 -1.490005373954772949e+00 7.869210839271545410e-01
5.960000000000000000e+02 2.870132637023925781e+01 -1.673118019104003906e+01 -3.404142856597900391e+00 -3.275903463363647461e-01 -1.119519948959350586e+00 1.131199002265930176e+00
5.970000000000000000e+02 3.785125732421875000e+01 -1.801014900207519531e+01 2.320682764053344727e+00 2.349679708480834961e+00 1.401108741760253906e+00 -2.593590497970581055e+00
5.980000000000000000e+02 3.977059555053710938e+01 -1.905750465393066406e+01 4.203038692474365234e+00 6.245490074157714844e+00 3.134558439254760742e+00 -4.867497444152832031e+00
5.990000000000000000e+02 5.175270462036132812e+01 -1.484636974334716797e+01 -1.402433514595031738e+00 3.064836025238037109e+00 4.987207353115081787e-01 5.431977286934852600e-02
6.000000000000000000e+02 4.119521331787109375e+01 -1.845825195312500000e+01 1.544532656669616699e+00 8.932300567626953125e+00 3.143049955368041992e+00 -4.041744709014892578e+00
6.010000000000000000e+02 4.242726135253906250e+01 -2.407531738281250000e+01 5.572929978370666504e-01 1.680031204223632812e+01 5.207281112670898438e+00 -1.742730975151062012e+00
6.020000000000000000e+02 4.861170196533203125e+01 -3.186360359191894531e+01 3.658143579959869385e-01 6.729421138763427734e+00 2.128570556640625000e+00 -1.683256149291992188e+00
6.030000000000000000e+02 5.106589508056640625e+01 -3.020717430114746094e+01 1.631401181221008301e+00 6.203649520874023438e+00 2.350515127182006836e+00 -1.982897639274597168e+00
6.040000000000000000e+02 4.242799758911132812e+01 -2.280518913269042969e+01 2.861656904220581055e+00 1.840051841735839844e+01 6.378652572631835938e+00 -4.425555706024169922e+00
6.050000000000000000e+02 4.126247024536132812e+01 -3.331079864501953125e+01 -2.358161926269531250e+00 4.564276695251464844e+00 6.618345379829406738e-01 9.105851650238037109e-01
6.060000000000000000e+02 2.435561370849609375e+01 -1.325923919677734375e+01 -5.600896835327148438e+00 -8.513133227825164795e-02 -1.705808520317077637e+00 4.489717781543731689e-01
6.070000000000000000e+02 4.570402145385742188e+01 -1.008782863616943359e+01 -7.973704338073730469e-01 6.191577911376953125e+00 1.618262171745300293e+00 -1.263451814651489258e+00
6.080000000000000000e+02 5.050617218017578125e+01 -8.818520545959472656e+00 2.771750390529632568e-01 4.922588348388671875e+00 1.559929013252258301e+00 -1.329786777496337891e+00
6.090000000000000000e+02 4.056953048706054688e+01 -2.001862716674804688e+01 5.048682689666748047e+00 7.881607055664062500e+00 3.879086971282958984e+00 -6.630658149719238281e+00
6.100000000000000000e+02 4.687436676025390625e+01 -9.784818649291992188e+00 -5.222463607788085938e-01 5.840227127075195312e+00 1.595394253730773926e+00 -1.125048637390136719e+00
6.110000000000000000e+02 5.739084482192993164e-01 -1.773569488525390625e+01 2.826632373034954071e-02 -4.454766750335693359e+00 -1.327950119972229004e+00 -1.562668010592460632e-02
6.120000000000000000e+02 6.373544335365295410e-01 -2.334777450561523438e+01 5.645320937037467957e-02 -1.720904231071472168e+00 -4.993353188037872314e-01 6.555933356285095215e-01
6.130000000000000000e+02 8.652602195739746094e+00 -2.574515342712402344e+01 3.404176533222198486e-01 9.140338897705078125e+00 2.844226837158203125e+00 -1.579160243272781372e-01
6.140000000000000000e+02 6.782209277153015137e-01 -3.042565155029296875e+01 -9.392615407705307007e-02 5.753399372100830078e+00 1.697842001914978027e+00 4.876189529895782471e-01
6.150000000000000000e+02 7.936601257324218750e+01 -2.649138450622558594e+01 9.573538601398468018e-02 6.013016700744628906e+00 1.832625627517700195e+00 2.424791455268859863e-02
6.160000000000000000e+02 7.941180419921875000e+01 -2.092425918579101562e+01 -3.761162236332893372e-02 7.614844799041748047e+00 2.273169994354248047e+00 2.109415829181671143e-01
6.170000000000000000e+02 5.161005401611328125e+01 -2.825116157531738281e+01 1.786241769790649414e+00 6.121876239776611328e+00 2.372435331344604492e+00 -2.281999111175537109e+00
6.180000000000000000e+02 5.231522750854492188e+01 -2.633847808837890625e+01 1.578707695007324219e+00 5.414133548736572266e+00 2.097852468490600586e+00 -1.783693909645080566e+00
6.190000000000000000e+02 5.271573638916015625e+01 -1.410912227630615234e+01 -8.991537690162658691e-01 1.057437777519226074e+00 4.748520255088806152e-02 1.443061083555221558e-01
6.200000000000000000e+02 5.077713394165039062e+01 -1.571251392364501953e+01 -1.533187150955200195e+00 4.273897171020507812e+00 8.222129940986633301e-01 -2.482192367315292358e-01
6.210000000000000000e+02 5.738181686401367188e+01 -2.645888710021972656e+01 1.472583651542663574e+00 2.449766635894775391e+00 1.176705121994018555e+00 1.705249547958374023e+00
6.220000000000000000e+02 7.937149810791015625e+01 -1.258341503143310547e+01 -1.286697573959827423e-02 7.842160224914550781e+00 2.348788022994995117e+00 -1.246175765991210938e-01
6.230000000000000000e+02 6.926700592041015625e+01 -2.326291561126708984e+00 7.964060306549072266e-01 9.821073532104492188e+00 3.185243844985961914e+00 2.523314952850341797e+00
6.240000000000000000e+02 7.937033081054687500e+01 -5.594296455383300781e+00 9.923794306814670563e-03 6.161694526672363281e+00 1.851485490798950195e+00 -1.772189587354660034e-01
6.250000000000000000e+02 7.130435943603515625e+01 6.278835773468017578e+00 4.624527096748352051e-01 1.129199504852294922e+01 3.526334524154663086e+00 -1.929292641580104828e-02
6.260000000000000000e+02 7.939462280273437500e+01 2.757529497146606445e+00 2.041406929492950439e-02 4.782178401947021484e+00 1.440777778625488281e+00 2.529565803706645966e-02
6.270000000000000000e+02 7.937985229492187500e+01 3.058052062988281250e+01 -1.129686646163463593e-02 1.031519603729248047e+01 3.091169595718383789e+00 1.698559671640396118e-01
6.280000000000000000e+02 2.920996665954589844e+01 3.072540664672851562e+01 -4.898003339767456055e-01 4.418381214141845703e+00 1.178574323654174805e+00 -4.812230467796325684e-01
6.290000000000000000e+02 3.338483810424804688e+01 2.478411293029785156e+01 1.689931005239486694e-01 5.288879394531250000e+00 1.637361764907836914e+00 -4.109139442443847656e-01
6.300000000000000000e+02 3.210092163085937500e+01 2.056337165832519531e+01 7.365023493766784668e-01 5.221987724304199219e+00 1.787547111511230469e+00 -4.139368832111358643e-01
6.310000000000000000e+02 3.283372497558593750e+01 1.171140098571777344e+01 1.670671463012695312e+00 5.475005626678466797e+00 2.143702983856201172e+00 1.909183710813522339e-02
6.320000000000000000e+02 3.344128799438476562e+01 3.820239543914794922e+00 1.670410990715026855e+00 4.896501541137695312e+00 1.970073819160461426e+00 1.173751503229141235e-01
6.330000000000000000e+02 2.752092361450195312e+01 -7.384779453277587891e+00 1.701796770095825195e+00 1.109744548797607422e+00 8.434624075889587402e-01 -1.128551006317138672e+00
6.340000000000000000e+02 2.422096061706542969e+01 3.504072570800781250e+01 -6.205521821975708008e-01 3.658866405487060547e+00 9.114942550659179688e-01 -3.370400071144104004e-01
6.350000000000000000e+02 2.196176910400390625e+01 3.240888977050781250e+01 -3.868972659111022949e-01 3.211363554000854492e+00 8.473399281501770020e-01 -4.286651611328125000e-01
6.360000000000000000e+02 2.304091453552246094e+01 2.516143226623535156e+01 8.856122195720672607e-02 3.375600814819335938e+00 1.039248585700988770e+00 -5.515753626823425293e-01
6.370000000000000000e+02 2.649099731445312500e+01 1.502223300933837891e+01 9.620953202247619629e-01 4.059186935424804688e+00 1.506384730339050293e+00 -1.600276082754135132e-01
6.380000000000000000e+02 2.725550270080566406e+01 1.286884689331054688e+01 1.122331976890563965e+00 4.199674129486083984e+00 1.596601843833923340e+00 1.619207486510276794e-02
6.390000000000000000e+02 2.235172843933105469e+01 -6.661575436592102051e-01 2.220076322555541992e+00 4.642058372497558594e+00 2.058640480041503906e+00 2.799373865127563477e+00
6.400000000000000000e+02 1.628787612915039062e+01 3.497132492065429688e+01 -3.222930431365966797e-01 2.278069019317626953e+00 5.867328047752380371e-01 -2.963737845420837402e-01
6.410000000000000000e+02 7.584727764129638672e+00 2.387124633789062500e+01 4.779798910021781921e-02 4.365117251873016357e-01 1.452929079532623291e-01 -2.513777315616607666e-01
6.420000000000000000e+02 1.810174179077148438e+01 2.547145652770996094e+01 5.425295233726501465e-02 2.438233613967895508e+00 7.477459907531738281e-01 -4.964586198329925537e-01
6.430000000000000000e+02 2.187459373474121094e+01 2.321267700195312500e+01 2.141757160425186157e-01 3.134421825408935547e+00 1.004579186439514160e+00 -5.160576701164245605e-01
6.440000000000000000e+02 2.912881660461425781e+01 2.239670562744140625e+01 4.165217876434326172e-01 4.551765441894531250e+00 1.490486145019531250e+00 -5.194798111915588379e-01
6.450000000000000000e+02 3.889179229736328125e+01 2.657626152038574219e+01 -8.098974823951721191e-03 5.827364921569824219e+00 1.745779871940612793e+00 2.026989161968231201e-01
6.460000000000000000e+02 3.959736633300781250e+01 2.833690834045410156e+01 -2.427668571472167969e-01 5.545572757720947266e+00 1.590841770172119141e+00 2.555165588855743408e-01
6.470000000000000000e+02 2.164769172668457031e+00 3.170832252502441406e+01 -1.075978670269250870e-02 -3.278400897979736328e-01 -1.015799567103385925e-01 -8.612034469842910767e-02
6.480000000000000000e+02 6.633104324340820312e+00 1.735628128051757812e+01 1.470515429973602295e-01 8.023065328598022461e-02 6.818465888500213623e-02 -8.995074778795242310e-02
6.490000000000000000e+02 1.311272335052490234e+01 1.918464469909667969e+01 2.630297243595123291e-01 1.346512556076049805e+00 4.828626811504364014e-01 -3.193501234054565430e-01
6.500000000000000000e+02 2.559694862365722656e+01 1.617050743103027344e+01 8.245354890823364258e-01 3.863422155380249023e+00 1.406387209892272949e+00 -2.479882240295410156e-01
6.510000000000000000e+02 3.236072540283203125e+01 1.646187210083007812e+01 1.235761523246765137e+00 5.404314517974853516e+00 1.992022752761840820e+00 -2.612927258014678955e-01
6.520000000000000000e+02 3.980519104003906250e+01 1.488024139404296875e+01 1.061625719070434570e+00 9.137825965881347656e+00 3.059835672378540039e+00 1.553175002336502075e-01
6.530000000000000000e+02 3.851066207885742188e+01 1.651046371459960938e+01 1.144394636154174805e+00 7.931604385375976562e+00 2.722799777984619141e+00 1.460658013820648193e-01
6.540000000000000000e+02 1.521042633056640625e+01 9.845252990722656250e+00 4.439016878604888916e-01 1.607010602951049805e+00 6.152737140655517578e-01 -2.177707552909851074e-01
6.550000000000000000e+02 2.609721946716308594e+01 1.138394451141357422e+01 1.068431854248046875e+00 4.025285720825195312e+00 1.528115272521972656e+00 1.520095020532608032e-01
6.560000000000000000e+02 3.137161254882812500e+01 1.303031444549560547e+01 1.488644957542419434e+00 5.119496822357177734e+00 1.982442498207092285e+00 -2.696781232953071594e-02
6.570000000000000000e+02 3.980215454101562500e+01 1.177765655517578125e+01 1.639525055885314941e+00 9.265698432922363281e+00 3.271566867828369141e+00 -6.107452511787414551e-01
6.580000000000000000e+02 4.236844253540039062e+01 1.046244907379150391e+01 1.099179863929748535e+00 1.356807422637939453e+01 4.400176048278808594e+00 -1.959697127342224121e+00
6.590000000000000000e+02 3.843983840942382812e+01 1.492409896850585938e+01 1.307608842849731445e+00 8.169369697570800781e+00 2.843093633651733398e+00 -4.219041392207145691e-02
6.600000000000000000e+02 1.807387709617614746e+00 1.629699516296386719e+01 1.747967675328254700e-02 -8.568565249443054199e-01 -2.518130540847778320e-01 1.593454508110880852e-04
6.610000000000000000e+02 2.345008850097656250e+01 2.279373884201049805e+00 1.227959513664245605e+00 4.253420352935791016e+00 1.644413948059082031e+00 1.611040472984313965e+00
6.620000000000000000e+02 3.224337387084960938e+01 4.012299060821533203e+00 1.746425151824951172e+00 4.606359481811523438e+00 1.905835390090942383e+00 3.047688007354736328e-01
6.630000000000000000e+02 3.756610488891601562e+01 4.588350772857666016e+00 1.356082558631896973e+00 6.266365528106689453e+00 2.286734342575073242e+00 -5.677168965339660645e-01
6.640000000000000000e+02 4.384572219848632812e+01 6.444746494293212891e+00 1.882326841354370117e+00 8.105196952819824219e+00 2.996257066726684570e+00 -3.564013004302978516e+00
6.650000000000000000e+02 4.002712249755859375e+01 2.946770191192626953e+00 9.205117225646972656e-01 6.611771106719970703e+00 2.259684801101684570e+00 -1.336548686027526855e+00
6.660000000000000000e+02 4.539381790161132812e+01 -1.895128846168518066e+00 4.611662924289703369e-01 5.550649166107177734e+00 1.803544521331787109e+00 -2.187441587448120117e+00
6.670000000000000000e+02 4.406888961791992188e+01 3.471176385879516602e+00 1.123857498168945312e+00 6.493650913238525391e+00 2.285252571105957031e+00 -2.726229667663574219e+00
6.680000000000000000e+02 8.584961891174316406e+00 -1.849277138710021973e+00 -5.943396687507629395e-01 1.800082623958587646e-01 -1.242994293570518494e-01 2.782257087528705597e-02
6.690000000000000000e+02 7.116775035858154297e+00 -1.862395644187927246e+00 -5.491563081741333008e-01 1.134357824921607971e-01 -1.307161599397659302e-01 -1.411399394273757935e-01
6.700000000000000000e+02 6.377501487731933594e+00 -1.883203148841857910e+00 -5.138426423072814941e-01 8.774908632040023804e-02 -1.278280615806579590e-01 -2.131731212139129639e-01
6.710000000000000000e+02 5.633925437927246094e+00 -1.908837914466857910e+00 -4.637234508991241455e-01 6.205635145306587219e-02 -1.205001324415206909e-01 -2.676551640033721924e-01
6.720000000000000000e+02 4.886593818664550781e+00 -1.933702111244201660e+00 -3.968266546726226807e-01 2.348388545215129852e-02 -1.120028272271156311e-01 -3.055026233196258545e-01
6.730000000000000000e+02 3.399098396301269531e+00 -1.951794385910034180e+00 -2.678922414779663086e-01 -3.259541466832160950e-02 -9.014629572629928589e-02 -3.039126694202423096e-01
6.740000000000000000e+02 3.464961051940917969e+00 -2.878571033477783203e+00 -1.782958209514617920e-01 -4.953329265117645264e-02 -6.834873557090759277e-02 -3.722561895847320557e-01
6.750000000000000000e+02 1.922397732734680176e+00 -2.007995128631591797e+00 -1.113196685910224915e-01 -1.308408230543136597e-01 -7.264814525842666626e-02 -2.255682349205017090e-01
6.760000000000000000e+02 1.179089784622192383e+00 -2.114790439605712891e+00 -5.430192127823829651e-02 -1.668779402971267700e-01 -6.635395437479019165e-02 -1.442853957414627075e-01
6.770000000000000000e+02 4.010811448097229004e-01 -2.189676284790039062e+00 -2.229387499392032623e-02 -1.391768157482147217e-01 -4.844120889902114868e-02 -4.736619815230369568e-02
6.780000000000000000e+02 2.020000696182250977e+00 -4.164698410034179688e+01 2.895152866840362549e-01 6.989357948303222656e+00 2.183661937713623047e+00 -8.239389210939407349e-02
6.790000000000000000e+02 3.405447483062744141e+00 -3.918336486816406250e+01 -1.168276295065879822e-01 6.474858760833740234e+00 1.907409310340881348e+00 5.409770086407661438e-02
6.800000000000000000e+02 9.298388957977294922e-01 -3.874734878540039062e+01 3.804463520646095276e-02 7.370476722717285156e+00 2.222556352615356445e+00 -1.021027341485023499e-01
6.810000000000000000e+02 7.243847250938415527e-01 -3.465642547607421875e+01 -4.074574261903762817e-02 7.417935848236083984e+00 2.213156938552856445e+00 1.031553298234939575e-01
6.820000000000000000e+02 7.152546048164367676e-01 -3.325651168823242188e+01 -9.184920787811279297e-02 7.129581451416015625e+00 2.111319780349731445e+00 2.310563772916793823e-01
6.830000000000000000e+02 6.642184853553771973e-01 -2.900395011901855469e+01 -4.893175140023231506e-02 4.601146221160888672e+00 1.365664362907409668e+00 6.459501981735229492e-01
6.840000000000000000e+02 6.583946347236633301e-01 -2.758718299865722656e+01 -4.822973906993865967e-02 3.135287284851074219e+00 9.261172413825988770e-01 7.559046149253845215e-01
6.850000000000000000e+02 6.534351110458374023e-01 -2.475749778747558594e+01 3.370104357600212097e-02 -1.815412044525146484e-01 -4.435204714536666870e-02 7.483631372451782227e-01
6.860000000000000000e+02 6.120117902755737305e-01 -2.194222831726074219e+01 1.157088577747344971e-01 -3.017453908920288086e+00 -8.705235123634338379e-01 4.695571660995483398e-01
6.870000000000000000e+02 5.921021103858947754e-01 -2.053778839111328125e+01 5.579613521695137024e-02 -3.899090766906738281e+00 -1.152988433837890625e+00 2.618367969989776611e-01
6.880000000000000000e+02 1.775300264358520508e+00 -2.043134307861328125e+01 3.481407165527343750e-01 -1.416243791580200195e+00 -3.204309344291687012e-01 7.352683544158935547e-01
6.890000000000000000e+02 5.640165209770202637e-01 -1.633501052856445312e+01 2.923416532576084137e-02 -4.304065704345703125e+00 -1.282449483871459961e+00 -8.505176007747650146e-02
6.900000000000000000e+02 5.505299568176269531e-01 -1.493341922760009766e+01 2.577103488147258759e-02 -3.963085651397705078e+00 -1.181194305419921875e+00 -1.545918434858322144e-01
6.910000000000000000e+02 5.384492874145507812e-01 -1.353249835968017578e+01 -2.908854978159070015e-03 -3.486979484558105469e+00 -1.046966433525085449e+00 -1.806464791297912598e-01
6.920000000000000000e+02 1.619041085243225098e+00 -1.356180286407470703e+01 4.704781249165534973e-02 -2.002255439758300781e+00 -5.865622758865356445e-01 -5.027665495872497559e-01
6.930000000000000000e+02 5.224573016166687012e-01 -9.339688301086425781e+00 1.046748366206884384e-02 -1.959963917732238770e+00 -5.848489403724670410e-01 -1.611582338809967041e-01
6.940000000000000000e+02 5.208915472030639648e-01 -7.946963310241699219e+00 -1.933967880904674530e-02 -1.524516820907592773e+00 -4.631569683551788330e-01 -1.412759125232696533e-01
6.950000000000000000e+02 5.320461392402648926e-01 -6.550000667572021484e+00 1.897250860929489136e-02 -1.111994385719299316e+00 -3.279065787792205811e-01 -1.460918486118316650e-01
6.960000000000000000e+02 5.405739212036132812e+01 -3.737632751464843750e+01 -1.035551548004150391e+00 6.226178646087646484e+00 1.557188153266906738e+00 -8.911178708076477051e-01
6.970000000000000000e+02 3.125126266479492188e+01 -3.894985580444335938e+01 -1.407151818275451660e+00 -1.757155805826187134e-01 -4.748602211475372314e-01 -1.190842166543006897e-01
6.980000000000000000e+02 1.235205364227294922e+01 -4.145675277709960938e+01 -1.325746625661849976e-01 7.453380227088928223e-01 1.838290095329284668e-01 6.583507172763347626e-03
6.990000000000000000e+02 7.871147918701171875e+01 4.017268753051757812e+01 -1.905232220888137817e-01 1.043857097625732422e+01 3.074414253234863281e+00 -2.515898942947387695e-01
7.000000000000000000e+02 7.900766754150390625e+01 3.881594848632812500e+01 1.721435226500034332e-02 1.070519638061523438e+01 3.216723203659057617e+00 -9.649951756000518799e-02
7.010000000000000000e+02 7.919373321533203125e+01 3.609051513671875000e+01 -6.036605685949325562e-02 1.098608303070068359e+01 3.277715206146240234e+00 -4.101156257092952728e-03
7.020000000000000000e+02 7.776338958740234375e+01 3.443229293823242188e+01 -1.182842999696731567e-01 9.870370864868164062e+00 2.925626039505004883e+00 2.306652665138244629e-01
7.030000000000000000e+02 7.930483245849609375e+01 3.333681488037109375e+01 -2.325396984815597534e-02 1.082994651794433594e+01 3.242007732391357422e+00 1.185353621840476990e-01
7.040000000000000000e+02 7.814353942871093750e+01 3.041563224792480469e+01 -5.195871368050575256e-02 9.636799812316894531e+00 2.875452280044555664e+00 4.272879958152770996e-01
7.050000000000000000e+02 7.938916778564453125e+01 2.644050025939941406e+01 1.206632819958031178e-03 9.205431938171386719e+00 2.761991500854492188e+00 1.973176747560501099e-01
7.060000000000000000e+02 7.691631317138671875e+01 2.631748580932617188e+01 4.222420230507850647e-02 8.603114128112792969e+00 2.593601465225219727e+00 6.531265377998352051e-01
7.070000000000000000e+02 7.939244079589843750e+01 2.226426696777343750e+01 1.679443195462226868e-02 8.205485343933105469e+00 2.466683864593505859e+00 1.494517177343368530e-01
7.080000000000000000e+02 7.939765930175781250e+01 2.087106323242187500e+01 -1.110172597691416740e-03 7.944922447204589844e+00 2.383143663406372070e+00 1.311826407909393311e-01
7.090000000000000000e+02 7.818148803710937500e+01 2.219958496093750000e+01 2.821768820285797119e-02 8.230321884155273438e+00 2.477561950683593750e+00 3.533853292465209961e-01
7.100000000000000000e+02 7.940167236328125000e+01 1.947892189025878906e+01 1.137603074312210083e-02 7.711615562438964844e+00 2.316897392272949219e+00 1.208787262439727783e-01
7.110000000000000000e+02 7.938920593261718750e+01 1.529905223846435547e+01 3.217149933334439993e-04 7.108565330505371094e+00 2.132666110992431641e+00 1.065840199589729309e-01
7.120000000000000000e+02 7.938385772705078125e+01 1.390488433837890625e+01 -1.212839037179946899e-02 6.898995399475097656e+00 2.066060066223144531e+00 1.203792169690132141e-01
7.130000000000000000e+02 7.938352966308593750e+01 1.250923061370849609e+01 3.186808666214346886e-03 6.658896923065185547e+00 1.998625040054321289e+00 1.317007541656494141e-01
7.140000000000000000e+02 7.938706970214843750e+01 1.111329746246337891e+01 -1.905773580074310303e-02 6.381328582763671875e+00 1.908681154251098633e+00 1.495562791824340820e-01
7.150000000000000000e+02 7.939338684082031250e+01 8.325617790222167969e+00 -1.180278230458498001e-02 5.731136798858642578e+00 1.715800285339355469e+00 1.588818877935409546e-01
7.160000000000000000e+02 7.939619445800781250e+01 6.933778285980224609e+00 2.141222171485424042e-02 5.401039123535156250e+00 1.626735448837280273e+00 1.502794474363327026e-01
7.170000000000000000e+02 7.819592285156250000e+01 6.864926815032958984e+00 3.076569363474845886e-02 6.210836887359619141e+00 1.872480750083923340e+00 3.686138391494750977e-01
7.180000000000000000e+02 7.939824676513671875e+01 5.542041301727294922e+00 6.377493496984243393e-03 5.110841274261474609e+00 1.535165548324584961e+00 1.178128570318222046e-01
7.190000000000000000e+02 7.938828277587890625e+01 1.367795467376708984e+00 2.786466851830482483e-02 4.792021274566650391e+00 1.445965766906738281e+00 -2.971679158508777618e-02
7.200000000000000000e+02 7.938108062744140625e+01 -1.985435187816619873e-02 1.769574731588363647e-02 4.919482231140136719e+00 1.481153368949890137e+00 -8.190754801034927368e-02
7.210000000000000000e+02 7.937493896484375000e+01 -1.408949017524719238e+00 1.629822887480258942e-02 5.143898963928222656e+00 1.548059105873107910e+00 -1.199660375714302063e-01
7.220000000000000000e+02 7.937178039550781250e+01 -2.801437854766845703e+00 1.365862786769866943e-02 5.442144393920898438e+00 1.636740922927856445e+00 -1.533286273479461670e-01
7.230000000000000000e+02 7.936740112304687500e+01 -6.994622230529785156e+00 -1.102922111749649048e-02 6.540725708007812500e+00 1.958908915519714355e+00 -1.764178127050399780e-01
7.240000000000000000e+02 7.936254882812500000e+01 -8.393968582153320312e+00 3.940118011087179184e-03 6.904167175292968750e+00 2.072432279586791992e+00 -1.674444377422332764e-01
7.250000000000000000e+02 7.935865783691406250e+01 -9.789868354797363281e+00 -1.140783820301294327e-02 7.247006893157958984e+00 2.170679569244384766e+00 -1.598521322011947632e-01
7.260000000000000000e+02 7.938587951660156250e+01 -1.398261833190917969e+01 -8.961968123912811279e-03 8.082076072692871094e+00 2.421934366226196289e+00 -9.945777803659439087e-02
7.270000000000000000e+02 7.939727783203125000e+01 -1.538193321228027344e+01 -2.901691943407058716e-02 8.256972312927246094e+00 2.468386650085449219e+00 -5.737556517124176025e-02
7.280000000000000000e+02 7.940087890625000000e+01 -1.677980041503906250e+01 -1.956341229379177094e-02 8.321160316467285156e+00 2.490478992462158203e+00 4.978678771294653416e-04
7.290000000000000000e+02 7.938539886474609375e+01 -2.231202507019042969e+01 1.099944207817316055e-02 7.088657379150390625e+00 2.129897117614746094e+00 2.439949512481689453e-01
7.300000000000000000e+02 7.691654205322265625e+01 -2.660797691345214844e+01 5.408067703247070312e-01 7.288059234619140625e+00 2.348659753799438477e+00 1.293946709483861923e-02
7.310000000000000000e+02 7.936013793945312500e+01 -2.370202064514160156e+01 2.586088329553604126e-02 6.595497131347656250e+00 1.986407399177551270e+00 2.032915204763412476e-01
7.320000000000000000e+02 7.937037658691406250e+01 -2.789360618591308594e+01 1.278203446418046951e-02 6.083389282226562500e+00 1.828851461410522461e+00 -9.912731498479843140e-02
7.330000000000000000e+02 7.935939788818359375e+01 -2.928956604003906250e+01 7.678308337926864624e-02 6.389069557189941406e+00 1.939755797386169434e+00 -1.948093175888061523e-01
7.340000000000000000e+02 7.933951568603515625e+01 -3.068076324462890625e+01 -2.994711324572563171e-02 6.846163272857666016e+00 2.044864892959594727e+00 -2.490839064121246338e-01
7.350000000000000000e+02 7.918042755126953125e+01 -3.490625000000000000e+01 1.133978366851806641e-02 8.195089340209960938e+00 2.461928844451904297e+00 -1.778798699378967285e-01
7.360000000000000000e+02 7.911799621582031250e+01 -3.631459808349609375e+01 -1.346182972192764282e-01 8.406856536865234375e+00 2.481671571731567383e+00 -9.138679504394531250e-02
7.370000000000000000e+02 7.911237335205078125e+01 -3.770597839355468750e+01 -2.363078109920024872e-02 8.446540832519531250e+00 2.526873111724853516e+00 4.342548176646232605e-02
7.380000000000000000e+02 7.919244384765625000e+01 -3.901075363159179688e+01 9.889106452465057373e-02 8.400704383850097656e+00 2.549878835678100586e+00 -7.406488526612520218e-03
7.390000000000000000e+02 1.290269660949707031e+01 3.833670806884765625e+01 -2.613784074783325195e-01 1.656310319900512695e+00 4.184795618057250977e-01 -1.456682085990905762e-01
7.400000000000000000e+02 2.734032058715820312e+01 4.054072570800781250e+01 -9.284903407096862793e-01 4.085771560668945312e+00 9.471843242645263672e-01 -9.856408834457397461e-02
7.410000000000000000e+02 6.828475189208984375e+01 3.642544555664062500e+01 -4.135647714138031006e-01 2.848163366317749023e+00 7.303795218467712402e-01 -3.292503058910369873e-01
7.420000000000000000e+02 3.978922367095947266e-01 2.162669658660888672e+00 -3.996141720563173294e-03 -3.654804453253746033e-02 -1.216325629502534866e-02 1.513515133410692215e-02
7.430000000000000000e+02 2.710094213485717773e+00 2.874928712844848633e+00 -9.045943617820739746e-02 -1.188654229044914246e-01 -6.279745697975158691e-02 1.888161152601242065e-01
7.440000000000000000e+02 5.775365829467773438e+00 4.384329795837402344e+00 -9.222411364316940308e-02 -1.744127571582794189e-01 -7.999105751514434814e-02 4.204483926296234131e-01
7.450000000000000000e+02 1.653623580932617188e+00 4.902772426605224609e+00 -1.887685433030128479e-02 -2.827509939670562744e-01 -9.048835188150405884e-02 1.759977936744689941e-01
7.460000000000000000e+02 5.966736674308776855e-01 9.283047676086425781e+00 6.187948863953351974e-03 -7.974784374237060547e-01 -2.373871505260467529e-01 5.800574272871017456e-02
7.470000000000000000e+02 5.799358487129211426e-01 1.210536479949951172e+01 3.407017560675740242e-03 -1.015230178833007812e+00 -3.035469353199005127e-01 2.974226884543895721e-02
7.480000000000000000e+02 1.735813260078430176e+00 1.210877323150634766e+01 2.394375950098037720e-02 -7.946740984916687012e-01 -2.312190979719161987e-01 8.345954120159149170e-02
7.490000000000000000e+02 6.039354205131530762e-01 1.633053970336914062e+01 5.096138920634984970e-03 -1.124852418899536133e+00 -3.359268605709075928e-01 -1.115192659199237823e-03
7.500000000000000000e+02 6.121696233749389648e-01 1.774295043945312500e+01 2.069054869934916496e-03 -1.115993738174438477e+00 -3.341774046421051025e-01 -9.373114444315433502e-03
7.510000000000000000e+02 6.527796387672424316e-01 2.198663711547851562e+01 3.573844442144036293e-03 -1.002242565155029297e+00 -2.996006309986114502e-01 -2.592102997004985809e-02
7.520000000000000000e+02 6.698573827743530273e-01 2.340580368041992188e+01 -8.679258171468973160e-04 -9.457762241363525391e-01 -2.839932441711425781e-01 -2.880150638520717621e-02
7.530000000000000000e+02 6.832311153411865234e-01 2.482316017150878906e+01 4.810736980289220810e-03 -8.829759955406188965e-01 -2.634495794773101807e-01 -3.299085795879364014e-02
7.540000000000000000e+02 6.844226717948913574e-01 2.905106735229492188e+01 7.933586311992257833e-05 -6.818736195564270020e-01 -2.045382857322692871e-01 -3.270382806658744812e-02
7.550000000000000000e+02 6.930205225944519043e-01 3.044810867309570312e+01 2.880675601772964001e-04 -6.145886182785034180e-01 -1.842901706695556641e-01 -3.307378292083740234e-02
7.560000000000000000e+02 2.110641241073608398e+00 3.036974906921386719e+01 -2.862403634935617447e-03 -3.795709908008575439e-01 -1.147300228476524353e-01 -9.143406152725219727e-02
7.570000000000000000e+02 7.046309113502502441e-01 3.183514785766601562e+01 -3.479805076494812965e-03 -5.522820353507995605e-01 -1.667285412549972534e-01 -2.967315912246704102e-02
7.580000000000000000e+02 7.843649983406066895e-01 3.600647735595703125e+01 8.354006335139274597e-03 -3.785037100315093994e-01 -1.110449135303497314e-01 -3.768247738480567932e-02
7.590000000000000000e+02 2.728083848953247070e+00 3.823549270629882812e+01 1.111829373985528946e-02 -9.796389192342758179e-02 -2.605368010699748993e-02 -1.138658151030540466e-01
7.600000000000000000e+02 9.897819161415100098e-01 3.874975204467773438e+01 -6.232454907149076462e-03 -2.410179674625396729e-01 -7.417512685060501099e-02 -3.932572528719902039e-02
7.610000000000000000e+02 1.295802950859069824e+00 4.012234115600585938e+01 3.216371685266494751e-02 -1.675303131341934204e-01 -4.060997813940048218e-02 -6.485936045646667480e-02
7.620000000000000000e+02 9.965620040893554688e+00 2.069499969482421875e+00 -5.872373580932617188e-01 -3.296792507171630859e-01 -2.750749886035919189e-01 4.617677628993988037e-01
7.630000000000000000e+02 9.098079681396484375e+00 2.000242948532104492e+00 -6.324117183685302734e-01 -2.482332736253738403e-01 -2.641935050487518311e-01 4.821581244468688965e-01
7.640000000000000000e+02 8.285873413085937500e+00 1.953682661056518555e+00 -6.056677103042602539e-01 -1.587555259466171265e-01 -2.293269783258438110e-01 4.532383382320404053e-01
7.650000000000000000e+02 7.399532318115234375e+00 2.760223865509033203e+00 -3.656948804855346680e-01 -1.412959545850753784e-01 -1.520972549915313721e-01 4.491407275199890137e-01
7.660000000000000000e+02 6.695869922637939453e+00 1.913041949272155762e+00 -4.783511757850646973e-01 -5.768351256847381592e-02 -1.608104109764099121e-01 3.352443277835845947e-01
7.670000000000000000e+02 4.325335502624511719e+00 1.926269531250000000e+00 -2.340258955955505371e-01 -5.794890969991683960e-02 -8.759243786334991455e-02 2.232550978660583496e-01
7.680000000000000000e+02 3.535620212554931641e+00 1.940316200256347656e+00 -1.675432920455932617e-01 -5.897430330514907837e-02 -6.795527786016464233e-02 1.826837658882141113e-01
7.690000000000000000e+02 1.968026161193847656e+00 1.983509063720703125e+00 -6.690284609794616699e-02 -7.342224568128585815e-02 -4.209752753376960754e-02 1.043998375535011292e-01
7.700000000000000000e+02 1.185861110687255859e+00 2.060755729675292969e+00 -2.379815280437469482e-02 -7.400218397378921509e-02 -2.934009954333305359e-02 5.414116382598876953e-02
7.710000000000000000e+02 1.317238903045654297e+01 6.747369170188903809e-01 -7.687136530876159668e-01 -1.751411259174346924e-01 -2.831564247608184814e-01 3.293792903423309326e-01
7.720000000000000000e+02 1.390120697021484375e+01 3.005135357379913330e-01 -7.178115844726562500e-01 -3.340211138129234314e-02 -2.253641039133071899e-01 2.144457548856735229e-01
7.730000000000000000e+02 1.484615039825439453e+01 5.198444128036499023e-01 -3.954731225967407227e-01 5.966650247573852539e-01 6.035756319761276245e-02 -1.641667634248733521e-01
7.740000000000000000e+02 1.671672630310058594e+01 -1.516179203987121582e+00 -4.322943687438964844e-01 2.396770477294921875e+00 5.893428325653076172e-01 -7.322016954421997070e-01
7.750000000000000000e+02 1.721553230285644531e+01 -1.925229787826538086e+00 -4.573588371276855469e-01 4.100877761840820312e+00 1.093055725097656250e+00 -8.522426486015319824e-01
7.760000000000000000e+02 1.754866600036621094e+01 -2.210330724716186523e+00 -5.650129914283752441e-01 5.871573925018310547e+00 1.591968178749084473e+00 -7.600021958351135254e-01
7.770000000000000000e+02 1.832325363159179688e+01 -2.762502670288085938e+00 -3.613237440586090088e-01 1.085663890838623047e+01 3.148594617843627930e+00 1.784797668457031250e+00
7.780000000000000000e+02 1.795582389831542969e+01 -2.338909387588500977e+00 -7.181279659271240234e-01 7.936677455902099609e+00 2.165565013885498047e+00 6.445524096488952637e-02
7.790000000000000000e+02 1.852681159973144531e+01 -2.828171491622924805e+00 4.809637963771820068e-01 1.094458198547363281e+01 3.427663564682006836e+00 2.915008544921875000e+00
7.800000000000000000e+02 1.531926536560058594e+01 -4.912429332733154297e+00 6.634325027465820312e+00 -6.862848997116088867e-01 1.784412026405334473e+00 1.971724987030029297e+00
7.810000000000000000e+02 1.507209873199462891e+01 -4.944032192230224609e+00 5.938216686248779297e+00 -6.601478457450866699e-01 1.583420753479003906e+00 1.976365089416503906e+00
7.820000000000000000e+02 1.483701324462890625e+01 -4.351269721984863281e+00 4.088523387908935547e+00 -6.468527913093566895e-01 1.032501220703125000e+00 7.233572602272033691e-01
7.830000000000000000e+02 1.463521480560302734e+01 -4.255376338958740234e+00 3.574687719345092773e+00 -5.017787218093872070e-01 9.218726754188537598e-01 7.229917645454406738e-01
7.840000000000000000e+02 1.442315006256103516e+01 -4.114616870880126953e+00 2.902001380920410156e+00 -5.161169171333312988e-01 7.157653570175170898e-01 5.974305868148803711e-01
7.850000000000000000e+02 1.226471042633056641e+01 -2.922499418258666992e+00 1.730427742004394531e-01 -4.404537007212638855e-02 3.869922086596488953e-02 3.342373967170715332e-01
7.860000000000000000e+02 1.287591648101806641e+01 -3.249502658843994141e+00 6.795667409896850586e-01 -1.162712723016738892e-01 1.689886450767517090e-01 3.821484446525573730e-01
7.870000000000000000e+02 9.310357093811035156e+00 -1.868455886840820312e+00 -5.990513563156127930e-01 1.883326172828674316e-01 -1.232156082987785339e-01 9.071710705757141113e-02
7.880000000000000000e+02 7.088507843017578125e+01 -3.034561920166015625e+01 1.359781146049499512e+00 7.248234748840332031e+00 2.582404613494873047e+00 2.536927700042724609e+00
7.890000000000000000e+02 6.701210784912109375e+01 -3.394655609130859375e+01 -9.781886935234069824e-01 4.432062804698944092e-01 -1.604947298765182495e-01 6.247324869036674500e-02
7.900000000000000000e+02 6.483293151855468750e+01 3.423579406738281250e+01 -1.658611536026000977e+00 -5.756899714469909668e-01 -6.702904701232910156e-01 8.787783384323120117e-01
7.910000000000000000e+02 6.949942016601562500e+01 2.710942268371582031e+01 2.877501845359802246e-01 6.833559989929199219e+00 2.136393070220947266e+00 -9.745160341262817383e-01
7.920000000000000000e+02 6.991566467285156250e+01 2.285205459594726562e+01 9.061904251575469971e-02 8.856863975524902344e+00 2.684244871139526367e+00 -2.566033229231834412e-02
7.930000000000000000e+02 6.986325073242187500e+01 2.426412010192871094e+01 1.602875143289566040e-01 8.699766159057617188e+00 2.658016204833984375e+00 -3.116828203201293945e-01
7.940000000000000000e+02 6.994476318359375000e+01 1.864435577392578125e+01 7.097841240465641022e-03 9.198501586914062500e+00 2.761679649353027344e+00 1.246868595480918884e-01
7.950000000000000000e+02 6.989617156982421875e+01 1.445322895050048828e+01 2.218585610389709473e-01 1.025564956665039062e+01 3.143252372741699219e+00 4.664875268936157227e-01
7.960000000000000000e+02 6.980706787109375000e+01 1.307138156890869141e+01 6.853865832090377808e-02 9.157089233398437500e+00 2.767688274383544922e+00 6.446317434310913086e-01
7.970000000000000000e+02 7.135026550292968750e+01 4.853138446807861328e+00 2.207205742597579956e-01 1.179474258422851562e+01 3.604638814926147461e+00 2.289668023586273193e-01
7.980000000000000000e+02 7.003197479248046875e+01 4.510946273803710938e-01 7.393765449523925781e-01 1.312173652648925781e+01 4.158333778381347656e+00 1.994527935981750488e+00
7.990000000000000000e+02 6.878963470458984375e+01 -3.670387744903564453e+00 8.865363001823425293e-01 8.476403236389160156e+00 2.808881998062133789e+00 2.485648870468139648e+00
8.000000000000000000e+02 6.827192687988281250e+01 -4.994304656982421875e+00 9.423865675926208496e-01 7.210185527801513672e+00 2.445771694183349609e+00 2.414598703384399414e+00
8.010000000000000000e+02 6.919753265380859375e+01 -8.637043952941894531e+00 3.630490601062774658e-01 5.799853324890136719e+00 1.848870635032653809e+00 1.002275943756103516e+00
8.020000000000000000e+02 6.404750061035156250e+01 -1.240292263031005859e+01 1.503088831901550293e+00 2.205596923828125000e+00 1.112605690956115723e+00 1.683637380599975586e+00
8.030000000000000000e+02 6.187309265136718750e+01 -1.427393627166748047e+01 1.246634364128112793e+00 1.035434484481811523e+00 6.846206188201904297e-01 1.190744757652282715e+00
8.040000000000000000e+02 5.804493331909179688e+01 -1.631455612182617188e+01 -2.221943140029907227e+00 4.216100573539733887e-01 -5.400999784469604492e-01 -8.027689903974533081e-02
8.050000000000000000e+02 5.091392517089843750e+01 -1.017896175384521484e+01 2.178677022457122803e-01 4.471978187561035156e+00 1.406953811645507812e+00 -1.081566095352172852e+00
8.060000000000000000e+02 5.010152435302734375e+01 -7.476755619049072266e+00 4.000113308429718018e-01 5.135084629058837891e+00 1.660528779029846191e+00 -1.485964894294738770e+00
8.070000000000000000e+02 4.967721557617187500e+01 -6.150708675384521484e+00 4.425051510334014893e-01 5.314216613769531250e+00 1.727016568183898926e+00 -1.651632428169250488e+00
8.080000000000000000e+02 4.757247161865234375e+01 -3.940261125564575195e+00 4.686948359012603760e-01 5.315868854522705078e+00 1.735369086265563965e+00 -1.928416728973388672e+00
8.090000000000000000e+02 4.777394104003906250e+01 -9.521218538284301758e-01 7.968596816062927246e-01 4.936544895172119141e+00 1.720021247863769531e+00 -2.176664829254150391e+00
8.100000000000000000e+02 4.717978286743164062e+01 2.963018119335174561e-01 1.087977051734924316e+00 5.144798278808593750e+00 1.869832634925842285e+00 -2.403607368469238281e+00
8.110000000000000000e+02 4.655792236328125000e+01 1.537594199180603027e+00 1.191506743431091309e+00 5.331237792968750000e+00 1.956823348999023438e+00 -2.578948974609375000e+00
8.120000000000000000e+02 4.591579055786132812e+01 2.770957231521606445e+00 1.319127798080444336e+00 5.445722103118896484e+00 2.029454946517944336e+00 -2.754853725433349609e+00
8.130000000000000000e+02 4.453311538696289062e+01 5.205053329467773438e+00 1.784601211547851562e+00 6.741842746734619141e+00 2.557933092117309570e+00 -3.369041442871093750e+00
8.140000000000000000e+02 4.322949600219726562e+01 7.731989860534667969e+00 1.620931386947631836e+00 9.422909736633300781e+00 3.313152313232421875e+00 -3.587333202362060547e+00
8.150000000000000000e+02 4.225237655639648438e+01 1.190227699279785156e+01 4.897358715534210205e-01 1.306658363342285156e+01 4.066895961761474609e+00 -3.408361077308654785e-01
8.160000000000000000e+02 4.238066482543945312e+01 1.475335788726806641e+01 2.144681215286254883e-01 1.124855327606201172e+01 3.438906431198120117e+00 9.047093391418457031e-01
8.170000000000000000e+02 4.279021072387695312e+01 1.756725502014160156e+01 6.315996646881103516e-01 1.024700355529785156e+01 3.263581037521362305e+00 2.045578479766845703e+00
8.180000000000000000e+02 4.395426559448242188e+01 2.166948127746582031e+01 1.077286124229431152e+00 8.038879394531250000e+00 2.734849691390991211e+00 2.586922407150268555e+00
8.190000000000000000e+02 4.642126083374023438e+01 2.688026618957519531e+01 1.235023140907287598e+00 4.433235645294189453e+00 1.700477600097656250e+00 2.179630279541015625e+00
8.200000000000000000e+02 4.816693878173828125e+01 2.926515388488769531e+01 9.787979125976562500e-01 2.724065780639648438e+00 1.110859036445617676e+00 1.571572303771972656e+00
8.210000000000000000e+02 5.013223648071289062e+01 3.138862419128417969e+01 5.888981819152832031e-01 1.490393638610839844e+00 6.237875223159790039e-01 9.153124690055847168e-01
8.220000000000000000e+02 1.983085250854492188e+01 -1.329525566101074219e+01 -1.190059280395507812e+01 -4.283759593963623047e-01 -3.698690652847290039e+00 1.624912500381469727e+00
8.230000000000000000e+02 2.502293586730957031e+01 -1.505210494995117188e+01 -5.418317317962646484e+00 -8.649515509605407715e-01 -1.884980559349060059e+00 2.203734397888183594e+00
8.240000000000000000e+02 2.623117828369140625e+01 -1.567101573944091797e+01 -4.360450267791748047e+00 -5.921617746353149414e-01 -1.485783696174621582e+00 1.701799750328063965e+00
8.250000000000000000e+02 2.791980743408203125e+01 -1.511445426940917969e+01 -3.526618003845214844e+00 9.372123330831527710e-02 -1.029868960380554199e+00 7.114521861076354980e-01
8.260000000000000000e+02 2.994615364074707031e+01 -1.719583129882812500e+01 -2.898750305175781250e+00 -9.276051074266433716e-02 -8.974531888961791992e-01 8.152844309806823730e-01
8.270000000000000000e+02 3.121347236633300781e+01 -1.755240440368652344e+01 -2.643126010894775391e+00 3.625631704926490784e-02 -7.820609211921691895e-01 4.893119335174560547e-01
8.280000000000000000e+02 3.517333984375000000e+01 -1.788763046264648438e+01 -1.914451003074645996e+00 1.690378338098526001e-01 -5.236239433288574219e-01 -3.235782086849212646e-01
8.290000000000000000e+02 3.928715896606445312e+01 -1.782050132751464844e+01 2.403047561645507812e+00 5.628433704376220703e+00 2.409444332122802734e+00 -3.756626844406127930e+00
8.300000000000000000e+02 4.144776153564453125e+01 -2.094662857055664062e+01 6.101853370666503906e+00 1.428991699218750000e+01 6.117531299591064453e+00 -6.975719928741455078e+00
8.310000000000000000e+02 4.398473358154296875e+01 -2.328396034240722656e+01 3.431315660476684570e+00 1.090595436096191406e+01 4.301181316375732422e+00 -3.317462205886840820e+00
8.320000000000000000e+02 4.229723358154296875e+01 -2.671573448181152344e+01 -9.072080254554748535e-03 1.325055599212646484e+01 3.972445249557495117e+00 -2.521675229072570801e-01
8.330000000000000000e+02 3.836362457275390625e+01 -3.261917114257812500e+01 -2.918894529342651367e+00 1.972484737634658813e-01 -8.164938092231750488e-01 -4.494416713714599609e-01
8.340000000000000000e+02 3.691979598999023438e+01 -3.314328002929687500e+01 -3.722168207168579102e+00 -3.991858065128326416e-01 -1.236406207084655762e+00 -4.435136020183563232e-01
8.350000000000000000e+02 3.231181335449218750e+01 -3.383063125610351562e+01 -2.598477125167846680e+00 -3.878563875332474709e-03 -7.807067036628723145e-01 1.231057941913604736e-02
8.360000000000000000e+02 2.915549850463867188e+01 -3.516929626464843750e+01 -2.016462326049804688e+00 -3.087770007550716400e-02 -6.142020225524902344e-01 1.671972125768661499e-02
8.370000000000000000e+02 2.602884674072265625e+01 -3.163950729370117188e+01 -1.979937553405761719e+00 4.064935725182294846e-03 -5.927618145942687988e-01 1.772469878196716309e-01
8.380000000000000000e+02 2.466639900207519531e+01 -3.158492851257324219e+01 -2.024548053741455078e+00 -2.724562771618366241e-02 -6.155380606651306152e-01 1.708489507436752319e-01
8.390000000000000000e+02 2.181818962097167969e+01 -3.160533332824707031e+01 -2.384842395782470703e+00 7.175931334495544434e-02 -6.939249038696289062e-01 1.664850264787673950e-01
8.400000000000000000e+02 1.916732788085937500e+01 -3.156785964965820312e+01 -3.226186275482177734e+00 -2.560034394264221191e-01 -1.044656872749328613e+00 3.715142309665679932e-01
8.410000000000000000e+02 1.772529983520507812e+01 -3.151505661010742188e+01 -3.782646894454956055e+00 -2.530118823051452637e-01 -1.210697650909423828e+00 6.873385906219482422e-01
8.420000000000000000e+02 9.404471397399902344e+00 -2.682353973388671875e+01 -6.304717659950256348e-01 3.254086256027221680e+00 7.870842814445495605e-01 -5.394119024276733398e-01
8.430000000000000000e+02 8.315723419189453125e+00 -2.347103309631347656e+01 6.571587920188903809e-01 1.342881774902343750e+01 4.225792884826660156e+00 1.358155965805053711e+00
8.440000000000000000e+02 8.877023696899414062e+00 -2.081127357482910156e+01 2.391076087951660156e+00 1.648274612426757812e+01 5.662146568298339844e+00 4.712642669677734375e+00
8.450000000000000000e+02 1.000266265869140625e+01 -1.826904487609863281e+01 3.156291961669921875e+00 1.228664779663085938e+01 4.632882118225097656e+00 6.003027915954589844e+00
8.460000000000000000e+02 9.546215057373046875e+00 -1.496222496032714844e+01 1.812704563140869141e+00 7.417134761810302734e+00 2.768951892852783203e+00 2.471625566482543945e+00
8.470000000000000000e+02 1.405754184722900391e+01 -1.437697505950927734e+01 2.612221956253051758e+00 2.550454616546630859e+00 1.548802971839904785e+00 2.762047529220581055e+00
8.480000000000000000e+02 1.403972721099853516e+01 -3.891043424606323242e+00 2.151720046997070312e+00 -3.811182975769042969e-01 5.311805009841918945e-01 5.077214837074279785e-01
8.490000000000000000e+02 1.500625514984130859e+01 -4.458189964294433594e+00 4.726324081420898438e+00 -7.004397511482238770e-01 1.207765340805053711e+00 8.269423842430114746e-01
8.500000000000000000e+02 1.635431289672851562e+01 -5.521104812622070312e+00 1.003874969482421875e+01 1.296516537666320801e+00 3.400579929351806641e+00 5.767333984375000000e+00
8.510000000000000000e+02 1.651356315612792969e+01 -5.687126159667968750e+00 9.608708381652832031e+00 2.939642429351806641e+00 3.764505386352539062e+00 6.782502174377441406e+00
8.520000000000000000e+02 1.620742034912109375e+01 -5.376501560211181641e+00 9.960041046142578125e+00 7.861561179161071777e-01 3.223859071731567383e+00 5.009026527404785156e+00
8.530000000000000000e+02 1.606895828247070312e+01 -5.233702182769775391e+00 9.472427368164062500e+00 -4.065290093421936035e-03 2.840508460998535156e+00 4.004236698150634766e+00
8.540000000000000000e+02 1.517383766174316406e+01 -4.578828811645507812e+00 5.261769294738769531e+00 -7.235456705093383789e-01 1.361467003822326660e+00 1.000920534133911133e+00
8.550000000000000000e+02 1.565962028503417969e+01 -5.266352653503417969e+00 8.237336158752441406e+00 -2.633142471313476562e-01 2.392206668853759766e+00 3.470008373260498047e+00
8.560000000000000000e+02 1.551704788208007812e+01 -4.891942977905273438e+00 7.164855480194091797e+00 -7.703676223754882812e-01 1.918346405029296875e+00 1.925195693969726562e+00
8.570000000000000000e+02 1.570312500000000000e+01 -1.240995788574218750e+01 -2.644159078598022461e+00 2.193143129348754883e+00 -1.353047788143157959e-01 4.391381263732910156e+00
8.580000000000000000e+02 1.740407752990722656e+01 -2.056531190872192383e+00 -5.245684385299682617e-01 5.044597148895263672e+00 1.356008529663085938e+00 -8.182729482650756836e-01
8.590000000000000000e+02 1.687920951843261719e+01 -1.660726308822631836e+00 -4.530778825283050537e-01 2.978325605392456055e+00 7.575743198394775391e-01 -7.665489912033081055e-01
8.600000000000000000e+02 1.815434265136718750e+01 -2.655275821685791016e+00 -7.371869683265686035e-01 9.638266563415527344e+00 2.670324087142944336e+00 5.980190038681030273e-01
8.610000000000000000e+02 1.776644515991210938e+01 -2.183472633361816406e+00 -7.064409852027893066e-01 6.819408893585205078e+00 1.833890318870544434e+00 -3.869811892509460449e-01
8.620000000000000000e+02 1.782486534118652344e+01 -2.464262247085571289e+00 -8.224372863769531250e-01 7.623196125030517578e+00 2.040227651596069336e+00 -4.413067996501922607e-01
8.630000000000000000e+02 1.798592948913574219e+01 -2.551414251327514648e+00 -7.562987804412841797e-01 8.619509696960449219e+00 2.358963251113891602e+00 2.270745187997817993e-01
8.640000000000000000e+02 1.877446174621582031e+01 -2.936114311218261719e+00 9.189412593841552734e-01 1.173687076568603516e+01 3.796743631362915039e+00 4.071579933166503906e+00
8.650000000000000000e+02 1.667529487609863281e+01 -1.016028761863708496e+00 -5.116000175476074219e-01 2.560066699981689453e+00 6.145400404930114746e-01 -6.798770427703857422e-01
8.660000000000000000e+02 1.256385612487792969e+01 -3.724182605743408203e+00 1.115932464599609375e+00 -9.911897778511047363e-02 3.050440251827239990e-01 5.536410212516784668e-01
8.670000000000000000e+02 1.157927799224853516e+01 -2.600277423858642578e+00 -1.283609122037887573e-01 7.537904381752014160e-02 -1.589456014335155487e-02 2.956880927085876465e-01
8.680000000000000000e+02 1.312765407562255859e+01 -4.024163246154785156e+00 1.806337475776672363e+00 -2.074063718318939209e-01 4.796793460845947266e-01 7.008495926856994629e-01
8.690000000000000000e+02 1.196858501434326172e+01 -3.429006338119506836e+00 6.306232213973999023e-01 3.469901159405708313e-02 1.995966583490371704e-01 4.355518519878387451e-01
8.700000000000000000e+02 4.981227874755859375e+00 -2.813930988311767578e+00 -2.835494577884674072e-01 7.167592644691467285e-02 -6.356206536293029785e-02 -3.587383627891540527e-01
8.710000000000000000e+02 7.852715015411376953e+00 -1.849687099456787109e+00 -5.674830675125122070e-01 1.392002105712890625e-01 -1.284848600625991821e-01 -5.348273366689682007e-02
8.720000000000000000e+02 4.220668315887451172e+00 -2.881761550903320312e+00 -2.363914102315902710e-01 -2.251425758004188538e-03 -7.159285247325897217e-02 -3.864755928516387939e-01
8.730000000000000000e+02 2.658881664276123047e+00 -1.953694105148315430e+00 -1.850333958864212036e-01 -6.936869025230407715e-02 -7.632062584161758423e-02 -2.814779281616210938e-01
8.740000000000000000e+02 1.579897642135620117e+00 -8.136795043945312500e+00 -3.254499519243836403e-03 -1.022056937217712402e+00 -3.075934350490570068e-01 -4.119468033313751221e-01
8.750000000000000000e+02 1.606426239013671875e+00 -6.810797691345214844e+00 -2.802405692636966705e-02 -7.892117500305175781e-01 -2.451707422733306885e-01 -3.716516792774200439e-01
8.760000000000000000e+02 2.675017595291137695e+00 -8.354315757751464844e+00 -6.987958401441574097e-02 -4.416033923625946045e-01 -1.534449011087417603e-01 -5.269639492034912109e-01
8.770000000000000000e+02 5.267749428749084473e-01 -3.616392612457275391e+00 -1.622171886265277863e-02 -4.153328239917755127e-01 -1.294663697481155396e-01 -1.135688871145248413e-01
8.780000000000000000e+02 5.834562778472900391e-01 -5.101164340972900391e+00 -1.157427672296762466e-02 -7.169266343116760254e-01 -2.185502797365188599e-01 -1.463314890861511230e-01
8.790000000000000000e+02 7.188046932220458984e+00 -2.586912870407104492e+00 -3.739031851291656494e-01 2.005905658006668091e-01 -5.199378356337547302e-02 -1.416724473237991333e-01
8.800000000000000000e+02 5.733650684356689453e+00 -2.727552652359008789e+00 -3.237088620662689209e-01 1.291941553354263306e-01 -5.835441872477531433e-02 -3.009876906871795654e-01
8.810000000000000000e+02 6.468356132507324219e+00 -2.649411678314208984e+00 -3.547184169292449951e-01 1.648792624473571777e-01 -5.695174261927604675e-02 -2.262930274009704590e-01
8.820000000000000000e+02 1.744411087036132812e+01 -1.258589172363281250e+01 -6.751264572143554688e+00 1.787869036197662354e-01 -1.971743345260620117e+00 2.068317413330078125e+00
8.830000000000000000e+02 1.712989807128906250e+01 -6.100501060485839844e+00 7.800168514251708984e+00 7.635499477386474609e+00 4.630700588226318359e+00 7.495046615600585938e+00
8.840000000000000000e+02 1.887678718566894531e+01 -5.978011131286621094e+00 8.177109718322753906e+00 9.747641563415527344e+00 5.377425670623779297e+00 1.132197260856628418e+00
8.850000000000000000e+02 2.141834259033203125e+01 -6.076763629913330078e+00 6.428294658660888672e+00 2.651519536972045898e+00 2.723944187164306641e+00 6.126358509063720703e-01
8.860000000000000000e+02 1.993421173095703125e+01 -6.568488597869873047e+00 6.053082466125488281e+00 5.678146362304687500e+00 3.519368648529052734e+00 4.396318495273590088e-01
8.870000000000000000e+02 1.687808418273925781e+01 -6.723791599273681641e+00 5.409993648529052734e+00 5.781311035156250000e+00 3.357391357421875000e+00 6.725308418273925781e+00
8.880000000000000000e+02 1.924601936340332031e+01 -6.793013572692871094e+00 5.258356094360351562e+00 6.974581241607666016e+00 3.669881105422973633e+00 1.410965800285339355e+00
8.890000000000000000e+02 8.781195640563964844e+00 3.845298528671264648e+00 -1.116748824715614319e-01 -2.053069621324539185e-01 -9.509455412626266479e-02 4.419351816177368164e-01
8.900000000000000000e+02 8.187145233154296875e+00 2.834030389785766602e+00 -3.849862515926361084e-01 -1.835959255695343018e-01 -1.705746501684188843e-01 4.773524701595306396e-01
8.910000000000000000e+02 1.869202017784118652e+00 7.849118709564208984e+00 1.804506778717041016e-02 -5.213365554809570312e-01 -1.509874463081359863e-01 1.896622627973556519e-01
8.920000000000000000e+02 5.114536762237548828e+00 1.916474342346191406e+00 -3.087039291858673096e-01 -5.279157683253288269e-02 -1.084486544132232666e-01 2.605350017547607422e-01
8.930000000000000000e+02 8.996540069580078125e+00 2.962715625762939453e+00 -3.284093439579010010e-01 -2.460075020790100098e-01 -1.723250597715377808e-01 4.853581190109252930e-01
8.940000000000000000e+02 7.488767147064208984e+00 1.925608515739440918e+00 -5.806505084037780762e-01 -9.926337003707885742e-02 -2.039741724729537964e-01 4.042943418025970459e-01
8.950000000000000000e+02 6.616824626922607422e+00 2.731933116912841797e+00 -3.502667248249053955e-01 -1.130309253931045532e-01 -1.389892995357513428e-01 4.145449995994567871e-01
8.960000000000000000e+02 8.033081054687500000e+00 3.660857677459716797e+00 -1.842917948961257935e-01 -1.928743124008178711e-01 -1.131498366594314575e-01 4.777300357818603516e-01
8.970000000000000000e+02 4.242955684661865234e+00 3.668430328369140625e+00 -1.292233467102050781e-01 -1.559554040431976318e-01 -8.555362373590469360e-02 3.332925438880920410e-01
8.980000000000000000e+02 1.289275884628295898e+00 3.157532215118408203e+00 -2.747164480388164520e-02 -1.495210826396942139e-01 -5.309781804680824280e-02 1.085924133658409119e-01
8.990000000000000000e+02 2.750444412231445312e+00 1.955938339233398438e+00 -1.152631565928459167e-01 -6.215259060263633728e-02 -5.322472378611564636e-02 1.427638828754425049e-01
9.000000000000000000e+02 1.979905009269714355e+00 2.901854753494262695e+00 -6.095328927040100098e-02 -1.199163943529129028e-01 -5.426090583205223083e-02 1.472849249839782715e-01
9.010000000000000000e+02 1.509958076477050781e+01 1.146641969680786133e+00 -2.391932159662246704e-01 9.897336959838867188e-01 2.251621335744857788e-01 -3.162366449832916260e-01
9.020000000000000000e+02 1.241128826141357422e+01 1.042282819747924805e+00 -7.880486845970153809e-01 -2.623572349548339844e-01 -3.151217699050903320e-01 3.681489825248718262e-01
9.030000000000000000e+02 1.596436119079589844e+01 -8.626212477684020996e-01 -5.049709081649780273e-01 1.233728647232055664e+00 2.186273187398910522e-01 -3.710795938968658447e-01
9.040000000000000000e+02 1.639358711242675781e+01 4.777824878692626953e-01 -3.100298643112182617e-01 2.269785165786743164e+00 5.879265666007995605e-01 -5.437468886375427246e-01
9.050000000000000000e+02 1.204955196380615234e+01 2.202267408370971680e+00 -3.426980376243591309e-01 -1.548314392566680908e-01 -1.492588371038436890e-01 2.156489640474319458e-01
9.060000000000000000e+02 1.346278381347656250e+01 1.288641929626464844e+00 -4.497750997543334961e-01 7.039108872413635254e-02 -1.138152033090591431e-01 9.335476905107498169e-02
9.070000000000000000e+02 1.416260910034179688e+01 8.980220556259155273e-01 -4.394865036010742188e-01 2.784126698970794678e-01 -4.832215234637260437e-02 -4.115662071853876114e-03
9.080000000000000000e+02 1.081730651855468750e+01 -2.292875528335571289e+00 -3.671662509441375732e-01 1.309039145708084106e-01 -7.087869942188262939e-02 2.194458693265914917e-01
9.090000000000000000e+02 1.168874740600585938e+01 -3.949612379074096680e+00 9.477521181106567383e-01 1.020079702138900757e-01 3.149280250072479248e-01 6.198478341102600098e-01
9.100000000000000000e+02 5.558087539672851562e+01 -3.081919479370117188e+01 1.891578435897827148e+00 1.110646915435791016e+01 3.899414300918579102e+00 -1.655986189842224121e+00
9.110000000000000000e+02 6.950631713867187500e+01 -2.175771903991699219e+01 -1.135323882102966309e+00 1.648999333381652832e+00 1.541026532649993896e-01 -8.607679009437561035e-01
9.120000000000000000e+02 6.560279846191406250e+01 -2.072979927062988281e+01 -1.337396025657653809e+00 6.405456066131591797e-01 -2.090551257133483887e-01 7.666035294532775879e-01
9.130000000000000000e+02 6.171741867065429688e+01 -2.310791206359863281e+01 1.159434676170349121e+00 6.792984008789062500e-01 5.516198873519897461e-01 1.115193247795104980e+00
9.140000000000000000e+02 5.984632492065429688e+01 -2.305565834045410156e+01 1.309312462806701660e+00 1.124992966651916504e+00 7.302916049957275391e-01 1.241869211196899414e+00
9.150000000000000000e+02 5.648002624511718750e+01 -2.741558837890625000e+01 1.245501637458801270e+00 5.092484474182128906e+00 1.901395797729492188e+00 1.461686253547668457e+00
9.160000000000000000e+02 5.360354232788085938e+01 -2.872678947448730469e+01 1.415481805801391602e+00 6.896017551422119141e+00 2.493449687957763672e+00 -1.775106787681579590e+00
9.170000000000000000e+02 7.103342437744140625e+01 -2.287846565246582031e+01 8.311396241188049316e-01 6.736216068267822266e+00 2.270206689834594727e+00 -2.387848377227783203e+00
9.180000000000000000e+02 7.815993499755859375e+01 -2.231327819824218750e+01 2.130913920700550079e-02 7.351606845855712891e+00 2.211874723434448242e+00 6.094163060188293457e-01
9.190000000000000000e+02 7.190471649169921875e+01 -2.973379707336425781e+01 1.021615028381347656e+00 9.414047241210937500e+00 3.130698680877685547e+00 1.514518857002258301e+00
9.200000000000000000e+02 5.876664352416992188e+01 -2.381539535522460938e+01 1.636356711387634277e+00 1.429515004158020020e+00 9.197615385055541992e-01 1.304085493087768555e+00
9.210000000000000000e+02 7.172188568115234375e+01 -2.718096923828125000e+01 3.130235970020294189e-01 1.351617813110351562e+01 4.148760795593261719e+00 1.046339988708496094e+00
9.220000000000000000e+02 7.268186950683593750e+01 -2.738886070251464844e+01 1.462306618690490723e+00 1.079549503326416016e+01 3.677340507507324219e+00 6.386159062385559082e-01
9.230000000000000000e+02 6.815496826171875000e+01 -3.313097763061523438e+01 -2.853684425354003906e-01 8.473761677742004395e-01 1.686023175716400146e-01 5.285622477531433105e-01
9.240000000000000000e+02 5.552199554443359375e+01 -2.613749122619628906e+01 1.084856629371643066e+00 4.566918849945068359e+00 1.695532679557800293e+00 1.374198198318481445e-01
9.250000000000000000e+02 7.159421539306640625e+01 -2.104384613037109375e+01 -1.498738050460815430e+00 6.994068145751953125e+00 1.648598909378051758e+00 -1.311482191085815430e+00
9.260000000000000000e+02 7.267344665527343750e+01 -2.830450439453125000e+01 1.227172732353210449e+00 9.785479545593261719e+00 3.303795576095581055e+00 4.801717698574066162e-01
9.270000000000000000e+02 5.767367172241210938e+01 -2.456935882568359375e+01 1.675453424453735352e+00 1.835252046585083008e+00 1.053211569786071777e+00 1.325659513473510742e+00
9.280000000000000000e+02 6.932513427734375000e+01 -3.433498001098632812e+01 -5.269709229469299316e-01 3.093934297561645508e+00 7.700889706611633301e-01 9.937905073165893555e-01
9.290000000000000000e+02 6.825550842285156250e+01 -3.550930404663085938e+01 -4.123388230800628662e-01 1.954909086227416992e+00 4.627710580825805664e-01 9.754106998443603516e-01
9.300000000000000000e+02 6.565567016601562500e+01 -3.774637222290039062e+01 4.564232230186462402e-01 8.800097703933715820e-01 4.009298980236053467e-01 2.179120332002639771e-01
9.310000000000000000e+02 5.658856964111328125e+01 -2.535794067382812500e+01 1.337703227996826172e+00 3.344088554382324219e+00 1.404537558555603027e+00 1.197316527366638184e+00
9.320000000000000000e+02 6.452847290039062500e+01 -3.978786849975585938e+01 9.175640940666198730e-01 7.731857895851135254e-01 5.072249770164489746e-01 -8.118390291929244995e-02
9.330000000000000000e+02 7.570644378662109375e+01 -2.897509574890136719e+01 5.840766429901123047e-01 7.798077106475830078e+00 2.514646053314208984e+00 -5.254973769187927246e-01
9.340000000000000000e+02 7.252349090576171875e+01 -2.482987976074218750e+01 1.346676230430603027e+00 1.132264137268066406e+01 3.800795316696166992e+00 -4.837208092212677002e-01
9.350000000000000000e+02 5.758977508544921875e+01 -2.051121711730957031e+01 3.082742989063262939e-01 1.036938548088073730e+00 4.035638570785522461e-01 1.200220108032226562e+00
9.360000000000000000e+02 6.143144226074218750e+01 -1.605284881591796875e+01 -1.476667523384094238e-01 1.211320519447326660e+00 3.190961480140686035e-01 1.162018537521362305e+00
9.370000000000000000e+02 7.171416473388671875e+01 -3.176022911071777344e+01 -5.817706584930419922e-01 7.089844226837158203e+00 1.952422022819519043e+00 6.168219447135925293e-01
9.380000000000000000e+02 4.572642135620117188e+01 -3.021658515930175781e+01 4.083441197872161865e-01 7.727020740509033203e+00 2.440609455108642578e+00 -1.754012703895568848e+00
9.390000000000000000e+02 4.500161361694335938e+01 -2.859912872314453125e+01 8.773615956306457520e-01 9.006892204284667969e+00 2.965276241302490234e+00 -1.688684225082397461e+00
9.400000000000000000e+02 8.630264282226562500e+00 -2.795890235900878906e+01 -2.327014923095703125e+00 5.407063961029052734e+00 9.240146875381469727e-01 8.107224106788635254e-01
9.410000000000000000e+02 3.506967926025390625e+01 -1.560760307312011719e+01 -4.543727040290832520e-01 1.273544073104858398e+00 2.457514107227325439e-01 -1.757907867431640625e+00
9.420000000000000000e+02 1.198971843719482422e+01 -3.072422981262207031e+01 -3.030979871749877930e+00 -2.657768428325653076e-01 -9.890270233154296875e-01 8.009873032569885254e-01
9.430000000000000000e+02 1.506124401092529297e+01 -3.066210174560546875e+01 -4.904838085174560547e+00 -5.740276575088500977e-01 -1.643659710884094238e+00 1.520159840583801270e+00
9.440000000000000000e+02 4.261407852172851562e+01 -1.927168655395507812e+01 2.010374546051025391e+00 9.997337341308593750e+00 3.602313518524169922e+00 -2.316205978393554688e+00
9.450000000000000000e+02 3.060197639465332031e+01 -1.483096981048583984e+01 -2.301696300506591797e+00 7.329563498497009277e-01 -4.706220030784606934e-01 -2.475960999727249146e-01
9.460000000000000000e+02 4.083530807495117188e+01 -1.730636978149414062e+01 5.369071364402770996e-01 8.190365791320800781e+00 2.618181943893432617e+00 -3.529224634170532227e+00
9.470000000000000000e+02 6.927906513214111328e+00 -2.290180397033691406e+01 1.823830008506774902e+00 8.913799285888671875e+00 3.221288919448852539e+00 2.900369405746459961e+00
9.480000000000000000e+02 4.236360931396484375e+01 -2.539717674255371094e+01 3.644889891147613525e-01 1.454323959350585938e+01 4.472318649291992188e+00 -7.553408145904541016e-01
9.490000000000000000e+02 4.228852081298828125e+01 -2.804592514038085938e+01 7.993947267532348633e-01 1.313045120239257812e+01 4.178953647613525391e+00 7.575858235359191895e-01
9.500000000000000000e+02 3.859091567993164062e+01 -3.416365051269531250e+01 -2.226971149444580078e+00 9.628895521163940430e-01 -3.792244791984558105e-01 7.200189232826232910e-01
9.510000000000000000e+02 2.303301239013671875e+01 -3.349715042114257812e+01 -2.076491355895996094e+00 -5.718397349119186401e-02 -6.401025652885437012e-01 3.109831809997558594e-01
9.520000000000000000e+02 2.452851295471191406e+01 -3.328028106689453125e+01 -2.020562648773193359e+00 -6.139868870377540588e-02 -6.245883703231811523e-01 2.583295106887817383e-01
9.530000000000000000e+02 2.116484260559082031e+01 -1.355154132843017578e+01 -1.131765747070312500e+01 -7.910810112953186035e-01 -3.632621526718139648e+00 2.170076370239257812e+00
9.540000000000000000e+02 1.731340026855468750e+01 -7.109920978546142578e+00 4.387915134429931641e+00 6.295825958251953125e+00 3.205122232437133789e+00 6.236989498138427734e+00
9.550000000000000000e+02 4.256119918823242188e+01 -3.308856964111328125e+01 -2.081816196441650391e+00 5.954263687133789062e+00 1.161734342575073242e+00 1.290057897567749023e-01
9.560000000000000000e+02 4.232191848754882812e+01 -3.107730293273925781e+01 -3.070881366729736328e-01 6.893524646759033203e+00 1.975930929183959961e+00 7.330833673477172852e-01
9.570000000000000000e+02 6.632237434387207031e+00 -1.959210205078125000e+01 2.249464273452758789e+00 7.501443386077880859e+00 2.925272226333618164e+00 1.990169048309326172e+00
9.580000000000000000e+02 7.322617053985595703e+00 -2.160866928100585938e+01 2.461610555648803711e+00 1.032043266296386719e+01 3.834612846374511719e+00 2.828366994857788086e+00
9.590000000000000000e+02 8.935029983520507812e+00 -1.777309989929199219e+01 3.002456665039062500e+00 1.033265399932861328e+01 4.000533103942871094e+00 4.257317543029785156e+00
9.600000000000000000e+02 2.380309867858886719e+01 -1.441680335998535156e+01 -7.541170597076416016e+00 -1.194362878799438477e+00 -2.620660066604614258e+00 2.569432258605957031e+00
9.610000000000000000e+02 3.726830291748046875e+01 -3.477790832519531250e+01 -2.089581966400146484e+00 1.517418622970581055e-01 -5.813519954681396484e-01 3.098585009574890137e-01
9.620000000000000000e+02 1.799136352539062500e+01 -3.440552520751953125e+01 -1.994027733802795410e+00 -5.712039470672607422e-01 -7.695695161819458008e-01 8.492940068244934082e-01
9.630000000000000000e+02 1.911411285400390625e+01 -1.196724033355712891e+01 -5.545388698577880859e+00 -1.159581318497657776e-01 -1.698404073715209961e+00 2.014145612716674805e+00
9.640000000000000000e+02 1.903135108947753906e+01 -9.906788825988769531e+00 -1.273866891860961914e+00 2.218710660934448242e+00 2.834531664848327637e-01 2.522767782211303711e+00
9.650000000000000000e+02 4.375551605224609375e+01 -2.445220947265625000e+01 1.933722257614135742e+00 1.308276748657226562e+01 4.504947185516357422e+00 -3.280415058135986328e+00
9.660000000000000000e+02 3.004030990600585938e+01 -3.202540588378906250e+01 -2.065363407135009766e+00 9.680531919002532959e-03 -6.167048811912536621e-01 2.651000618934631348e-01
9.670000000000000000e+02 3.100395011901855469e+01 -3.374752807617187500e+01 -2.402939796447753906e+00 5.990357697010040283e-02 -7.029108405113220215e-01 6.100189313292503357e-02
9.680000000000000000e+02 3.341637802124023438e+01 -3.420674514770507812e+01 -2.699391841888427734e+00 -1.667382866144180298e-01 -8.598390221595764160e-01 -1.806566566228866577e-01
9.690000000000000000e+02 2.154132270812988281e+01 -1.250668811798095703e+01 -7.163706302642822266e+00 -5.369570255279541016e-01 -2.310199022293090820e+00 7.229036688804626465e-01
9.700000000000000000e+02 1.473521232604980469e+01 -3.156142807006835938e+01 -3.634034633636474609e+00 -8.920980095863342285e-01 -1.357839822769165039e+00 1.302259922027587891e+00
9.710000000000000000e+02 2.712346267700195312e+01 -3.334427261352539062e+01 -1.982441782951354980e+00 -1.131608337163925171e-02 -5.981273651123046875e-01 1.547258794307708740e-01
9.720000000000000000e+02 1.340259647369384766e+01 -3.131628990173339844e+01 -3.268269300460815430e+00 -7.470877170562744141e-01 -1.204607129096984863e+00 1.144616007804870605e+00
9.730000000000000000e+02 2.746303939819335938e+01 -1.621689605712890625e+01 -3.931874990463256836e+00 -4.545388817787170410e-01 -1.315924167633056641e+00 1.411126017570495605e+00
9.740000000000000000e+02 2.025376510620117188e+01 -1.225440311431884766e+01 -7.052124977111816406e+00 -5.618977546691894531e-01 -2.284206867218017578e+00 1.001034855842590332e+00
9.750000000000000000e+02 3.514059448242187500e+01 -1.674492454528808594e+01 -8.405915498733520508e-01 5.150603652000427246e-01 -9.765934944152832031e-02 -1.016431450843811035e+00
9.760000000000000000e+02 3.653012084960937500e+01 -1.790301322937011719e+01 -4.481395184993743896e-01 2.882219254970550537e-01 -4.797527566552162170e-02 -8.132056593894958496e-01
9.770000000000000000e+02 2.049347686767578125e+01 -3.149816322326660156e+01 -2.735139369964599609e+00 -3.023795597255229950e-02 -8.296132087707519531e-01 1.166515797376632690e-01
9.780000000000000000e+02 2.127636528015136719e+01 -3.361439514160156250e+01 -2.195306777954101562e+00 -2.004243433475494385e-01 -7.187193036079406738e-01 5.748697519302368164e-01
9.790000000000000000e+02 3.383016586303710938e+01 -1.785903167724609375e+01 -2.448304653167724609e+00 6.025287508964538574e-02 -7.164155244827270508e-01 -5.436189100146293640e-02
9.800000000000000000e+02 2.674814987182617188e+01 -1.457246685028076172e+01 -4.208305358886718750e+00 7.445836812257766724e-02 -1.240154027938842773e+00 9.318900108337402344e-01
9.810000000000000000e+02 3.146128463745117188e+01 -1.632610130310058594e+01 -2.372437000274658203e+00 4.320158660411834717e-01 -5.821263194084167480e-01 1.098397746682167053e-01
9.820000000000000000e+02 2.736464881896972656e+01 -3.173059272766113281e+01 -2.018623828887939453e+00 -2.703264728188514709e-02 -6.136969923973083496e-01 1.832290142774581909e-01
9.830000000000000000e+02 2.963307571411132812e+01 -3.357589340209960938e+01 -2.169823884963989258e+00 5.396701022982597351e-02 -6.347571015357971191e-01 1.271822005510330200e-01
9.840000000000000000e+02 1.973536491394042969e+00 -2.461515426635742188e+01 1.586521118879318237e-01 1.390398859977722168e+00 4.647153019905090332e-01 2.010648727416992188e+00
9.850000000000000000e+02 7.664212703704833984e+00 -2.483420372009277344e+01 8.116539120674133301e-01 9.866938591003417969e+00 3.203577756881713867e+00 1.642178177833557129e+00
9.860000000000000000e+02 2.837259101867675781e+01 -3.329848480224609375e+01 -2.053757190704345703e+00 3.489984199404716492e-03 -6.150801777839660645e-01 1.588286459445953369e-01
9.870000000000000000e+02 9.648987770080566406e+00 -2.892995834350585938e+01 -2.449239015579223633e+00 2.429130077362060547e+00 -6.032700184732675552e-03 4.476864039897918701e-01
9.880000000000000000e+02 4.427802658081054688e+01 -2.739424133300781250e+01 1.373974204063415527e+00 9.838142395019531250e+00 3.363635063171386719e+00 -1.601068854331970215e+00
9.890000000000000000e+02 4.333274459838867188e+01 -2.686926841735839844e+01 8.812977075576782227e-01 1.241274452209472656e+01 3.988212823867797852e+00 -5.208792686462402344e-01
9.900000000000000000e+02 2.583467483520507812e+01 -3.333741378784179688e+01 -1.992556214332580566e+00 -3.950216248631477356e-02 -6.096175312995910645e-01 1.773451715707778931e-01
9.910000000000000000e+02 4.158417892456054688e+01 -1.942455291748046875e+01 2.254750490188598633e+00 1.188311004638671875e+01 4.241357803344726562e+00 -4.473525524139404297e+00
9.920000000000000000e+02 4.357559585571289062e+01 -2.570269775390625000e+01 8.617926239967346191e-01 1.272061252593994141e+01 4.074721813201904297e+00 -1.740622520446777344e+00
9.930000000000000000e+02 5.721906280517578125e+01 3.887273025512695312e+01 -2.796012461185455322e-01 -1.520668119192123413e-01 -1.295004189014434814e-01 2.408286184072494507e-01
9.940000000000000000e+02 6.435736083984375000e+01 4.012203216552734375e+01 3.243498206138610840e-01 4.072015285491943359e-01 2.194654047489166260e-01 4.143298417329788208e-02
9.950000000000000000e+02 5.700402069091796875e+01 -2.347252845764160156e+01 1.288015127182006836e+00 2.138626098632812500e+00 1.027992367744445801e+00 1.051570177078247070e+00
9.960000000000000000e+02 5.916406250000000000e+01 -1.788009643554687500e+01 -9.592026472091674805e-01 7.861642241477966309e-01 -5.191151425242424011e-02 1.475329279899597168e+00
9.970000000000000000e+02 5.684258651733398438e+01 -1.654543685913085938e+01 -4.340092182159423828e+00 -4.967820346355438232e-01 -1.451062202453613281e+00 4.760140180587768555e-01
9.980000000000000000e+02 6.069877624511718750e+01 -1.510847949981689453e+01 5.980852246284484863e-01 7.406952977180480957e-01 4.016341567039489746e-01 7.596035003662109375e-01
9.990000000000000000e+02 4.120141601562500000e+01 1.030454444885253906e+01 1.791047692298889160e+00 1.051143169403076172e+01 3.690743684768676758e+00 -1.216543078422546387e+00
1.000000000000000000e+03 4.228699111938476562e+01 1.333335018157958984e+01 2.571226060390472412e-01 1.174408531188964844e+01 3.600362300872802734e+00 4.908787906169891357e-01
1.001000000000000000e+03 7.109233093261718750e+01 3.117192840576171875e+01 -6.292968988418579102e-01 5.780768871307373047e+00 1.545441627502441406e+00 2.229237407445907593e-01
1.002000000000000000e+03 6.704562377929687500e+01 3.419173049926757812e+01 -9.318230748176574707e-01 1.516318082809448242e+00 1.753484904766082764e-01 -5.214226990938186646e-02
1.003000000000000000e+03 4.037005233764648438e+01 1.944308471679687500e+01 8.414573073387145996e-01 8.081183433532714844e+00 2.676792144775390625e+00 8.480337262153625488e-01
1.004000000000000000e+03 4.125545120239257812e+01 1.629838752746582031e+01 8.433576822280883789e-01 9.668428421020507812e+00 3.153535842895507812e+00 9.438897967338562012e-01
1.005000000000000000e+03 7.020873260498046875e+01 6.162449359893798828e+00 2.010644823312759399e-01 1.295019817352294922e+01 3.945378780364990234e+00 -1.623710095882415771e-01
1.006000000000000000e+03 7.351392364501953125e+01 7.911218643188476562e+00 9.582163393497467041e-02 9.188270568847656250e+00 2.785227775573730469e+00 6.899401545524597168e-01
1.007000000000000000e+03 7.752734375000000000e+01 -3.496320724487304688e+01 -2.112142741680145264e-01 7.665515422821044922e+00 2.236290454864501953e+00 -3.918014764785766602e-01
1.008000000000000000e+03 7.625157928466796875e+01 -2.053521728515625000e+01 -4.054140150547027588e-01 7.652812480926513672e+00 2.174219608306884766e+00 5.510565042495727539e-01
1.009000000000000000e+03 7.935536193847656250e+01 -2.509382820129394531e+01 2.214856259524822235e-02 6.212114334106445312e+00 1.870278835296630859e+00 1.518054604530334473e-01
1.010000000000000000e+03 7.806082153320312500e+01 -2.371078681945800781e+01 1.139168366789817810e-01 7.067682743072509766e+00 2.154479980468750000e+00 5.700256228446960449e-01
1.011000000000000000e+03 7.803027343750000000e+01 -3.070481681823730469e+01 8.800959587097167969e-02 7.191324234008789062e+00 2.183800220489501953e+00 -5.922405719757080078e-01
1.012000000000000000e+03 7.930802917480468750e+01 -3.208344650268554688e+01 4.665839672088623047e-02 7.356426239013671875e+00 2.220925331115722656e+00 -2.624466121196746826e-01
1.013000000000000000e+03 7.796490478515625000e+01 -3.210665893554687500e+01 -5.697718635201454163e-02 7.448283672332763672e+00 2.217391967773437500e+00 -6.203252077102661133e-01
1.014000000000000000e+03 7.525133514404296875e+01 -3.636406707763671875e+01 -3.361418545246124268e-01 6.916662693023681641e+00 1.974156260490417480e+00 -2.135653346776962280e-01
1.015000000000000000e+03 7.727099609375000000e+01 -3.797380447387695312e+01 -2.212772071361541748e-01 7.976312637329101562e+00 2.326510667800903320e+00 -1.989579647779464722e-01
1.016000000000000000e+03 7.567499542236328125e+01 -4.044247436523437500e+01 -4.145886003971099854e-02 7.188270092010498047e+00 2.144043207168579102e+00 -1.881007552146911621e-01
1.017000000000000000e+03 7.820076751708984375e+01 1.664129447937011719e+01 3.016503062099218369e-03 7.560488224029541016e+00 2.269051551818847656e+00 2.491454333066940308e-01
1.018000000000000000e+03 7.791991424560546875e+01 3.308759689331054688e+01 -7.842840254306793213e-02 9.852361679077148438e+00 2.932179927825927734e+00 3.160570859909057617e-01
1.019000000000000000e+03 7.817778778076171875e+01 2.907962417602539062e+01 -2.388606034219264984e-02 9.413102149963378906e+00 2.816764831542968750e+00 4.648474752902984619e-01
1.020000000000000000e+03 7.939323425292968750e+01 2.782391548156738281e+01 1.911498489789664745e-03 9.589260101318359375e+00 2.877351522445678711e+00 1.997644752264022827e-01
1.021000000000000000e+03 7.816072845458984375e+01 2.637457656860351562e+01 2.751287445425987244e-02 8.908798217773437500e+00 2.680893421173095703e+00 4.723113477230072021e-01
1.022000000000000000e+03 7.816049957275390625e+01 2.499021530151367188e+01 2.534763328731060028e-02 8.664501190185546875e+00 2.606954574584960938e+00 4.454703927040100098e-01
1.023000000000000000e+03 7.938765716552734375e+01 2.505127334594726562e+01 1.245372183620929718e-02 8.838946342468261719e+00 2.655420064926147461e+00 1.837001591920852661e-01
1.024000000000000000e+03 7.703232574462890625e+01 1.660147476196289062e+01 1.197716407477855682e-02 7.813311576843261719e+00 2.347586631774902344e+00 3.686563670635223389e-01
1.025000000000000000e+03 7.940203857421875000e+01 1.808667755126953125e+01 -7.768217474222183228e-04 7.501968383789062500e+00 2.250357389450073242e+00 1.083948761224746704e-01
1.026000000000000000e+03 7.821469879150390625e+01 1.803247261047363281e+01 1.587026380002498627e-02 7.709096908569335938e+00 2.317490100860595703e+00 2.678296566009521484e-01
1.027000000000000000e+03 7.817517852783203125e+01 1.524653816223144531e+01 -1.198066771030426025e-02 7.413920402526855469e+00 2.220582008361816406e+00 2.687709927558898926e-01
1.028000000000000000e+03 7.464936065673828125e+01 9.393525123596191406e+00 -9.965639561414718628e-02 8.502210617065429688e+00 2.520766258239746094e+00 6.901062130928039551e-01
1.029000000000000000e+03 7.816976165771484375e+01 1.104168224334716797e+01 -2.139438129961490631e-02 6.889011383056640625e+00 2.060285091400146484e+00 3.675062358379364014e-01
1.030000000000000000e+03 7.700086212158203125e+01 8.176496505737304688e+00 1.699192263185977936e-02 7.139512062072753906e+00 2.146951198577880859e+00 5.695614814758300781e-01
1.031000000000000000e+03 7.941638183593750000e+01 -1.954568099975585938e+01 -2.566672116518020630e-02 8.024827957153320312e+00 2.399748325347900391e+00 1.350273936986923218e-01
1.032000000000000000e+03 7.825530242919921875e+01 -2.094824409484863281e+01 -1.294576227664947510e-01 7.597326278686523438e+00 2.240360736846923828e+00 5.180116295814514160e-01
1.033000000000000000e+03 7.817268371582031250e+01 -1.409029293060302734e+01 -5.663161724805831909e-02 7.686839580535888672e+00 2.289062261581420898e+00 -2.414858341217041016e-01
1.034000000000000000e+03 7.811791229248046875e+01 -7.045337200164794922e+00 -5.025408696383237839e-03 6.713191509246826172e+00 2.012449741363525391e+00 -4.342159926891326904e-01
1.035000000000000000e+03 7.816487884521484375e+01 1.320897459983825684e+00 1.119846552610397339e-01 5.769738674163818359e+00 1.764516949653625488e+00 -6.874299794435501099e-02
1.036000000000000000e+03 7.939337921142578125e+01 2.920208930969238281e+01 -6.770502310246229172e-03 9.971602439880371094e+00 2.989449501037597656e+00 1.920351237058639526e-01
1.037000000000000000e+03 7.799803924560546875e+01 4.167481613159179688e+01 3.359999954700469971e-01 1.029199028015136719e+01 3.188397169113159180e+00 -9.444705396890640259e-02
1.038000000000000000e+03 7.395768737792968750e+01 3.843519592285156250e+01 -1.751644760370254517e-01 6.985939979553222656e+00 2.043232679367065430e+00 1.260582804679870605e-01
1.039000000000000000e+03 7.925143432617187500e+01 3.471466827392578125e+01 -2.088575065135955811e-02 1.096938419342041016e+01 3.284549474716186523e+00 7.548802345991134644e-02
1.040000000000000000e+03 7.577731323242187500e+01 3.680826187133789062e+01 -2.935401201248168945e-01 8.611810684204101562e+00 2.495481014251708984e+00 2.127315998077392578e-01
1.041000000000000000e+03 7.246013641357421875e+01 4.974276065826416016e+00 4.849032759666442871e-01 1.044963645935058594e+01 3.280361890792846680e+00 4.348871111869812012e-01
1.042000000000000000e+03 7.939829254150390625e+01 4.149715900421142578e+00 2.696042135357856750e-02 4.895560264587402344e+00 1.476756215095520020e+00 8.045503497123718262e-02
1.043000000000000000e+03 7.820236206054687500e+01 4.089440345764160156e+00 9.239139407873153687e-02 5.855556011199951172e+00 1.784384250640869141e+00 1.992987990379333496e-01
1.044000000000000000e+03 7.694100189208984375e+01 1.288251638412475586e+00 2.469852119684219360e-01 6.641221046447753906e+00 2.066461801528930664e+00 -6.604366004467010498e-02
1.045000000000000000e+03 7.811600494384765625e+01 -2.830688476562500000e+00 4.355858638882637024e-02 6.106435775756835938e+00 1.844998359680175781e+00 -3.726151883602142334e-01
1.046000000000000000e+03 7.937116241455078125e+01 -4.196672439575195312e+00 -8.036833023652434349e-04 5.790486812591552734e+00 1.736904859542846680e+00 -1.676688492298126221e-01
1.047000000000000000e+03 7.812374877929687500e+01 -5.634178161621093750e+00 -3.186622168868780136e-03 6.505190372467041016e+00 1.950601100921630859e+00 -4.388434588909149170e-01
1.048000000000000000e+03 7.807689666748046875e+01 -9.859710693359375000e+00 -2.186652272939682007e-02 7.134134292602539062e+00 2.133680343627929688e+00 -3.980356156826019287e-01
1.049000000000000000e+03 7.936122131347656250e+01 -1.118542861938476562e+01 -3.757065162062644958e-03 7.560849666595458984e+00 2.267127752304077148e+00 -1.425049453973770142e-01
1.050000000000000000e+03 7.812158203125000000e+01 -1.268019580841064453e+01 -4.257932305335998535e-02 7.522860050201416016e+00 2.244084358215332031e+00 -3.118259012699127197e-01
1.051000000000000000e+03 7.821132659912109375e+01 -1.689519882202148438e+01 -1.327364891767501831e-01 7.895900726318359375e+00 2.328949213027954102e+00 -3.585000740713439882e-05
1.052000000000000000e+03 7.940560150146484375e+01 -1.816898155212402344e+01 -3.481864929199218750e-02 8.252458572387695312e+00 2.465291976928710938e+00 6.226135045289993286e-02
1.053000000000000000e+03 7.820243072509765625e+01 -1.828850173950195312e+01 -1.277358531951904297e-01 7.865900993347167969e+00 2.321449518203735352e+00 1.736648231744766235e-01
1.054000000000000000e+03 7.104529571533203125e+01 1.319871997833251953e+01 -1.271175295114517212e-01 9.150486946105957031e+00 2.707010746002197266e+00 -6.473886966705322266e-02
1.055000000000000000e+03 5.367564392089843750e+01 -1.519281959533691406e+01 -1.871160507202148438e+00 -2.966262996196746826e-01 -6.503360271453857422e-01 1.146106362342834473e+00
1.056000000000000000e+03 5.224886322021484375e+01 3.334744262695312500e+01 2.780380472540855408e-02 5.398874878883361816e-01 1.703073978424072266e-01 3.088246285915374756e-01
1.057000000000000000e+03 5.160580062866210938e+01 3.751780700683593750e+01 -4.884285330772399902e-01 1.298048019409179688e+00 2.428858429193496704e-01 3.794555068016052246e-01
1.058000000000000000e+03 6.584566497802734375e+01 3.323379898071289062e+01 -1.111395835876464844e+00 -2.183653265237808228e-01 -3.989283442497253418e-01 7.253252863883972168e-01
1.059000000000000000e+03 7.098179626464843750e+01 2.442318725585937500e+01 3.346532881259918213e-01 8.160945892333984375e+00 2.548679590225219727e+00 -2.425825223326683044e-02
1.060000000000000000e+03 6.972899627685546875e+01 1.170394992828369141e+01 -4.194228053092956543e-01 7.994560718536376953e+00 2.272541284561157227e+00 1.150093004107475281e-01
1.061000000000000000e+03 4.708509445190429688e+01 -2.672792673110961914e+00 5.061398148536682129e-01 5.293161869049072266e+00 1.739790439605712891e+00 -2.108054161071777344e+00
1.062000000000000000e+03 6.645637512207031250e+01 -8.846812248229980469e+00 9.784201383590698242e-01 4.209623813629150391e+00 1.556413173675537109e+00 1.889288902282714844e+00
1.063000000000000000e+03 7.032460021972656250e+01 2.898046875000000000e+01 -3.211898729205131531e-02 5.884956359863281250e+00 1.755851149559020996e+00 -9.551896899938583374e-02
1.064000000000000000e+03 6.299320220947265625e+01 -1.337734222412109375e+01 1.589845061302185059e+00 1.551729559898376465e+00 9.424723386764526367e-01 1.450405836105346680e+00
1.065000000000000000e+03 6.487382507324218750e+01 -1.318482398986816406e+01 1.157402157783508301e+00 2.438299179077148438e+00 1.078710436820983887e+00 1.240556478500366211e+00
1.066000000000000000e+03 6.993907165527343750e+01 1.724378585815429688e+01 2.047725394368171692e-02 9.460031509399414062e+00 2.844152688980102539e+00 1.569027006626129150e-01
1.067000000000000000e+03 6.626396179199218750e+01 3.555411529541015625e+01 -7.083581089973449707e-01 1.027616024017333984e+00 9.577738493680953979e-02 -9.129551053047180176e-02
1.068000000000000000e+03 4.111507034301757812e+01 1.482337379455566406e+01 7.167408466339111328e-01 1.034165859222412109e+01 3.317519903182983398e+00 6.289470791816711426e-01
1.069000000000000000e+03 4.579758834838867188e+01 2.920016860961914062e+01 3.429982066154479980e-01 4.219249248504638672e+00 1.368674278259277344e+00 1.309036731719970703e+00
1.070000000000000000e+03 4.306409835815429688e+01 2.345299339294433594e+01 8.880792260169982910e-01 6.849553585052490234e+00 2.321289777755737305e+00 1.727647304534912109e+00
1.071000000000000000e+03 4.693104171752929688e+01 3.041859626770019531e+01 2.260514646768569946e-01 3.525926828384399414e+00 1.125593543052673340e+00 1.232868313789367676e+00
1.072000000000000000e+03 4.362540817260742188e+01 2.484315490722656250e+01 7.449595928192138672e-01 6.244860649108886719e+00 2.096946239471435547e+00 1.732255458831787109e+00
1.073000000000000000e+03 6.896010589599609375e+01 3.201474380493164062e+01 -8.269876837730407715e-01 3.628135204315185547e+00 8.403442502021789551e-01 -2.508235573768615723e-01
1.074000000000000000e+03 6.793495178222656250e+01 3.315435028076171875e+01 -8.511633872985839844e-01 2.426244974136352539e+00 4.725244641304016113e-01 -1.859592646360397339e-01
1.075000000000000000e+03 4.840390396118164062e+01 -1.086710739135742188e+01 -4.481652379035949707e-01 5.443654537200927734e+00 1.498646855354309082e+00 -7.657396197319030762e-01
1.076000000000000000e+03 4.351379776000976562e+01 2.031539154052734375e+01 8.371555805206298828e-01 8.643789291381835938e+00 2.844283342361450195e+00 2.417969226837158203e+00
1.077000000000000000e+03 4.924304962158203125e+01 -4.831492424011230469e+00 5.411228537559509277e-01 5.330089569091796875e+00 1.761363744735717773e+00 -1.738884329795837402e+00
1.078000000000000000e+03 4.727493667602539062e+01 -6.897787094116210938e+00 1.822314970195293427e-02 5.511631011962890625e+00 1.658956289291381836e+00 -1.561906933784484863e+00
1.079000000000000000e+03 6.192884445190429688e+01 -1.807912826538085938e+01 -4.000653028488159180e-01 1.336069464683532715e+00 2.808012366294860840e-01 1.620088458061218262e+00
1.080000000000000000e+03 4.214305496215820312e+01 2.063265419006347656e+01 8.338955640792846680e-01 8.134188652038574219e+00 2.690425157546997070e+00 1.693075776100158691e+00
1.081000000000000000e+03 7.104293823242187500e+01 1.183800888061523438e+01 -5.898580551147460938e-01 9.533489227294921875e+00 2.683089494705200195e+00 4.470016434788703918e-02
1.082000000000000000e+03 5.275609207153320312e+01 -1.598305797576904297e+01 -2.264314889907836914e+00 2.021334171295166016e+00 -7.289421558380126953e-02 6.475883419625461102e-04
1.083000000000000000e+03 6.254574584960937500e+01 -1.503725242614746094e+01 7.824995517730712891e-01 1.395850658416748047e+00 6.535050868988037109e-01 1.140284895896911621e+00
1.084000000000000000e+03 4.105088043212890625e+01 1.334192276000976562e+01 7.085474729537963867e-01 1.075634860992431641e+01 3.439468860626220703e+00 -9.827652573585510254e-02
1.085000000000000000e+03 7.040618896484375000e+01 -2.697798252105712891e+00 5.134509205818176270e-01 9.407597541809082031e+00 2.976314544677734375e+00 1.416224956512451172e+00
1.086000000000000000e+03 7.024158477783203125e+01 3.331826210021972656e+00 1.292266398668289185e-01 1.334748268127441406e+01 4.043012619018554688e+00 3.405048847198486328e-01
1.087000000000000000e+03 4.148133468627929688e+01 5.477083683013916016e+00 1.123012900352478027e+00 7.851403236389160156e+00 2.692324876785278320e+00 -1.842782616615295410e+00
1.088000000000000000e+03 4.803060531616210938e+01 -5.224657535552978516e+00 3.538468778133392334e-01 5.341287612915039062e+00 1.708540320396423340e+00 -1.759284496307373047e+00
1.089000000000000000e+03 4.830688095092773438e+01 -2.225432872772216797e+00 6.804805994033813477e-01 5.045558929443359375e+00 1.717811822891235352e+00 -1.970416545867919922e+00
1.090000000000000000e+03 7.068125152587890625e+01 2.742829322814941406e+01 2.163309603929519653e-01 6.849773406982421875e+00 2.119831323623657227e+00 -9.820466488599777222e-02
1.091000000000000000e+03 6.987237548828125000e+01 -4.073010921478271484e+00 5.318331718444824219e-01 8.403694152832031250e+00 2.680658102035522461e+00 1.559268116950988770e+00
1.092000000000000000e+03 4.523603057861328125e+01 3.989114999771118164e+00 1.547186732292175293e+00 5.865071296691894531e+00 2.223677396774291992e+00 -3.035463809967041016e+00
1.093000000000000000e+03 4.489045715332031250e+01 2.775865173339843750e+01 5.110393762588500977e-01 4.830213546752929688e+00 1.602375864982604980e+00 1.484765291213989258e+00
1.094000000000000000e+03 6.053310775756835938e+01 -1.801956939697265625e+01 -5.821543931961059570e-01 1.238317012786865234e+00 1.968487650156021118e-01 1.606672644615173340e+00
1.095000000000000000e+03 6.014562606811523438e+01 -1.691272163391113281e+01 -7.269138097763061523e-01 1.023535728454589844e+00 8.898656815290451050e-02 1.303271770477294922e+00
1.096000000000000000e+03 4.656067276000976562e+01 -1.425791263580322266e+00 6.383411288261413574e-01 5.394979000091552734e+00 1.809996008872985840e+00 -2.229868888854980469e+00
1.097000000000000000e+03 6.875654602050781250e+01 -6.772607803344726562e+00 5.299950838088989258e-01 6.441176891326904297e+00 2.091351509094238281e+00 1.576340317726135254e+00
1.098000000000000000e+03 4.927680969238281250e+01 -9.179008483886718750e+00 2.843209542334079742e-02 5.144716739654541016e+00 1.551944732666015625e+00 -1.108728408813476562e+00
1.099000000000000000e+03 6.814301300048828125e+01 -8.107181549072265625e+00 6.187275052070617676e-01 5.473067760467529297e+00 1.827538609504699707e+00 1.522283315658569336e+00
1.100000000000000000e+03 7.022603607177734375e+01 4.753211975097656250e+00 3.905255720019340515e-02 1.272146892547607422e+01 3.828156471252441406e+00 1.272373497486114502e-01
1.101000000000000000e+03 7.115385437011718750e+01 9.101830482482910156e+00 -1.042741760611534119e-01 1.012940883636474609e+01 3.007540464401245117e+00 2.431046515703201294e-01
1.102000000000000000e+03 7.107753753662109375e+01 1.047798442840576172e+01 -6.350145936012268066e-01 9.603427886962890625e+00 2.690523862838745117e+00 2.240912467241287231e-01
1.103000000000000000e+03 4.178145599365234375e+01 1.920391654968261719e+01 7.219143509864807129e-01 8.781639099121093750e+00 2.851065874099731445e+00 1.507064700126647949e+00
1.104000000000000000e+03 6.696669769287109375e+01 -1.254670238494873047e+01 7.845206856727600098e-01 3.410071611404418945e+00 1.258377671241760254e+00 9.555061459541320801e-01
1.105000000000000000e+03 4.965819549560546875e+01 -1.058012866973876953e+01 -1.891750097274780273e-01 4.986878871917724609e+00 1.439311146736145020e+00 -8.399894237518310547e-01
1.106000000000000000e+03 5.134460067749023438e+01 -1.155619430541992188e+01 9.625165164470672607e-02 3.864707231521606445e+00 1.188287734985351562e+00 -8.339995741844177246e-01
1.107000000000000000e+03 5.005594635009765625e+01 -1.209805870056152344e+01 -3.805126547813415527e-01 4.644438743591308594e+00 1.279177784919738770e+00 -4.297897517681121826e-01
1.108000000000000000e+03 5.022189712524414062e+01 3.348205947875976562e+01 -7.936386018991470337e-02 1.623254299163818359e+00 4.631671309471130371e-01 6.113185882568359375e-01
1.109000000000000000e+03 6.932995605468750000e+01 -5.427479267120361328e+00 5.353173613548278809e-01 7.374213695526123047e+00 2.372859239578247070e+00 1.542027711868286133e+00
1.110000000000000000e+03 4.424162292480468750e+01 2.624163627624511719e+01 6.922158002853393555e-01 5.566899299621582031e+00 1.877734541893005371e+00 1.702582478523254395e+00
1.111000000000000000e+03 4.149612426757812500e+01 8.787325859069824219e+00 1.596663951873779297e+00 1.006760406494140625e+01 3.499280452728271484e+00 -1.581577539443969727e+00
1.112000000000000000e+03 4.200065994262695312e+01 7.344822406768798828e+00 1.394962310791015625e+00 9.292082786560058594e+00 3.206113576889038086e+00 -2.240798234939575195e+00
1.113000000000000000e+03 4.337023544311523438e+01 4.708085536956787109e+00 1.236945867538452148e+00 7.258975982666015625e+00 2.548776626586914062e+00 -2.659523248672485352e+00
1.114000000000000000e+03 4.266299057006835938e+01 5.989931106567382812e+00 1.349598884582519531e+00 8.017034530639648438e+00 2.809989929199218750e+00 -2.553962230682373047e+00
1.115000000000000000e+03 4.800513839721679688e+01 3.168962287902832031e+01 9.187056124210357666e-02 2.808395862579345703e+00 8.700799345970153809e-01 1.012080907821655273e+00
1.116000000000000000e+03 6.993014526367187500e+01 2.144817352294921875e+01 1.044241525232791901e-02 8.821905136108398438e+00 2.649704456329345703e+00 8.930353820323944092e-02
1.117000000000000000e+03 7.105076599121093750e+01 2.298461532592773438e+01 2.032625526189804077e-01 8.478631973266601562e+00 2.604568481445312500e+00 6.089575588703155518e-02
1.118000000000000000e+03 4.360365295410156250e+01 1.727791786193847656e+00 8.241968154907226562e-01 6.201409816741943359e+00 2.107681989669799805e+00 -2.370944261550903320e+00
1.119000000000000000e+03 7.109252166748046875e+01 2.156816291809082031e+01 8.758421242237091064e-02 8.716237068176269531e+00 2.641146421432495117e+00 1.619039624929428101e-01
1.120000000000000000e+03 7.577105712890625000e+01 1.520868682861328125e+01 -2.471284382045269012e-02 8.057096481323242188e+00 2.409714937210083008e+00 4.252983927726745605e-01
1.121000000000000000e+03 7.113915252685546875e+01 1.873900604248046875e+01 3.155561536550521851e-02 8.991345405578613281e+00 2.706870317459106445e+00 2.940774559974670410e-01
1.122000000000000000e+03 1.301569819450378418e+00 -4.009991455078125000e+01 -1.548293977975845337e-01 7.113149642944335938e+00 2.087496042251586914e+00 -2.284420281648635864e-01
1.123000000000000000e+03 8.593877553939819336e-01 3.737929153442382812e+01 1.331538194790482521e-03 -3.059740364551544189e-01 -9.139275550842285156e-02 -4.489924758672714233e-02
1.124000000000000000e+03 7.341298460960388184e-01 3.462150192260742188e+01 5.055902292951941490e-04 -4.417346715927124023e-01 -1.323687285184860229e-01 -2.823641523718833923e-02
1.125000000000000000e+03 7.113963365554809570e-01 3.322705841064453125e+01 5.424828268587589264e-04 -4.961344003677368164e-01 -1.486775726079940796e-01 -2.712609246373176575e-02
1.126000000000000000e+03 6.872156262397766113e-01 2.764435768127441406e+01 5.248822853900492191e-04 -7.476947903633117676e-01 -2.241509705781936646e-01 -3.200395777821540833e-02
1.127000000000000000e+03 6.892184019088745117e-01 2.623590087890625000e+01 -3.188464790582656860e-03 -8.149021863937377930e-01 -2.454271912574768066e-01 -3.469217941164970398e-02
1.128000000000000000e+03 7.289118170738220215e-01 -3.604137802124023438e+01 6.990487687289714813e-03 7.564282894134521484e+00 2.271382093429565430e+00 7.604265213012695312e-02
1.129000000000000000e+03 2.161696434020996094e+00 -3.314882278442382812e+01 -2.564334571361541748e-01 6.142839908599853516e+00 1.765921950340270996e+00 6.201272010803222656e-01
1.130000000000000000e+03 3.519585132598876953e+00 2.622702217102050781e+01 4.805805161595344543e-03 -2.740154266357421875e-01 -8.076288551092147827e-02 -1.396337747573852539e-01
1.131000000000000000e+03 3.458345890045166016e+00 2.477455711364746094e+01 1.168928761035203934e-02 -3.320879042148590088e-01 -9.611958265304565430e-02 -1.364292204380035400e-01
1.132000000000000000e+03 2.148934602737426758e+00 3.305908584594726562e+01 -2.861378248780965805e-03 -2.766211628913879395e-01 -8.384475857019424438e-02 -8.103099465370178223e-02
1.133000000000000000e+03 3.351861238479614258e+00 3.930407333374023438e+01 -1.589255593717098236e-02 -8.162289857864379883e-02 -2.925463579595088959e-02 -5.374296009540557861e-02
1.134000000000000000e+03 1.977296710014343262e+00 -2.887517166137695312e+01 -2.848946154117584229e-01 4.492139339447021484e+00 1.262173414230346680e+00 1.652283549308776855e+00
1.135000000000000000e+03 6.383503437042236328e+00 -2.414049339294433594e+01 8.285396695137023926e-01 7.533193588256835938e+00 2.508519887924194336e+00 3.128202438354492188e+00
1.136000000000000000e+03 2.159705162048339844e+00 -3.712073135375976562e+01 -8.200784772634506226e-02 6.709381580352783203e+00 1.988212108612060547e+00 9.754143655300140381e-02
1.137000000000000000e+03 1.583317875862121582e+00 -9.479204177856445312e+00 -3.621606901288032532e-02 -1.274709701538085938e+00 -3.932777345180511475e-01 -4.341984987258911133e-01
1.138000000000000000e+03 6.362814903259277344e-01 2.056945800781250000e+01 9.201953071169555187e-04 -1.051370382308959961e+00 -3.151350617408752441e-01 -2.087691798806190491e-02
1.139000000000000000e+03 6.226655840873718262e-01 1.915547752380371094e+01 3.549406770616769791e-03 -1.090033650398254395e+00 -3.259452581405639648e-01 -1.588422432541847229e-02
1.140000000000000000e+03 5.953237414360046387e-01 1.491904926300048828e+01 2.631634240970015526e-03 -1.113078713417053223e+00 -3.331341147422790527e-01 8.034734055399894714e-03
1.141000000000000000e+03 5.864686369895935059e-01 1.351040172576904297e+01 6.070096511393785477e-03 -1.077656507492065430e+00 -3.214759230613708496e-01 1.830897107720375061e-02
1.142000000000000000e+03 6.174085736274719238e-01 7.852878570556640625e+00 2.427567960694432259e-03 -6.482723355293273926e-01 -1.937534362077713013e-01 6.770107150077819824e-02
1.143000000000000000e+03 1.700261235237121582e+00 -1.630929374694824219e+01 1.655009239912033081e-01 -2.220587968826293945e+00 -6.165261268615722656e-01 -2.469892650842666626e-01
1.144000000000000000e+03 3.048379421234130859e+00 -2.162738990783691406e+01 8.508630394935607910e-01 1.390975117683410645e+00 6.725514531135559082e-01 1.783359169960021973e+00
1.145000000000000000e+03 3.646152257919311523e+00 -3.589358139038085938e+01 -4.230526685714721680e-01 5.830230236053466797e+00 1.622153282165527344e+00 4.693909585475921631e-01
1.146000000000000000e+03 2.195820331573486328e+00 -3.453907394409179688e+01 -2.369764745235443115e-01 6.481696128845214844e+00 1.873415827751159668e+00 4.228390157222747803e-01
1.147000000000000000e+03 2.091107368469238281e+00 -3.173502349853515625e+01 -3.241279423236846924e-01 5.815486431121826172e+00 1.647407531738281250e+00 9.235443472862243652e-01
1.148000000000000000e+03 1.967237472534179688e+00 -2.745871925354003906e+01 -2.093129158020019531e-01 3.588295698165893555e+00 1.013694763183593750e+00 1.972002029418945312e+00
1.149000000000000000e+03 1.970425248146057129e+00 -2.604287147521972656e+01 4.190498217940330505e-02 2.524597644805908203e+00 7.699508070945739746e-01 2.114214658737182617e+00
1.150000000000000000e+03 3.270798921585083008e+00 -2.300051689147949219e+01 7.145530581474304199e-01 2.376263141632080078e+00 9.272448420524597168e-01 2.371176004409790039e+00
1.151000000000000000e+03 2.922215938568115234e+00 -1.762860679626464844e+01 5.016061663627624512e-01 -3.773742541670799255e-02 1.391606181859970093e-01 1.127415001392364502e-01
1.152000000000000000e+03 5.811742544174194336e-01 -1.913580322265625000e+01 7.176589220762252808e-02 -4.352618217468261719e+00 -1.284255623817443848e+00 1.100576221942901611e-01
1.153000000000000000e+03 2.936240434646606445e+00 -1.898291587829589844e+01 5.708099007606506348e-01 2.623756825923919678e-01 2.499556839466094971e-01 5.735301971435546875e-01
1.154000000000000000e+03 1.598338603973388672e+00 -1.220098972320556641e+01 -2.499590814113616943e-02 -1.779711365699768066e+00 -5.414121747016906738e-01 -4.974884390830993652e-01
1.155000000000000000e+03 5.301333665847778320e-01 -1.213445568084716797e+01 9.162782691419124603e-03 -2.956112623214721680e+00 -8.840849995613098145e-01 -1.879066526889801025e-01
1.156000000000000000e+03 5.144678115844726562e+00 -3.705363035202026367e+00 -1.855218112468719482e-01 1.654515266418457031e-01 -6.021083798259496689e-03 -3.690450787544250488e-01
1.157000000000000000e+03 2.753380060195922852e+00 -2.814443588256835938e+00 -1.568479686975479126e-01 -1.036431267857551575e-01 -7.814732939004898071e-02 -3.472203016281127930e-01
1.158000000000000000e+03 2.121797561645507812e+00 -2.945469856262207031e+00 -9.654576331377029419e-02 -1.949376612901687622e-01 -8.744502812623977661e-02 -3.197410702705383301e-01
1.159000000000000000e+03 1.439782738685607910e+00 -3.362813711166381836e+00 -3.978696092963218689e-02 -3.017130792140960693e-01 -1.024500131607055664e-01 -2.565250396728515625e-01
1.160000000000000000e+03 5.589915513992309570e-01 4.950182437896728516e+00 -6.811603903770446777e-03 -3.072021603584289551e-01 -9.420412778854370117e-02 6.936077773571014404e-02
1.161000000000000000e+03 3.487926721572875977e+00 4.616063594818115234e+00 -5.351342260837554932e-02 -2.319506257772445679e-01 -8.563921600580215454e-02 3.083193004131317139e-01
1.162000000000000000e+03 1.728700757026672363e+00 1.073146724700927734e+01 2.310745976865291595e-02 -7.316619157791137695e-01 -2.125663459300994873e-01 1.159685403108596802e-01
1.163000000000000000e+03 5.811461806297302246e-01 1.069950866699218750e+01 6.982071325182914734e-03 -9.227840900421142578e-01 -2.747406065464019775e-01 4.230276122689247131e-02
1.164000000000000000e+03 1.759356856346130371e+00 1.349148750305175781e+01 2.013848721981048584e-02 -8.334048390388488770e-01 -2.439799010753631592e-01 5.468181893229484558e-02
1.165000000000000000e+03 1.903938174247741699e+00 2.052447891235351562e+01 1.049245800822973251e-02 -7.743209004402160645e-01 -2.291485220193862915e-01 -5.515952780842781067e-02
1.166000000000000000e+03 1.863559246063232422e+00 1.911301994323730469e+01 1.051164884120225906e-02 -8.153346776962280273e-01 -2.414469122886657715e-01 -4.015977680683135986e-02
1.167000000000000000e+03 2.058160305023193359e+00 2.480810165405273438e+01 4.259965382516384125e-03 -6.073133349418640137e-01 -1.809160113334655762e-01 -8.679855614900588989e-02
1.168000000000000000e+03 5.846137619018554688e+01 -3.588600158691406250e+01 3.008516728878021240e-01 2.660637855529785156e+00 8.884468674659729004e-01 -2.016833543777465820e+00
1.169000000000000000e+03 1.351844024658203125e+01 -1.352834129333496094e+01 7.982280850410461426e-01 3.923384428024291992e+00 1.416483759880065918e+00 3.695752620697021484e+00
1.170000000000000000e+03 1.096431636810302734e+01 -1.469215869903564453e+01 2.102891206741333008e+00 7.686652183532714844e+00 2.936862945556640625e+00 3.503621816635131836e+00
1.171000000000000000e+03 1.594376659393310547e+01 -5.518123149871826172e+00 9.166453361511230469e+00 5.278427600860595703e-01 2.908288955688476562e+00 4.740424633026123047e+00
1.172000000000000000e+03 1.478143787384033203e+01 -4.644311428070068359e+00 4.804078578948974609e+00 -7.496811747550964355e-01 1.216319203376770020e+00 1.203579187393188477e+00
1.173000000000000000e+03 1.591436386108398438e+01 -5.104172706604003906e+00 8.886664390563964844e+00 -2.907032072544097900e-01 2.578788518905639648e+00 3.183669805526733398e+00
1.174000000000000000e+03 1.566403865814208984e+01 -4.815964698791503906e+00 7.410712242126464844e+00 -7.455807328224182129e-01 1.999539494514465332e+00 1.770394802093505859e+00
1.175000000000000000e+03 1.816053581237792969e+01 -2.179465293884277344e+00 -6.524959802627563477e-01 8.339992523193359375e+00 2.306249141693115234e+00 5.689764022827148438e-01
1.176000000000000000e+03 1.693524742126464844e+01 -1.207245707511901855e+00 -4.405771493911743164e-01 3.232341766357421875e+00 8.375294208526611328e-01 -6.450252532958984375e-01
1.177000000000000000e+03 1.704373168945312500e+01 -1.797158241271972656e+00 -4.507313072681427002e-01 3.458465814590454102e+00 9.023203253746032715e-01 -8.759737014770507812e-01
1.178000000000000000e+03 2.018260765075683594e+01 -2.857265233993530273e+00 3.911288022994995117e+00 7.103956699371337891e+00 3.304573535919189453e+00 4.712295532226562500e+00
1.179000000000000000e+03 1.433698844909667969e+01 -4.624519348144531250e+00 4.082358837127685547e+00 -6.275114417076110840e-01 1.036454200744628906e+00 1.262594699859619141e+00
1.180000000000000000e+03 1.363871955871582031e+01 -4.317637443542480469e+00 2.590695858001708984e+00 -3.505607247352600098e-01 6.720405220985412598e-01 9.064748883247375488e-01
1.181000000000000000e+03 1.467308521270751953e+01 -1.296529197692871094e+01 -1.789943933486938477e+00 3.275665998458862305e+00 4.457166194915771484e-01 3.673558235168457031e+00
1.182000000000000000e+03 1.224634170532226562e+01 -4.221234321594238281e+00 1.480113625526428223e+00 4.184422083199024200e-03 4.452894032001495361e-01 7.903890609741210938e-01
1.183000000000000000e+03 1.064249038696289062e+01 -2.885462522506713867e+00 -4.188825190067291260e-02 2.002709656953811646e-01 4.751481488347053528e-02 2.606453299522399902e-01
1.184000000000000000e+03 1.109076213836669922e+01 -3.697914838790893555e+00 5.590218305587768555e-01 2.151909470558166504e-01 2.322638332843780518e-01 4.779604077339172363e-01
1.185000000000000000e+03 6.608677387237548828e+00 -3.406736850738525391e+00 -2.159733474254608154e-01 2.704979181289672852e-01 1.635737530887126923e-02 -2.092133462429046631e-01
1.186000000000000000e+03 9.856484413146972656e+00 -3.305790662765502930e+00 6.055214628577232361e-02 3.123373091220855713e-01 1.118668317794799805e-01 2.505297660827636719e-01
1.187000000000000000e+03 1.239409732818603516e+01 -4.998826026916503906e+00 2.191216707229614258e+00 8.048848807811737061e-02 6.815115213394165039e-01 1.384523749351501465e+00
1.188000000000000000e+03 4.327754020690917969e+00 -3.908906459808349609e+00 -1.497664898633956909e-01 4.605303332209587097e-02 -3.111403621733188629e-02 -4.282249808311462402e-01
1.189000000000000000e+03 2.147226095199584961e+00 -4.340710639953613281e+00 -7.822543382644653320e-02 -3.325804769992828369e-01 -1.232417747378349304e-01 -3.700442314147949219e-01
1.190000000000000000e+03 5.895499706268310547e+00 -3.539042711257934570e+00 -2.052490413188934326e-01 2.136429548263549805e-01 2.518175635486841202e-03 -2.890309989452362061e-01
1.191000000000000000e+03 4.695106506347656250e+00 -4.895470142364501953e+00 -8.900269120931625366e-02 1.903922706842422485e-01 3.041687421500682831e-02 -4.183601737022399902e-01
1.192000000000000000e+03 1.738365769386291504e+00 -5.455611705780029297e+00 -4.538235662039369345e-04 -5.333269238471984863e-01 -1.601342260837554932e-01 -3.719083070755004883e-01
1.193000000000000000e+03 1.016594600677490234e+01 -4.640438079833984375e+00 6.686369180679321289e-01 4.880933165550231934e-01 3.470190763473510742e-01 6.526234149932861328e-01
1.194000000000000000e+03 1.033739471435546875e+01 -5.089433670043945312e+00 8.807814717292785645e-01 5.797953605651855469e-01 4.381730556488037109e-01 9.119431376457214355e-01
1.195000000000000000e+03 7.968039512634277344e+00 -3.225858926773071289e+00 -1.989343315362930298e-01 3.247370719909667969e-01 3.774081915616989136e-02 -1.715186424553394318e-02
1.196000000000000000e+03 1.811908149719238281e+01 -1.154313278198242188e+01 -4.406535148620605469e+00 8.500860929489135742e-01 -1.066934704780578613e+00 3.147492885589599609e+00
1.197000000000000000e+03 3.487025260925292969e+00 2.830627441406250000e+00 -1.347182840108871460e-01 -1.148241832852363586e-01 -7.486274093389511108e-02 2.411323189735412598e-01
1.198000000000000000e+03 4.272796154022216797e+00 2.787995338439941406e+00 -1.846926361322402954e-01 -1.018690541386604309e-01 -8.596850931644439697e-02 2.857995927333831787e-01
1.199000000000000000e+03 5.052004337310791016e+00 2.756888151168823242e+00 -2.396421283483505249e-01 -1.004758700728416443e-01 -1.020353958010673523e-01 3.294349610805511475e-01
1.200000000000000000e+03 5.008508682250976562e+00 3.623498678207397461e+00 -1.594973802566528320e-01 -1.406556814908981323e-01 -9.004592150449752808e-02 3.674072623252868652e-01
1.201000000000000000e+03 5.777560710906982422e+00 3.562988519668579102e+00 -1.944837719202041626e-01 -1.421520709991455078e-01 -1.009907498955726624e-01 4.084955751895904541e-01
1.202000000000000000e+03 6.541828155517578125e+00 3.532825231552124023e+00 -2.082671821117401123e-01 -1.477220207452774048e-01 -1.067967638373374939e-01 4.372086822986602783e-01
1.203000000000000000e+03 5.832761287689208984e+00 2.735923290252685547e+00 -2.909132838249206543e-01 -9.520152211189270020e-02 -1.158344373106956482e-01 3.642190098762512207e-01
1.204000000000000000e+03 7.289939403533935547e+00 3.560666799545288086e+00 -2.248862087726593018e-01 -1.636033207178115845e-01 -1.165468543767929077e-01 4.637535512447357178e-01
1.205000000000000000e+03 4.734713435173034668e-01 3.513513803482055664e+00 -1.214512810111045837e-02 -1.518119424581527710e-01 -4.918712005019187927e-02 4.578900337219238281e-02
1.206000000000000000e+03 9.869446754455566406e+00 3.165838718414306641e+00 -2.080736160278320312e-01 -2.460792064666748047e-01 -1.362458467483520508e-01 4.073205888271331787e-01
1.207000000000000000e+03 1.617962074279785156e+01 -2.044301778078079224e-01 -3.790520727634429932e-01 1.841813206672668457e+00 4.388283491134643555e-01 -5.204109549522399902e-01
1.208000000000000000e+03 1.551856517791748047e+01 1.494930833578109741e-01 -3.871988356113433838e-01 1.088739991188049316e+00 2.104623317718505859e-01 -3.367175459861755371e-01
1.209000000000000000e+03 1.378444576263427734e+01 1.884796261787414551e+00 -2.183357030153274536e-01 3.470077514648437500e-01 3.860161826014518738e-02 -7.135694473981857300e-02
1.210000000000000000e+03 1.275431251525878906e+01 1.711569547653198242e+00 -4.213505089282989502e-01 -6.861650943756103516e-02 -1.469901055097579956e-01 1.736245006322860718e-01
1.211000000000000000e+03 1.254161739349365234e+01 2.822327613830566406e+00 -9.908219426870346069e-02 6.922820210456848145e-02 -8.956197649240493774e-03 7.039261609315872192e-02
1.212000000000000000e+03 1.201401329040527344e+01 3.481241464614868164e+00 1.685747876763343811e-02 6.210208684206008911e-02 2.368786931037902832e-02 1.006684675812721252e-01
1.213000000000000000e+03 1.133297920227050781e+01 2.803920269012451172e+00 -2.095582634210586548e-01 -1.747147440910339355e-01 -1.152819022536277771e-01 2.710896432399749756e-01
1.214000000000000000e+03 9.275530815124511719e+00 -2.568871974945068359e+00 -3.206153213977813721e-01 2.545309960842132568e-01 -1.982529647648334503e-02 1.015550792217254639e-01
1.215000000000000000e+03 1.444151973724365234e+01 1.507263183593750000e+00 -2.269928902387619019e-01 6.097059845924377441e-01 1.148139312863349915e-01 -1.956244260072708130e-01
1.216000000000000000e+03 8.593416213989257812e+00 -2.533886909484863281e+00 -3.680513501167297363e-01 2.454993873834609985e-01 -3.676558658480644226e-02 2.878305874764919281e-02
1.217000000000000000e+03 8.617540359497070312e+00 -3.187354087829589844e+00 -1.621913164854049683e-01 3.264436423778533936e-01 4.927569627761840820e-02 7.460378110408782959e-02
1.218000000000000000e+03 1.061465644836425781e+01 -1.342662334442138672e+01 4.807280600070953369e-01 6.431936264038085938e+00 2.073799371719360352e+00 2.846365213394165039e+00
1.219000000000000000e+03 9.423888206481933594e+00 -1.641225624084472656e+01 3.349931716918945312e+00 8.589552879333496094e+00 3.581845283508300781e+00 3.505271196365356445e+00
1.220000000000000000e+03 2.087556076049804688e+01 -3.677958726882934570e+00 7.154617309570312500e+00 4.580616950988769531e+00 3.520570278167724609e+00 4.281456947326660156e+00
1.221000000000000000e+03 2.096183013916015625e+01 -2.952920913696289062e+00 5.013895034790039062e+00 5.555543422698974609e+00 3.170831441879272461e+00 4.582993984222412109e+00
1.222000000000000000e+03 9.535964965820312500e+00 4.133053302764892578e+00 -1.664696633815765381e-02 -1.633819788694381714e-01 -5.400868505239486694e-02 3.792254626750946045e-01
1.223000000000000000e+03 2.065427017211914062e+01 -6.328364849090576172e+00 6.758265972137451172e+00 3.890589714050292969e+00 3.194656610488891602e+00 3.430649936199188232e-01
1.224000000000000000e+03 1.809230613708496094e+01 -7.252195358276367188e+00 3.445949316024780273e+00 7.949605941772460938e+00 3.418666601181030273e+00 3.966007947921752930e+00
1.225000000000000000e+03 2.201716232299804688e+01 -5.115870952606201172e+00 6.502086162567138672e+00 2.320151329040527344e+00 2.646671295166015625e+00 1.587102413177490234e+00
1.226000000000000000e+03 2.085568809509277344e+01 -4.436900615692138672e+00 8.124583244323730469e+00 3.917345762252807617e+00 3.612578868865966797e+00 3.024148464202880859e+00
1.227000000000000000e+03 9.953932762145996094e+00 -2.684413194656372070e+00 -2.223664820194244385e-01 2.359687387943267822e-01 4.080676473677158356e-03 1.809331178665161133e-01
1.228000000000000000e+03 7.228932189941406250e+01 1.338327598571777344e+01 -1.684884428977966309e-01 9.037541389465332031e+00 2.660715818405151367e+00 2.544082999229431152e-01
1.229000000000000000e+03 3.171612358093261719e+01 -1.513622188568115234e+01 -1.970737814903259277e+00 7.620508074760437012e-01 -3.626061081886291504e-01 -4.085238277912139893e-01
1.230000000000000000e+03 2.317633056640625000e+01 -3.539344024658203125e+01 -1.871787309646606445e+00 -2.257039695978164673e-01 -6.292473673820495605e-01 3.861455321311950684e-01
1.231000000000000000e+03 3.198568534851074219e+01 -1.394978618621826172e+01 -1.473168015480041504e+00 1.186156034469604492e+00 -8.610359579324722290e-02 -9.967579245567321777e-01
1.232000000000000000e+03 2.910061645507812500e+01 -1.559066581726074219e+01 -3.104305267333984375e+00 2.371924370527267456e-01 -8.601338267326354980e-01 4.867926537990570068e-01
1.233000000000000000e+03 2.767620086669921875e+01 -3.458751296997070312e+01 -1.986724257469177246e+00 -1.099560223519802094e-02 -5.993159413337707520e-01 1.029959991574287415e-01
1.234000000000000000e+03 3.200494384765625000e+01 -4.125195312500000000e+01 -1.198488712310791016e+00 -6.760904937982559204e-02 -3.798293173313140869e-01 -2.326796576380729675e-02
1.235000000000000000e+03 3.234747314453125000e+01 -3.503439712524414062e+01 -2.250041484832763672e+00 -1.196421682834625244e-01 -7.109050750732421875e-01 -2.569635808467864990e-01
1.236000000000000000e+03 3.387635803222656250e+01 -1.670584869384765625e+01 -1.533321857452392578e+00 4.421731531620025635e-01 -3.273446261882781982e-01 -4.815952479839324951e-01
1.237000000000000000e+03 4.477315139770507812e+01 -3.564615726470947266e+00 2.043528705835342407e-01 5.610418319702148438e+00 1.744431376457214355e+00 -2.065943479537963867e+00
1.238000000000000000e+03 8.905264854431152344e+00 -3.016703224182128906e+01 -2.668062686920166016e+00 3.647195100784301758e+00 2.937397360801696777e-01 5.945820212364196777e-01
1.239000000000000000e+03 4.483887100219726562e+01 -6.857239603996276855e-01 6.179459095001220703e-01 5.674864768981933594e+00 1.887843132019042969e+00 -2.290327787399291992e+00
1.240000000000000000e+03 4.474128723144531250e+01 2.252137660980224609e+00 1.040179967880249023e+00 5.971901893615722656e+00 2.103624582290649414e+00 -2.652469635009765625e+00
1.241000000000000000e+03 6.087150192260742188e+01 -2.213245773315429688e+01 5.522015094757080078e-01 1.091722130775451660e+00 4.931771159172058105e-01 1.378214120864868164e+00
1.242000000000000000e+03 4.865246200561523438e+01 -1.234252071380615234e+01 -8.023449182510375977e-01 5.497231960296630859e+00 1.408466100692749023e+00 -4.245837330818176270e-01
1.243000000000000000e+03 3.089698410034179688e+01 -3.699661254882812500e+01 -1.714528799057006836e+00 -1.675589382648468018e-01 -5.646263360977172852e-01 -1.322271823883056641e-01
1.244000000000000000e+03 7.695087432861328125e+01 1.237325382232666016e+01 -7.600323855876922607e-02 7.551905155181884766e+00 2.242770433425903320e+00 4.455074071884155273e-01
1.245000000000000000e+03 4.888227081298828125e+01 -7.836737155914306641e+00 1.202249452471733093e-01 5.313222885131835938e+00 1.630034446716308594e+00 -1.368372440338134766e+00
1.246000000000000000e+03 4.806926727294921875e+01 -9.497326850891113281e+00 -3.106203675270080566e-01 5.524904251098632812e+00 1.564285159111022949e+00 -1.069913864135742188e+00
1.247000000000000000e+03 4.333684158325195312e+01 2.829419708251953125e+01 1.197513416409492493e-01 5.144192695617675781e+00 1.579183101654052734e+00 1.011081933975219727e+00
1.248000000000000000e+03 5.586953735351562500e+01 -2.420199394226074219e+01 1.301834702491760254e+00 2.937061309814453125e+00 1.271668791770935059e+00 3.903727233409881592e-01
1.249000000000000000e+03 4.503044509887695312e+01 -2.481649208068847656e+01 2.374173879623413086e+00 9.650704383850097656e+00 3.607463359832763672e+00 -2.509787559509277344e+00
1.250000000000000000e+03 4.488030242919921875e+01 -2.616744995117187500e+01 1.697055578231811523e+00 1.038069534301757812e+01 3.623325347900390625e+00 -2.344170331954956055e+00
1.251000000000000000e+03 4.293421936035156250e+01 2.941800594329833984e+00 8.870465755462646484e-01 6.700557231903076172e+00 2.276281118392944336e+00 -2.297663211822509766e+00
1.252000000000000000e+03 2.123039436340332031e+01 -3.569703292846679688e+01 -1.707512855529785156e+00 -4.163490831851959229e-01 -6.371585726737976074e-01 5.777522325515747070e-01
1.253000000000000000e+03 6.690620422363281250e+01 -2.048509979248046875e+01 -1.360978484153747559e+00 1.145281568169593811e-01 -3.739351034164428711e-01 5.968353748321533203e-01
1.254000000000000000e+03 6.367325973510742188e+01 -1.411052417755126953e+01 1.040217399597167969e+00 1.744475364685058594e+00 8.354078531265258789e-01 1.269483923912048340e+00
1.255000000000000000e+03 4.684297180175781250e+01 -5.624161243438720703e+00 1.765135377645492554e-01 5.486217498779296875e+00 1.698819279670715332e+00 -1.758235454559326172e+00
1.256000000000000000e+03 7.241625213623046875e+01 6.397733688354492188e+00 3.875682651996612549e-01 1.019277572631835938e+01 3.174103260040283203e+00 4.224678277969360352e-01
1.257000000000000000e+03 2.727684211730957031e+01 -1.352395343780517578e+01 -3.535094261169433594e+00 5.521497130393981934e-01 -8.948833942413330078e-01 -2.790814824402332306e-02
1.258000000000000000e+03 7.302658843994140625e+01 -2.645797157287597656e+01 1.360720634460449219e+00 1.035861968994140625e+01 3.515801906585693359e+00 5.799447372555732727e-02
1.259000000000000000e+03 7.697518157958984375e+01 -2.795549583435058594e+01 4.498034715652465820e-01 7.317030906677246094e+00 2.330050230026245117e+00 -2.727799415588378906e-01
1.260000000000000000e+03 7.570120239257812500e+01 2.485523223876953125e+01 1.189922913908958435e-01 8.282748222351074219e+00 2.520522117614746094e+00 6.744839549064636230e-01
1.261000000000000000e+03 7.139310455322265625e+01 3.391666650772094727e+00 4.575433135032653809e-01 1.177368736267089844e+01 3.669369220733642578e+00 7.082221508026123047e-01
1.262000000000000000e+03 7.818901824951171875e+01 2.701614141464233398e+00 1.101021990180015564e-01 5.779078960418701172e+00 1.766754388809204102e+00 7.523315399885177612e-02
1.263000000000000000e+03 7.510019683837890625e+01 -3.832567596435546875e+01 -2.938667237758636475e-01 6.629707336425781250e+00 1.900752186775207520e+00 -1.371166259050369263e-01
1.264000000000000000e+03 7.265865325927734375e+01 -3.111167526245117188e+01 -4.024726152420043945e-02 7.495705604553222656e+00 2.236637353897094727e+00 3.793867304921150208e-02
1.265000000000000000e+03 7.779740142822265625e+01 -3.353022003173828125e+01 -1.190638095140457153e-01 7.629858493804931641e+00 2.253238439559936523e+00 -5.374724268913269043e-01
1.266000000000000000e+03 7.819773101806640625e+01 2.080659103393554688e+01 3.491535410284996033e-02 8.036946296691894531e+00 2.421558380126953125e+00 3.146965503692626953e-01
1.267000000000000000e+03 7.700668334960937500e+01 2.073184013366699219e+01 5.609014257788658142e-02 8.121969223022460938e+00 2.453417778015136719e+00 4.279434680938720703e-01
1.268000000000000000e+03 7.631216430664062500e+01 3.407901000976562500e+01 -2.501723468303680420e-01 8.906752586364746094e+00 2.596973896026611328e+00 3.294224739074707031e-01
1.269000000000000000e+03 7.695932006835937500e+01 -2.220505905151367188e+01 -1.099794879555702209e-01 7.582759380340576172e+00 2.241833925247192383e+00 7.984846830368041992e-01
1.270000000000000000e+03 7.813473510742187500e+01 -2.793656539916992188e+01 2.415993809700012207e-01 6.796371936798095703e+00 2.111391305923461914e+00 -2.504633665084838867e-01
1.271000000000000000e+03 7.504408264160156250e+01 -2.816100692749023438e+01 8.456190824508666992e-01 8.204719543457031250e+00 2.715101718902587891e+00 -3.473067283630371094e-01
1.272000000000000000e+03 7.433085632324218750e+01 -2.271182060241699219e+01 -1.767624616622924805e-01 8.378641128540039062e+00 2.460563659667968750e+00 8.047767281532287598e-01
1.273000000000000000e+03 7.811369323730468750e+01 -2.652994155883789062e+01 2.481307089328765869e-01 6.780130386352539062e+00 2.108478307723999023e+00 7.439118623733520508e-02
1.274000000000000000e+03 7.805299377441406250e+01 -2.512105178833007812e+01 2.201862186193466187e-01 6.872215747833251953e+00 2.127720594406127930e+00 3.339246511459350586e-01
1.275000000000000000e+03 7.585827636718750000e+01 -3.472850799560546875e+01 -4.009580016136169434e-01 7.250836849212646484e+00 2.054963588714599609e+00 -3.457207977771759033e-01
1.276000000000000000e+03 7.669564819335937500e+01 -2.366530799865722656e+01 3.098942339420318604e-01 7.562390327453613281e+00 2.361685276031494141e+00 7.367831468582153320e-01
1.277000000000000000e+03 7.673957824707031250e+01 -3.206462478637695312e+01 -9.063863754272460938e-02 7.548063755035400391e+00 2.237227678298950195e+00 -7.382926940917968750e-01
1.278000000000000000e+03 7.433026123046875000e+01 -3.153883361816406250e+01 -1.819999814033508301e-01 7.673296451568603516e+00 2.247388839721679688e+00 -5.531316995620727539e-01
1.279000000000000000e+03 7.649467468261718750e+01 -3.338335418701171875e+01 -2.732678353786468506e-01 7.526554584503173828e+00 2.175986051559448242e+00 -6.024683713912963867e-01
1.280000000000000000e+03 7.816823577880859375e+01 2.359598922729492188e+01 4.464148730039596558e-02 8.431670188903808594e+00 2.542893409729003906e+00 3.985598087310791016e-01
1.281000000000000000e+03 7.697784423828125000e+01 2.212568092346191406e+01 8.501924574375152588e-02 8.220511436462402344e+00 2.491659164428710938e+00 4.856825768947601318e-01
1.282000000000000000e+03 7.692929840087890625e+01 2.492705726623535156e+01 8.341951668262481689e-02 8.463421821594238281e+00 2.564052581787109375e+00 6.008359193801879883e-01
1.283000000000000000e+03 7.697281646728515625e+01 1.520873737335205078e+01 -2.452246099710464478e-02 7.733324527740478516e+00 2.312640666961669922e+00 3.582365512847900391e-01
1.284000000000000000e+03 7.815690612792968750e+01 1.384843921661376953e+01 -2.176925353705883026e-02 7.262486934661865234e+00 2.172215223312377930e+00 2.826528549194335938e-01
1.285000000000000000e+03 7.693552398681640625e+01 1.379632282257080078e+01 -6.270199269056320190e-02 7.654470920562744141e+00 2.277530670166015625e+00 4.094014167785644531e-01
1.286000000000000000e+03 7.219524383544921875e+01 2.311578941345214844e+01 2.582658529281616211e-01 8.287045478820800781e+00 2.563593387603759766e+00 2.656913697719573975e-01
1.287000000000000000e+03 7.817124938964843750e+01 2.773889732360839844e+01 -3.066981444135308266e-03 9.167008399963378906e+00 2.749182462692260742e+00 4.862960875034332275e-01
1.288000000000000000e+03 7.569728851318359375e+01 1.374567604064941406e+01 -1.070918887853622437e-01 8.061114311218261719e+00 2.386206626892089844e+00 4.319740533828735352e-01
1.289000000000000000e+03 7.824882507324218750e+01 -1.962672615051269531e+01 -1.433956921100616455e-01 7.780004024505615234e+00 2.290982484817504883e+00 3.307745158672332764e-01
1.290000000000000000e+03 7.718254089355468750e+01 -2.092038345336914062e+01 -2.091749012470245361e-01 7.669470787048339844e+00 2.238088846206665039e+00 6.171522736549377441e-01
1.291000000000000000e+03 7.805210113525390625e+01 3.175265884399414062e+01 -5.365642905235290527e-02 9.779195785522460938e+00 2.917661905288696289e+00 3.705181181430816650e-01
1.292000000000000000e+03 7.693234252929687500e+01 3.022891426086425781e+01 -1.028895527124404907e-01 9.016974449157714844e+00 2.674225568771362305e+00 5.825530886650085449e-01
1.293000000000000000e+03 7.698928070068359375e+01 9.565918922424316406e+00 -2.687285840511322021e-02 7.276282787322998047e+00 2.174823045730590820e+00 5.629091858863830566e-01
1.294000000000000000e+03 7.601564788818359375e+01 -1.577125549316406250e+01 -3.223509490489959717e-01 7.214438438415527344e+00 2.067626237869262695e+00 -2.705665826797485352e-01
1.295000000000000000e+03 7.693298339843750000e+01 -1.845320129394531250e+01 -3.341581523418426514e-01 7.652588367462158203e+00 2.195528984069824219e+00 2.041616588830947876e-01
1.296000000000000000e+03 7.566136169433593750e+01 -8.483169555664062500e+00 -4.616668075323104858e-02 6.943789482116699219e+00 2.069286823272705078e+00 -5.588125586509704590e-01
1.297000000000000000e+03 7.679992675781250000e+01 -1.136277866363525391e+01 -6.974221765995025635e-02 7.115107059478759766e+00 2.113609552383422852e+00 -4.917706549167633057e-01
1.298000000000000000e+03 7.454755401611328125e+01 -5.901300907135009766e+00 2.582281269133090973e-02 7.263567447662353516e+00 2.186817169189453125e+00 -4.659546911716461182e-01
1.299000000000000000e+03 7.687764739990234375e+01 -4.274088382720947266e+00 3.772325813770294189e-02 6.768366336822509766e+00 2.041826963424682617e+00 -5.406281948089599609e-01
1.300000000000000000e+03 7.701210784912109375e+01 6.790710926055908203e+00 1.062762439250946045e-01 6.967079639434814453e+00 2.122006654739379883e+00 5.346323847770690918e-01
1.301000000000000000e+03 7.581006622314453125e+01 3.820260620117187500e+01 -2.381702959537506104e-01 9.084831237792968750e+00 2.653998374938964844e+00 3.546522557735443115e-01
1.302000000000000000e+03 7.576862335205078125e+01 2.895143699645996094e+01 -9.133440256118774414e-02 8.397628784179687500e+00 2.491888284683227539e+00 7.500801086425781250e-01
1.303000000000000000e+03 7.818914794921875000e+01 8.253497123718261719e+00 2.301544137299060822e-02 6.430360794067382812e+00 1.936012983322143555e+00 4.101282060146331787e-01
1.304000000000000000e+03 7.582766723632812500e+01 8.093678474426269531e+00 5.027741938829421997e-02 7.810458183288574219e+00 2.358220577239990234e+00 6.777689456939697266e-01
1.305000000000000000e+03 7.813828277587890625e+01 -5.458386242389678955e-02 9.001094847917556763e-02 5.830319881439208984e+00 1.776099324226379395e+00 -1.946370005607604980e-01
1.306000000000000000e+03 7.685533142089843750e+01 -1.462697505950927734e+00 1.684846431016921997e-01 6.668314456939697266e+00 2.051039695739746094e+00 -3.598762154579162598e-01
1.307000000000000000e+03 7.685635375976562500e+01 -8.497552871704101562e+00 -3.957954421639442444e-02 6.947508335113525391e+00 2.072378635406494141e+00 -5.465214848518371582e-01
1.308000000000000000e+03 7.708059692382812500e+01 -1.560647773742675781e+01 -1.780098378658294678e-01 7.479072570800781250e+00 2.190318822860717773e+00 -2.163041681051254272e-01
1.309000000000000000e+03 7.371646118164062500e+01 3.322436523437500000e+01 -4.874538481235504150e-01 7.393069267272949219e+00 2.071684598922729492e+00 3.170355260372161865e-01
1.310000000000000000e+03 7.655734252929687500e+01 3.276268768310546875e+01 -1.564967930316925049e-01 9.019414901733398438e+00 2.658875226974487305e+00 4.460466504096984863e-01
1.311000000000000000e+03 7.704979705810546875e+01 1.797952461242675781e+01 2.044022083282470703e-02 7.912449359893798828e+00 2.379866838455200195e+00 3.618308901786804199e-01
1.312000000000000000e+03 7.818098449707031250e+01 9.645123481750488281e+00 -2.598376758396625519e-02 6.672358512878417969e+00 1.993912458419799805e+00 4.046098887920379639e-01
1.313000000000000000e+03 7.697312164306640625e+01 1.096251296997070312e+01 -8.369485288858413696e-02 7.436618328094482422e+00 2.205877065658569336e+00 5.253700613975524902e-01
1.314000000000000000e+03 7.698568725585937500e+01 -1.423456478118896484e+01 -1.375401169061660767e-01 7.370947837829589844e+00 2.170022249221801758e+00 -3.271759748458862305e-01
1.315000000000000000e+03 7.690761566162109375e+01 -7.086935520172119141e+00 -1.318107917904853821e-02 6.875243663787841797e+00 2.058618783950805664e+00 -5.627012252807617188e-01
1.316000000000000000e+03 7.759700012207031250e+01 3.578206634521484375e+01 -1.863587200641632080e-01 9.895854949951171875e+00 2.912848711013793945e+00 1.105833575129508972e-01
1.317000000000000000e+03 7.743725585937500000e+01 3.710126876831054688e+01 -1.629559546709060669e-01 1.000722694396972656e+01 2.953281402587890625e+00 2.198404259979724884e-02
1.318000000000000000e+03 7.700083923339843750e+01 2.653842926025390625e+00 2.634835243225097656e-01 6.646736621856689453e+00 2.073065996170043945e+00 1.213398128747940063e-01
1.319000000000000000e+03 7.585018157958984375e+01 2.623021364212036133e+00 4.089862704277038574e-01 7.517560005187988281e+00 2.377964019775390625e+00 2.162254154682159424e-01
1.320000000000000000e+03 7.702481842041015625e+01 5.408707618713378906e+00 1.486633718013763428e-01 6.833805084228515625e+00 2.094740629196166992e+00 4.139556884765625000e-01
1.321000000000000000e+03 7.687788391113281250e+01 -7.671180367469787598e-02 2.166562825441360474e-01 6.664610385894775391e+00 2.064379930496215820e+00 -2.290939539670944214e-01
1.322000000000000000e+03 7.811957550048828125e+01 -4.230544090270996094e+00 3.033378347754478455e-02 6.290063858032226562e+00 1.896119356155395508e+00 -4.273038506507873535e-01
1.323000000000000000e+03 7.686015319824218750e+01 -2.865890264511108398e+00 1.273220926523208618e-01 6.702420711517333984e+00 2.048922777175903320e+00 -4.905269145965576172e-01
1.324000000000000000e+03 7.808395385742187500e+01 -1.126676940917968750e+01 -3.524823486804962158e-02 7.332520484924316406e+00 2.189181566238403320e+00 -3.679805696010589600e-01
1.325000000000000000e+03 7.678850555419921875e+01 -9.919196128845214844e+00 -4.942986741662025452e-02 7.027456760406494141e+00 2.093408107757568359e+00 -5.291784405708312988e-01
1.326000000000000000e+03 7.706298828125000000e+01 -1.698047256469726562e+01 -2.984406054019927979e-01 7.574014663696289062e+00 2.182672262191772461e+00 -5.668498948216438293e-02
1.327000000000000000e+03 3.393459320068359375e+01 -1.557772922515869141e+01 -1.109316110610961914e+00 8.812350034713745117e-01 -6.842433661222457886e-02 -9.986752867698669434e-01
1.328000000000000000e+03 7.106784820556640625e+01 1.592980098724365234e+01 1.201196461915969849e-01 9.337401390075683594e+00 2.837256193161010742e+00 4.431653320789337158e-01
1.329000000000000000e+03 7.141292572021484375e+01 1.860845088958740234e+00 8.801039457321166992e-01 1.138074398040771484e+01 3.678254365921020508e+00 8.385974764823913574e-01
1.330000000000000000e+03 7.128641510009765625e+01 2.756310403347015381e-01 9.101174473762512207e-01 1.101337909698486328e+01 3.577049016952514648e+00 8.079723715782165527e-01
1.331000000000000000e+03 7.112015533447265625e+01 2.015612792968750000e+01 2.670779824256896973e-02 8.821390151977539062e+00 2.654429435729980469e+00 2.559281885623931885e-01
1.332000000000000000e+03 7.113169097900390625e+01 1.731987190246582031e+01 4.537896811962127686e-02 9.132103919982910156e+00 2.753244876861572266e+00 3.176563382148742676e-01
1.333000000000000000e+03 7.225054931640625000e+01 2.169298553466796875e+01 1.515618711709976196e-01 8.478794097900390625e+00 2.589106798171997070e+00 3.028761148452758789e-01
1.334000000000000000e+03 7.476796722412109375e+01 1.779568481445312500e+01 4.679992794990539551e-02 8.295635223388671875e+00 2.502730607986450195e+00 4.450961947441101074e-01
1.335000000000000000e+03 7.229055786132812500e+01 2.027316856384277344e+01 8.221822232007980347e-02 8.658681869506835938e+00 2.622269868850708008e+00 3.475673496723175049e-01
1.336000000000000000e+03 6.747042083740234375e+01 -9.412052154541015625e+00 7.010933756828308105e-01 4.641643524169921875e+00 1.602821111679077148e+00 1.471759319305419922e+00
1.337000000000000000e+03 6.980245208740234375e+01 -7.241502285003662109e+00 3.161571323871612549e-01 6.620295047760009766e+00 2.080935716629028320e+00 9.525989294052124023e-01
1.338000000000000000e+03 4.423965072631835938e+01 5.214925408363342285e-01 6.956756114959716797e-01 5.897736549377441406e+00 1.978023648262023926e+00 -2.338737487792968750e+00
1.339000000000000000e+03 4.313343811035156250e+01 -3.870427841320633888e-03 5.846713185310363770e-01 5.973013877868652344e+00 1.967305660247802734e+00 -2.168148756027221680e+00
1.340000000000000000e+03 4.024237155914306641e+00 -1.618766212463378906e+01 6.557294130325317383e-01 1.595109343528747559e+00 6.752516031265258789e-01 -1.557971388101577759e-01
1.341000000000000000e+03 3.643119812011718750e+01 -1.669347190856933594e+01 3.244352936744689941e-01 1.373254418373107910e+00 5.093069076538085938e-01 -2.282602548599243164e+00
1.342000000000000000e+03 6.847508239746093750e+01 3.453410339355468750e+01 -8.628301620483398438e-01 3.132396936416625977e+00 6.808700561523437500e-01 -3.304004371166229248e-01
1.343000000000000000e+03 2.201480388641357422e+00 3.439321899414062500e+01 -1.081943511962890625e-03 -2.155600339174270630e-01 -6.499259173870086670e-02 -7.848886400461196899e-02
1.344000000000000000e+03 3.951224565505981445e+00 3.530828094482421875e+01 -1.566207222640514374e-02 5.874294787645339966e-02 1.292426325380802155e-02 -9.089513123035430908e-02
1.345000000000000000e+03 2.072543621063232422e+00 2.763009071350097656e+01 -5.104860290884971619e-03 -4.981676638126373291e-01 -1.509817540645599365e-01 -9.832698851823806763e-02
1.346000000000000000e+03 3.603325366973876953e+00 3.020451927185058594e+01 -6.100982427597045898e-03 -1.233507767319679260e-01 -3.883552923798561096e-02 -1.484017819166183472e-01
1.347000000000000000e+03 5.666794776916503906e+00 3.188551521301269531e+01 -3.062332794070243835e-02 2.684775590896606445e-01 7.135626673698425293e-02 -1.747160106897354126e-01
1.348000000000000000e+03 2.082055091857910156e+00 2.622727203369140625e+01 4.815482068806886673e-03 -5.556216835975646973e-01 -1.652418524026870728e-01 -9.351674467325210571e-02
1.349000000000000000e+03 3.494749307632446289e+00 2.765772438049316406e+01 1.733313780277967453e-03 -2.493164986371994019e-01 -7.427495718002319336e-02 -1.407011598348617554e-01
1.350000000000000000e+03 3.391105651855468750e+00 2.898960685729980469e+01 -3.400638233870267868e-03 -2.237246781587600708e-01 -6.813759356737136841e-02 -1.476059257984161377e-01
1.351000000000000000e+03 2.535209417343139648e+00 3.699221038818359375e+01 6.445995531976222992e-03 -1.638613194227218628e-01 -4.722459986805915833e-02 -7.126978784799575806e-02
1.352000000000000000e+03 3.584751129150390625e+00 3.295969772338867188e+01 -9.860085323452949524e-03 -3.040335327386856079e-02 -1.207903120666742325e-02 -1.343623399734497070e-01
1.353000000000000000e+03 6.149704933166503906e+00 2.992639541625976562e+01 -2.540032379329204559e-02 3.285769820213317871e-01 9.095299988985061646e-02 -2.092705816030502319e-01
1.354000000000000000e+03 3.806838274002075195e+00 3.157276725769042969e+01 -2.013716846704483032e-02 -6.204984337091445923e-02 -2.465610392391681671e-02 -1.458446085453033447e-01
1.355000000000000000e+03 3.641111612319946289e+00 -3.302903366088867188e+01 -6.243126988410949707e-01 5.512397289276123047e+00 1.466425418853759766e+00 9.031421542167663574e-01
1.356000000000000000e+03 2.019172191619873047e+00 -3.030608940124511719e+01 -3.331056833267211914e-01 5.261238574981689453e+00 1.478439927101135254e+00 1.312926650047302246e+00
1.357000000000000000e+03 3.249927997589111328e+00 -2.875695228576660156e+01 -6.890668272972106934e-01 4.749856948852539062e+00 1.218237042427062988e+00 2.316922903060913086e+00
1.358000000000000000e+03 4.598955154418945312e+00 -2.728536415100097656e+01 -8.525109291076660156e-01 5.060359001159667969e+00 1.262354373931884766e+00 3.091403961181640625e+00
1.359000000000000000e+03 1.954365491867065430e+00 2.194624900817871094e+01 7.374602369964122772e-03 -7.245590090751647949e-01 -2.151553332805633545e-01 -6.689407676458358765e-02
1.360000000000000000e+03 3.350345373153686523e+00 2.331829643249511719e+01 1.751738600432872772e-02 -3.975243270397186279e-01 -1.140020787715911865e-01 -1.211383566260337830e-01
1.361000000000000000e+03 2.675824403762817383e+00 -1.096638870239257812e+01 -6.013823673129081726e-02 -5.506317615509033203e-01 -1.832310110330581665e-01 -6.068860888481140137e-01
1.362000000000000000e+03 1.655022859573364258e+00 -1.493282794952392578e+01 8.381309360265731812e-02 -2.166086435317993164e+00 -6.246820092201232910e-01 -4.050258696079254150e-01
1.363000000000000000e+03 1.751067399978637695e+00 -1.905773735046386719e+01 2.627646028995513916e-01 -1.884218096733093262e+00 -4.864360392093658447e-01 2.928181886672973633e-01
1.364000000000000000e+03 3.244931697845458984e+00 2.187303924560546875e+01 2.082595787942409515e-02 -4.591209292411804199e-01 -1.314884871244430542e-01 -1.046474203467369080e-01
1.365000000000000000e+03 2.889111280441284180e+00 1.210526084899902344e+01 5.256387218832969666e-02 -5.992082357406616211e-01 -1.639933139085769653e-01 1.198733225464820862e-01
1.366000000000000000e+03 4.242843151092529297e+00 1.759020042419433594e+01 6.563142687082290649e-02 -3.576795458793640137e-01 -8.761443942785263062e-02 -4.978722333908081055e-02
1.367000000000000000e+03 3.160913705825805664e+00 2.045312881469726562e+01 2.177840285003185272e-02 -5.158851146697998047e-01 -1.482320129871368408e-01 -8.511964976787567139e-02
1.368000000000000000e+03 1.837795257568359375e+00 -2.180909729003906250e+01 3.890978395938873291e-01 -6.075638532638549805e-01 -6.553980708122253418e-02 1.240825891494750977e+00
1.369000000000000000e+03 7.797482013702392578e+00 -2.027719688415527344e+01 2.728007555007934570e+00 1.105408954620361328e+01 4.134629249572753906e+00 3.038375139236450195e+00
1.370000000000000000e+03 2.703286170959472656e+00 -1.359017372131347656e+01 4.979309439659118652e-02 -5.662831068038940430e-01 -1.549469977617263794e-01 -5.968886017799377441e-01
1.371000000000000000e+03 3.071071624755859375e+00 8.092837333679199219e+00 4.768813773989677429e-02 -4.341090321540832520e-01 -1.159262731671333313e-01 2.552572488784790039e-01
1.372000000000000000e+03 1.810688614845275879e+00 6.345755577087402344e+00 7.348215673118829727e-03 -4.107461571693420410e-01 -1.210193857550621033e-01 1.983866691589355469e-01
1.373000000000000000e+03 1.783441424369812012e+00 1.488981437683105469e+01 2.119314670562744141e-02 -8.542959094047546387e-01 -2.499308437108993530e-01 2.709477953612804413e-02
1.374000000000000000e+03 3.001070022583007812e+00 1.625370216369628906e+01 4.410068318247795105e-02 -6.123043298721313477e-01 -1.704611033201217651e-01 -1.614452805370092392e-03
1.375000000000000000e+03 3.441707611083984375e+00 -3.893682956695556641e+00 -1.315171271562576294e-01 -9.005111455917358398e-02 -6.647047400474548340e-02 -4.334652423858642578e-01
1.376000000000000000e+03 2.886914968490600586e+00 9.460087776184082031e+00 5.065407603979110718e-02 -5.167041420936584473e-01 -1.398150175809860229e-01 2.055032104253768921e-01
1.377000000000000000e+03 1.928593277931213379e+00 -2.319818115234375000e+01 3.055423796176910400e-01 3.491690158843994141e-01 1.964134126901626587e-01 1.686895489692687988e+00
1.378000000000000000e+03 2.182746887207031250e+00 -3.588068389892578125e+01 -1.908555626869201660e-01 6.622494220733642578e+00 1.929491519927978516e+00 9.795886278152465820e-02
1.379000000000000000e+03 4.626558780670166016e+00 -3.775422286987304688e+01 -3.307135701179504395e-01 5.228683471679687500e+00 1.469390988349914551e+00 4.030323028564453125e-01
1.380000000000000000e+03 2.676592111587524414e+00 -9.643827438354492188e+00 -3.412618860602378845e-02 -4.818375706672668457e-01 -1.547891348600387573e-01 -5.862025022506713867e-01
1.381000000000000000e+03 2.853872060775756836e+00 -1.626742553710937500e+01 3.513953089714050293e-01 -2.759204506874084473e-01 2.264246530830860138e-02 -2.304143607616424561e-01
1.382000000000000000e+03 2.762485980987548828e+00 -1.491726398468017578e+01 2.465520203113555908e-01 -4.721567034721374512e-01 -6.768140196800231934e-02 -4.971455633640289307e-01
1.383000000000000000e+03 6.030619621276855469e+00 -3.099037170410156250e+01 -1.718796133995056152e+00 4.766640663146972656e+00 9.143534302711486816e-01 1.514032721519470215e+00
1.384000000000000000e+03 5.867735862731933594e+00 -2.754093933105468750e+01 -1.282605528831481934e+00 5.875972747802734375e+00 1.378010153770446777e+00 2.802356958389282227e+00
1.385000000000000000e+03 3.327971935272216797e+00 -2.448808288574218750e+01 5.190786719322204590e-01 3.112359762191772461e+00 1.089431524276733398e+00 2.823176622390747070e+00
1.386000000000000000e+03 2.681093692779541016e+00 -1.228369617462158203e+01 4.608032293617725372e-03 -5.794358253479003906e-01 -1.724483370780944824e-01 -6.324761509895324707e-01
1.387000000000000000e+03 2.853039026260375977e+00 1.078440952301025391e+01 5.768488347530364990e-02 -5.703246593475341797e-01 -1.537919342517852783e-01 1.614053845405578613e-01
1.388000000000000000e+03 4.059550762176513672e+00 1.207547187805175781e+01 9.234574437141418457e-02 -4.241338968276977539e-01 -9.953644871711730957e-02 1.391610205173492432e-01
1.389000000000000000e+03 2.932042121887207031e+00 1.346024799346923828e+01 5.227689072489738464e-02 -6.176530718803405762e-01 -1.696128547191619873e-01 7.938568294048309326e-02
1.390000000000000000e+03 3.094917535781860352e+00 1.905179977416992188e+01 3.010577522218227386e-02 -5.599725246429443359e-01 -1.589600294828414917e-01 -6.329933553934097290e-02
1.391000000000000000e+03 6.850956726074218750e+01 -9.997291564941406250e+00 5.227210521697998047e-01 4.986280918121337891e+00 1.652700543403625488e+00 1.005784034729003906e+00
1.392000000000000000e+03 4.522482681274414062e+01 -2.375568008422851562e+01 2.679854869842529297e+00 9.958067893981933594e+00 3.791376829147338867e+00 -2.590445756912231445e+00
1.393000000000000000e+03 7.557051849365234375e+01 -1.499383687973022461e+00 3.459386229515075684e-01 7.385466098785400391e+00 2.319421291351318359e+00 -3.375124931335449219e-01
1.394000000000000000e+03 7.091857147216796875e+01 -1.264260172843933105e+00 5.812733769416809082e-01 1.041829013824462891e+01 3.299869060516357422e+00 1.105844974517822266e+00
1.395000000000000000e+03 1.594290065765380859e+01 -3.513956451416015625e+01 -1.503075242042541504e+00 -6.108627915382385254e-01 -6.341814398765563965e-01 6.765051484107971191e-01
1.396000000000000000e+03 1.578136730194091797e+01 -3.201034545898437500e+01 -3.517250537872314453e+00 -6.162580251693725586e-01 -1.240052580833435059e+00 1.126888871192932129e+00
1.397000000000000000e+03 4.212083435058593750e+01 2.538121032714843750e+01 4.661925435066223145e-01 6.133069038391113281e+00 1.979778409004211426e+00 1.094323039054870605e+00
1.398000000000000000e+03 4.010579299926757812e+01 1.793591308593750000e+01 9.245836734771728516e-01 8.415653228759765625e+00 2.802071094512939453e+00 7.044279575347900391e-01
1.399000000000000000e+03 4.148138427734375000e+01 1.776110267639160156e+01 8.148536086082458496e-01 9.366820335388183594e+00 3.054502248764038086e+00 1.145405292510986328e+00
1.400000000000000000e+03 4.368010330200195312e+01 -2.924668121337890625e+01 8.909475803375244141e-01 8.862671852111816406e+00 2.926085710525512695e+00 -1.127084255218505859e+00
1.401000000000000000e+03 4.618395233154296875e+01 -2.661261749267578125e+01 1.973212003707885742e+00 8.290847778320312500e+00 3.079217910766601562e+00 -2.501929521560668945e+00
1.402000000000000000e+03 4.256785583496093750e+01 2.205091094970703125e+01 9.049836397171020508e-01 7.468278408050537109e+00 2.511978626251220703e+00 1.764779448509216309e+00
1.403000000000000000e+03 4.070382308959960938e+01 2.093842887878417969e+01 7.592507600784301758e-01 7.593186855316162109e+00 2.505731344223022461e+00 1.025255084037780762e+00
1.404000000000000000e+03 4.557691097259521484e+00 -2.253438758850097656e+01 1.274026513099670410e+00 4.139653682708740234e+00 1.624104142189025879e+00 2.638145446777343750e+00
1.405000000000000000e+03 4.362768173217773438e+01 3.244371032714843750e+01 -6.091695427894592285e-01 4.436087608337402344e+00 1.148075461387634277e+00 5.760959982872009277e-01
1.406000000000000000e+03 8.129190444946289062e+00 -1.620439720153808594e+01 1.780713319778442383e+00 7.439138412475585938e+00 2.765955448150634766e+00 1.938140511512756348e+00
1.407000000000000000e+03 4.235336685180664062e+01 -1.691859626770019531e+01 -1.541070640087127686e-01 8.809413909912109375e+00 2.596592187881469727e+00 -2.452232837677001953e+00
1.408000000000000000e+03 2.314070510864257812e+01 -1.155451393127441406e+01 -3.750583648681640625e+00 5.530861020088195801e-02 -1.108582496643066406e+00 -5.563867092132568359e-01
1.409000000000000000e+03 7.038479614257812500e+01 -5.866915225982666016e+00 2.814653813838958740e-01 7.473519325256347656e+00 2.326495409011840820e+00 9.371387958526611328e-01
1.410000000000000000e+03 4.226325225830078125e+01 -2.013154220581054688e+01 2.429092645645141602e+00 1.237502861022949219e+01 4.441236495971679688e+00 -3.204995632171630859e+00
1.411000000000000000e+03 4.448134613037109375e+01 -1.739591407775878906e+01 -1.383446902036666870e-01 8.745296478271484375e+00 2.582085609436035156e+00 -1.329324841499328613e+00
1.412000000000000000e+03 6.974604034423828125e+01 3.052000236511230469e+01 -4.420917332172393799e-01 4.758970737457275391e+00 1.295063614845275879e+00 -1.098420619964599609e-01
1.413000000000000000e+03 7.123956298828125000e+01 7.697712898254394531e+00 3.701800107955932617e-01 1.064881420135498047e+01 3.305698156356811523e+00 1.324306130409240723e-01
1.414000000000000000e+03 7.006530761718750000e+01 -3.317902374267578125e+01 -3.586745560169219971e-01 4.095221042633056641e+00 1.120963931083679199e+00 1.245178699493408203e+00
1.415000000000000000e+03 7.569863128662109375e+01 -3.207759857177734375e+01 -2.254069596529006958e-01 7.575615882873535156e+00 2.205062627792358398e+00 -7.139910459518432617e-01
1.416000000000000000e+03 7.341304016113281250e+01 2.181523704528808594e+01 1.736462414264678955e-01 8.359325408935546875e+00 2.559891700744628906e+00 4.275264441967010498e-01
1.417000000000000000e+03 4.273165512084960938e+01 2.682722663879394531e+01 2.974171936511993408e-01 5.631185054779052734e+00 1.778580784797668457e+00 1.073105692863464355e+00
1.418000000000000000e+03 4.065993118286132812e+01 6.897437572479248047e+00 1.421240329742431641e+00 8.259783744812011719e+00 2.904307126998901367e+00 -1.247699141502380371e+00
1.419000000000000000e+03 7.028900146484375000e+01 -9.159468650817871094e+00 2.177094668149948120e-01 6.033807754516601562e+00 1.875455141067504883e+00 4.978572726249694824e-01
1.420000000000000000e+03 6.173528289794921875e+01 -1.946469497680664062e+01 -4.043868482112884521e-01 1.253676891326904297e+00 2.547870278358459473e-01 1.643960475921630859e+00
1.421000000000000000e+03 1.300706481933593750e+01 -1.262727069854736328e+01 -4.223920404911041260e-01 5.108567237854003906e+00 1.405852556228637695e+00 4.519638061523437500e+00
1.422000000000000000e+03 4.732944107055664062e+01 3.467340469360351562e+01 -5.436369776725769043e-01 3.061247825622558594e+00 7.552832365036010742e-01 6.588816046714782715e-01
1.423000000000000000e+03 5.125855255126953125e+01 3.466621780395507812e+01 -2.085489332675933838e-01 1.200587749481201172e+00 2.976116538047790527e-01 4.875676035881042480e-01
1.424000000000000000e+03 4.900963973999023438e+01 3.417959594726562500e+01 -3.422973752021789551e-01 2.381335258483886719e+00 6.117113828659057617e-01 6.910610795021057129e-01
1.425000000000000000e+03 5.433865737915039062e+01 -2.686245155334472656e+01 1.283194899559020996e+00 5.241885185241699219e+00 1.957524061203002930e+00 -7.653579115867614746e-01
1.426000000000000000e+03 5.474505615234375000e+01 -2.494190025329589844e+01 1.375440239906311035e+00 3.863082647323608398e+00 1.571556925773620605e+00 -2.175917327404022217e-01
1.427000000000000000e+03 1.899838829040527344e+01 -8.534479141235351562e+00 1.139796614646911621e+00 4.282968521118164062e+00 1.626829624176025391e+00 2.372094392776489258e+00
1.428000000000000000e+03 4.157604980468750000e+01 2.391127967834472656e+01 5.867505669593811035e-01 6.621552467346191406e+00 2.162490844726562500e+00 1.096714735031127930e+00
1.429000000000000000e+03 3.991542434692382812e+01 1.641407966613769531e+01 9.835447072982788086e-01 8.872906684875488281e+00 2.956935644149780273e+00 4.823494851589202881e-01
1.430000000000000000e+03 6.591692352294921875e+01 -1.201891613006591797e+01 1.022634625434875488e+00 3.082273483276367188e+00 1.231472492218017578e+00 1.327237486839294434e+00
1.431000000000000000e+03 6.773389434814453125e+01 -1.128825950622558594e+01 6.672150492668151855e-01 4.153487682342529297e+00 1.446210861206054688e+00 9.953429102897644043e-01
1.432000000000000000e+03 7.884274482727050781e+00 -2.915205192565917969e+01 -2.426565170288085938e+00 4.700850963592529297e+00 6.822857856750488281e-01 1.532215952873229980e+00
1.433000000000000000e+03 6.573167419433593750e+01 -1.827614784240722656e+01 -5.939104780554771423e-02 1.256086349487304688e+00 3.590085804462432861e-01 8.784568309783935547e-01
1.434000000000000000e+03 2.940213918685913086e+00 -2.031560707092285156e+01 8.339490890502929688e-01 7.047519683837890625e-01 4.616102874279022217e-01 1.089356064796447754e+00
1.435000000000000000e+03 5.536894607543945312e+01 -3.233438110351562500e+01 2.436538934707641602e+00 9.333130836486816406e+00 3.530900955200195312e+00 -2.109833955764770508e+00
1.436000000000000000e+03 5.654096984863281250e+01 -3.676793670654296875e+01 -4.806665778160095215e-01 5.378299713134765625e+00 1.469289898872375488e+00 -1.549530267715454102e+00
1.437000000000000000e+03 2.180303192138671875e+01 -1.143473625183105469e+01 -4.228089809417724609e+00 -1.709526926279067993e-01 -1.319712758064270020e+00 -2.967947535216808319e-02
1.438000000000000000e+03 2.061423301696777344e+01 -1.122825527191162109e+01 -3.823300600051879883e+00 1.608117520809173584e-01 -1.098746657371520996e+00 8.339197635650634766e-01
1.439000000000000000e+03 3.976882934570312500e+01 1.333921051025390625e+01 1.279567360877990723e+00 9.367282867431640625e+00 3.194055080413818359e+00 -2.350023388862609863e-01
1.440000000000000000e+03 3.995440673828125000e+01 -3.384550857543945312e+01 -1.972752928733825684e+00 2.744638204574584961e+00 2.315656244754791260e-01 1.283816337585449219e+00
1.441000000000000000e+03 4.361619949340820312e+01 -3.572877883911132812e+01 -2.083949804306030273e+00 5.452750205993652344e+00 1.010640144348144531e+00 3.052534461021423340e-01
1.442000000000000000e+03 6.824079132080078125e+01 -2.028473854064941406e+01 -9.278574585914611816e-01 7.043780684471130371e-01 -6.704382598400115967e-02 -6.387335658073425293e-01
1.443000000000000000e+03 2.620789337158203125e+01 -1.291037368774414062e+01 -3.843642234802246094e+00 4.417386651039123535e-01 -1.020571112632751465e+00 -2.005128264427185059e-01
1.444000000000000000e+03 7.212125396728515625e+01 2.456256866455078125e+01 3.233208358287811279e-01 7.961760997772216797e+00 2.485524415969848633e+00 2.870465815067291260e-01
1.445000000000000000e+03 7.203312683105468750e+01 2.606332206726074219e+01 2.923856377601623535e-01 7.606167793273925781e+00 2.369565963745117188e+00 3.192037642002105713e-01
1.446000000000000000e+03 6.685820770263671875e+01 -1.380558967590332031e+01 6.910830140113830566e-01 3.085522413253784180e+00 1.132981657981872559e+00 7.425608634948730469e-01
1.447000000000000000e+03 3.990903091430664062e+01 1.017473697662353516e+01 1.867521882057189941e+00 8.987769126892089844e+00 3.256587266921997070e+00 -7.502657771110534668e-01
1.448000000000000000e+03 7.237076568603515625e+01 7.810490131378173828e+00 2.145734429359436035e-01 9.906204223632812500e+00 3.036233186721801758e+00 5.008099675178527832e-01
1.449000000000000000e+03 1.085701560974121094e+01 -3.453136825561523438e+01 -1.330695152282714844e+00 1.344441056251525879e+00 4.123761784285306931e-03 7.694730162620544434e-02
1.450000000000000000e+03 1.420706844329833984e+01 -3.524790573120117188e+01 -1.271022915840148926e+00 -2.427763938903808594e-01 -4.541397988796234131e-01 4.929850697517395020e-01
1.451000000000000000e+03 1.535321235656738281e+01 -3.366518783569335938e+01 -2.052190780639648438e+00 -6.995305418968200684e-01 -8.255164027214050293e-01 8.364425897598266602e-01
1.452000000000000000e+03 1.343320083618164062e+01 -3.261368942260742188e+01 -2.306244850158691406e+00 -4.830468595027923584e-01 -8.367874622344970703e-01 7.079165577888488770e-01
1.453000000000000000e+03 5.224313354492187500e+01 -2.934407234191894531e+01 2.158917427062988281e+00 6.317478656768798828e+00 2.542918682098388672e+00 -2.306444883346557617e+00
1.454000000000000000e+03 5.273789978027343750e+01 -3.032105064392089844e+01 2.118984460830688477e+00 6.197821140289306641e+00 2.495041608810424805e+00 -1.721845269203186035e+00
1.455000000000000000e+03 4.849123382568359375e+01 -1.374354648590087891e+01 -1.079864382743835449e+00 5.820468425750732422e+00 1.422181129455566406e+00 -3.511189520359039307e-01
1.456000000000000000e+03 3.734904479980468750e+01 -3.752202987670898438e+01 -1.476581811904907227e+00 1.028203606605529785e+00 -1.345134824514389038e-01 3.984808623790740967e-01
1.457000000000000000e+03 3.840006637573242188e+01 -3.566515731811523438e+01 -1.599499583244323730e+00 1.254063129425048828e+00 -1.036309599876403809e-01 7.992950677871704102e-01
1.458000000000000000e+03 6.691384124755859375e+01 -1.929414939880371094e+01 -3.214174509048461914e-01 8.666912317276000977e-01 1.635821312665939331e-01 3.200349211692810059e-01
1.459000000000000000e+03 5.738546371459960938e+01 4.133903121948242188e+01 5.280999001115560532e-03 -2.639304995536804199e-01 -7.759484648704528809e-02 7.447700202465057373e-02
1.460000000000000000e+03 6.227744293212890625e+01 3.810673904418945312e+01 -3.788528442382812500e-01 -4.513906836509704590e-01 -2.490730583667755127e-01 3.004392087459564209e-01
1.461000000000000000e+03 7.680834960937500000e+01 -2.930842781066894531e+01 3.392000794410705566e-01 7.385001182556152344e+00 2.317260503768920898e+00 -5.967273116111755371e-01
1.462000000000000000e+03 7.309138488769531250e+01 -2.933920097351074219e+01 8.273434638977050781e-01 9.136396408081054688e+00 2.989122152328491211e+00 -8.075500279664993286e-02
1.463000000000000000e+03 7.216835021972656250e+01 1.471570491790771484e+01 1.716965623199939728e-02 8.917596817016601562e+00 2.680429935455322266e+00 2.432722896337509155e-01
1.464000000000000000e+03 7.103521728515625000e+01 1.456440639495849609e+01 2.363280802965164185e-01 9.086348533630371094e+00 2.796802997589111328e+00 3.389094471931457520e-01
1.465000000000000000e+03 5.784884262084960938e+01 -1.736830329895019531e+01 -1.823429822921752930e+00 3.139082491397857666e-01 -4.528564810752868652e-01 1.550986409187316895e+00
1.466000000000000000e+03 4.341334152221679688e+01 -2.063336181640625000e+01 3.301560878753662109e+00 1.076544284820556641e+01 4.220100879669189453e+00 -2.240572929382324219e+00
1.467000000000000000e+03 4.311137008666992188e+01 2.981944274902343750e+01 -1.957874894142150879e-01 4.913445472717285156e+00 1.415297389030456543e+00 7.947780489921569824e-01
1.468000000000000000e+03 1.735379600524902344e+01 -8.773210525512695312e+00 9.760009646415710449e-01 4.250524997711181641e+00 1.567957758903503418e+00 5.188455104827880859e+00
1.469000000000000000e+03 7.542926025390625000e+01 -2.557421875000000000e+01 9.086827039718627930e-01 7.918582439422607422e+00 2.648179531097412109e+00 3.426247537136077881e-01
1.470000000000000000e+03 7.005506134033203125e+01 3.439638519287109375e+01 -7.765917181968688965e-01 4.342743873596191406e+00 1.069845676422119141e+00 -2.142805010080337524e-01
1.471000000000000000e+03 7.253405761718750000e+01 -1.624668312072753906e+01 -5.374372005462646484e-01 5.878386020660400391e+00 1.602284669876098633e+00 -6.896786093711853027e-01
1.472000000000000000e+03 3.264421463012695312e+00 -2.735462188720703125e+01 -3.761971890926361084e-01 4.226324558258056641e+00 1.155038118362426758e+00 2.657963037490844727e+00
1.473000000000000000e+03 1.006043815612792969e+01 -3.106642341613769531e+01 -2.566384315490722656e+00 1.925540208816528320e+00 -1.922532171010971069e-01 3.123416304588317871e-01
1.474000000000000000e+03 1.130874633789062500e+01 -3.182000160217285156e+01 -2.351827859878540039e+00 7.997518777847290039e-01 -4.656228125095367432e-01 4.008692204952239990e-01
1.475000000000000000e+03 7.165991210937500000e+01 2.942006874084472656e+01 -2.232540696859359741e-01 6.575524806976318359e+00 1.905681252479553223e+00 4.085645377635955811e-01
1.476000000000000000e+03 5.265463256835937500e+01 3.574769592285156250e+01 -3.513939380645751953e-01 8.282653093338012695e-01 1.430614143610000610e-01 3.272207081317901611e-01
1.477000000000000000e+03 4.988562774658203125e+01 3.956834793090820312e+01 -6.663156151771545410e-01 2.055567979812622070e+00 4.167757332324981689e-01 2.464230060577392578e-01
1.478000000000000000e+03 4.010385513305664062e+01 8.505925178527832031e+00 1.746940493583679199e+00 8.621201515197753906e+00 3.110442399978637695e+00 -9.413468241691589355e-01
1.479000000000000000e+03 3.904529953002929688e+01 -1.634909439086914062e+01 -1.734690964221954346e-01 5.499459743499755859e+00 1.597797155380249023e+00 -3.342710733413696289e+00
1.480000000000000000e+03 4.971974182128906250e+01 -1.455790996551513672e+01 -1.132140755653381348e+00 5.071061611175537109e+00 1.181676268577575684e+00 -2.145477086305618286e-01
1.481000000000000000e+03 1.656093215942382812e+01 -1.176299858093261719e+01 -2.738763093948364258e+00 1.599390268325805664e+00 -3.418118953704833984e-01 4.222520351409912109e+00
1.482000000000000000e+03 5.682826232910156250e+01 -1.830307579040527344e+01 -7.538514733314514160e-01 3.084726817905902863e-02 -2.169012576341629028e-01 1.100895404815673828e+00
1.483000000000000000e+03 5.753914642333984375e+01 -1.936398315429687500e+01 -2.472744584083557129e-01 5.887488126754760742e-01 1.024423018097877502e-01 1.441279172897338867e+00
1.484000000000000000e+03 5.473609542846679688e+01 -1.808895683288574219e+01 -8.991211056709289551e-01 2.978793680667877197e-01 -1.803725361824035645e-01 -3.998893871903419495e-02
1.485000000000000000e+03 5.375902938842773438e+01 -1.703660202026367188e+01 -1.858566045761108398e+00 9.976749420166015625e-01 -2.582673430442810059e-01 -4.059272110462188721e-01
1.486000000000000000e+03 8.189282417297363281e+00 -1.493299293518066406e+01 1.274015069007873535e+00 6.360745906829833984e+00 2.290428400039672852e+00 1.407329082489013672e+00
1.487000000000000000e+03 1.407852458953857422e+01 -1.211997890472412109e+01 -8.682885766029357910e-01 3.785063505172729492e+00 8.750324845314025879e-01 4.878404140472412109e+00
1.488000000000000000e+03 4.046346664428710938e+01 -1.598156070709228516e+01 -2.028475552797317505e-01 7.189141273498535156e+00 2.095888137817382812e+00 -3.169152975082397461e+00
1.489000000000000000e+03 6.291664505004882812e+01 -2.106768989562988281e+01 -2.776634991168975830e-01 9.664735794067382812e-01 2.066430300474166870e-01 1.291749000549316406e+00
1.490000000000000000e+03 6.565661621093750000e+01 -1.947935867309570312e+01 -5.097025036811828613e-01 8.196166157722473145e-01 9.297423064708709717e-02 1.124611377716064453e+00
1.491000000000000000e+03 7.300100708007812500e+01 -2.146096992492675781e+01 -8.447841405868530273e-01 7.742101669311523438e+00 2.069195270538330078e+00 6.452086847275495529e-03
1.492000000000000000e+03 7.354581451416015625e+01 -2.378374099731445312e+01 8.960124850273132324e-01 8.493785858154296875e+00 2.816939592361450195e+00 4.509570598602294922e-01
1.493000000000000000e+03 4.413412857055664062e+01 -3.097932815551757812e+01 -5.136939287185668945e-01 8.186910629272460938e+00 2.301964998245239258e+00 -9.954431056976318359e-01
1.494000000000000000e+03 6.611163616180419922e+00 -2.619846343994140625e+01 -4.831480681896209717e-01 6.273455619812011719e+00 1.737092256546020508e+00 3.062967538833618164e+00
1.495000000000000000e+03 4.438570785522460938e+01 -2.220014762878417969e+01 3.349244356155395508e+00 1.035966587066650391e+01 4.112673282623291016e+00 -2.349433898925781250e+00
1.496000000000000000e+03 4.261704635620117188e+01 -1.818774986267089844e+01 4.679915010929107666e-01 1.021129608154296875e+01 3.203786373138427734e+00 -2.368016719818115234e+00
1.497000000000000000e+03 6.535192108154296875e+01 3.822159957885742188e+01 -3.533592820167541504e-02 8.636695742607116699e-01 2.485000938177108765e-01 -1.082118898630142212e-01
1.498000000000000000e+03 4.970206737518310547e+00 -4.048849487304687500e+01 -4.073776304721832275e-03 5.019696235656738281e+00 1.504686832427978516e+00 2.387151122093200684e-01
1.499000000000000000e+03 5.565368652343750000e+01 -1.914519119262695312e+01 -3.422739803791046143e-01 3.067361116409301758e-01 -1.066135987639427185e-02 4.842216968536376953e-01
1.500000000000000000e+03 5.394507980346679688e+01 -3.269591903686523438e+01 1.614326238632202148e+00 7.100084781646728516e+00 2.614323139190673828e+00 -8.366522789001464844e-01
1.501000000000000000e+03 4.920979976654052734e+00 4.041326522827148438e+01 -6.283471733331680298e-02 2.519894838333129883e-01 5.674643442034721375e-02 2.378530043642967939e-04
1.502000000000000000e+03 6.394838333129882812e+01 -3.641117095947265625e+01 -2.059969007968902588e-01 1.898304931819438934e-02 -5.610415711998939514e-02 -1.153114885091781616e-01
1.503000000000000000e+03 1.536427497863769531e+01 -5.134780406951904297e+00 7.091513156890869141e+00 -6.424389481544494629e-01 1.934722185134887695e+00 2.565228700637817383e+00
1.504000000000000000e+03 1.738998794555664062e+01 -1.677939057350158691e+00 -5.219818949699401855e-01 4.699514865875244141e+00 1.253259897232055664e+00 -6.836948394775390625e-01
1.505000000000000000e+03 1.459978103637695312e+01 -5.384077072143554688e+00 5.373836517333984375e+00 -3.584630787372589111e-01 1.504612088203430176e+00 2.699986934661865234e+00
1.506000000000000000e+03 1.902323150634765625e+01 -2.419776201248168945e+00 9.747655391693115234e-01 9.752273559570312500e+00 3.218111753463745117e+00 3.493389129638671875e+00
1.507000000000000000e+03 1.920771598815917969e+01 -1.851463556289672852e+00 4.603633880615234375e-01 8.216582298278808594e+00 2.603083848953247070e+00 2.665083885192871094e+00
1.508000000000000000e+03 1.477933597564697266e+01 -4.959726333618164062e+00 5.284651279449462891e+00 -6.217924356460571289e-01 1.398857593536376953e+00 1.881237983703613281e+00
1.509000000000000000e+03 2.036090278625488281e+01 -2.195159673690795898e+00 2.823908805847167969e+00 6.727616310119628906e+00 2.865457534790039062e+00 4.011405467987060547e+00
1.510000000000000000e+03 1.953169441223144531e+01 -2.644111633300781250e+00 2.798145771026611328e+00 8.386687278747558594e+00 3.355449914932250977e+00 4.479383468627929688e+00
1.511000000000000000e+03 1.670219039916992188e+01 -5.879227161407470703e+00 9.424273490905761719e+00 4.268076896667480469e+00 4.107705116271972656e+00 7.718739032745361328e+00
1.512000000000000000e+03 1.583388233184814453e+01 -5.888864517211914062e+00 7.831535339355468750e+00 1.131906151771545410e+00 2.689032554626464844e+00 5.539238929748535156e+00
1.513000000000000000e+03 1.140846252441406250e+01 -4.471667766571044922e+00 1.195022821426391602e+00 2.300277650356292725e-01 4.275151789188385010e-01 8.317227959632873535e-01
1.514000000000000000e+03 1.046775245666503906e+01 -3.480334520339965820e+00 2.429842948913574219e-01 2.637552917003631592e-01 1.520218700170516968e-01 3.465604186058044434e-01
1.515000000000000000e+03 1.191705036163330078e+01 -4.731487274169921875e+00 1.621694684028625488e+00 1.449189931154251099e-01 5.299841165542602539e-01 1.085642814636230469e+00
1.516000000000000000e+03 5.441237926483154297e+00 -4.561575412750244141e+00 -1.081798821687698364e-01 2.673113644123077393e-01 4.773943871259689331e-02 -3.209032118320465088e-01
1.517000000000000000e+03 7.297295093536376953e+00 -3.301872014999389648e+00 -2.187682092189788818e-01 3.023509383201599121e-01 2.507481537759304047e-02 -1.123948320746421814e-01
1.518000000000000000e+03 1.109935569763183594e+01 -4.979235649108886719e+00 1.230839252471923828e+00 3.968192934989929199e-01 4.882975518703460693e-01 1.058272123336791992e+00
1.519000000000000000e+03 6.142085075378417969e+00 -4.328131675720214844e+00 -1.062547117471694946e-01 3.530454039573669434e-01 7.403720915317535400e-02 -2.520060539245605469e-01
1.520000000000000000e+03 8.683889389038085938e+00 -3.804279804229736328e+00 3.502388298511505127e-02 4.247023463249206543e-01 1.379178762435913086e-01 1.588792800903320312e-01
1.521000000000000000e+03 3.831414461135864258e+00 -8.553531646728515625e+00 -6.909999996423721313e-02 2.422386854887008667e-01 5.194160342216491699e-02 -5.119492411613464355e-01
1.522000000000000000e+03 3.736810922622680664e+00 -6.398192882537841797e+00 -3.991848975419998169e-02 -1.287409197539091110e-02 -1.583777368068695068e-02 -4.801136553287506104e-01
1.523000000000000000e+03 2.625031232833862305e+00 -3.571688890457153320e+00 -8.122245967388153076e-02 -1.704126894474029541e-01 -7.549054175615310669e-02 -3.864037394523620605e-01
1.524000000000000000e+03 2.814357519149780273e+00 -5.968482971191406250e+00 -5.731537565588951111e-02 -2.615354657173156738e-01 -9.565524756908416748e-02 -4.850361347198486328e-01
1.525000000000000000e+03 1.660678672790527344e+01 1.137531757354736328e+00 -2.448977231979370117e-01 2.519606828689575195e+00 6.824126839637756348e-01 -5.025894641876220703e-01
1.526000000000000000e+03 9.169986724853515625e+00 4.959263324737548828e+00 9.081891179084777832e-02 -1.198087185621261597e-01 -8.696940727531909943e-03 3.564128577709197998e-01
1.527000000000000000e+03 8.509149551391601562e+00 4.641524791717529297e+00 1.219351682811975479e-02 -1.657066792249679565e-01 -4.605394974350929260e-02 4.175096452236175537e-01
1.528000000000000000e+03 1.276409339904785156e+01 -4.505718231201171875e+00 2.060198545455932617e+00 -1.205776929855346680e-01 5.818862318992614746e-01 1.035521507263183594e+00
1.529000000000000000e+03 1.575192832946777344e+01 7.984825372695922852e-01 -2.494693398475646973e-01 1.528708457946777344e+00 3.837717473506927490e-01 -4.591481983661651611e-01
1.530000000000000000e+03 1.353383731842041016e+01 2.842348814010620117e+00 -2.109212055802345276e-02 4.336068332195281982e-01 1.237544193863868713e-01 -1.067753881216049194e-01
1.531000000000000000e+03 4.430493354797363281e+00 6.069140434265136719e+00 1.968754269182682037e-02 -2.628745734691619873e-01 -7.295610755681991577e-02 3.607218265533447266e-01
1.532000000000000000e+03 7.846710681915283203e+00 4.423307418823242188e+00 -5.231577530503273010e-02 -1.821449846029281616e-01 -7.033822685480117798e-02 4.436077773571014404e-01
1.533000000000000000e+03 7.408146381378173828e+00 6.555213928222656250e+00 1.508695185184478760e-01 -1.387080103158950806e-01 3.648453857749700546e-03 3.550117313861846924e-01
1.534000000000000000e+03 5.202223777770996094e+00 5.465073108673095703e+00 -7.554397452622652054e-03 -2.195003926753997803e-01 -6.811643391847610474e-02 3.918994963169097900e-01
1.535000000000000000e+03 2.651005029678344727e+00 4.837300300598144531e+00 -3.691703453660011292e-02 -2.629785835742950439e-01 -8.996868878602981567e-02 2.555035352706909180e-01
1.536000000000000000e+03 3.458081483840942383e+00 3.729469060897827148e+00 -9.064590930938720703e-02 -1.739173978567123413e-01 -7.936899363994598389e-02 2.831051647663116455e-01
1.537000000000000000e+03 4.221670627593994141e+00 4.584216594696044922e+00 -6.383642554283142090e-02 -2.015280425548553467e-01 -7.960933446884155273e-02 3.545378446578979492e-01
1.538000000000000000e+03 2.645490884780883789e+00 3.808176517486572266e+00 -5.855178833007812500e-02 -1.965199410915374756e-01 -7.652151584625244141e-02 2.267557233572006226e-01
1.539000000000000000e+03 8.083270072937011719e+00 -3.879096746444702148e+00 -2.625160478055477142e-02 4.301932752132415771e-01 1.211825087666511536e-01 6.283310800790786743e-02
1.540000000000000000e+03 9.246523857116699219e+00 -3.204094886779785156e+00 -8.045809715986251831e-02 3.225671350955963135e-01 7.263271510601043701e-02 1.623936295509338379e-01
1.541000000000000000e+03 7.456143856048583984e+00 -3.993706941604614258e+00 -6.650242209434509277e-02 4.294498562812805176e-01 1.088842302560806274e-01 -3.969287499785423279e-02
1.542000000000000000e+03 2.186049079895019531e+01 -4.378373146057128906e+00 6.579704761505126953e+00 2.829749584197998047e+00 2.822836160659790039e+00 2.511562585830688477e+00
1.543000000000000000e+03 1.303859138488769531e+01 3.306878805160522461e+00 4.412697255611419678e-02 3.147659003734588623e-01 1.076678633689880371e-01 -5.370673909783363342e-02
1.544000000000000000e+03 1.314241123199462891e+01 2.306818485260009766e+00 -1.794789135456085205e-01 1.714071929454803467e-01 -2.421514363959431648e-03 7.652082946151494980e-03
1.545000000000000000e+03 1.074771499633789062e+01 3.653180122375488281e+00 -5.589098855853080750e-02 -1.485992521047592163e-01 -6.134707480669021606e-02 2.891159355640411377e-01
1.546000000000000000e+03 9.232719421386718750e+00 -3.764762163162231445e+00 1.028102487325668335e-01 3.925818502902984619e-01 1.486176252365112305e-01 2.410093545913696289e-01
1.547000000000000000e+03 1.956506729125976562e+01 -1.098590183258056641e+01 -3.495584011077880859e+00 7.326781749725341797e-01 -8.288717269897460938e-01 1.809346437454223633e+00
1.548000000000000000e+03 1.862075614929199219e+01 -7.023630619049072266e+00 4.234551429748535156e+00 7.642401218414306641e+00 3.563085794448852539e+00 2.630675554275512695e+00
1.549000000000000000e+03 2.106080436706542969e+01 -5.251770973205566406e+00 7.803308963775634766e+00 3.391067028045654297e+00 3.358312845230102539e+00 1.778111577033996582e+00
1.550000000000000000e+03 1.472691440582275391e+01 2.135948657989501953e+00 -8.799883723258972168e-02 9.282412528991699219e-01 2.520727217197418213e-01 -2.996487319469451904e-01
1.551000000000000000e+03 1.411024761199951172e+01 2.476380586624145508e+00 -5.734229832887649536e-02 6.405591368675231934e-01 1.749650537967681885e-01 -2.063808441162109375e-01
1.552000000000000000e+03 1.726020050048828125e+01 -1.097674179077148438e+01 -2.706535816192626953e+00 1.554385900497436523e+00 -3.456449508666992188e-01 4.289569377899169922e+00
1.553000000000000000e+03 1.503086280822753906e+01 -1.158986473083496094e+01 -1.544652223587036133e+00 3.176907300949096680e+00 4.896765053272247314e-01 5.025034904479980469e+00
1.554000000000000000e+03 3.090729904174804688e+01 -1.367864322662353516e+01 -1.835608959197998047e+00 1.064367055892944336e+00 -2.313725948333740234e-01 -7.772521376609802246e-01
1.555000000000000000e+03 8.769779205322265625e+00 5.683528900146484375e+00 1.482495218515396118e-01 -9.206227958202362061e-02 1.685617305338382721e-02 3.436325490474700928e-01
1.556000000000000000e+03 1.159145355224609375e+01 4.361729621887207031e+00 1.501123607158660889e-01 1.069678440690040588e-01 7.712405920028686523e-02 1.169601231813430786e-01
1.557000000000000000e+03 6.812942504882812500e+01 -1.909302711486816406e+01 -3.760995268821716309e-01 1.714470267295837402e+00 4.015112221240997314e-01 -3.552336394786834717e-01
1.558000000000000000e+03 3.117158126831054688e+01 -1.253048992156982422e+01 -1.320583343505859375e+00 1.392699241638183594e+00 2.163477055728435516e-02 -1.266523241996765137e+00
1.559000000000000000e+03 5.985130310058593750e+01 -2.156239891052246094e+01 5.209732055664062500e-01 1.142022609710693359e+00 4.988987445831298828e-01 1.491652131080627441e+00
1.560000000000000000e+03 6.466621398925781250e+01 -1.562545299530029297e+01 4.262613058090209961e-01 1.972054004669189453e+00 7.194945812225341797e-01 1.045400261878967285e+00
1.561000000000000000e+03 1.118096733093261719e+01 -5.768055915832519531e+00 1.466660380363464355e+00 6.616191267967224121e-01 6.384838819503784180e-01 1.569021821022033691e+00
1.562000000000000000e+03 7.996173858642578125e+00 -1.358356857299804688e+01 4.947590529918670654e-01 5.296684741973876953e+00 1.737433195114135742e+00 1.032033324241638184e+00
1.563000000000000000e+03 4.265568542480468750e+01 -1.703273534774780273e+00 3.764664530754089355e-01 5.791258811950683594e+00 1.850317478179931641e+00 -2.064068078994750977e+00
1.564000000000000000e+03 4.567882919311523438e+01 -6.025132179260253906e+00 -5.857707187533378601e-02 5.636711120605468750e+00 1.673440217971801758e+00 -1.800791025161743164e+00
1.565000000000000000e+03 4.195969009399414062e+01 2.889726638793945312e+01 -1.832905858755111694e-01 5.317258358001708984e+00 1.540190339088439941e+00 6.407768130302429199e-01
1.566000000000000000e+03 4.455025100708007812e+01 3.063013076782226562e+01 -1.680237650871276855e-01 4.414789676666259766e+00 1.274029850959777832e+00 9.144000411033630371e-01
1.567000000000000000e+03 4.638893890380859375e+01 -4.364115715026855469e+00 2.539506554603576660e-01 5.465824127197265625e+00 1.715932488441467285e+00 -1.957715392112731934e+00
1.568000000000000000e+03 4.368124771118164062e+01 -4.002396583557128906e+00 1.013932749629020691e-01 5.676288127899169922e+00 1.733304381370544434e+00 -2.045968055725097656e+00
1.569000000000000000e+03 4.523921585083007812e+01 -4.787055969238281250e+00 1.008142456412315369e-01 5.616052627563476562e+00 1.715059995651245117e+00 -1.948701620101928711e+00
1.570000000000000000e+03 4.222983551025390625e+01 4.181944370269775391e+00 1.036245226860046387e+00 7.172752380371093750e+00 2.462699413299560547e+00 -2.128603696823120117e+00
1.571000000000000000e+03 4.249954605102539062e+01 1.183724284172058105e+00 6.541445255279541016e-01 6.277577877044677734e+00 2.079516649246215820e+00 -2.084416151046752930e+00
1.572000000000000000e+03 7.226938629150390625e+01 1.195983123779296875e+01 -4.180678129196166992e-01 9.203759193420410156e+00 2.635707378387451172e+00 2.142983078956604004e-01
1.573000000000000000e+03 7.474143981933593750e+01 3.880146503448486328e+00 4.948002099990844727e-01 8.334705352783203125e+00 2.648851633071899414e+00 4.193585216999053955e-01
1.574000000000000000e+03 7.252074432373046875e+01 3.509945154190063477e+00 6.092665195465087891e-01 1.043135356903076172e+01 3.312186002731323242e+00 5.407116413116455078e-01
1.575000000000000000e+03 4.715723800659179688e+01 -1.104713630676269531e+01 -7.900620698928833008e-01 5.998288631439208984e+00 1.562467932701110840e+00 -8.621590733528137207e-01
1.576000000000000000e+03 7.460469818115234375e+01 1.214922332763671875e+01 -2.058393508195877075e-01 8.436277389526367188e+00 2.469131231307983398e+00 4.827129840850830078e-01
1.577000000000000000e+03 7.557134246826171875e+01 -7.697889208793640137e-02 3.211205303668975830e-01 7.448666095733642578e+00 2.330935955047607422e+00 -1.743541061878204346e-01
1.578000000000000000e+03 7.702633666992187500e+01 4.031228542327880859e+00 2.067792713642120361e-01 6.736224174499511719e+00 2.082901000976562500e+00 3.085319995880126953e-01
1.579000000000000000e+03 7.357362365722656250e+01 5.107466220855712891e+00 4.725401699542999268e-01 9.370187759399414062e+00 2.952818393707275391e+00 5.508041381835937500e-01
1.580000000000000000e+03 7.471079254150390625e+01 5.231538295745849609e+00 3.986941874027252197e-01 8.455490112304687500e+00 2.656255245208740234e+00 5.556077361106872559e-01
1.581000000000000000e+03 7.266513824462890625e+01 1.917695760726928711e+00 7.855048775672912598e-01 9.957646369934082031e+00 3.222945213317871094e+00 4.928885400295257568e-01
1.582000000000000000e+03 7.586395263671875000e+01 5.330289363861083984e+00 2.840162813663482666e-01 7.608909606933593750e+00 2.367877721786499023e+00 5.208776593208312988e-01
1.583000000000000000e+03 7.468679046630859375e+01 6.613922119140625000e+00 2.458693981170654297e-01 8.481082916259765625e+00 2.618085622787475586e+00 6.729033589363098145e-01
1.584000000000000000e+03 7.581436920166015625e+01 9.481788635253906250e+00 -7.376071810722351074e-02 7.922982215881347656e+00 2.354766368865966797e+00 6.580389142036437988e-01
1.585000000000000000e+03 7.576140594482421875e+01 -7.119799613952636719e+00 -2.436686493456363678e-02 7.004107952117919922e+00 2.093922376632690430e+00 -5.617887973785400391e-01
1.586000000000000000e+03 7.690466308593750000e+01 -5.677567005157470703e+00 8.766556158661842346e-03 6.800870895385742188e+00 2.042891263961791992e+00 -5.512522459030151367e-01
1.587000000000000000e+03 7.252711486816406250e+01 -3.744830846786499023e+00 2.638393938541412354e-01 8.332056045532226562e+00 2.578768491744995117e+00 1.185607984662055969e-01
1.588000000000000000e+03 7.579808044433593750e+01 1.087392997741699219e+01 -1.230870038270950317e-01 7.952544212341308594e+00 2.348837137222290039e+00 5.865445733070373535e-01
1.589000000000000000e+03 7.436651611328125000e+01 -2.981870651245117188e+00 2.170929163694381714e-01 7.733237743377685547e+00 2.385099172592163086e+00 -3.053869009017944336e-01
1.590000000000000000e+03 7.563291168212890625e+01 -4.345726490020751953e+00 6.041597574949264526e-02 7.154583454132080078e+00 2.164499998092651367e+00 -5.195435881614685059e-01
1.591000000000000000e+03 7.591521453857421875e+01 1.658364486694335938e+01 1.469631586223840714e-02 8.059768676757812500e+00 2.422339439392089844e+00 4.063899517059326172e-01
1.592000000000000000e+03 7.703435516357421875e+01 1.935095596313476562e+01 4.671732336282730103e-02 8.005154609680175781e+00 2.415561676025390625e+00 3.983015418052673340e-01
1.593000000000000000e+03 7.393093872070312500e+01 1.626382064819335938e+01 3.577307239174842834e-02 8.474154472351074219e+00 2.552978515625000000e+00 4.040720760822296143e-01
1.594000000000000000e+03 7.350403594970703125e+01 1.897842216491699219e+01 7.246792316436767578e-02 8.545654296875000000e+00 2.585436582565307617e+00 4.522980749607086182e-01
1.595000000000000000e+03 7.468589019775390625e+01 1.913795089721679688e+01 8.941573649644851685e-02 8.306147575378417969e+00 2.518669128417968750e+00 4.876245260238647461e-01
1.596000000000000000e+03 7.579582214355468750e+01 -1.446736145019531250e+01 -2.269190251827239990e-01 7.063416004180908203e+00 2.050949096679687500e+00 -3.979373276233673096e-01
1.597000000000000000e+03 7.688582611083984375e+01 -1.281055450439453125e+01 -1.050062105059623718e-01 7.236704826354980469e+00 2.139509677886962891e+00 -4.317525923252105713e-01
1.598000000000000000e+03 7.548570251464843750e+01 -1.148865985870361328e+01 -9.391063451766967773e-02 6.881278514862060547e+00 2.036210298538208008e+00 -5.366398692131042480e-01
1.599000000000000000e+03 7.707353973388671875e+01 -1.977488899230957031e+01 -3.544859290122985840e-01 7.685790538787841797e+00 2.199391365051269531e+00 4.335864782333374023e-01
1.600000000000000000e+03 7.347617340087890625e+01 -1.858425331115722656e+01 -9.572063684463500977e-01 6.951309204101562500e+00 1.798230767250061035e+00 -3.504116237163543701e-01
1.601000000000000000e+03 7.669819641113281250e+01 -2.518137741088867188e+01 5.463418960571289062e-01 7.444852352142333984e+00 2.397358179092407227e+00 4.729458689689636230e-01
1.602000000000000000e+03 7.581061553955078125e+01 -2.680866622924804688e+01 8.091984391212463379e-01 7.782160758972167969e+00 2.577407836914062500e+00 1.799970492720603943e-02
1.603000000000000000e+03 7.387723541259765625e+01 -2.123273277282714844e+01 -8.744269609451293945e-01 8.006471633911132812e+00 2.139613389968872070e+00 4.018155932426452637e-01
1.604000000000000000e+03 7.562236785888671875e+01 -1.836147117614746094e+01 -5.783619880676269531e-01 7.424437522888183594e+00 2.053822755813598633e+00 6.727638840675354004e-02
1.605000000000000000e+03 7.446503448486328125e+01 -2.623520469665527344e+01 1.229836106300354004e+00 8.795964241027832031e+00 3.007740259170532227e+00 2.311805188655853271e-01
1.606000000000000000e+03 7.459068298339843750e+01 -2.453481292724609375e+01 1.017669796943664551e+00 8.537151336669921875e+00 2.866446495056152344e+00 5.377055406570434570e-01
1.607000000000000000e+03 7.539449310302734375e+01 -2.330572509765625000e+01 2.679060399532318115e-01 7.836335659027099609e+00 2.431272506713867188e+00 8.809953331947326660e-01
1.608000000000000000e+03 7.394338989257812500e+01 3.650381088256835938e+01 -3.081164956092834473e-01 7.200868129730224609e+00 2.067825555801391602e+00 1.324923485517501831e-01
1.609000000000000000e+03 7.602971649169921875e+01 3.543272781372070312e+01 -2.791499793529510498e-01 8.754171371459960938e+00 2.542506456375122070e+00 2.621735036373138428e-01
1.610000000000000000e+03 7.138109588623046875e+01 3.383782958984375000e+01 -6.719584465026855469e-01 5.565168380737304688e+00 1.467962980270385742e+00 5.614681914448738098e-02
1.611000000000000000e+03 7.458993530273437500e+01 2.193149185180664062e+01 1.645721793174743652e-01 8.252857208251953125e+00 2.525228738784790039e+00 5.209693908691406250e-01
1.612000000000000000e+03 7.335585784912109375e+01 2.323682212829589844e+01 2.445749044418334961e-01 8.173682212829589844e+00 2.525477170944213867e+00 4.572731554508209229e-01
1.613000000000000000e+03 7.692705535888671875e+01 2.767558097839355469e+01 1.778668165206909180e-02 8.753207206726074219e+00 2.631298065185546875e+00 6.702224016189575195e-01
1.614000000000000000e+03 7.442779541015625000e+01 2.618584251403808594e+01 1.239750459790229797e-01 8.027989387512207031e+00 2.445589303970336914e+00 7.247888445854187012e-01
1.615000000000000000e+03 7.696625518798828125e+01 2.896949577331542969e+01 -7.200963050127029419e-02 8.917883872985839844e+00 2.653762102127075195e+00 6.534100770950317383e-01
1.616000000000000000e+03 7.448313903808593750e+01 2.476865768432617188e+01 2.078039944171905518e-01 8.084768295288085938e+00 2.487771511077880859e+00 6.464885473251342773e-01
1.617000000000000000e+03 6.812008666992187500e+01 -1.783211326599121094e+01 -7.393316179513931274e-02 2.245689392089843750e+00 6.515268683433532715e-01 -2.047856748104095459e-01
1.618000000000000000e+03 7.057544708251953125e+01 -1.646909713745117188e+01 -2.969147861003875732e-01 4.649093151092529297e+00 1.305653452873229980e+00 -6.522495150566101074e-01
1.619000000000000000e+03 7.335919189453125000e+01 -3.229053878784179688e+01 -5.439926981925964355e-01 7.641084671020507812e+00 2.129127502441406250e+00 -9.984062612056732178e-02
1.620000000000000000e+03 7.550804138183593750e+01 -3.305694961547851562e+01 -3.028745353221893311e-01 7.383175849914550781e+00 2.124090433120727539e+00 -5.768376588821411133e-01
1.621000000000000000e+03 7.677214813232421875e+01 3.148904609680175781e+01 -1.337336301803588867e-01 9.049944877624511719e+00 2.674863338470458984e+00 5.232868194580078125e-01
1.622000000000000000e+03 7.566527557373046875e+01 2.626334571838378906e+01 9.672965109348297119e-02 8.302087783813476562e+00 2.519645214080810547e+00 7.230524420738220215e-01
1.623000000000000000e+03 7.671485900878906250e+01 -3.069507026672363281e+01 1.322029680013656616e-01 7.497882843017578125e+00 2.289025783538818359e+00 -7.430307269096374512e-01
1.624000000000000000e+03 7.371267700195312500e+01 -3.047155570983886719e+01 3.609618544578552246e-01 8.303764343261718750e+00 2.599417924880981445e+00 -2.808499336242675781e-01
1.625000000000000000e+03 7.252820587158203125e+01 3.161166381835937500e+01 -5.838447809219360352e-01 6.611989498138427734e+00 1.808443427085876465e+00 4.393610060214996338e-01
1.626000000000000000e+03 7.579919433593750000e+01 3.002348327636718750e+01 -1.959280967712402344e-01 8.502376556396484375e+00 2.491934299468994141e+00 6.893137097358703613e-01
1.627000000000000000e+03 7.571781158447265625e+01 1.296251893043518066e+00 4.642261266708374023e-01 7.466500282287597656e+00 2.379217863082885742e+00 -1.323451474308967590e-02
1.628000000000000000e+03 6.552500915527343750e+01 -1.424752902984619141e+01 7.610447406768798828e-01 2.433222770690917969e+00 9.582802057266235352e-01 9.534230828285217285e-01
1.629000000000000000e+03 7.265240478515625000e+01 1.000444591045379639e-01 7.726615667343139648e-01 9.497651100158691406e+00 3.081093788146972656e+00 3.157520592212677002e-01
1.630000000000000000e+03 7.220578002929687500e+01 1.594681835174560547e+01 1.566922515630722046e-01 8.796069145202636719e+00 2.685828447341918945e+00 3.758782744407653809e-01
1.631000000000000000e+03 7.468621826171875000e+01 1.547976207733154297e+01 -1.537719927728176117e-02 8.351844787597656250e+00 2.500940322875976562e+00 4.126576483249664307e-01
1.632000000000000000e+03 7.232594299316406250e+01 1.883858871459960938e+01 4.902251437306404114e-02 8.730149269104003906e+00 2.633751392364501953e+00 3.994136750698089600e-01
1.633000000000000000e+03 7.236534881591796875e+01 1.734764289855957031e+01 6.927797943353652954e-02 8.852218627929687500e+00 2.676448822021484375e+00 4.261738955974578857e-01
1.634000000000000000e+03 7.232768249511718750e+01 -3.829960250854492188e+01 -1.238967776298522949e-01 5.127751827239990234e+00 1.501156449317932129e+00 3.706770837306976318e-01
1.635000000000000000e+03 4.527027511596679688e+01 3.300848770141601562e+01 -5.439069867134094238e-01 3.953964471817016602e+00 1.023017168045043945e+00 7.115890383720397949e-01
1.636000000000000000e+03 1.584696769714355469e+01 -1.104680633544921875e+01 -1.665992259979248047e+00 2.729673385620117188e+00 3.191043138504028320e-01 5.351163387298583984e+00
1.637000000000000000e+03 3.851947784423828125e+01 1.014975166320800781e+01 1.908196806907653809e+00 7.938944816589355469e+00 2.954142332077026367e+00 -4.862758219242095947e-01
1.638000000000000000e+03 4.768610763549804688e+01 -8.184931755065917969e+00 -9.280680119991302490e-02 5.507268905639648438e+00 1.624338746070861816e+00 -1.312871932983398438e+00
1.639000000000000000e+03 4.650473785400390625e+01 -8.531221389770507812e+00 -3.845520317554473877e-01 5.782531261444091797e+00 1.619393825531005859e+00 -1.371223330497741699e+00
1.640000000000000000e+03 3.850322484970092773e+00 -1.487488174438476562e+01 3.067984580993652344e-01 1.138556241989135742e+00 4.336064159870147705e-01 -3.826562166213989258e-01
1.641000000000000000e+03 4.517520427703857422e+00 2.175818252563476562e+01 3.288580477237701416e-02 -2.122325897216796875e-01 -5.380403622984886169e-02 -1.398094147443771362e-01
1.642000000000000000e+03 5.015489101409912109e+00 -2.049761581420898438e+01 1.687304377555847168e+00 4.550178050994873047e+00 1.871244668960571289e+00 1.872536420822143555e+00
1.643000000000000000e+03 4.151480197906494141e+00 -1.896065521240234375e+01 1.157348036766052246e+00 2.259958744049072266e+00 1.025192022323608398e+00 8.594304323196411133e-01
1.644000000000000000e+03 6.926136970520019531e+00 -2.823381042480468750e+01 -1.806964278221130371e+00 5.703861236572265625e+00 1.169069051742553711e+00 2.061070203781127930e+00
1.645000000000000000e+03 7.310304641723632812e+00 -1.840965461730957031e+01 2.366390705108642578e+00 7.946820259094238281e+00 3.093963384628295898e+00 2.333764791488647461e+00
1.646000000000000000e+03 5.400425434112548828e+00 -1.908929824829101562e+01 1.834002375602722168e+00 4.818548202514648438e+00 1.995765209197998047e+00 1.374062657356262207e+00
1.647000000000000000e+03 4.608267784118652344e+00 -2.464189529418945312e+01 6.112896800041198730e-01 4.830090999603271484e+00 1.632414221763610840e+00 3.171727418899536133e+00
1.648000000000000000e+03 3.269973993301391602e+00 -2.595518684387207031e+01 -1.077737733721733093e-01 3.734288215637207031e+00 1.087954401969909668e+00 2.908597230911254883e+00
1.649000000000000000e+03 4.891501426696777344e+00 2.469818115234375000e+01 2.180561982095241547e-02 -5.142834037542343140e-02 -8.886815980076789856e-03 -1.774053126573562622e-01
1.650000000000000000e+03 4.624209403991699219e+00 2.934049987792968750e+01 -9.538806974887847900e-03 3.012934327125549316e-02 6.177160888910293579e-03 -1.666997224092483521e-01
1.651000000000000000e+03 4.178963661193847656e+00 1.620119667053222656e+01 7.727149128913879395e-02 -3.887320756912231445e-01 -9.343817830085754395e-02 -8.823565207421779633e-03
1.652000000000000000e+03 4.321715354919433594e+00 1.896842002868652344e+01 5.437035858631134033e-02 -3.214764893054962158e-01 -8.013184368610382080e-02 -8.287291973829269409e-02
1.653000000000000000e+03 3.042934656143188477e+00 1.765524673461914062e+01 3.634610399603843689e-02 -5.929338335990905762e-01 -1.669763177633285522e-01 -3.437281772494316101e-02
1.654000000000000000e+03 2.965429067611694336e+00 1.484989738464355469e+01 4.972236230969429016e-02 -6.217484474182128906e-01 -1.716078221797943115e-01 3.626561909914016724e-02
1.655000000000000000e+03 4.110404014587402344e+00 1.341422653198242188e+01 9.480786323547363281e-02 -4.167155325412750244e-01 -9.657230228185653687e-02 8.794697374105453491e-02
1.656000000000000000e+03 5.763300418853759766e+00 2.160737991333007812e+01 5.550706014037132263e-02 1.414446718990802765e-02 2.089545875787734985e-02 -1.729754209518432617e-01
1.657000000000000000e+03 5.022430419921875000e+00 2.623453140258789062e+01 4.638484213501214981e-03 1.206904742866754532e-02 5.012259352952241898e-03 -1.877654343843460083e-01
1.658000000000000000e+03 4.678843021392822266e+00 2.320778656005859375e+01 3.119670599699020386e-02 -1.329579353332519531e-01 -3.052837029099464417e-02 -1.597579717636108398e-01
1.659000000000000000e+03 3.781684875488281250e+00 -1.112982845306396484e+01 -3.778412565588951111e-02 5.019177794456481934e-01 1.392400860786437988e-01 -6.093395352363586426e-01
1.660000000000000000e+03 3.790160179138183594e+00 -9.838524818420410156e+00 -1.192198097705841064e-01 3.699482083320617676e-01 7.521851360797882080e-02 -5.442049503326416016e-01
1.661000000000000000e+03 3.786267518997192383e+00 -1.362722396850585938e+01 1.678414493799209595e-01 7.700221538543701172e-01 2.813590764999389648e-01 -5.242429971694946289e-01
1.662000000000000000e+03 5.069356918334960938e+00 1.075963687896728516e+01 1.518372744321823120e-01 -2.746357917785644531e-01 -3.683955967426300049e-02 1.976334303617477417e-01
1.663000000000000000e+03 6.528841018676757812e+00 2.803722572326660156e+01 -7.494168356060981750e-03 3.606791794300079346e-01 1.059555038809776306e-01 -2.406445741653442383e-01
1.664000000000000000e+03 6.085423946380615234e+00 3.618620300292968750e+01 -5.924404039978981018e-02 4.691555798053741455e-01 1.229734644293785095e-01 -1.238903105258941650e-01
1.665000000000000000e+03 3.312506198883056641e+00 -3.017434883117675781e+01 -7.447833418846130371e-01 5.131247520446777344e+00 1.315939188003540039e+00 1.752107262611389160e+00
1.666000000000000000e+03 5.538407325744628906e+00 -2.981315231323242188e+01 -1.511863827705383301e+00 5.150575637817382812e+00 1.091613531112670898e+00 1.906019449234008789e+00
1.667000000000000000e+03 3.965975999832153320e+00 1.082861614227294922e+01 9.978663921356201172e-02 -4.216915667057037354e-01 -9.657147526741027832e-02 1.861646622419357300e-01
1.668000000000000000e+03 3.789212465286254883e+00 -1.240013885498046875e+01 -1.272988226264715195e-02 5.947451591491699219e-01 1.746045798063278198e-01 -5.856128931045532227e-01
1.669000000000000000e+03 5.607159614562988281e+00 -6.429258823394775391e+00 -3.289811685681343079e-02 6.706768274307250977e-01 1.913336068391799927e-01 -2.355053275823593140e-01
1.670000000000000000e+03 4.958545684814453125e+00 2.780838966369628906e+01 1.930139114847406745e-04 6.089480966329574585e-02 1.832634769380092621e-02 -1.837233304977416992e-01
1.671000000000000000e+03 3.624010801315307617e+00 3.411235427856445312e+01 -2.127341739833354950e-02 6.053581368178129196e-03 -4.565950948745012283e-03 -1.090907976031303406e-01
1.672000000000000000e+03 4.888839721679687500e+00 3.341835403442382812e+01 -3.639956563711166382e-02 1.805125176906585693e-01 4.323388636112213135e-02 -1.519257426261901855e-01
1.673000000000000000e+03 4.140134811401367188e+00 8.519353866577148438e+00 8.192012459039688110e-02 -3.602625429630279541e-01 -8.350272476673126221e-02 2.792203724384307861e-01
1.674000000000000000e+03 5.340443134307861328e+00 -3.446358489990234375e+01 -8.149570822715759277e-01 4.818401813507080078e+00 1.201033473014831543e+00 6.671792268753051758e-01
1.675000000000000000e+03 4.510461807250976562e+00 -3.002100944519042969e+01 -1.247878789901733398e+00 5.083018779754638672e+00 1.150542020797729492e+00 2.004829406738281250e+00
1.676000000000000000e+03 4.801742076873779297e+00 -3.138301086425781250e+01 -1.195545315742492676e+00 5.055918693542480469e+00 1.158112049102783203e+00 1.412478089332580566e+00
1.677000000000000000e+03 3.469407081604003906e+00 -3.159665489196777344e+01 -7.375730276107788086e-01 5.323332786560058594e+00 1.375728011131286621e+00 1.307937383651733398e+00
1.678000000000000000e+03 3.822354793548583984e+00 5.364400386810302734e+00 -2.056067995727062225e-02 -2.542559206485748291e-01 -8.244498074054718018e-02 3.403511047363281250e-01
1.679000000000000000e+03 4.096491813659667969e+00 -5.535006523132324219e+00 -8.388479053974151611e-02 5.644372478127479553e-02 -8.232319727540016174e-03 -4.767280519008636475e-01
1.680000000000000000e+03 2.680376052856445312e+00 -7.127792358398437500e+00 -1.921095140278339386e-02 -3.703387975692749023e-01 -1.168649271130561829e-01 -5.119580626487731934e-01
1.681000000000000000e+03 5.287294769287109375e+01 -2.448016548156738281e+01 1.533630490303039551e+00 4.399451732635498047e+00 1.779924631118774414e+00 -1.272238135337829590e+00
1.682000000000000000e+03 4.608466339111328125e+01 -2.449677848815917969e+01 2.468395233154296875e+00 8.886865615844726562e+00 3.406578302383422852e+00 -2.870458841323852539e+00
1.683000000000000000e+03 3.347818136215209961e+00 -3.719007873535156250e+01 -3.462767004966735840e-01 6.225248336791992188e+00 1.763691425323486328e+00 3.901796415448188782e-02
1.684000000000000000e+03 5.200929641723632812e+00 -3.613283538818359375e+01 -5.412538647651672363e-01 4.691807270050048828e+00 1.245166063308715820e+00 3.432299792766571045e-01
1.685000000000000000e+03 7.265950012207031250e+01 -2.038916587829589844e+01 -1.352972507476806641e+00 7.310157775878906250e+00 1.787155508995056152e+00 -3.689598143100738525e-01
1.686000000000000000e+03 3.613303375244140625e+01 -1.149998378753662109e+01 -4.938714802265167236e-01 3.566924810409545898e+00 9.219159483909606934e-01 -2.587569236755371094e+00
1.687000000000000000e+03 3.492623519897460938e+01 -1.453184986114501953e+01 -6.664736270904541016e-01 1.964550614356994629e+00 3.894231021404266357e-01 -2.049828767776489258e+00
1.688000000000000000e+03 7.032978820800781250e+01 3.277251052856445312e+01 -8.258347511291503906e-01 4.796013832092285156e+00 1.191053748130798340e+00 -2.906368486583232880e-02
1.689000000000000000e+03 4.112329101562500000e+01 3.598919868469238281e+00 9.088193178176879883e-01 7.014018535614013672e+00 2.376851320266723633e+00 -1.707308650016784668e+00
1.690000000000000000e+03 4.182950973510742188e+01 2.381565570831298828e+00 8.042293787002563477e-01 6.580305576324462891e+00 2.215360641479492188e+00 -1.931309700012207031e+00
1.691000000000000000e+03 3.743986892700195312e+01 -1.524767684936523438e+01 -3.076742291450500488e-01 3.585109472274780273e+00 9.832305312156677246e-01 -2.967520952224731445e+00
1.692000000000000000e+03 3.771421432495117188e+01 -1.658104515075683594e+01 2.308366745710372925e-01 3.599751710891723633e+00 1.149176478385925293e+00 -3.443537235260009766e+00
1.693000000000000000e+03 7.463484191894531250e+01 2.052466583251953125e+01 1.091912910342216492e-01 8.323080062866210938e+00 2.529681205749511719e+00 4.860371351242065430e-01
1.694000000000000000e+03 5.249200439453125000e+01 -1.985390472412109375e+01 2.967626452445983887e-01 3.006159305572509766e+00 9.908765554428100586e-01 -9.812355637550354004e-01
1.695000000000000000e+03 7.262862396240234375e+01 -1.058839321136474609e+01 -1.563677564263343811e-02 6.342042922973632812e+00 1.897921919822692871e+00 -2.450083196163177490e-01
1.696000000000000000e+03 7.092780303955078125e+01 -4.504291534423828125e+00 3.178991973400115967e-01 8.155229568481445312e+00 2.541938543319702148e+00 8.125089406967163086e-01
1.697000000000000000e+03 7.149784851074218750e+01 -3.142626285552978516e+00 3.464816212654113770e-01 8.881672859191894531e+00 2.768446207046508789e+00 6.378949880599975586e-01
1.698000000000000000e+03 7.866757392883300781e+00 -1.739609336853027344e+01 2.562039136886596680e+00 8.174239158630371094e+00 3.220883607864379883e+00 2.292100191116333008e+00
1.699000000000000000e+03 5.197736263275146484e+00 -1.599636077880859375e+01 8.276564478874206543e-01 3.180309534072875977e+00 1.202389836311340332e+00 1.472082287073135376e-01
1.700000000000000000e+03 7.338484954833984375e+01 -6.270947933197021484e+00 3.810589760541915894e-02 7.353511810302734375e+00 2.217485189437866211e+00 -2.336470186710357666e-01
1.701000000000000000e+03 3.596910476684570312e+01 2.182422637939453125e+01 6.255807280540466309e-01 6.137581348419189453e+00 2.028948783874511719e+00 -1.434098929166793823e-01
1.702000000000000000e+03 4.578867721557617188e+01 -2.274734878540039062e+01 2.902150630950927734e+00 8.990881919860839844e+00 3.567909717559814453e+00 -2.659577608108520508e+00
1.703000000000000000e+03 4.380918502807617188e+01 -1.955509757995605469e+01 1.647786378860473633e+00 1.047271251678466797e+01 3.636149644851684570e+00 -2.041133880615234375e+00
1.704000000000000000e+03 3.843122863769531250e+01 1.334000110626220703e+01 1.549375057220458984e+00 8.195233345031738281e+00 2.923382520675659180e+00 -2.727401256561279297e-01
1.705000000000000000e+03 7.664486408233642578e+00 -2.702412605285644531e+01 -1.798925280570983887e+00 6.450182437896728516e+00 1.395377278327941895e+00 2.428484439849853516e+00
1.706000000000000000e+03 5.614281654357910156e+00 -2.533217239379882812e+01 3.523684740066528320e-01 6.302791118621826172e+00 1.996547818183898926e+00 3.205284118652343750e+00
1.707000000000000000e+03 7.082192230224609375e+01 -7.682304382324218750e+00 1.382108181715011597e-01 6.747612476348876953e+00 2.065747022628784180e+00 5.046604871749877930e-01
1.708000000000000000e+03 7.146630859375000000e+01 -6.315425395965576172e+00 1.435022652149200439e-01 7.403964519500732422e+00 2.264240026473999023e+00 3.675425052642822266e-01
1.709000000000000000e+03 6.791153717041015625e+01 -3.834747695922851562e+01 3.606832623481750488e-01 2.241919994354248047e+00 7.807809710502624512e-01 6.392964124679565430e-01
1.710000000000000000e+03 6.682791137695312500e+01 -3.643557739257812500e+01 -1.678888201713562012e-01 1.229704022407531738e+00 3.185445666313171387e-01 7.347027063369750977e-01
1.711000000000000000e+03 6.958935546875000000e+01 -1.063114356994628906e+01 2.989313304424285889e-01 5.284886837005615234e+00 1.675145387649536133e+00 5.192434191703796387e-01
1.712000000000000000e+03 2.442690086364746094e+01 -1.121826744079589844e+01 -2.787847757339477539e+00 2.416702657938003540e-01 -7.638532519340515137e-01 -9.322976469993591309e-01
1.713000000000000000e+03 3.918894577026367188e+01 2.123608016967773438e+01 7.246977686882019043e-01 7.088261604309082031e+00 2.343887805938720703e+00 4.870963394641876221e-01
1.714000000000000000e+03 3.865814590454101562e+01 1.809207534790039062e+01 9.993848204612731934e-01 7.723165988922119141e+00 2.616765260696411133e+00 2.933210134506225586e-01
1.715000000000000000e+03 5.813916015625000000e+01 -2.283679771423339844e+01 1.241493344306945801e+00 1.429810762405395508e+00 8.013912439346313477e-01 1.135805010795593262e+00
1.716000000000000000e+03 5.516025543212890625e+01 -2.305640029907226562e+01 1.215234041213989258e+00 2.611379623413085938e+00 1.147984147071838379e+00 9.015937149524688721e-02
1.717000000000000000e+03 5.178731918334960938e+01 -1.680505943298339844e+01 -1.346645474433898926e+00 3.351920366287231445e+00 6.015824675559997559e-01 -6.350466609001159668e-01
1.718000000000000000e+03 5.274578857421875000e+01 -1.788438415527343750e+01 -9.118915200233459473e-01 2.341034173965454102e+00 4.287427961826324463e-01 -6.873681545257568359e-01
1.719000000000000000e+03 7.514935302734375000e+01 4.054123687744140625e+01 2.240719832479953766e-02 8.320431709289550781e+00 2.502851724624633789e+00 2.307959944009780884e-01
1.720000000000000000e+03 4.610061264038085938e+01 -7.275501728057861328e+00 -1.849442571401596069e-01 5.701663494110107422e+00 1.655015826225280762e+00 -1.590335845947265625e+00
1.721000000000000000e+03 4.188826751708984375e+01 -1.557566738128662109e+01 -7.787672877311706543e-01 7.979893207550048828e+00 2.160337686538696289e+00 -2.536128282546997070e+00
1.722000000000000000e+03 4.054246902465820312e+01 2.596035766601562500e+01 1.874666213989257812e-01 5.990561008453369141e+00 1.853408336639404297e+00 5.833459496498107910e-01
1.723000000000000000e+03 5.729901790618896484e+00 -2.239653015136718750e+01 1.752545356750488281e+00 6.291905879974365234e+00 2.413335323333740234e+00 2.853345394134521484e+00
1.724000000000000000e+03 6.094558238983154297e+00 -2.105378341674804688e+01 2.282615423202514648e+00 6.668574810028076172e+00 2.685357093811035156e+00 2.386434555053710938e+00
1.725000000000000000e+03 5.917364120483398438e+01 -2.228819274902343750e+01 8.729658126831054688e-01 1.240064024925231934e+00 6.339089274406433105e-01 1.374084949493408203e+00
1.726000000000000000e+03 5.764737319946289062e+01 -2.170679283142089844e+01 7.911527752876281738e-01 1.340201139450073242e+00 6.394062042236328125e-01 1.236167073249816895e+00
1.727000000000000000e+03 6.242276382446289062e+01 -1.678359985351562500e+01 -1.516994237899780273e-01 1.465860605239868164e+00 3.942483663558959961e-01 1.420490741729736328e+00
1.728000000000000000e+03 2.304586982727050781e+01 -1.048628520965576172e+01 -1.734346270561218262e+00 3.006188869476318359e-01 -4.301182031631469727e-01 -9.060416817665100098e-01
1.729000000000000000e+03 7.382788848876953125e+01 2.872767639160156250e+01 -1.171293854713439941e-01 7.643887519836425781e+00 2.258027315139770508e+00 7.167509794235229492e-01
1.730000000000000000e+03 7.196158599853515625e+01 2.769257354736328125e+01 9.204137325286865234e-02 7.138221263885498047e+00 2.169078826904296875e+00 4.207181930541992188e-01
1.731000000000000000e+03 2.515794372558593750e+01 -1.216963195800781250e+01 -3.711058616638183594e+00 3.449296355247497559e-01 -1.009838700294494629e+00 -5.621994733810424805e-01
1.732000000000000000e+03 2.056075477600097656e+01 -8.234117507934570312e+00 2.224681615829467773e+00 3.120359420776367188e+00 1.603512287139892578e+00 3.228503167629241943e-01
1.733000000000000000e+03 1.288956546783447266e+01 -3.772114562988281250e+01 -5.746680498123168945e-01 5.251263976097106934e-01 -1.486249174922704697e-02 2.409688830375671387e-01
1.734000000000000000e+03 1.239214134216308594e+01 -3.424912261962890625e+01 -1.437588810920715332e+00 3.052536547183990479e-01 -3.397005498409271240e-01 3.303411006927490234e-01
1.735000000000000000e+03 3.846641540527343750e+01 1.175298118591308594e+01 1.776419520378112793e+00 8.125657081604003906e+00 2.970622777938842773e+00 -3.901505172252655029e-01
1.736000000000000000e+03 3.454333114624023438e+01 -3.500532913208007812e+01 -2.264018058776855469e+00 -3.353406488895416260e-01 -7.798076272010803223e-01 -2.903540432453155518e-01
1.737000000000000000e+03 1.885668563842773438e+01 -7.777306079864501953e+00 2.650094270706176758e+00 5.697504997253417969e+00 2.504279851913452148e+00 2.491197824478149414e+00
1.738000000000000000e+03 3.713452911376953125e+01 1.822745513916015625e+01 1.052338719367980957e+00 6.987866401672363281e+00 2.412061691284179688e+00 1.809745654463768005e-02
1.739000000000000000e+03 6.789334106445312500e+01 -1.310857009887695312e+01 5.259079933166503906e-01 3.727178812026977539e+00 1.275925993919372559e+00 5.618047714233398438e-01
1.740000000000000000e+03 4.694292449951171875e+01 -2.350103187561035156e+01 2.557562351226806641e+00 7.572595596313476562e+00 3.039047479629516602e+00 -2.301283359527587891e+00
1.741000000000000000e+03 7.393607330322265625e+01 -2.701906204223632812e+01 1.344516515731811523e+00 8.950140953063964844e+00 3.088397264480590820e+00 2.118923664093017578e-01
1.742000000000000000e+03 7.412380981445312500e+01 -2.875002861022949219e+01 9.663796424865722656e-01 8.502120971679687500e+00 2.840550184249877930e+00 -2.091074883937835693e-01
1.743000000000000000e+03 6.397932052612304688e+01 -1.622944831848144531e+01 2.391014099121093750e-01 1.686867117881774902e+00 5.777905583381652832e-01 1.220996975898742676e+00
1.744000000000000000e+03 7.241127014160156250e+01 -3.318297958374023438e+01 -5.429884791374206543e-01 6.452706813812255859e+00 1.772915482521057129e+00 3.537038564682006836e-01
1.745000000000000000e+03 7.486264801025390625e+01 -3.245325469970703125e+01 -3.409896492958068848e-01 7.554465293884277344e+00 2.164042711257934570e+00 -4.962224066257476807e-01
1.746000000000000000e+03 5.333751678466796875e+01 -2.278563499450683594e+01 1.230076551437377930e+00 3.319981575012207031e+00 1.365017414093017578e+00 -7.929959893226623535e-01
1.747000000000000000e+03 6.017313003540039062e+01 -2.051679039001464844e+01 8.255666121840476990e-03 1.108764410018920898e+00 3.351060152053833008e-01 1.671022534370422363e+00
1.748000000000000000e+03 7.093600463867187500e+01 -3.529802322387695312e+01 -6.340401768684387207e-01 4.974511146545410156e+00 1.302141189575195312e+00 7.343645691871643066e-01
1.749000000000000000e+03 1.819836044311523438e+01 -7.897688388824462891e+00 2.300905942916870117e+00 5.950704097747802734e+00 2.475482940673828125e+00 3.837238311767578125e+00
1.750000000000000000e+03 3.225492858886718750e+01 -1.275495433807373047e+01 -1.106255173683166504e+00 1.601117014884948730e+00 1.484585702419281006e-01 -1.448166370391845703e+00
1.751000000000000000e+03 7.437089538574218750e+01 2.757223510742187500e+01 5.419066175818443298e-02 7.968748092651367188e+00 2.406881570816040039e+00 7.668895721435546875e-01
1.752000000000000000e+03 6.807604980468750000e+01 3.870563125610351562e+01 -7.156184292398393154e-04 2.568694353103637695e+00 7.703936100006103516e-01 -2.377626895904541016e-01
1.753000000000000000e+03 7.058432102203369141e+00 -1.500077152252197266e+01 9.855406880378723145e-01 5.320125102996826172e+00 1.891699671745300293e+00 7.804499268531799316e-01
1.754000000000000000e+03 1.287044525146484375e+01 -3.555891418457031250e+01 -1.080955386161804199e+00 1.986587494611740112e-01 -2.646889984607696533e-01 2.747180163860321045e-01
1.755000000000000000e+03 4.767015457153320312e+01 -1.636681938171386719e+01 -7.013888955116271973e-01 6.783485412597656250e+00 1.824628949165344238e+00 -7.073097825050354004e-01
1.756000000000000000e+03 5.082990264892578125e+01 -1.766441345214843750e+01 -7.132441401481628418e-01 4.275201320648193359e+00 1.068587183952331543e+00 -7.316946387290954590e-01
1.757000000000000000e+03 2.405838012695312500e+01 -1.024065876007080078e+01 -1.232259273529052734e+00 4.243485033512115479e-01 -2.423732280731201172e-01 -1.136880636215209961e+00
1.758000000000000000e+03 6.300082683563232422e+00 -2.925207519531250000e+01 -1.954307675361633301e+00 5.262357234954833984e+00 9.924148321151733398e-01 2.149927854537963867e+00
1.759000000000000000e+03 6.717112064361572266e+00 -3.249657440185546875e+01 -1.559213280677795410e+00 4.276233673095703125e+00 8.151061534881591797e-01 8.331193327903747559e-01
1.760000000000000000e+03 5.484709739685058594e+00 -1.749305343627929688e+01 1.401737332344055176e+00 4.269907474517822266e+00 1.701493501663208008e+00 7.245084643363952637e-01
1.761000000000000000e+03 4.163275241851806641e+00 -1.756911468505859375e+01 8.724915385246276855e-01 1.996784329414367676e+00 8.607827425003051758e-01 2.964231073856353760e-01
1.762000000000000000e+03 8.013907432556152344e+00 -3.153480720520019531e+01 -2.085548400878906250e+00 3.682288169860839844e+00 4.790219068527221680e-01 7.752529978752136230e-01
1.763000000000000000e+03 9.049464225769042969e+00 -3.448140335083007812e+01 -1.297837018966674805e+00 2.582759141921997070e+00 3.854766190052032471e-01 2.470600903034210205e-01
1.764000000000000000e+03 6.437559509277343750e+01 -1.959846878051757812e+01 -5.950278639793395996e-01 1.109776735305786133e+00 1.544246822595596313e-01 1.324418783187866211e+00
1.765000000000000000e+03 6.464488983154296875e+01 -1.729698371887207031e+01 3.298231214284896851e-02 1.528869509696960449e+00 4.685555696487426758e-01 1.142594099044799805e+00
1.766000000000000000e+03 5.311327362060546875e+01 4.112492752075195312e+01 -4.143885076045989990e-01 1.010383009910583496e+00 1.787983477115631104e-01 1.220376715064048767e-01
1.767000000000000000e+03 4.785194015502929688e+01 -2.238746833801269531e+01 2.172783613204956055e+00 6.948837280273437500e+00 2.736486434936523438e+00 -2.038070201873779297e+00
1.768000000000000000e+03 5.299238204956054688e+01 -2.753687667846679688e+01 1.628014206886291504e+00 6.049817562103271484e+00 2.303349494934082031e+00 -1.668175935745239258e+00
1.769000000000000000e+03 4.795388412475585938e+01 -1.480616474151611328e+01 -1.071486473083496094e+00 6.328614234924316406e+00 1.577138304710388184e+00 -4.802155196666717529e-01
1.770000000000000000e+03 7.494904327392578125e+01 3.366493606567382812e+01 -3.173573613166809082e-01 8.095456123352050781e+00 2.333429574966430664e+00 4.018140733242034912e-01
1.771000000000000000e+03 6.787544250488281250e+01 -4.097054290771484375e+01 7.024596929550170898e-01 2.218933820724487305e+00 8.764180541038513184e-01 2.376880943775177002e-01
1.772000000000000000e+03 6.073935317993164062e+01 -3.825129699707031250e+01 3.439558744430541992e-01 1.669077515602111816e+00 6.039100289344787598e-01 -1.050871014595031738e+00
1.773000000000000000e+03 6.178617477416992188e+01 -4.102164840698242188e+01 7.289107441902160645e-01 1.406749486923217773e+00 6.406980752944946289e-01 -1.894488334655761719e-01
1.774000000000000000e+03 6.036525344848632812e+01 -1.929861831665039062e+01 -3.567793369293212891e-01 1.223815798759460449e+00 2.601109445095062256e-01 1.736880898475646973e+00
1.775000000000000000e+03 4.622164916992187500e+01 -2.791809463500976562e+01 1.514116287231445312e+00 8.254276275634765625e+00 2.930517911911010742e+00 -2.507921695709228516e+00
1.776000000000000000e+03 3.888476562500000000e+01 1.966646194458007812e+01 8.667420148849487305e-01 7.378665924072265625e+00 2.473622322082519531e+00 4.229069650173187256e-01
1.777000000000000000e+03 4.897544479370117188e+01 -1.787935829162597656e+01 -2.182086408138275146e-01 5.926560878753662109e+00 1.712505578994750977e+00 -7.523790597915649414e-01
1.778000000000000000e+03 6.150288772583007812e+01 -2.087536811828613281e+01 -3.070524334907531738e-02 1.170598745346069336e+00 3.419680595397949219e-01 1.550848484039306641e+00
1.779000000000000000e+03 4.189903640747070312e+01 -3.485920715332031250e+01 -1.968981504440307617e+00 4.643147468566894531e+00 8.022497296333312988e-01 7.513695955276489258e-01
1.780000000000000000e+03 1.861699676513671875e+01 -2.370884418487548828e+00 -1.266189664602279663e-01 9.532408714294433594e+00 2.821737051010131836e+00 1.978189468383789062e+00
1.781000000000000000e+03 1.774975013732910156e+01 -1.420804381370544434e+00 -6.551444530487060547e-01 5.510880470275878906e+00 1.456720829010009766e+00 -3.241011798381805420e-01
1.782000000000000000e+03 1.538928985595703125e+01 -5.335381507873535156e+00 7.041305541992187500e+00 -2.402601093053817749e-01 2.040313720703125000e+00 3.407340764999389648e+00
1.783000000000000000e+03 1.385631752014160156e+01 -5.551699161529541016e+00 4.248004436492919922e+00 -1.308487206697463989e-01 1.235146641731262207e+00 2.593681335449218750e+00
1.784000000000000000e+03 1.323202705383300781e+01 -4.798282623291015625e+00 2.804582834243774414e+00 -2.166188508272171021e-01 7.763891816139221191e-01 1.351246595382690430e+00
1.785000000000000000e+03 1.568642425537109375e+01 -5.506840229034423828e+00 8.102595329284667969e+00 1.748957037925720215e-01 2.483247518539428711e+00 4.311665058135986328e+00
1.786000000000000000e+03 1.400599575042724609e+01 -4.876156806945800781e+00 3.788984298706054688e+00 -4.150616824626922607e-01 1.012176752090454102e+00 1.598254442214965820e+00
1.787000000000000000e+03 1.810820770263671875e+01 -1.637375473976135254e+00 -5.952878594398498535e-01 6.817293167114257812e+00 1.866601586341857910e+00 2.764587700366973877e-01
1.788000000000000000e+03 1.707324028015136719e+01 -1.408367156982421875e+00 -5.473007559776306152e-01 3.605681419372558594e+00 9.175142049789428711e-01 -8.434882760047912598e-01
1.789000000000000000e+03 1.649088096618652344e+01 -6.495352268218994141e+00 6.721412658691406250e+00 4.631143569946289062e+00 3.405766963958740234e+00 7.226630210876464844e+00
1.790000000000000000e+03 1.652445602416992188e+01 -1.041468334197998047e+01 -1.099297165870666504e+00 2.697607994079589844e+00 4.794932305812835693e-01 5.371918201446533203e+00
1.791000000000000000e+03 1.553207015991210938e+01 -8.081780433654785156e+00 2.711196184158325195e+00 2.919804573059082031e+00 1.689300179481506348e+00 6.402336597442626953e+00
1.792000000000000000e+03 1.156498527526855469e+01 -5.249907970428466797e+00 1.659069299697875977e+00 3.794772028923034668e-01 6.115639805793762207e-01 1.353839874267578125e+00
1.793000000000000000e+03 1.086386203765869141e+01 -4.239926815032958984e+00 7.940150499343872070e-01 3.055908977985382080e-01 3.298817873001098633e-01 6.545544862747192383e-01
1.794000000000000000e+03 8.820922851562500000e+00 -4.368078708648681641e+00 2.378620058298110962e-01 5.224803686141967773e-01 2.281027138233184814e-01 3.060535788536071777e-01
1.795000000000000000e+03 1.065484905242919922e+01 -4.728986740112304688e+00 9.355818033218383789e-01 4.319642782211303711e-01 4.102638363838195801e-01 8.136521577835083008e-01
1.796000000000000000e+03 1.026889801025390625e+01 -4.075103759765625000e+00 4.962312579154968262e-01 3.816680610179901123e-01 2.633697986602783203e-01 4.902550578117370605e-01
1.797000000000000000e+03 5.850583553314208984e+00 -5.355154037475585938e+00 -4.453920945525169373e-02 4.705451130867004395e-01 1.278017759323120117e-01 -2.605851590633392334e-01
1.798000000000000000e+03 7.676772117614746094e+00 -4.648525238037109375e+00 5.737468972802162170e-02 5.647569298744201660e-01 1.866394877433776855e-01 8.539585024118423462e-02
1.799000000000000000e+03 3.167948961257934570e+00 -4.918227195739746094e+00 -5.027607828378677368e-02 -1.620904505252838135e-01 -6.370995938777923584e-02 -4.558897018432617188e-01
1.800000000000000000e+03 3.726259231567382812e+00 -7.367348670959472656e+00 -6.400784850120544434e-02 1.221029683947563171e-01 1.742853410542011261e-02 -4.958164691925048828e-01
1.801000000000000000e+03 6.810998916625976562e+00 -4.143302917480468750e+00 -1.022262051701545715e-01 3.970427811145782471e-01 8.844497054815292358e-02 -1.401644498109817505e-01
1.802000000000000000e+03 5.260747909545898438e+00 -5.672541618347167969e+00 -7.038516551256179810e-02 3.939808011054992676e-01 9.707869589328765869e-02 -3.159672021865844727e-01
1.803000000000000000e+03 1.203479194641113281e+01 -5.510159969329833984e+00 2.053915977478027344e+00 3.428721725940704346e-01 7.190364599227905273e-01 1.729564547538757324e+00
1.804000000000000000e+03 1.682527160644531250e+01 -4.680666625499725342e-01 -4.350026547908782959e-01 2.859378576278686523e+00 7.273127436637878418e-01 -6.419981718063354492e-01
1.805000000000000000e+03 6.494868278503417969e+00 4.306077957153320312e+00 -1.115677431225776672e-01 -1.712223291397094727e-01 -8.483701944351196289e-02 4.444413185119628906e-01
1.806000000000000000e+03 5.888557910919189453e+00 5.126537799835205078e+00 -2.870981954038143158e-02 -1.956953704357147217e-01 -6.732155382633209229e-02 4.195152521133422852e-01
1.807000000000000000e+03 8.191452980041503906e+00 5.350448608398437500e+00 8.333656191825866699e-02 -1.459937095642089844e-01 -1.879714429378509521e-02 3.893358111381530762e-01
1.808000000000000000e+03 2.929750204086303711e+00 5.989960670471191406e+00 4.133145790547132492e-03 -3.306099474430084229e-01 -9.794304519891738892e-02 2.836518287658691406e-01
1.809000000000000000e+03 4.992240905761718750e+00 4.563978195190429688e+00 -7.824867218732833862e-02 -1.921553313732147217e-01 -8.112119883298873901e-02 3.896910250186920166e-01
1.810000000000000000e+03 3.627101421356201172e+00 6.933088302612304688e+00 3.647973388433456421e-02 -3.490957617759704590e-01 -9.378480911254882812e-02 3.028780519962310791e-01
1.811000000000000000e+03 2.179791641235351562e+01 -3.661285877227783203e+00 6.075874805450439453e+00 3.457936763763427734e+00 2.860143423080444336e+00 3.208293676376342773e+00
1.812000000000000000e+03 2.085590362548828125e+01 -1.018658733367919922e+01 -1.581063508987426758e+00 1.003630399703979492e+00 -1.732299178838729858e-01 4.008711278438568115e-01
1.813000000000000000e+03 7.178056716918945312e+00 4.319221973419189453e+00 -8.959171921014785767e-02 -1.789069920778274536e-01 -8.054961264133453369e-02 4.561205506324768066e-01
1.814000000000000000e+03 1.562121868133544922e+01 2.457879543304443359e+00 -4.513599351048469543e-02 1.632077336311340332e+00 4.760823845863342285e-01 -4.209154248237609863e-01
1.815000000000000000e+03 1.598704242706298828e+01 1.452710509300231934e+00 -1.833141148090362549e-01 1.877185821533203125e+00 5.081615447998046875e-01 -4.778006672859191895e-01
1.816000000000000000e+03 2.269977378845214844e+01 -3.593684911727905273e+00 5.351070880889892578e+00 2.706528186798095703e+00 2.417279720306396484e+00 2.601027488708496094e+00
1.817000000000000000e+03 1.770545005798339844e+01 -7.644938945770263672e+00 2.714291095733642578e+00 6.664317607879638672e+00 2.813582658767700195e+00 5.211473941802978516e+00
1.818000000000000000e+03 1.659398460388183594e+01 -7.280239582061767578e+00 4.320096492767333984e+00 4.598234176635742188e+00 2.675499200820922852e+00 6.595438003540039062e+00
1.819000000000000000e+03 1.975170326232910156e+01 -2.057427883148193359e+00 1.697543740272521973e+00 7.767276763916015625e+00 2.839446067810058594e+00 3.725350856781005859e+00
1.820000000000000000e+03 1.535823726654052734e+01 1.791869163513183594e+00 -1.207099780440330505e-01 1.337357878684997559e+00 3.649943768978118896e-01 -4.049061238765716553e-01
1.821000000000000000e+03 1.460804557800292969e+01 3.834197521209716797e+00 1.556265354156494141e-01 1.116612553596496582e+00 3.816717267036437988e-01 -3.017083704471588135e-01
1.822000000000000000e+03 1.349373722076416016e+01 3.685899019241333008e+00 1.241170689463615417e-01 5.334551334381103516e-01 1.972716599702835083e-01 -1.350421756505966187e-01
1.823000000000000000e+03 9.724067687988281250e+00 -3.883278369903564453e+00 2.592568099498748779e-01 3.922737538814544678e-01 1.954591721296310425e-01 3.576024472713470459e-01
1.824000000000000000e+03 8.253271102905273438e+00 -4.481447219848632812e+00 1.350389719009399414e-01 5.715591311454772949e-01 2.119794338941574097e-01 1.926691830158233643e-01
1.825000000000000000e+03 1.387036895751953125e+01 3.347337961196899414e+00 8.714588731527328491e-02 6.983336210250854492e-01 2.356438487768173218e-01 -1.917954981327056885e-01
1.826000000000000000e+03 1.500414085388183594e+01 2.801869392395019531e+00 1.670285314321517944e-02 1.219296336174011230e+00 3.707997798919677734e-01 -3.549064099788665771e-01
1.827000000000000000e+03 3.537700271606445312e+01 -1.304117202758789062e+01 -6.042696237564086914e-01 2.753368377685546875e+00 6.447296738624572754e-01 -2.418364763259887695e+00
1.828000000000000000e+03 2.781324577331542969e+01 -1.253122329711914062e+01 -2.619698286056518555e+00 8.179729580879211426e-01 -5.405175685882568359e-01 -6.923675537109375000e-01
1.829000000000000000e+03 9.838013648986816406e+00 5.405669689178466797e+00 1.784650981426239014e-01 -2.559572830796241760e-02 4.586081206798553467e-02 2.731160223484039307e-01
1.830000000000000000e+03 1.256104373931884766e+01 -1.172388172149658203e+01 -4.508131146430969238e-01 4.931564331054687500e+00 1.344225406646728516e+00 4.433000087738037109e+00
1.831000000000000000e+03 1.036711215972900391e+01 -1.228879165649414062e+01 -7.034061849117279053e-02 5.589382648468017578e+00 1.655712723731994629e+00 2.668792724609375000e+00
1.832000000000000000e+03 1.242955207824707031e+01 4.754997730255126953e+00 2.276021242141723633e-01 3.592562377452850342e-01 1.760575026273727417e-01 -7.041847333312034607e-03
1.833000000000000000e+03 4.486035919189453125e+01 -2.108844184875488281e+01 3.209536552429199219e+00 1.003477859497070312e+01 3.973294496536254883e+00 -2.020362377166748047e+00
1.834000000000000000e+03 7.584182739257812500e+01 -2.188470077514648438e+01 -3.182087242603302002e-01 7.831743717193603516e+00 2.254060506820678711e+00 7.514332532882690430e-01
1.835000000000000000e+03 3.871810913085937500e+01 -1.494825267791748047e+01 -4.253924489021301270e-01 5.116152763366699219e+00 1.407228112220764160e+00 -3.305679082870483398e+00
1.836000000000000000e+03 7.354236602783203125e+01 6.510350704193115234e+00 3.382119238376617432e-01 9.308546066284179688e+00 2.894027471542358398e+00 6.074150204658508301e-01
1.837000000000000000e+03 4.427201080322265625e+01 -2.365852355957031250e+00 3.521177470684051514e-01 5.677350997924804688e+00 1.808840632438659668e+00 -2.147620201110839844e+00
1.838000000000000000e+03 4.263475799560546875e+01 -4.421527385711669922e+00 -1.877067051827907562e-02 5.661474227905273438e+00 1.692811131477355957e+00 -2.031890630722045898e+00
1.839000000000000000e+03 3.929136657714843750e+01 4.101908206939697266e+00 1.124274134635925293e+00 6.802258014678955078e+00 2.377959489822387695e+00 -1.016854405403137207e+00
1.840000000000000000e+03 3.854706954956054688e+01 8.504875183105468750e+00 1.807815194129943848e+00 7.569642066955566406e+00 2.813237190246582031e+00 -4.920389950275421143e-01
1.841000000000000000e+03 1.149256992340087891e+01 -1.206854629516601562e+01 -3.247535228729248047e-01 5.465604782104492188e+00 1.542255401611328125e+00 3.605505466461181641e+00
1.842000000000000000e+03 5.364714050292968750e+01 -1.897713088989257812e+01 -3.364303410053253174e-01 1.767867088317871094e+00 4.294310212135314941e-01 -5.657333731651306152e-01
1.843000000000000000e+03 5.434993362426757812e+01 -2.196855354309082031e+01 1.073956608772277832e+00 2.607470512390136719e+00 1.104428172111511230e+00 -4.135958254337310791e-01
1.844000000000000000e+03 1.030331707000732422e+01 4.598029136657714844e+00 1.035403162240982056e-01 -7.173813879489898682e-02 9.540653787553310394e-03 2.805451750755310059e-01
1.845000000000000000e+03 2.880426025390625000e+01 -1.300316810607910156e+01 -2.442697763442993164e+00 8.993800878524780273e-01 -4.629952609539031982e-01 -6.250694394111633301e-01
1.846000000000000000e+03 2.984387969970703125e+01 -1.337517166137695312e+01 -2.142117977142333984e+00 9.918804168701171875e-01 -3.450712263584136963e-01 -6.654569506645202637e-01
1.847000000000000000e+03 1.784638786315917969e+01 -1.012620925903320312e+01 -1.279608964920043945e+00 2.522172212600708008e+00 3.727690279483795166e-01 4.043720722198486328e+00
1.848000000000000000e+03 3.707485961914062500e+01 1.176252746582031250e+01 1.830382585525512695e+00 7.221458435058593750e+00 2.715552330017089844e+00 -2.783934473991394043e-01
1.849000000000000000e+03 3.704038238525390625e+01 1.334090709686279297e+01 1.649738907814025879e+00 7.307936668395996094e+00 2.687302589416503906e+00 -2.133439183235168457e-01
1.850000000000000000e+03 4.119458007812500000e+01 -3.877195596694946289e+00 9.798344969749450684e-02 5.539826393127441406e+00 1.691342949867248535e+00 -1.982958912849426270e+00
1.851000000000000000e+03 4.074823760986328125e+01 1.773943066596984863e+00 7.344560623168945312e-01 6.393895149230957031e+00 2.138505458831787109e+00 -1.644221901893615723e+00
1.852000000000000000e+03 4.372680664062500000e+01 -1.185610055923461914e+00 4.397634863853454590e-01 5.795028686523437500e+00 1.870437622070312500e+00 -2.166771888732910156e+00
1.853000000000000000e+03 6.476250457763671875e+01 -1.638249397277832031e+01 2.320010513067245483e-01 1.821511864662170410e+00 6.160538792610168457e-01 1.061367392539978027e+00
1.854000000000000000e+03 7.956002712249755859e+00 -1.226364517211914062e+01 1.697093993425369263e-02 4.524814128875732422e+00 1.362535476684570312e+00 9.742891192436218262e-01
1.855000000000000000e+03 9.332799911499023438e+00 -1.358239364624023438e+01 5.619471073150634766e-01 6.230632781982421875e+00 2.037774085998535156e+00 1.916608452796936035e+00
1.856000000000000000e+03 2.195495033264160156e+01 -1.036665630340576172e+01 -1.561647176742553711e+00 5.544849634170532227e-01 -3.021486699581146240e-01 -3.513184487819671631e-01
1.857000000000000000e+03 1.977580642700195312e+01 -8.400711059570312500e+00 1.763127923011779785e+00 3.819395065307617188e+00 1.674756884574890137e+00 1.264177083969116211e+00
1.858000000000000000e+03 1.864409446716308594e+01 -1.064394092559814453e+01 -2.476037025451660156e+00 1.485340356826782227e+00 -2.972089946269989014e-01 2.821803808212280273e+00
1.859000000000000000e+03 1.985466957092285156e+01 -1.008561134338378906e+01 -1.361714124679565430e+00 1.680812478065490723e+00 9.572950005531311035e-02 1.436445236206054688e+00
1.860000000000000000e+03 3.723330020904541016e+00 -3.447695159912109375e+01 -4.736172854900360107e-01 5.506112098693847656e+00 1.509748458862304688e+00 5.743228197097778320e-01
1.861000000000000000e+03 6.872927093505859375e+01 -1.195011425018310547e+01 4.535667598247528076e-01 4.451417922973632812e+00 1.471495389938354492e+00 5.230454802513122559e-01
1.862000000000000000e+03 6.566254425048828125e+01 -1.535132694244384766e+01 5.344282388687133789e-01 2.266857862472534180e+00 8.403858542442321777e-01 8.009434342384338379e-01
1.863000000000000000e+03 4.533894348144531250e+01 -8.890989303588867188e+00 -5.870898365974426270e-01 6.027380943298339844e+00 1.632087230682373047e+00 -1.488997936248779297e+00
1.864000000000000000e+03 4.459052276611328125e+01 -1.047615528106689453e+01 -9.572266340255737305e-01 6.485153198242187500e+00 1.658377885818481445e+00 -1.512757778167724609e+00
1.865000000000000000e+03 7.551279449462890625e+01 3.114010238647460938e+01 -2.018755972385406494e-01 8.435656547546386719e+00 2.470134258270263672e+00 6.081993579864501953e-01
1.866000000000000000e+03 4.453379058837890625e+01 -6.419554233551025391e+00 -2.117541134357452393e-01 5.759618282318115234e+00 1.664359331130981445e+00 -1.843685984611511230e+00
1.867000000000000000e+03 4.494236373901367188e+01 -7.655976772308349609e+00 -4.177574515342712402e-01 5.868812561035156250e+00 1.635316610336303711e+00 -1.696645617485046387e+00
1.868000000000000000e+03 4.206441116333007812e+01 -5.548003315925598145e-01 4.678996801376342773e-01 5.955676555633544922e+00 1.927072882652282715e+00 -1.983003497123718262e+00
1.869000000000000000e+03 7.578037261962890625e+01 2.203698921203613281e+01 1.159661486744880676e-01 8.240866661071777344e+00 2.507049798965454102e+00 5.347074270248413086e-01
1.870000000000000000e+03 7.345771789550781250e+01 2.039836692810058594e+01 1.124318465590476990e-01 8.444370269775390625e+00 2.567040681838989258e+00 4.413528740406036377e-01
1.871000000000000000e+03 7.562499237060546875e+01 2.768472480773925781e+01 1.289388537406921387e-02 8.332861900329589844e+00 2.503726720809936523e+00 7.558235526084899902e-01
1.872000000000000000e+03 3.947948074340820312e+01 6.118309974670410156e+00 1.397178530693054199e+00 7.443660259246826172e+00 2.652251720428466797e+00 -9.197717905044555664e-01
1.873000000000000000e+03 4.142807769775390625e+01 6.060557365417480469e-01 6.291791200637817383e-01 6.131111145019531250e+00 2.028087139129638672e+00 -1.849454045295715332e+00
1.874000000000000000e+03 7.348680114746093750e+01 9.303076744079589844e+00 -1.527800559997558594e-01 9.166911125183105469e+00 2.704239130020141602e+00 6.498571634292602539e-01
1.875000000000000000e+03 7.587633514404296875e+01 3.970914602279663086e+00 3.229957818984985352e-01 7.531209468841552734e+00 2.356261491775512695e+00 3.318144083023071289e-01
1.876000000000000000e+03 7.574099731445312500e+01 2.344496154785156250e+01 1.487893164157867432e-01 8.242283821105957031e+00 2.517321825027465820e+00 6.025582551956176758e-01
1.877000000000000000e+03 7.517487335205078125e+01 -1.998065185546875000e+01 -7.099662423133850098e-01 7.640268325805664062e+00 2.079090595245361328e+00 3.262571394443511963e-01
1.878000000000000000e+03 7.461026000976562500e+01 -1.459560489654541016e+01 -3.274876773357391357e-01 6.741295814514160156e+00 1.924142360687255859e+00 -4.740318357944488525e-01
1.879000000000000000e+03 7.568309020996093750e+01 -1.299021625518798828e+01 -1.770525276660919189e-01 6.945176601409912109e+00 2.030437231063842773e+00 -4.887748658657073975e-01
1.880000000000000000e+03 7.576961517333984375e+01 1.228172492980957031e+01 -1.491255909204483032e-01 8.025738716125488281e+00 2.362983703613281250e+00 5.322859883308410645e-01
1.881000000000000000e+03 7.590998840332031250e+01 1.791547393798828125e+01 3.852949663996696472e-02 8.090767860412597656e+00 2.438789367675781250e+00 4.397802054882049561e-01
1.882000000000000000e+03 7.472204589843750000e+01 -7.159177303314208984e+00 -2.382577955722808838e-02 7.109224319458007812e+00 2.125619649887084961e+00 -4.916727840900421143e-01
1.883000000000000000e+03 7.571509552001953125e+01 -5.745887279510498047e+00 2.742497622966766357e-02 7.081949234008789062e+00 2.132812261581420898e+00 -5.615259408950805664e-01
1.884000000000000000e+03 7.228687286376953125e+01 1.058708763122558594e+01 -4.676821827888488770e-01 9.574527740478515625e+00 2.732053756713867188e+00 4.126268029212951660e-01
1.885000000000000000e+03 7.346320343017578125e+01 1.067985153198242188e+01 -3.057434856891632080e-01 8.998577117919921875e+00 2.607850074768066406e+00 5.381189584732055664e-01
1.886000000000000000e+03 7.413545989990234375e+01 -2.896702475845813751e-02 5.404190421104431152e-01 8.424165725708007812e+00 2.689375400543212891e+00 -9.846547618508338928e-03
1.887000000000000000e+03 7.560504150390625000e+01 -2.918451786041259766e+00 1.788052916526794434e-01 7.283638000488281250e+00 2.238732814788818359e+00 -4.751428067684173584e-01
1.888000000000000000e+03 7.308803558349609375e+01 -4.858633995056152344e+00 1.283318847417831421e-01 7.776963233947753906e+00 2.371588706970214844e+00 -1.340476125478744507e-01
1.889000000000000000e+03 7.586441802978515625e+01 1.926262474060058594e+01 6.208075955510139465e-02 8.157397270202636719e+00 2.465843439102172852e+00 4.477981925010681152e-01
1.890000000000000000e+03 7.545935821533203125e+01 -9.940973281860351562e+00 -6.892142444849014282e-02 6.884301185607910156e+00 2.044613838195800781e+00 -5.461983680725097656e-01
1.891000000000000000e+03 7.360569000244140625e+01 -1.090099525451660156e+01 -6.826679408550262451e-02 6.560552597045898438e+00 1.947685718536376953e+00 -4.327552914619445801e-01
1.892000000000000000e+03 7.425886535644531250e+01 -1.189068603515625000e+01 -1.277894526720046997e-01 6.596217155456542969e+00 1.940528392791748047e+00 -4.826337695121765137e-01
1.893000000000000000e+03 7.603968811035156250e+01 -1.694570922851562500e+01 -3.741331100463867188e-01 7.332496643066406250e+00 2.087508916854858398e+00 -1.398054212331771851e-01
1.894000000000000000e+03 7.021469879150390625e+01 -1.911023330688476562e+01 -9.558252096176147461e-01 4.132259368896484375e+00 9.529302120208740234e-01 -1.241892099380493164e+00
1.895000000000000000e+03 7.478371429443359375e+01 2.614828109741210938e+00 4.916769266128540039e-01 8.224222183227539062e+00 2.614769697189331055e+00 2.345852702856063843e-01
1.896000000000000000e+03 7.451477813720703125e+01 1.453499555587768555e+00 6.620706319808959961e-01 8.400606155395507812e+00 2.718803167343139648e+00 1.530082821846008301e-01
1.897000000000000000e+03 7.344415283203125000e+01 1.204168415069580078e+01 -3.167274594306945801e-01 8.956228256225585938e+00 2.591850280761718750e+00 4.302043914794921875e-01
1.898000000000000000e+03 7.452774810791015625e+01 1.350526142120361328e+01 -1.586855202913284302e-01 8.438193321228027344e+00 2.483852386474609375e+00 4.598297178745269775e-01
1.899000000000000000e+03 7.328311920166015625e+01 -2.460818529129028320e+00 3.693547248840332031e-01 8.390561103820800781e+00 2.627974748611450195e+00 -4.614972695708274841e-02
1.900000000000000000e+03 7.217440032958984375e+01 -1.669626235961914062e+00 5.322759747505187988e-01 9.266509056091308594e+00 2.939635515213012695e+00 3.403415083885192871e-01
1.901000000000000000e+03 7.484088897705078125e+01 2.950119018554687500e+01 -1.801141202449798584e-01 8.047241210937500000e+00 2.360138177871704102e+00 7.659574747085571289e-01
1.902000000000000000e+03 7.412876892089843750e+01 -9.643422126770019531e+00 -5.734484270215034485e-02 6.762968540191650391e+00 2.011687040328979492e+00 -4.585841298103332520e-01
1.903000000000000000e+03 7.282328033447265625e+01 -9.369433403015136719e+00 -2.258156053721904755e-02 6.634076118469238281e+00 1.983448386192321777e+00 -2.429875135421752930e-01
1.904000000000000000e+03 5.246899795532226562e+01 -3.277128219604492188e+01 1.173967123031616211e+00 6.738506793975830078e+00 2.373742103576660156e+00 -1.294374227523803711e+00
1.905000000000000000e+03 4.690203094482421875e+01 -2.910371780395507812e+01 1.115569710731506348e+00 7.660988330841064453e+00 2.632967472076416016e+00 -2.247701406478881836e+00
1.906000000000000000e+03 7.544216156005859375e+01 -3.094165420532226562e+01 1.506359279155731201e-01 7.731299877166748047e+00 2.364580631256103516e+00 -7.249402999877929688e-01
1.907000000000000000e+03 7.484289550781250000e+01 -2.981000328063964844e+01 4.778729975223541260e-01 7.963774204254150391e+00 2.532494068145751953e+00 -6.112306118011474609e-01
1.908000000000000000e+03 7.453649139404296875e+01 3.499959945678710938e+01 -4.217900633811950684e-01 7.700513839721679688e+00 2.183617115020751953e+00 2.108583450317382812e-01
1.909000000000000000e+03 7.233027648925781250e+01 3.547446441650390625e+01 -4.560793638229370117e-01 6.161485195159912109e+00 1.711621761322021484e+00 8.998259902000427246e-02
1.910000000000000000e+03 7.409550476074218750e+01 -3.318080139160156250e+01 -5.147260427474975586e-01 7.212990283966064453e+00 2.009479284286499023e+00 -2.243843376636505127e-01
1.911000000000000000e+03 7.102510833740234375e+01 -1.991720199584960938e+01 -1.208828449249267578e+00 5.097669124603271484e+00 1.166652202606201172e+00 -1.336154103279113770e+00
1.912000000000000000e+03 7.387186431884765625e+01 -1.994528579711914062e+01 -9.789478182792663574e-01 7.428977012634277344e+00 1.935008764266967773e+00 -2.857016772031784058e-02
1.913000000000000000e+03 3.703840637207031250e+01 1.658284187316894531e+01 1.236550211906433105e+00 7.185998916625976562e+00 2.526764631271362305e+00 -5.661727115511894226e-02
1.914000000000000000e+03 3.701645278930664062e+01 1.495017337799072266e+01 1.449881315231323242e+00 7.262855529785156250e+00 2.613821029663085938e+00 -1.570438593626022339e-01
1.915000000000000000e+03 7.309952545166015625e+01 1.537525081634521484e+01 1.179286371916532516e-02 8.734796524047851562e+00 2.623976945877075195e+00 3.880826830863952637e-01
1.916000000000000000e+03 7.428135681152343750e+01 3.064829063415527344e+01 -3.470796644687652588e-01 7.759458065032958984e+00 2.223713397979736328e+00 6.522179245948791504e-01
1.917000000000000000e+03 7.523131561279296875e+01 3.236846542358398438e+01 -2.858561873435974121e-01 8.263856887817382812e+00 2.393400192260742188e+00 4.870754778385162354e-01
1.918000000000000000e+03 8.096215248107910156e+00 3.027159690856933594e+01 -4.694906249642372131e-02 6.854306459426879883e-01 1.915444880723953247e-01 -2.531548142433166504e-01
1.919000000000000000e+03 5.485306262969970703e+00 -2.876078796386718750e+01 -1.500631093978881836e+00 5.252077102661132812e+00 1.125433921813964844e+00 2.512342453002929688e+00
1.920000000000000000e+03 4.446014881134033203e+00 -2.868870735168457031e+01 -1.034032106399536133e+00 5.116569042205810547e+00 1.224761128425598145e+00 2.459523677825927734e+00
1.921000000000000000e+03 7.475656890869140625e+01 -3.401729202270507812e+01 -5.704271197319030762e-01 7.186061859130859375e+00 1.984690427780151367e+00 -3.064258396625518799e-01
1.922000000000000000e+03 4.969847679138183594e+00 -1.257955455780029297e+01 1.033803969621658325e-01 1.988548278808593750e+00 6.275786161422729492e-01 -3.838944137096405029e-01
1.923000000000000000e+03 4.904495239257812500e+00 -1.009457588195800781e+01 -9.999945014715194702e-02 1.157097816467285156e+00 3.171295225620269775e-01 -3.573049306869506836e-01
1.924000000000000000e+03 4.600817108154296875e+01 -1.119267463684082031e+01 -9.232612848281860352e-01 6.364276409149169922e+00 1.632304549217224121e+00 -1.110912680625915527e+00
1.925000000000000000e+03 3.822971343994140625e+01 7.003952980041503906e+00 1.643025755882263184e+00 7.156609535217285156e+00 2.639890432357788086e+00 -4.934982061386108398e-01
1.926000000000000000e+03 5.950760364532470703e+00 2.301686477661132812e+01 4.110311716794967651e-02 9.773950278759002686e-02 4.165278747677803040e-02 -1.999078094959259033e-01
1.927000000000000000e+03 6.170105934143066406e+00 -1.546692371368408203e+01 9.396762847900390625e-01 4.365871429443359375e+00 1.591664314270019531e+00 4.042482376098632812e-01
1.928000000000000000e+03 4.850564479827880859e+00 -1.478362274169921875e+01 4.313694834709167480e-01 2.324567794799804688e+00 8.267811536788940430e-01 -2.386780232191085815e-01
1.929000000000000000e+03 4.135978221893310547e+00 1.480180549621582031e+01 8.702674508094787598e-02 -4.063196182250976562e-01 -9.578786045312881470e-02 3.740704432129859924e-02
1.930000000000000000e+03 5.437745094299316406e+00 1.749989128112792969e+01 1.013303995132446289e-01 -1.394976377487182617e-01 -1.145017240196466446e-02 -6.574968248605728149e-02
1.931000000000000000e+03 5.330123424530029297e+00 1.613618278503417969e+01 1.139518171548843384e-01 -1.768677383661270142e-01 -1.887477561831474304e-02 -2.087051980197429657e-02
1.932000000000000000e+03 4.409829139709472656e+00 2.035169410705566406e+01 4.467377811670303345e-02 -2.733824551105499268e-01 -6.861259788274765015e-02 -1.160007938742637634e-01
1.933000000000000000e+03 6.371868610382080078e+00 2.450208091735839844e+01 3.273146227002143860e-02 2.367139756679534912e-01 8.083362877368927002e-02 -2.220544517040252686e-01
1.934000000000000000e+03 5.294159889221191406e+00 1.336811923980712891e+01 1.420685052871704102e-01 -2.261291146278381348e-01 -2.521818317472934723e-02 8.233470469713211060e-02
1.935000000000000000e+03 4.037908077239990234e+00 -2.022876548767089844e+01 1.248699069023132324e+00 2.510993480682373047e+00 1.127907752990722656e+00 1.473479747772216797e+00
1.936000000000000000e+03 6.682497024536132812e+00 -1.377271461486816406e+01 4.387401044368743896e-01 4.241956710815429688e+00 1.404209017753601074e+00 3.055887222290039062e-01
1.937000000000000000e+03 5.663322925567626953e+00 2.022749328613281250e+01 7.085649669170379639e-02 -3.742478042840957642e-02 1.002951525151729584e-02 -1.398118138313293457e-01
1.938000000000000000e+03 5.155478477478027344e+00 -3.285243606567382812e+01 -1.041750073432922363e+00 4.785218238830566406e+00 1.123040437698364258e+00 1.002578854560852051e+00
1.939000000000000000e+03 5.884969711303710938e+01 -2.144751358032226562e+01 5.280718803405761719e-01 1.150277972221374512e+00 5.035049319267272949e-01 1.393417477607727051e+00
1.940000000000000000e+03 3.956894874572753906e+00 9.644650459289550781e+00 8.985754102468490601e-02 -3.952155411243438721e-01 -9.160740673542022705e-02 2.381354421377182007e-01
1.941000000000000000e+03 4.941124916076660156e+00 9.796242713928222656e+00 1.223547607660293579e-01 -3.039944767951965332e-01 -5.449191108345985413e-02 2.416000813245773315e-01
1.942000000000000000e+03 5.121447563171386719e+00 8.859784126281738281e+00 1.304663121700286865e-01 -2.868983447551727295e-01 -4.692961275577545166e-02 2.821822166442871094e-01
1.943000000000000000e+03 5.022073745727539062e+00 -8.909456253051757812e+00 -1.126458197832107544e-01 9.570343494415283203e-01 2.533165514469146729e-01 -3.410390913486480713e-01
1.944000000000000000e+03 5.683709144592285156e+00 -1.435138511657714844e+01 4.229964613914489746e-01 3.197315692901611328e+00 1.086093664169311523e+00 -3.092016093432903290e-02
1.945000000000000000e+03 6.157835960388183594e+00 -1.254391765594482422e+01 6.639288365840911865e-02 3.141130447387695312e+00 9.622569680213928223e-01 2.081144787371158600e-02
1.946000000000000000e+03 4.512000560760498047e+00 -7.051521778106689453e+00 -7.406213879585266113e-02 3.794024288654327393e-01 9.160208702087402344e-02 -4.297859966754913330e-01
1.947000000000000000e+03 5.571153640747070312e+00 3.469443130493164062e+01 -4.156591370701789856e-02 3.220788538455963135e-01 8.415388315916061401e-02 -1.670843064785003662e-01
1.948000000000000000e+03 7.232438659667968750e+01 9.209274291992187500e+00 -1.937461048364639282e-01 9.641095161437988281e+00 2.834204912185668945e+00 5.761604905128479004e-01
1.949000000000000000e+03 4.883933544158935547e+00 -6.250671863555908203e+00 -4.488507658243179321e-02 4.636295735836029053e-01 1.256233602762222290e-01 -3.788135051727294922e-01
1.950000000000000000e+03 7.197373962402343750e+01 -4.956176757812500000e+00 1.669372320175170898e-01 7.939223289489746094e+00 2.431848049163818359e+00 3.070172667503356934e-01
1.951000000000000000e+03 3.387299346923828125e+01 -3.791516113281250000e+01 -1.473111748695373535e+00 -8.961784839630126953e-02 -4.688188731670379639e-01 -7.467027008533477783e-02
1.952000000000000000e+03 3.536676025390625000e+01 -3.984629440307617188e+01 -1.203463077545166016e+00 3.662550449371337891e-01 -2.511624097824096680e-01 5.845583602786064148e-02
1.953000000000000000e+03 2.689323806762695312e+01 -1.195284557342529297e+01 -2.568160772323608398e+00 7.427547574043273926e-01 -5.476218461990356445e-01 -9.185543060302734375e-01
1.954000000000000000e+03 3.829290390014648438e+01 -1.359502506256103516e+01 -7.606573700904846191e-01 4.766093730926513672e+00 1.201630949974060059e+00 -2.999206781387329102e+00
1.955000000000000000e+03 4.714027786254882812e+01 -1.345826816558837891e+01 -1.044205427169799805e+00 6.494009017944335938e+00 1.634941101074218750e+00 -6.650132536888122559e-01
1.956000000000000000e+03 4.724735641479492188e+01 -1.229456901550292969e+01 -9.566256403923034668e-01 6.265291213989257812e+00 1.592599630355834961e+00 -7.094461321830749512e-01
1.957000000000000000e+03 7.380522155761718750e+01 -7.537264823913574219e+00 -1.494450215250253677e-02 7.004110336303710938e+00 2.096749782562255859e+00 -3.679874539375305176e-01
1.958000000000000000e+03 1.447170543670654297e+01 -1.076736164093017578e+01 -5.414310097694396973e-01 3.465287923812866211e+00 8.771570920944213867e-01 5.631784439086914062e+00
1.959000000000000000e+03 6.326307678222656250e+01 -1.571534347534179688e+01 3.373830616474151611e-01 1.573276638984680176e+00 5.731979012489318848e-01 1.184003829956054688e+00
1.960000000000000000e+03 6.325224685668945312e+01 -1.831426620483398438e+01 -3.413434922695159912e-01 1.398810863494873047e+00 3.172402083873748779e-01 1.501794219017028809e+00
1.961000000000000000e+03 7.237037658691406250e+01 -6.982983589172363281e+00 4.094457626342773438e-02 7.231990814208984375e+00 2.181880474090576172e+00 1.845963299274444580e-02
1.962000000000000000e+03 5.891870117187500000e+01 -1.917706489562988281e+01 -5.508690476417541504e-01 8.198358416557312012e-01 8.069004118442535400e-02 1.659099936485290527e+00
1.963000000000000000e+03 5.651531219482421875e+01 -2.012937164306640625e+01 3.437236547470092773e-01 8.156335353851318359e-01 3.478071689605712891e-01 9.139609336853027344e-01
1.964000000000000000e+03 7.481434631347656250e+01 -2.713641548156738281e+01 1.112924098968505859e+00 8.151316642761230469e+00 2.779272317886352539e+00 -1.399703919887542725e-01
1.965000000000000000e+03 6.450720977783203125e+01 -1.837810516357421875e+01 -1.975689381361007690e-01 1.270612359046936035e+00 3.219130337238311768e-01 1.367706894874572754e+00
1.966000000000000000e+03 7.270917510986328125e+01 -1.159051036834716797e+01 -6.551720201969146729e-02 6.163835525512695312e+00 1.829495429992675781e+00 -3.064600825309753418e-01
1.967000000000000000e+03 4.520496749877929688e+01 -1.992004013061523438e+01 1.882446885108947754e+00 8.836812973022460938e+00 3.215777873992919922e+00 -1.311891317367553711e+00
1.968000000000000000e+03 6.692995452880859375e+01 -1.806562423706054688e+01 -1.970434561371803284e-02 1.692968845367431641e+00 5.019793510437011719e-01 3.990418612957000732e-01
1.969000000000000000e+03 4.110442733764648438e+01 2.242926788330078125e+01 7.125771045684814453e-01 7.108896732330322266e+00 2.346442222595214844e+00 1.069665312767028809e+00
1.970000000000000000e+03 4.790510177612304688e+01 -2.980874061584472656e+01 1.196358680725097656e+00 7.018281936645507812e+00 2.464392185211181641e+00 -2.281242370605468750e+00
1.971000000000000000e+03 7.453975677490234375e+01 2.334741592407226562e+01 1.925024837255477905e-01 8.201023101806640625e+00 2.518057823181152344e+00 5.657778382301330566e-01
1.972000000000000000e+03 7.156643676757812500e+01 -1.185374259948730469e+01 3.735592588782310486e-02 5.735745429992675781e+00 1.731930375099182129e+00 -1.762399971485137939e-01
1.973000000000000000e+03 4.425521087646484375e+01 -3.322121810913085938e+01 -1.425176620483398438e+00 6.849395751953125000e+00 1.627265691757202148e+00 -4.053087532520294189e-01
1.974000000000000000e+03 7.345233154296875000e+01 1.339019107818603516e+01 -1.771329939365386963e-01 8.764136314392089844e+00 2.576101064682006836e+00 3.105706274509429932e-01
1.975000000000000000e+03 4.693213653564453125e+01 -2.541372871398925781e+01 2.220352411270141602e+00 8.031790733337402344e+00 3.075642824172973633e+00 -2.532951831817626953e+00
1.976000000000000000e+03 4.119024658203125000e+01 2.749928474426269531e+01 -1.493599079549312592e-02 5.629666805267333984e+00 1.684419274330139160e+00 5.939543843269348145e-01
1.977000000000000000e+03 7.125926208496093750e+01 3.873210144042968750e+01 -1.245307624340057373e-01 5.198741912841796875e+00 1.522263288497924805e+00 -1.311872899532318115e-01
1.978000000000000000e+03 7.271553039550781250e+01 -2.301997184753417969e+01 2.639282867312431335e-02 8.426369667053222656e+00 2.535828828811645508e+00 6.629367470741271973e-01
1.979000000000000000e+03 1.882363891601562500e+01 -3.672620773315429688e+01 -1.250122547149658203e+00 -5.971672534942626953e-01 -5.541869401931762695e-01 6.122872829437255859e-01
1.980000000000000000e+03 7.328569793701171875e+01 2.467286491394042969e+01 2.697197496891021729e-01 7.994319438934326172e+00 2.479211807250976562e+00 5.044036507606506348e-01
1.981000000000000000e+03 6.757444381713867188e+00 -1.733834266662597656e+01 1.777056097984313965e+00 6.184968948364257812e+00 2.388607501983642578e+00 1.219816446304321289e+00
1.982000000000000000e+03 6.958792209625244141e+00 -1.608148574829101562e+01 1.264159917831420898e+00 5.692401885986328125e+00 2.086968660354614258e+00 9.338263869285583496e-01
1.983000000000000000e+03 6.871393585205078125e+01 -1.403780174255371094e+01 3.460192084312438965e-01 3.923546075820922852e+00 1.280869603157043457e+00 1.637384593486785889e-01
1.984000000000000000e+03 6.969721984863281250e+01 -1.273309707641601562e+01 2.116643339395523071e-01 4.781038761138916016e+00 1.497810959815979004e+00 1.663944274187088013e-01
1.985000000000000000e+03 5.635401916503906250e+01 -2.226412963867187500e+01 1.040719151496887207e+00 1.799007892608642578e+00 8.519181013107299805e-01 6.167500019073486328e-01
1.986000000000000000e+03 6.426298522949218750e+01 -1.488243961334228516e+01 7.826763987541198730e-01 1.885908842086791992e+00 8.005755543708801270e-01 1.107817173004150391e+00
1.987000000000000000e+03 7.320957946777343750e+01 2.761566925048828125e+01 4.143469780683517456e-02 7.506134510040283203e+00 2.264270782470703125e+00 6.522954106330871582e-01
1.988000000000000000e+03 5.403208160400390625e+01 -2.381547737121582031e+01 1.345052719116210938e+00 3.630304574966430664e+00 1.492607235908508301e+00 -6.302660107612609863e-01
1.989000000000000000e+03 5.357471466064453125e+01 -2.564904594421386719e+01 1.450932860374450684e+00 4.875507354736328125e+00 1.897932052612304688e+00 -1.053997993469238281e+00
1.990000000000000000e+03 7.059190273284912109e+00 -3.023819160461425781e+01 -2.088356733322143555e+00 4.911999225616455078e+00 8.470928072929382324e-01 1.375414371490478516e+00
1.991000000000000000e+03 2.608373069763183594e+01 -1.126545810699462891e+01 -2.012901306152343750e+00 6.431942582130432129e-01 -4.109120965003967285e-01 -1.099965453147888184e+00
1.992000000000000000e+03 7.301924133300781250e+01 2.999375915527343750e+01 -3.099404573440551758e-01 7.163230895996093750e+00 2.055987119674682617e+00 6.390432119369506836e-01
1.993000000000000000e+03 3.901303482055664062e+01 3.134365653991699219e+01 -6.764208674430847168e-01 5.147983551025390625e+00 1.341468811035156250e+00 7.590680569410324097e-02
1.994000000000000000e+03 4.061143493652343750e+01 3.003630256652832031e+01 -4.235866963863372803e-01 5.237279891967773438e+00 1.444108009338378906e+00 3.454099595546722412e-01
1.995000000000000000e+03 4.521802520751953125e+01 3.500709152221679688e+01 -7.867996692657470703e-01 3.825369596481323242e+00 9.115709662437438965e-01 5.361729264259338379e-01
1.996000000000000000e+03 5.225852966308593750e+00 -2.351073837280273438e+01 1.146382093429565430e+00 5.475402355194091797e+00 1.986535310745239258e+00 3.128965854644775391e+00
1.997000000000000000e+03 3.402724456787109375e+01 -1.451541328430175781e+01 -8.397180438041687012e-01 1.418746471405029297e+00 1.737085133790969849e-01 -1.576394081115722656e+00
1.998000000000000000e+03 4.628461837768554688e+01 -3.346198272705078125e+01 -1.005289673805236816e+00 6.959570407867431641e+00 1.786284208297729492e+00 -1.000352025032043457e+00
1.999000000000000000e+03 4.019876480102539062e+01 -3.577280807495117188e+01 -2.006957054138183594e+00 3.053332805633544922e+00 3.139127492904663086e-01 9.700136780738830566e-01
2.000000000000000000e+03 4.402491378784179688e+01 -1.839558029174804688e+01 8.174961209297180176e-01 9.138504028320312500e+00 2.986799955368041992e+00 -1.631131887435913086e+00
2.001000000000000000e+03 4.326084899902343750e+01 -1.515055942535400391e+01 -1.000442504882812500e+00 8.060281753540039062e+00 2.117951631546020508e+00 -1.896403074264526367e+00
2.002000000000000000e+03 3.707843017578125000e+01 1.022080516815185547e+01 1.901118397712707520e+00 7.030704021453857422e+00 2.679546594619750977e+00 -2.429526150226593018e-01
2.003000000000000000e+03 4.665067672729492188e+01 4.074361038208007812e+01 -9.439594745635986328e-01 3.024737358093261719e+00 6.242333650588989258e-01 1.329926997423171997e-01
2.004000000000000000e+03 9.347869873046875000e+00 -3.255288314819335938e+01 -1.918572187423706055e+00 2.615539073944091797e+00 2.090900540351867676e-01 2.373803704977035522e-01
2.005000000000000000e+03 7.253056335449218750e+01 3.315930557250976562e+01 -5.858405828475952148e-01 6.521504402160644531e+00 1.780699133872985840e+00 3.245384991168975830e-01
2.006000000000000000e+03 4.494409179687500000e+01 -1.590850925445556641e+01 -7.690543532371520996e-01 7.883147239685058594e+00 2.134227752685546875e+00 -1.133008956909179688e+00
2.007000000000000000e+03 4.978639984130859375e+01 -1.671555519104003906e+01 -9.108664393424987793e-01 5.227002620697021484e+00 1.294840812683105469e+00 -6.477125883102416992e-01
2.008000000000000000e+03 5.888378524780273438e+01 -2.040348243713378906e+01 2.816207110881805420e-01 1.036383152008056641e+00 3.954011797904968262e-01 1.602548360824584961e+00
2.009000000000000000e+03 7.391685485839843750e+01 3.194260787963867188e+01 -3.777426183223724365e-01 7.626748085021972656e+00 2.174701690673828125e+00 5.365830063819885254e-01
2.010000000000000000e+03 1.794573783874511719e+01 -9.901766777038574219e-01 -5.461108684539794922e-01 5.492753982543945312e+00 1.483992934226989746e+00 -8.102381974458694458e-02
2.011000000000000000e+03 1.542090988159179688e+01 -5.570225715637207031e+00 7.256127357482910156e+00 -4.198085144162178040e-02 2.164243936538696289e+00 3.923283338546752930e+00
2.012000000000000000e+03 1.449879837036132812e+01 -5.831881999969482422e+00 5.277964591979980469e+00 -4.008545540273189545e-03 1.582186818122863770e+00 3.496080636978149414e+00
2.013000000000000000e+03 1.600733184814453125e+01 -8.388371467590332031e+00 2.126996517181396484e+00 3.518077611923217773e+00 1.693522214889526367e+00 6.352106094360351562e+00
2.014000000000000000e+03 1.557442569732666016e+01 -5.769177913665771484e+00 7.434473037719726562e+00 5.407934188842773438e-01 2.392580032348632812e+00 4.715315818786621094e+00
2.015000000000000000e+03 1.019960403442382812e+01 -1.125524330139160156e+01 -2.393109500408172607e-01 4.716262817382812500e+00 1.343085646629333496e+00 2.651786327362060547e+00
2.016000000000000000e+03 2.104732322692871094e+01 -2.251909017562866211e+00 3.313517808914184570e+00 5.747751235961914062e+00 2.718380689620971680e+00 3.954274654388427734e+00
2.017000000000000000e+03 2.046557426452636719e+01 -1.567029714584350586e+00 1.747361302375793457e+00 6.516165733337402344e+00 2.479058027267456055e+00 3.393877983093261719e+00
2.018000000000000000e+03 1.698160362243652344e+01 -7.562447071075439453e+00 3.501297473907470703e+00 5.391862392425537109e+00 2.667948007583618164e+00 6.205679416656494141e+00
2.019000000000000000e+03 1.405869865417480469e+01 -5.951720714569091797e+00 4.491365909576416016e+00 5.579830706119537354e-02 1.364149212837219238e+00 3.270469427108764648e+00
2.020000000000000000e+03 1.358762073516845703e+01 -5.153273105621337891e+00 3.455319643020629883e+00 -2.475452870130538940e-01 9.623322486877441406e-01 1.808776497840881348e+00
2.021000000000000000e+03 1.122003173828125000e+01 -1.111631774902343750e+01 -2.135630249977111816e-01 4.700731277465820312e+00 1.346150517463684082e+00 3.474945068359375000e+00
2.022000000000000000e+03 7.086448192596435547e+00 -4.852394104003906250e+00 1.788735575973987579e-02 5.721493363380432129e-01 1.770109981298446655e-01 -2.672366425395011902e-02
2.023000000000000000e+03 7.439690589904785156e+00 -5.521556377410888672e+00 1.176546812057495117e-01 7.623152136802673340e-01 2.639909684658050537e-01 1.584187000989913940e-01
2.024000000000000000e+03 1.168462848663330078e+01 -6.040791988372802734e+00 1.879433155059814453e+00 6.980004906654357910e-01 7.732301354408264160e-01 1.993481040000915527e+00
2.025000000000000000e+03 6.870757579803466797e+00 -5.811097145080566406e+00 7.201783359050750732e-02 7.845563292503356934e-01 2.569722533226013184e-01 4.034885019063949585e-02
2.026000000000000000e+03 6.474748611450195312e+00 -5.087324142456054688e+00 -3.487224876880645752e-02 5.402849316596984863e-01 1.516238152980804443e-01 -1.324791163206100464e-01
2.027000000000000000e+03 6.495652675628662109e+00 5.045162677764892578e+00 -1.067752297967672348e-02 -1.843807101249694824e-01 -5.851746723055839539e-02 4.313603043556213379e-01
2.028000000000000000e+03 5.799134731292724609e+00 7.412795543670654297e+00 1.267688125371932983e-01 -2.186000198125839233e-01 -2.754935994744300842e-02 3.433992564678192139e-01
2.029000000000000000e+03 2.179214286804199219e+01 -2.942010641098022461e+00 5.098712921142578125e+00 4.026448726654052734e+00 2.737548589706420898e+00 3.688527584075927734e+00
2.030000000000000000e+03 6.824473381042480469e+00 6.131473541259765625e+00 9.677201509475708008e-02 -1.740178167819976807e-01 -2.317374199628829956e-02 3.916586339473724365e-01
2.031000000000000000e+03 7.094091892242431641e+00 5.038798332214355469e+00 -2.525987802073359489e-03 -1.789084821939468384e-01 -5.443033948540687561e-02 4.313173592090606689e-01
2.032000000000000000e+03 6.258094787597656250e+00 5.665330886840820312e+00 3.623978793621063232e-02 -1.967117339372634888e-01 -4.814158380031585693e-02 4.055673480033874512e-01
2.033000000000000000e+03 7.647003650665283203e+00 5.090310573577880859e+00 3.186421096324920654e-02 -1.688251942396163940e-01 -4.108829423785209656e-02 4.249900579452514648e-01
2.034000000000000000e+03 7.812146663665771484e+00 5.961923599243164062e+00 1.252391487360000610e-01 -1.363870948553085327e-01 -3.344386816024780273e-03 3.747284114360809326e-01
2.035000000000000000e+03 1.818489837646484375e+01 -8.701518058776855469e+00 8.291397094726562500e-01 4.562500000000000000e+00 1.617491960525512695e+00 3.882460594177246094e+00
2.036000000000000000e+03 1.954871559143066406e+01 -7.593179702758789062e+00 3.215361356735229492e+00 5.174883842468261719e+00 2.517073392868041992e+00 1.186554312705993652e+00
2.037000000000000000e+03 1.844028663635253906e+01 -9.478865623474121094e+00 -4.397332072257995605e-01 3.169869899749755859e+00 8.190410137176513672e-01 3.469231605529785156e+00
2.038000000000000000e+03 1.623058700561523438e+01 2.113476991653442383e+00 -1.082636117935180664e-01 2.118470191955566406e+00 6.030619740486145020e-01 -4.541079103946685791e-01
2.039000000000000000e+03 9.371903419494628906e+00 -4.244689464569091797e+00 3.224592804908752441e-01 4.679223597049713135e-01 2.371145039796829224e-01 3.660290241241455078e-01
2.040000000000000000e+03 9.573107719421386719e+00 -4.797679424285888672e+00 5.197352170944213867e-01 5.740561485290527344e-01 3.281373977661132812e-01 5.800486803054809570e-01
2.041000000000000000e+03 1.024954605102539062e+01 -5.896377563476562500e+00 9.715594649314880371e-01 8.860781788825988770e-01 5.572912693023681641e-01 1.264101386070251465e+00
2.042000000000000000e+03 2.376042747497558594e+01 -9.482272148132324219e+00 -9.104386717081069946e-02 5.280008912086486816e-01 1.310871094465255737e-01 -1.202422142028808594e+00
2.043000000000000000e+03 2.225793838500976562e+01 -9.502214431762695312e+00 -1.139773894101381302e-02 1.004116773605346680e+00 2.978157103061676025e-01 -5.866692066192626953e-01
2.044000000000000000e+03 8.346786499023437500e+00 6.304212570190429688e+00 1.801978051662445068e-01 -8.810940384864807129e-02 2.762652188539505005e-02 3.296272456645965576e-01
2.045000000000000000e+03 1.398777675628662109e+01 3.917699337005615234e+00 1.628474593162536621e-01 8.412513136863708496e-01 3.012296259403228760e-01 -2.218518257141113281e-01
2.046000000000000000e+03 1.440327835083007812e+01 3.105345249176025391e+00 5.085572227835655212e-02 8.944967985153198242e-01 2.836057543754577637e-01 -2.756760418415069580e-01
2.047000000000000000e+03 1.526730918884277344e+01 3.507117986679077148e+00 9.604049474000930786e-02 1.466946005821228027e+00 4.688959419727325439e-01 -3.638934791088104248e-01
2.048000000000000000e+03 1.122704792022705078e+01 -7.957304954528808594e+00 1.161984562873840332e+00 2.030751943588256836e+00 9.578210115432739258e-01 2.924548387527465820e+00
2.049000000000000000e+03 2.100554084777832031e+01 -7.143877029418945312e+00 4.502890110015869141e+00 3.179975986480712891e+00 2.304859876632690430e+00 -2.187420800328254700e-02
2.050000000000000000e+03 2.225213050842285156e+01 -5.872668266296386719e+00 5.964019298553466797e+00 1.994039773941040039e+00 2.387417793273925781e+00 7.068023085594177246e-01
2.051000000000000000e+03 1.110146903991699219e+01 5.268254756927490234e+00 2.274165451526641846e-01 1.213117688894271851e-01 1.046184971928596497e-01 1.395519971847534180e-01
2.052000000000000000e+03 1.323006820678710938e+01 4.177490711212158203e+00 1.580286026000976562e-01 5.258468985557556152e-01 2.051626592874526978e-01 -1.140162125229835510e-01
2.053000000000000000e+03 3.443182373046875000e+01 -1.360911941528320312e+01 -7.401637434959411621e-01 2.092279672622680664e+00 4.056347608566284180e-01 -1.954433917999267578e+00
2.054000000000000000e+03 1.355467700958251953e+01 -1.128526496887207031e+01 -6.345896720886230469e-01 4.209145069122314453e+00 1.072366595268249512e+00 5.120515346527099609e+00
2.055000000000000000e+03 1.104208374023437500e+01 -7.142123222351074219e+00 1.326544404029846191e+00 1.456060290336608887e+00 8.347814083099365234e-01 2.320203304290771484e+00
2.056000000000000000e+03 6.935213470458984375e+01 -1.628086280822753906e+01 -5.002711433917284012e-03 3.653220415115356445e+00 1.094465255737304688e+00 -3.755092024803161621e-01
2.057000000000000000e+03 4.411943054199218750e+01 -5.200492858886718750e+00 -7.141792029142379761e-02 5.686870098114013672e+00 1.684635639190673828e+00 -1.967843532562255859e+00
2.058000000000000000e+03 4.319625091552734375e+01 -2.840685367584228516e+00 2.168444097042083740e-01 5.707274436950683594e+00 1.777235627174377441e+00 -2.073181390762329102e+00
2.059000000000000000e+03 4.301897048950195312e+01 -5.591082096099853516e+00 -1.589023619890213013e-01 5.707526683807373047e+00 1.664587378501892090e+00 -1.992216944694519043e+00
2.060000000000000000e+03 4.891548919677734375e+01 -2.348094749450683594e+01 2.021100759506225586e+00 6.095372676849365234e+00 2.434942007064819336e+00 -2.192674160003662109e+00
2.061000000000000000e+03 4.949337387084960938e+01 -2.780472946166992188e+01 1.789865612983703613e+00 6.408044815063476562e+00 2.459373235702514648e+00 -2.491332530975341797e+00
2.062000000000000000e+03 3.305040359497070312e+01 -1.422565650939941406e+01 -1.204123497009277344e+00 1.264799714088439941e+00 1.820286549627780914e-02 -1.221488833427429199e+00
2.063000000000000000e+03 3.134255218505859375e+01 -1.136011123657226562e+01 -8.478880524635314941e-01 1.670688867568969727e+00 2.468402385711669922e-01 -1.585250377655029297e+00
2.064000000000000000e+03 4.103075027465820312e+01 -1.137793421745300293e+00 4.647156596183776855e-01 5.793179035186767578e+00 1.877368330955505371e+00 -1.845676302909851074e+00
2.065000000000000000e+03 4.216661834716796875e+01 -3.327817678451538086e+00 1.745998859405517578e-01 5.658506870269775391e+00 1.749932050704956055e+00 -2.026159048080444336e+00
2.066000000000000000e+03 1.590330410003662109e+01 -9.933319091796875000e+00 -2.743681669235229492e-01 3.065898418426513672e+00 8.374590873718261719e-01 5.882873535156250000e+00
2.067000000000000000e+03 6.354797744750976562e+01 -1.717346000671386719e+01 -4.465831071138381958e-02 1.492335915565490723e+00 4.343032836914062500e-01 1.405927777290344238e+00
2.068000000000000000e+03 4.165325164794921875e+01 -4.790123939514160156e+00 -4.794172942638397217e-02 5.584725379943847656e+00 1.661035060882568359e+00 -2.040565252304077148e+00
2.069000000000000000e+03 1.316864395141601562e+01 4.763474941253662109e+00 2.676728963851928711e-01 6.214358210563659668e-01 2.667326033115386963e-01 -1.229574382305145264e-01
2.070000000000000000e+03 1.179272842407226562e+01 6.196995735168457031e+00 3.298966288566589355e-01 3.759311735630035400e-01 2.117483466863632202e-01 2.186199836432933807e-02
2.071000000000000000e+03 4.887254714965820312e+00 -1.131900310516357422e+01 -1.151353344321250916e-01 1.538746476173400879e+00 4.270833730697631836e-01 -3.692992627620697021e-01
2.072000000000000000e+03 4.311225509643554688e+01 -9.648524284362792969e+00 -8.801162838935852051e-01 6.241232395172119141e+00 1.608334779739379883e+00 -1.912025570869445801e+00
2.073000000000000000e+03 4.288030624389648438e+01 -1.383689785003662109e+01 -1.197041988372802734e+00 7.485969543457031250e+00 1.886678338050842285e+00 -1.982530117034912109e+00
2.074000000000000000e+03 3.970238494873046875e+01 1.111873269081115723e+00 7.718712687492370605e-01 6.067962646484375000e+00 2.051950216293334961e+00 -1.416754603385925293e+00
2.075000000000000000e+03 4.039315032958984375e+01 -1.022185012698173523e-02 5.899853706359863281e-01 5.939539909362792969e+00 1.958857536315917969e+00 -1.662898182868957520e+00
2.076000000000000000e+03 3.015455627441406250e+01 -1.230396175384521484e+01 -1.567283511161804199e+00 1.238489747047424316e+00 -9.863812476396560669e-02 -1.128814220428466797e+00
2.077000000000000000e+03 4.877391815185546875e+00 -1.372582912445068359e+01 2.178435325622558594e-01 2.131419420242309570e+00 7.047789096832275391e-01 -3.296750485897064209e-01
2.078000000000000000e+03 1.661110877990722656e+01 -8.637515068054199219e+00 1.456146001815795898e+00 3.706282854080200195e+00 1.548728704452514648e+00 6.069201946258544922e+00
2.079000000000000000e+03 4.644447708129882812e+01 -2.156207275390625000e+01 2.443006753921508789e+00 7.677284717559814453e+00 3.036087512969970703e+00 -1.833941936492919922e+00
2.080000000000000000e+03 2.170524597167968750e+01 -8.844355583190917969e+00 1.096356868743896484e+00 1.510618567466735840e+00 7.820926308631896973e-01 -4.103330075740814209e-01
2.081000000000000000e+03 3.677909088134765625e+01 7.355815410614013672e+00 1.759171843528747559e+00 6.512874126434326172e+00 2.481613636016845703e+00 -1.944785416126251221e-01
2.082000000000000000e+03 3.811611938476562500e+01 3.375671148300170898e+00 1.184774756431579590e+00 6.165927410125732422e+00 2.205210685729980469e+00 -7.751237154006958008e-01
2.083000000000000000e+03 5.551940155029296875e+01 -2.109570884704589844e+01 7.356220483779907227e-01 1.460520148277282715e+00 6.588426232337951660e-01 3.580912947654724121e-01
2.084000000000000000e+03 6.684867858886718750e+01 -1.685312652587890625e+01 1.960328817367553711e-01 2.096126079559326172e+00 6.876477003097534180e-01 4.544895887374877930e-01
2.085000000000000000e+03 6.754673767089843750e+01 -1.504650783538818359e+01 3.867967426776885986e-01 2.999488115310668945e+00 1.015885472297668457e+00 3.599461317062377930e-01
2.086000000000000000e+03 7.595521545410156250e+01 -2.794085121154785156e+01 6.551549434661865234e-01 7.624576091766357422e+00 2.483919382095336914e+00 -3.012754619121551514e-01
2.087000000000000000e+03 1.015557003021240234e+01 2.827028465270996094e+01 -3.013751469552516937e-02 1.010686159133911133e+00 2.941645681858062744e-01 -3.254549205303192139e-01
2.088000000000000000e+03 1.014979267120361328e+01 3.274748229980468750e+01 -1.098309829831123352e-01 1.111360788345336914e+00 3.004589378833770752e-01 -2.667160332202911377e-01
2.089000000000000000e+03 7.454687500000000000e+01 -1.767494964599609375e+01 -7.134315371513366699e-01 7.061791419982910156e+00 1.904507994651794434e+00 -2.149289995431900024e-01
2.090000000000000000e+03 7.488193511962890625e+01 1.658170700073242188e+01 2.076346240937709808e-02 8.252096176147460938e+00 2.481858015060424805e+00 4.571929574012756348e-01
2.091000000000000000e+03 7.463149261474609375e+01 1.077561283111572266e+01 -2.146682143211364746e-01 8.539244651794433594e+00 2.497372865676879883e+00 6.095267534255981445e-01
2.092000000000000000e+03 7.434201812744140625e+01 -4.461640834808349609e+00 1.276848167181015015e-01 7.525080204010009766e+00 2.295829534530639648e+00 -3.864330053329467773e-01
2.093000000000000000e+03 7.362494659423828125e+01 3.704570293426513672e+00 6.192275881767272949e-01 9.339044570922851562e+00 2.987481594085693359e+00 4.790695011615753174e-01
2.094000000000000000e+03 7.379094696044921875e+01 2.297098636627197266e+00 6.673692464828491211e-01 9.050585746765136719e+00 2.915386438369750977e+00 3.360824882984161377e-01
2.095000000000000000e+03 7.426958465576171875e+01 -1.611113667488098145e+00 4.705598950386047363e-01 8.158926963806152344e+00 2.588845968246459961e+00 -2.004788517951965332e-01
2.096000000000000000e+03 7.382407379150390625e+01 -1.677520751953125000e+01 -6.688479781150817871e-01 6.650240421295166016e+00 1.794417619705200195e+00 -4.681209921836853027e-01
2.097000000000000000e+03 7.290267944335937500e+01 -1.738016700744628906e+01 -8.038220405578613281e-01 6.378424167633056641e+00 1.672380685806274414e+00 -6.234292387962341309e-01
2.098000000000000000e+03 4.036969757080078125e+01 4.840482711791992188e+00 1.120286107063293457e+00 7.348259449005126953e+00 2.540563583374023438e+00 -1.313012361526489258e+00
2.099000000000000000e+03 7.453430175781250000e+01 -8.301896095275878906e+00 -4.169547930359840393e-02 6.937543392181396484e+00 2.068754434585571289e+00 -4.741007983684539795e-01
2.100000000000000000e+03 7.282769775390625000e+01 -8.046485900878906250e+00 -1.971007091924548149e-03 6.907950878143310547e+00 2.071794033050537109e+00 -2.063981741666793823e-01
2.101000000000000000e+03 7.584427642822265625e+01 6.707662105560302734e+00 1.629451066255569458e-01 7.735504627227783203e+00 2.369534969329833984e+00 6.181266307830810547e-01
2.102000000000000000e+03 7.441910552978515625e+01 -1.587078189849853516e+01 -4.876139760017395020e-01 6.792943954467773438e+00 1.891598939895629883e+00 -4.187453091144561768e-01
2.103000000000000000e+03 7.085987854003906250e+01 -1.521151161193847656e+01 -1.650800406932830811e-01 4.906006336212158203e+00 1.422277927398681641e+00 -4.914445877075195312e-01
2.104000000000000000e+03 7.582043457031250000e+01 2.063885307312011719e+01 1.014898121356964111e-01 8.190307617187500000e+00 2.487539291381835938e+00 4.969526827335357666e-01
2.105000000000000000e+03 7.049899101257324219e+00 -1.079009437561035156e+01 -1.603005975484848022e-01 3.126631259918212891e+00 8.898991942405700684e-01 4.644584059715270996e-01
2.106000000000000000e+03 8.268097877502441406e+00 2.004113197326660156e+01 1.349264532327651978e-01 4.678125679492950439e-01 1.808217018842697144e-01 -2.048669308423995972e-01
2.107000000000000000e+03 7.080296516418457031e+00 2.274995803833007812e+01 5.141845345497131348e-02 2.832626104354858398e-01 1.004043146967887878e-01 -2.127472609281539917e-01
2.108000000000000000e+03 6.923102569580078125e+01 -1.892752456665039062e+01 -4.945677220821380615e-01 2.502009391784667969e+00 6.022325158119201660e-01 -9.386249780654907227e-01
2.109000000000000000e+03 9.191979408264160156e+00 -1.235656070709228516e+01 -1.023636199533939362e-02 5.252931118011474609e+00 1.572808504104614258e+00 1.834742069244384766e+00
2.110000000000000000e+03 2.491254806518554688e+01 -9.696373939514160156e+00 -3.602276444435119629e-01 4.734209179878234863e-01 3.395798057317733765e-02 -1.346451520919799805e+00
2.111000000000000000e+03 2.544110107421875000e+01 -1.048634338378906250e+01 -1.319017291069030762e+00 5.853669643402099609e-01 -2.200950980186462402e-01 -1.260839343070983887e+00
2.112000000000000000e+03 6.148994922637939453e+00 -9.412767410278320312e+00 -1.128621399402618408e-01 1.846053838729858398e+00 5.199574828147888184e-01 3.588790819048881531e-02
2.113000000000000000e+03 6.438050270080566406e+00 1.604210281372070312e+01 1.512463241815567017e-01 1.130455732345581055e-02 4.876526072621345520e-02 -3.348275274038314819e-02
2.114000000000000000e+03 5.278598785400390625e+00 1.475574779510498047e+01 1.273941248655319214e-01 -2.082635909318923950e-01 -2.426083572208881378e-02 2.765746973454952240e-02
2.115000000000000000e+03 6.360283851623535156e+00 1.473173809051513672e+01 1.609301567077636719e-01 -2.495468966662883759e-02 4.079264029860496521e-02 7.592397741973400116e-03
2.116000000000000000e+03 4.217663764953613281e+00 -2.133127784729003906e+01 1.396008372306823730e+00 3.317208766937255859e+00 1.413965106010437012e+00 2.035423278808593750e+00
2.117000000000000000e+03 6.469476699829101562e+00 1.339309024810791016e+01 1.923685371875762939e-01 -4.729098826646804810e-02 4.352326318621635437e-02 5.899989232420921326e-02
2.118000000000000000e+03 5.297142028808593750e+00 1.196166706085205078e+01 1.485329270362854004e-01 -2.406796067953109741e-01 -2.764400467276573181e-02 1.438563764095306396e-01
2.119000000000000000e+03 6.835476875305175781e+00 1.871228027343750000e+01 1.197161003947257996e-01 1.458552926778793335e-01 7.967141270637512207e-02 -1.331239342689514160e-01
2.120000000000000000e+03 5.560318946838378906e+00 1.885861778259277344e+01 8.567586541175842285e-02 -8.672011643648147583e-02 -3.132752899546176195e-04 -1.085726991295814514e-01
2.121000000000000000e+03 3.552860260009765625e+01 1.834024429321289062e+01 1.060954332351684570e+00 6.382477283477783203e+00 2.233029365539550781e+00 -1.660255491733551025e-01
2.122000000000000000e+03 4.006957244873046875e+01 -1.457546806335449219e+01 -9.179071784019470215e-01 6.400888919830322266e+00 1.644894480705261230e+00 -3.040469169616699219e+00
2.123000000000000000e+03 4.271012878417968750e+01 -8.398556709289550781e+00 -6.630334854125976562e-01 5.943997383117675781e+00 1.584289193153381348e+00 -1.990510344505310059e+00
2.124000000000000000e+03 8.268203735351562500e+00 2.822930145263671875e+01 -2.375442348420619965e-02 6.674276590347290039e-01 1.931019574403762817e-01 -2.712023556232452393e-01
2.125000000000000000e+03 6.644515991210937500e+00 2.619159126281738281e+01 1.587044261395931244e-02 3.285547792911529541e-01 1.033275648951530457e-01 -2.385064214468002319e-01
2.126000000000000000e+03 5.098863124847412109e+00 6.787045478820800781e+00 6.925581395626068115e-02 -2.593308687210083008e-01 -5.702251195907592773e-02 3.605971634387969971e-01
2.127000000000000000e+03 6.135963439941406250e+00 8.171375274658203125e+00 1.645434945821762085e-01 -1.866398602724075317e-01 -6.628907285630702972e-03 3.062392771244049072e-01
2.128000000000000000e+03 4.839089965820312500e+01 -2.002349662780761719e+01 1.221266746520996094e+00 6.297564506530761719e+00 2.255649328231811523e+00 -1.255318284034729004e+00
2.129000000000000000e+03 6.566983222961425781e+00 1.195802116394042969e+01 2.059720754623413086e-01 -6.556982547044754028e-02 4.212067648768424988e-02 1.228528246283531189e-01
2.130000000000000000e+03 6.858573436737060547e+00 -1.185263919830322266e+01 -6.660425662994384766e-02 3.532312631607055664e+00 1.039712548255920410e+00 3.102759122848510742e-01
2.131000000000000000e+03 5.399517536163330078e+00 -7.900000095367431641e+00 -6.055625900626182556e-02 9.321021437644958496e-01 2.614637613296508789e-01 -2.413524538278579712e-01
2.132000000000000000e+03 3.775822067260742188e+01 -1.233776760101318359e+01 -6.381744742393493652e-01 4.437747001647949219e+00 1.139871716499328613e+00 -2.861477613449096680e+00
2.133000000000000000e+03 4.594329833984375000e+01 -1.222084522247314453e+01 -1.056099057197570801e+00 6.685922622680664062e+00 1.688946962356567383e+00 -1.037362098693847656e+00
2.134000000000000000e+03 6.268180847167968750e+00 -6.117824077606201172e+00 -4.127125255763530731e-03 7.672332525253295898e-01 2.289318293333053589e-01 -7.915664464235305786e-02
2.135000000000000000e+03 6.574970245361328125e+01 -1.716986846923828125e+01 1.574412286281585693e-01 1.707817077636718750e+00 5.595775246620178223e-01 8.578968048095703125e-01
2.136000000000000000e+03 4.729147720336914062e+01 -2.725238609313964844e+01 1.760553598403930664e+00 7.411632537841796875e+00 2.751655817031860352e+00 -2.522874593734741211e+00
2.137000000000000000e+03 4.698121643066406250e+01 -3.139032173156738281e+01 8.418069034814834595e-02 7.200148105621337891e+00 2.185298681259155273e+00 -1.731579780578613281e+00
2.138000000000000000e+03 4.997175979614257812e+01 -3.136332511901855469e+01 9.235369563102722168e-01 6.565598964691162109e+00 2.246740818023681641e+00 -1.823312044143676758e+00
2.139000000000000000e+03 4.880264663696289062e+01 -1.568029785156250000e+01 -1.089100241661071777e+00 5.942215919494628906e+00 1.455934643745422363e+00 -3.924823701381683350e-01
2.140000000000000000e+03 4.373207473754882812e+01 -1.642260932922363281e+01 -5.278147459030151367e-01 8.804116249084472656e+00 2.482890605926513672e+00 -1.674237012863159180e+00
2.141000000000000000e+03 7.327382659912109375e+01 3.431365966796875000e+01 -4.687933623790740967e-01 7.025601863861083984e+00 1.967042565345764160e+00 2.266122549772262573e-01
2.142000000000000000e+03 3.565612411499023438e+01 1.177532672882080078e+01 1.809934854507446289e+00 6.499173641204833984e+00 2.492732524871826172e+00 -1.378389149904251099e-01
2.143000000000000000e+03 3.699917602539062500e+01 8.741285324096679688e+00 1.841773509979248047e+00 6.802844524383544922e+00 2.593385457992553711e+00 -2.268143147230148315e-01
2.144000000000000000e+03 7.180038452148437500e+01 -8.047091484069824219e+00 6.305088847875595093e-02 6.812346935272216797e+00 2.062619209289550781e+00 1.604782640933990479e-01
2.145000000000000000e+03 7.150727081298828125e+01 -9.402614593505859375e+00 6.031407415866851807e-02 6.354419708251953125e+00 1.924420237541198730e+00 1.177170649170875549e-01
2.146000000000000000e+03 7.054383850097656250e+01 -1.143209075927734375e+01 1.657967716455459595e-01 5.486459255218505859e+00 1.695676803588867188e+00 1.082632392644882202e-01
2.147000000000000000e+03 5.023521804809570312e+01 -2.913603210449218750e+01 1.820060968399047852e+00 6.354647159576416016e+00 2.452412605285644531e+00 -2.383387327194213867e+00
2.148000000000000000e+03 1.076557826995849609e+01 -6.299624443054199219e+00 1.282658934593200684e+00 1.000537872314453125e+00 6.849590539932250977e-01 1.679710268974304199e+00
2.149000000000000000e+03 9.144844055175781250e+00 -1.125677776336669922e+01 -1.673100292682647705e-01 4.413345336914062500e+00 1.273810505867004395e+00 1.786949038505554199e+00
2.150000000000000000e+03 5.226027679443359375e+01 -2.329110527038574219e+01 1.539185762405395508e+00 4.331707954406738281e+00 1.761268138885498047e+00 -1.402724027633666992e+00
2.151000000000000000e+03 3.732361984252929688e+01 1.987539482116699219e+01 8.683601021766662598e-01 6.820953369140625000e+00 2.306793928146362305e+00 6.952528655529022217e-02
2.152000000000000000e+03 3.567715835571289062e+01 2.008618354797363281e+01 8.398073911666870117e-01 6.244992733001708984e+00 2.125439882278442383e+00 -1.538747251033782959e-01
2.153000000000000000e+03 3.657369613647460938e+01 -1.271279430389404297e+01 -6.104205250740051270e-01 3.614385366439819336e+00 9.011894464492797852e-01 -2.662635326385498047e+00
2.154000000000000000e+03 3.493698883056640625e+01 -1.173458671569824219e+01 -5.107275247573852539e-01 2.871326684951782227e+00 7.081797719001770020e-01 -2.284859895706176758e+00
2.155000000000000000e+03 7.256800079345703125e+01 -1.328637981414794922e+01 -1.386639475822448730e-01 5.941179752349853516e+00 1.740754723548889160e+00 -4.067540764808654785e-01
2.156000000000000000e+03 3.838713836669921875e+01 2.485381889343261719e+01 2.214080542325973511e-01 6.077472209930419922e+00 1.889664053916931152e+00 1.967641264200210571e-01
2.157000000000000000e+03 4.001245880126953125e+01 2.438496208190917969e+01 3.921912312507629395e-01 6.364948749542236328e+00 2.027142047882080078e+00 5.752897262573242188e-01
2.158000000000000000e+03 4.340147399902343750e+01 -6.797729969024658203e+00 -3.598006367683410645e-01 5.799188613891601562e+00 1.631816387176513672e+00 -1.935893893241882324e+00
2.159000000000000000e+03 4.380733871459960938e+01 -8.032391548156738281e+00 -5.535802245140075684e-01 5.969038963317871094e+00 1.624637603759765625e+00 -1.826233148574829102e+00
2.160000000000000000e+03 7.051256561279296875e+01 -1.356229400634765625e+01 7.982101291418075562e-02 5.021654129028320312e+00 1.530442476272583008e+00 -1.313062310218811035e-01
2.161000000000000000e+03 7.152249908447265625e+01 -1.304133987426757812e+01 -1.572053506970405579e-02 5.515510082244873047e+00 1.649936914443969727e+00 -2.622270584106445312e-01
2.162000000000000000e+03 6.987959289550781250e+01 -3.719852447509765625e+01 -1.355237513780593872e-01 3.609673500061035156e+00 1.042244911193847656e+00 7.365919351577758789e-01
2.163000000000000000e+03 5.237452316284179688e+01 -2.206215667724609375e+01 1.228867530822753906e+00 3.775723695755004883e+00 1.501377344131469727e+00 -1.184688091278076172e+00
2.164000000000000000e+03 1.401706600189208984e+01 -3.646659088134765625e+01 -8.888987898826599121e-01 1.114000286906957626e-02 -2.633276283740997314e-01 3.833156228065490723e-01
2.165000000000000000e+03 1.664737701416015625e+01 -4.104429244995117188e+01 -5.399413108825683594e-01 -4.673514664173126221e-01 -3.021878302097320557e-01 1.423278748989105225e-01
2.166000000000000000e+03 3.635900115966796875e+01 2.353564834594726562e+01 3.776060640811920166e-01 5.953051567077636719e+00 1.899197340011596680e+00 -9.671626240015029907e-02
2.167000000000000000e+03 3.956689071655273438e+01 2.280666923522949219e+01 5.571004748344421387e-01 6.720147132873535156e+00 2.183174371719360352e+00 5.630239844322204590e-01
2.168000000000000000e+03 4.066400527954101562e+01 3.326879501342773438e+01 -8.478775620460510254e-01 4.811149597167968750e+00 1.188981652259826660e+00 2.190540134906768799e-01
2.169000000000000000e+03 4.595697784423828125e+01 -3.590665817260742188e+01 -1.749864816665649414e+00 6.348120212554931641e+00 1.379476547241210938e+00 -2.897825241088867188e-01
2.170000000000000000e+03 5.172934722900390625e+01 -1.867380332946777344e+01 -2.978278398513793945e-01 3.499052286148071289e+00 9.603673219680786133e-01 -9.966567754745483398e-01
2.171000000000000000e+03 5.337222671508789062e+01 -2.096700477600097656e+01 7.379680275917053223e-01 2.727506399154663086e+00 1.039642333984375000e+00 -7.050085663795471191e-01
2.172000000000000000e+03 5.454626083374023438e+01 -2.004323768615722656e+01 3.480212092399597168e-01 1.470166921615600586e+00 5.454564690589904785e-01 -2.558638453483581543e-01
2.173000000000000000e+03 1.492722034454345703e+01 -6.212901115417480469e+00 5.742615222930908203e+00 5.559154152870178223e-01 1.889559149742126465e+00 4.639192581176757812e+00
2.174000000000000000e+03 1.702891349792480469e+01 2.059342414140701294e-01 -4.008353948593139648e-01 3.167050600051879883e+00 8.298645615577697754e-01 -5.475152730941772461e-01
2.175000000000000000e+03 1.746118927001953125e+01 -6.827578544616699219e-01 -5.632280111312866211e-01 4.339960098266601562e+00 1.133019566535949707e+00 -5.001052618026733398e-01
2.176000000000000000e+03 1.845139884948730469e+01 -1.941306948661804199e+00 -4.333709478378295898e-01 8.400086402893066406e+00 2.390014648437500000e+00 1.189279317855834961e+00
2.177000000000000000e+03 1.248963928222656250e+01 -5.752248287200927734e+00 2.546263217926025391e+00 3.537431657314300537e-01 8.700019121170043945e-01 2.145302534103393555e+00
2.178000000000000000e+03 1.338971614837646484e+01 -5.873656749725341797e+00 3.505449056625366211e+00 1.624264717102050781e-01 1.100362658500671387e+00 2.763400793075561523e+00
2.179000000000000000e+03 1.530920410156250000e+01 -6.947086811065673828e+00 5.009677410125732422e+00 1.937830448150634766e+00 2.084252357482910156e+00 6.075413227081298828e+00
2.180000000000000000e+03 1.551803684234619141e+01 -6.279539585113525391e+00 6.578379631042480469e+00 1.366738080978393555e+00 2.383535385131835938e+00 5.600783348083496094e+00
2.181000000000000000e+03 1.219410991668701172e+01 -6.277866840362548828e+00 2.229319334030151367e+00 6.853708028793334961e-01 8.744069933891296387e-01 2.448423385620117188e+00
2.182000000000000000e+03 7.977292537689208984e+00 -5.249577999114990234e+00 1.937788724899291992e-01 7.459206581115722656e-01 2.819098532199859619e-01 2.540878653526306152e-01
2.183000000000000000e+03 1.069106197357177734e+01 -8.140139579772949219e+00 8.257706165313720703e-01 2.229713678359985352e+00 9.166452884674072266e-01 2.608465194702148438e+00
2.184000000000000000e+03 1.768712806701660156e+01 -3.038094937801361084e-02 -5.121383070945739746e-01 4.370550155639648438e+00 1.157523512840270996e+00 -2.923120260238647461e-01
2.185000000000000000e+03 1.508011531829833984e+01 -6.594142913818359375e+00 5.356134891510009766e+00 1.114705204963684082e+00 1.941251993179321289e+00 5.323301315307617188e+00
2.186000000000000000e+03 2.280112457275390625e+01 -4.301831722259521484e+00 5.613051891326904297e+00 2.235416173934936523e+00 2.354540586471557617e+00 1.960420966148376465e+00
2.187000000000000000e+03 2.180101013183593750e+01 -2.226233720779418945e+00 3.774531126022338867e+00 4.726700305938720703e+00 2.550369501113891602e+00 3.716434717178344727e+00
2.188000000000000000e+03 1.134588241577148438e+01 -6.588294506072998047e+00 1.556371569633483887e+00 1.080873012542724609e+00 7.911733984947204590e-01 2.200019121170043945e+00
2.189000000000000000e+03 1.071764087677001953e+01 -5.447855472564697266e+00 1.188060522079467773e+00 6.350953578948974609e-01 5.469467639923095703e-01 1.195891737937927246e+00
2.190000000000000000e+03 5.709607124328613281e+00 6.189725399017333984e+00 6.003426760435104370e-02 -2.226145267486572266e-01 -4.877407848834991455e-02 3.900879025459289551e-01
2.191000000000000000e+03 7.303485393524169922e+00 5.594375133514404297e+00 7.075244188308715820e-02 -1.703235656023025513e-01 -2.987133525311946869e-02 3.999931216239929199e-01
2.192000000000000000e+03 8.466482162475585938e+00 -5.004635810852050781e+00 2.433836609125137329e-01 6.862999796867370605e-01 2.789050936698913574e-01 3.459687829017639160e-01
2.193000000000000000e+03 9.831895828247070312e+00 -5.388169288635253906e+00 7.617517709732055664e-01 7.269833683967590332e-01 4.466205239295959473e-01 8.502911925315856934e-01
2.194000000000000000e+03 1.996245765686035156e+01 -1.085265278816223145e+00 7.816077470779418945e-01 6.711927890777587891e+00 2.248060703277587891e+00 2.596574783325195312e+00
2.195000000000000000e+03 1.721927452087402344e+01 8.637337684631347656e-01 -3.389164805412292480e-01 3.328808069229125977e+00 8.969674706459045410e-01 -4.243979156017303467e-01
2.196000000000000000e+03 1.648645591735839844e+01 2.779103755950927734e+00 -4.986445233225822449e-02 2.309948921203613281e+00 6.780253648757934570e-01 -4.040765166282653809e-01
2.197000000000000000e+03 1.529730415344238281e+01 -1.035865688323974609e+01 -4.754743278026580811e-01 3.161151170730590820e+00 8.057030439376831055e-01 5.772399902343750000e+00
2.198000000000000000e+03 1.991253471374511719e+01 -9.228430747985839844e+00 1.124925613403320312e-01 2.600082397460937500e+00 8.137724995613098145e-01 1.301892757415771484e+00
2.199000000000000000e+03 1.728178215026855469e+01 -8.020542144775390625e+00 2.354049205780029297e+00 5.232995033264160156e+00 2.276113271713256836e+00 5.566740989685058594e+00
2.200000000000000000e+03 1.630841064453125000e+01 -7.821073055267333984e+00 3.037158250808715820e+00 3.791413784027099609e+00 2.048571586608886719e+00 6.532528877258300781e+00
2.201000000000000000e+03 7.515744209289550781e+00 -8.223647117614746094e+00 2.893638610839843750e-02 1.842022061347961426e+00 5.612875223159790039e-01 6.053692102432250977e-01
2.202000000000000000e+03 9.345940589904785156e+00 6.114562034606933594e+00 2.193026840686798096e-01 -6.757759954780340195e-03 6.376347690820693970e-02 2.740119993686676025e-01
2.203000000000000000e+03 5.814676761627197266e+00 1.014795494079589844e+01 1.720263063907623291e-01 -1.968025863170623779e-01 -7.432884536683559418e-03 2.208440452814102173e-01
2.204000000000000000e+03 1.707463073730468750e+01 -9.643553733825683594e+00 -3.661996126174926758e-01 3.130737781524658203e+00 8.293614387512207031e-01 5.186446666717529297e+00
2.205000000000000000e+03 1.589016437530517578e+01 3.138655662536621094e+00 3.000845946371555328e-02 1.856574296951293945e+00 5.659748315811157227e-01 -4.037674963474273682e-01
2.206000000000000000e+03 2.338894081115722656e+01 -8.067584037780761719e+00 2.238442182540893555e+00 9.960726499557495117e-01 9.703544378280639648e-01 -8.609845638275146484e-01
2.207000000000000000e+03 2.176731300354003906e+01 -6.878630638122558594e+00 4.930980205535888672e+00 2.238804101943969727e+00 2.150935173034667969e+00 -3.221777454018592834e-02
2.208000000000000000e+03 1.912677574157714844e+01 -9.249796867370605469e+00 1.490033417940139771e-01 3.370704650878906250e+00 1.055912375450134277e+00 2.273147821426391602e+00
2.209000000000000000e+03 2.386713790893554688e+01 -4.945781230926513672e+00 4.790656089782714844e+00 1.499151229858398438e+00 1.886942267417907715e+00 9.582169055938720703e-01
2.210000000000000000e+03 2.434934234619140625e+01 -9.006104469299316406e+00 7.628977894783020020e-01 6.076298356056213379e-01 4.111582934856414795e-01 -1.212123870849609375e+00
2.211000000000000000e+03 2.362319374084472656e+01 -8.801198005676269531e+00 1.276343941688537598e+00 7.279483079910278320e-01 6.012876629829406738e-01 -1.020018577575683594e+00
2.212000000000000000e+03 1.309356212615966797e+01 -1.049780273437500000e+01 -1.343321502208709717e-01 3.942189455032348633e+00 1.142357230186462402e+00 5.017587184906005859e+00
2.213000000000000000e+03 7.566413402557373047e+00 1.371489620208740234e+01 2.300423085689544678e-01 1.322513967752456665e-01 1.086881086230278015e-01 2.080202288925647736e-02
2.214000000000000000e+03 2.082160758972167969e+01 -9.162812232971191406e+00 5.599513053894042969e-01 1.963738799095153809e+00 7.571070194244384766e-01 2.976992130279541016e-01
2.215000000000000000e+03 2.026654624938964844e+01 -7.383942127227783203e+00 4.036525726318359375e+00 4.273557662963867188e+00 2.493025064468383789e+00 4.332262873649597168e-01
2.216000000000000000e+03 8.221952438354492188e+00 1.452668190002441406e+01 2.436595112085342407e-01 2.707877755165100098e-01 1.543341875076293945e-01 -4.046142473816871643e-02
2.217000000000000000e+03 7.823066711425781250e+00 1.709502410888671875e+01 1.886803060770034790e-01 3.014149665832519531e-01 1.470285803079605103e-01 -1.185147166252136230e-01
2.218000000000000000e+03 1.487280750274658203e+01 4.637259483337402344e+00 2.271324396133422852e-01 1.311751246452331543e+00 4.616650938987731934e-01 -3.009226322174072266e-01
2.219000000000000000e+03 1.415667152404785156e+01 5.094978332519531250e+00 2.754815816879272461e-01 1.034822821617126465e+00 3.930912911891937256e-01 -2.351243048906326294e-01
2.220000000000000000e+03 1.556677722930908203e+01 4.233735561370849609e+00 1.633425652980804443e-01 1.673993825912475586e+00 5.512009263038635254e-01 -3.489335179328918457e-01
2.221000000000000000e+03 1.218966674804687500e+01 -1.085883522033691406e+01 -2.581906616687774658e-01 4.426871776580810547e+00 1.250604391098022461e+00 4.285138130187988281e+00
2.222000000000000000e+03 1.307072830200195312e+01 6.831193923950195312e+00 3.844167888164520264e-01 7.858867049217224121e-01 3.510910570621490479e-01 -1.141554340720176697e-01
2.223000000000000000e+03 1.392342090606689453e+01 -1.001669883728027344e+01 2.337176650762557983e-01 3.453887939453125000e+00 1.106281638145446777e+00 5.561141967773437500e+00
2.224000000000000000e+03 6.565422821044921875e+01 -1.623373031616210938e+01 2.729665338993072510e-01 1.910951256752014160e+00 6.551753282546997070e-01 8.110653162002563477e-01
2.225000000000000000e+03 4.458473205566406250e+01 -1.476400661468505859e+01 -1.085817098617553711e+00 7.828986644744873047e+00 2.022950887680053711e+00 -1.266349554061889648e+00
2.226000000000000000e+03 8.083609580993652344e+00 8.968036651611328125e+00 2.698180675506591797e-01 2.063553966581821442e-02 8.713608235120773315e-02 2.088824063539505005e-01
2.227000000000000000e+03 2.251483154296875000e+01 -8.399010658264160156e+00 1.984071373939514160e+00 1.313697338104248047e+00 9.893306493759155273e-01 -7.191333770751953125e-01
2.228000000000000000e+03 4.161873626708984375e+01 -2.256253719329833984e+00 2.882089614868164062e-01 5.718267440795898438e+00 1.801942825317382812e+00 -1.955759644508361816e+00
2.229000000000000000e+03 4.532553672790527344e+00 7.551055431365966797e+00 8.475555479526519775e-02 -3.145063519477844238e-01 -6.892523914575576782e-02 3.224031627178192139e-01
2.230000000000000000e+03 1.259263801574707031e+01 5.778279304504394531e+00 3.239902853965759277e-01 5.295922756195068359e-01 2.560747861862182617e-01 -5.760862305760383606e-02
2.231000000000000000e+03 4.420587158203125000e+01 -9.271658897399902344e+00 -7.926699519157409668e-01 6.190632343292236328e+00 1.619388699531555176e+00 -1.687948942184448242e+00
2.232000000000000000e+03 4.347606658935546875e+01 -1.089522552490234375e+01 -1.075163722038269043e+00 6.567350864410400391e+00 1.647656083106994629e+00 -1.798078060150146484e+00
2.233000000000000000e+03 7.051632690429687500e+01 -1.786110115051269531e+01 -6.061376929283142090e-01 4.369140148162841797e+00 1.128900766372680664e+00 -9.733152985572814941e-01
2.234000000000000000e+03 7.345117187500000000e+01 -1.581438827514648438e+01 -5.091885328292846680e-01 6.318330764770507812e+00 1.742742657661437988e+00 -5.623626708984375000e-01
2.235000000000000000e+03 3.939993667602539062e+01 -6.708051562309265137e-01 6.307102441787719727e-01 5.665866851806640625e+00 1.888973236083984375e+00 -1.528851509094238281e+00
2.236000000000000000e+03 2.832800483703613281e+01 -1.160240936279296875e+01 -1.714586615562438965e+00 9.933032393455505371e-01 -2.163850069046020508e-01 -1.170680999755859375e+00
2.237000000000000000e+03 2.755015563964843750e+01 -1.108093929290771484e+01 -1.435031652450561523e+00 8.894025683403015137e-01 -1.636887192726135254e-01 -1.233574628829956055e+00
2.238000000000000000e+03 9.888675689697265625e+00 6.672937393188476562e+00 2.779980599880218506e-01 9.516700357198715210e-02 1.119495183229446411e-01 1.998979151248931885e-01
2.239000000000000000e+03 1.049236869812011719e+01 6.014080047607421875e+00 2.691744565963745117e-01 1.229545250535011292e-01 1.176386997103691101e-01 1.792378723621368408e-01
2.240000000000000000e+03 2.686791992187500000e+01 -1.045627021789550781e+01 -9.887642264366149902e-01 8.248159289360046387e-01 -4.918448254466056824e-02 -1.304623842239379883e+00
2.241000000000000000e+03 2.627699089050292969e+01 -9.736396789550781250e+00 -3.125236034393310547e-01 7.088669538497924805e-01 1.189030110836029053e-01 -1.377285242080688477e+00
2.242000000000000000e+03 5.916000366210937500e+00 -1.147212982177734375e+01 -9.400270879268646240e-02 2.286408424377441406e+00 6.577216982841491699e-01 -8.889931440353393555e-02
2.243000000000000000e+03 5.009756088256835938e+01 -2.259444427490234375e+01 1.734895110130310059e+00 5.329784870147705078e+00 2.119404077529907227e+00 -1.815269351005554199e+00
2.244000000000000000e+03 3.858290100097656250e+01 5.159357547760009766e+00 1.328932523727416992e+00 6.765098094940185547e+00 2.428209066390991211e+00 -7.280914187431335449e-01
2.245000000000000000e+03 3.871142196655273438e+01 3.923068344593048096e-01 7.930931448936462402e-01 5.713741302490234375e+00 1.952050328254699707e+00 -1.291577696800231934e+00
2.246000000000000000e+03 1.087171268463134766e+01 -9.433995246887207031e+00 3.405108451843261719e-01 3.240218639373779297e+00 1.074218869209289551e+00 3.080690145492553711e+00
2.247000000000000000e+03 5.999432563781738281e+00 -1.041971015930175781e+01 -1.334700286388397217e-01 2.081356525421142578e+00 5.843659639358520508e-01 -7.100011408329010010e-02
2.248000000000000000e+03 6.990299701690673828e+00 2.147132110595703125e+01 8.015847951173782349e-02 2.537637352943420410e-01 1.001766696572303772e-01 -2.001242190599441528e-01
2.249000000000000000e+03 1.078129100799560547e+01 -7.650315761566162109e+00 1.032106518745422363e+00 1.775898337364196777e+00 8.424014449119567871e-01 2.383089065551757812e+00
2.250000000000000000e+03 7.454133605957031250e+01 -1.321492099761962891e+01 -1.890419125556945801e-01 6.637763023376464844e+00 1.934616208076477051e+00 -5.211138725280761719e-01
2.251000000000000000e+03 7.176121520996093750e+01 -1.781773376464843750e+01 -7.992407679557800293e-01 5.565251350402832031e+00 1.429803133010864258e+00 -9.072197675704956055e-01
2.252000000000000000e+03 4.504601669311523438e+01 -1.161236381530761719e+01 -1.093138337135314941e+00 6.675045013427734375e+00 1.674571990966796875e+00 -1.312577009201049805e+00
2.253000000000000000e+03 4.431785964965820312e+01 -1.348185920715332031e+01 -1.225083112716674805e+00 7.354443073272705078e+00 1.838807940483093262e+00 -1.448181033134460449e+00
2.254000000000000000e+03 8.184967041015625000e+00 1.850746917724609375e+01 1.635687798261642456e-01 4.108698666095733643e-01 1.723315864801406860e-01 -1.644723862409591675e-01
2.255000000000000000e+03 6.649119567871093750e+01 -1.576372528076171875e+01 4.193356931209564209e-01 2.363731861114501953e+00 8.349202275276184082e-01 5.980538129806518555e-01
2.256000000000000000e+03 3.794694900512695312e+01 1.433351755142211914e+00 1.001555562019348145e+00 5.743239402770996094e+00 2.023438453674316406e+00 -9.929977655410766602e-01
2.257000000000000000e+03 6.804764556884765625e+01 -1.641666984558105469e+01 1.759590208530426025e-01 2.859238147735595703e+00 9.105591177940368652e-01 2.281811833381652832e-02
2.258000000000000000e+03 3.768070983886718750e+01 5.780339241027832031e+00 1.492202162742614746e+00 6.550084590911865234e+00 2.412686109542846680e+00 -4.777486920356750488e-01
2.259000000000000000e+03 6.409948825836181641e+00 -8.566681861877441406e+00 -8.903814107179641724e-02 1.601109385490417480e+00 4.536213576793670654e-01 1.073378771543502808e-01
2.260000000000000000e+03 6.069599151611328125e+00 9.123290061950683594e+00 1.830059736967086792e-01 -1.770572364330291748e-01 1.784622902050614357e-03 2.658048272132873535e-01
2.261000000000000000e+03 7.075440883636474609e+00 7.262802600860595703e+00 1.716563403606414795e-01 -1.384671777486801147e-01 9.956748224794864655e-03 3.304908871650695801e-01
2.262000000000000000e+03 4.788571548461914062e+01 -2.440920639038085938e+01 2.322034120559692383e+00 7.062567710876464844e+00 2.815380573272705078e+00 -2.565787792205810547e+00
2.263000000000000000e+03 5.097401046752929688e+01 -2.705540084838867188e+01 1.855375647544860840e+00 6.001975059509277344e+00 2.357205152511596680e+00 -2.304307937622070312e+00
2.264000000000000000e+03 4.997124099731445312e+01 -1.859764862060546875e+01 1.846241764724254608e-02 5.024111270904541016e+00 1.512772202491760254e+00 -1.025691509246826172e+00
2.265000000000000000e+03 4.787512969970703125e+01 -1.753309822082519531e+01 -2.646861970424652100e-01 6.639063835144042969e+00 1.912313222885131836e+00 -7.678117156028747559e-01
2.266000000000000000e+03 3.962158966064453125e+01 -1.311268520355224609e+01 -8.768590688705444336e-01 5.757366657257080078e+00 1.464152216911315918e+00 -2.895949602127075195e+00
2.267000000000000000e+03 3.892882537841796875e+01 -1.178864097595214844e+01 -8.465825915336608887e-01 5.237281322479248047e+00 1.317209601402282715e+00 -2.760806798934936523e+00
2.268000000000000000e+03 1.037631893157958984e+01 7.367479801177978516e+00 3.367258906364440918e-01 2.332628220319747925e-01 1.709966063499450684e-01 1.328662186861038208e-01
2.269000000000000000e+03 1.249452686309814453e+01 3.016982269287109375e+01 -9.827367961406707764e-02 1.496134757995605469e+00 4.193583428859710693e-01 -3.622054755687713623e-01
2.270000000000000000e+03 3.861848449707031250e+01 -8.475365638732910156e+00 -4.093011617660522461e-01 4.940015792846679688e+00 1.359214305877685547e+00 -2.391056299209594727e+00
2.271000000000000000e+03 4.190217208862304688e+01 -5.930617809295654297e+00 -2.350278645753860474e-01 5.656465530395507812e+00 1.626431345939636230e+00 -2.043385028839111328e+00
2.272000000000000000e+03 4.226753997802734375e+01 -7.156502723693847656e+00 -4.230894148349761963e-01 5.763072490692138672e+00 1.601994991302490234e+00 -2.024753332138061523e+00
2.273000000000000000e+03 5.113859939575195312e+01 -2.155438041687011719e+01 1.225660204887390137e+00 4.342970371246337891e+00 1.670589208602905273e+00 -1.422896146774291992e+00
2.274000000000000000e+03 5.077068710327148438e+01 -1.933360671997070312e+01 1.381962895393371582e-01 4.306596755981445312e+00 1.333437919616699219e+00 -1.104352712631225586e+00
2.275000000000000000e+03 7.618625640869140625e+00 1.193907356262207031e+01 2.521576285362243652e-01 7.952868938446044922e-02 9.950589388608932495e-02 9.219425171613693237e-02
2.276000000000000000e+03 3.383712005615234375e+01 1.841639709472656250e+01 1.046348333358764648e+00 5.794098854064941406e+00 2.052134037017822266e+00 -2.860938906669616699e-01
2.277000000000000000e+03 3.550285720825195312e+01 1.662079620361328125e+01 1.282700657844543457e+00 6.470732212066650391e+00 2.326030015945434570e+00 -1.839673370122909546e-01
2.278000000000000000e+03 3.561370086669921875e+01 1.332573986053466797e+01 1.679594159126281738e+00 6.558062076568603516e+00 2.471296787261962891e+00 -1.895590871572494507e-01
2.279000000000000000e+03 4.097357940673828125e+01 -1.132429885864257812e+01 -1.000917792320251465e+00 6.140830039978027344e+00 1.541973590850830078e+00 -2.439686536788940430e+00
2.280000000000000000e+03 7.216616058349609375e+01 -1.915308952331542969e+01 -1.229531407356262207e+00 6.353168487548828125e+00 1.537091135978698730e+00 -8.592366576194763184e-01
2.281000000000000000e+03 5.100512313842773438e+01 -3.235480880737304688e+01 9.214995503425598145e-01 6.369189739227294922e+00 2.187206745147705078e+00 -1.382957339286804199e+00
2.282000000000000000e+03 5.280822372436523438e+01 -3.136562156677246094e+01 1.809325575828552246e+00 6.657669067382812500e+00 2.540098428726196289e+00 -1.475261211395263672e+00
2.283000000000000000e+03 4.910479354858398438e+01 -3.033711051940917969e+01 1.120188713073730469e+00 6.704866886138916016e+00 2.347516775131225586e+00 -2.189332723617553711e+00
2.284000000000000000e+03 4.146530151367187500e+01 -1.419546222686767578e+01 -1.036425948143005371e+00 7.205482482910156250e+00 1.850716948509216309e+00 -2.574331760406494141e+00
2.285000000000000000e+03 4.973945617675781250e+01 -1.967687606811523438e+01 5.659190416336059570e-01 5.299628257751464844e+00 1.759664177894592285e+00 -1.275623440742492676e+00
2.286000000000000000e+03 2.950403594970703125e+01 -1.110728549957275391e+01 -1.085618495941162109e+00 1.279093146324157715e+00 5.804238840937614441e-02 -1.382818102836608887e+00
2.287000000000000000e+03 4.551342010498046875e+01 -1.776484298706054688e+01 1.842254996299743652e-01 8.272526741027832031e+00 2.537025690078735352e+00 -1.050014853477478027e+00
2.288000000000000000e+03 4.538266372680664062e+01 -1.877386283874511719e+01 8.292721509933471680e-01 8.700732231140136719e+00 2.859001159667968750e+00 -1.250790476799011230e+00
2.289000000000000000e+03 4.805499649047851562e+01 -2.840320968627929688e+01 1.690871119499206543e+00 7.130013942718505859e+00 2.646265506744384766e+00 -2.624151706695556641e+00
2.290000000000000000e+03 5.209313201904296875e+01 -3.465995025634765625e+01 3.865146636962890625e-02 6.508080959320068359e+00 1.964019775390625000e+00 -7.392113804817199707e-01
2.291000000000000000e+03 4.902830886840820312e+01 -2.143718338012695312e+01 1.584263205528259277e+00 5.843727588653564453e+00 2.228397130966186523e+00 -1.682095766067504883e+00
2.292000000000000000e+03 5.020923614501953125e+01 -2.077342224121093750e+01 1.114934444427490234e+00 5.120848178863525391e+00 1.870734810829162598e+00 -1.417521834373474121e+00
2.293000000000000000e+03 3.760880279541015625e+01 2.152252197265625000e+01 6.736561059951782227e-01 6.565642356872558594e+00 2.171789646148681641e+00 1.362537741661071777e-01
2.294000000000000000e+03 7.132071685791015625e+01 -1.412056350708007812e+01 -8.739095926284790039e-02 5.207342147827148438e+00 1.535985350608825684e+00 -4.134885668754577637e-01
2.295000000000000000e+03 3.365503311157226562e+01 -1.172732639312744141e+01 -6.269956827163696289e-01 2.347848176956176758e+00 5.162557363510131836e-01 -2.029415845870971680e+00
2.296000000000000000e+03 3.714604949951171875e+01 2.716725921630859375e+01 -1.431892514228820801e-01 5.612435817718505859e+00 1.640774011611938477e+00 -5.969273298978805542e-02
2.297000000000000000e+03 7.318281650543212891e+00 3.475825119018554688e+01 -8.089564740657806396e-02 6.148324012756347656e-01 1.601810306310653687e-01 -1.589182615280151367e-01
2.298000000000000000e+03 4.645172119140625000e+01 -1.664529800415039062e+01 -5.287093520164489746e-01 7.473267555236816406e+00 2.083367347717285156e+00 -7.922491431236267090e-01
2.299000000000000000e+03 4.610859298706054688e+01 -1.561551189422607422e+01 -9.217678904533386230e-01 7.469138145446777344e+00 1.964211106300354004e+00 -9.473180174827575684e-01
2.300000000000000000e+03 5.165066528320312500e+01 -2.511760902404785156e+01 1.743186593055725098e+00 5.257774829864501953e+00 2.100288391113281250e+00 -1.824022531509399414e+00
2.301000000000000000e+03 8.379265785217285156e+00 2.628976631164550781e+01 1.829696632921695709e-02 6.505976319313049316e-01 2.006683796644210815e-01 -2.898830175399780273e-01
2.302000000000000000e+03 1.005674839019775391e+01 2.647400665283203125e+01 7.687520235776901245e-03 9.591504931449890137e-01 2.900514006614685059e-01 -3.263285160064697266e-01
2.303000000000000000e+03 3.243122482299804688e+01 -1.151974487304687500e+01 -6.834262013435363770e-01 1.908476829528808594e+00 3.675151765346527100e-01 -1.769027709960937500e+00
2.304000000000000000e+03 2.881814575195312500e+01 -1.073739337921142578e+01 -8.657339215278625488e-01 1.116248369216918945e+00 7.515431940555572510e-02 -1.381995320320129395e+00
2.305000000000000000e+03 3.540362167358398438e+01 7.545074939727783203e+00 1.778794646263122559e+00 6.025400638580322266e+00 2.341258525848388672e+00 -3.429358825087547302e-02
2.306000000000000000e+03 1.940372276306152344e+01 -1.343065261840820312e+00 3.924856781959533691e-01 7.298624992370605469e+00 2.307333230972290039e+00 2.310099124908447266e+00
2.307000000000000000e+03 1.839850234985351562e+01 -7.988433837890625000e-01 -5.348802804946899414e-01 6.108374118804931641e+00 1.672048211097717285e+00 4.303485751152038574e-01
2.308000000000000000e+03 1.989730072021484375e+01 -1.524957418441772461e+00 1.109479188919067383e+00 7.154465675354003906e+00 2.479183435440063477e+00 2.996381044387817383e+00
2.309000000000000000e+03 1.282321643829345703e+01 -5.265949726104736328e+00 2.713789701461791992e+00 1.632680185139179230e-02 8.190349340438842773e-01 1.775466680526733398e+00
2.310000000000000000e+03 1.837910652160644531e+01 -1.591001749038696289e-01 -4.601927697658538818e-01 5.377473831176757812e+00 1.475184202194213867e+00 2.897273004055023193e-01
2.311000000000000000e+03 1.782677459716796875e+01 6.480746865272521973e-01 -3.947762250900268555e-01 4.153195858001708984e+00 1.127525925636291504e+00 -1.524300426244735718e-01
2.312000000000000000e+03 1.464484119415283203e+01 -6.907054901123046875e+00 4.514719486236572266e+00 1.259665846824645996e+00 1.732315659523010254e+00 5.248287200927734375e+00
2.313000000000000000e+03 1.189815711975097656e+01 -6.839716911315917969e+00 1.991050004959106445e+00 1.112406015396118164e+00 9.310368299484252930e-01 2.738238096237182617e+00
2.314000000000000000e+03 1.317727470397949219e+01 -5.530171394348144531e+00 3.241518497467041016e+00 -7.637810893356800079e-03 9.701642394065856934e-01 2.152698516845703125e+00
2.315000000000000000e+03 7.869499206542968750e+00 -6.129372596740722656e+00 2.386976182460784912e-01 1.029422521591186523e+00 3.804360628128051758e-01 4.023735523223876953e-01
2.316000000000000000e+03 1.525268268585205078e+01 -9.654804229736328125e+00 5.002875924110412598e-01 3.248895645141601562e+00 1.124754905700683594e+00 6.106703281402587891e+00
2.317000000000000000e+03 1.676904106140136719e+01 -8.031122207641601562e+00 2.529964208602905273e+00 4.265172004699707031e+00 2.038540840148925781e+00 6.175294876098632812e+00
2.318000000000000000e+03 1.591442489624023438e+01 -7.568881988525390625e+00 3.793391942977905273e+00 3.390729665756225586e+00 2.155236482620239258e+00 6.579165458679199219e+00
2.319000000000000000e+03 2.260349655151367188e+01 -2.127075195312500000e+00 3.838737487792968750e+00 3.808881759643554688e+00 2.294285774230957031e+00 3.130323886871337891e+00
2.320000000000000000e+03 2.041331100463867188e+01 -1.023876309394836426e+00 1.215049505233764648e+00 6.275352478027343750e+00 2.247120618820190430e+00 2.802528619766235352e+00
2.321000000000000000e+03 2.264296340942382812e+01 -2.872175216674804688e+00 4.673383235931396484e+00 3.324882507324218750e+00 2.399479627609252930e+00 2.995407819747924805e+00
2.322000000000000000e+03 1.682894706726074219e+01 1.796880960464477539e+00 -1.945810914039611816e-01 2.707525730133056641e+00 7.538833618164062500e-01 -4.315593540668487549e-01
2.323000000000000000e+03 2.295296859741210938e+01 -5.019546031951904297e+00 5.540822982788085938e+00 1.832761764526367188e+00 2.212075471878051758e+00 1.313444852828979492e+00
2.324000000000000000e+03 2.370994949340820312e+01 -4.220636367797851562e+00 4.919241428375244141e+00 1.892270565032958984e+00 2.043453693389892578e+00 1.582360029220581055e+00
2.325000000000000000e+03 6.738283634185791016e+00 -6.851419448852539062e+00 7.994204759597778320e-02 1.065858364105224609e+00 3.437401056289672852e-01 1.218299865722656250e-01
2.326000000000000000e+03 7.335342407226562500e+00 -6.491721630096435547e+00 1.244234293699264526e-01 1.046851038932800293e+00 3.513823151588439941e-01 2.805497348308563232e-01
2.327000000000000000e+03 9.299673080444335938e+00 -5.768154144287109375e+00 5.987300872802734375e-01 8.838500976562500000e-01 4.447740614414215088e-01 8.422091603279113770e-01
2.328000000000000000e+03 8.838659286499023438e+00 6.720341682434082031e+00 2.266059219837188721e-01 -1.190024148672819138e-02 6.441169977188110352e-02 2.799094617366790771e-01
2.329000000000000000e+03 8.328038215637207031e+00 7.193786621093750000e+00 2.354198247194290161e-01 -3.711553663015365601e-02 5.949128791689872742e-02 2.851889729499816895e-01
2.330000000000000000e+03 2.312596893310546875e+01 -5.738805770874023438e+00 5.145341396331787109e+00 1.436460137367248535e+00 1.974540472030639648e+00 5.914491415023803711e-01
2.331000000000000000e+03 1.706336021423339844e+01 2.456802606582641602e+00 -1.190361455082893372e-01 2.803307056427001953e+00 8.052812814712524414e-01 -3.436480462551116943e-01
2.332000000000000000e+03 2.422171211242675781e+01 -7.604001522064208984e+00 2.651078462600708008e+00 8.034124970436096191e-01 1.036347270011901855e+00 -7.868706583976745605e-01
2.333000000000000000e+03 1.455420398712158203e+01 -9.337321281433105469e+00 8.711074590682983398e-01 2.987835407257080078e+00 1.157682895660400391e+00 5.910768985748291016e+00
2.334000000000000000e+03 9.161378860473632812e+00 -9.406584739685058594e+00 8.112964779138565063e-02 3.018629312515258789e+00 9.299276471138000488e-01 1.750293254852294922e+00
2.335000000000000000e+03 1.101648235321044922e+01 -1.023645401000976562e+01 -1.480676420032978058e-02 3.949984788894653320e+00 1.180553436279296875e+00 3.315997838973999023e+00
2.336000000000000000e+03 2.213843345642089844e+01 -7.663529396057128906e+00 3.185893535614013672e+00 1.664069294929504395e+00 1.454988837242126465e+00 -4.908855557441711426e-01
2.337000000000000000e+03 2.134675979614257812e+01 -7.979529380798339844e+00 2.860366582870483398e+00 2.393531560897827148e+00 1.576169490814208984e+00 -1.561411172151565552e-01
2.338000000000000000e+03 1.530050659179687500e+01 5.452099323272705078e+00 2.749618887901306152e-01 1.561194181442260742e+00 5.508468151092529297e-01 -2.879450023174285889e-01
2.339000000000000000e+03 1.459621715545654297e+01 5.948114871978759766e+00 3.229130804538726807e-01 1.273997902870178223e+00 4.790732860565185547e-01 -2.545731961727142334e-01
2.340000000000000000e+03 8.922132492065429688e+00 8.379660606384277344e+00 3.111225664615631104e-01 1.109955832362174988e-01 1.266354471445083618e-01 1.894163489341735840e-01
2.341000000000000000e+03 1.384118938446044922e+01 6.403507232666015625e+00 3.583403527736663818e-01 1.020461916923522949e+00 4.136406481266021729e-01 -1.902570426464080811e-01
2.342000000000000000e+03 1.372720813751220703e+01 4.481144905090332031e+00 2.356248795986175537e-01 7.963387966156005859e-01 3.095891177654266357e-01 -2.034587115049362183e-01
2.343000000000000000e+03 4.072024536132812500e+01 -6.165726184844970703e+00 -2.314113825559616089e-01 5.464007377624511719e+00 1.569778800010681152e+00 -2.092396020889282227e+00
2.344000000000000000e+03 4.059492492675781250e+01 -2.889683008193969727e+00 2.712565958499908447e-01 5.536428928375244141e+00 1.742305636405944824e+00 -1.893430113792419434e+00
2.345000000000000000e+03 4.069299697875976562e+01 -4.813805580139160156e+00 8.923192508518695831e-03 5.457543373107910156e+00 1.639940023422241211e+00 -2.008877992630004883e+00
2.346000000000000000e+03 2.254223823547363281e+01 -6.619765281677246094e+00 4.758976936340332031e+00 1.573608040809631348e+00 1.899775505065917969e+00 -1.592319458723068237e-02
2.347000000000000000e+03 4.665500640869140625e+01 -1.771582221984863281e+01 9.298474527895450592e-03 7.578281879425048828e+00 2.276274204254150391e+00 -9.253376722335815430e-01
2.348000000000000000e+03 4.003941726684570312e+01 -1.744868278503417969e+00 4.475214481353759766e-01 5.592164516448974609e+00 1.811905741691589355e+00 -1.730316281318664551e+00
2.349000000000000000e+03 8.371260643005371094e+00 -5.765049457550048828e+00 3.289898335933685303e-01 9.157007932662963867e-01 3.734071850776672363e-01 5.244573354721069336e-01
2.350000000000000000e+03 8.085947036743164062e+00 -1.110341548919677734e+01 -1.780468076467514038e-01 3.777600049972534180e+00 1.079865932464599609e+00 1.104465723037719727e+00
2.351000000000000000e+03 7.163460540771484375e+01 -1.655679702758789062e+01 -4.917031228542327881e-01 5.257616043090820312e+00 1.429773926734924316e+00 -7.428415417671203613e-01
2.352000000000000000e+03 1.631464767456054688e+01 -9.305571556091308594e+00 5.949471592903137207e-01 3.491204261779785156e+00 1.225845456123352051e+00 6.009089469909667969e+00
2.353000000000000000e+03 2.816178321838378906e+01 -1.027492141723632812e+01 -7.036449909210205078e-01 1.044081211090087891e+00 1.021308824419975281e-01 -1.445235490798950195e+00
2.354000000000000000e+03 1.189280891418457031e+01 -1.004549026489257812e+01 1.620109230279922485e-01 3.773866176605224609e+00 1.180763125419616699e+00 4.058469772338867188e+00
2.355000000000000000e+03 1.231951045989990234e+01 7.284298896789550781e+00 3.919220566749572754e-01 6.305270195007324219e-01 3.067347109317779541e-01 -6.493265926837921143e-02
2.356000000000000000e+03 6.930741119384765625e+01 -1.772920036315917969e+01 -2.713980078697204590e-01 3.144520759582519531e+00 8.619368672370910645e-01 -6.810131669044494629e-01
2.357000000000000000e+03 5.351773262023925781e+00 8.017892837524414062e+00 1.216587349772453308e-01 -2.563084661960601807e-01 -4.039492085576057434e-02 3.168336451053619385e-01
2.358000000000000000e+03 6.983202934265136719e+00 8.167098045349121094e+00 2.011532932519912720e-01 -1.202397644519805908e-01 2.427405864000320435e-02 2.892262041568756104e-01
2.359000000000000000e+03 2.758426666259765625e+01 -9.761174201965332031e+00 -2.869465649127960205e-01 1.009425163269042969e+00 2.167435884475708008e-01 -1.420485615730285645e+00
2.360000000000000000e+03 3.946889114379882812e+01 -9.134655952453613281e+00 -6.009211540222167969e-01 5.277170658111572266e+00 1.402874946594238281e+00 -2.423890113830566406e+00
2.361000000000000000e+03 4.168886947631835938e+01 -8.759386062622070312e+00 -7.011862397193908691e-01 5.858690261840820312e+00 1.547251105308532715e+00 -2.139480352401733398e+00
2.362000000000000000e+03 3.556005096435546875e+01 8.893832206726074219e+00 1.843680977821350098e+00 6.202878952026367188e+00 2.413968086242675781e+00 -4.480397701263427734e-02
2.363000000000000000e+03 3.519600296020507812e+01 6.207119941711425781e+00 1.708220362663269043e+00 5.740651130676269531e+00 2.234661579132080078e+00 -2.958514168858528137e-02
2.364000000000000000e+03 4.227694702148437500e+01 -1.121077156066894531e+01 -1.109704256057739258e+00 6.509459495544433594e+00 1.619926691055297852e+00 -2.118406295776367188e+00
2.365000000000000000e+03 1.107682037353515625e+01 6.805226802825927734e+00 3.350628316402435303e-01 2.830826342105865479e-01 1.854436397552490234e-01 8.376274257898330688e-02
2.366000000000000000e+03 1.107706069946289062e+01 9.122821807861328125e+00 3.947807848453521729e-01 4.966325461864471436e-01 2.674240171909332275e-01 8.438659831881523132e-03
2.367000000000000000e+03 4.804169082641601562e+01 -1.868796920776367188e+01 4.537514150142669678e-01 6.635646343231201172e+00 2.126819372177124023e+00 -1.023442745208740234e+00
2.368000000000000000e+03 5.098512268066406250e+01 -2.380826568603515625e+01 1.699045658111572266e+00 5.024336814880371094e+00 2.017014741897583008e+00 -1.812357187271118164e+00
2.369000000000000000e+03 4.914493179321289062e+01 -2.640289878845214844e+01 1.967100620269775391e+00 6.593383789062500000e+00 2.568145513534545898e+00 -2.566175937652587891e+00
2.370000000000000000e+03 2.487009620666503906e+01 -6.906816482543945312e+00 3.072412729263305664e+00 8.434950709342956543e-01 1.174772262573242188e+00 -5.437299013137817383e-01
2.371000000000000000e+03 1.090922832489013672e+01 2.337101364135742188e+01 9.207127988338470459e-02 1.034612774848937988e+00 3.380052149295806885e-01 -3.371358215808868408e-01
2.372000000000000000e+03 3.960078048706054688e+01 -4.639288902282714844e+00 9.921633452177047729e-02 5.264930248260498047e+00 1.609243988990783691e+00 -1.956535220146179199e+00
2.373000000000000000e+03 4.024590682983398438e+01 -9.844093322753906250e+00 -7.831442356109619141e-01 5.702083110809326172e+00 1.475681662559509277e+00 -2.389931678771972656e+00
2.374000000000000000e+03 3.894557952880859375e+01 2.233890771865844727e+00 9.421803951263427734e-01 6.164172649383544922e+00 2.131905794143676758e+00 -1.129899382591247559e+00
2.375000000000000000e+03 8.169457435607910156e+00 -1.010965347290039062e+01 -1.090205609798431396e-01 3.237343549728393555e+00 9.384968876838684082e-01 1.130752205848693848e+00
2.376000000000000000e+03 9.137213706970214844e+00 -1.027764701843261719e+01 -1.329444199800491333e-01 3.634777784347534180e+00 1.050549983978271484e+00 1.807199120521545410e+00
2.377000000000000000e+03 4.576103973388671875e+01 -1.334914493560791016e+01 -1.131723642349243164e+00 6.979573726654052734e+00 1.754355072975158691e+00 -9.665964841842651367e-01
2.378000000000000000e+03 4.678417205810546875e+01 -2.020141983032226562e+01 1.791776061058044434e+00 7.632426261901855469e+00 2.827260732650756836e+00 -1.395265936851501465e+00
2.379000000000000000e+03 4.536503219604492188e+01 -1.687552642822265625e+01 -3.902457952499389648e-01 8.109218597412109375e+00 2.315691709518432617e+00 -1.177667617797851562e+00
2.380000000000000000e+03 8.821523666381835938e+00 1.649505424499511719e+01 2.238390296697616577e-01 4.644811153411865234e-01 2.064960449934005737e-01 -1.345823854207992554e-01
2.381000000000000000e+03 8.120173454284667969e+00 2.276796150207519531e+01 7.333132624626159668e-02 5.245463848114013672e-01 1.793633252382278442e-01 -2.516509890556335449e-01
2.382000000000000000e+03 6.943278312683105469e+00 2.010463333129882812e+01 1.023126244544982910e-01 2.028356939554214478e-01 9.154449403285980225e-02 -1.717847585678100586e-01
2.383000000000000000e+03 3.762152862548828125e+01 -9.855551719665527344e+00 -4.946826994419097900e-01 4.476172447204589844e+00 1.194446921348571777e+00 -2.526175498962402344e+00
2.384000000000000000e+03 3.476367950439453125e+01 -1.038185405731201172e+01 -3.231385946273803711e-01 3.082760095596313477e+00 8.278864622116088867e-01 -2.286723852157592773e+00
2.385000000000000000e+03 4.673629379272460938e+01 -1.887743949890136719e+01 6.985618472099304199e-01 7.478635311126708984e+00 2.453159093856811523e+00 -1.051858901977539062e+00
2.386000000000000000e+03 7.825685024261474609e+00 1.091721439361572266e+01 2.684377133846282959e-01 7.160475105047225952e-02 1.020127385854721069e-01 1.419310271739959717e-01
2.387000000000000000e+03 7.085069179534912109e+00 9.268730163574218750e+00 2.306606322526931763e-01 -7.087173312902450562e-02 4.793667048215866089e-02 2.293140590190887451e-01
2.388000000000000000e+03 4.870607757568359375e+01 -2.532127761840820312e+01 2.118543863296508789e+00 6.559292793273925781e+00 2.603350877761840820e+00 -2.513617515563964844e+00
2.389000000000000000e+03 4.976203918457031250e+01 -2.459447097778320312e+01 2.045078754425048828e+00 5.971797943115234375e+00 2.405062913894653320e+00 -2.248227834701538086e+00
2.390000000000000000e+03 6.974135589599609375e+01 -1.479890632629394531e+01 8.300369232892990112e-02 4.263223171234130859e+00 1.303868055343627930e+00 -1.722459942102432251e-01
2.391000000000000000e+03 1.078227996826171875e+01 8.192773818969726562e+00 3.785723745822906494e-01 3.619140088558197021e-01 2.221459150314331055e-01 6.270802021026611328e-02
2.392000000000000000e+03 6.848659992218017578e+00 1.053130817413330078e+01 2.265422195196151733e-01 -6.459207087755203247e-02 4.858504235744476318e-02 1.823488324880599976e-01
2.393000000000000000e+03 3.498550033569335938e+01 2.553947448730468750e+01 3.941594064235687256e-02 5.479369163513183594e+00 1.655635476112365723e+00 -2.617484629154205322e-01
2.394000000000000000e+03 3.362613677978515625e+01 -1.035540771484375000e+01 -2.575086653232574463e-01 2.618536710739135742e+00 7.083083987236022949e-01 -2.090008497238159180e+00
2.395000000000000000e+03 3.136974334716796875e+01 -1.014408206939697266e+01 -2.739660143852233887e-01 1.830760836601257324e+00 4.670384526252746582e-01 -1.756053566932678223e+00
2.396000000000000000e+03 7.335332870483398438e+00 1.474613666534423828e+01 1.879696249961853027e-01 1.099130660295486450e-01 8.936480432748794556e-02 -1.229366939514875412e-02
2.397000000000000000e+03 9.372366905212402344e+00 1.547747898101806641e+01 2.658793628215789795e-01 5.376715064048767090e-01 2.410652637481689453e-01 -1.164886131882667542e-01
2.398000000000000000e+03 4.111247253417968750e+01 -7.524013042449951172e+00 -4.615487754344940186e-01 5.602309703826904297e+00 1.542228341102600098e+00 -2.134425640106201172e+00
2.399000000000000000e+03 3.815372848510742188e+01 -1.073435592651367188e+01 -6.101442575454711914e-01 4.684448242187500000e+00 1.222291111946105957e+00 -2.638834476470947266e+00
2.400000000000000000e+03 3.036347007751464844e+01 -1.123647594451904297e+01 -9.583543539047241211e-01 1.441246509552001953e+00 1.448676437139511108e-01 -1.463281154632568359e+00
2.401000000000000000e+03 4.833859252929687500e+01 -3.375278854370117188e+01 -4.686291813850402832e-01 6.726112842559814453e+00 1.877245068550109863e+00 -1.164604425430297852e+00
2.402000000000000000e+03 5.407187652587890625e+01 -3.117316627502441406e+01 2.607292652130126953e+00 6.750477313995361328e+00 2.807330846786499023e+00 -1.713239908218383789e+00
2.403000000000000000e+03 1.021879291534423828e+01 3.038188362121582031e+01 -6.809820234775543213e-02 1.079201221466064453e+00 3.033308982849121094e-01 -3.099800646305084229e-01
2.404000000000000000e+03 3.843715667724609375e+01 -1.403623580932617188e+00 6.507468223571777344e-01 5.331739425659179688e+00 1.794745922088623047e+00 -1.456430792808532715e+00
2.405000000000000000e+03 3.417940139770507812e+01 1.327030563354492188e+01 1.639748573303222656e+00 5.981950283050537109e+00 2.286509513854980469e+00 -1.223893612623214722e-01
2.406000000000000000e+03 3.423822402954101562e+01 1.176149845123291016e+01 1.749583721160888672e+00 5.931307792663574219e+00 2.304267406463623047e+00 -6.528661400079727173e-02
2.407000000000000000e+03 8.379161834716796875e+00 1.157328033447265625e+01 3.137641549110412598e-01 2.270050495862960815e-01 1.622307598590850830e-01 6.715114414691925049e-02
2.408000000000000000e+03 3.554781723022460938e+01 1.494438743591308594e+01 1.483675718307495117e+00 6.564087867736816406e+00 2.414329051971435547e+00 -1.780804544687271118e-01
2.409000000000000000e+03 3.393598556518554688e+01 2.031982994079589844e+01 7.958567738533020020e-01 5.730321407318115234e+00 1.957853436470031738e+00 -2.990409433841705322e-01
2.410000000000000000e+03 3.671850967407226562e+01 2.527146530151367188e+01 1.168907657265663147e-01 5.799386024475097656e+00 1.774883031845092773e+00 -8.115036785602569580e-02
2.411000000000000000e+03 4.253942871093750000e+01 -1.250912570953369141e+01 -1.212062358856201172e+00 6.983904838562011719e+00 1.731552720069885254e+00 -2.067050933837890625e+00
2.412000000000000000e+03 3.417493820190429688e+01 8.981833457946777344e+00 1.803720235824584961e+00 5.727424621582031250e+00 2.259343385696411133e+00 6.565894186496734619e-02
2.413000000000000000e+03 3.564394760131835938e+01 1.029745101928710938e+01 1.855252265930175781e+00 6.377923011779785156e+00 2.469952583312988281e+00 -1.038327589631080627e-01
2.414000000000000000e+03 5.129320144653320312e+01 -2.038313674926757812e+01 5.730702877044677734e-01 4.030165195465087891e+00 1.380970716476440430e+00 -1.158378124237060547e+00
2.415000000000000000e+03 3.648319625854492188e+01 6.015128612518310547e+00 1.615657925605773926e+00 6.260904788970947266e+00 2.362968683242797852e+00 -2.185098677873611450e-01
2.416000000000000000e+03 3.777173233032226562e+01 -3.715848922729492188e-01 8.621911406517028809e-01 5.356375694274902344e+00 1.865570068359375000e+00 -1.191117167472839355e+00
2.417000000000000000e+03 3.721051025390625000e+01 -1.119210720062255859e+01 -5.993207097053527832e-01 4.228289127349853516e+00 1.088690519332885742e+00 -2.641661405563354492e+00
2.418000000000000000e+03 3.583401489257812500e+01 -1.028337478637695312e+01 -3.698340952396392822e-01 3.583021163940429688e+00 9.639561176300048828e-01 -2.405970811843872070e+00
2.419000000000000000e+03 9.338322639465332031e+00 2.308474540710449219e+01 8.430118858814239502e-02 7.230615019798278809e-01 2.422088086605072021e-01 -2.928049564361572266e-01
2.420000000000000000e+03 1.158904457092285156e+01 2.605095672607421875e+01 2.331339195370674133e-02 1.233366012573242188e+00 3.770038485527038574e-01 -3.684658110141754150e-01
2.421000000000000000e+03 7.189411926269531250e+01 -1.553535652160644531e+01 -3.118157684803009033e-01 5.465933799743652344e+00 1.546235442161560059e+00 -6.051898002624511719e-01
2.422000000000000000e+03 1.893637657165527344e+01 -1.025516867637634277e+00 -2.185698002576828003e-01 6.830682754516601562e+00 1.983633875846862793e+00 1.366477966308593750e+00
2.423000000000000000e+03 1.454211807250976562e+01 -6.259528636932373047e+00 4.991402626037597656e+00 5.083458423614501953e-01 1.649924516677856445e+00 4.267497062683105469e+00
2.424000000000000000e+03 1.419541454315185547e+01 -6.322130680084228516e+00 4.492932796478271484e+00 4.623368084430694580e-01 1.486580848693847656e+00 3.969369411468505859e+00
2.425000000000000000e+03 1.488219642639160156e+01 -7.306589603424072266e+00 3.986623048782348633e+00 1.779919505119323730e+00 1.729962825775146484e+00 5.736752986907958984e+00
2.426000000000000000e+03 1.465755176544189453e+01 -8.149988174438476562e+00 2.493969202041625977e+00 2.377857923507690430e+00 1.461548089981079102e+00 5.886568069458007812e+00
2.427000000000000000e+03 2.110405158996582031e+01 -1.578219413757324219e+00 2.401663541793823242e+00 5.752682209014892578e+00 2.446303606033325195e+00 3.462071180343627930e+00
2.428000000000000000e+03 1.439835548400878906e+01 -6.597875595092773438e+00 4.536296367645263672e+00 7.670781612396240234e-01 1.591012239456176758e+00 4.556665897369384766e+00
2.429000000000000000e+03 1.272410106658935547e+01 -6.475039005279541016e+00 2.737401723861694336e+00 7.094985842704772949e-01 1.034070014953613281e+00 2.953645229339599609e+00
2.430000000000000000e+03 1.959420967102050781e+01 -9.509211778640747070e-01 3.127645850181579590e-01 6.826228141784667969e+00 2.141697883605957031e+00 2.114395618438720703e+00
2.431000000000000000e+03 1.161129188537597656e+01 -7.451794624328613281e+00 1.489026069641113281e+00 1.620847105979919434e+00 9.329619407653808594e-01 2.941385507583618164e+00
2.432000000000000000e+03 1.293535709381103516e+01 -5.950687408447265625e+00 2.991334915161132812e+00 3.242942988872528076e-01 9.946888089179992676e-01 2.598313331604003906e+00
2.433000000000000000e+03 2.179064369201660156e+01 -1.543759942054748535e+00 2.776709318161010742e+00 4.949556827545166016e+00 2.317879676818847656e+00 3.313317298889160156e+00
2.434000000000000000e+03 2.173134231567382812e+01 -9.358518719673156738e-01 2.108398914337158203e+00 5.130684375762939453e+00 2.171725034713745117e+00 3.027424335479736328e+00
2.435000000000000000e+03 1.741764831542968750e+01 1.526438713073730469e+00 -2.599773108959197998e-01 3.339792966842651367e+00 9.239447116851806641e-01 -3.043784499168395996e-01
2.436000000000000000e+03 1.516634750366210938e+01 -7.713153839111328125e+00 3.445643663406372070e+00 2.511088609695434570e+00 1.787019610404968262e+00 6.229585170745849609e+00
2.437000000000000000e+03 9.721215248107910156e+00 -6.241751194000244141e+00 8.132715821266174316e-01 1.070624470710754395e+00 5.651687979698181152e-01 1.179663777351379395e+00
2.438000000000000000e+03 1.043540859222412109e+01 -6.889080047607421875e+00 1.010850787162780762e+00 1.348311662673950195e+00 7.077487111091613770e-01 1.799645662307739258e+00
2.439000000000000000e+03 1.799184417724609375e+01 1.314416289329528809e+00 -2.944744825363159180e-01 3.944201707839965820e+00 1.094918131828308105e+00 -7.410987466573715210e-02
2.440000000000000000e+03 1.760797691345214844e+01 3.743476390838623047e+00 2.889706939458847046e-02 2.927129268646240234e+00 8.868079185485839844e-01 -1.963321119546890259e-01
2.441000000000000000e+03 1.409784030914306641e+01 -8.383462905883789062e+00 2.020267248153686523e+00 2.384074211120605469e+00 1.321302413940429688e+00 5.595785617828369141e+00
2.442000000000000000e+03 1.505609512329101562e+01 -8.638636589050292969e+00 1.936272144317626953e+00 2.930257797241210938e+00 1.459958910942077637e+00 6.168447971343994141e+00
2.443000000000000000e+03 1.619089698791503906e+01 3.825268507003784180e+00 8.824390918016433716e-02 2.050100326538085938e+00 6.415032744407653809e-01 -3.640898466110229492e-01
2.444000000000000000e+03 1.676844024658203125e+01 3.445440053939819336e+00 1.889741420745849609e-02 2.449061393737792969e+00 7.403876781463623047e-01 -3.396068811416625977e-01
2.445000000000000000e+03 8.827309608459472656e+00 -5.385890960693359375e+00 4.380764365196228027e-01 7.839369773864746094e-01 3.666040003299713135e-01 5.484266877174377441e-01
2.446000000000000000e+03 8.265142440795898438e+00 -9.230151176452636719e+00 -4.667879641056060791e-02 2.670589685440063477e+00 7.871732711791992188e-01 1.134356260299682617e+00
2.447000000000000000e+03 2.543289756774902344e+01 -6.234363079071044922e+00 3.325593709945678711e+00 1.003120064735412598e+00 1.298614144325256348e+00 -3.032691478729248047e-01
2.448000000000000000e+03 1.340858364105224609e+01 -9.404535293579101562e+00 7.949035763740539551e-01 3.112989902496337891e+00 1.172368049621582031e+00 5.226075649261474609e+00
2.449000000000000000e+03 2.292667007446289062e+01 -7.340153694152832031e+00 3.560980081558227539e+00 1.327554583549499512e+00 1.466560363769531250e+00 -4.829244911670684814e-01
2.450000000000000000e+03 3.946112060546875000e+01 -6.075523853302001953e+00 -1.174058616161346436e-01 5.200137615203857422e+00 1.524819493293762207e+00 -2.105341672897338867e+00
2.451000000000000000e+03 1.009103965759277344e+01 -1.032022476196289062e+01 -5.223800614476203918e-02 3.915618419647216797e+00 1.159014105796813965e+00 2.528315544128417969e+00
2.452000000000000000e+03 1.021713161468505859e+01 -7.495118618011474609e+00 8.696032166481018066e-01 1.755390048027038574e+00 7.874979972839355469e-01 1.996539711952209473e+00
2.453000000000000000e+03 7.763089179992675781e+00 7.386195659637451172e+00 2.140055298805236816e-01 -7.890000194311141968e-02 4.053165763616561890e-02 2.985121011734008789e-01
2.454000000000000000e+03 7.297756195068359375e+00 -7.532824516296386719e+00 7.143725454807281494e-02 1.462060332298278809e+00 4.600493013858795166e-01 4.359788596630096436e-01
2.455000000000000000e+03 6.764849185943603516e+00 -7.925262451171875000e+00 -2.978836558759212494e-02 1.505068302154541016e+00 4.425839781761169434e-01 1.946073323488235474e-01
2.456000000000000000e+03 1.513240814208984375e+01 6.899998188018798828e+00 3.634524643421173096e-01 1.518517374992370605e+00 5.645909309387207031e-01 -2.507358789443969727e-01
2.457000000000000000e+03 2.652569580078125000e+01 -8.235998153686523438e+00 1.188334941864013672e+00 7.788225412368774414e-01 5.901472568511962891e-01 -1.284855008125305176e+00
2.458000000000000000e+03 2.568277931213378906e+01 -9.004053115844726562e+00 5.043529868125915527e-01 6.610423922538757324e-01 3.496186137199401855e-01 -1.355436563491821289e+00
2.459000000000000000e+03 7.349838256835937500e+01 -1.342333126068115234e+01 -1.947945505380630493e-01 6.270346164703369141e+00 1.822665452957153320e+00 -5.010738968849182129e-01
2.460000000000000000e+03 8.369077682495117188e+00 -8.398630142211914062e+00 1.528997272253036499e-01 2.174860000610351562e+00 6.983278989791870117e-01 1.071822643280029297e+00
2.461000000000000000e+03 2.496231079101562500e+01 -8.303598403930664062e+00 1.501173019409179688e+00 6.304541230201721191e-01 6.394881010055541992e-01 -1.159586906433105469e+00
2.462000000000000000e+03 2.404036521911621094e+01 -6.453152179718017578e+00 3.946264982223510742e+00 1.019674777984619141e+00 1.489781975746154785e+00 -1.099086478352546692e-01
2.463000000000000000e+03 3.911895370483398438e+01 -2.354790449142456055e+00 4.907241165637969971e-01 5.335693836212158203e+00 1.747925400733947754e+00 -1.669432997703552246e+00
2.464000000000000000e+03 3.764480972290039062e+01 -3.027118921279907227e+00 5.682864189147949219e-01 4.911735534667968750e+00 1.644006609916687012e+00 -1.588480472564697266e+00
2.465000000000000000e+03 3.360443878173828125e+01 -9.062562942504882812e+00 4.592056944966316223e-02 2.805358648300170898e+00 8.553838133811950684e-01 -2.042978048324584961e+00
2.466000000000000000e+03 1.434136009216308594e+01 7.358547210693359375e+00 3.996174931526184082e-01 1.273013353347778320e+00 5.017892718315124512e-01 -2.145355790853500366e-01
2.467000000000000000e+03 1.284203052520751953e+01 -8.239558219909667969e+00 1.706488966941833496e+00 2.154262065887451172e+00 1.158225297927856445e+00 4.322297573089599609e+00
2.468000000000000000e+03 1.155808830261230469e+01 7.746970653533935547e+00 3.934055566787719727e-01 4.881825447082519531e-01 2.644764184951782227e-01 3.531118156388401985e-03
2.469000000000000000e+03 8.605706214904785156e+00 7.747007369995117188e+00 2.672748565673828125e-01 2.857157029211521149e-02 8.875393122434616089e-02 2.421374768018722534e-01
2.470000000000000000e+03 1.270026969909667969e+01 -9.769500732421875000e+00 4.257493615150451660e-01 3.464663743972778320e+00 1.167123913764953613e+00 4.707009792327880859e+00
2.471000000000000000e+03 3.569524383544921875e+01 -9.084195137023925781e+00 -1.424610912799835205e-01 3.657226324081420898e+00 1.054429531097412109e+00 -2.301798105239868164e+00
2.472000000000000000e+03 3.430360794067382812e+01 -2.196482658386230469e+00 1.283330440521240234e+00 3.991927862167358398e+00 1.582577466964721680e+00 -9.218097925186157227e-01
2.473000000000000000e+03 3.247083663940429688e+01 -1.023460388183593750e+01 -2.752273678779602051e-01 2.187553405761718750e+00 5.736978054046630859e-01 -1.908435821533203125e+00
2.474000000000000000e+03 4.107237625122070312e+01 -1.274291706085205078e+01 -1.142930269241333008e+00 6.509376049041748047e+00 1.609933733940124512e+00 -2.548043489456176758e+00
2.475000000000000000e+03 4.205669403076171875e+01 -9.964292526245117188e+00 -9.122254252433776855e-01 6.129258155822753906e+00 1.565109729766845703e+00 -2.132511377334594727e+00
2.476000000000000000e+03 4.393133926391601562e+01 -1.216327190399169922e+01 -1.165801286697387695e+00 6.956941127777099609e+00 1.737342000007629395e+00 -1.594022512435913086e+00
2.477000000000000000e+03 3.705197143554687500e+01 5.565012693405151367e-01 1.028958797454833984e+00 5.330852508544921875e+00 1.907943367958068848e+00 -9.458559751510620117e-01
2.478000000000000000e+03 3.038158988952636719e+01 -1.016175746917724609e+01 -3.687137663364410400e-01 1.616496443748474121e+00 3.743348121643066406e-01 -1.629301667213439941e+00
2.479000000000000000e+03 9.048174858093261719e+00 1.311801624298095703e+01 2.890208959579467773e-01 3.584035933017730713e-01 1.942273527383804321e-01 -9.096051566302776337e-03
2.480000000000000000e+03 9.291602134704589844e+00 1.424185943603515625e+01 3.003675341606140137e-01 4.653424322605133057e-01 2.297129929065704346e-01 -6.688334047794342041e-02
2.481000000000000000e+03 9.642170906066894531e+00 1.708230018615722656e+01 2.204751521348953247e-01 6.053042411804199219e-01 2.477338165044784546e-01 -1.554032117128372192e-01
2.482000000000000000e+03 3.792696380615234375e+01 -6.958472251892089844e+00 -5.342158302664756775e-02 4.693571567535400391e+00 1.392044901847839355e+00 -2.166031599044799805e+00
2.483000000000000000e+03 5.040467834472656250e+01 -2.580543708801269531e+01 1.863147020339965820e+00 5.765254974365234375e+00 2.288520574569702148e+00 -2.283094167709350586e+00
2.484000000000000000e+03 1.232950782775878906e+01 1.433810806274414062e+01 3.801116645336151123e-01 1.042938828468322754e+00 4.269151389598846436e-01 -1.843288391828536987e-01
2.485000000000000000e+03 9.468799591064453125e+00 2.162425804138183594e+01 1.218347176909446716e-01 7.215500473976135254e-01 2.530154287815093994e-01 -2.750702798366546631e-01
2.486000000000000000e+03 8.211683273315429688e+00 2.147275733947753906e+01 9.455170482397079468e-02 4.900319278240203857e-01 1.753750890493392944e-01 -2.296078652143478394e-01
2.487000000000000000e+03 8.586046218872070312e+00 1.036977100372314453e+01 2.870897054672241211e-01 1.448641121387481689e-01 1.295861452817916870e-01 1.254296600818634033e-01
2.488000000000000000e+03 8.665247917175292969e+00 9.555833816528320312e+00 2.991397678852081299e-01 1.184238418936729431e-01 1.252690851688385010e-01 1.592358350753784180e-01
2.489000000000000000e+03 8.804299354553222656e+00 1.228808879852294922e+01 3.086586296558380127e-01 2.781867384910583496e-01 1.760536134243011475e-01 2.882639318704605103e-02
2.490000000000000000e+03 8.131076812744140625e+00 1.285513877868652344e+01 2.700963318347930908e-01 1.985662132501602173e-01 1.405987590551376343e-01 3.535374253988265991e-02
2.491000000000000000e+03 1.045217704772949219e+01 2.498075675964355469e+01 5.518926307559013367e-02 1.011837720870971680e+00 3.201080858707427979e-01 -3.425541222095489502e-01
2.492000000000000000e+03 9.083211898803710938e+00 1.106347274780273438e+01 3.291321098804473877e-01 2.708800435066223145e-01 1.800036430358886719e-01 5.174863338470458984e-02
2.493000000000000000e+03 3.204274749755859375e+01 1.841220855712890625e+01 9.883331656455993652e-01 5.299300670623779297e+00 1.886290192604064941e+00 -3.490339219570159912e-01
2.494000000000000000e+03 3.392636871337890625e+01 1.659747695922851562e+01 1.261658310890197754e+00 5.902119159698486328e+00 2.149133205413818359e+00 -2.348382622003555298e-01
2.495000000000000000e+03 3.977904510498046875e+01 -1.087671089172363281e+01 -8.520670533180236816e-01 5.555270671844482422e+00 1.410961031913757324e+00 -2.573801040649414062e+00
2.496000000000000000e+03 4.013646697998046875e+01 -8.188724517822265625e+00 -5.154684782028198242e-01 5.471127986907958984e+00 1.486697793006896973e+00 -2.256838321685791016e+00
2.497000000000000000e+03 3.496089172363281250e+01 4.867511749267578125e+00 1.609881043434143066e+00 5.488073348999023438e+00 2.129386425018310547e+00 -4.926970973610877991e-02
2.498000000000000000e+03 3.284622955322265625e+01 1.033177375793457031e+01 1.721848845481872559e+00 5.409217834472656250e+00 2.139320135116577148e+00 9.487353265285491943e-02
2.499000000000000000e+03 1.210988330841064453e+01 2.796106910705566406e+01 -2.635511010885238647e-02 1.384155750274658203e+00 4.073401689529418945e-01 -3.828651905059814453e-01
2.500000000000000000e+03 3.521963500976562500e+01 2.761357879638671875e+01 -1.934966742992401123e-01 5.362787246704101562e+00 1.550787091255187988e+00 -2.675585448741912842e-01
2.501000000000000000e+03 3.478033447265625000e+01 2.390677642822265625e+01 3.356232047080993652e-01 5.654655933380126953e+00 1.797083735466003418e+00 -2.981386482715606689e-01
2.502000000000000000e+03 9.762453079223632812e+00 3.537050247192382812e+01 -1.299180537462234497e-01 1.069519519805908203e+00 2.818804383277893066e-01 -2.093778997659683228e-01
2.503000000000000000e+03 3.860784912109375000e+01 -3.252688884735107422e+00 4.147576987743377686e-01 5.110517978668212891e+00 1.657582640647888184e+00 -1.712989568710327148e+00
2.504000000000000000e+03 1.386306762695312500e+01 -6.547513484954833984e+00 3.947134733200073242e+00 5.991357564926147461e-01 1.363881230354309082e+00 3.877668619155883789e+00
2.505000000000000000e+03 1.924718475341796875e+01 -6.004433631896972656e-01 -4.199177399277687073e-02 6.401905536651611328e+00 1.907974123954772949e+00 1.425853848457336426e+00
2.506000000000000000e+03 1.987706947326660156e+01 -7.256943583488464355e-01 4.620838463306427002e-01 6.404535293579101562e+00 2.059985637664794922e+00 2.110960721969604492e+00
2.507000000000000000e+03 1.440972900390625000e+01 -7.627996921539306641e+00 3.306828022003173828e+00 1.832659959793090820e+00 1.541846394538879395e+00 5.491801738739013672e+00
2.508000000000000000e+03 1.396126174926757812e+01 -8.930418014526367188e+00 1.448771238327026367e+00 2.811951637268066406e+00 1.278216838836669922e+00 5.575301647186279297e+00
2.509000000000000000e+03 1.292887783050537109e+01 -7.218237876892089844e+00 2.576147317886352539e+00 1.294235587120056152e+00 1.161114931106567383e+00 3.815971612930297852e+00
2.510000000000000000e+03 1.323435211181640625e+01 -7.556754589080810547e+00 2.538305282592773438e+00 1.521679639816284180e+00 1.217995405197143555e+00 4.325115680694580078e+00
2.511000000000000000e+03 1.322409820556640625e+01 -6.715328216552734375e+00 3.122783184051513672e+00 7.623403668403625488e-01 1.165536999702453613e+00 3.576760768890380859e+00
2.512000000000000000e+03 2.104237365722656250e+01 -2.687048017978668213e-01 1.153851509094238281e+00 5.479545593261718750e+00 1.990019202232360840e+00 2.458091735839843750e+00
2.513000000000000000e+03 1.007003593444824219e+01 -8.092616081237792969e+00 5.926047563552856445e-01 2.170083999633789062e+00 8.288066387176513672e-01 2.115786552429199219e+00
2.514000000000000000e+03 2.358668136596679688e+01 -3.512279033660888672e+00 4.716966629028320312e+00 2.338967800140380859e+00 2.116780281066894531e+00 2.051985979080200195e+00
2.515000000000000000e+03 2.253498458862304688e+01 -1.378412008285522461e+00 2.926281929016113281e+00 4.353768348693847656e+00 2.184015035629272461e+00 3.071914672851562500e+00
2.516000000000000000e+03 1.841397094726562500e+01 5.238578319549560547e-01 -3.928537666797637939e-01 4.751867771148681641e+00 1.307704091072082520e+00 1.925999671220779419e-01
2.517000000000000000e+03 8.959916114807128906e+00 -7.080067157745361328e+00 4.920415878295898438e-01 1.467994809150695801e+00 5.880109071731567383e-01 1.079524636268615723e+00
2.518000000000000000e+03 1.439354705810546875e+01 8.405177116394042969e+00 4.203580021858215332e-01 1.316074252128601074e+00 5.209296941757202148e-01 -2.075510174036026001e-01
2.519000000000000000e+03 1.819289207458496094e+01 1.974587440490722656e+00 -1.911246180534362793e-01 3.803468704223632812e+00 1.083703279495239258e+00 -2.417254634201526642e-02
2.520000000000000000e+03 1.003127384185791016e+01 -9.482345581054687500e+00 1.273953020572662354e-01 3.218246221542358398e+00 1.003692388534545898e+00 2.406806468963623047e+00
2.521000000000000000e+03 2.475010299682617188e+01 -4.865598201751708984e+00 4.241796970367431641e+00 1.403363108634948730e+00 1.693548083305358887e+00 7.090374231338500977e-01
2.522000000000000000e+03 1.762991905212402344e+01 2.186405420303344727e+00 -1.823855787515640259e-01 3.318893194198608398e+00 9.409523010253906250e-01 -2.183379828929901123e-01
2.523000000000000000e+03 1.876180076599121094e+01 1.807371735572814941e+00 -1.726464182138442993e-01 4.255006790161132812e+00 1.224708080291748047e+00 2.590798437595367432e-01
2.524000000000000000e+03 1.731663513183593750e+01 3.108726263046264648e+00 -4.626635834574699402e-02 2.868218183517456055e+00 8.465855717658996582e-01 -2.705030143260955811e-01
2.525000000000000000e+03 1.701392555236816406e+01 5.203165054321289062e+00 1.891542226076126099e-01 2.409684181213378906e+00 7.796515226364135742e-01 -2.447959780693054199e-01
2.526000000000000000e+03 1.655641746520996094e+01 4.516384124755859375e+00 1.419785320758819580e-01 2.228864669799804688e+00 7.112529277801513672e-01 -3.110657930374145508e-01
2.527000000000000000e+03 3.246026229858398438e+01 -8.947144508361816406e+00 2.003349512815475464e-01 2.389197587966918945e+00 7.768597602844238281e-01 -1.883553981781005859e+00
2.528000000000000000e+03 7.893338680267333984e+00 -7.152859687805175781e+00 2.153607606887817383e-01 1.431409358978271484e+00 4.940310120582580566e-01 5.998046398162841797e-01
2.529000000000000000e+03 1.166708660125732422e+01 -9.277697563171386719e+00 5.756928324699401855e-01 3.108374595642089844e+00 1.105220198631286621e+00 3.742936611175537109e+00
2.530000000000000000e+03 1.240011882781982422e+01 -9.068209648132324219e+00 8.886618018150329590e-01 2.906252622604370117e+00 1.138474345207214355e+00 4.298736572265625000e+00
2.531000000000000000e+03 3.568813323974609375e+01 -7.924469470977783203e+00 7.141001522541046143e-02 3.783257007598876953e+00 1.156400084495544434e+00 -2.132564067840576172e+00
2.532000000000000000e+03 3.842557525634765625e+01 -4.475830554962158203e+00 2.637818753719329834e-01 4.961618900299072266e+00 1.567620277404785156e+00 -1.877223014831542969e+00
2.533000000000000000e+03 1.564077472686767578e+01 -8.989636421203613281e+00 1.216101646423339844e+00 3.148188591003417969e+00 1.309287071228027344e+00 6.175874710083007812e+00
2.534000000000000000e+03 7.842065811157226562e+00 8.089259147644042969e+00 2.388820946216583252e-01 -4.694990068674087524e-02 5.757965892553329468e-02 2.658525407314300537e-01
2.535000000000000000e+03 9.276861190795898438e+00 8.971251487731933594e+00 3.156108260154724121e-01 1.709736287593841553e-01 1.459753364324569702e-01 1.532249748706817627e-01
2.536000000000000000e+03 9.667594909667968750e+00 7.880221843719482422e+00 3.250064253807067871e-01 1.557892411947250366e-01 1.442386955022811890e-01 1.643267124891281128e-01
2.537000000000000000e+03 1.001925086975097656e+01 -8.743472099304199219e+00 4.119445681571960449e-01 2.663860082626342773e+00 9.227414131164550781e-01 2.270932674407958984e+00
2.538000000000000000e+03 2.927828788757324219e+01 -9.336074829101562500e+00 6.639152765274047852e-02 1.283533692359924316e+00 4.049775600433349609e-01 -1.557161331176757812e+00
2.539000000000000000e+03 2.712658882141113281e+01 -9.011340141296386719e+00 4.326796829700469971e-01 9.165394306182861328e-01 4.047657251358032227e-01 -1.365185976028442383e+00
2.540000000000000000e+03 1.417039871215820312e+01 9.629998207092285156e+00 4.471871852874755859e-01 1.290450453758239746e+00 5.212913155555725098e-01 -1.876201629638671875e-01
2.541000000000000000e+03 1.122822189331054688e+01 1.495625495910644531e+01 3.414646983146667480e-01 8.408002257347106934e-01 3.546794950962066650e-01 -1.642118841409683228e-01
2.542000000000000000e+03 3.680469894409179688e+01 -1.010468292236328125e+01 -4.118332266807556152e-01 4.066214561462402344e+00 1.096314311027526855e+00 -2.523457765579223633e+00
2.543000000000000000e+03 3.819044494628906250e+01 -9.340877532958984375e+00 -4.723079204559326172e-01 4.728502273559570312e+00 1.276858329772949219e+00 -2.474660396575927734e+00
2.544000000000000000e+03 9.596665382385253906e+00 -7.337039947509765625e+00 6.121019124984741211e-01 1.651959180831909180e+00 6.792183518409729004e-01 1.538300514221191406e+00
2.545000000000000000e+03 8.826576232910156250e+00 -6.206190109252929688e+00 4.816938936710357666e-01 1.107348561286926270e+00 4.767127633094787598e-01 7.932370305061340332e-01
2.546000000000000000e+03 9.461684226989746094e+00 9.604461669921875000e+00 3.432565629482269287e-01 2.650958895683288574e-01 1.825057417154312134e-01 9.723187983036041260e-02
2.547000000000000000e+03 1.047792243957519531e+01 1.382222843170166016e+01 3.412869274616241455e-01 6.654245257377624512e-01 3.020134270191192627e-01 -1.092769131064414978e-01
2.548000000000000000e+03 1.001204967498779297e+01 8.595090866088867188e+00 3.506047725677490234e-01 2.709694504737854004e-01 1.864722669124603271e-01 1.111572459340095520e-01
2.549000000000000000e+03 2.405089569091796875e+01 -5.717903614044189453e+00 4.383537769317626953e+00 1.227604389190673828e+00 1.683342695236206055e+00 3.398793935775756836e-01
2.550000000000000000e+03 2.949129104614257812e+01 -1.026039981842041016e+01 -4.551427662372589111e-01 1.342973589897155762e+00 2.663492560386657715e-01 -1.505340337753295898e+00
2.551000000000000000e+03 2.573475074768066406e+01 -7.544594764709472656e+00 2.080716371536254883e+00 8.092581629753112793e-01 8.669923543930053711e-01 -9.867689013481140137e-01
2.552000000000000000e+03 1.646377182006835938e+01 6.994346141815185547e+00 3.349983692169189453e-01 2.052259922027587891e+00 7.161775231361389160e-01 -2.357502877712249756e-01
2.553000000000000000e+03 1.714940834045410156e+01 7.612363815307617188e+00 3.592660129070281982e-01 2.282807111740112305e+00 7.926219105720520020e-01 -1.918176114559173584e-01
2.554000000000000000e+03 3.686332702636718750e+01 -1.153574228286743164e+00 9.125732779502868652e-01 4.966981887817382812e+00 1.763866662979125977e+00 -1.157661557197570801e+00
2.555000000000000000e+03 4.108204650878906250e+01 -1.013299369812011719e+01 -8.945886492729187012e-01 5.924207210540771484e+00 1.508885622024536133e+00 -2.288234472274780273e+00
2.556000000000000000e+03 1.360016059875488281e+01 7.842758178710937500e+00 4.152212738990783691e-01 1.025978088378906250e+00 4.323598146438598633e-01 -1.648015230894088745e-01
2.557000000000000000e+03 3.016877174377441406e+01 -9.051399230957031250e+00 2.945017814636230469e-01 1.696288108825683594e+00 5.972369909286499023e-01 -1.581954836845397949e+00
2.558000000000000000e+03 9.508467674255371094e+00 2.024682044982910156e+01 1.556150764226913452e-01 6.925040483474731445e-01 2.544357478618621826e-01 -2.437800467014312744e-01
2.559000000000000000e+03 1.008222579956054688e+01 1.929634094238281250e+01 1.833080798387527466e-01 7.623406052589416504e-01 2.836945950984954834e-01 -2.412158101797103882e-01
2.560000000000000000e+03 3.590847396850585938e+01 3.197588920593261719e+00 1.407030463218688965e+00 5.502654075622558594e+00 2.072905302047729492e+00 -3.817934095859527588e-01
2.561000000000000000e+03 4.082448577880859375e+01 -9.165143966674804688e+00 -7.166334986686706543e-01 5.729473114013671875e+00 1.503851890563964844e+00 -2.243414402008056641e+00
2.562000000000000000e+03 3.281715774536132812e+01 9.015531539916992188e+00 1.751575946807861328e+00 5.305019855499267578e+00 2.116978645324707031e+00 1.859550625085830688e-01
2.563000000000000000e+03 3.628366851806640625e+01 4.596837043762207031e+00 1.467345714569091797e+00 5.845132350921630859e+00 2.193743467330932617e+00 -3.278546631336212158e-01
2.564000000000000000e+03 3.705053710937500000e+01 2.459003210067749023e+00 1.207848787307739258e+00 5.677530288696289062e+00 2.065613746643066406e+00 -6.990107893943786621e-01
2.565000000000000000e+03 3.276147460937500000e+01 1.316773605346679688e+01 1.571478366851806641e+00 5.498531341552734375e+00 2.121002912521362305e+00 -8.483879268169403076e-02
2.566000000000000000e+03 3.406517028808593750e+01 1.487872886657714844e+01 1.481294870376586914e+00 5.953080177307128906e+00 2.230312585830688477e+00 -1.947153359651565552e-01
2.567000000000000000e+03 3.406578063964843750e+01 7.667238235473632812e+00 1.786812782287597656e+00 5.547264099121093750e+00 2.200222969055175781e+00 1.221420988440513611e-01
2.568000000000000000e+03 3.423519134521484375e+01 1.033651638031005859e+01 1.802351236343383789e+00 5.842318058013916016e+00 2.293400764465332031e+00 1.997388899326324463e-02
2.569000000000000000e+03 3.623461532592773438e+01 -3.723929166793823242e+00 7.182795405387878418e-01 4.393083095550537109e+00 1.533408761024475098e+00 -1.519546508789062500e+00
2.570000000000000000e+03 3.677412414550781250e+01 -2.701329469680786133e+00 7.706776857376098633e-01 4.651075363159179688e+00 1.626525878906250000e+00 -1.405548095703125000e+00
2.571000000000000000e+03 3.730394744873046875e+01 -4.179372310638427734e+00 4.687791168689727783e-01 4.657249927520751953e+00 1.537808656692504883e+00 -1.725585103034973145e+00
2.572000000000000000e+03 1.270466232299804688e+01 2.323412513732910156e+01 1.158236935734748840e-01 1.369811892509460449e+00 4.456906914710998535e-01 -3.784223496913909912e-01
2.573000000000000000e+03 4.969126892089843750e+01 -3.616683578491210938e+01 -1.098608255386352539e+00 6.725045680999755859e+00 1.687931180000305176e+00 -6.517000794410705566e-01
2.574000000000000000e+03 1.525467491149902344e+01 2.444892883300781250e+01 9.490807354450225830e-02 1.883315920829772949e+00 5.934671759605407715e-01 -4.448745846748352051e-01
2.575000000000000000e+03 3.260746002197265625e+01 1.473456668853759766e+01 1.429318308830261230e+00 5.494948387145996094e+00 2.077280044555664062e+00 -1.679886728525161743e-01
2.576000000000000000e+03 2.881133651733398438e+01 1.703244400024414062e+01 9.657606482505798340e-01 4.531753063201904297e+00 1.649254202842712402e+00 -2.978279888629913330e-01
2.577000000000000000e+03 3.069470977783203125e+01 2.311212539672851562e+01 3.745231032371520996e-01 4.886868000030517578e+00 1.578417301177978516e+00 -5.056748986244201660e-01
2.578000000000000000e+03 3.213235473632812500e+01 2.633959007263183594e+01 -1.719293557107448578e-02 5.016765117645263672e+00 1.499871611595153809e+00 -4.553933441638946533e-01
2.579000000000000000e+03 1.063581562042236328e+01 2.031117057800292969e+01 1.795828640460968018e-01 9.229840636253356934e-01 3.307700753211975098e-01 -2.877499461174011230e-01
2.580000000000000000e+03 3.912151718139648438e+01 -7.392857551574707031e+00 -2.975136339664459229e-01 5.092547416687011719e+00 1.438510060310363770e+00 -2.239069938659667969e+00
2.581000000000000000e+03 3.819019699096679688e+01 -5.735692501068115234e+00 9.126447141170501709e-02 4.811859607696533203e+00 1.470937252044677734e+00 -2.028153419494628906e+00
2.582000000000000000e+03 1.420366287231445312e+01 -7.192051410675048828e+00 3.671450614929199219e+00 1.321642160415649414e+00 1.497927904129028320e+00 4.985585212707519531e+00
2.583000000000000000e+03 1.950743103027343750e+01 6.033374667167663574e-01 -1.006182506680488586e-01 5.427325725555419922e+00 1.598012208938598633e+00 1.047720909118652344e+00
2.584000000000000000e+03 2.062325286865234375e+01 -3.837848007678985596e-01 8.288992643356323242e-01 5.844012737274169922e+00 2.001873731613159180e+00 2.298757076263427734e+00
2.585000000000000000e+03 1.946721839904785156e+01 4.040663719177246094e+00 1.176984682679176331e-01 3.706770420074462891e+00 1.147340655326843262e+00 2.444983124732971191e-01
2.586000000000000000e+03 1.148974227905273438e+01 -8.542709350585937500e+00 9.482023119926452637e-01 2.478650331497192383e+00 1.028055787086486816e+00 3.351622819900512695e+00
2.587000000000000000e+03 2.349953079223632812e+01 -2.786011219024658203e+00 4.339624881744384766e+00 2.773586034774780273e+00 2.133963346481323242e+00 2.451484918594360352e+00
2.588000000000000000e+03 2.343962860107421875e+01 -2.006931543350219727e+00 3.691636562347412109e+00 3.319769859313964844e+00 2.103421926498413086e+00 2.652058362960815430e+00
2.589000000000000000e+03 2.535531425476074219e+01 -3.342176914215087891e+00 3.807902097702026367e+00 1.973797082901000977e+00 1.734509706497192383e+00 1.208889484405517578e+00
2.590000000000000000e+03 1.785090065002441406e+01 2.827870845794677734e+00 -8.656316250562667847e-02 3.293662309646606445e+00 9.621297717094421387e-01 -1.448520123958587646e-01
2.591000000000000000e+03 8.604270935058593750e+00 -7.667367935180664062e+00 2.601144313812255859e-01 1.772477269172668457e+00 6.097775101661682129e-01 1.061249971389770508e+00
2.592000000000000000e+03 9.229751586914062500e+00 -8.630521774291992188e+00 2.286441326141357422e-01 2.471458911895751953e+00 8.100309371948242188e-01 1.690381646156311035e+00
2.593000000000000000e+03 1.305173397064208984e+01 -8.821951866149902344e+00 1.345972776412963867e+00 2.627388954162597656e+00 1.192008495330810547e+00 4.779385566711425781e+00
2.594000000000000000e+03 1.710103034973144531e+01 4.104724884033203125e+00 7.919542491436004639e-02 2.574918985366821289e+00 7.962343096733093262e-01 -2.738115191459655762e-01
2.595000000000000000e+03 1.637461280822753906e+01 9.126709938049316406e+00 4.329836070537567139e-01 1.971115827560424805e+00 7.212297916412353516e-01 -2.188852429389953613e-01
2.596000000000000000e+03 1.585817146301269531e+01 7.721825599670410156e+00 3.823202848434448242e-01 1.791178703308105469e+00 6.520497202873229980e-01 -2.336344122886657715e-01
2.597000000000000000e+03 1.645243072509765625e+01 5.702593326568603516e+00 2.517214119434356689e-01 2.106708288192749023e+00 7.075288891792297363e-01 -2.722977399826049805e-01
2.598000000000000000e+03 1.358730602264404297e+01 -8.542238235473632812e+00 1.689344167709350586e+00 2.434910535812377930e+00 1.237276434898376465e+00 5.058990955352783203e+00
2.599000000000000000e+03 1.219536590576171875e+01 -8.360673904418945312e+00 1.319215893745422363e+00 2.282619953155517578e+00 1.080550789833068848e+00 3.838371753692626953e+00
2.600000000000000000e+03 3.469433212280273438e+01 -7.931211948394775391e+00 2.151027321815490723e-01 3.365630865097045898e+00 1.074220061302185059e+00 -2.044946670532226562e+00
2.601000000000000000e+03 3.663628005981445312e+01 -9.026662826538085938e+00 -2.508235871791839600e-01 4.071068286895751953e+00 1.146073341369628906e+00 -2.359173536300659180e+00
2.602000000000000000e+03 1.704561042785644531e+01 6.397663593292236328e+00 2.884774506092071533e-01 2.324671268463134766e+00 7.839446067810058594e-01 -2.108953446149826050e-01
2.603000000000000000e+03 1.282805156707763672e+01 8.406473159790039062e+00 4.202684164047241211e-01 8.610270619392395020e-01 3.843886554241180420e-01 -1.130023971199989319e-01
2.604000000000000000e+03 1.314015007019042969e+01 9.653718948364257812e+00 4.434377253055572510e-01 1.025918126106262207e+00 4.408067762851715088e-01 -1.522194743156433105e-01
2.605000000000000000e+03 3.693473434448242188e+01 -5.407680511474609375e+00 3.412699997425079346e-01 4.427120208740234375e+00 1.430517077445983887e+00 -1.887778639793395996e+00
2.606000000000000000e+03 2.815064239501953125e+01 -8.400019645690917969e+00 8.078081011772155762e-01 1.208066105842590332e+00 6.047622561454772949e-01 -1.367015838623046875e+00
2.607000000000000000e+03 3.888828277587890625e+01 -1.003299427032470703e+01 -6.521501541137695312e-01 5.070466518402099609e+00 1.325494885444641113e+00 -2.570275545120239258e+00
2.608000000000000000e+03 2.936645126342773438e+01 -8.308296203613281250e+00 7.574689984321594238e-01 1.466904878616333008e+00 6.673121452331542969e-01 -1.496133327484130859e+00
2.609000000000000000e+03 2.564515686035156250e+01 -4.818592071533203125e+00 3.639134168624877930e+00 1.344609379768371582e+00 1.495123028755187988e+00 3.426317870616912842e-01
2.610000000000000000e+03 2.460416030883789062e+01 -4.138863563537597656e+00 4.308470726013183594e+00 1.698641657829284668e+00 1.802133679389953613e+00 1.162691712379455566e+00
2.611000000000000000e+03 2.490565299987792969e+01 -5.617912769317626953e+00 3.869910955429077148e+00 1.089488744735717773e+00 1.487819910049438477e+00 1.431292146444320679e-01
2.612000000000000000e+03 9.596135139465332031e+00 1.180453681945800781e+01 3.437557220458984375e-01 3.751234412193298340e-01 2.156637459993362427e-01 1.596982404589653015e-02
2.613000000000000000e+03 3.468140792846679688e+01 -9.112378120422363281e+00 -3.899292647838592529e-02 3.227680683135986328e+00 9.566063284873962402e-01 -2.161130428314208984e+00
2.614000000000000000e+03 1.034717941284179688e+01 1.597968578338623047e+01 2.721710801124572754e-01 7.017390131950378418e-01 2.921730279922485352e-01 -1.592440754175186157e-01
2.615000000000000000e+03 1.201127147674560547e+01 1.600956726074218750e+01 3.150091469287872314e-01 1.024643540382385254e+00 4.018957912921905518e-01 -2.148231267929077148e-01
2.616000000000000000e+03 3.365901565551757812e+01 -7.845860004425048828e+00 3.834885358810424805e-01 2.952384471893310547e+00 1.000761866569519043e+00 -1.922191023826599121e+00
2.617000000000000000e+03 3.253928756713867188e+01 -7.699603557586669922e+00 5.275264978408813477e-01 2.589542865753173828e+00 9.351208209991455078e-01 -1.779763340950012207e+00
2.618000000000000000e+03 3.618840789794921875e+01 -3.267894685268402100e-01 1.096054792404174805e+00 4.931010723114013672e+00 1.808119535446166992e+00 -9.063091874122619629e-01
2.619000000000000000e+03 1.540991878509521484e+01 8.700177192687988281e+00 4.205338954925537109e-01 1.646880388259887695e+00 6.202242970466613770e-01 -2.216261476278305054e-01
2.620000000000000000e+03 3.624954986572265625e+01 1.378929495811462402e+00 1.230137467384338379e+00 5.221035003662109375e+00 1.935351729393005371e+00 -6.720546483993530273e-01
2.621000000000000000e+03 1.115946292877197266e+01 1.866491889953613281e+01 2.385394871234893799e-01 9.619504809379577637e-01 3.601469993591308594e-01 -2.612113058567047119e-01
2.622000000000000000e+03 1.182450294494628906e+01 1.988092803955078125e+01 2.093307673931121826e-01 1.115548610687255859e+00 3.974638283252716064e-01 -3.076853156089782715e-01
2.623000000000000000e+03 3.147244262695312500e+01 8.994241714477539062e+00 1.663084387779235840e+00 4.976437568664550781e+00 1.991856455802917480e+00 2.694858014583587646e-01
2.624000000000000000e+03 3.146909904479980469e+01 1.028972244262695312e+01 1.628778219223022461e+00 5.040940761566162109e+00 2.000915765762329102e+00 1.844644397497177124e-01
2.625000000000000000e+03 1.124911785125732422e+01 1.297735404968261719e+01 3.808628022670745850e-01 7.871357202529907227e-01 3.503995537757873535e-01 -1.144388839602470398e-01
2.626000000000000000e+03 3.600286865234375000e+01 -2.025717735290527344e+00 9.750230908393859863e-01 4.546883106231689453e+00 1.656571865081787109e+00 -1.176455497741699219e+00
2.627000000000000000e+03 3.572872161865234375e+01 -4.913728713989257812e+00 6.265466213226318359e-01 4.065927505493164062e+00 1.407742142677307129e+00 -1.678022384643554688e+00
2.628000000000000000e+03 3.119996643066406250e+01 1.450799083709716797e+01 1.355402350425720215e+00 5.092494010925292969e+00 1.934368968009948730e+00 -1.430265605449676514e-01
2.629000000000000000e+03 3.007179641723632812e+01 1.154974937438964844e+01 1.457177042961120605e+00 4.774949073791503906e+00 1.869637846946716309e+00 1.258273571729660034e-01
2.630000000000000000e+03 3.030216979980468750e+01 1.793195152282714844e+01 9.634680747985839844e-01 4.873935699462890625e+00 1.751221179962158203e+00 -3.494191765785217285e-01
2.631000000000000000e+03 3.086433792114257812e+01 1.612773132324218750e+01 1.196220397949218750e+00 5.040946006774902344e+00 1.871150016784667969e+00 -2.419960945844650269e-01
2.632000000000000000e+03 1.073639774322509766e+01 1.228140258789062500e+01 3.685628771781921387e-01 6.181992888450622559e-01 2.960286438465118408e-01 -5.403907597064971924e-02
2.633000000000000000e+03 1.046704196929931641e+01 1.135940074920654297e+01 3.750608563423156738e-01 5.216888785362243652e-01 2.690249383449554443e-01 -1.398411672562360764e-02
2.634000000000000000e+03 1.084445762634277344e+01 2.168219757080078125e+01 1.528616696596145630e-01 9.907536506652832031e-01 3.430846035480499268e-01 -3.150664269924163818e-01
2.635000000000000000e+03 5.151865768432617188e+01 -3.700698852539062500e+01 -1.116155743598937988e+00 6.796859741210937500e+00 1.704211235046386719e+00 -5.023493170738220215e-01
2.636000000000000000e+03 5.327689743041992188e+01 -4.074225997924804688e+01 -1.668464303016662598e+00 6.178687572479248047e+00 1.353067040443420410e+00 -3.127321898937225342e-01
2.637000000000000000e+03 1.371120357513427734e+01 -7.361914634704589844e+00 3.110080003738403320e+00 1.391017913818359375e+00 1.350329399108886719e+00 4.650256156921386719e+00
2.638000000000000000e+03 1.220573616027832031e+01 -7.662472248077392578e+00 1.768947124481201172e+00 1.753639101982116699e+00 1.056775808334350586e+00 3.529401779174804688e+00
2.639000000000000000e+03 1.852969169616699219e+01 1.163025498390197754e+00 -2.804453372955322266e-01 4.478608131408691406e+00 1.259448766708374023e+00 2.006049901247024536e-01
2.640000000000000000e+03 1.076772880554199219e+01 -8.725142478942871094e+00 5.701423883438110352e-01 2.663039445877075195e+00 9.699545502662658691e-01 2.800042867660522461e+00
2.641000000000000000e+03 2.311915397644042969e+01 -2.935304939746856689e-01 2.215506792068481445e+00 4.215907573699951172e+00 1.929424285888671875e+00 2.499910593032836914e+00
2.642000000000000000e+03 2.428325462341308594e+01 -1.944260358810424805e+00 3.561506032943725586e+00 2.920718669891357422e+00 1.944667458534240723e+00 2.210662841796875000e+00
2.643000000000000000e+03 1.277023983001708984e+01 -7.696032047271728516e+00 2.026890039443969727e+00 1.729551911354064941e+00 1.126932621002197266e+00 4.037088394165039062e+00
2.644000000000000000e+03 9.375960350036621094e+00 -7.947256088256835938e+00 4.721501767635345459e-01 2.057039976119995117e+00 7.587570548057556152e-01 1.624002575874328613e+00
2.645000000000000000e+03 1.838678741455078125e+01 2.614358663558959961e+00 -1.226485297083854675e-01 3.698282480239868164e+00 1.072690248489379883e+00 2.236582338809967041e-02
2.646000000000000000e+03 2.644752883911132812e+01 -6.692657470703125000e+00 2.485420703887939453e+00 1.010569334030151367e+00 1.048797011375427246e+00 -7.462466955184936523e-01
2.647000000000000000e+03 2.551193618774414062e+01 -4.057283878326416016e+00 3.839281082153320312e+00 1.666360974311828613e+00 1.651692628860473633e+00 8.526427149772644043e-01
2.648000000000000000e+03 2.048324775695800781e+01 1.535406231880187988e+00 2.710811197757720947e-01 4.913748741149902344e+00 1.555449008941650391e+00 1.231208324432373047e+00
2.649000000000000000e+03 1.838251113891601562e+01 4.008192062377929688e+00 6.982937455177307129e-02 3.280966997146606445e+00 1.005238890647888184e+00 -2.076955884695053101e-02
2.650000000000000000e+03 1.742286682128906250e+01 8.683981895446777344e+00 4.185681641101837158e-01 2.315501213073730469e+00 8.202208280563354492e-01 -1.809816062450408936e-01
2.651000000000000000e+03 2.446748161315917969e+01 -3.432278633117675781e+00 4.264215469360351562e+00 2.067148923873901367e+00 1.899409294128417969e+00 1.634341001510620117e+00
2.652000000000000000e+03 1.809265899658203125e+01 3.441967487335205078e+00 -9.295504540205001831e-03 3.271359920501708984e+00 9.786193370819091797e-01 -8.607518672943115234e-02
2.653000000000000000e+03 1.751535987854003906e+01 4.751280784606933594e+00 1.319649666547775269e-01 2.707661628723144531e+00 8.518880009651184082e-01 -1.997233778238296509e-01
2.654000000000000000e+03 1.757936859130859375e+01 5.873144626617431641e+00 2.375396341085433960e-01 2.598059177398681641e+00 8.506796360015869141e-01 -1.742766201496124268e-01
2.655000000000000000e+03 2.658384704589843750e+01 -4.796381950378417969e+00 3.209091663360595703e+00 1.522521972656250000e+00 1.419484019279479980e+00 1.135821789503097534e-01
2.656000000000000000e+03 1.193882369995117188e+01 8.781003952026367188e+00 4.146914482116699219e-01 6.707996726036071777e-01 3.256473243236541748e-01 -5.172672122716903687e-02
2.657000000000000000e+03 1.222452068328857422e+01 1.203012561798095703e+01 4.160245358943939209e-01 9.218305945396423340e-01 4.013565480709075928e-01 -1.379017531871795654e-01
2.658000000000000000e+03 9.457274436950683594e+00 1.039042949676513672e+01 3.473842740058898926e-01 2.997167408466339111e-01 1.941303014755249023e-01 7.322960346937179565e-02
2.659000000000000000e+03 1.433774280548095703e+01 1.197235012054443359e+01 4.424765706062316895e-01 1.407112598419189453e+00 5.548767447471618652e-01 -2.090831398963928223e-01
2.660000000000000000e+03 3.747876358032226562e+01 -9.026587486267089844e+00 -3.361310958862304688e-01 4.420810699462890625e+00 1.225403904914855957e+00 -2.432229280471801758e+00
2.661000000000000000e+03 3.766667175292968750e+01 -8.072859764099121094e+00 -2.176947593688964844e-01 4.529724597930908203e+00 1.293609023094177246e+00 -2.300327301025390625e+00
2.662000000000000000e+03 1.222606277465820312e+01 1.786156082153320312e+01 2.942528128623962402e-01 1.154472708702087402e+00 4.346176385879516602e-01 -2.750170826911926270e-01
2.663000000000000000e+03 2.571042251586914062e+01 -5.577175617218017578e+00 3.383327245712280273e+00 1.179695367813110352e+00 1.368906736373901367e+00 -3.198839724063873291e-02
2.664000000000000000e+03 3.667078018188476562e+01 -7.918031692504882812e+00 -5.317754670977592468e-02 4.145118236541748047e+00 1.227582216262817383e+00 -2.242798089981079102e+00
2.665000000000000000e+03 3.477723312377929688e+01 -6.857473850250244141e+00 4.488771557807922363e-01 3.456725597381591797e+00 1.171680808067321777e+00 -1.901124835014343262e+00
2.666000000000000000e+03 1.024350166320800781e+01 9.415422439575195312e+00 3.699840307235717773e-01 3.617492616176605225e-01 2.195199877023696899e-01 5.957009270787239075e-02
2.667000000000000000e+03 3.555947875976562500e+01 4.425891935825347900e-01 1.244097948074340820e+00 4.846176624298095703e+00 1.827082395553588867e+00 -7.290953993797302246e-01
2.668000000000000000e+03 3.523450851440429688e+01 -1.180245280265808105e+00 1.191674232482910156e+00 4.447535037994384766e+00 1.691762804985046387e+00 -9.002302885055541992e-01
2.669000000000000000e+03 3.425794219970703125e+01 2.333629369735717773e+00 1.548164606094360352e+00 4.864483833312988281e+00 1.923794627189636230e+00 -1.659868210554122925e-01
2.670000000000000000e+03 3.275697708129882812e+01 7.737565994262695312e+00 1.742686510086059570e+00 5.198922634124755859e+00 2.082482576370239258e+00 2.400898039340972900e-01
2.671000000000000000e+03 3.347159576416015625e+01 -4.094437599182128906e+00 1.243340015411376953e+00 3.406276702880859375e+00 1.394884943962097168e+00 -1.173436999320983887e+00
2.672000000000000000e+03 1.032850646972656250e+01 1.036240196228027344e+01 3.736753761768341064e-01 4.365613162517547607e-01 2.430710047483444214e-01 2.337543293833732605e-02
2.673000000000000000e+03 3.265140533447265625e+01 6.477710723876953125e+00 1.736525654792785645e+00 5.026832580566406250e+00 2.029007434844970703e+00 2.901195883750915527e-01
2.674000000000000000e+03 3.464767837524414062e+01 3.570271730422973633e+00 1.560693860054016113e+00 5.168629646301269531e+00 2.018796920776367188e+00 -1.127691194415092468e-01
2.675000000000000000e+03 1.125839138031005859e+01 1.686883544921875000e+01 2.798779606819152832e-01 9.246187210083007812e-01 3.613490164279937744e-01 -2.225438952445983887e-01
2.676000000000000000e+03 1.231518173217773438e+01 2.141271209716796875e+01 1.830406785011291504e-01 1.244014382362365723e+00 4.281165003776550293e-01 -3.468580245971679688e-01
2.677000000000000000e+03 1.125543594360351562e+01 1.011491680145263672e+01 4.018698930740356445e-01 6.139906048774719238e-01 3.047581613063812256e-01 -3.467444702982902527e-02
2.678000000000000000e+03 3.144600486755371094e+01 1.163507938385009766e+01 1.568868517875671387e+00 5.089872360229492188e+00 1.997622251510620117e+00 6.537961214780807495e-02
2.679000000000000000e+03 1.289087867736816406e+01 1.548135566711425781e+01 3.705118000507354736e-01 1.216920137405395508e+00 4.762295782566070557e-01 -2.364876866340637207e-01
2.680000000000000000e+03 3.277489471435546875e+01 -6.488923549652099609e+00 8.638440370559692383e-01 2.798478364944458008e+00 1.098696708679199219e+00 -1.617659926414489746e+00
2.681000000000000000e+03 2.986351966857910156e+01 1.422595500946044922e+01 1.279354453086853027e+00 4.779120922088623047e+00 1.817542552947998047e+00 -9.226662665605545044e-02
2.682000000000000000e+03 3.122673797607421875e+01 -8.844978332519531250e+00 2.954269945621490479e-01 1.968239307403564453e+00 6.790998578071594238e-01 -1.718987107276916504e+00
2.683000000000000000e+03 3.203500366210937500e+01 -5.086117267608642578e+00 1.403732299804687500e+00 2.759754657745361328e+00 1.249046087265014648e+00 -1.171067118644714355e+00
2.684000000000000000e+03 2.863599967956542969e+01 1.398665332794189453e+01 1.202144980430603027e+00 4.490787506103515625e+00 1.707879781723022461e+00 -7.183323800563812256e-02
2.685000000000000000e+03 3.516029357910156250e+01 -5.945913791656494141e+00 5.444421172142028809e-01 3.770972490310668945e+00 1.294624447822570801e+00 -1.791324734687805176e+00
2.686000000000000000e+03 1.956048202514648438e+01 9.640815109014511108e-02 5.635117739439010620e-02 5.757625102996826172e+00 1.744192838668823242e+00 1.354292035102844238e+00
2.687000000000000000e+03 1.968675231933593750e+01 -3.527998030185699463e-01 1.885160654783248901e-01 6.093090534210205078e+00 1.884481906890869141e+00 1.711337327957153320e+00
2.688000000000000000e+03 2.007804679870605469e+01 2.067364901304244995e-01 2.999988198280334473e-01 5.664761543273925781e+00 1.789428114891052246e+00 1.657271504402160645e+00
2.689000000000000000e+03 2.025051879882812500e+01 -5.831149816513061523e-01 6.129317283630371094e-01 6.090230941772460938e+00 2.010948896408081055e+00 2.200517892837524414e+00
2.690000000000000000e+03 2.338278007507324219e+01 -1.141615152359008789e+00 2.946535110473632812e+00 3.757903099060058594e+00 2.011331558227539062e+00 2.626839160919189453e+00
2.691000000000000000e+03 2.199633979797363281e+01 -1.157423201948404312e-02 1.508363008499145508e+00 4.920404911041259766e+00 1.928630352020263672e+00 2.441703557968139648e+00
2.692000000000000000e+03 2.435233116149902344e+01 -2.715188980102539062e+00 3.965715169906616211e+00 2.514522790908813477e+00 1.944071412086486816e+00 1.965015172958374023e+00
2.693000000000000000e+03 2.045521545410156250e+01 3.478461876511573792e-02 5.363251566886901855e-01 5.682485103607177734e+00 1.865643024444580078e+00 1.948044538497924805e+00
2.694000000000000000e+03 1.834008598327636719e+01 7.736802577972412109e+00 3.747807443141937256e-01 2.676316976547241211e+00 9.153293371200561523e-01 -1.038230061531066895e-01
2.695000000000000000e+03 1.367576980590820312e+01 1.247850036621093750e+01 4.302010536193847656e-01 1.275880694389343262e+00 5.118245482444763184e-01 -2.002778798341751099e-01
2.696000000000000000e+03 1.668350410461425781e+01 8.283098220825195312e+00 3.961799144744873047e-01 2.090379714965820312e+00 7.459678649902343750e-01 -2.103718072175979614e-01
2.697000000000000000e+03 1.137093067169189453e+01 1.110770511627197266e+01 4.005036056041717529e-01 6.983994841575622559e-01 3.296709358692169189e-01 -6.356289982795715332e-02
2.698000000000000000e+03 1.300145053863525391e+01 1.295140647888183594e+01 4.150514006614685059e-01 1.137439131736755371e+00 4.657471477985382080e-01 -1.788935363292694092e-01
2.699000000000000000e+03 1.856906509399414062e+01 3.215600967407226562e+00 -1.006222143769264221e-02 3.613340616226196289e+00 1.080983519554138184e+00 6.592574715614318848e-02
2.700000000000000000e+03 1.905968475341796875e+01 4.227526664733886719e+00 1.159564331173896790e-01 3.548890829086303711e+00 1.099454164505004883e+00 1.438681483268737793e-01
2.701000000000000000e+03 1.804603767395019531e+01 5.376866817474365234e+00 1.939022690057754517e-01 2.860452890396118164e+00 9.163065552711486816e-01 -1.125007271766662598e-01
2.702000000000000000e+03 1.514860630035400391e+01 1.095950031280517578e+01 4.571228027343750000e-01 1.605518341064453125e+00 6.187923550605773926e-01 -2.199294120073318481e-01
2.703000000000000000e+03 3.383334732055664062e+01 -6.677039623260498047e+00 6.012319326400756836e-01 3.184746265411376953e+00 1.135793447494506836e+00 -1.787828803062438965e+00
2.704000000000000000e+03 2.838867378234863281e+01 -4.794049263000488281e+00 2.447981595993041992e+00 1.720768809318542480e+00 1.250625133514404297e+00 -4.233943819999694824e-01
2.705000000000000000e+03 1.226363658905029297e+01 1.097056865692138672e+01 4.265217185020446777e-01 8.814920186996459961e-01 3.924041092395782471e-01 -1.241449341177940369e-01
2.706000000000000000e+03 3.567700576782226562e+01 -6.778712749481201172e+00 3.020758926868438721e-01 3.885937213897705078e+00 1.256403923034667969e+00 -1.978447675704956055e+00
2.707000000000000000e+03 3.520281219482421875e+01 -3.085872411727905273e+00 1.009166002273559570e+00 4.102510452270507812e+00 1.533502936363220215e+00 -1.263217687606811523e+00
2.708000000000000000e+03 3.370032501220703125e+01 5.076003074645996094e+00 1.696137309074401855e+00 5.125114917755126953e+00 2.046375751495361328e+00 1.403166204690933228e-01
2.709000000000000000e+03 3.315109634399414062e+01 2.585255146026611328e+00 1.672348141670227051e+00 4.600114345550537109e+00 1.881738781929016113e+00 4.854627698659896851e-02
2.710000000000000000e+03 3.531149673461914062e+01 1.974221348762512207e+00 1.391760110855102539e+00 5.045173168182373047e+00 1.931079983711242676e+00 -4.376457333564758301e-01
2.711000000000000000e+03 2.519380569458007812e+01 -2.653595209121704102e+00 3.682320833206176758e+00 2.308809280395507812e+00 1.797339081764221191e+00 1.561099171638488770e+00
2.712000000000000000e+03 3.474573135375976562e+01 -1.581422835588455200e-01 1.356132864952087402e+00 4.465967655181884766e+00 1.746630191802978516e+00 -6.420916318893432617e-01
2.713000000000000000e+03 2.744278144836425781e+01 -3.859198093414306641e+00 2.988318443298339844e+00 1.826842784881591797e+00 1.444548368453979492e+00 2.322488129138946533e-01
2.714000000000000000e+03 3.459597396850585938e+01 -4.329847335815429688e+00 9.619194865226745605e-01 3.753898382186889648e+00 1.414745330810546875e+00 -1.394634366035461426e+00
2.715000000000000000e+03 1.296687316894531250e+01 1.672591018676757812e+01 3.241896033287048340e-01 1.265059590339660645e+00 4.767747521400451660e-01 -2.730913162231445312e-01
2.716000000000000000e+03 3.390818023681640625e+01 6.364749431610107422e+00 1.731665372848510742e+00 5.377238273620605469e+00 2.132671117782592773e+00 1.461702287197113037e-01
2.717000000000000000e+03 3.673419952392578125e+01 -6.698743820190429688e+00 1.620954871177673340e-01 4.244626998901367188e+00 1.322016716003417969e+00 -2.055658578872680664e+00
2.718000000000000000e+03 2.671099281311035156e+01 -5.735819339752197266e+00 2.860816955566406250e+00 1.230049252510070801e+00 1.227259874343872070e+00 -3.612079620361328125e-01
2.719000000000000000e+03 3.043303680419921875e+01 -5.868297100067138672e+00 1.606589674949645996e+00 2.130040645599365234e+00 1.120989084243774414e+00 -1.097003936767578125e+00
2.720000000000000000e+03 3.129029464721679688e+01 5.377107620239257812e+00 1.724710106849670410e+00 4.590974807739257812e+00 1.894705414772033691e+00 4.666924476623535156e-01
2.721000000000000000e+03 3.126152801513671875e+01 -7.511562824249267578e+00 7.993134856224060059e-01 2.131923675537109375e+00 8.793711662292480469e-01 -1.595499873161315918e+00
2.722000000000000000e+03 1.391431045532226562e+01 1.496383762359619141e+01 4.007996618747711182e-01 1.400173306465148926e+00 5.402918457984924316e-01 -2.635596990585327148e-01
2.723000000000000000e+03 1.448762226104736328e+01 1.853652191162109375e+01 3.024575710296630859e-01 1.586292862892150879e+00 5.666251182556152344e-01 -3.372072279453277588e-01
2.724000000000000000e+03 2.865480613708496094e+01 1.279072189331054688e+01 1.273110508918762207e+00 4.503555774688720703e+00 1.732999801635742188e+00 3.358763456344604492e-02
2.725000000000000000e+03 2.870656585693359375e+01 1.149175548553466797e+01 1.319644689559936523e+00 4.485744953155517578e+00 1.741616964340209961e+00 1.497443765401840210e-01
2.726000000000000000e+03 2.854528999328613281e+01 -6.402077198028564453e+00 1.890331864356994629e+00 1.450618624687194824e+00 1.002285122871398926e+00 -9.687094688415527344e-01
2.727000000000000000e+03 1.335133743286132812e+01 1.390230751037597656e+01 4.157214164733886719e-01 1.246348142623901367e+00 4.986208677291870117e-01 -2.178769260644912720e-01
2.728000000000000000e+03 1.211672401428222656e+01 1.315496826171875000e+01 3.979853987693786621e-01 9.615340828895568848e-01 4.078558385372161865e-01 -1.554677933454513550e-01
2.729000000000000000e+03 2.266598320007324219e+01 4.441467523574829102e-01 1.577168464660644531e+00 4.534235477447509766e+00 1.833421111106872559e+00 2.227679729461669922e+00
2.730000000000000000e+03 2.094684410095214844e+01 3.099837005138397217e-01 7.892740964889526367e-01 5.378396034240722656e+00 1.850301146507263184e+00 2.035784959793090820e+00
2.731000000000000000e+03 2.385087776184082031e+01 2.998235821723937988e-01 2.123021841049194336e+00 3.968496799468994141e+00 1.827455639839172363e+00 2.182822942733764648e+00
2.732000000000000000e+03 1.970108413696289062e+01 4.569489479064941406e+00 2.083051651716232300e-01 3.624533891677856445e+00 1.149851679801940918e+00 2.592850923538208008e-01
2.733000000000000000e+03 1.895541191101074219e+01 2.472522258758544922e+00 -7.118668407201766968e-02 4.062865257263183594e+00 1.197503566741943359e+00 2.559483349323272705e-01
2.734000000000000000e+03 1.922668838500976562e+01 1.546843528747558594e+00 -1.184573918581008911e-01 4.620586872100830078e+00 1.350638866424560547e+00 5.229895114898681641e-01
2.735000000000000000e+03 2.429254150390625000e+01 -1.078914165496826172e+00 2.963220357894897461e+00 3.381932497024536133e+00 1.903545856475830078e+00 2.259825229644775391e+00
2.736000000000000000e+03 2.455979728698730469e+01 -1.982992440462112427e-01 2.485577106475830078e+00 3.578789234161376953e+00 1.819309949874877930e+00 2.081168174743652344e+00
2.737000000000000000e+03 2.514772987365722656e+01 -1.205423116683959961e+00 3.034379720687866211e+00 2.984324216842651367e+00 1.805611133575439453e+00 1.856022238731384277e+00
2.738000000000000000e+03 1.621283531188964844e+01 1.011338901519775391e+01 4.501938819885253906e-01 1.895875215530395508e+00 7.038207054138183594e-01 -2.287774980068206787e-01
2.739000000000000000e+03 3.288983154296875000e+01 -2.351839780807495117e+00 1.554638862609863281e+00 3.588206529617309570e+00 1.542853593826293945e+00 -6.795906424522399902e-01
2.740000000000000000e+03 2.628756904602050781e+01 -3.182373523712158203e+00 3.414001703262329102e+00 2.016036272048950195e+00 1.629011392593383789e+00 9.215250611305236816e-01
2.741000000000000000e+03 2.509998321533203125e+01 -1.944792151451110840e+00 3.363761663436889648e+00 2.716687440872192383e+00 1.824134707450866699e+00 1.794640898704528809e+00
2.742000000000000000e+03 1.770149612426757812e+01 7.056803703308105469e+00 3.264003396034240723e-01 2.533443212509155273e+00 8.579530715942382812e-01 -1.547808200120925903e-01
2.743000000000000000e+03 1.776548957824707031e+01 8.154988288879394531e+00 3.858572244644165039e-01 2.468900203704833984e+00 8.564271926879882812e-01 -1.608566343784332275e-01
2.744000000000000000e+03 1.972124862670898438e+01 1.898988485336303711e+00 8.353204466402530670e-03 4.612119674682617188e+00 1.386141896247863770e+00 7.043986320495605469e-01
2.745000000000000000e+03 1.304537296295166016e+01 1.202997779846191406e+01 4.223819673061370850e-01 1.113312482833862305e+00 4.607083499431610107e-01 -1.661035865545272827e-01
2.746000000000000000e+03 1.824544143676757812e+01 6.534621238708496094e+00 2.941951155662536621e-01 2.779533863067626953e+00 9.221187233924865723e-01 -9.525684267282485962e-02
2.747000000000000000e+03 1.923349952697753906e+01 3.550042390823364258e+00 8.228674530982971191e-02 3.775776863098144531e+00 1.157419085502624512e+00 2.402997612953186035e-01
2.748000000000000000e+03 1.843551063537597656e+01 4.898776531219482422e+00 1.485077738761901855e-01 3.097227334976196289e+00 9.737205505371093750e-01 -4.617336019873619080e-02
2.749000000000000000e+03 3.390355300903320312e+01 1.109519720077514648e+00 1.533958196640014648e+00 4.532028675079345703e+00 1.819796085357666016e+00 -2.761942148208618164e-01
2.750000000000000000e+03 1.217860507965087891e+01 9.875086784362792969e+00 4.236413240432739258e-01 7.883009910583496094e-01 3.635827004909515381e-01 -8.798663318157196045e-02
2.751000000000000000e+03 1.319262790679931641e+01 1.093971633911132812e+01 4.363142848014831543e-01 1.103860020637512207e+00 4.620522856712341309e-01 -1.630314737558364868e-01
2.752000000000000000e+03 2.732947921752929688e+01 -2.997770547866821289e+00 3.005418539047241211e+00 2.118319272994995117e+00 1.537121415138244629e+00 5.559905171394348145e-01
2.753000000000000000e+03 3.161804389953613281e+01 -6.249172687530517578e+00 1.180568695068359375e+00 2.431880235671997070e+00 1.083734750747680664e+00 -1.399643301963806152e+00
2.754000000000000000e+03 3.483432769775390625e+01 8.996375799179077148e-01 1.423226952552795410e+00 4.708391666412353516e+00 1.839485645294189453e+00 -4.644349217414855957e-01
2.755000000000000000e+03 3.337609481811523438e+01 -1.434637665748596191e+00 1.518115639686584473e+00 3.872400283813476562e+00 1.617154717445373535e+00 -6.003775000572204590e-01
2.756000000000000000e+03 3.369837570190429688e+01 -1.877280026674270630e-01 1.520241856575012207e+00 4.200918197631835938e+00 1.716348052024841309e+00 -4.534482061862945557e-01
2.757000000000000000e+03 3.247574234008789062e+01 5.233606815338134766e+00 1.726613283157348633e+00 4.853463172912597656e+00 1.974022984504699707e+00 3.163404464721679688e-01
2.758000000000000000e+03 1.485112094879150391e+01 1.416962146759033203e+01 4.489326775074005127e-01 1.595387935638427734e+00 6.132962107658386230e-01 -2.546080350875854492e-01
2.759000000000000000e+03 1.418798446655273438e+01 1.332372951507568359e+01 4.416719675064086914e-01 1.434855818748474121e+00 5.629583001136779785e-01 -2.296285331249237061e-01
2.760000000000000000e+03 1.529302883148193359e+01 1.675554656982421875e+01 3.827931880950927734e-01 1.737597107887268066e+00 6.361171007156372070e-01 -3.187574148178100586e-01
2.761000000000000000e+03 2.645419502258300781e+01 -3.958275794982910156e+00 3.361347913742065430e+00 1.733828663825988770e+00 1.528553009033203125e+00 4.897848069667816162e-01
2.762000000000000000e+03 1.526255989074707031e+01 2.011808204650878906e+01 2.726625800132751465e-01 1.794480681419372559e+00 6.201429963111877441e-01 -3.863389194011688232e-01
2.763000000000000000e+03 1.380263805389404297e+01 2.083936691284179688e+01 2.208634614944458008e-01 1.522469401359558105e+00 5.229998826980590820e-01 -3.692752420902252197e-01
2.764000000000000000e+03 3.020321273803710938e+01 7.657778739929199219e+00 1.618662118911743164e+00 4.628836631774902344e+00 1.874249696731567383e+00 4.430016875267028809e-01
2.765000000000000000e+03 3.013630867004394531e+01 8.917775154113769531e+00 1.564346909523010254e+00 4.677854061126708984e+00 1.872660279273986816e+00 3.649013638496398926e-01
2.766000000000000000e+03 2.948793220520019531e+01 1.561514854431152344e+01 1.140135765075683594e+00 4.675178050994873047e+00 1.744594216346740723e+00 -2.052208185195922852e-01
2.767000000000000000e+03 3.187854003906250000e+01 -2.887791395187377930e+00 1.727356672286987305e+00 3.115134954452514648e+00 1.452747464179992676e+00 -6.503496170043945312e-01
2.768000000000000000e+03 2.774633979797363281e+01 -5.538791179656982422e+00 2.532282352447509766e+00 1.438998460769653320e+00 1.191384315490722656e+00 -5.460455417633056641e-01
2.769000000000000000e+03 2.934279441833496094e+01 -5.293852329254150391e+00 2.038735866546630859e+00 1.937826275825500488e+00 1.192968606948852539e+00 -7.464061379432678223e-01
2.770000000000000000e+03 2.830512809753417969e+01 1.503061389923095703e+01 1.084130883216857910e+00 4.416563987731933594e+00 1.650208473205566406e+00 -1.669832020998001099e-01
2.771000000000000000e+03 3.147554588317871094e+01 7.746958255767822266e+00 1.692564845085144043e+00 4.878292083740234375e+00 1.971256971359252930e+00 3.551945686340332031e-01
2.772000000000000000e+03 2.923078918457031250e+01 1.960409736633300781e+01 7.542967796325683594e-01 4.649330139160156250e+00 1.621088147163391113e+00 -4.301041662693023682e-01
2.773000000000000000e+03 2.659920501708984375e+01 1.971436119079589844e+01 6.300761103630065918e-01 4.062255382537841797e+00 1.407699465751647949e+00 -4.545466899871826172e-01
2.774000000000000000e+03 2.007752990722656250e+01 7.260140776634216309e-01 2.221022546291351318e-01 5.369324684143066406e+00 1.677428007125854492e+00 1.399704337120056152e+00
2.775000000000000000e+03 2.160770416259765625e+01 6.359438896179199219e-01 1.002711534500122070e+00 4.989474773406982422e+00 1.797655940055847168e+00 2.035909652709960938e+00
2.776000000000000000e+03 1.956569480895996094e+01 2.533684253692626953e+00 1.856658980250358582e-02 4.273571014404296875e+00 1.287641286849975586e+00 5.025210976600646973e-01
2.777000000000000000e+03 2.331325721740722656e+01 9.910067915916442871e-01 1.584231972694396973e+00 4.302155971527099609e+00 1.765916466712951660e+00 2.033195972442626953e+00
2.778000000000000000e+03 2.392956352233886719e+01 1.611570000648498535e+00 1.584917306900024414e+00 4.115284919738769531e+00 1.710060715675354004e+00 1.808312296867370605e+00
2.779000000000000000e+03 2.535776519775390625e+01 -4.619237482547760010e-01 2.710960865020751953e+00 3.242872714996337891e+00 1.786149978637695312e+00 1.839740395545959473e+00
2.780000000000000000e+03 2.142429733276367188e+01 2.207046985626220703e+00 5.342841148376464844e-01 4.623665332794189453e+00 1.547384858131408691e+00 1.316072702407836914e+00
2.781000000000000000e+03 2.583402442932128906e+01 -1.950198531150817871e+00 3.255761623382568359e+00 2.544889688491821289e+00 1.740195393562316895e+00 1.479008913040161133e+00
2.782000000000000000e+03 2.591590881347656250e+01 -1.327973604202270508e+00 3.013675689697265625e+00 2.802652835845947266e+00 1.744898557662963867e+00 1.545608043670654297e+00
2.783000000000000000e+03 1.903204917907714844e+01 3.075962543487548828e+00 -1.426592096686363220e-02 3.860565423965454102e+00 1.153889775276184082e+00 2.246635109186172485e-01
2.784000000000000000e+03 1.994009971618652344e+01 1.312631726264953613e+00 7.010156661272048950e-02 5.021464824676513672e+00 1.527469873428344727e+00 1.029743552207946777e+00
2.785000000000000000e+03 1.715508842468261719e+01 1.138095664978027344e+01 4.711457788944244385e-01 2.126685142517089844e+00 7.793492674827575684e-01 -2.240891754627227783e-01
2.786000000000000000e+03 3.003595161437988281e+01 -4.254103183746337891e+00 2.044220209121704102e+00 2.305385589599609375e+00 1.304881811141967773e+00 -5.910908579826354980e-01
2.787000000000000000e+03 1.810709190368652344e+01 8.765816688537597656e+00 4.183685183525085449e-01 2.538125991821289062e+00 8.869483470916748047e-01 -1.345647275447845459e-01
2.788000000000000000e+03 1.728993225097656250e+01 9.441181182861328125e+00 4.415984749794006348e-01 2.238798856735229492e+00 8.041192293167114258e-01 -1.901508271694183350e-01
2.789000000000000000e+03 2.031265830993652344e+01 2.143002748489379883e+00 1.847203224897384644e-01 4.603431701660156250e+00 1.436445593833923340e+00 9.123996496200561523e-01
2.790000000000000000e+03 1.908119201660156250e+01 5.336975097656250000e+00 2.274874597787857056e-01 3.275191068649291992e+00 1.050803542137145996e+00 8.545121550559997559e-02
2.791000000000000000e+03 1.873560905456542969e+01 4.484437465667724609e+00 1.430064290761947632e-01 3.296276092529296875e+00 1.031784772872924805e+00 5.011238157749176025e-02
2.792000000000000000e+03 2.750053977966308594e+01 -4.701996326446533203e+00 2.909167766571044922e+00 1.614772319793701172e+00 1.357182025909423828e+00 -7.265421748161315918e-02
2.793000000000000000e+03 3.098217964172363281e+01 -4.744804382324218750e+00 1.712578654289245605e+00 2.499329805374145508e+00 1.263572573661804199e+00 -9.008238315582275391e-01
2.794000000000000000e+03 3.240285110473632812e+01 -4.018327713012695312e+00 1.502918481826782227e+00 3.039680957794189453e+00 1.362779855728149414e+00 -9.900234937667846680e-01
2.795000000000000000e+03 3.178300666809082031e+01 1.558054089546203613e+00 1.822722077369689941e+00 4.071400165557861328e+00 1.768236637115478516e+00 2.040293514728546143e-01
2.796000000000000000e+03 3.286590957641601562e+01 1.336304545402526855e+00 1.691353201866149902e+00 4.299853324890136719e+00 1.797361969947814941e+00 -4.586964100599288940e-02
2.797000000000000000e+03 1.581249046325683594e+01 1.795247268676757812e+01 3.557722270488739014e-01 1.860237956047058105e+00 6.648030877113342285e-01 -3.588814735412597656e-01
2.798000000000000000e+03 1.616670036315917969e+01 2.173251914978027344e+01 2.243272513151168823e-01 2.008950948715209961e+00 6.699835062026977539e-01 -4.368375539779663086e-01
2.799000000000000000e+03 3.311996459960937500e+01 -5.309430122375488281e+00 1.077233791351318359e+00 3.101794004440307617e+00 1.253708362579345703e+00 -1.418831467628479004e+00
2.800000000000000000e+03 1.416815948486328125e+01 1.701050949096679688e+01 3.500683009624481201e-01 1.483894467353820801e+00 5.501888394355773926e-01 -3.054897189140319824e-01
2.801000000000000000e+03 1.560904216766357422e+01 1.506044197082519531e+01 4.286664724349975586e-01 1.760560631752014160e+00 6.567681431770324707e-01 -2.806512415409088135e-01
2.802000000000000000e+03 2.737416648864746094e+01 1.147023868560791016e+01 1.187164783477783203e+00 4.235479354858398438e+00 1.626793265342712402e+00 1.677664816379547119e-01
2.803000000000000000e+03 2.883412933349609375e+01 8.802945137023925781e+00 1.435480117797851562e+00 4.449323177337646484e+00 1.765440940856933594e+00 4.180623888969421387e-01
2.804000000000000000e+03 3.010544776916503906e+01 1.022712421417236328e+01 1.506852030754089355e+00 4.735715389251708984e+00 1.872770190238952637e+00 2.361632734537124634e-01
2.805000000000000000e+03 2.877414131164550781e+01 1.016362476348876953e+01 1.386966466903686523e+00 4.472066879272460938e+00 1.757709980010986328e+00 2.921312153339385986e-01
2.806000000000000000e+03 1.448467922210693359e+01 2.258118820190429688e+01 1.646707355976104736e-01 1.701079130172729492e+00 5.597249269485473633e-01 -4.116423130035400391e-01
2.807000000000000000e+03 2.532938575744628906e+01 1.414568996429443359e+01 9.158688187599182129e-01 3.845103979110717773e+00 1.428291797637939453e+00 -1.034191697835922241e-01
2.808000000000000000e+03 2.783441734313964844e+01 1.840549468994140625e+01 8.046470284461975098e-01 4.325967311859130859e+00 1.539184212684631348e+00 -3.705265820026397705e-01
2.809000000000000000e+03 2.755635833740234375e+01 1.609113883972167969e+01 9.779153466224670410e-01 4.271524906158447266e+00 1.574832081794738770e+00 -2.323779463768005371e-01
2.810000000000000000e+03 1.721430778503417969e+01 1.036256217956542969e+01 4.727875888347625732e-01 2.186287879943847656e+00 7.977226376533508301e-01 -2.051462382078170776e-01
2.811000000000000000e+03 1.483283901214599609e+01 1.269872283935546875e+01 4.478803575038909912e-01 1.554882884025573730e+00 6.008289456367492676e-01 -2.307509481906890869e-01
2.812000000000000000e+03 1.655668067932128906e+01 1.421345043182373047e+01 4.744886755943298340e-01 1.989220738410949707e+00 7.391128540039062500e-01 -2.677065432071685791e-01
2.813000000000000000e+03 2.224045944213867188e+01 1.113164186477661133e+00 1.122000694274902344e+00 4.679710865020751953e+00 1.740513563156127930e+00 1.937869906425476074e+00
2.814000000000000000e+03 2.445051574707031250e+01 1.027229309082031250e+00 1.901330828666687012e+00 3.886570692062377930e+00 1.736370444297790527e+00 1.853987097740173340e+00
2.815000000000000000e+03 1.949795532226562500e+01 3.164421558380126953e+00 6.180173158645629883e-02 3.989024877548217773e+00 1.215247988700866699e+00 3.645219504833221436e-01
2.816000000000000000e+03 2.128896903991699219e+01 1.256698012351989746e+00 6.419446468353271484e-01 4.939578056335449219e+00 1.674456834793090820e+00 1.657522678375244141e+00
2.817000000000000000e+03 2.068770217895507812e+01 9.216876626014709473e-01 4.451775550842285156e-01 5.196181297302246094e+00 1.692407608032226562e+00 1.585649728775024414e+00
2.818000000000000000e+03 1.882582664489746094e+01 8.535903930664062500e+00 4.211085736751556396e-01 2.759966850280761719e+00 9.543225765228271484e-01 -8.855395764112472534e-02
2.819000000000000000e+03 1.605564117431640625e+01 1.229230022430419922e+01 4.604577124118804932e-01 1.855926513671875000e+00 6.949152946472167969e-01 -2.450105100870132446e-01
2.820000000000000000e+03 1.512645721435546875e+01 1.195043373107910156e+01 4.502336382865905762e-01 1.603903532028198242e+00 6.162411570549011230e-01 -2.313044369220733643e-01
2.821000000000000000e+03 1.613691329956054688e+01 1.116704654693603516e+01 4.667185246944427490e-01 1.879056692123413086e+00 7.037325501441955566e-01 -2.352639436721801758e-01
2.822000000000000000e+03 2.679553222656250000e+01 -8.489552736282348633e-01 2.736495971679687500e+00 2.914886236190795898e+00 1.695414662361145020e+00 1.276766300201416016e+00
2.823000000000000000e+03 2.284168052673339844e+01 1.665310382843017578e+00 1.192793846130371094e+00 4.425524711608886719e+00 1.685495615005493164e+00 1.774018287658691406e+00
2.824000000000000000e+03 1.899720573425292969e+01 7.249619960784912109e+00 3.596787750720977783e-01 2.952278137207031250e+00 9.935870766639709473e-01 -1.691305637359619141e-02
2.825000000000000000e+03 2.939649963378906250e+01 -3.611951589584350586e+00 2.318523645401000977e+00 2.305971622467041016e+00 1.387348651885986328e+00 -2.808354794979095459e-01
2.826000000000000000e+03 2.939441680908203125e+01 -1.371207088232040405e-01 2.254679918289184570e+00 3.241258621215820312e+00 1.648781657218933105e+00 5.563573241233825684e-01
2.827000000000000000e+03 2.023310089111328125e+01 5.016619682312011719e+00 2.799606323242187500e-01 3.675462722778320312e+00 1.186627030372619629e+00 3.315725326538085938e-01
2.828000000000000000e+03 2.004468536376953125e+01 3.416536808013916016e+00 1.693557202816009521e-01 4.078959941864013672e+00 1.274494647979736328e+00 5.171923637390136719e-01
2.829000000000000000e+03 3.344869232177734375e+01 -2.992250204086303711e+00 1.368682742118835449e+00 3.575165510177612305e+00 1.483154416084289551e+00 -9.623998999595642090e-01
2.830000000000000000e+03 1.698180770874023438e+01 1.721649360656738281e+01 4.145443439483642578e-01 2.095540285110473633e+00 7.530253529548645020e-01 -3.509294092655181885e-01
2.831000000000000000e+03 3.133178901672363281e+01 -8.725847601890563965e-01 1.942430138587951660e+00 3.406227350234985352e+00 1.604597210884094238e+00 -7.966625690460205078e-02
2.832000000000000000e+03 2.750572776794433594e+01 1.011425495147705078e+01 1.254550099372863770e+00 4.262336730957031250e+00 1.655066132545471191e+00 3.024743795394897461e-01
2.833000000000000000e+03 2.892334747314453125e+01 7.389923572540283203e+00 1.522628903388977051e+00 4.384936809539794922e+00 1.772269725799560547e+00 5.686361789703369141e-01
2.834000000000000000e+03 3.032666587829589844e+01 6.551158905029296875e+00 1.643093824386596680e+00 4.564888954162597656e+00 1.862394928932189941e+00 5.117388367652893066e-01
2.835000000000000000e+03 1.564249992370605469e+01 1.332842063903808594e+01 4.632605612277984619e-01 1.764978647232055664e+00 6.684717535972595215e-01 -2.521983385086059570e-01
2.836000000000000000e+03 2.932783889770507812e+01 6.190974235534667969e+00 1.600826740264892578e+00 4.360736846923828125e+00 1.788469076156616211e+00 6.216615438461303711e-01
2.837000000000000000e+03 3.200630950927734375e+01 2.793558120727539062e+00 1.774370670318603516e+00 4.377179622650146484e+00 1.845465064048767090e+00 2.729181349277496338e-01
2.838000000000000000e+03 2.423357200622558594e+01 9.843288421630859375e+00 9.199839830398559570e-01 3.786916494369506836e+00 1.412070155143737793e+00 2.722295820713043213e-01
2.839000000000000000e+03 2.631174278259277344e+01 1.006296730041503906e+01 1.121425151824951172e+00 4.080907821655273438e+00 1.560699820518493652e+00 3.089967370033264160e-01
2.840000000000000000e+03 2.582180213928222656e+01 1.277595233917236328e+01 9.943006038665771484e-01 3.956786155700683594e+00 1.485326051712036133e+00 1.165800727903842926e-02
2.841000000000000000e+03 2.836955833435058594e+01 -2.920596361160278320e+00 2.681107759475708008e+00 2.298162460327148438e+00 1.493781089782714844e+00 2.644972503185272217e-01
2.842000000000000000e+03 3.067629241943359375e+01 -3.290826082229614258e+00 1.988386869430541992e+00 2.752232313156127930e+00 1.422185778617858887e+00 -4.505394101142883301e-01
2.843000000000000000e+03 1.659706306457519531e+01 1.929083442687988281e+01 3.167828917503356934e-01 2.033624410629272461e+00 7.051221728324890137e-01 -3.934986293315887451e-01
2.844000000000000000e+03 2.976705169677734375e+01 -1.509781956672668457e+00 2.318028688430786133e+00 2.923481702804565430e+00 1.572453141212463379e+00 2.191237509250640869e-01
2.845000000000000000e+03 3.261730957031250000e+01 -3.103470087051391602e+00 1.556255459785461426e+00 3.255152225494384766e+00 1.443422317504882812e+00 -8.283885121345520020e-01
2.846000000000000000e+03 3.102318382263183594e+01 4.199335575103759766e+00 1.781285643577575684e+00 4.397227287292480469e+00 1.853553891181945801e+00 5.001948475837707520e-01
2.847000000000000000e+03 3.068224334716796875e+01 1.752960085868835449e+00 1.907869219779968262e+00 3.925001859664916992e+00 1.749861359596252441e+00 4.523005783557891846e-01
2.848000000000000000e+03 3.260343551635742188e+01 8.099874109029769897e-02 1.716239690780639648e+00 3.944912910461425781e+00 1.698345780372619629e+00 -1.796394288539886475e-01
2.849000000000000000e+03 2.548553657531738281e+01 1.839884567260742188e+01 6.747103929519653320e-01 3.831426382064819336e+00 1.351840972900390625e+00 -3.830180168151855469e-01
2.850000000000000000e+03 2.101053619384765625e+01 1.787556886672973633e+00 4.331283569335937500e-01 4.817831993103027344e+00 1.575288176536560059e+00 1.336485266685485840e+00
2.851000000000000000e+03 2.409411621093750000e+01 2.887002944946289062e+00 1.299413800239562988e+00 4.126250743865966797e+00 1.627699375152587891e+00 1.468289852142333984e+00
2.852000000000000000e+03 1.985940742492675781e+01 5.743153572082519531e+00 3.155399858951568604e-01 3.450585603713989258e+00 1.129837632179260254e+00 2.060135453939437866e-01
2.853000000000000000e+03 2.504615974426269531e+01 5.825714468955993652e-01 2.175444364547729492e+00 3.673968553543090820e+00 1.754823923110961914e+00 1.836392045021057129e+00
2.854000000000000000e+03 2.619968605041503906e+01 2.613291025161743164e+00 1.739538669586181641e+00 3.839317321777343750e+00 1.673656821250915527e+00 1.320749878883361816e+00
2.855000000000000000e+03 2.501368331909179688e+01 1.684073448181152344e+00 1.787519693374633789e+00 3.879237174987792969e+00 1.700027108192443848e+00 1.646918058395385742e+00
2.856000000000000000e+03 2.090390777587890625e+01 2.341700315475463867e+00 3.672636449337005615e-01 4.599717617034912109e+00 1.490094423294067383e+00 1.102773904800415039e+00
2.857000000000000000e+03 2.183968353271484375e+01 1.711400985717773438e+00 7.920934557914733887e-01 4.678297996520996094e+00 1.641117453575134277e+00 1.609542727470397949e+00
2.858000000000000000e+03 2.724851417541503906e+01 -1.621871471405029297e+00 2.843094348907470703e+00 2.658513069152832031e+00 1.650482177734375000e+00 1.013009071350097656e+00
2.859000000000000000e+03 1.993509483337402344e+01 4.058169841766357422e+00 1.886321008205413818e-01 3.840839624404907227e+00 1.208841562271118164e+00 3.854053616523742676e-01
2.860000000000000000e+03 2.082181358337402344e+01 2.984498739242553711e+00 3.298013210296630859e-01 4.371899127960205078e+00 1.410510182380676270e+00 8.936294913291931152e-01
2.861000000000000000e+03 2.018289756774902344e+01 2.765407323837280273e+00 1.569714993238449097e-01 4.378857612609863281e+00 1.360748767852783203e+00 7.187694311141967773e-01
2.862000000000000000e+03 2.190446090698242188e+01 1.108880996704101562e+01 6.766122579574584961e-01 3.285412073135375977e+00 1.188607335090637207e+00 6.024905014783143997e-03
2.863000000000000000e+03 1.820698928833007812e+01 9.566293716430664062e+00 4.639125764369964600e-01 2.520852565765380859e+00 8.954294919967651367e-01 -1.455633789300918579e-01
2.864000000000000000e+03 1.823785400390625000e+01 1.158663845062255859e+01 5.072734951972961426e-01 2.434635877609252930e+00 8.825727701187133789e-01 -1.947712600231170654e-01
2.865000000000000000e+03 3.146623611450195312e+01 -3.740152359008789062e+00 1.745022535324096680e+00 2.838088274002075195e+00 1.374933242797851562e+00 -7.595398426055908203e-01
2.866000000000000000e+03 2.847460746765136719e+01 -3.845077514648437500e+00 2.592341661453247070e+00 2.001070261001586914e+00 1.378023505210876465e+00 -1.078643798828125000e-01
2.867000000000000000e+03 2.610156250000000000e+01 -6.652303934097290039e-01 2.747215032577514648e+00 3.004603147506713867e+00 1.725545525550842285e+00 1.520061135292053223e+00
2.868000000000000000e+03 1.748724174499511719e+01 1.347269725799560547e+01 4.827865660190582275e-01 2.196484565734863281e+00 8.037813305854797363e-01 -2.571672201156616211e-01
2.869000000000000000e+03 3.230334091186523438e+01 -1.119097948074340820e+00 1.741442918777465820e+00 3.670304536819458008e+00 1.623524308204650879e+00 -3.057856857776641846e-01
2.870000000000000000e+03 3.153134727478027344e+01 3.051534593105316162e-01 1.886607408523559570e+00 3.761409997940063477e+00 1.694405198097229004e+00 9.183324873447418213e-02
2.871000000000000000e+03 3.080598640441894531e+01 2.977615356445312500e+00 1.843286275863647461e+00 4.156038761138916016e+00 1.799797534942626953e+00 4.882518351078033447e-01
2.872000000000000000e+03 2.865571403503417969e+01 -1.190610885620117188e+00 2.483582735061645508e+00 2.860803127288818359e+00 1.603315830230712891e+00 5.837675333023071289e-01
2.873000000000000000e+03 2.769548988342285156e+01 -4.198065102100372314e-01 2.512531995773315430e+00 3.048388242721557617e+00 1.668276071548461914e+00 1.022671103477478027e+00
2.874000000000000000e+03 2.660884094238281250e+01 -1.482030034065246582e+00 2.921521186828613281e+00 2.654089212417602539e+00 1.672683119773864746e+00 1.196413159370422363e+00
2.875000000000000000e+03 2.759196090698242188e+01 8.732651710510253906e+00 1.318063259124755859e+00 4.262476921081542969e+00 1.674162030220031738e+00 4.597387313842773438e-01
2.876000000000000000e+03 2.761865043640136719e+01 7.270459175109863281e+00 1.386865019798278809e+00 4.238487720489501953e+00 1.687605857849121094e+00 6.298659443855285645e-01
2.877000000000000000e+03 2.735965156555175781e+01 5.849986076354980469e+00 1.440656423568725586e+00 4.144854545593261719e+00 1.675653338432312012e+00 8.062826991081237793e-01
2.878000000000000000e+03 2.974032402038574219e+01 4.476200103759765625e+00 1.752513051033020020e+00 4.223221302032470703e+00 1.792720317840576172e+00 6.765792965888977051e-01
2.879000000000000000e+03 2.414200019836425781e+01 1.944148063659667969e+01 5.481004714965820312e-01 3.558899402618408203e+00 1.232100009918212891e+00 -4.406521022319793701e-01
2.880000000000000000e+03 3.019029998779296875e+01 5.583224773406982422e+00 1.682941555976867676e+00 4.446770191192626953e+00 1.838913440704345703e+00 5.959050059318542480e-01
2.881000000000000000e+03 2.996174621582031250e+01 -2.927873611450195312e+00 2.178310632705688477e+00 2.601795196533203125e+00 1.434031724929809570e+00 -2.470737695693969727e-01
2.882000000000000000e+03 3.131454849243164062e+01 -2.412352323532104492e+00 1.885323762893676758e+00 3.081414699554443359e+00 1.490021467208862305e+00 -4.013866484165191650e-01
2.883000000000000000e+03 1.814773941040039062e+01 1.648469924926757812e+01 4.535224139690399170e-01 2.347334146499633789e+00 8.402569293975830078e-01 -3.344553411006927490e-01
2.884000000000000000e+03 1.774901008605957031e+01 2.065384483337402344e+01 2.996304631233215332e-01 2.314437389373779297e+00 7.842203974723815918e-01 -4.442844688892364502e-01
2.885000000000000000e+03 1.895922470092773438e+01 2.232026100158691406e+01 2.338358312845230103e-01 2.563432216644287109e+00 8.391804099082946777e-01 -4.777037799358367920e-01
2.886000000000000000e+03 1.633134841918945312e+01 1.607427215576171875e+01 4.120598435401916504e-01 1.945758700370788574e+00 7.073455452919006348e-01 -3.197162449359893799e-01
2.887000000000000000e+03 1.931760215759277344e+01 1.054997920989990234e+01 5.276004672050476074e-01 2.777280807495117188e+00 9.914643764495849609e-01 -1.049374788999557495e-01
2.888000000000000000e+03 2.662474441528320312e+01 1.725519561767578125e+01 8.198990821838378906e-01 4.080786228179931641e+00 1.470205545425415039e+00 -3.191808164119720459e-01
2.889000000000000000e+03 2.949074172973632812e+01 3.119462251663208008e+00 1.846263885498046875e+00 4.012818813323974609e+00 1.757724881172180176e+00 7.392475008964538574e-01
2.890000000000000000e+03 2.121379280090332031e+01 4.575040340423583984e+00 4.076101779937744141e-01 3.987509965896606445e+00 1.318536043167114258e+00 6.342367529869079590e-01
2.891000000000000000e+03 2.636684799194335938e+01 7.417043685913085938e+00 1.213790655136108398e+00 4.105471134185791016e+00 1.595778465270996094e+00 6.370943784713745117e-01
2.892000000000000000e+03 2.569841957092285156e+01 2.582305073738098145e-01 2.384952545166015625e+00 3.412536144256591797e+00 1.739246606826782227e+00 1.693644285202026367e+00
2.893000000000000000e+03 2.553926849365234375e+01 1.273011445999145508e+00 1.998820185661315918e+00 3.693525791168212891e+00 1.707703828811645508e+00 1.609706163406372070e+00
2.894000000000000000e+03 2.237981224060058594e+01 2.279915809631347656e+00 8.705151081085205078e-01 4.482667446136474609e+00 1.605954766273498535e+00 1.513390302658081055e+00
2.895000000000000000e+03 2.704533386230468750e+01 -2.099128961563110352e-01 2.530530691146850586e+00 3.082870960235595703e+00 1.684020519256591797e+00 1.240426540374755859e+00
2.896000000000000000e+03 2.852793502807617188e+01 -2.021081447601318359e+00 2.585107564926147461e+00 2.597357034683227539e+00 1.554739356040954590e+00 4.312785565853118896e-01
2.897000000000000000e+03 2.637488555908203125e+01 5.916964262723922729e-03 2.511798381805419922e+00 3.233289480209350586e+00 1.723526358604431152e+00 1.493590712547302246e+00
2.898000000000000000e+03 2.065587997436523438e+01 3.652945041656494141e+00 3.035466670989990234e-01 4.131495952606201172e+00 1.330512762069702148e+00 6.791512966156005859e-01
2.899000000000000000e+03 1.962052536010742188e+01 8.167679786682128906e+00 4.400531649589538574e-01 3.019947767257690430e+00 1.038000226020812988e+00 1.150202937424182892e-02
2.900000000000000000e+03 2.922782516479492188e+01 -2.873792409896850586e+00 2.453832864761352539e+00 2.441324234008789062e+00 1.468547105789184570e+00 2.497907355427742004e-02
2.901000000000000000e+03 3.210098266601562500e+01 -2.105078697204589844e+00 1.743097782135009766e+00 3.380387783050537109e+00 1.537045717239379883e+00 -4.784454107284545898e-01
2.902000000000000000e+03 1.825280570983886719e+01 1.052488327026367188e+01 4.921304881572723389e-01 2.476594686508178711e+00 8.906175494194030762e-01 -1.615336537361145020e-01
2.903000000000000000e+03 2.577678298950195312e+01 4.951062202453613281e+00 1.337718725204467773e+00 4.036873817443847656e+00 1.612377762794494629e+00 9.978495240211486816e-01
2.904000000000000000e+03 2.556276512145996094e+01 2.263858795166015625e+00 1.701507687568664551e+00 3.871369123458862305e+00 1.671862959861755371e+00 1.462198257446289062e+00
2.905000000000000000e+03 2.126236915588378906e+01 3.865436553955078125e+00 4.311901926994323730e-01 4.148167133331298828e+00 1.373807191848754883e+00 7.773798704147338867e-01
2.906000000000000000e+03 2.520446014404296875e+01 9.971426963806152344e+00 1.017808198928833008e+00 3.919721126556396484e+00 1.481258869171142578e+00 2.901815772056579590e-01
2.907000000000000000e+03 2.781682968139648438e+01 -1.850844740867614746e+00 2.793205976486206055e+00 2.485537767410278320e+00 1.583623051643371582e+00 7.100749015808105469e-01
2.908000000000000000e+03 1.741189002990722656e+01 1.530153656005859375e+01 4.721369147300720215e-01 2.194536924362182617e+00 8.000021576881408691e-01 -3.014619350433349609e-01
2.909000000000000000e+03 2.831472587585449219e+01 -6.679536700248718262e-01 2.446876525878906250e+00 2.989394187927246094e+00 1.630881190299987793e+00 7.525601387023925781e-01
2.910000000000000000e+03 2.960313034057617188e+01 7.605316042900085449e-01 2.128165721893310547e+00 3.505013942718505859e+00 1.689953923225402832e+00 6.269386410713195801e-01
2.911000000000000000e+03 2.518866157531738281e+01 2.798308372497558594e+00 1.525780439376831055e+00 3.972332954406738281e+00 1.649433970451354980e+00 1.430305123329162598e+00
2.912000000000000000e+03 2.641309928894042969e+01 8.741127967834472656e+00 1.191291451454162598e+00 4.110311508178710938e+00 1.590480804443359375e+00 4.590801894664764404e-01
2.913000000000000000e+03 2.381574058532714844e+01 1.076272392272949219e+01 8.395892977714538574e-01 3.658500432968139648e+00 1.349426865577697754e+00 1.452878415584564209e-01
2.914000000000000000e+03 3.086170196533203125e+01 -1.742510080337524414e+00 2.043112993240356445e+00 3.106848001480102539e+00 1.544988274574279785e+00 -1.620767116546630859e-01
2.915000000000000000e+03 1.912404823303222656e+01 9.479692459106445312e+00 4.745054543018341064e-01 2.786939144134521484e+00 9.784333705902099609e-01 -8.189266175031661987e-02
2.916000000000000000e+03 2.036897277832031250e+01 6.892562866210937500e+00 4.124747216701507568e-01 3.346029996871948242e+00 1.127551436424255371e+00 1.717124879360198975e-01
2.917000000000000000e+03 2.468047523498535156e+01 1.529174900054931641e+01 8.078126311302185059e-01 3.716417312622070312e+00 1.357269048690795898e+00 -2.013488858938217163e-01
2.918000000000000000e+03 2.441775512695312500e+01 1.238886070251464844e+01 8.825393319129943848e-01 3.693615198135375977e+00 1.372846364974975586e+00 1.262618973851203918e-02
2.919000000000000000e+03 2.939546012878417969e+01 -8.984410166740417480e-01 2.318027019500732422e+00 3.019113302230834961e+00 1.601142048835754395e+00 4.156016111373901367e-01
2.920000000000000000e+03 1.871817016601562500e+01 1.925459861755371094e+01 3.738500177860260010e-01 2.497485876083374023e+00 8.614007830619812012e-01 -4.222311079502105713e-01
2.921000000000000000e+03 1.410059738159179688e+01 2.732575035095214844e+01 -2.124560438096523285e-02 1.727867364883422852e+00 5.119865536689758301e-01 -4.187025725841522217e-01
2.922000000000000000e+03 1.331793880462646484e+01 2.523933219909667969e+01 5.589326471090316772e-02 1.527291655540466309e+00 4.749554693698883057e-01 -4.071775674819946289e-01
2.923000000000000000e+03 2.644233322143554688e+01 2.253509712219238281e+01 3.306423425674438477e-01 4.013153076171875000e+00 1.303138613700866699e+00 -5.317509770393371582e-01
2.924000000000000000e+03 2.296612167358398438e+01 2.945617914199829102e+00 9.368271827697753906e-01 4.285552024841308594e+00 1.566713809967041016e+00 1.369311451911926270e+00
2.925000000000000000e+03 2.454196548461914062e+01 2.224014997482299805e+00 1.534109115600585938e+00 4.022053241729736328e+00 1.666848778724670410e+00 1.589218497276306152e+00
2.926000000000000000e+03 2.610111427307128906e+01 9.457910656929016113e-01 2.163417816162109375e+00 3.560204029083251953e+00 1.717086553573608398e+00 1.541731476783752441e+00
2.927000000000000000e+03 3.051344108581542969e+01 -1.009773731231689453e+00 2.103916645050048828e+00 3.241971015930175781e+00 1.603766322135925293e+00 1.373964250087738037e-01
2.928000000000000000e+03 2.716867256164550781e+01 2.008761882781982422e+00 1.945907592773437500e+00 3.703403949737548828e+00 1.694793462753295898e+00 1.215989828109741211e+00
2.929000000000000000e+03 1.951057624816894531e+01 6.555963516235351562e+00 3.480460047721862793e-01 3.189127922058105469e+00 1.061152219772338867e+00 7.833158224821090698e-02
2.930000000000000000e+03 2.103413963317871094e+01 5.385056495666503906e+00 4.115507006645202637e-01 3.779696226119995117e+00 1.257374048233032227e+00 4.671048521995544434e-01
2.931000000000000000e+03 2.488645362854003906e+01 1.115938186645507812e+01 9.286770224571228027e-01 3.824727296829223633e+00 1.426021218299865723e+00 1.485578268766403198e-01
2.932000000000000000e+03 1.942240142822265625e+01 1.176377010345458984e+01 5.613012313842773438e-01 2.731127262115478516e+00 9.877285361289978027e-01 -1.565300822257995605e-01
2.933000000000000000e+03 2.051134300231933594e+01 4.333368778228759766e+00 2.883168756961822510e-01 3.926352977752685547e+00 1.264400959014892578e+00 5.000869631767272949e-01
2.934000000000000000e+03 2.854038429260253906e+01 5.168173313140869141e+00 1.623425722122192383e+00 4.195976734161376953e+00 1.745820760726928711e+00 7.841312885284423828e-01
2.935000000000000000e+03 2.613093948364257812e+01 6.141329765319824219e+00 1.250418663024902344e+00 4.108219623565673828e+00 1.607591509819030762e+00 8.104683756828308105e-01
2.936000000000000000e+03 2.870435905456542969e+01 1.532052397727966309e+00 2.051070690155029297e+00 3.622388601303100586e+00 1.702037811279296875e+00 8.826262354850769043e-01
2.937000000000000000e+03 2.803496742248535156e+01 -1.213599562644958496e+00 2.620734691619873047e+00 2.764660596847534180e+00 1.615618586540222168e+00 7.572769522666931152e-01
2.938000000000000000e+03 2.798341941833496094e+01 2.228576689958572388e-01 2.354318857192993164e+00 3.219570159912109375e+00 1.672166705131530762e+00 1.003025412559509277e+00
2.939000000000000000e+03 2.957457542419433594e+01 1.825364351272583008e+00 1.994731664657592773e+00 3.733282327651977539e+00 1.718404173851013184e+00 7.144565582275390625e-01
2.940000000000000000e+03 2.670484924316406250e+01 6.761361360549926758e-01 2.279267072677612305e+00 3.388215065002441406e+00 1.700244665145874023e+00 1.378502964973449707e+00
2.941000000000000000e+03 2.298327445983886719e+01 4.390459537506103516e+00 8.083277344703674316e-01 4.118198871612548828e+00 1.477957963943481445e+00 1.002925872802734375e+00
2.942000000000000000e+03 2.531630134582519531e+01 8.770859718322753906e+00 1.044272065162658691e+00 3.975749254226684570e+00 1.506006479263305664e+00 4.399106204509735107e-01
2.943000000000000000e+03 3.051168251037597656e+01 5.704281330108642578e-01 2.036823987960815430e+00 3.562180757522583008e+00 1.679701447486877441e+00 3.627629876136779785e-01
2.944000000000000000e+03 2.365904045104980469e+01 1.490860652923583984e+01 7.595633268356323242e-01 3.502569437026977539e+00 1.278639793395996094e+00 -1.948219388723373413e-01
2.945000000000000000e+03 2.073482322692871094e+01 1.170628261566162109e+01 6.266377568244934082e-01 3.034796714782714844e+00 1.098430275917053223e+00 -9.263688325881958008e-02
2.946000000000000000e+03 2.335154342651367188e+01 8.903857231140136719e+00 7.849251627922058105e-01 3.695132493972778320e+00 1.344017386436462402e+00 3.201048970222473145e-01
2.947000000000000000e+03 2.134411239624023438e+01 1.694482421875000000e+01 5.537918210029602051e-01 2.994019508361816406e+00 1.064343452453613281e+00 -3.347276449203491211e-01
2.948000000000000000e+03 1.766587448120117188e+01 1.839205169677734375e+01 3.796924352645874023e-01 2.227079629898071289e+00 7.820315957069396973e-01 -3.806661069393157959e-01
2.949000000000000000e+03 1.808115768432617188e+01 1.265736675262451172e+01 5.016745328903198242e-01 2.361552953720092773e+00 8.589682579040527344e-01 -2.318271398544311523e-01
2.950000000000000000e+03 1.853896331787109375e+01 1.441545009613037109e+01 5.160980224609375000e-01 2.459404230117797852e+00 8.926507234573364258e-01 -2.735631763935089111e-01
2.951000000000000000e+03 2.002902030944824219e+01 9.244525909423828125e+00 5.030695199966430664e-01 3.026780128479003906e+00 1.058954954147338867e+00 -1.436948869377374649e-02
2.952000000000000000e+03 2.332822418212890625e+01 9.953543663024902344e+00 8.069093227386474609e-01 3.634068965911865234e+00 1.332293510437011719e+00 1.909945607185363770e-01
2.953000000000000000e+03 2.330768013000488281e+01 7.917960166931152344e+00 7.858197093009948730e-01 3.777320623397827148e+00 1.368942141532897949e+00 4.344388246536254883e-01
2.954000000000000000e+03 1.705503654479980469e+01 2.874175834655761719e+01 -9.952059388160705566e-02 2.295074939727783203e+00 6.586662530899047852e-01 -4.602898359298706055e-01
2.955000000000000000e+03 2.519301223754882812e+01 2.095128440856933594e+01 4.559731483459472656e-01 3.772839307785034180e+00 1.268643736839294434e+00 -4.934272170066833496e-01
2.956000000000000000e+03 1.996437263488769531e+01 1.741503143310546875e+01 5.029813647270202637e-01 2.736313343048095703e+00 9.717884063720703125e-01 -3.736042082309722900e-01
2.957000000000000000e+03 2.783870506286621094e+01 2.107023239135742188e+01 5.162348747253417969e-01 4.299349308013916016e+00 1.444675207138061523e+00 -4.851546287536621094e-01
2.958000000000000000e+03 2.187716484069824219e+01 2.800071716308593750e+00 6.299545168876647949e-01 4.445436477661132812e+00 1.522617340087890625e+00 1.235862612724304199e+00
2.959000000000000000e+03 2.143816757202148438e+01 3.289386272430419922e+00 4.724410772323608398e-01 4.347616195678710938e+00 1.446017265319824219e+00 1.008916974067687988e+00
2.960000000000000000e+03 2.704354476928710938e+01 1.338232517242431641e+00 2.125226259231567383e+00 3.552426576614379883e+00 1.703295826911926270e+00 1.270961165428161621e+00
2.961000000000000000e+03 2.734124565124511719e+01 4.498547613620758057e-01 2.352990627288818359e+00 3.299106121063232422e+00 1.695629000663757324e+00 1.208351850509643555e+00
2.962000000000000000e+03 2.477065277099609375e+01 3.390669345855712891e+00 1.338216662406921387e+00 4.048635005950927734e+00 1.616055488586425781e+00 1.338908791542053223e+00
2.963000000000000000e+03 2.603816795349121094e+01 1.931504011154174805e+00 1.876055836677551270e+00 3.765688657760620117e+00 1.692523360252380371e+00 1.438885092735290527e+00
2.964000000000000000e+03 2.681925582885742188e+01 3.731193304061889648e+00 1.606196165084838867e+00 3.947562456130981445e+00 1.666127562522888184e+00 1.104752421379089355e+00
2.965000000000000000e+03 2.866131210327148438e+01 -1.686744764447212219e-02 2.313364744186401367e+00 3.233544111251831055e+00 1.664072632789611816e+00 7.815356850624084473e-01
2.966000000000000000e+03 2.803386306762695312e+01 1.979217529296875000e+00 1.997431993484497070e+00 3.700114965438842773e+00 1.709264039993286133e+00 1.025742411613464355e+00
2.967000000000000000e+03 2.185177040100097656e+01 3.839047193527221680e+00 5.952898859977722168e-01 4.220238685607910156e+00 1.444658637046813965e+00 9.731402993202209473e-01
2.968000000000000000e+03 2.653894424438476562e+01 1.622424125671386719e+00 1.989969968795776367e+00 3.647610187530517578e+00 1.691274046897888184e+00 1.366319656372070312e+00
2.969000000000000000e+03 2.686522865295410156e+01 4.678553104400634766e+00 1.508001685142517090e+00 4.061921596527099609e+00 1.670976996421813965e+00 9.759615063667297363e-01
2.970000000000000000e+03 2.500637245178222656e+01 6.376118659973144531e+00 1.064405560493469238e+00 4.018164634704589844e+00 1.524770975112915039e+00 7.562553286552429199e-01
2.971000000000000000e+03 2.234148406982421875e+01 9.972987174987792969e+00 7.171739339828491211e-01 3.460587024688720703e+00 1.253328323364257812e+00 1.443350017070770264e-01
2.972000000000000000e+03 2.818465232849121094e+01 3.063306331634521484e+00 1.816425919532775879e+00 3.890214920043945312e+00 1.711992263793945312e+00 9.639970660209655762e-01
2.973000000000000000e+03 2.776896095275878906e+01 4.144907474517822266e+00 1.663045525550842285e+00 4.014648437500000000e+00 1.703308105468750000e+00 9.298262000083923340e-01
2.974000000000000000e+03 2.096508979797363281e+01 8.920146942138671875e+00 5.606327652931213379e-01 3.251366853713989258e+00 1.143599867820739746e+00 9.329579025506973267e-02
2.975000000000000000e+03 2.395607757568359375e+01 1.367813682556152344e+01 8.138212561607360840e-01 3.595117568969726562e+00 1.322681665420532227e+00 -9.236738830804824829e-02
2.976000000000000000e+03 2.206799507141113281e+01 4.662120342254638672e+00 5.856144428253173828e-01 4.049153327941894531e+00 1.390430331230163574e+00 7.971814870834350586e-01
2.977000000000000000e+03 2.002040290832519531e+01 2.433929634094238281e+01 1.327131688594818115e-01 2.795028924942016602e+00 8.783226013183593750e-01 -5.168315172195434570e-01
2.978000000000000000e+03 2.362016105651855469e+01 2.210612297058105469e+01 3.196075558662414551e-01 3.466860055923461914e+00 1.135940313339233398e+00 -5.147664546966552734e-01
2.979000000000000000e+03 1.943940734863281250e+01 1.572728252410888672e+01 5.213153958320617676e-01 2.645009040832519531e+00 9.498972892761230469e-01 -3.093403279781341553e-01
2.980000000000000000e+03 1.869844627380371094e+01 1.779367637634277344e+01 4.561935365200042725e-01 2.498516082763671875e+00 8.864129185676574707e-01 -3.804722726345062256e-01
2.981000000000000000e+03 2.140941619873046875e+01 7.578247547149658203e+00 5.541638731956481934e-01 3.498502731323242188e+00 1.215799927711486816e+00 2.727573513984680176e-01
2.982000000000000000e+03 2.194230842590332031e+01 6.417072296142578125e+00 5.689372420310974121e-01 3.733976125717163086e+00 1.290874004364013672e+00 4.660582542419433594e-01
2.983000000000000000e+03 3.008934974670410156e+01 -3.683354258537292480e-01 2.152648687362670898e+00 3.303238868713378906e+00 1.636766314506530762e+00 3.114928305149078369e-01
2.984000000000000000e+03 2.707001304626464844e+01 2.823495864868164062e+00 1.771137833595275879e+00 3.835179090499877930e+00 1.681895136833190918e+00 1.182829141616821289e+00
2.985000000000000000e+03 2.036433029174804688e+01 1.039284992218017578e+01 5.549145340919494629e-01 3.031065464019775391e+00 1.075793981552124023e+00 -3.965176641941070557e-02
2.986000000000000000e+03 2.429965400695800781e+01 8.815020561218261719e+00 9.132390618324279785e-01 3.851997375488281250e+00 1.429570913314819336e+00 3.813382983207702637e-01
2.987000000000000000e+03 2.224003219604492188e+01 7.256490230560302734e+00 6.393970251083374023e-01 3.698962450027465820e+00 1.301507830619812012e+00 4.091727733612060547e-01
2.988000000000000000e+03 2.524714851379394531e+01 7.569733619689941406e+00 1.062103867530822754e+00 4.015503406524658203e+00 1.523282170295715332e+00 5.935649871826171875e-01
2.989000000000000000e+03 2.423235321044921875e+01 7.735503673553466797e+00 9.119399189949035645e-01 3.895392417907714844e+00 1.442199707031250000e+00 5.315246582031250000e-01
2.990000000000000000e+03 1.707335472106933594e+01 1.246289634704589844e+01 4.778889119625091553e-01 2.101183652877807617e+00 7.737218141555786133e-01 -2.433444112539291382e-01
2.991000000000000000e+03 2.026259613037109375e+01 1.927800559997558594e+01 4.102742969989776611e-01 2.782690286636352539e+00 9.578893780708312988e-01 -4.240072965621948242e-01
2.992000000000000000e+03 2.242907905578613281e+01 3.493278980255126953e+00 7.246420979499816895e-01 4.262614727020263672e+00 1.496177077293395996e+00 1.149512648582458496e+00
2.993000000000000000e+03 2.535360336303710938e+01 3.989362478256225586e+00 1.366553068161010742e+00 4.025467872619628906e+00 1.617606282234191895e+00 1.166348218917846680e+00
2.994000000000000000e+03 2.309088134765625000e+01 6.946638107299804688e+00 7.624731659889221191e-01 3.849745035171508789e+00 1.383665442466735840e+00 5.531118512153625488e-01
2.995000000000000000e+03 2.592261123657226562e+01 3.367383003234863281e+00 1.543174386024475098e+00 3.950149536132812500e+00 1.647997140884399414e+00 1.231906294822692871e+00
2.996000000000000000e+03 2.355266952514648438e+01 5.490718841552734375e+00 8.640288114547729492e-01 4.008646965026855469e+00 1.461802840232849121e+00 8.352606296539306641e-01
2.997000000000000000e+03 2.464702224731445312e+01 5.190710067749023438e+00 1.080338358879089355e+00 4.069286823272705078e+00 1.544887542724609375e+00 9.686218500137329102e-01
2.998000000000000000e+03 2.270210647583007812e+01 6.029171466827392578e+00 6.891474723815917969e-01 3.929308891296386719e+00 1.385536909103393555e+00 6.644120812416076660e-01
2.999000000000000000e+03 2.239243316650390625e+01 1.495555877685546875e+01 6.736897230148315430e-01 3.246146440505981445e+00 1.175950884819030762e+00 -2.214922457933425903e-01
3.000000000000000000e+03 2.083324432373046875e+01 1.333576011657714844e+01 6.092551946640014648e-01 2.977661371231079102e+00 1.076074957847595215e+00 -1.742546409368515015e-01
3.001000000000000000e+03 2.303129386901855469e+01 1.187298107147216797e+01 7.594064474105834961e-01 3.458502769470214844e+00 1.265372753143310547e+00 5.202847532927989960e-03
3.002000000000000000e+03 1.928171348571777344e+01 1.316793060302734375e+01 5.417625308036804199e-01 2.640420913696289062e+00 9.546550512313842773e-01 -2.184521257877349854e-01
3.003000000000000000e+03 2.083533668518066406e+01 2.126166534423828125e+01 3.260324299335479736e-01 2.911395549774169922e+00 9.712283611297607422e-01 -4.806609749794006348e-01
3.004000000000000000e+03 2.187365150451660156e+01 1.867974090576171875e+01 5.013813972473144531e-01 3.116144180297851562e+00 1.085257649421691895e+00 -4.058752954006195068e-01
3.005000000000000000e+03 2.365002059936523438e+01 3.688129663467407227e+00 1.032587647438049316e+00 4.144357204437255859e+00 1.553083419799804688e+00 1.218273401260375977e+00
3.006000000000000000e+03 2.450068855285644531e+01 4.141724109649658203e+00 1.171141743659973145e+00 4.069866657257080078e+00 1.572302579879760742e+00 1.148894190788269043e+00
3.007000000000000000e+03 2.399261856079101562e+01 6.633685588836669922e+00 9.135976433753967285e-01 3.950897455215454102e+00 1.459348559379577637e+00 6.749664545059204102e-01
3.008000000000000000e+03 2.247473335266113281e+01 1.336952209472656250e+01 7.127901315689086914e-01 3.302364110946655273e+00 1.204546213150024414e+00 -1.218527555465698242e-01
3.009000000000000000e+03 2.091116905212402344e+01 1.516648197174072266e+01 6.031458973884582520e-01 2.934829711914062500e+00 1.061392664909362793e+00 -2.682274878025054932e-01
3.010000000000000000e+03 2.385469818115234375e+01 1.603505897521972656e+01 7.092446088790893555e-01 3.521496057510375977e+00 1.269222140312194824e+00 -2.669465541839599609e-01
3.011000000000000000e+03 2.329767036437988281e+01 1.797592163085937500e+01 5.902115106582641602e-01 3.392903089523315430e+00 1.194934368133544922e+00 -3.749312162399291992e-01
3.012000000000000000e+03 2.261223220825195312e+01 2.039120292663574219e+01 4.268017411231994629e-01 3.266619920730590820e+00 1.108026504516601562e+00 -4.681836962699890137e-01
3.013000000000000000e+03 2.268556594848632812e+01 1.648889732360839844e+01 6.349377036094665527e-01 3.282192707061767578e+00 1.175139188766479492e+00 -3.073087036609649658e-01
3.014000000000000000e+03 1.480969715118408203e+01 2.960347557067871094e+01 -1.069265902042388916e-01 1.901514291763305664e+00 5.383763313293457031e-01 -4.128738641738891602e-01
3.015000000000000000e+03 1.279484462738037109e+01 3.267578506469726562e+01 -1.590639054775238037e-01 1.590597271919250488e+00 4.294600188732147217e-01 -3.201239407062530518e-01
3.016000000000000000e+03 8.071149826049804688e+00 -4.135681533813476562e+01 -6.082364544272422791e-02 3.028310298919677734e+00 8.902460336685180664e-01 2.162629365921020508e-02
3.017000000000000000e+03 1.137874221801757812e+01 -3.634766006469726562e+01 -8.317044973373413086e-01 1.102978587150573730e+00 8.138221502304077148e-02 1.550244837999343872e-01
3.018000000000000000e+03 2.455490493774414062e+01 1.716730499267578125e+01 6.998467445373535156e-01 3.652355194091796875e+00 1.305660605430603027e+00 -3.276096284389495850e-01
3.019000000000000000e+03 2.114077949523925781e+01 2.641232681274414062e+01 -1.601812615990638733e-02 3.029497385025024414e+00 9.040437340736389160e-01 -5.259153246879577637e-01
3.020000000000000000e+03 3.334143066406250000e+01 2.817992019653320312e+01 -2.500369846820831299e-01 5.123205661773681641e+00 1.461950540542602539e+00 -3.948906064033508301e-01
3.021000000000000000e+03 3.426257705688476562e+01 2.221388626098632812e+01 5.237966775894165039e-01 5.681561470031738281e+00 1.861607432365417480e+00 -3.103381991386413574e-01
3.022000000000000000e+03 5.472737121582031250e+01 3.477209854125976562e+01 -3.626151382923126221e-01 7.832480221986770630e-02 -8.528709411621093750e-02 -9.724584221839904785e-02
3.023000000000000000e+03 2.493858718872070312e+01 -3.483576202392578125e+01 -1.884309411048889160e+00 -1.202562600374221802e-01 -6.013697385787963867e-01 2.353768050670623779e-01
3.024000000000000000e+03 6.997535228729248047e+00 -3.647382354736328125e+01 -6.332191228866577148e-01 3.686111927032470703e+00 9.158678054809570312e-01 2.864891588687896729e-01
3.025000000000000000e+03 7.222795104980468750e+01 -4.102555084228515625e+01 1.102752685546875000e-01 4.881005764007568359e+00 1.497384190559387207e+00 1.264614313840866089e-01
3.026000000000000000e+03 2.807487678527832031e+01 -3.908121871948242188e+01 -1.396707773208618164e+00 -3.011140227317810059e-01 -5.093465447425842285e-01 -2.232972159981727600e-02
3.027000000000000000e+03 3.977624893188476562e+01 -3.818771362304687500e+01 -1.668479800224304199e+00 2.602000236511230469e+00 2.800561487674713135e-01 6.147928237915039062e-01
3.028000000000000000e+03 4.262636184692382812e+01 -4.121093368530273438e+01 -1.963910222053527832e+00 4.252520561218261719e+00 6.865831017494201660e-01 1.465885192155838013e-01
3.029000000000000000e+03 2.859343528747558594e+01 -3.695882034301757812e+01 -1.705729961395263672e+00 -1.557593941688537598e-01 -5.584468245506286621e-01 -9.176986292004585266e-03
3.030000000000000000e+03 3.038334846496582031e+01 2.112698364257812500e+01 6.290444135665893555e-01 4.872527599334716797e+00 1.650471568107604980e+00 -4.618633985519409180e-01
3.031000000000000000e+03 9.122017860412597656e+00 3.824336242675781250e+01 -1.433492749929428101e-01 9.541120529174804688e-01 2.432288378477096558e-01 -1.215819492936134338e-01
3.032000000000000000e+03 4.284337234497070312e+01 3.457034301757812500e+01 -8.787769079208374023e-01 4.395989418029785156e+00 1.055163860321044922e+00 3.935179412364959717e-01
3.033000000000000000e+03 4.815949630737304688e+01 3.699431991577148438e+01 -7.277219891548156738e-01 2.753996133804321289e+00 6.078822016716003418e-01 4.456601142883300781e-01
3.034000000000000000e+03 3.392588806152343750e+01 3.073880767822265625e+01 -5.808137655258178711e-01 5.035748958587646484e+00 1.336480617523193359e+00 -3.183715939521789551e-01
3.035000000000000000e+03 3.712616348266601562e+01 3.264927673339843750e+01 -8.279128074645996094e-01 5.092037677764892578e+00 1.279237389564514160e+00 -9.648891538381576538e-02
3.036000000000000000e+03 2.639125061035156250e+01 -3.616007232666015625e+01 -1.801434755325317383e+00 -1.474602073431015015e-01 -5.846684575080871582e-01 1.454139798879623413e-01
3.037000000000000000e+03 7.810909271240234375e+01 -4.167105865478515625e+01 2.018239647150039673e-01 8.162446975708007812e+00 2.509281396865844727e+00 5.663126707077026367e-02
3.038000000000000000e+03 1.612051010131835938e+01 2.648969841003417969e+01 3.536423202604055405e-03 2.075130939483642578e+00 6.236001849174499512e-01 -4.604480266571044922e-01
3.039000000000000000e+03 4.607073593139648438e+01 -3.841569519042968750e+01 -2.019677400588989258e+00 6.049446105957031250e+00 1.208930611610412598e+00 -5.562546476721763611e-02
3.040000000000000000e+03 3.897267532348632812e+01 3.540637207031250000e+01 -1.082327127456665039e+00 4.810873985290527344e+00 1.118564128875732422e+00 2.480693534016609192e-02
3.041000000000000000e+03 4.199454116821289062e+01 3.144378662109375000e+01 -5.684992671012878418e-01 4.851952075958251953e+00 1.285035848617553711e+00 4.695851206779479980e-01
3.042000000000000000e+03 1.915976333618164062e+01 2.764071083068847656e+01 -7.305397093296051025e-02 2.667680025100708008e+00 7.783878445625305176e-01 -4.971313178539276123e-01
3.043000000000000000e+03 9.227798461914062500e+00 -3.673099517822265625e+01 -6.958606243133544922e-01 2.229254722595214844e+00 4.600181877613067627e-01 8.405859023332595825e-02
3.044000000000000000e+03 2.338154983520507812e+01 -4.107008361816406250e+01 -1.097752332687377930e+00 -5.726853609085083008e-01 -5.011312961578369141e-01 1.014752015471458435e-01
3.045000000000000000e+03 8.145162582397460938e+00 4.111932373046875000e+01 -1.286411136388778687e-01 8.020956516265869141e-01 2.020363509654998779e-01 -2.926251478493213654e-02
3.046000000000000000e+03 2.767538452148437500e+01 -4.136050033569335938e+01 -1.307704925537109375e+00 -4.133783280849456787e-01 -5.163249969482421875e-01 -2.422457560896873474e-02
3.047000000000000000e+03 2.495290374755859375e+01 -3.839703369140625000e+01 -1.441270828247070312e+00 -4.007914066314697266e-01 -5.526186823844909668e-01 2.172769606113433838e-01
3.048000000000000000e+03 4.690447235107421875e+01 -4.109473800659179688e+01 -2.214634656906127930e+00 6.173241615295410156e+00 1.187582135200500488e+00 -9.280176833271980286e-03
3.049000000000000000e+03 2.774372482299804688e+01 3.684298324584960938e+01 -8.516358137130737305e-01 4.160298347473144531e+00 9.925987720489501953e-01 -2.766442596912384033e-01
3.050000000000000000e+03 3.473028182983398438e+01 3.363279342651367188e+01 -8.892739415168762207e-01 4.939848899841308594e+00 1.215172410011291504e+00 -2.121872752904891968e-01
3.051000000000000000e+03 3.199312019348144531e+01 3.728644943237304688e+01 -1.060908198356628418e+00 4.624846458435058594e+00 1.069181442260742188e+00 -1.934485435485839844e-01
3.052000000000000000e+03 3.603760528564453125e+01 3.693515396118164062e+01 -1.155063152313232422e+00 4.833190917968750000e+00 1.103438377380371094e+00 -9.531429409980773926e-02
3.053000000000000000e+03 2.626520156860351562e+01 2.579403114318847656e+01 3.507979586720466614e-02 4.014493942260742188e+00 1.214872121810913086e+00 -5.735971331596374512e-01
3.054000000000000000e+03 2.484275245666503906e+01 2.389275932312011719e+01 2.049531936645507812e-01 3.719053030014038086e+00 1.177201867103576660e+00 -5.436192750930786133e-01
3.055000000000000000e+03 1.942207527160644531e+01 3.394544219970703125e+01 -3.823826313018798828e-01 2.818044185638427734e+00 7.306984663009643555e-01 -3.767874240875244141e-01
3.056000000000000000e+03 1.553715038299560547e+01 3.215438842773437500e+01 -2.105714380741119385e-01 2.083781480789184570e+00 5.619630217552185059e-01 -3.731716275215148926e-01
3.057000000000000000e+03 2.866767692565917969e+01 3.361069107055664062e+01 -6.992922425270080566e-01 4.312248229980468750e+00 1.083886861801147461e+00 -4.171133637428283691e-01
3.058000000000000000e+03 3.250220870971679688e+01 2.281113624572753906e+01 4.075568318367004395e-01 5.209266662597656250e+00 1.685047030448913574e+00 -4.236926734447479248e-01
3.059000000000000000e+03 2.238924980163574219e+01 2.853219032287597656e+01 -1.642051339149475098e-01 3.265889406204223633e+00 9.305052757263183594e-01 -5.169160366058349609e-01
3.060000000000000000e+03 2.038488388061523438e+01 2.995366859436035156e+01 -2.158633172512054443e-01 2.925503253936767578e+00 8.128919601440429688e-01 -4.796710610389709473e-01
3.061000000000000000e+03 2.428632164001464844e+01 2.710390090942382812e+01 -9.974136203527450562e-02 3.620798826217651367e+00 1.056317210197448730e+00 -5.363555550575256348e-01
3.062000000000000000e+03 3.001642036437988281e+01 2.538247108459472656e+01 9.556820243597030640e-02 4.702821731567382812e+00 1.439516901969909668e+00 -5.484805107116699219e-01
3.063000000000000000e+03 4.843623733520507812e+01 -3.767750549316406250e+01 -1.775108695030212402e+00 6.649031639099121094e+00 1.462176918983459473e+00 -3.504413366317749023e-01
3.064000000000000000e+03 1.811817550659179688e+01 3.121639442443847656e+01 -2.354237288236618042e-01 2.532302379608154297e+00 6.890636086463928223e-01 -4.285798668861389160e-01
3.065000000000000000e+03 1.215433311462402344e+01 -3.940196228027343750e+01 -3.417707681655883789e-01 8.535020947456359863e-01 1.535193920135498047e-01 6.662489473819732666e-02
3.066000000000000000e+03 2.725673294067382812e+01 2.792548561096191406e+01 -1.720817387104034424e-01 4.191769123077392578e+00 1.205906271934509277e+00 -5.600994229316711426e-01
3.067000000000000000e+03 2.797758865356445312e+01 2.420638847351074219e+01 2.011220306158065796e-01 4.309309005737304688e+00 1.353129267692565918e+00 -5.544787645339965820e-01
3.068000000000000000e+03 2.706819915771484375e+01 3.013981056213378906e+01 -3.987318873405456543e-01 4.153561115264892578e+00 1.126448750495910645e+00 -5.244498252868652344e-01
3.069000000000000000e+03 3.160652923583984375e+01 3.100140953063964844e+01 -5.501127839088439941e-01 4.745770454406738281e+00 1.258697390556335449e+00 -4.379629194736480713e-01
3.070000000000000000e+03 3.151998329162597656e+01 2.839653015136718750e+01 -2.793720662593841553e-01 4.822741985321044922e+00 1.363011002540588379e+00 -4.780762493610382080e-01
3.071000000000000000e+03 2.941241264343261719e+01 2.795103454589843750e+01 -2.072248607873916626e-01 4.513302803039550781e+00 1.291823387145996094e+00 -5.388440489768981934e-01
3.072000000000000000e+03 2.595771980285644531e+01 3.242623901367187500e+01 -5.425934791564941406e-01 3.974706172943115234e+00 1.029633760452270508e+00 -4.575509428977966309e-01
3.073000000000000000e+03 3.176971244812011719e+01 3.399713516235351562e+01 -8.415815830230712891e-01 4.659377574920654297e+00 1.145338773727416992e+00 -3.267824649810791016e-01
3.074000000000000000e+03 2.390699386596679688e+01 3.061837959289550781e+01 -3.425724208354949951e-01 3.575183153152465820e+00 9.697832465171813965e-01 -4.755631685256958008e-01
3.075000000000000000e+03 1.405544948577880859e+01 -4.494671821594238281e+00 3.280530452728271484e+00 -4.571705460548400879e-01 8.470079898834228516e-01 1.052222728729248047e+00
3.076000000000000000e+03 1.536408615112304688e+01 -4.652700901031494141e+00 6.071906566619873047e+00 -7.272113561630249023e-01 1.603408575057983398e+00 1.251275777816772461e+00
3.077000000000000000e+03 1.553081512451171875e+01 -4.720762729644775391e+00 6.717300891876220703e+00 -8.127147555351257324e-01 1.771375775337219238e+00 1.450796127319335938e+00
3.078000000000000000e+03 1.578473854064941406e+01 -4.949955940246582031e+00 8.093276023864746094e+00 -6.691660881042480469e-01 2.227232933044433594e+00 2.377083063125610352e+00
3.079000000000000000e+03 1.654336357116699219e+01 -1.384741783142089844e+00 -3.615685403347015381e-01 2.217317342758178711e+00 5.567246079444885254e-01 -7.321484088897705078e-01
3.080000000000000000e+03 1.767381668090820312e+01 -2.347644090652465820e+00 -6.651276350021362305e-01 6.829937934875488281e+00 1.849443078041076660e+00 -7.017244696617126465e-01
3.081000000000000000e+03 7.765376281738281250e+01 -3.939945602416992188e+01 -1.399812698364257812e-01 8.246360778808593750e+00 2.431914091110229492e+00 1.556902974843978882e-01
3.082000000000000000e+03 4.277478027343750000e+01 -2.167477226257324219e+01 4.922106266021728516e+00 1.490176582336425781e+01 5.947161674499511719e+00 -4.567759990692138672e+00
3.083000000000000000e+03 6.776637268066406250e+01 4.123471832275390625e+01 2.617806494235992432e-01 2.289028644561767578e+00 7.652427554130554199e-01 -9.629061818122863770e-02
3.084000000000000000e+03 6.161320495605468750e+01 4.123312759399414062e+01 2.865992188453674316e-01 -2.494511157274246216e-01 1.114443130791187286e-02 5.595097690820693970e-02
3.085000000000000000e+03 5.818259811401367188e+01 -3.828561401367187500e+01 -4.839186072349548340e-01 3.590981960296630859e+00 9.321189522743225098e-01 -1.431683778762817383e+00
3.086000000000000000e+03 1.618017387390136719e+01 -5.931334495544433594e+00 8.582395553588867188e+00 2.083439588546752930e+00 3.199750423431396484e+00 6.260322093963623047e+00
3.087000000000000000e+03 1.453210830688476562e+01 -4.836002349853515625e+00 4.662814617156982422e+00 -5.636566877365112305e-01 1.229747414588928223e+00 1.579054594039916992e+00
3.088000000000000000e+03 1.515502262115478516e+01 -5.248366355895996094e+00 6.435661792755126953e+00 -4.207765460014343262e-01 1.804465532302856445e+00 2.819890260696411133e+00
3.089000000000000000e+03 1.558260631561279297e+01 -5.070929527282714844e+00 7.572436809539794922e+00 -5.054515600204467773e-01 2.120095491409301758e+00 2.522342920303344727e+00
3.090000000000000000e+03 1.571135997772216797e+01 -6.586251735687255859e+00 6.228599071502685547e+00 1.913231492042541504e+00 2.442549228668212891e+00 6.125502109527587891e+00
3.091000000000000000e+03 1.425147438049316406e+01 -5.200384140014648438e+00 4.484774112701416016e+00 -4.215016365051269531e-01 1.218981742858886719e+00 2.193674564361572266e+00
3.092000000000000000e+03 7.727597808837890625e+01 3.834912872314453125e+01 -1.861131191253662109e-01 9.848418235778808594e+00 2.898691654205322266e+00 -2.441809177398681641e-01
3.093000000000000000e+03 1.611503219604492188e+01 -6.405961990356445312e+00 6.968826293945312500e+00 2.798467397689819336e+00 2.930187940597534180e+00 6.705486774444580078e+00
3.094000000000000000e+03 5.395336532592773438e+01 -3.465269851684570312e+01 1.069723740220069885e-01 7.168896198272705078e+00 2.182760477066040039e+00 -1.036278963088989258e+00
3.095000000000000000e+03 7.347446441650390625e+01 -2.785434341430664062e+01 1.233253240585327148e+00 9.265922546386718750e+00 3.149752855300903320e+00 -2.501975595951080322e-01
3.096000000000000000e+03 4.335627365112304688e+01 -2.796490478515625000e+01 1.097156763076782227e+00 1.054238319396972656e+01 3.491862058639526367e+00 -6.840158253908157349e-02
3.097000000000000000e+03 1.294241809844970703e+01 3.543596267700195312e+01 -2.227869331836700439e-01 1.642058372497558594e+00 4.257814288139343262e-01 -2.358410507440567017e-01
3.098000000000000000e+03 1.515445518493652344e+01 -5.728837490081787109e+00 6.567130565643310547e+00 6.220658123493194580e-02 1.988801240921020508e+00 3.940156936645507812e+00
3.099000000000000000e+03 1.530355739593505859e+01 -6.014940738677978516e+00 6.706593513488769531e+00 5.219442248344421387e-01 2.168561220169067383e+00 4.776958465576171875e+00
3.100000000000000000e+03 1.495017719268798828e+01 -5.500626087188720703e+00 6.187426090240478516e+00 -3.121019005775451660e-01 1.762597203254699707e+00 3.217958927154541016e+00
3.101000000000000000e+03 1.722567749023437500e+01 -1.560992717742919922e+00 -5.062624216079711914e-01 3.858886718750000000e+00 1.005787253379821777e+00 -8.109059333801269531e-01
3.102000000000000000e+03 1.761744499206542969e+01 -1.783156752586364746e+00 -6.087423563003540039e-01 5.611718177795410156e+00 1.500892758369445801e+00 -5.782048702239990234e-01
3.103000000000000000e+03 1.789978599548339844e+01 -1.944915175437927246e+00 -6.022467613220214844e-01 6.808647632598876953e+00 1.861920237541198730e+00 -8.097454160451889038e-02
3.104000000000000000e+03 1.832142829895019531e+01 -2.467859983444213867e+00 -5.740884542465209961e-01 9.466929435729980469e+00 2.667852163314819336e+00 1.229170083999633789e+00
3.105000000000000000e+03 5.441602706909179688e+01 3.636873626708984375e+01 -6.209623813629150391e-01 3.861509561538696289e-01 -7.044342160224914551e-02 2.318918704986572266e-01
3.106000000000000000e+03 5.027445983886718750e+01 -3.416309738159179688e+01 -1.395637542009353638e-01 6.708045959472656250e+00 1.970544695854187012e+00 -1.026324987411499023e+00
3.107000000000000000e+03 5.183792495727539062e+01 -3.105626487731933594e+01 1.709069371223449707e+00 6.511317253112792969e+00 2.466115951538085938e+00 -1.929675459861755371e+00
3.108000000000000000e+03 1.723723411560058594e+01 -1.141626834869384766e+00 -5.506448149681091309e-01 4.015288352966308594e+00 1.039393186569213867e+00 -6.963410377502441406e-01
3.109000000000000000e+03 1.744105339050292969e+01 -1.388916492462158203e+00 -5.795599222183227539e-01 4.608203411102294922e+00 1.208593130111694336e+00 -6.042962670326232910e-01
3.110000000000000000e+03 7.300735473632812500e+01 -3.595581817626953125e+01 -6.133510470390319824e-01 6.060346603393554688e+00 1.634098649024963379e+00 3.449760377407073975e-01
3.111000000000000000e+03 3.082381057739257812e+01 -3.530086517333984375e+01 -2.045585632324218750e+00 -6.015465781092643738e-02 -6.317220330238342285e-01 -1.150564551353454590e-01
3.112000000000000000e+03 1.592625999450683594e+01 -6.862358093261718750e+00 5.510175228118896484e+00 3.170800209045410156e+00 2.604292631149291992e+00 6.806380271911621094e+00
3.113000000000000000e+03 1.968144989013671875e+01 -3.305173110961914062e+01 -2.469971895217895508e+00 -3.296796083450317383e-01 -8.398954868316650391e-01 7.192664146423339844e-01
3.114000000000000000e+03 7.482125854492187500e+01 -2.146827316284179688e+01 -5.357733368873596191e-01 7.833251953125000000e+00 2.189243555068969727e+00 5.947138071060180664e-01
3.115000000000000000e+03 1.383878612518310547e+01 -3.396429061889648438e+01 -1.675507426261901855e+00 -3.712353706359863281e-01 -6.140228509902954102e-01 5.205798745155334473e-01
3.116000000000000000e+03 7.350861358642578125e+01 -2.218361473083496094e+01 -4.969814121723175049e-01 8.313081741333007812e+00 2.344830036163330078e+00 2.944332361221313477e-01
3.117000000000000000e+03 1.873249244689941406e+01 -1.555509924888610840e+00 -2.614576518535614014e-01 7.733175754547119141e+00 2.241515398025512695e+00 1.398275136947631836e+00
3.118000000000000000e+03 1.831445884704589844e+01 -1.275231480598449707e+00 -5.941047668457031250e-01 6.835493087768554688e+00 1.872416496276855469e+00 4.476282000541687012e-01
3.119000000000000000e+03 1.558205223083496094e+01 -7.280152797698974609e+00 4.314175605773925781e+00 2.582965850830078125e+00 2.069142341613769531e+00 6.409440994262695312e+00
3.120000000000000000e+03 1.486417388916015625e+01 -5.835314273834228516e+00 5.857835769653320312e+00 3.274868801236152649e-02 1.767175316810607910e+00 3.759736061096191406e+00
3.121000000000000000e+03 1.480215930938720703e+01 -3.251871490478515625e+01 -2.750017881393432617e+00 -8.479943275451660156e-01 -1.079403638839721680e+00 9.496628642082214355e-01
3.122000000000000000e+03 7.350640869140625000e+01 -3.422008895874023438e+01 -6.614484786987304688e-01 6.794300556182861328e+00 1.839855670928955078e+00 -4.968706890940666199e-02
3.123000000000000000e+03 1.623665618896484375e+01 -7.057745456695556641e+00 4.686205863952636719e+00 3.744830608367919922e+00 2.529310941696166992e+00 6.718196392059326172e+00
3.124000000000000000e+03 4.558233737945556641e+00 -2.591925239562988281e+01 -1.365526765584945679e-02 4.761030673980712891e+00 1.424212574958801270e+00 3.313981294631958008e+00
3.125000000000000000e+03 1.901600837707519531e+01 -7.667177170515060425e-02 -2.782825529575347900e-01 5.837707042694091797e+00 1.667827367782592773e+00 9.052652716636657715e-01
3.126000000000000000e+03 4.219585895538330078e+00 3.662481689453125000e+01 -2.463021082803606987e-04 1.309060752391815186e-01 3.919792920351028442e-02 -7.929535955190658569e-02
3.127000000000000000e+03 2.362173080444335938e+01 -6.983046531677246094e+00 3.605863809585571289e+00 1.091989278793334961e+00 1.409355878829956055e+00 -4.237843751907348633e-01
3.128000000000000000e+03 2.328331947326660156e+01 -6.408279895782470703e+00 4.577224731445312500e+00 1.352943181991577148e+00 1.779050350189208984e+00 6.916344165802001953e-02
3.129000000000000000e+03 4.798891067504882812e+01 -2.623552894592285156e+01 2.072986841201782227e+00 7.026231765747070312e+00 2.729765653610229492e+00 -2.716352224349975586e+00
3.130000000000000000e+03 7.522888946533203125e+01 -1.646679496765136719e+01 -4.311873614788055420e-01 7.084080696105957031e+00 1.995867967605590820e+00 -2.625006437301635742e-01
3.131000000000000000e+03 1.359214019775390625e+01 -6.256158828735351562e+00 3.777083158493041992e+00 3.761162757873535156e-01 1.245959758758544922e+00 3.318740367889404297e+00
3.132000000000000000e+03 3.282268905639648438e+01 -1.539351177215576172e+01 -1.530754685401916504e+00 8.062138557434082031e-01 -2.173622399568557739e-01 -6.873724460601806641e-01
3.133000000000000000e+03 4.800348281860351562e+01 -3.581568145751953125e+01 -1.308509111404418945e+00 6.708740234375000000e+00 1.620069265365600586e+00 -6.543676257133483887e-01
3.134000000000000000e+03 7.344027709960937500e+01 -1.461396217346191406e+01 -3.489778935909271240e-01 6.250587463378906250e+00 1.770482778549194336e+00 -5.458029508590698242e-01
3.135000000000000000e+03 3.797352981567382812e+01 2.317730140686035156e+01 4.635099470615386963e-01 6.350371360778808594e+00 2.044164419174194336e+00 1.658048629760742188e-01
3.136000000000000000e+03 1.265652656555175781e+01 3.925076007843017578e+00 1.212009117007255554e-01 2.868262529373168945e-01 1.224081516265869141e-01 -1.623784005641937256e-02
3.137000000000000000e+03 2.550826835632324219e+01 2.893671226501464844e+01 -2.448430210351943970e-01 3.852870225906372070e+00 1.082408189773559570e+00 -5.466440320014953613e-01
3.138000000000000000e+03 1.080721473693847656e+01 -3.298847961425781250e+01 -1.774690747261047363e+00 1.357815504074096680e+00 -1.250625848770141602e-01 2.177381813526153564e-01
3.139000000000000000e+03 1.207946681976318359e+01 -3.287044906616210938e+01 -2.006028413772583008e+00 2.384366989135742188e-01 -5.302775502204895020e-01 3.149849474430084229e-01
3.140000000000000000e+03 1.896872711181640625e+01 5.135332345962524414e-01 -2.933994829654693604e-01 5.216328144073486328e+00 1.476878643035888672e+00 5.899701714515686035e-01
3.141000000000000000e+03 1.900226020812988281e+01 1.060327291488647461e+00 -2.294792234897613525e-01 4.797257900238037109e+00 1.370333552360534668e+00 4.865649938583374023e-01
3.142000000000000000e+03 1.341788959503173828e+01 5.514845848083496094e+00 3.103351593017578125e-01 7.692821621894836426e-01 3.238852024078369141e-01 -1.504223942756652832e-01
3.143000000000000000e+03 4.700023269653320312e+01 -1.447695922851562500e+01 -1.107988715171813965e+00 6.738110065460205078e+00 1.689036488533020020e+00 -6.599825620651245117e-01
3.144000000000000000e+03 4.585348510742187500e+01 -1.453503227233886719e+01 -1.090752840042114258e+00 7.213145732879638672e+00 1.836717844009399414e+00 -9.120422601699829102e-01
3.145000000000000000e+03 2.121575927734375000e+01 -9.767851829528808594e-01 1.714808464050292969e+00 5.653030872344970703e+00 2.210351943969726562e+00 3.025357961654663086e+00
3.146000000000000000e+03 2.082164573669433594e+01 -7.532054781913757324e-01 1.351436138153076172e+00 5.856871604919433594e+00 2.162492275238037109e+00 2.773576974868774414e+00
3.147000000000000000e+03 1.365917873382568359e+01 -6.897149085998535156e+00 3.448590517044067383e+00 9.902616143226623535e-01 1.331655621528625488e+00 4.197636127471923828e+00
3.148000000000000000e+03 1.405084705352783203e+01 -6.829195022583007812e+00 4.019296169281005859e+00 9.773636460304260254e-01 1.498997926712036133e+00 4.613240718841552734e+00
3.149000000000000000e+03 3.342399215698242188e+01 -1.303664493560791016e+01 -8.089250326156616211e-01 1.868632078170776367e+00 3.179121017456054688e-01 -1.784232735633850098e+00
3.150000000000000000e+03 1.944510841369628906e+01 1.113927125930786133e+00 -8.256697654724121094e-02 5.030864238739013672e+00 1.484489202499389648e+00 8.066062331199645996e-01
3.151000000000000000e+03 7.232655334472656250e+01 -1.445789241790771484e+01 -2.488074749708175659e-01 5.677877902984619141e+00 1.628721117973327637e+00 -5.015759468078613281e-01
3.152000000000000000e+03 8.974806785583496094e+00 -4.910689830780029297e+00 3.695513904094696045e-01 6.693912148475646973e-01 3.116827607154846191e-01 4.742842316627502441e-01
3.153000000000000000e+03 2.148432350158691406e+01 -4.657058715820312500e-01 1.483186483383178711e+00 5.280592918395996094e+00 2.029133796691894531e+00 2.592769145965576172e+00
3.154000000000000000e+03 4.717425537109375000e+01 -1.537186622619628906e+01 -1.066734075546264648e+00 6.821468353271484375e+00 1.726420283317565918e+00 -6.060554981231689453e-01
3.155000000000000000e+03 7.122392654418945312e+00 -3.440196609497070312e+01 -1.126344203948974609e+00 3.630935192108154297e+00 7.513773441314697266e-01 4.481844007968902588e-01
3.156000000000000000e+03 6.053638935089111328e+00 -7.253481864929199219e+00 -1.548395585268735886e-02 9.792670011520385742e-01 2.891349196434020996e-01 -6.015002727508544922e-02
3.157000000000000000e+03 2.009961128234863281e+01 -1.980938166379928589e-01 4.028862118721008301e-01 5.965455055236816406e+00 1.910502314567565918e+00 1.897920489311218262e+00
3.158000000000000000e+03 7.466665649414062500e+01 8.004856109619140625e+00 6.312125176191329956e-02 8.533522605895996094e+00 2.578993320465087891e+00 7.064214348793029785e-01
3.159000000000000000e+03 7.394924163818359375e+01 1.449854755401611328e+01 -7.379411906003952026e-02 8.480991363525390625e+00 2.522159099578857422e+00 3.786343634128570557e-01
3.160000000000000000e+03 2.300684547424316406e+01 -9.668100357055664062e+00 -3.468287587165832520e-01 6.140799522399902344e-01 8.017535507678985596e-02 -9.351455569267272949e-01
3.161000000000000000e+03 9.271615982055664062e+00 7.252912998199462891e+00 2.855590283870697021e-01 7.680679857730865479e-02 1.087097451090812683e-01 2.202215194702148438e-01
3.162000000000000000e+03 7.321599578857421875e+01 2.612960052490234375e+01 2.234228253364562988e-01 7.717391967773437500e+00 2.382244586944580078e+00 5.934942960739135742e-01
3.163000000000000000e+03 1.390527439117431641e+01 -7.855729103088378906e+00 2.649610996246337891e+00 1.893630027770996094e+00 1.362972378730773926e+00 5.186969757080078125e+00
3.164000000000000000e+03 7.359417724609375000e+01 1.752879524230957031e+01 7.725945115089416504e-02 8.525176048278808594e+00 2.580730676651000977e+00 4.744240343570709229e-01
3.165000000000000000e+03 2.285144424438476562e+01 -9.035928726196289062e+00 1.004373669624328613e+00 1.076158404350280762e+00 6.241596341133117676e-01 -8.948931694030761719e-01
3.166000000000000000e+03 7.350606441497802734e+00 -8.977734565734863281e+00 -2.901213616132736206e-02 2.229190111160278320e+00 6.600533723831176758e-01 6.010792851448059082e-01
3.167000000000000000e+03 7.184019088745117188e+00 -9.821124076843261719e+00 -1.498480737209320068e-01 2.580696821212768555e+00 7.292546033859252930e-01 5.399109125137329102e-01
3.168000000000000000e+03 6.352367401123046875e+00 6.828379631042480469e+00 1.190531402826309204e-01 -1.924005299806594849e-01 -2.200421690940856934e-02 3.596881330013275146e-01
3.169000000000000000e+03 2.919720077514648438e+01 -1.201656341552734375e+01 -1.694236993789672852e+00 1.123989462852478027e+00 -1.710742563009262085e-01 -1.090483784675598145e+00
3.170000000000000000e+03 1.595785045623779297e+01 4.971317291259765625e+00 2.070900201797485352e-01 1.888269901275634766e+00 6.286079883575439453e-01 -3.143213987350463867e-01
3.171000000000000000e+03 7.318215942382812500e+01 -1.247482299804687500e+01 -9.441974759101867676e-02 6.207481384277343750e+00 1.833918452262878418e+00 -4.259080588817596436e-01
3.172000000000000000e+03 1.243314552307128906e+01 -7.041051387786865234e+00 2.270002365112304688e+00 1.130320191383361816e+00 1.020096778869628906e+00 3.244645118713378906e+00
3.173000000000000000e+03 1.339434719085693359e+01 -8.051676750183105469e+00 2.144075632095336914e+00 2.029951095581054688e+00 1.252207994461059570e+00 4.858712196350097656e+00
3.174000000000000000e+03 2.600551605224609375e+01 -2.526687622070312500e+00 3.344539880752563477e+00 2.275703430175781250e+00 1.686073064804077148e+00 1.206982493400573730e+00
3.175000000000000000e+03 7.149657440185546875e+01 -1.069242572784423828e+01 5.191019922494888306e-02 6.025856494903564453e+00 1.823330044746398926e+00 2.839317917823791504e-02
3.176000000000000000e+03 8.826690673828125000e+00 2.458738899230957031e+01 5.246987193822860718e-02 6.679658293724060059e-01 2.161307185888290405e-01 -2.914754748344421387e-01
3.177000000000000000e+03 8.373406410217285156e+00 -6.661647796630859375e+00 3.161529302597045898e-01 1.268371820449829102e+00 4.753574430942535400e-01 7.441509366035461426e-01
3.178000000000000000e+03 2.836800956726074219e+01 -9.415310859680175781e+00 2.226958749815821648e-03 1.140784978866577148e+00 3.429035842418670654e-01 -1.515173792839050293e+00
3.179000000000000000e+03 2.646583366394042969e+01 -2.115256071090698242e+00 3.136166334152221680e+00 2.411869764328002930e+00 1.664410829544067383e+00 1.114796161651611328e+00
3.180000000000000000e+03 2.721103477478027344e+01 -2.237581968307495117e+00 2.954124927520751953e+00 2.407430887222290039e+00 1.608466744422912598e+00 8.413031697273254395e-01
3.181000000000000000e+03 2.766568374633789062e+01 1.163131475448608398e+00 2.175470113754272461e+00 3.452902793884277344e+00 1.688511848449707031e+00 1.134081482887268066e+00
3.182000000000000000e+03 1.880029487609863281e+01 3.751116037368774414e+00 5.072560906410217285e-02 3.539083242416381836e+00 1.076942682266235352e+00 1.049892455339431763e-01
3.183000000000000000e+03 1.796600532531738281e+01 4.348507404327392578e+00 9.471294283866882324e-02 2.994546175003051758e+00 9.267777204513549805e-01 -1.254812777042388916e-01
3.184000000000000000e+03 9.818611145019531250e+00 -6.759507179260253906e+00 8.313664197921752930e-01 1.304470419883728027e+00 6.407510638236999512e-01 1.444723844528198242e+00
3.185000000000000000e+03 9.288940429687500000e+00 -6.583929061889648438e+00 5.699368119239807129e-01 1.242413163185119629e+00 5.437049865722656250e-01 1.099752187728881836e+00
3.186000000000000000e+03 2.744456100463867188e+01 -1.027623891830444336e+00 2.690449237823486328e+00 2.783083915710449219e+00 1.642059922218322754e+00 9.948145151138305664e-01
3.187000000000000000e+03 1.416736507415771484e+01 1.091510486602783203e+01 4.422325491905212402e-01 1.330864310264587402e+00 5.319290757179260254e-01 -1.932234168052673340e-01
3.188000000000000000e+03 1.871324348449707031e+01 5.968102455139160156e+00 2.626938819885253906e-01 3.018283843994140625e+00 9.842933416366577148e-01 -1.675070449709892273e-02
3.189000000000000000e+03 1.921294784545898438e+01 4.732662677764892578e+00 1.808479130268096924e-01 3.466474056243896484e+00 1.094196557998657227e+00 1.504330635070800781e-01
3.190000000000000000e+03 1.144817829132080078e+01 1.204966926574707031e+01 4.027515053749084473e-01 7.894670367240905762e-01 3.576655685901641846e-01 -9.926515072584152222e-02
3.191000000000000000e+03 9.965322494506835938e+00 1.276251220703125000e+01 3.294413089752197266e-01 5.071648359298706055e-01 2.509818375110626221e-01 -4.012430459260940552e-02
3.192000000000000000e+03 2.932934188842773438e+01 -2.108169794082641602e+00 2.418219804763793945e+00 2.620801687240600586e+00 1.511706471443176270e+00 1.811847537755966187e-01
3.193000000000000000e+03 3.001099586486816406e+01 1.287982654571533203e+01 1.388194084167480469e+00 4.780676841735839844e+00 1.850661277770996094e+00 -2.659531601238995790e-04
3.194000000000000000e+03 3.144666862487792969e+01 6.546539306640625000e+00 1.697162032127380371e+00 4.779585838317871094e+00 1.943024396896362305e+00 4.099481403827667236e-01
3.195000000000000000e+03 3.416564941406250000e+01 -5.544591426849365234e+00 8.272759914398193359e-01 3.421998262405395508e+00 1.274782299995422363e+00 -1.597634553909301758e+00
3.196000000000000000e+03 2.247819328308105469e+01 8.087574005126953125e+00 6.937719583511352539e-01 3.651297569274902344e+00 1.303520798683166504e+00 3.422591984272003174e-01
3.197000000000000000e+03 3.750366592407226562e+01 -2.016927003860473633e+00 7.266719341278076172e-01 5.004181861877441406e+00 1.719256043434143066e+00 -1.406570434570312500e+00
3.198000000000000000e+03 2.885123825073242188e+01 7.723160386085510254e-01 2.176479816436767578e+00 3.443161487579345703e+00 1.685892343521118164e+00 7.872926592826843262e-01
3.199000000000000000e+03 2.115727043151855469e+01 6.715701580047607422e+00 4.966555237770080566e-01 3.583298206329345703e+00 1.223986148834228516e+00 3.335098028182983398e-01
3.200000000000000000e+03 3.006228828430175781e+01 -2.134974241256713867e+00 2.183800220489501953e+00 2.828305244445800781e+00 1.503631591796875000e+00 -8.230143040418624878e-02
3.201000000000000000e+03 8.425742149353027344e+00 1.557456302642822266e+01 2.292580306529998779e-01 3.378057479858398438e-01 1.701191365718841553e-01 -8.635194599628448486e-02
3.202000000000000000e+03 2.825535202026367188e+01 9.082394838333129883e-01 2.195556163787841797e+00 3.439011812210083008e+00 1.690370440483093262e+00 9.954844117164611816e-01
3.203000000000000000e+03 2.196490287780761719e+01 5.572243213653564453e+00 5.772783756256103516e-01 3.882648468017578125e+00 1.337978005409240723e+00 6.178719401359558105e-01
3.204000000000000000e+03 2.051926612854003906e+01 7.854910373687744141e+00 4.717080593109130859e-01 3.279556035995483398e+00 1.125379204750061035e+00 1.259871125221252441e-01
3.205000000000000000e+03 2.176945114135742188e+01 8.452896118164062500e+00 6.171848773956298828e-01 3.478723526000976562e+00 1.228772521018981934e+00 2.242521047592163086e-01
3.206000000000000000e+03 2.749173927307128906e+01 1.415906143188476562e+01 1.081876277923583984e+00 4.237261772155761719e+00 1.595741391181945801e+00 -8.483483642339706421e-02
3.207000000000000000e+03 1.466216945648193359e+01 1.586586952209472656e+01 3.762961924076080322e-01 1.555921077728271484e+00 5.796651840209960938e-01 -2.805311381816864014e-01
3.208000000000000000e+03 2.065398788452148438e+01 6.132108211517333984e+00 4.186036884784698486e-01 3.561816453933715820e+00 1.194126009941101074e+00 3.168421983718872070e-01
3.209000000000000000e+03 2.244239234924316406e+01 8.923851966857910156e+00 6.850152611732482910e-01 3.550351858139038086e+00 1.270610094070434570e+00 2.353790551424026489e-01
3.210000000000000000e+03 9.463346481323242188e+00 1.824116325378417969e+01 2.084996104240417480e-01 6.266606450080871582e-01 2.505480647087097168e-01 -2.006823122501373291e-01
3.211000000000000000e+03 1.045355701446533203e+01 1.770631027221679688e+01 2.621793746948242188e-01 8.105056881904602051e-01 3.218055069446563721e-01 -2.232278883457183838e-01
3.212000000000000000e+03 2.134800529479980469e+01 1.003818035125732422e+01 6.047945022583007812e-01 3.230210781097412109e+00 1.150501608848571777e+00 3.959744051098823547e-02
3.213000000000000000e+03 1.098408794403076172e+01 -1.646191954612731934e+00 -7.141483426094055176e-01 5.186047777533531189e-02 -1.986863613128662109e-01 2.245756387710571289e-01
3.214000000000000000e+03 1.173736381530761719e+01 -1.058862924575805664e+00 -1.148497939109802246e+00 -1.490036845207214355e-01 -3.892504572868347168e-01 4.267896115779876709e-01
3.215000000000000000e+03 1.016906929016113281e+01 -1.301982879638671875e+00 -8.504655957221984863e-01 1.236382052302360535e-01 -2.180482298135757446e-01 1.746679544448852539e-01
3.216000000000000000e+03 1.234417438507080078e+01 -1.238128542900085449e+00 -1.145545959472656250e+00 -1.813224405050277710e-01 -3.980605304241180420e-01 5.011100172996520996e-01
3.217000000000000000e+03 1.209354877471923828e+01 -1.607340812683105469e+00 -8.586162924766540527e-01 -1.110604181885719299e-01 -2.909030318260192871e-01 4.243136048316955566e-01
3.218000000000000000e+03 1.104739379882812500e+01 -8.712424039840698242e-01 -1.057398915290832520e+00 -1.052357256412506104e-01 -3.487904071807861328e-01 3.665736019611358643e-01
3.219000000000000000e+03 1.028850173950195312e+01 -5.503330230712890625e-01 -9.040495157241821289e-01 1.164773665368556976e-02 -2.677205204963684082e-01 2.423532903194427490e-01
3.220000000000000000e+03 1.181266784667968750e+01 -2.048631429672241211e+00 -5.307263135910034180e-01 -1.768849790096282959e-02 -1.645244508981704712e-01 3.151457309722900391e-01
3.221000000000000000e+03 8.708005905151367188e+00 -3.793035149574279785e-01 -1.091088771820068359e+00 2.728428132832050323e-02 -3.191413581371307373e-01 1.602401211857795715e-02
3.222000000000000000e+03 9.517740249633789062e+00 -3.852671980857849121e-01 -9.326977133750915527e-01 4.282799735665321350e-02 -2.669609189033508301e-01 9.850681573152542114e-02
3.223000000000000000e+03 7.895932674407958984e+00 -3.785886764526367188e-01 -1.105546712875366211e+00 3.959275316447019577e-03 -3.304762244224548340e-01 -2.128440886735916138e-02
3.224000000000000000e+03 6.270096302032470703e+00 -3.796733021736145020e-01 -9.308063387870788574e-01 -1.131555996835231781e-03 -2.795813679695129395e-01 -6.400066614151000977e-02
3.225000000000000000e+03 5.457674503326416016e+00 -3.802586197853088379e-01 -7.831462621688842773e-01 7.511308882385492325e-03 -2.326904833316802979e-01 -7.362101972103118896e-02
3.226000000000000000e+03 4.645185470581054688e+00 -3.791693747043609619e-01 -6.141942739486694336e-01 -7.344491896219551563e-04 -1.844786107540130615e-01 -8.084792643785476685e-02
3.227000000000000000e+03 3.832310438156127930e+00 -3.774732351303100586e-01 -4.376296997070312500e-01 -2.978638978675007820e-03 -1.321824938058853149e-01 -7.761624455451965332e-02
3.228000000000000000e+03 3.020329713821411133e+00 -3.756989836692810059e-01 -2.680252790451049805e-01 -1.460744766518473625e-03 -8.084580302238464355e-02 -7.351179420948028564e-02
3.229000000000000000e+03 2.211687088012695312e+00 -3.756295442581176758e-01 -1.249516680836677551e-01 -1.231225579977035522e-02 -4.117917641997337341e-02 -5.508667975664138794e-02
3.230000000000000000e+03 3.630100488662719727e-01 -9.609881043434143066e-01 5.551220383495092392e-03 -1.431508362293243408e-02 -2.629159018397331238e-03 -1.643958128988742828e-02
3.231000000000000000e+03 1.040339469909667969e+00 -1.143230199813842773e+00 -2.915667556226253510e-02 -6.671074032783508301e-02 -2.876022644340991974e-02 -6.411759555339813232e-02
3.232000000000000000e+03 9.391937255859375000e+00 -1.125267148017883301e+00 -8.533082604408264160e-01 1.392418295145034790e-01 -2.142199426889419556e-01 1.380432397127151489e-01
3.233000000000000000e+03 8.625586509704589844e+00 -1.119303584098815918e+00 -8.009855151176452637e-01 8.612193167209625244e-02 -2.144590765237808228e-01 4.707665368914604187e-02
3.234000000000000000e+03 7.856897354125976562e+00 -1.118588685989379883e+00 -8.006635904312133789e-01 6.313672661781311035e-02 -2.212580740451812744e-01 -4.471266269683837891e-02
3.235000000000000000e+03 7.087037563323974609e+00 -1.118764638900756836e+00 -7.681228518486022949e-01 4.156257957220077515e-02 -2.179680913686752319e-01 -1.083344146609306335e-01
3.236000000000000000e+03 6.317830085754394531e+00 -1.119673252105712891e+00 -7.052013278007507324e-01 3.536803647875785828e-02 -2.009499818086624146e-01 -1.566816419363021851e-01
3.237000000000000000e+03 5.548792362213134766e+00 -1.120258569717407227e+00 -6.162226796150207520e-01 1.602293364703655243e-02 -1.800599247217178345e-01 -1.940498501062393188e-01
3.238000000000000000e+03 4.779687404632568359e+00 -1.119169354438781738e+00 -5.145744681358337402e-01 9.252783842384815216e-03 -1.515965014696121216e-01 -2.060344219207763672e-01
3.239000000000000000e+03 4.010197162628173828e+00 -1.117473244667053223e+00 -4.054293334484100342e-01 -2.535107079893350601e-03 -1.223893389105796814e-01 -2.165080755949020386e-01
3.240000000000000000e+03 3.241600751876831055e+00 -1.115699052810668945e+00 -2.906776070594787598e-01 -1.761638186872005463e-02 -9.248819947242736816e-02 -2.016253769397735596e-01
3.241000000000000000e+03 2.476342439651489258e+00 -1.115629553794860840e+00 -1.917375773191452026e-01 -3.432246670126914978e-02 -6.781800836324691772e-02 -1.713680326938629150e-01
3.242000000000000000e+03 1.724717855453491211e+00 -1.120273947715759277e+00 -9.849610924720764160e-02 -6.167321279644966125e-02 -4.805079847574234009e-02 -1.181817948818206787e-01
3.243000000000000000e+03 6.889154314994812012e-01 -4.032301306724548340e-01 -1.815191283822059631e-02 -1.359327975660562515e-02 -9.523557499051094055e-03 -8.934050565585494041e-04
3.244000000000000000e+03 7.082688331604003906e+00 -3.787645995616912842e-01 -1.043794631958007812e+00 1.688101701438426971e-02 -3.080740869045257568e-01 -4.617716372013092041e-02
3.245000000000000000e+03 1.416678190231323242e+00 -3.802739977836608887e-01 -3.855482861399650574e-02 -1.036439649760723114e-02 -1.467576716095209122e-02 -2.950552105903625488e-02
3.246000000000000000e+03 1.769928741455078125e+01 -4.371825695037841797e+00 3.626644515991210938e+01 6.551596641540527344e+00 1.284541225433349609e+01 -1.255638694763183594e+01
3.247000000000000000e+03 1.769099044799804688e+01 -4.389437675476074219e+00 4.785115814208984375e+01 2.785842657089233398e+00 1.519110012054443359e+01 -3.560202598571777344e+00
3.248000000000000000e+03 1.768627929687500000e+01 -4.408327579498291016e+00 5.332551574707031250e+01 4.505579948425292969e+00 1.734932899475097656e+01 3.626712083816528320e+00
3.249000000000000000e+03 1.768533897399902344e+01 -4.427773475646972656e+00 5.574879074096679688e+01 8.628952026367187500e+00 1.931332206726074219e+01 1.102352905273437500e+01
3.250000000000000000e+03 1.768819999694824219e+01 -4.447030544281005859e+00 5.524285888671875000e+01 1.446236991882324219e+01 2.091156768798828125e+01 1.708586502075195312e+01
3.251000000000000000e+03 1.769475555419921875e+01 -4.465361595153808594e+00 5.235653305053710938e+01 2.181661224365234375e+01 2.225194358825683594e+01 2.164246559143066406e+01
3.252000000000000000e+03 1.770475578308105469e+01 -4.482065677642822266e+00 4.789350128173828125e+01 2.945125198364257812e+01 2.320342636108398438e+01 2.400745201110839844e+01
3.253000000000000000e+03 1.771781730651855469e+01 -4.496503353118896484e+00 4.277023696899414062e+01 3.712202072143554688e+01 2.396767807006835938e+01 2.402823257446289062e+01
3.254000000000000000e+03 1.773343849182128906e+01 -4.508122444152832031e+00 3.768432235717773438e+01 4.328247833251953125e+01 2.429004096984863281e+01 2.203310012817382812e+01
3.255000000000000000e+03 1.775102233886718750e+01 -4.516477584838867188e+00 3.390104675292968750e+01 4.780243682861328125e+01 2.451104545593261719e+01 1.839191627502441406e+01
3.256000000000000000e+03 1.776989746093750000e+01 -4.521249294281005859e+00 3.165463256835937500e+01 5.041933822631835938e+01 2.462219047546386719e+01 1.365866851806640625e+01
3.257000000000000000e+03 1.778933906555175781e+01 -4.522255420684814453e+00 3.045421028137207031e+01 5.055247497558593750e+01 2.430200576782226562e+01 9.097025871276855469e+00
3.258000000000000000e+03 1.780860519409179688e+01 -4.519456863403320312e+00 3.190672111511230469e+01 4.937016677856445312e+01 2.438306617736816406e+01 4.894549369812011719e+00
3.259000000000000000e+03 1.782695960998535156e+01 -4.512961387634277344e+00 3.384248733520507812e+01 4.654532241821289062e+01 2.411634254455566406e+01 1.683912158012390137e+00
3.260000000000000000e+03 1.784369659423828125e+01 -4.503016948699951172e+00 3.689877319335937500e+01 4.289459609985351562e+01 2.393801116943359375e+01 -2.699963450431823730e-01
3.261000000000000000e+03 1.785817718505859375e+01 -4.490004539489746094e+00 4.031002044677734375e+01 3.955715560913085938e+01 2.396015357971191406e+01 -6.116178035736083984e-01
3.262000000000000000e+03 1.786984634399414062e+01 -4.474421501159667969e+00 4.416157913208007812e+01 3.573722457885742188e+01 2.396964263916015625e+01 5.250539779663085938e-01
3.263000000000000000e+03 1.787825965881347656e+01 -4.456864833831787109e+00 4.687215042114257812e+01 3.278082656860351562e+01 2.389589309692382812e+01 2.744539499282836914e+00
3.264000000000000000e+03 1.788309478759765625e+01 -4.438005924224853516e+00 4.894775009155273438e+01 3.112473297119140625e+01 2.402174377441406250e+01 6.323117256164550781e+00
3.265000000000000000e+03 1.788416481018066406e+01 -4.418567180633544922e+00 4.960688400268554688e+01 3.099544525146484375e+01 2.418069839477539062e+01 1.083121013641357422e+01
3.266000000000000000e+03 1.788142967224121094e+01 -4.399291515350341797e+00 4.803158187866210938e+01 3.166815376281738281e+01 2.390991973876953125e+01 1.540169048309326172e+01
3.267000000000000000e+03 1.787499618530273438e+01 -4.380917072296142578e+00 4.481237411499023438e+01 3.479671478271484375e+01 2.388272666931152344e+01 1.944564247131347656e+01
3.268000000000000000e+03 1.786510658264160156e+01 -4.364147186279296875e+00 3.944078445434570312e+01 3.890632629394531250e+01 2.350413322448730469e+01 2.240579414367675781e+01
3.269000000000000000e+03 1.785214233398437500e+01 -4.349623680114746094e+00 3.245602416992187500e+01 4.346646499633789062e+01 2.277674674987792969e+01 2.361831855773925781e+01
3.270000000000000000e+03 1.783659744262695312e+01 -4.337901592254638672e+00 2.500695800781250000e+01 4.783716201782226562e+01 2.185323524475097656e+01 2.266419410705566406e+01
3.271000000000000000e+03 1.781906890869140625e+01 -4.329430580139160156e+00 1.766544723510742188e+01 5.124340057373046875e+01 2.067265510559082031e+01 1.956216239929199219e+01
3.272000000000000000e+03 1.780022621154785156e+01 -4.324533939361572266e+00 1.066487979888916016e+01 5.243893051147460938e+01 1.893114280700683594e+01 1.489487838745117188e+01
3.273000000000000000e+03 1.778079032897949219e+01 -4.323399066925048828e+00 5.754697799682617188e+00 5.153676605224609375e+01 1.718743896484375000e+01 9.206846237182617188e+00
3.274000000000000000e+03 1.776150512695312500e+01 -4.326070308685302734e+00 1.789579391479492188e+00 4.777896118164062500e+01 1.487056159973144531e+01 3.214072704315185547e+00
3.275000000000000000e+03 1.774311065673828125e+01 -4.332444667816162109e+00 4.267425537109375000e-01 4.179048919677734375e+01 1.266516971588134766e+01 -2.433670282363891602e+00
3.276000000000000000e+03 1.772630882263183594e+01 -4.342278480529785156e+00 2.831002771854400635e-01 3.331530761718750000e+01 1.007952213287353516e+01 -7.006628036499023438e+00
3.277000000000000000e+03 1.771174240112304688e+01 -4.355195045471191406e+00 6.290893554687500000e+00 1.955691528320312500e+01 7.754343032836914062e+00 -1.016884803771972656e+01
