# el_label, x, y, sXX, sYY, sZZ, sXY
1.000000000000000000e+00 9.702937126159667969e+00 -2.983934059739112854e-02 1.245201015472412109e+01 -2.000159740447998047e+00 3.135555028915405273e+00 -8.150444030761718750e-01
2.000000000000000000e+00 9.504896163940429688e+00 -4.973223432898521423e-02 1.148679161071777344e+01 9.560416340827941895e-01 3.732850074768066406e+00 1.512593150138854980e+00
3.000000000000000000e+00 9.306854248046875000e+00 -6.962513178586959839e-02 8.474621772766113281e+00 -3.205676674842834473e-01 2.446216106414794922e+00 6.264123916625976562e-01
4.000000000000000000e+00 9.108813285827636719e+00 -8.951802551746368408e-02 6.995933532714843750e+00 2.068298608064651489e-01 2.160829067230224609e+00 7.315917611122131348e-01
5.000000000000000000e+00 9.714455604553222656e+00 -8.718428760766983032e-02 2.225561714172363281e+01 -1.521883249282836914e+00 6.220120429992675781e+00 4.115734577178955078e+00
6.000000000000000000e+00 9.524093627929687500e+00 -1.453071534633636475e-01 1.348010158538818359e+01 9.550278782844543457e-01 4.330538749694824219e+00 2.931249618530273438e+00
7.000000000000000000e+00 9.333730697631835938e+00 -2.034300118684768677e-01 1.161612987518310547e+01 9.933868050575256348e-01 3.782855033874511719e+00 3.173426866531372070e+00
8.000000000000000000e+00 9.143367767333984375e+00 -2.615528702735900879e-01 9.440543174743652344e+00 4.027742743492126465e-01 2.952995300292968750e+00 2.389415740966796875e+00
9.000000000000000000e+00 9.736933708190917969e+00 -1.411830335855484009e-01 2.433840751647949219e+01 3.112407207489013672e+00 8.235243797302246094e+00 1.029743385314941406e+01
1.000000000000000000e+01 9.561555862426757812e+00 -2.353050708770751953e-01 1.677371025085449219e+01 2.280192375183105469e+00 5.716170787811279297e+00 6.377387523651123047e+00
1.100000000000000000e+01 9.386178970336914062e+00 -3.294270932674407959e-01 1.284105968475341797e+01 2.462895631790161133e+00 4.591186523437500000e+00 5.289001464843750000e+00
1.200000000000000000e+01 9.210802078247070312e+00 -4.235491156578063965e-01 1.109418678283691406e+01 2.124121427536010742e+00 3.965492486953735352e+00 4.917957782745361328e+00
1.300000000000000000e+01 9.769508361816406250e+00 -1.897630989551544189e-01 2.374951362609863281e+01 9.169710159301757812e+00 9.875766754150390625e+00 1.459140777587890625e+01
1.400000000000000000e+01 9.615847587585449219e+00 -3.162718117237091064e-01 1.693142318725585938e+01 6.020277500152587891e+00 6.885510444641113281e+00 9.732047080993652344e+00
1.500000000000000000e+01 9.462185859680175781e+00 -4.427805542945861816e-01 1.369421291351318359e+01 4.932610511779785156e+00 5.588047027587890625e+00 7.984491825103759766e+00
1.600000000000000000e+01 9.308525085449218750e+00 -5.692892670631408691e-01 1.139634895324707031e+01 4.418647766113281250e+00 4.744499206542968750e+00 6.930829048156738281e+00
1.700000000000000000e+01 9.810929298400878906e+00 -2.310599088668823242e-01 2.088276481628417969e+01 1.628404808044433594e+01 1.115004348754882812e+01 1.671710777282714844e+01
1.800000000000000000e+01 9.684882164001464844e+00 -3.850998580455780029e-01 1.592948055267333984e+01 1.068714523315429688e+01 7.984987735748291016e+00 1.201551246643066406e+01
1.900000000000000000e+01 9.558835029602050781e+00 -5.391398072242736816e-01 1.282116889953613281e+01 8.653920173645019531e+00 6.442526817321777344e+00 9.828306198120117188e+00
2.000000000000000000e+01 9.432787895202636719e+00 -6.931797266006469727e-01 1.091842555999755859e+01 7.467247486114501953e+00 5.515701770782470703e+00 8.708948135375976562e+00
2.100000000000000000e+01 9.859606742858886719e+00 -2.634885013103485107e-01 1.775558280944824219e+01 2.300121688842773438e+01 1.222704029083251953e+01 1.659125328063964844e+01
2.200000000000000000e+01 9.766011238098144531e+00 -4.391474723815917969e-01 1.382458305358886719e+01 1.578532028198242188e+01 8.882970809936523438e+00 1.266067218780517578e+01
2.300000000000000000e+01 9.672415733337402344e+00 -6.148064732551574707e-01 1.140551948547363281e+01 1.280539417266845703e+01 7.263274192810058594e+00 1.070835971832275391e+01
2.400000000000000000e+01 9.578820228576660156e+00 -7.904654741287231445e-01 9.559439659118652344e+00 1.106475257873535156e+01 6.187257766723632812e+00 9.389889717102050781e+00
2.500000000000000000e+01 9.913672447204589844e+00 -2.858042120933532715e-01 1.491957759857177734e+01 2.856162643432617188e+01 1.304436111450195312e+01 1.450269222259521484e+01
2.600000000000000000e+01 9.856121063232421875e+00 -4.763403236865997314e-01 1.189468002319335938e+01 2.045538139343261719e+01 9.705018043518066406e+00 1.188008880615234375e+01
2.700000000000000000e+01 9.798569679260253906e+00 -6.668764352798461914e-01 9.630979537963867188e+00 1.674871635437011719e+01 7.913908958435058594e+00 1.021440505981445312e+01
2.800000000000000000e+01 9.741018295288085938e+00 -8.574125766754150391e-01 8.230323791503906250e+00 1.465685558319091797e+01 6.866153717041015625e+00 9.210960388183593750e+00
2.900000000000000000e+01 9.971052169799804688e+00 -2.971505522727966309e-01 1.349224662780761719e+01 3.239677810668945312e+01 1.376670837402343750e+01 1.125805664062500000e+01
3.000000000000000000e+01 9.951753616333007812e+00 -4.952509105205535889e-01 1.033497238159179688e+01 2.406375122070312500e+01 1.031961727142333984e+01 9.853132247924804688e+00
3.100000000000000000e+01 9.932455062866210938e+00 -6.933512687683105469e-01 8.444218635559082031e+00 2.004536628723144531e+01 8.546875000000000000e+00 8.742558479309082031e+00
3.200000000000000000e+01 9.913155555725097656e+00 -8.914516568183898926e-01 7.064791679382324219e+00 1.743346595764160156e+01 7.349477291107177734e+00 7.916980266571044922e+00
3.300000000000000000e+01 1.002954196929931641e+01 -2.970920503139495850e-01 1.332355594635009766e+01 3.422591781616210938e+01 1.426484203338623047e+01 7.582522392272949219e+00
3.400000000000000000e+01 1.004923725128173828e+01 -4.951534271240234375e-01 9.903494834899902344e+00 2.638838386535644531e+01 1.088756370544433594e+01 7.217088222503662109e+00
3.500000000000000000e+01 1.006893157958984375e+01 -6.932148337364196777e-01 7.891570091247558594e+00 2.212666702270507812e+01 9.005471229553222656e+00 6.530370712280273438e+00
3.600000000000000000e+01 1.008862686157226562e+01 -8.912761807441711426e-01 6.609517574310302734e+00 1.946832084655761719e+01 7.823351383209228516e+00 6.009708881378173828e+00
3.700000000000000000e+01 1.008689880371093750e+01 -2.856309711933135986e-01 1.458504867553710938e+01 3.439832687377929688e+01 1.469501304626464844e+01 4.324429035186767578e+00
3.800000000000000000e+01 1.014483070373535156e+01 -4.760516285896301270e-01 1.042275047302246094e+01 2.717978858947753906e+01 1.128076171875000000e+01 4.446593761444091797e+00
3.900000000000000000e+01 1.020276355743408203e+01 -6.664722561836242676e-01 8.354169845581054688e+00 2.307145309448242188e+01 9.427687644958496094e+00 4.173456668853759766e+00
4.000000000000000000e+01 1.026069545745849609e+01 -8.568928837776184082e-01 6.902432441711425781e+00 2.033860969543457031e+01 8.172312736511230469e+00 3.921733617782592773e+00
4.100000000000000000e+01 1.014091968536376953e+01 -2.632071673870086670e-01 1.662090682983398438e+01 3.322510147094726562e+01 1.495380210876464844e+01 1.912731051445007324e+00
4.200000000000000000e+01 1.023486614227294922e+01 -4.386786222457885742e-01 1.197005653381347656e+01 2.676817893981933594e+01 1.162147045135498047e+01 2.147542476654052734e+00
4.300000000000000000e+01 1.032881259918212891e+01 -6.141500473022460938e-01 9.569660186767578125e+00 2.280532073974609375e+01 9.712494850158691406e+00 2.117655754089355469e+00
4.400000000000000000e+01 1.042275905609130859e+01 -7.896215319633483887e-01 8.063384056091308594e+00 2.021465873718261719e+01 8.483412742614746094e+00 2.082268476486206055e+00
4.500000000000000000e+01 1.018953227996826172e+01 -2.306813150644302368e-01 1.910678100585937500e+01 3.141194915771484375e+01 1.515561866760253906e+01 6.479360461235046387e-01
4.600000000000000000e+01 1.031588745117187500e+01 -3.844688534736633301e-01 1.402275753021240234e+01 2.537204742431640625e+01 1.181844139099121094e+01 6.558607816696166992e-01
4.700000000000000000e+01 1.044224262237548828e+01 -5.382564067840576172e-01 1.144557189941406250e+01 2.173249244689941406e+01 9.953418731689453125e+00 7.820871472358703613e-01
4.800000000000000000e+01 1.056859779357910156e+01 -6.920439004898071289e-01 9.676741600036621094e+00 1.925189399719238281e+01 8.678590774536132812e+00 8.282064795494079590e-01
4.900000000000000000e+01 1.023087024688720703e+01 -1.893017292022705078e-01 2.138754272460937500e+01 2.933016395568847656e+01 1.521531200408935547e+01 4.563513398170471191e-01
5.000000000000000000e+01 1.038478469848632812e+01 -3.155028820037841797e-01 1.629053688049316406e+01 2.359750556945800781e+01 1.196641254425048828e+01 2.301841378211975098e-01
5.100000000000000000e+01 1.053869819641113281e+01 -4.417040348052978516e-01 1.342522144317626953e+01 2.015039062500000000e+01 1.007268333435058594e+01 3.140019178390502930e-01
5.200000000000000000e+01 1.069261169433593750e+01 -5.679051876068115234e-01 1.155623626708984375e+01 1.788344383239746094e+01 8.831904411315917969e+00 4.234918951988220215e-01
5.300000000000000000e+01 1.026334762573242188e+01 -1.406566202640533447e-01 2.324269294738769531e+01 2.755194664001464844e+01 1.523839187622070312e+01 1.240904211997985840e+00
5.400000000000000000e+01 1.043891334533691406e+01 -2.344277054071426392e-01 1.815391159057617188e+01 2.177659416198730469e+01 1.197915172576904297e+01 7.839570045471191406e-01
5.500000000000000000e+01 1.061447906494140625e+01 -3.281987905502319336e-01 1.519267940521240234e+01 1.863170242309570312e+01 1.014731407165527344e+01 8.087096214294433594e-01
5.600000000000000000e+01 1.079004383087158203e+01 -4.219698905944824219e-01 1.316850757598876953e+01 1.646735954284667969e+01 8.890759468078613281e+00 7.838795185089111328e-01
5.700000000000000000e+01 1.028571796417236328e+01 -8.661302924156188965e-02 2.427489089965820312e+01 2.613997268676757812e+01 1.512445926666259766e+01 2.702182531356811523e+00
5.800000000000000000e+01 1.047619628906250000e+01 -1.443550437688827515e-01 1.930825424194335938e+01 2.054237747192382812e+01 1.195518875122070312e+01 2.192067146301269531e+00
5.900000000000000000e+01 1.066667461395263672e+01 -2.020970582962036133e-01 1.625219726562500000e+01 1.739191436767578125e+01 1.009323310852050781e+01 1.983120918273925781e+00
6.000000000000000000e+01 1.085715293884277344e+01 -2.598390877246856689e-01 1.419188785552978516e+01 1.550369548797607422e+01 8.908675193786621094e+00 1.914748668670654297e+00
6.100000000000000000e+01 1.029712104797363281e+01 -2.924515865743160248e-02 2.440244293212890625e+01 2.554732513427734375e+01 1.498493099212646484e+01 4.610372066497802734e+00
6.200000000000000000e+01 1.049520206451416016e+01 -4.874193295836448669e-02 1.939044570922851562e+01 1.992793273925781250e+01 1.179551410675048828e+01 4.055881500244140625e+00
6.300000000000000000e+01 1.069328308105468750e+01 -6.823870539665222168e-02 1.634732246398925781e+01 1.699392318725585938e+01 1.000237369537353516e+01 3.590166807174682617e+00
6.400000000000000000e+01 1.089136409759521484e+01 -8.773547410964965820e-02 1.436233425140380859e+01 1.491078758239746094e+01 8.781936645507812500e+00 3.378968715667724609e+00
6.500000000000000000e+01 1.029712104797363281e+01 2.924515865743160248e-02 2.338811874389648438e+01 2.562699699401855469e+01 1.470453453063964844e+01 6.668004035949707031e+00
6.600000000000000000e+01 1.049520206451416016e+01 4.874193295836448669e-02 1.835269737243652344e+01 2.032963752746582031e+01 1.160470008850097656e+01 5.921773910522460938e+00
6.700000000000000000e+01 1.069328308105468750e+01 6.823870539665222168e-02 1.537446689605712891e+01 1.725468635559082031e+01 9.788745880126953125e+00 5.255571842193603516e+00
6.800000000000000000e+01 1.089136409759521484e+01 8.773547410964965820e-02 1.346530342102050781e+01 1.518786716461181641e+01 8.595951080322265625e+00 4.769206047058105469e+00
6.900000000000000000e+01 1.028571796417236328e+01 8.661302924156188965e-02 2.129129981994628906e+01 2.672081565856933594e+01 1.440363407135009766e+01 8.470558166503906250e+00
7.000000000000000000e+01 1.047619628906250000e+01 1.443550437688827515e-01 1.616016006469726562e+01 2.139682960510253906e+01 1.126709651947021484e+01 7.380791187286376953e+00
7.100000000000000000e+01 1.066667461395263672e+01 2.020970582962036133e-01 1.350465488433837891e+01 1.833278846740722656e+01 9.551232337951660156e+00 6.477663516998291016e+00
7.200000000000000000e+01 1.085715293884277344e+01 2.598390877246856689e-01 1.168085575103759766e+01 1.607732963562011719e+01 8.327455520629882812e+00 5.900230407714843750e+00
7.300000000000000000e+01 1.026334762573242188e+01 1.406566202640533447e-01 1.802158927917480469e+01 2.842313194274902344e+01 1.393341636657714844e+01 9.653897285461425781e+00
7.400000000000000000e+01 1.043891334533691406e+01 2.344277054071426392e-01 1.322142887115478516e+01 2.316728401184082031e+01 1.091661357879638672e+01 7.969245910644531250e+00
7.500000000000000000e+01 1.061447906494140625e+01 3.281987905502319336e-01 1.085145950317382812e+01 1.969616508483886719e+01 9.164287567138671875e+00 6.977372646331787109e+00
7.600000000000000000e+01 1.079004383087158203e+01 4.219698905944824219e-01 9.485143661499023438e+00 1.748035049438476562e+01 8.089648246765136719e+00 6.301097393035888672e+00
7.700000000000000000e+01 1.023087024688720703e+01 1.893017292022705078e-01 1.404037666320800781e+01 3.074051475524902344e+01 1.343426704406738281e+01 9.694329261779785156e+00
7.800000000000000000e+01 1.038478469848632812e+01 3.155028820037841797e-01 9.780816078186035156e+00 2.492189216613769531e+01 1.041081237792968750e+01 7.534614562988281250e+00
7.900000000000000000e+01 1.053869819641113281e+01 4.417040348052978516e-01 7.978589057922363281e+00 2.126399421691894531e+01 8.772775650024414062e+00 6.464030265808105469e+00
8.000000000000000000e+01 1.069261169433593750e+01 5.679051876068115234e-01 6.828471660614013672e+00 1.873973655700683594e+01 7.670462608337402344e+00 5.792771339416503906e+00
8.100000000000000000e+01 1.018953227996826172e+01 2.306813150644302368e-01 9.659557342529296875e+00 3.296287155151367188e+01 1.278672885894775391e+01 8.371004104614257812e+00
8.200000000000000000e+01 1.031588745117187500e+01 3.844688534736633301e-01 6.497802257537841797e+00 2.635485839843750000e+01 9.855797767639160156e+00 5.940664291381835938e+00
8.300000000000000000e+01 1.044224262237548828e+01 5.382564067840576172e-01 5.159008502960205078e+00 2.237883567810058594e+01 8.261353492736816406e+00 4.998616218566894531e+00
8.400000000000000000e+01 1.056859779357910156e+01 6.920439004898071289e-01 4.285149097442626953e+00 1.975346755981445312e+01 7.211585044860839844e+00 4.447276115417480469e+00
8.500000000000000000e+01 1.014091968536376953e+01 2.632071673870086670e-01 5.650733947753906250e+00 3.446388626098632812e+01 1.203438663482666016e+01 5.605198383331298828e+00
8.600000000000000000e+01 1.023486614227294922e+01 4.386786222457885742e-01 3.763874769210815430e+00 2.691323661804199219e+01 9.203133583068847656e+00 3.395244598388671875e+00
8.700000000000000000e+01 1.032881259918212891e+01 6.141500473022460938e-01 2.848362684249877930e+00 2.270398902893066406e+01 7.665705204010009766e+00 2.753483057022094727e+00
8.800000000000000000e+01 1.042275905609130859e+01 7.896215319633483887e-01 2.377365350723266602e+00 1.997876167297363281e+01 6.706838607788085938e+00 2.463332414627075195e+00
8.900000000000000000e+01 1.008689880371093750e+01 2.856309711933135986e-01 2.687761783599853516e+00 3.458499526977539062e+01 1.118182754516601562e+01 1.686450481414794922e+00
9.000000000000000000e+01 1.014483070373535156e+01 4.760516285896301270e-01 1.916580438613891602e+00 2.621051979064941406e+01 8.438130378723144531e+00 3.000481128692626953e-01
9.100000000000000000e+01 1.020276355743408203e+01 6.664722561836242676e-01 1.424860954284667969e+00 2.194572257995605469e+01 7.011174678802490234e+00 9.288317710161209106e-02
9.200000000000000000e+01 1.026069545745849609e+01 8.568928837776184082e-01 1.152713775634765625e+00 1.913580322265625000e+01 6.086555480957031250e+00 4.032083228230476379e-02
9.300000000000000000e+01 1.002954196929931641e+01 2.970920503139495850e-01 1.176633834838867188e+00 3.275146484375000000e+01 1.017842960357666016e+01 -2.692816257476806641e+00
9.400000000000000000e+01 1.004923725128173828e+01 4.951534271240234375e-01 1.194585084915161133e+00 2.415427780151367188e+01 7.604658603668212891e+00 -2.841132640838623047e+00
9.500000000000000000e+01 1.006893157958984375e+01 6.932148337364196777e-01 9.065222740173339844e-01 1.992070579528808594e+01 6.248168468475341797e+00 -2.547924757003784180e+00
9.600000000000000000e+01 1.008862686157226562e+01 8.912761807441711426e-01 7.348104119300842285e-01 1.730673789978027344e+01 5.412464141845703125e+00 -2.292651653289794922e+00
9.700000000000000000e+01 9.971052169799804688e+00 2.971505522727966309e-01 1.364067077636718750e+00 2.895174980163574219e+01 9.094744682312011719e+00 -6.741728782653808594e+00
9.800000000000000000e+01 9.951753616333007812e+00 4.952509105205535889e-01 1.394207000732421875e+00 2.068620491027832031e+01 6.624123573303222656e+00 -5.417276382446289062e+00
9.900000000000000000e+01 9.932455062866210938e+00 6.933512687683105469e-01 1.246112942695617676e+00 1.689317512512207031e+01 5.441786289215087891e+00 -4.697619438171386719e+00
1.000000000000000000e+02 9.913155555725097656e+00 8.914516568183898926e-01 1.040254712104797363e+00 1.449611186981201172e+01 4.660910129547119141e+00 -4.084481239318847656e+00
1.010000000000000000e+02 9.913672447204589844e+00 2.858042120933532715e-01 2.621446371078491211e+00 2.338859176635742188e+01 7.803011417388916016e+00 -9.492923736572265625e+00
1.020000000000000000e+02 9.856121063232421875e+00 4.763403236865997314e-01 2.421345472335815430e+00 1.628045654296875000e+01 5.610540390014648438e+00 -7.058391094207763672e+00
1.030000000000000000e+02 9.798569679260253906e+00 6.668764352798461914e-01 1.950092077255249023e+00 1.299130916595458984e+01 4.482420444488525391e+00 -5.841214179992675781e+00
1.040000000000000000e+02 9.741018295288085938e+00 8.574125766754150391e-01 1.854741930961608887e+00 1.116958427429199219e+01 3.907297849655151367e+00 -5.059663772583007812e+00
1.050000000000000000e+02 9.859606742858886719e+00 2.634885013103485107e-01 4.613977909088134766e+00 1.690488815307617188e+01 6.455659866333007812e+00 -1.044724750518798828e+01
1.060000000000000000e+02 9.766011238098144531e+00 4.391474723815917969e-01 3.323143243789672852e+00 1.132568073272705078e+01 4.394647121429443359e+00 -7.347123622894287109e+00
1.070000000000000000e+02 9.672415733337402344e+00 6.148064732551574707e-01 2.929643869400024414e+00 8.883487701416015625e+00 3.543939590454101562e+00 -5.897365570068359375e+00
1.080000000000000000e+02 9.578820228576660156e+00 7.904654741287231445e-01 2.414545774459838867e+00 7.437231540679931641e+00 2.955533266067504883e+00 -4.942167282104492188e+00
1.090000000000000000e+02 9.810929298400878906e+00 2.310599088668823242e-01 5.825401782989501953e+00 1.036321353912353516e+01 4.856584548950195312e+00 -9.369409561157226562e+00
1.100000000000000000e+02 9.684882164001464844e+00 3.850998580455780029e-01 3.947801113128662109e+00 6.533174514770507812e+00 3.144292593002319336e+00 -6.316596031188964844e+00
1.110000000000000000e+02 9.558835029602050781e+00 5.391398072242736816e-01 3.124629974365234375e+00 5.008986949920654297e+00 2.440085172653198242e+00 -4.766767501831054688e+00
1.120000000000000000e+02 9.432787895202636719e+00 6.931797266006469727e-01 2.687504053115844727e+00 4.261995792388916016e+00 2.084850072860717773e+00 -4.040344238281250000e+00
1.130000000000000000e+02 9.769508361816406250e+00 1.897630989551544189e-01 5.789091110229492188e+00 4.585407733917236328e+00 3.112349748611450195e+00 -6.607263088226318359e+00
1.140000000000000000e+02 9.615847587585449219e+00 3.162718117237091064e-01 3.073779106140136719e+00 2.576229810714721680e+00 1.695002675056457520e+00 -4.063892364501953125e+00
1.150000000000000000e+02 9.462185859680175781e+00 4.427805542945861816e-01 2.442752838134765625e+00 2.041338205337524414e+00 1.345227360725402832e+00 -2.988604545593261719e+00
1.160000000000000000e+02 9.308525085449218750e+00 5.692892670631408691e-01 1.847370505332946777e+00 1.990711808204650879e+00 1.151424646377563477e+00 -2.374037742614746094e+00
1.170000000000000000e+02 9.736933708190917969e+00 1.411830335855484009e-01 2.890671730041503906e+00 4.661141335964202881e-01 1.007035732269287109e+00 -2.838893413543701172e+00
1.180000000000000000e+02 9.561555862426757812e+00 2.353050708770751953e-01 8.401721715927124023e-01 -1.512542217969894409e-01 2.066753804683685303e-01 -1.298933863639831543e+00
1.190000000000000000e+02 9.386178970336914062e+00 3.294270932674407959e-01 -1.211823970079421997e-01 5.691768527030944824e-01 1.343983262777328491e-01 -8.748514652252197266e-01
1.200000000000000000e+02 9.210802078247070312e+00 4.235491156578063965e-01 1.057304590940475464e-01 6.855894923210144043e-01 2.373959720134735107e-01 -9.553747177124023438e-01
1.210000000000000000e+02 9.714455604553222656e+00 8.718428760766983032e-02 -2.652662754058837891e+00 -2.282746076583862305e+00 -1.480622649192810059e+00 1.428904652595520020e+00
1.220000000000000000e+02 9.524093627929687500e+00 1.453071534633636475e-01 -4.494060993194580078e+00 -4.860751628875732422e-01 -1.494040727615356445e+00 9.249522089958190918e-01
1.230000000000000000e+02 9.333730697631835938e+00 2.034300118684768677e-01 -2.989732980728149414e+00 2.549519538879394531e-01 -8.204343318939208984e-01 7.494289893656969070e-03
1.240000000000000000e+02 9.143367767333984375e+00 2.615528702735900879e-01 -2.774364233016967773e+00 -1.758181154727935791e-01 -8.850546479225158691e-01 3.205315470695495605e-01
1.250000000000000000e+02 9.702937126159667969e+00 2.983934059739112854e-02 -1.569515419006347656e+01 -1.858627438545227051e+00 -5.266134262084960938e+00 3.220273733139038086e+00
1.260000000000000000e+02 9.504896163940429688e+00 4.973223432898521423e-02 -8.165093421936035156e+00 5.338201522827148438e-01 -2.289381980895996094e+00 2.791454792022705078e-01
1.270000000000000000e+02 9.306854248046875000e+00 6.962513178586959839e-02 -7.006750106811523438e+00 -3.112632632255554199e-01 -2.195404052734375000e+00 5.747807621955871582e-01
1.280000000000000000e+02 9.108813285827636719e+00 8.951802551746368408e-02 -6.001573562622070312e+00 1.078232601284980774e-01 -1.768125057220458984e+00 3.753802180290222168e-01
1.290000000000000000e+02 1.158342361450195312e-01 -9.552106857299804688e-01 -1.400898117572069168e-02 -9.914880990982055664e-02 -3.394733741879463196e-02 -2.797811478376388550e-02
1.300000000000000000e+02 9.452310949563980103e-02 -5.196542143821716309e-01 -1.345599349588155746e-02 -2.559729665517807007e-02 -1.171598769724369049e-02 -1.725293323397636414e-02
1.310000000000000000e+02 8.047272264957427979e-02 -3.348883092403411865e-01 2.191849984228610992e-03 2.212194958701729774e-03 1.321213436312973499e-03 1.717839157208800316e-03
1.320000000000000000e+02 6.704595088958740234e-01 -1.189597725868225098e+00 -1.446427032351493835e-02 -5.921055004000663757e-02 -2.210244536399841309e-02 -1.074377074837684631e-01
1.330000000000000000e+02 4.989198446273803711e-01 -1.392871141433715820e+00 -2.911784499883651733e-02 -8.767915517091751099e-02 -3.503910079598426819e-02 -8.617300540208816528e-02
1.340000000000000000e+02 6.919136643409729004e-01 -1.388064265251159668e+00 -6.552750710397958755e-03 -9.839874505996704102e-02 -3.148544952273368835e-02 -9.910155832767486572e-02
1.350000000000000000e+02 2.494502544403076172e+00 -1.354987144470214844e+00 1.404524296522140503e-01 1.229460239410400391e-01 7.901953905820846558e-02 4.859339911490678787e-03
1.360000000000000000e+02 2.919969081878662109e+00 -1.376239299774169922e+00 2.374271750450134277e-01 1.439569890499114990e-01 1.144152432680130005e-01 8.803073316812515259e-02
1.370000000000000000e+02 2.470916032791137695e+00 -1.059127449989318848e+00 3.076822310686111450e-02 6.863895058631896973e-02 2.982215024530887604e-02 -4.954628273844718933e-02
1.380000000000000000e+02 2.876306295394897461e+00 -9.978117346763610840e-01 4.605070501565933228e-02 6.937171518802642822e-02 3.462672606110572815e-02 -1.863140962086617947e-03
1.390000000000000000e+02 2.802544832229614258e+00 -6.208453774452209473e-01 -1.602328568696975708e-01 2.599497698247432709e-02 -4.027136415243148804e-02 -3.761901706457138062e-02
1.400000000000000000e+02 3.299050569534301758e+00 -1.486306041479110718e-01 -5.344617366790771484e-01 4.107723478227853775e-03 -1.591061949729919434e-01 -9.313866496086120605e-03
1.410000000000000000e+02 3.092912435531616211e+00 -1.450943201780319214e-01 -5.235791206359863281e-01 2.156566915800794959e-04 -1.570090353488922119e-01 -1.325813401490449905e-02
1.420000000000000000e+02 3.699659109115600586e+00 -1.269613206386566162e-01 -5.362824201583862305e-01 1.255895826034247875e-03 -1.605079621076583862e-01 -2.147051563952118158e-04
1.430000000000000000e+02 3.894185304641723633e+00 -1.247326359152793884e-01 -5.239391922950744629e-01 5.836732219904661179e-03 -1.554307341575622559e-01 5.713163875043392181e-03
1.440000000000000000e+02 5.521253585815429688e+00 -1.368425250053405762e+00 1.494443535804748535e+00 3.600546717643737793e-01 5.563494563102722168e-01 9.478561878204345703e-01
1.450000000000000000e+02 5.718832492828369141e+00 -1.378246426582336426e+00 1.690817475318908691e+00 4.060257971286773682e-01 6.290529966354370117e-01 1.080007195472717285e+00
1.460000000000000000e+02 5.892667293548583984e+00 -1.387828886508941650e-01 1.279262900352478027e-01 7.279834244400262833e-03 4.056183621287345886e-02 8.342476189136505127e-02
1.470000000000000000e+02 5.484801769256591797e+00 -1.456770151853561401e-01 -9.808451682329177856e-02 1.082472410053014755e-02 -2.617793716490268707e-02 6.560676544904708862e-02
1.480000000000000000e+02 6.314941406250000000e+00 -1.399257540702819824e+00 2.368843317031860352e+00 5.787982344627380371e-01 8.842924833297729492e-01 1.544688344001770020e+00
1.490000000000000000e+02 6.297612190246582031e+00 -1.303483098745346069e-01 4.098786115646362305e-01 1.173717062920331955e-02 1.264847368001937866e-01 1.006604209542274475e-01
1.500000000000000000e+02 6.114730358123779297e+00 -1.392511487007141113e+00 2.141768693923950195e+00 4.814258515834808350e-01 7.869583964347839355e-01 1.365474820137023926e+00
1.510000000000000000e+02 6.672454357147216797e+00 -1.408431291580200195e+00 2.773071050643920898e+00 7.195535302162170410e-01 1.047787308692932129e+00 1.831349968910217285e+00
1.520000000000000000e+02 7.689256191253662109e+00 -1.350958108901977539e+00 4.494721889495849609e+00 1.414476633071899414e+00 1.772759556770324707e+00 3.094857692718505859e+00
1.530000000000000000e+02 8.410909652709960938e+00 -3.483122587203979492e-01 5.162043094635009766e+00 1.931602507829666138e-01 1.606561064720153809e+00 1.382558941841125488e+00
1.540000000000000000e+02 8.302818298339843750e+00 -1.324055194854736328e+00 5.829646110534667969e+00 2.492606639862060547e+00 2.496675729751586914e+00 4.410686492919921875e+00
1.550000000000000000e+02 9.688844680786132812e+00 -1.044457077980041504e+00 7.097769737243652344e+00 1.319275760650634766e+01 6.087158203125000000e+00 8.392809867858886719e+00
1.560000000000000000e+02 1.025903892517089844e+01 -1.133519649505615234e+00 5.503765583038330078e+00 1.775361442565917969e+01 6.977213859558105469e+00 4.339809894561767578e+00
1.570000000000000000e+02 1.073481464385986328e+01 -1.144141316413879395e+00 6.438225746154785156e+00 1.624059486389160156e+01 6.803646087646484375e+00 1.558738112449645996e+00
1.580000000000000000e+02 1.108393096923828125e+01 -2.791437804698944092e-01 1.266864299774169922e+01 1.367344474792480469e+01 7.902626514434814453e+00 1.945140480995178223e+00
1.590000000000000000e+02 1.110609245300292969e+01 -8.639926463365554810e-02 1.272004222869873047e+01 1.353617191314697266e+01 7.876864433288574219e+00 3.241022586822509766e+00
1.600000000000000000e+02 1.125073242187500000e+01 3.355023860931396484e-01 9.864192008972167969e+00 1.309135437011718750e+01 6.886663913726806641e+00 4.976377964019775391e+00
1.610000000000000000e+02 1.096120643615722656e+01 5.763402581214904785e-01 7.796957015991210938e+00 1.587664031982421875e+01 7.102079391479492188e+00 5.715546607971191406e+00
1.620000000000000000e+02 1.065928459167480469e+01 8.806247115135192871e-01 3.265842199325561523e+00 1.786988830566406250e+01 6.340719223022460938e+00 3.665482521057128906e+00
1.630000000000000000e+02 9.162257194519042969e+00 1.101857781410217285e+00 2.117515802383422852e+00 3.648958921432495117e+00 1.729942440986633301e+00 -3.062608242034912109e+00
1.640000000000000000e+02 8.909451484680175781e+00 1.364026308059692383e+00 1.880995869636535645e+00 3.059016942977905273e+00 1.482003808021545410e+00 -2.519610166549682617e+00
1.650000000000000000e+02 8.948912620544433594e+00 3.158051371574401855e-01 -2.471921920776367188e+00 1.797820441424846649e-02 -7.361831068992614746e-01 1.789473742246627808e-01
1.660000000000000000e+02 8.910804748535156250e+00 1.078275069594383240e-01 -5.374548435211181641e+00 -1.117492467164993286e-01 -1.645889282226562500e+00 3.528088629245758057e-01
1.670000000000000000e+02 8.536369323730468750e+00 3.947198987007141113e-01 -2.347022771835327148e+00 3.612290322780609131e-02 -6.932699680328369141e-01 2.463320344686508179e-01
1.680000000000000000e+02 9.712758064270019531e+00 1.387733101844787598e+00 1.262749910354614258e+00 1.001871299743652344e+01 3.384438753128051758e+00 -3.512162685394287109e+00
1.690000000000000000e+02 9.905720710754394531e+00 1.375819563865661621e+00 7.706225514411926270e-01 1.167053604125976562e+01 3.732347488403320312e+00 -2.911477565765380859e+00
1.700000000000000000e+02 8.702444076538085938e+00 1.370556354522705078e+00 1.744827747344970703e+00 2.112661600112915039e+00 1.157246828079223633e+00 -1.999035716056823730e+00
1.710000000000000000e+02 8.508754730224609375e+00 1.347165107727050781e-01 -4.541521072387695312e+00 -3.990232571959495544e-02 -1.374427080154418945e+00 2.611945569515228271e-01
1.720000000000000000e+02 8.101596832275390625e+00 1.356433868408203125e+00 8.737530708312988281e-01 7.577450871467590332e-01 4.894494414329528809e-01 -7.415277957916259766e-01
1.730000000000000000e+02 8.103774070739746094e+00 1.460121721029281616e-01 -3.988854408264160156e+00 -5.052716657519340515e-02 -1.211814522743225098e+00 1.873756498098373413e-01
1.740000000000000000e+02 5.695895671844482422e+00 1.386821031570434570e+00 -4.637808203697204590e-01 7.223769556730985641e-03 -1.369671225547790527e-01 3.651504516601562500e-01
1.750000000000000000e+02 5.114307403564453125e+00 1.096266388893127441e+00 -7.507367730140686035e-01 -2.387180551886558533e-02 -2.323825657367706299e-01 4.055348336696624756e-01
1.760000000000000000e+02 5.508736133575439453e+00 1.152617573738098145e+00 -7.164679169654846191e-01 -1.782795041799545288e-02 -2.202887684106826782e-01 4.016845524311065674e-01
1.770000000000000000e+02 3.705371618270874023e+00 1.385451078414916992e+00 -3.899089395999908447e-01 -3.798757493495941162e-02 -1.283689588308334351e-01 4.155596792697906494e-01
1.780000000000000000e+02 3.707933187484741211e+00 1.598374396562576294e-01 -9.647909402847290039e-01 -1.326919998973608017e-03 -2.898353636264801025e-01 7.707852870225906372e-02
1.790000000000000000e+02 4.129785537719726562e+00 8.771088123321533203e-01 -7.375901341438293457e-01 -1.584433019161224365e-02 -2.260303497314453125e-01 3.478630483150482178e-01
1.800000000000000000e+02 3.529339075088500977e+00 6.908538937568664551e-01 -6.687227487564086914e-01 -1.929851435124874115e-02 -2.064063847064971924e-01 2.636259198188781738e-01
1.810000000000000000e+02 3.317279100418090820e+00 1.370108008384704590e+00 -3.592134714126586914e-01 -4.754536598920822144e-02 -1.220276579260826111e-01 4.021254181861877441e-01
1.820000000000000000e+02 3.117893695831298828e+00 1.336868524551391602e+00 -3.458155989646911621e-01 -5.202935263514518738e-02 -1.193534880876541138e-01 3.859738707542419434e-01
1.830000000000000000e+02 3.043033838272094727e+00 8.875674605369567871e-01 -4.693832099437713623e-01 -2.831402793526649475e-02 -1.493091732263565063e-01 3.035963773727416992e-01
1.840000000000000000e+02 2.487853288650512695e+00 1.092489838600158691e+00 -3.047536015510559082e-01 -5.207572877407073975e-02 -1.070487946271896362e-01 3.126319944858551025e-01
1.850000000000000000e+02 2.895749568939208984e+00 1.686940938234329224e-01 -6.024754643440246582e-01 -1.309182378463447094e-03 -1.811353862285614014e-01 6.338468194007873535e-02
1.860000000000000000e+02 2.300387144088745117e+00 1.371603012084960938e+00 -2.160543799400329590e-01 -8.163485676050186157e-02 -8.930677175521850586e-02 3.442178666591644287e-01
1.870000000000000000e+02 9.027634263038635254e-01 1.380576014518737793e+00 -5.285624414682388306e-02 -1.429121345281600952e-01 -5.873051285743713379e-02 1.631620526313781738e-01
1.880000000000000000e+02 7.064817547798156738e-01 1.379356741905212402e+00 -2.784505672752857208e-02 -1.456075459718704224e-01 -5.203578248620033264e-02 1.234431788325309753e-01
1.890000000000000000e+02 5.074881911277770996e-01 1.412107199430465698e-01 -1.165081863291561604e-03 -4.212790634483098984e-03 -1.613361760973930359e-03 4.327647387981414795e-03
1.900000000000000000e+02 1.111962795257568359e+00 1.164401471614837646e-01 -4.391630738973617554e-02 -6.291765253990888596e-03 -1.506242249161005020e-02 1.314393337815999985e-02
1.910000000000000000e+02 3.042126297950744629e-01 1.387158036231994629e+00 -8.026171475648880005e-03 -1.400115787982940674e-01 -4.441132768988609314e-02 6.825488805770874023e-02
1.920000000000000000e+02 1.001381948590278625e-01 9.661881327629089355e-01 1.375579042360186577e-03 -2.966399118304252625e-02 -8.486523292958736420e-03 1.090288814157247543e-02
1.930000000000000000e+02 9.696643054485321045e-02 7.573472261428833008e-01 -4.249029327183961868e-03 -9.090855717658996582e-03 -4.001965746283531189e-03 7.893443107604980469e-03
1.940000000000000000e+02 9.930790960788726807e-02 3.400205671787261963e-01 -1.222527120262384415e-03 2.948121866211295128e-03 5.176783888600766659e-04 -8.404356194660067558e-04
1.950000000000000000e+02 9.669021517038345337e-02 5.493029952049255371e-01 -1.205813488923013210e-03 1.737816724926233292e-03 1.596009533386677504e-04 1.908666919916868210e-03
1.960000000000000000e+02 3.021513521671295166e-01 1.321522593498229980e-01 2.004402689635753632e-03 -1.477584941312670708e-03 1.580453390488401055e-04 -3.480646701063960791e-04
1.970000000000000000e+02 9.223401546478271484e-01 1.477951705455780029e-01 -2.500561438500881195e-02 9.843995794653892517e-04 -7.206364534795284271e-03 1.022277399897575378e-02
1.980000000000000000e+02 1.470306277275085449e+00 1.393156498670578003e-01 -1.319396644830703735e-01 -6.473313551396131516e-03 -4.152389615774154663e-02 2.877279743552207947e-02
1.990000000000000000e+02 1.504559159278869629e+00 1.359539151191711426e+00 -1.177503764629364014e-01 -1.208149641752243042e-01 -7.156959921121597290e-02 2.481170296669006348e-01
2.000000000000000000e+02 1.882001399993896484e+00 1.690664887428283691e-01 -2.446067780256271362e-01 -1.561162178404629230e-03 -7.385038584470748901e-02 4.657416045665740967e-02
2.010000000000000000e+02 1.675266385078430176e+00 1.561140567064285278e-01 -1.858761757612228394e-01 -8.951098658144474030e-03 -5.844818055629730225e-02 4.067071154713630676e-02
2.020000000000000000e+02 2.088147163391113281e+00 1.728044748306274414e-01 -3.036487698554992676e-01 -3.249004716053605080e-03 -9.206933528184890747e-02 4.939232021570205688e-02
2.030000000000000000e+02 1.910987615585327148e+00 1.378558754920959473e+00 -1.672493368387222290e-01 -1.009499505162239075e-01 -8.045978844165802002e-02 2.970325350761413574e-01
2.040000000000000000e+02 3.938179492950439453e+00 4.657450318336486816e-01 -9.153237342834472656e-01 -1.081661228090524673e-02 -2.778421044349670410e-01 2.080349773168563843e-01
2.050000000000000000e+02 4.308200359344482422e+00 1.459887772798538208e-01 -1.266286373138427734e+00 4.328741692006587982e-03 -3.785873055458068848e-01 7.570253312587738037e-02
2.060000000000000000e+02 5.096124649047851562e+00 1.248127669095993042e-01 -1.705444693565368652e+00 7.178084342740476131e-04 -5.114180445671081543e-01 7.207234203815460205e-02
2.070000000000000000e+02 6.690669059753417969e+00 1.378771901130676270e+00 -2.064855396747589111e-01 9.423543512821197510e-02 -3.367502987384796143e-02 2.181575149297714233e-01
2.080000000000000000e+02 7.113923072814941406e+00 3.806204199790954590e-01 -2.349431276321411133e+00 -2.169915474951267242e-02 -7.113391757011413574e-01 2.778303921222686768e-01
2.090000000000000000e+02 7.700154304504394531e+00 1.426025778055191040e-01 -3.572421073913574219e+00 -2.719194069504737854e-02 -1.079883933067321777e+00 1.671542078256607056e-01
2.100000000000000000e+02 7.701015472412109375e+00 6.891489624977111816e-01 -1.397332668304443359e+00 -1.901202090084552765e-02 -4.249034225940704346e-01 2.719554305076599121e-01
2.110000000000000000e+02 9.123010635375976562e+00 7.135878205299377441e-01 1.630922079086303711e+00 1.674617409706115723e+00 9.916618466377258301e-01 -2.078633546829223633e+00
2.120000000000000000e+02 9.280339241027832031e+00 8.688903450965881348e-01 2.301096916198730469e+00 3.666307449340820312e+00 1.790221333503723145e+00 -3.267202377319335938e+00
2.130000000000000000e+02 1.029301166534423828e+01 1.328771829605102539e+00 5.916281342506408691e-01 1.481232738494873047e+01 4.621186733245849609e+00 -6.336137056350708008e-01
2.140000000000000000e+02 1.085127162933349609e+01 -7.153082489967346191e-01 1.006761837005615234e+01 1.619690513610839844e+01 7.879357337951660156e+00 5.024524927139282227e-01
2.150000000000000000e+02 1.038669395446777344e+01 -1.044695854187011719e+00 6.137280941009521484e+00 1.845591545104980469e+01 7.377959251403808594e+00 3.325467109680175781e+00
2.160000000000000000e+02 1.023865318298339844e+01 -1.373344063758850098e+00 4.581367492675781250e+00 1.605244636535644531e+01 6.190144062042236328e+00 4.707118034362792969e+00
2.170000000000000000e+02 8.705793380737304688e+00 -4.061450958251953125e-01 6.947930812835693359e+00 6.214832663536071777e-01 2.270824193954467773e+00 2.223728179931640625e+00
2.180000000000000000e+02 7.281956672668457031e+00 -1.351641416549682617e+00 3.753408908843994141e+00 9.560779333114624023e-01 1.412846088409423828e+00 2.438772678375244141e+00
2.190000000000000000e+02 6.853759765625000000e+00 -1.359755992889404297e+00 3.014927625656127930e+00 7.502498626708984375e-01 1.129553198814392090e+00 1.940847158432006836e+00
2.200000000000000000e+02 6.702738761901855469e+00 -1.331013590097427368e-01 7.773493528366088867e-01 1.871271058917045593e-02 2.388186156749725342e-01 1.358439624309539795e-01
2.210000000000000000e+02 5.115441322326660156e+00 -1.330337047576904297e+00 1.187981843948364258e+00 2.757817804813385010e-01 4.391290843486785889e-01 7.315887212753295898e-01
2.220000000000000000e+02 2.153861999511718750e+00 -1.689965426921844482e-01 -3.566608428955078125e-01 1.119771972298622131e-02 -1.036389321088790894e-01 -4.073359072208404541e-02
2.230000000000000000e+02 2.294748306274414062e+00 -1.361813902854919434e+00 1.112193316221237183e-01 1.008044034242630005e-01 6.360711902379989624e-02 -3.874275833368301392e-02
2.240000000000000000e+02 1.729924559593200684e+00 -4.902286231517791748e-01 -1.789010316133499146e-01 1.645513111725449562e-03 -5.317665264010429382e-02 -9.430284053087234497e-02
2.250000000000000000e+02 1.307962417602539062e+00 -1.655665636062622070e-01 -1.786685734987258911e-01 -4.991639871150255203e-03 -5.509806424379348755e-02 -3.444937989115715027e-02
2.260000000000000000e+02 1.026552543044090271e-01 -1.392542600631713867e+00 -4.372024908661842346e-02 -1.859821230173110962e-01 -6.891071051359176636e-02 -3.255917876958847046e-02
2.270000000000000000e+02 9.305203437805175781e+00 -8.744363784790039062e-01 9.324745178222656250e+00 6.825432300567626953e+00 4.845053195953369141e+00 7.870214939117431641e+00
2.280000000000000000e+02 1.704760074615478516e+00 -1.067720770835876465e+00 -7.186957169324159622e-03 1.784143038094043732e-02 3.196341684088110924e-03 -1.184448152780532837e-01
2.290000000000000000e+02 3.718739748001098633e+00 4.421119987964630127e-01 -8.373433947563171387e-01 -8.691241964697837830e-03 -2.538103759288787842e-01 1.963433474302291870e-01
2.300000000000000000e+02 9.469409942626953125e+00 9.639760851860046387e-01 2.345047473907470703e+00 6.580965518951416016e+00 2.677803754806518555e+00 -4.326071739196777344e+00
2.310000000000000000e+02 3.109212875366210938e+00 -1.420225858688354492e+00 3.160828351974487305e-01 1.794609129428863525e-01 1.486631184816360474e-01 1.370144337415695190e-01
2.320000000000000000e+02 3.673345804214477539e+00 -1.356542825698852539e+00 4.361431002616882324e-01 1.910261660814285278e-01 1.881507784128189087e-01 2.662616074085235596e-01
2.330000000000000000e+02 9.901885986328125000e+00 -1.074750423431396484e+00 6.158772468566894531e+00 1.595549297332763672e+01 6.634279727935791016e+00 7.342422962188720703e+00
2.340000000000000000e+02 1.107758998870849609e+01 1.039674431085586548e-01 1.219164371490478516e+01 1.383033752441406250e+01 7.806594371795654297e+00 4.485427856445312500e+00
2.350000000000000000e+02 1.089429092407226562e+01 9.207270741462707520e-01 4.305894374847412109e+00 1.621067237854003906e+01 6.154970169067382812e+00 4.459998607635498047e+00
2.360000000000000000e+02 1.080690765380859375e+01 1.168788671493530273e+00 2.676177263259887695e+00 1.551580524444580078e+01 5.457594871520996094e+00 3.089361190795898438e+00
2.370000000000000000e+02 1.065894412994384766e+01 1.228479743003845215e+00 1.723994612693786621e+00 1.595459651947021484e+01 5.303577423095703125e+00 2.064426422119140625e+00
2.380000000000000000e+02 1.009926033020019531e+01 1.109326839447021484e+00 6.779844760894775391e-01 1.530484390258789062e+01 4.794848442077636719e+00 -2.110808372497558594e+00
2.390000000000000000e+02 9.517053604125976562e+00 1.392658829689025879e+00 1.663715720176696777e+00 7.659077644348144531e+00 2.796838045120239258e+00 -3.710222959518432617e+00
2.400000000000000000e+02 7.899786949157714844e+00 1.355904221534729004e+00 6.668407917022705078e-01 5.296289920806884766e-01 3.589409291744232178e-01 -5.188338756561279297e-01
2.410000000000000000e+02 7.492914676666259766e+00 1.346846580505371094e+00 2.006900012493133545e-01 2.950969636440277100e-01 1.487360894680023193e-01 -1.547877639532089233e-01
2.420000000000000000e+02 6.091519355773925781e+00 1.358504295349121094e+00 -4.186569154262542725e-01 2.269985154271125793e-02 -1.187871173024177551e-01 3.252757191658020020e-01
2.430000000000000000e+02 4.462540626525878906e+00 1.066448926925659180e+00 -6.781299710273742676e-01 -2.098020538687705994e-02 -2.097330540418624878e-01 3.950223624706268311e-01
2.440000000000000000e+02 4.094229698181152344e+00 1.372979164123535156e+00 -4.373050630092620850e-01 -3.259178996086120605e-02 -1.409690529108047485e-01 4.241496920585632324e-01
2.450000000000000000e+02 1.286486506462097168e+00 1.162464618682861328e+00 -1.080506742000579834e-01 -1.002605482935905457e-01 -6.249336525797843933e-02 1.958675682544708252e-01
2.460000000000000000e+02 1.014702394604682922e-01 1.391971230506896973e+00 1.638397760689258575e-02 -8.837860077619552612e-02 -2.159838750958442688e-02 8.659129962325096130e-03
2.470000000000000000e+02 1.003239825367927551e-01 1.273108571767807007e-01 9.427628829143941402e-04 9.390658815391361713e-04 5.645486526191234589e-04 -9.435617830604314804e-04
2.480000000000000000e+02 7.329292297363281250e-01 4.319826960563659668e-01 -4.207394644618034363e-02 -1.974949240684509277e-02 -1.854703202843666077e-02 3.686494007706642151e-02
2.490000000000000000e+02 1.386239290237426758e+00 3.766362667083740234e-01 -1.308158636093139648e-01 -1.443203352391719818e-02 -4.357436671853065491e-02 7.838518917560577393e-02
2.500000000000000000e+02 2.292985677719116211e+00 1.655435413122177124e-01 -3.699521422386169434e-01 -7.617883384227752686e-03 -1.132710054516792297e-01 5.637055635452270508e-02
2.510000000000000000e+02 2.695286035537719727e+00 1.684379279613494873e-01 -5.255547761917114258e-01 -2.069398062303662300e-03 -1.582872569561004639e-01 6.167548894882202148e-02
2.520000000000000000e+02 3.501118183135986328e+00 4.493677020072937012e-01 -7.539141178131103516e-01 -9.448026306927204132e-03 -2.290086448192596436e-01 1.905426383018493652e-01
2.530000000000000000e+02 4.504174232482910156e+00 1.370491534471511841e-01 -1.368834257125854492e+00 -2.526827389374375343e-03 -4.114083051681518555e-01 7.339382171630859375e-02
2.540000000000000000e+02 5.468919277191162109e+00 4.039701819419860840e-01 -1.592212796211242676e+00 -1.782670617103576660e-02 -4.830118417739868164e-01 2.236085832118988037e-01
2.550000000000000000e+02 5.696718215942382812e+00 1.538996994495391846e-01 -2.051835298538208008e+00 -7.313739508390426636e-03 -6.177446842193603516e-01 1.008030921220779419e-01
2.560000000000000000e+02 6.107610225677490234e+00 1.532623320817947388e-01 -2.302096128463745117e+00 -8.370305411517620087e-03 -6.931399106979370117e-01 1.100567579269409180e-01
2.570000000000000000e+02 6.509176254272460938e+00 1.416981220245361328e-01 -2.586531639099121094e+00 1.606262172572314739e-03 -7.754776477813720703e-01 1.135912612080574036e-01
2.580000000000000000e+02 6.906415462493896484e+00 1.331113576889038086e-01 -2.887323379516601562e+00 -1.966917514801025391e-02 -8.720977306365966797e-01 1.221778914332389832e-01
2.590000000000000000e+02 8.711063385009765625e+00 1.229138299822807312e-01 -4.905847549438476562e+00 1.219581346958875656e-02 -1.468095541000366211e+00 2.849541902542114258e-01
2.600000000000000000e+02 1.103953266143798828e+01 2.695617675781250000e-01 1.096594524383544922e+01 1.464667797088623047e+01 7.683786869049072266e+00 5.481075763702392578e+00
2.610000000000000000e+02 1.114456081390380859e+01 7.576981186866760254e-01 6.346850872039794922e+00 1.443501281738281250e+01 6.234559059143066406e+00 5.208140373229980469e+00
2.620000000000000000e+02 1.048062229156494141e+01 1.001647591590881348e+00 1.770714998245239258e+00 1.774967002868652344e+01 5.856115818023681641e+00 1.827786087989807129e+00
2.630000000000000000e+02 8.897590637207031250e+00 -1.108529567718505859e-01 5.788408756256103516e+00 -5.494171008467674255e-02 1.720040082931518555e+00 6.233636140823364258e-01
2.640000000000000000e+02 9.020002365112304688e+00 -6.818686127662658691e-01 9.457975387573242188e+00 2.730397939682006836e+00 3.656512022018432617e+00 5.289850234985351562e+00
2.650000000000000000e+02 9.486912727355957031e+00 -9.693363308906555176e-01 8.426763534545898438e+00 9.931789398193359375e+00 5.507565975189208984e+00 8.631342887878417969e+00
2.660000000000000000e+02 1.111808109283447266e+01 -4.630428850650787354e-01 1.163190174102783203e+01 1.376131153106689453e+01 7.617963790893554688e+00 1.313003301620483398e+00
2.670000000000000000e+02 8.106524467468261719e+00 -1.612324267625808716e-01 3.095398426055908203e+00 -3.786139562726020813e-02 9.172610640525817871e-01 4.152852594852447510e-01
2.680000000000000000e+02 6.295588970184326172e+00 -3.674811720848083496e-01 8.902139067649841309e-01 3.532635793089866638e-02 2.776620686054229736e-01 3.162380754947662354e-01
2.690000000000000000e+02 5.241594791412353516e+00 -4.145678877830505371e-01 2.341318279504776001e-01 3.825500607490539551e-02 8.171604573726654053e-02 1.932724416255950928e-01
2.700000000000000000e+02 4.866126537322998047e+00 -3.414294123649597168e-01 -5.390794202685356140e-02 1.173893176019191742e-02 -1.265070214867591858e-02 9.888057410717010498e-02
2.710000000000000000e+02 2.643744945526123047e+00 -3.284434974193572998e-01 -3.432829380035400391e-01 9.416147135198116302e-03 -1.001600325107574463e-01 -4.227500781416893005e-02
2.720000000000000000e+02 2.499970436096191406e+00 -9.817486256361007690e-02 -4.647116065025329590e-01 5.446578143164515495e-04 -1.392500847578048706e-01 -1.567741483449935913e-02
2.730000000000000000e+02 1.716540455818176270e+00 -1.788551807403564453e-01 -2.699923217296600342e-01 -4.578867461532354355e-03 -8.237135410308837891e-02 -3.781469166278839111e-02
2.740000000000000000e+02 9.602549672126770020e-02 -1.283648163080215454e-01 -1.978509826585650444e-04 -2.785111719276756048e-04 -1.429086405551061034e-04 1.959835935849696398e-05
2.750000000000000000e+02 1.071215724945068359e+01 -8.493782281875610352e-01 8.565161705017089844e+00 1.740483856201171875e+01 7.791000366210937500e+00 9.008010625839233398e-01
2.760000000000000000e+02 8.993978500366210938e+00 -1.087878465652465820e+00 7.736909389495849609e+00 5.029064655303955078e+00 3.829792261123657227e+00 6.469056129455566406e+00
2.770000000000000000e+02 1.125597381591796875e+01 -6.092246174812316895e-01 1.037247943878173828e+01 1.312888050079345703e+01 7.050407886505126953e+00 9.667305946350097656e-01
2.780000000000000000e+02 9.019884109497070312e+00 5.161942839622497559e-01 -1.254825890064239502e-01 2.891020774841308594e-01 4.908584803342819214e-02 -6.219729781150817871e-01
2.790000000000000000e+02 1.082630920410156250e+01 7.334623932838439941e-01 5.615659713745117188e+00 1.699361038208007812e+01 6.782781124114990234e+00 5.175994873046875000e+00
2.800000000000000000e+02 9.552035331726074219e+00 1.194209575653076172e+00 1.788251161575317383e+00 7.892639160156250000e+00 2.904267072677612305e+00 -3.977213621139526367e+00
2.810000000000000000e+02 1.088972091674804688e+01 -1.027581930160522461e+00 7.492327690124511719e+00 1.556794071197509766e+01 6.918080329895019531e+00 8.845232129096984863e-01
2.820000000000000000e+02 1.125513172149658203e+01 5.939059853553771973e-01 7.769879341125488281e+00 1.368003463745117188e+01 6.434974193572998047e+00 5.398227214813232422e+00
2.830000000000000000e+02 1.131819057464599609e+01 -4.570733904838562012e-01 1.111799812316894531e+01 1.246101474761962891e+01 7.073703765869140625e+00 1.616550207138061523e+00
2.840000000000000000e+02 1.102915954589843750e+01 -8.932558894157409668e-01 8.629724502563476562e+00 1.473649692535400391e+01 7.009866237640380859e+00 5.915859937667846680e-01
2.850000000000000000e+02 1.134174919128417969e+01 -2.807932198047637939e-01 1.127391529083251953e+01 1.212477397918701172e+01 7.019606590270996094e+00 2.294947862625122070e+00
2.860000000000000000e+02 1.139057826995849609e+01 2.890876829624176025e-01 9.752038002014160156e+00 1.222714424133300781e+01 6.593754291534423828e+00 4.557097434997558594e+00
2.870000000000000000e+02 1.119312572479248047e+01 1.874526739120483398e-01 1.105712127685546875e+01 1.310005569458007812e+01 7.247153282165527344e+00 4.615304470062255859e+00
2.880000000000000000e+02 1.041065502166748047e+01 -1.317460656166076660e+00 4.937346458435058594e+00 1.663767242431640625e+01 6.472506046295166016e+00 3.509858369827270508e+00
2.890000000000000000e+02 1.009277725219726562e+01 -1.060697197914123535e+00 5.788887500762939453e+00 1.793494796752929688e+01 7.117150783538818359e+00 5.706116676330566406e+00
2.900000000000000000e+02 9.907473564147949219e+00 1.121070504188537598e+00 9.871585369110107422e-01 1.296387100219726562e+01 4.185308933258056641e+00 -3.526880502700805664e+00
2.910000000000000000e+02 1.048631954193115234e+01 1.271646022796630859e+00 1.088681578636169434e+00 1.564274120330810547e+01 5.019426822662353516e+00 8.574213385581970215e-01
2.920000000000000000e+02 1.057286930084228516e+01 -1.239858627319335938e+00 5.516882419586181641e+00 1.646830368041992188e+01 6.595556259155273438e+00 2.408580780029296875e+00
2.930000000000000000e+02 8.883888125419616699e-01 -1.356295228004455566e+00 8.217419497668743134e-03 -3.590210154652595520e-02 -8.305405266582965851e-03 -1.039861440658569336e-01
2.940000000000000000e+02 3.040100336074829102e-01 -1.391423225402832031e+00 -5.062875896692276001e-02 -2.086638361215591431e-01 -7.778777927160263062e-02 -8.389943838119506836e-02
2.950000000000000000e+02 1.093045949935913086e+00 -1.335810899734497070e+00 1.134077925235033035e-02 -3.507194668054580688e-02 -7.119350600987672806e-03 -1.158487498760223389e-01
2.960000000000000000e+02 1.500203132629394531e+00 -1.350065231323242188e+00 3.903842344880104065e-02 5.613679066300392151e-03 1.339563168585300446e-02 -1.119761392474174500e-01
2.970000000000000000e+02 2.097192764282226562e+00 -1.366299629211425781e+00 8.608927577733993530e-02 7.674393802881240845e-02 4.884996265172958374e-02 -6.507540494203567505e-02
2.980000000000000000e+02 2.692356586456298828e+00 -1.078049063682556152e+00 6.585653871297836304e-02 8.584792912006378174e-02 4.551133885979652405e-02 -1.312290690839290619e-02
2.990000000000000000e+02 3.324770212173461914e+00 -1.174355626106262207e+00 2.458588927984237671e-01 1.238983944058418274e-01 1.109271869063377380e-01 1.236418411135673523e-01
3.000000000000000000e+02 4.124855041503906250e+00 -1.150144219398498535e+00 4.876331090927124023e-01 1.434703320264816284e-01 1.893310397863388062e-01 2.945517301559448242e-01
3.010000000000000000e+02 4.673169612884521484e+00 -1.339155793190002441e+00 8.705186843872070312e-01 2.557340264320373535e-01 3.378758132457733154e-01 5.811409950256347656e-01
3.020000000000000000e+02 6.360189914703369141e+00 -1.196414113044738770e+00 2.282110691070556641e+00 3.986934125423431396e-01 8.042411804199218750e-01 1.293253898620605469e+00
3.030000000000000000e+02 8.068883895874023438e+00 -1.039474606513977051e+00 5.412928104400634766e+00 1.340648889541625977e+00 2.026072978973388672e+00 3.173734903335571289e+00
3.040000000000000000e+02 8.091531753540039062e+00 -1.341143488883972168e+00 5.302251815795898438e+00 2.074839353561401367e+00 2.213127374649047852e+00 3.908681154251098633e+00
3.050000000000000000e+02 8.518143653869628906e+00 -1.328126549720764160e+00 6.188220977783203125e+00 3.144863367080688477e+00 2.799925327301025391e+00 4.985932826995849609e+00
3.060000000000000000e+02 9.530289649963378906e+00 -1.405190467834472656e+00 5.726192474365234375e+00 1.053005599975585938e+01 4.876874446868896484e+00 7.279688835144042969e+00
3.070000000000000000e+02 9.200761795043945312e+00 -1.108575105667114258e+00 7.847770214080810547e+00 6.783057689666748047e+00 4.389248371124267578e+00 7.408448219299316406e+00
3.080000000000000000e+02 9.713594436645507812e+00 -1.432682633399963379e+00 5.161223888397216797e+00 1.243130970001220703e+01 5.277760028839111328e+00 7.180493354797363281e+00
3.090000000000000000e+02 1.005361557006835938e+01 -1.406605482101440430e+00 4.571262359619140625e+00 1.479991340637207031e+01 5.811352729797363281e+00 5.541138648986816406e+00
3.100000000000000000e+02 8.696110725402832031e+00 1.115810751914978027e+00 1.397661924362182617e+00 1.360372662544250488e+00 8.274103999137878418e-01 -1.523374557495117188e+00
3.110000000000000000e+02 8.318943977355957031e+00 1.107985258102416992e+00 6.323879957199096680e-01 5.833520889282226562e-01 3.647220432758331299e-01 -6.838286519050598145e-01
3.120000000000000000e+02 8.301010131835937500e+00 1.368102073669433594e+00 1.116665840148925781e+00 1.060004115104675293e+00 6.530010104179382324e-01 -1.092860102653503418e+00
3.130000000000000000e+02 7.696302413940429688e+00 1.353312492370605469e+00 3.809750676155090332e-01 3.635702729225158691e-01 2.233635932207107544e-01 -2.892938256263732910e-01
3.140000000000000000e+02 7.086571216583251953e+00 1.363262772560119629e+00 -8.761650323867797852e-02 1.426091492176055908e-01 1.649779453873634338e-02 1.010918766260147095e-01
3.150000000000000000e+02 6.295311927795410156e+00 1.356781244277954102e+00 -3.893279433250427246e-01 3.065002895891666412e-02 -1.076033711433410645e-01 3.037523031234741211e-01
3.160000000000000000e+02 6.853132724761962891e+00 1.123047709465026855e+00 -5.914256572723388672e-01 4.253550991415977478e-02 -1.646670401096343994e-01 2.541586458683013916e-01
3.170000000000000000e+02 5.500124454498291016e+00 1.383009076118469238e+00 -4.927150011062622070e-01 -3.144058573525398970e-04 -1.479088217020034790e-01 3.950736224651336670e-01
3.180000000000000000e+02 5.101686954498291016e+00 1.365977764129638672e+00 -4.881488680839538574e-01 -1.099616754800081253e-02 -1.497435122728347778e-01 4.229152202606201172e-01
3.190000000000000000e+02 4.679098129272460938e+00 1.089977860450744629e+00 -7.001837491989135742e-01 -2.563384920358657837e-02 -2.177452892065048218e-01 3.953104019165039062e-01
3.200000000000000000e+02 4.692054748535156250e+00 1.359875679016113281e+00 -4.875991046428680420e-01 -2.287088334560394287e-02 -1.531410068273544312e-01 4.273639023303985596e-01
3.210000000000000000e+02 4.073109626770019531e+00 1.115261077880859375e+00 -5.686163902282714844e-01 -2.953468263149261475e-02 -1.794453263282775879e-01 3.830202519893646240e-01
3.220000000000000000e+02 4.261375904083251953e+00 1.089777827262878418e+00 -6.400669813156127930e-01 -2.717676199972629547e-02 -2.001731246709823608e-01 3.891550600528717041e-01
3.230000000000000000e+02 3.370482921600341797e+00 1.137103438377380371e+00 -4.456754922866821289e-01 -4.005297273397445679e-02 -1.457185298204421997e-01 3.702795803546905518e-01
3.240000000000000000e+02 3.355420589447021484e+00 8.239315748214721680e-01 -5.795796513557434082e-01 -2.070693299174308777e-02 -1.800859719514846802e-01 2.966995239257812500e-01
3.250000000000000000e+02 2.907274961471557617e+00 1.331713795661926270e+00 -3.087889552116394043e-01 -5.565065890550613403e-02 -1.093318834900856018e-01 3.774475157260894775e-01
3.260000000000000000e+02 2.497857809066772461e+00 1.363923430442810059e+00 -2.434071153402328491e-01 -7.411920279264450073e-02 -9.525789320468902588e-02 3.531340658664703369e-01
3.270000000000000000e+02 1.712112069129943848e+00 1.357282161712646484e+00 -1.413054168224334717e-01 -1.065900251269340515e-01 -7.436863332986831665e-02 2.720766961574554443e-01
3.280000000000000000e+02 5.158184766769409180e-01 1.148278355598449707e+00 -2.202056348323822021e-02 -1.026531979441642761e-01 -3.740212693810462952e-02 8.152841031551361084e-02
3.290000000000000000e+02 5.066074728965759277e-01 1.382435321807861328e+00 -2.695690654218196869e-02 -1.228070631623268127e-01 -4.492919147014617920e-02 9.650534391403198242e-02
3.300000000000000000e+02 1.299041390419006348e+00 -1.344434380531311035e+00 2.837795391678810120e-02 -4.071112256497144699e-03 7.292052730917930603e-03 -1.107436120510101318e-01
3.310000000000000000e+02 1.699975848197937012e+00 -1.355569839477539062e+00 5.534123256802558899e-02 3.904048725962638855e-02 2.831451408565044403e-02 -9.682676941156387329e-02
3.320000000000000000e+02 1.902339577674865723e+00 -1.086406946182250977e+00 3.531197551637887955e-03 3.816413134336471558e-02 1.250859815627336502e-02 -9.924770146608352661e-02
3.330000000000000000e+02 3.901492595672607422e+00 -1.116383552551269531e+00 3.766942918300628662e-01 1.445132642984390259e-01 1.563622653484344482e-01 2.367549985647201538e-01
3.340000000000000000e+02 4.295088768005371094e+00 -1.396833062171936035e+00 7.029533982276916504e-01 2.556402087211608887e-01 2.875780761241912842e-01 4.652292132377624512e-01
3.350000000000000000e+02 4.898310184478759766e+00 -1.326452493667602539e+00 1.014851689338684082e+00 2.561001777648925781e-01 3.812855780124664307e-01 6.571122407913208008e-01
3.360000000000000000e+02 5.189235210418701172e+00 -1.027584314346313477e+00 9.377243518829345703e-01 1.636982560157775879e-01 3.304267823696136475e-01 5.499922633171081543e-01
3.370000000000000000e+02 5.320949077606201172e+00 -1.354625225067138672e+00 1.365393519401550293e+00 2.959835231304168701e-01 4.984131157398223877e-01 8.337994217872619629e-01
3.380000000000000000e+02 5.764801025390625000e+00 -1.137822866439819336e+00 1.538445591926574707e+00 2.848560214042663574e-01 5.469905138015747070e-01 8.786849379539489746e-01
3.390000000000000000e+02 7.065707683563232422e+00 -1.340578079223632812e+00 3.334943771362304688e+00 8.285290002822875977e-01 1.249041914939880371e+00 2.140970706939697266e+00
3.400000000000000000e+02 7.867691516876220703e+00 -1.045733809471130371e+00 4.865980625152587891e+00 1.054345250129699707e+00 1.776097655296325684e+00 2.770022153854370117e+00
3.410000000000000000e+02 8.726363182067871094e+00 -1.351821899414062500e+00 6.470646381378173828e+00 4.293189525604248047e+00 3.229150772094726562e+00 5.830522537231445312e+00
3.420000000000000000e+02 9.130440711975097656e+00 -1.369238615036010742e+00 6.526599884033203125e+00 7.195570468902587891e+00 4.116651058197021484e+00 7.105744838714599609e+00
3.430000000000000000e+02 9.318794250488281250e+00 1.382393121719360352e+00 1.842197418212890625e+00 5.672120571136474609e+00 2.254295349121093750e+00 -3.461881637573242188e+00
3.440000000000000000e+02 9.116800308227539062e+00 1.368067383766174316e+00 1.905636429786682129e+00 4.228290557861328125e+00 1.840178132057189941e+00 -3.024122238159179688e+00
3.450000000000000000e+02 7.289333343505859375e+00 1.351579427719116211e+00 6.002731248736381531e-02 1.817508190870285034e-01 7.253343611955642700e-02 -3.874043468385934830e-03
3.460000000000000000e+02 6.666684150695800781e+00 1.139312386512756348e+00 -6.037266254425048828e-01 1.358273345977067947e-02 -1.770431697368621826e-01 2.999367415904998779e-01
3.470000000000000000e+02 5.690845012664794922e+00 1.169502496719360352e+00 -7.013499736785888672e-01 -1.938840001821517944e-02 -2.162215262651443481e-01 3.935324251651763916e-01
3.480000000000000000e+02 4.897675514221191406e+00 1.088674783706665039e+00 -7.319266796112060547e-01 -1.609505154192447662e-02 -2.244065254926681519e-01 4.043994247913360596e-01
3.490000000000000000e+02 3.899146795272827148e+00 1.380541920661926270e+00 -4.145709872245788574e-01 -3.292900696396827698e-02 -1.342500001192092896e-01 4.178653657436370850e-01
3.500000000000000000e+02 3.887932062149047852e+00 1.137910962104797363e+00 -5.292012095451354980e-01 -2.956075221300125122e-02 -1.676285862922668457e-01 3.878055214881896973e-01
3.510000000000000000e+02 1.941070795059204102e+00 1.156734108924865723e+00 -1.938356906175613403e-01 -7.926085591316223145e-02 -8.192896097898483276e-02 2.741609513759613037e-01
3.520000000000000000e+02 9.954800605773925781e+00 -1.239313125610351562e+00 5.353850364685058594e+00 1.531260299682617188e+01 6.199935913085937500e+00 6.534313201904296875e+00
3.530000000000000000e+02 5.880936145782470703e+00 -3.953866362571716309e-01 5.998167395591735840e-01 2.822293341159820557e-02 1.884119063615798950e-01 2.562122642993927002e-01
3.540000000000000000e+02 7.868466854095458984e+00 -4.396730363368988037e-01 3.585490703582763672e+00 1.564726233482360840e-01 1.122588992118835449e+00 9.766107797622680664e-01
3.550000000000000000e+02 8.323198318481445312e+00 4.218527972698211670e-01 -2.349372386932373047e+00 -5.001676827669143677e-02 -7.198167443275451660e-01 2.985687255859375000e-01
3.560000000000000000e+02 7.904225349426269531e+00 4.247169494628906250e-01 -2.373268604278564453e+00 -2.986291423439979553e-02 -7.209394574165344238e-01 3.167886435985565186e-01
3.570000000000000000e+02 4.701137542724609375e+00 1.260974556207656860e-01 -1.478527784347534180e+00 3.416569437831640244e-03 -4.425333738327026367e-01 7.221159338951110840e-02
3.580000000000000000e+02 7.303282260894775391e+00 1.354932188987731934e-01 -3.214572668075561523e+00 -1.945651695132255554e-02 -9.702087640762329102e-01 1.216972395777702332e-01
3.590000000000000000e+02 7.303153038024902344e+00 -1.278868615627288818e-01 1.454809665679931641e+00 5.353218875825405121e-03 4.380488693714141846e-01 1.958079487085342407e-01
3.600000000000000000e+02 6.533110141754150391e+00 4.080563485622406006e-01 -2.061229228973388672e+00 -2.195222536101937294e-03 -6.190273165702819824e-01 2.600041329860687256e-01
3.610000000000000000e+02 7.104721069335937500e+00 1.325948536396026611e-01 -3.053558349609375000e+00 1.866235025227069855e-02 -9.104688167572021484e-01 1.238521710038185120e-01
3.620000000000000000e+02 8.112528800964355469e+00 4.328442811965942383e-01 -2.354384422302246094e+00 -3.575203567743301392e-02 -7.170409560203552246e-01 3.265800476074218750e-01
3.630000000000000000e+02 8.929835319519042969e+00 -3.179746866226196289e-01 7.983921051025390625e+00 5.626191496849060059e-01 2.563961982727050781e+00 2.230562448501586914e+00
3.640000000000000000e+02 8.596513748168945312e+00 -2.476141005754470825e-01 5.226397514343261719e+00 2.653138041496276855e-01 1.647513389587402344e+00 9.911874532699584961e-01
3.650000000000000000e+02 8.319588661193847656e+00 -1.394328922033309937e-01 3.524674654006958008e+00 -6.886184960603713989e-02 1.036743760108947754e+00 3.474561870098114014e-01
3.660000000000000000e+02 7.896694183349609375e+00 -1.483428627252578735e-01 2.614348173141479492e+00 1.179576292634010315e-01 8.196917176246643066e-01 3.668592572212219238e-01
3.670000000000000000e+02 4.690986156463623047e+00 -1.297260075807571411e-01 -4.014739096164703369e-01 8.777129463851451874e-03 -1.178090348839759827e-01 2.793559618294239044e-02
3.680000000000000000e+02 2.994648516178131104e-01 3.495013415813446045e-01 -4.676249343901872635e-03 -6.505213677883148193e-03 -3.354439046233892441e-03 1.634861575439572334e-03
3.690000000000000000e+02 2.688107252120971680e+00 -1.198066771030426025e-01 -4.898723065853118896e-01 3.511318645905703306e-04 -1.468563526868820190e-01 -1.521510630846023560e-02
3.700000000000000000e+02 3.072667360305786133e+00 -4.050358831882476807e-01 -3.008493483066558838e-01 1.332310587167739868e-02 -8.625787496566772461e-02 -1.971969939768314362e-02
3.710000000000000000e+02 3.301852226257324219e+00 -4.238827824592590332e-01 -2.775843441486358643e-01 1.848508603870868683e-02 -7.772977650165557861e-02 -2.541967667639255524e-03
3.720000000000000000e+02 3.299222469329833984e+00 1.583903282880783081e-01 -7.759304046630859375e-01 8.071782649494707584e-04 -2.325369715690612793e-01 7.075285166501998901e-02
3.730000000000000000e+02 3.911753177642822266e+00 1.607409417629241943e-01 -1.062836170196533203e+00 -1.718307845294475555e-03 -3.193663358688354492e-01 7.861511409282684326e-02
3.740000000000000000e+02 2.494956493377685547e+00 1.634936779737472534e-01 -4.482050836086273193e-01 2.449197927489876747e-04 -1.343880444765090942e-01 6.073012202978134155e-02
3.750000000000000000e+02 3.097318887710571289e+00 1.619818061590194702e-01 -6.839352846145629883e-01 -5.845805630087852478e-03 -2.069343328475952148e-01 6.779235601425170898e-02
3.760000000000000000e+02 3.199888706207275391e+00 6.661611199378967285e-01 -5.842300057411193848e-01 -1.830681040883064270e-02 -1.807610541582107544e-01 2.526490390300750732e-01
3.770000000000000000e+02 3.502358675003051758e+00 -1.408780515193939209e-01 -5.390010476112365723e-01 3.075856948271393776e-03 -1.607775688171386719e-01 -4.434292670339345932e-03
3.780000000000000000e+02 2.450752735137939453e+00 -2.514180839061737061e-01 -3.704854547977447510e-01 5.691555328667163849e-03 -1.094381660223007202e-01 -4.556760191917419434e-02
3.790000000000000000e+02 1.939509868621826172e+00 -1.946533620357513428e-01 -3.147155642509460449e-01 -1.987367868423461914e-03 -9.501087665557861328e-02 -4.228036850690841675e-02
3.800000000000000000e+02 1.963103652000427246e+00 -5.278034210205078125e-01 -1.873972266912460327e-01 4.757431801408529282e-03 -5.479193851351737976e-02 -8.810979872941970825e-02
3.810000000000000000e+02 6.975221633911132812e-01 -1.828634589910507202e-01 -5.403531715273857117e-02 -2.293176483362913132e-03 -1.689854823052883148e-02 -2.764778397977352142e-02
3.820000000000000000e+02 2.311627268791198730e-01 -3.789996504783630371e-01 -1.310348138213157654e-02 -2.898764237761497498e-02 -1.262733712792396545e-02 -2.142038568854331970e-02
3.830000000000000000e+02 4.852280616760253906e-01 -1.750710308551788330e-01 -2.709384635090827942e-02 -1.207488868385553360e-02 -1.175062078982591629e-02 -1.984072662889957428e-02
3.840000000000000000e+02 1.108332395553588867e+00 -1.638900786638259888e-01 -1.340342015027999878e-01 1.179322716780006886e-03 -3.985646739602088928e-02 -3.300527110695838928e-02
3.850000000000000000e+02 5.902637958526611328e+00 1.572605222463607788e-01 -2.173591375350952148e+00 -4.498894850257784128e-04 -6.522123813629150391e-01 1.053102239966392517e-01
3.860000000000000000e+02 6.129099369049072266e+00 4.393589794635772705e-01 -1.836637496948242188e+00 -6.932594813406467438e-03 -5.530710220336914062e-01 2.668646275997161865e-01
3.870000000000000000e+02 4.142144203186035156e+00 4.426609277725219727e-01 -9.910861253738403320e-01 -5.117837339639663696e-03 -2.988611757755279541e-01 2.074162513017654419e-01
3.880000000000000000e+02 6.708186626434326172e+00 1.365282684564590454e-01 -2.732845783233642578e+00 1.467441557906568050e-03 -8.194135427474975586e-01 1.104373931884765625e-01
3.890000000000000000e+02 7.697260856628417969e+00 -1.324286907911300659e-01 2.181434154510498047e+00 1.372276339679956436e-02 6.585471034049987793e-01 2.737021148204803467e-01
3.900000000000000000e+02 7.104060173034667969e+00 -1.367662101984024048e-01 1.191935896873474121e+00 3.744478896260261536e-02 3.688142001628875732e-01 1.624898612499237061e-01
3.910000000000000000e+02 5.630605220794677734e+00 -8.765625953674316406e-01 1.118428111076354980e+00 1.545866727828979492e-01 3.819044232368469238e-01 5.952361226081848145e-01
3.920000000000000000e+02 5.046647071838378906e+00 -3.743271827697753906e-01 5.707893148064613342e-02 2.599835395812988281e-02 2.492318488657474518e-02 1.413722932338714600e-01
3.930000000000000000e+02 4.523074150085449219e+00 3.954443335533142090e-01 -1.196283936500549316e+00 -2.995229326188564301e-03 -3.597837388515472412e-01 1.979008466005325317e-01
3.940000000000000000e+02 4.711832046508789062e+00 3.474344015121459961e-01 -1.318762063980102539e+00 -4.132047295570373535e-03 -3.968682289123535156e-01 1.823407262563705444e-01
3.950000000000000000e+02 7.698516368865966797e+00 4.180117547512054443e-01 -2.418902397155761719e+00 -2.114244969561696053e-03 -7.263049483299255371e-01 2.967514395713806152e-01
3.960000000000000000e+02 6.700313091278076172e+00 -3.808155059814453125e-01 1.396112203598022461e+00 5.319284275174140930e-02 4.347915053367614746e-01 4.149707555770874023e-01
3.970000000000000000e+02 6.088542938232421875e+00 -3.830642998218536377e-01 7.272965908050537109e-01 4.426729306578636169e-02 2.314691543579101562e-01 2.848793566226959229e-01
3.980000000000000000e+02 4.089779376983642578e+00 -1.334567815065383911e-01 -5.018230080604553223e-01 1.017135102301836014e-03 -1.502417623996734619e-01 1.171257626265287399e-02
3.990000000000000000e+02 1.088611483573913574e-01 -1.175893902778625488e+00 2.647248655557632446e-02 -1.366581320762634277e-01 -3.305569663643836975e-02 -1.312933489680290222e-02
4.000000000000000000e+02 1.197042241692543030e-01 -7.250900864601135254e-01 5.538453347980976105e-03 -5.573153495788574219e-02 -1.505792420357465744e-02 -1.711338758468627930e-02
4.010000000000000000e+02 3.080295920372009277e-01 1.164847373962402344e+00 -2.080713631585240364e-03 -8.066302537918090820e-02 -2.482312172651290894e-02 4.082184657454490662e-02
4.020000000000000000e+02 3.398019671440124512e-01 -9.332243800163269043e-01 -7.229665061458945274e-04 -7.900977134704589844e-02 -2.391982264816761017e-02 -5.548959970474243164e-02
4.030000000000000000e+02 1.505174279212951660e+00 -1.053133010864257812e+00 -1.523771136999130249e-02 5.219926591962575912e-03 -3.005335340276360512e-03 -1.203158497810363770e-01
4.040000000000000000e+02 9.072464108467102051e-01 -1.675877422094345093e-01 -9.166373312473297119e-02 -3.707564203068614006e-03 -2.861138992011547089e-02 -3.078230842947959900e-02
4.050000000000000000e+02 3.997492194175720215e-01 -4.502246081829071045e-01 -1.362138614058494568e-02 -1.840763352811336517e-02 -9.608706459403038025e-03 -3.108731843531131744e-02
4.060000000000000000e+02 6.008073329925537109e+00 -9.523974061012268066e-01 1.553886294364929199e+00 2.115680426359176636e-01 5.296363234519958496e-01 8.021078705787658691e-01
4.070000000000000000e+02 8.651900291442871094e+00 8.789014220237731934e-01 6.552963852882385254e-01 7.562536597251892090e-01 4.234650135040283203e-01 -9.245667457580566406e-01
4.080000000000000000e+02 1.731535434722900391e+00 7.469242811203002930e-01 -2.009418904781341553e-01 -4.198936745524406433e-02 -7.287938147783279419e-02 1.787116825580596924e-01
4.090000000000000000e+02 3.018066883087158203e-01 9.518908262252807617e-01 -1.243309304118156433e-02 -5.729918181896209717e-02 -2.091968245804309845e-02 3.909232839941978455e-02
4.100000000000000000e+02 6.622801303863525391e+00 9.074098467826843262e-01 -1.073451876640319824e+00 -4.342453088611364365e-03 -3.233382999897003174e-01 3.349094986915588379e-01
4.110000000000000000e+02 5.909246444702148438e+00 4.538686871528625488e-01 -1.705229043960571289e+00 -1.815445162355899811e-02 -5.170150399208068848e-01 2.680765688419342041e-01
4.120000000000000000e+02 6.162439823150634766e+00 7.207787036895751953e-01 -1.362475037574768066e+00 -1.877783797681331635e-02 -4.143758714199066162e-01 3.403647243976593018e-01
4.130000000000000000e+02 6.994360446929931641e+00 8.569750189781188965e-01 -1.096354365348815918e+00 3.879763185977935791e-03 -3.277423977851867676e-01 3.262145519256591797e-01
4.140000000000000000e+02 5.450508117675781250e+00 -8.567239046096801758e-01 9.667658805847167969e-01 1.359361559152603149e-01 3.308106064796447754e-01 5.079263448715209961e-01
4.150000000000000000e+02 2.871636390686035156e+00 7.811645865440368652e-01 -4.670981466770172119e-01 -2.271010540425777435e-02 -1.469424664974212646e-01 2.637326419353485107e-01
4.160000000000000000e+02 5.379126071929931641e+00 -1.084372639656066895e+00 1.151974439620971680e+00 2.133925855159759521e-01 4.096100926399230957e-01 6.741822361946105957e-01
4.170000000000000000e+02 1.398319959640502930e+00 7.668839693069458008e-01 -1.391538083553314209e-01 -4.945209994912147522e-02 -5.658177286386489868e-02 1.506564319133758545e-01
4.180000000000000000e+02 6.539139270782470703e+00 -7.426691055297851562e-01 1.879368662834167480e+00 1.701648980379104614e-01 6.148600578308105469e-01 8.132855296134948730e-01
4.190000000000000000e+02 8.926049232482910156e+00 1.086104631423950195e+00 1.825295805931091309e+00 2.214185237884521484e+00 1.211844325065612793e+00 -2.234251022338867188e+00
4.200000000000000000e+02 8.306077003479003906e+00 -5.263161063194274902e-01 5.477461338043212891e+00 4.162098467350006104e-01 1.768101334571838379e+00 1.864268302917480469e+00
4.210000000000000000e+02 7.307789921760559082e-01 8.630416393280029297e-01 -4.459622502326965332e-02 -6.546526402235031128e-02 -3.301844745874404907e-02 8.110708743333816528e-02
4.220000000000000000e+02 1.100474834442138672e+00 1.160607099533081055e+00 -8.227830380201339722e-02 -1.013278514146804810e-01 -5.508184805512428284e-02 1.677557826042175293e-01
4.230000000000000000e+02 7.306941032409667969e+00 3.945715725421905518e-01 -2.413568735122680664e+00 7.933703251183032990e-03 -7.216904759407043457e-01 2.979766428470611572e-01
4.240000000000000000e+02 7.039049625396728516e+00 -1.044562935829162598e+00 3.024700880050659180e+00 4.777933657169342041e-01 1.050748229026794434e+00 1.611114144325256348e+00
4.250000000000000000e+02 1.023482680320739746e-01 1.177505373954772949e+00 -7.933724671602249146e-03 -6.054638698697090149e-02 -2.054403349757194519e-02 1.825279183685779572e-02
4.260000000000000000e+02 2.894755125045776367e+00 4.842920303344726562e-01 -5.347864031791687012e-01 -1.441394817084074020e-02 -1.647600978612899780e-01 1.826775223016738892e-01
4.270000000000000000e+02 2.489332199096679688e+00 -7.762782573699951172e-01 -9.929122775793075562e-02 3.613278642296791077e-02 -1.894753240048885345e-02 -6.652919948101043701e-02
4.280000000000000000e+02 2.900695800781250000e-01 7.499809861183166504e-01 -9.079228155314922333e-03 -3.105849772691726685e-02 -1.204131729900836945e-02 2.133068069815635681e-02
4.290000000000000000e+02 5.359550952911376953e+00 8.854522109031677246e-01 -9.896243810653686523e-01 -2.482116594910621643e-02 -3.043336570262908936e-01 3.794424235820770264e-01
4.300000000000000000e+02 5.542640686035156250e+00 9.272234439849853516e-01 -9.659483432769775391e-01 -1.595553196966648102e-02 -2.945711612701416016e-01 3.763087689876556396e-01
4.310000000000000000e+02 2.289767265319824219e+00 4.532178044319152832e-01 -3.557195663452148438e-01 -1.150767132639884949e-02 -1.101681739091873169e-01 1.438288539648056030e-01
4.320000000000000000e+02 5.462149143218994141e+00 -6.578353047370910645e-01 6.903417110443115234e-01 7.882276177406311035e-02 2.307493388652801514e-01 3.832018077373504639e-01
4.330000000000000000e+02 2.269171953201293945e+00 -1.086358547210693359e+00 2.004898712038993835e-02 5.919403955340385437e-02 2.377290837466716766e-02 -6.516787409782409668e-02
4.340000000000000000e+02 2.378907203674316406e+00 6.428192853927612305e-01 -3.596424460411071777e-01 -2.053005062043666840e-02 -1.140517517924308777e-01 2.031262218952178955e-01
4.350000000000000000e+02 6.141150951385498047e+00 -8.237398862838745117e-01 1.523741245269775391e+00 1.771433204412460327e-01 5.102653503417968750e-01 7.377311587333679199e-01
4.360000000000000000e+02 6.323180675506591797e+00 1.092329025268554688e+00 -7.766967415809631348e-01 -7.007081061601638794e-03 -2.351111471652984619e-01 3.547768592834472656e-01
4.370000000000000000e+02 1.305986762046813965e+00 -1.038612484931945801e+00 -2.526238746941089630e-02 -1.175670046359300613e-02 -1.110572647303342819e-02 -1.272868365049362183e-01
4.380000000000000000e+02 8.587377548217773438e+00 -7.035877108573913574e-01 7.130471229553222656e+00 1.241589426994323730e+00 2.511618137359619141e+00 3.347054958343505859e+00
4.390000000000000000e+02 8.888291358947753906e+00 8.244770765304565430e-01 1.187785625457763672e+00 1.175612568855285645e+00 7.090194821357727051e-01 -1.442159056663513184e+00
4.400000000000000000e+02 9.206407070159912109e-01 -9.558174610137939453e-01 -3.241518884897232056e-02 -2.887791395187377930e-02 -1.838793046772480011e-02 -1.185904294252395630e-01
4.410000000000000000e+02 7.071588516235351562e+00 -7.870962619781494141e-01 2.759805917739868164e+00 2.861438095569610596e-01 9.137849211692810059e-01 1.181648373603820801e+00
4.420000000000000000e+02 6.807122230529785156e+00 8.832761049270629883e-01 -1.091415643692016602e+00 -1.548074372112751007e-02 -3.320688903331756592e-01 3.365050554275512695e-01
4.430000000000000000e+02 2.893933951854705811e-01 5.528285503387451172e-01 -1.053661108016967773e-02 -1.618411205708980560e-02 -8.016217499971389771e-03 1.136839296668767929e-02
4.440000000000000000e+02 8.357096672058105469e+00 7.064750790596008301e-01 -6.058615446090698242e-01 1.723617166280746460e-01 -1.300499439239501953e-01 -9.580933302640914917e-02
4.450000000000000000e+02 8.270479202270507812e+00 -1.023632287979125977e+00 5.972797870635986328e+00 1.620659232139587402e+00 2.278037071228027344e+00 3.623271465301513672e+00
4.460000000000000000e+02 7.560356140136718750e+00 -5.348212122917175293e-01 3.221355915069580078e+00 2.171289473772048950e-01 1.031545400619506836e+00 1.021186709403991699e+00
4.470000000000000000e+02 7.259362220764160156e+00 1.051796913146972656e+00 -6.133866310119628906e-01 5.907304584980010986e-02 -1.662940680980682373e-01 1.936697661876678467e-01
4.480000000000000000e+02 7.634734630584716797e+00 -7.674847245216369629e-01 3.868331670761108398e+00 4.283692240715026855e-01 1.289010286331176758e+00 1.635678172111511230e+00
4.490000000000000000e+02 7.500674247741699219e+00 -1.233047172427177429e-01 1.787299513816833496e+00 4.132257401943206787e-02 5.485866069793701172e-01 2.301365584135055542e-01
4.500000000000000000e+02 8.504671096801757812e+00 -5.204694271087646484e-01 6.270155429840087891e+00 7.760761380195617676e-01 2.113869428634643555e+00 2.343578815460205078e+00
4.510000000000000000e+02 8.111049652099609375e+00 1.055274009704589844e+00 2.333080917596817017e-01 3.926026523113250732e-01 1.877732276916503906e-01 -3.765317499637603760e-01
4.520000000000000000e+02 7.257553100585937500e+00 -1.072890400886535645e+00 3.479373931884765625e+00 6.596160531044006348e-01 1.241696953773498535e+00 1.906543254852294922e+00
4.530000000000000000e+02 7.485047340393066406e+00 1.028296947479248047e+00 -4.967150092124938965e-01 7.142826914787292480e-02 -1.275860220193862915e-01 1.386642009019851685e-01
4.540000000000000000e+02 7.503221988677978516e+00 -3.444402813911437988e-01 2.427422046661376953e+00 4.853121563792228699e-02 7.427859902381896973e-01 5.644534230232238770e-01
4.550000000000000000e+02 7.271910309791564941e-01 -4.768870770931243896e-01 -5.049630999565124512e-02 -1.634039171040058136e-02 -2.005100995302200317e-02 -6.914338469505310059e-02
4.560000000000000000e+02 5.073539614677429199e-01 3.733407557010650635e-01 -1.435721386224031448e-02 -1.361595094203948975e-02 -8.391949348151683807e-03 1.271738950163125992e-02
4.570000000000000000e+02 5.345447063446044922e-01 -5.940663814544677734e-01 -3.674514964222908020e-02 -4.842289537191390991e-02 -2.555041387677192688e-02 -7.026486843824386597e-02
4.580000000000000000e+02 8.786366462707519531e+00 -1.085190057754516602e+00 7.311158180236816406e+00 3.663850784301757812e+00 3.292502641677856445e+00 5.551942825317382812e+00
4.590000000000000000e+02 8.593629837036132812e+00 -1.034714937210083008e+00 7.011981964111328125e+00 2.448636293411254883e+00 2.838185548782348633e+00 4.687287330627441406e+00
4.600000000000000000e+02 6.814255237579345703e+00 -9.600764513015747070e-01 2.605797767639160156e+00 3.736068010330200195e-01 8.938214182853698730e-01 1.314882755279541016e+00
4.610000000000000000e+02 6.570720672607421875e+00 6.667274236679077148e-01 -1.547576308250427246e+00 -2.329047210514545441e-02 -4.712600409984588623e-01 3.482864797115325928e-01
4.620000000000000000e+02 1.317675113677978516e+00 -7.443127632141113281e-01 -7.727157324552536011e-02 -7.684712763875722885e-03 -2.548688463866710663e-02 -1.166463792324066162e-01
4.630000000000000000e+02 1.223283410072326660e+00 8.314480781555175781e-01 -1.128904595971107483e-01 -6.175272166728973389e-02 -5.239295214414596558e-02 1.412795782089233398e-01
4.640000000000000000e+02 1.124009132385253906e+00 9.628332853317260742e-01 -9.594236314296722412e-02 -7.762658596038818359e-02 -5.207068473100662231e-02 1.476077139377593994e-01
4.650000000000000000e+02 1.105970025062561035e+00 -1.018557906150817871e+00 -2.644801326096057892e-02 -2.358997054398059845e-02 -1.501139439642429352e-02 -1.211475953459739685e-01
4.660000000000000000e+02 6.378637790679931641e+00 -9.857322573661804199e-01 2.031443119049072266e+00 2.809328734874725342e-01 6.937127709388732910e-01 1.054134249687194824e+00
4.670000000000000000e+02 5.866957187652587891e+00 1.163851737976074219e+00 -6.851850152015686035e-01 -1.601743698120117188e-02 -2.103607356548309326e-01 3.871225714683532715e-01
4.680000000000000000e+02 1.514773011207580566e+00 -7.613509893417358398e-01 -8.651959896087646484e-02 1.546546409372240305e-04 -2.590948343276977539e-02 -1.217326670885086060e-01
4.690000000000000000e+02 1.444802045822143555e+00 9.431028366088867188e-01 -1.413945853710174561e-01 -6.720911711454391479e-02 -6.258110702037811279e-02 1.811242401599884033e-01
4.700000000000000000e+02 5.619352817535400391e+00 7.003617882728576660e-01 -1.282963514328002930e+00 -2.485723979771137238e-02 -3.923462033271789551e-01 3.354725539684295654e-01
4.710000000000000000e+02 5.872273445129394531e+00 -6.479326486587524414e-01 1.017156481742858887e+00 1.001167446374893188e-01 3.351819813251495361e-01 4.747024774551391602e-01
4.720000000000000000e+02 1.927343726158142090e+00 -8.159897327423095703e-01 -7.938320934772491455e-02 2.023819647729396820e-02 -1.774350367486476898e-02 -1.096111387014389038e-01
4.730000000000000000e+02 1.836697220802307129e+00 4.731300473213195801e-01 -2.357703894376754761e-01 -1.863078214228153229e-02 -7.632035017013549805e-02 1.290518045425415039e-01
4.740000000000000000e+02 4.484950065612792969e+00 -4.092569947242736816e-01 -9.784878790378570557e-02 2.444586902856826782e-02 -2.202087454497814178e-02 9.756914526224136353e-02
4.750000000000000000e+02 5.682041645050048828e+00 4.423465132713317871e-01 -1.627648472785949707e+00 -1.687195338308811188e-02 -4.933561086654663086e-01 2.481045275926589966e-01
4.760000000000000000e+02 2.226099729537963867e+00 -6.453637480735778809e-01 -1.545325219631195068e-01 2.490559034049510956e-02 -3.888807818293571472e-02 -8.335508406162261963e-02
4.770000000000000000e+02 2.478810548782348633e+00 4.491901397705078125e-01 -4.141811430454254150e-01 -1.332834083586931229e-02 -1.282528489828109741e-01 1.505194157361984253e-01
4.780000000000000000e+02 5.702065944671630859e+00 9.720186591148376465e-01 -9.496768116950988770e-01 -2.559261210262775421e-02 -2.925808429718017578e-01 3.880194723606109619e-01
4.790000000000000000e+02 9.861344695091247559e-01 4.200553297996520996e-01 -7.048261165618896484e-02 -1.785660907626152039e-02 -2.650176547467708588e-02 5.534825101494789124e-02
4.800000000000000000e+02 6.865882396697998047e+00 -6.946779489517211914e-01 2.280950307846069336e+00 1.757953166961669922e-01 7.370237112045288086e-01 9.203187227249145508e-01
4.810000000000000000e+02 2.091331005096435547e+00 -1.111598134040832520e+00 2.273441851139068604e-02 5.592465773224830627e-02 2.359772287309169769e-02 -8.319249004125595093e-02
4.820000000000000000e+02 7.375257492065429688e+00 -5.870767831802368164e-01 2.944481611251831055e+00 1.865792274475097656e-01 9.393182396888732910e-01 1.011864185333251953e+00
4.830000000000000000e+02 8.118208885192871094e+00 7.375722527503967285e-01 -8.517683744430541992e-01 6.779502332210540771e-02 -2.351920157670974731e-01 4.450746998190879822e-02
4.840000000000000000e+02 7.182654380798339844e+00 8.083785176277160645e-01 -1.186515331268310547e+00 -1.581048779189586639e-02 -3.606977462768554688e-01 3.219932615756988525e-01
4.850000000000000000e+02 8.061659812927246094e+00 -7.544200420379638672e-01 5.114279747009277344e+00 6.420953869819641113e-01 1.726912498474121094e+00 2.242012262344360352e+00
4.860000000000000000e+02 2.288366317749023438e+00 1.105708003044128418e+00 -2.603983581066131592e-01 -5.939703807234764099e-02 -9.593862295150756836e-02 2.939481735229492188e-01
4.870000000000000000e+02 1.893611550331115723e+00 8.765718936920166016e-01 -2.269680500030517578e-01 -4.536618292331695557e-02 -8.170027285814285278e-02 2.131756693124771118e-01
4.880000000000000000e+02 5.572792530059814453e+00 -1.114845037460327148e+00 1.366923332214355469e+00 2.339491546154022217e-01 4.802617728710174561e-01 7.676129937171936035e-01
4.890000000000000000e+02 3.494744300842285156e+00 -7.762568593025207520e-01 9.031056426465511322e-03 5.617386847734451294e-02 1.956147700548171997e-02 5.607484653592109680e-02
4.900000000000000000e+02 4.491045475006103516e+00 -1.396871507167816162e-01 -4.442932903766632080e-01 3.143385518342256546e-03 -1.323449760675430298e-01 1.903082802891731262e-02
4.910000000000000000e+02 6.093074798583984375e+00 -6.247726082801818848e-01 1.188910365104675293e+00 9.012028574943542480e-02 3.837091624736785889e-01 5.116459727287292480e-01
4.920000000000000000e+02 1.616156101226806641e+00 4.187647104263305664e-01 -1.803290247917175293e-01 -2.022439427673816681e-02 -6.016602739691734314e-02 1.013509258627891541e-01
4.930000000000000000e+02 8.265336036682128906e+00 -7.771984934806823730e-01 5.754444122314453125e+00 9.158127307891845703e-01 2.001076936721801758e+00 2.711285114288330078e+00
4.940000000000000000e+02 3.040254831314086914e+00 -6.597338318824768066e-01 -1.299318969249725342e-01 3.884993493556976318e-02 -2.732458896934986115e-02 -1.596293598413467407e-02
4.950000000000000000e+02 3.182293653488159180e+00 -1.286990880966186523e+00 2.648929357528686523e-01 1.523492932319641113e-01 1.251726746559143066e-01 1.266550123691558838e-01
4.960000000000000000e+02 3.700124979019165039e+00 -8.394787311553955078e-01 1.043557673692703247e-01 6.705112755298614502e-02 5.142206698656082153e-02 1.047991067171096802e-01
4.970000000000000000e+02 3.234292745590209961e+00 -8.975617885589599609e-01 4.408451169729232788e-02 7.034027576446533203e-02 3.432743623852729797e-02 4.196078330278396606e-02
4.980000000000000000e+02 4.274090766906738281e+00 6.616340279579162598e-01 -9.081410169601440430e-01 -1.714986190199851990e-02 -2.775872647762298584e-01 2.836009860038757324e-01
4.990000000000000000e+02 4.685798168182373047e+00 8.589065670967102051e-01 -8.774012923240661621e-01 -9.130654856562614441e-03 -2.659595906734466553e-01 3.719963729381561279e-01
5.000000000000000000e+02 4.787053108215332031e+00 -5.285969376564025879e-01 1.460810899734497070e-01 3.291936218738555908e-02 5.370013415813446045e-02 1.789825707674026489e-01
5.010000000000000000e+02 5.083986759185791016e+00 3.485971391201019287e-01 -1.488699674606323242e+00 -4.716788418591022491e-03 -4.480249583721160889e-01 1.847350299358367920e-01
5.020000000000000000e+02 3.631146907806396484e+00 8.523319959640502930e-01 -6.284555792808532715e-01 -2.264766581356525421e-02 -1.953309774398803711e-01 3.249725699424743652e-01
5.030000000000000000e+02 4.899170875549316406e+00 1.217303648591041565e-01 -1.592734813690185547e+00 -2.750949701294302940e-03 -4.786457121372222900e-01 7.086204737424850464e-02
5.040000000000000000e+02 4.058701515197753906e+00 -3.757579624652862549e-01 -2.418126165866851807e-01 1.250336132943630219e-02 -6.879277527332305908e-02 4.181485623121261597e-02
5.050000000000000000e+02 4.264520168304443359e+00 -4.013584554195404053e-01 -1.657937318086624146e-01 2.481350488960742950e-02 -4.229406639933586121e-02 7.268055528402328491e-02
5.060000000000000000e+02 3.877544403076171875e+00 -3.376358151435852051e-01 -3.033957481384277344e-01 1.213338505476713181e-02 -8.737871050834655762e-02 3.032932803034782410e-02
5.070000000000000000e+02 3.712341070175170898e+00 1.157479882240295410e+00 -4.883442521095275879e-01 -3.346270322799682617e-02 -1.565420776605606079e-01 3.858312070369720459e-01
5.080000000000000000e+02 4.289303779602050781e+00 -1.402549445629119873e-01 -4.754139482975006104e-01 2.789170481264591217e-03 -1.417874246835708618e-01 1.413504406809806824e-02
5.090000000000000000e+02 7.154691219329833984e-01 1.531558632850646973e-01 -1.143611967563629150e-02 -1.869836472906172276e-03 -3.991786856204271317e-03 9.349062107503414154e-03
5.100000000000000000e+02 1.283971667289733887e+00 1.132958233356475830e-01 -8.652681857347488403e-02 -3.931666433345526457e-04 -2.607599645853042603e-02 2.117384225130081177e-02
5.110000000000000000e+02 1.194373726844787598e+00 2.879570126533508301e-01 -9.304271638393402100e-02 -1.128420326858758926e-02 -3.129807487130165100e-02 5.233611166477203369e-02
5.120000000000000000e+02 1.338330149650573730e+00 5.902330279350280762e-01 -1.280078887939453125e-01 -2.836589701473712921e-02 -4.691213369369506836e-02 1.043487712740898132e-01
5.130000000000000000e+02 2.866396605968475342e-01 -1.433311402797698975e-01 -5.914801266044378281e-03 -5.934207700192928314e-03 -3.554702503606677055e-03 -6.430607289075851440e-03
5.140000000000000000e+02 9.295687675476074219e-01 -4.499128460884094238e-01 -7.907555252313613892e-02 -1.203012187033891678e-02 -2.733170241117477417e-02 -7.609571516513824463e-02
5.150000000000000000e+02 1.123660087585449219e+00 -4.487942457199096680e-01 -1.053973808884620667e-01 -8.614212274551391602e-03 -3.420347720384597778e-02 -8.405279368162155151e-02
5.160000000000000000e+02 1.509488821029663086e+00 -1.704776585102081299e-01 -2.243766486644744873e-01 1.636600471101701260e-03 -6.682201474905014038e-02 -3.723533451557159424e-02
5.170000000000000000e+02 1.318691968917846680e+00 -4.570011496543884277e-01 -1.325635313987731934e-01 -2.161625074222683907e-03 -4.041754454374313354e-02 -8.938370645046234131e-02
5.180000000000000000e+02 1.519290566444396973e+00 -4.702608585357666016e-01 -1.568496078252792358e-01 -2.432706532999873161e-03 -4.778469726443290710e-02 -9.022801369428634644e-02
5.190000000000000000e+02 2.330801010131835938e+00 -1.092834845185279846e-01 -4.151111841201782227e-01 4.355786833912134171e-03 -1.232266202569007874e-01 -2.465460821986198425e-02
5.200000000000000000e+02 2.330002546310424805e+00 -4.076521396636962891e-01 -2.749472856521606445e-01 8.025209419429302216e-03 -8.007661998271942139e-02 -6.141912564635276794e-02
5.210000000000000000e+02 2.854635238647460938e+00 -3.763575851917266846e-01 -3.241097033023834229e-01 9.211312048137187958e-03 -9.446951746940612793e-02 -3.645268082618713379e-02
5.220000000000000000e+02 2.888637542724609375e+00 -1.353092640638351440e-01 -5.084193944931030273e-01 6.935800774954259396e-04 -1.523177474737167358e-01 -1.351149566471576691e-02
5.230000000000000000e+02 3.525556325912475586e+00 -4.008805751800537109e-01 -2.876225709915161133e-01 1.307053677737712860e-02 -8.236560970544815063e-02 1.000738516449928284e-02
5.240000000000000000e+02 3.712824344635009766e+00 -3.425129950046539307e-01 -3.231929540634155273e-01 1.181956101208925247e-02 -9.341201931238174438e-02 1.809925027191638947e-02
5.250000000000000000e+02 3.153147101402282715e-01 -1.170158624649047852e+00 2.747257240116596222e-03 -1.385331749916076660e-01 -4.073577746748924255e-02 -7.250754535198211670e-02
5.260000000000000000e+02 1.098998665809631348e+00 1.383973240852355957e+00 -6.864048540592193604e-02 -1.350164860486984253e-01 -6.109709292650222778e-02 1.906705498695373535e-01
5.270000000000000000e+02 9.132696986198425293e-01 1.139184236526489258e+00 -5.537160113453865051e-02 -1.075023487210273743e-01 -4.886218532919883728e-02 1.366369873285293579e-01
5.280000000000000000e+02 1.297700524330139160e+00 1.380959510803222656e+00 -8.746355772018432617e-02 -1.323538422584533691e-01 -6.594522297382354736e-02 2.210719138383865356e-01
5.290000000000000000e+02 2.104677677154541016e+00 1.142934083938598633e+00 -2.245812863111495972e-01 -6.982742995023727417e-02 -8.832261711359024048e-02 2.888098061084747314e-01
5.300000000000000000e+02 2.105922222137451172e+00 1.380057573318481445e+00 -1.895468831062316895e-01 -9.227046370506286621e-02 -8.454520255327224731e-02 3.203827440738677979e-01
5.310000000000000000e+02 2.472120761871337891e+00 8.260114192962646484e-01 -3.552913367748260498e-01 -3.060575015842914581e-02 -1.157691255211830139e-01 2.558533549308776855e-01
5.320000000000000000e+02 2.684350728988647461e+00 1.070449829101562500e+00 -3.432309925556182861e-01 -4.346406087279319763e-02 -1.160085201263427734e-01 3.298907577991485596e-01
5.330000000000000000e+02 5.014388561248779297e-01 -1.180073738098144531e+00 -1.556649338454008102e-02 -1.123338341712951660e-01 -3.837009891867637634e-02 -1.047816574573516846e-01
5.340000000000000000e+02 1.898589730262756348e+00 -1.361667275428771973e+00 7.618694752454757690e-02 6.170072406530380249e-02 4.136630147695541382e-02 -8.410482108592987061e-02
5.350000000000000000e+02 2.706937789916992188e+00 -1.351746082305908203e+00 1.794932484626770020e-01 1.254375725984573364e-01 9.147924929857254028e-02 3.747235983610153198e-02
5.360000000000000000e+02 3.278998136520385742e+00 -1.419653534889221191e+00 3.523696064949035645e-01 1.729190647602081299e-01 1.575866043567657471e-01 1.728468686342239380e-01
5.370000000000000000e+02 3.459973573684692383e+00 -1.375302791595458984e+00 3.647098541259765625e-01 1.693323552608489990e-01 1.602126657962799072e-01 1.979595869779586792e-01
5.380000000000000000e+02 3.894383430480957031e+00 -1.369561672210693359e+00 5.415853261947631836e-01 1.928947865962982178e-01 2.203440219163894653e-01 3.276044726371765137e-01
5.390000000000000000e+02 4.101588249206542969e+00 -1.380870103836059570e+00 6.386723518371582031e-01 2.257019281387329102e-01 2.593122720718383789e-01 4.017245769500732422e-01
5.400000000000000000e+02 4.473862648010253906e+00 -1.373406052589416504e+00 7.682879567146301270e-01 2.615172266960144043e-01 3.089415729045867920e-01 5.224408507347106934e-01
5.410000000000000000e+02 4.413926601409912109e+00 -9.825900197029113770e-01 4.949682950973510742e-01 1.234425455331802368e-01 1.855232566595077515e-01 3.098118305206298828e-01
5.420000000000000000e+02 4.651007652282714844e+00 -1.034792780876159668e+00 6.511077880859375000e-01 1.510053128004074097e-01 2.406339347362518311e-01 3.992969691753387451e-01
5.430000000000000000e+02 2.698109626770019531e+00 1.353659868240356445e+00 -2.683148086071014404e-01 -6.753536313772201538e-02 -1.007550582289695740e-01 3.643533289432525635e-01
5.440000000000000000e+02 3.203837871551513672e+00 1.046766161918640137e+00 -4.460695087909698486e-01 -3.688375279307365417e-02 -1.448859721422195435e-01 3.499810695648193359e-01
5.450000000000000000e+02 3.536650180816650391e+00 1.156954050064086914e+00 -4.625776112079620361e-01 -3.656990453600883484e-02 -1.497442573308944702e-01 3.835220336914062500e-01
5.460000000000000000e+02 3.511688947677612305e+00 1.383489131927490234e+00 -3.759298622608184814e-01 -4.307660087943077087e-02 -1.257019340991973877e-01 4.090677797794342041e-01
5.470000000000000000e+02 4.290624618530273438e+00 1.364819407463073730e+00 -4.524786174297332764e-01 -3.489073738455772400e-02 -1.462108045816421509e-01 4.224648773670196533e-01
5.480000000000000000e+02 4.488964080810546875e+00 1.358513236045837402e+00 -4.672749638557434082e-01 -2.775995619595050812e-02 -1.485104709863662720e-01 4.241383671760559082e-01
5.490000000000000000e+02 4.898042678833007812e+00 1.361506700515747070e+00 -4.948251843452453613e-01 -2.542987279593944550e-02 -1.560765206813812256e-01 4.248816072940826416e-01
5.500000000000000000e+02 5.317640781402587891e+00 1.127145648002624512e+00 -7.318000197410583496e-01 -1.689032092690467834e-02 -2.246070951223373413e-01 3.993089795112609863e-01
5.510000000000000000e+02 5.302229404449462891e+00 1.374965667724609375e+00 -4.987125396728515625e-01 -1.070389244705438614e-02 -1.528249382972717285e-01 4.155028760433197021e-01
5.520000000000000000e+02 6.038267612457275391e+00 1.127481818199157715e+00 -7.309822440147399902e-01 2.894641133025288582e-03 -2.184262722730636597e-01 3.858706057071685791e-01
5.530000000000000000e+02 5.891308784484863281e+00 1.382144212722778320e+00 -4.331011474132537842e-01 9.086461737751960754e-03 -1.272044032812118530e-01 3.325956761837005615e-01
5.540000000000000000e+02 5.990163803100585938e+00 9.407597780227661133e-01 -1.028554439544677734e+00 -2.250285074114799500e-02 -3.153171837329864502e-01 3.763853609561920166e-01
5.550000000000000000e+02 6.492058277130126953e+00 1.148414731025695801e+00 -6.144036650657653809e-01 2.667614817619323730e-02 -1.763182431459426880e-01 3.245979547500610352e-01
5.560000000000000000e+02 6.495021343231201172e+00 1.377065539360046387e+00 -3.064034581184387207e-01 3.892027586698532104e-02 -8.024495840072631836e-02 2.663737833499908447e-01
5.570000000000000000e+02 6.886942863464355469e+00 1.372913599014282227e+00 -1.433662623167037964e-01 9.937817603349685669e-02 -1.319642458111047745e-02 1.690722405910491943e-01
5.580000000000000000e+02 7.049162387847900391e+00 1.097934365272521973e+00 -5.783706903457641602e-01 4.007989913225173950e-02 -1.614872366189956665e-01 2.194749861955642700e-01
5.590000000000000000e+02 7.699464797973632812e+00 1.070272088050842285e+00 -2.495612800121307373e-01 1.863272637128829956e-01 -1.897020265460014343e-02 -1.869722083210945129e-02
5.600000000000000000e+02 7.895280361175537109e+00 1.076510429382324219e+00 -2.061056531965732574e-02 2.335310578346252441e-01 6.387614458799362183e-02 -1.672046482563018799e-01
5.610000000000000000e+02 8.438706398010253906e+00 9.416235089302062988e-01 4.067018032073974609e-01 5.107345581054687500e-01 2.752309143543243408e-01 -6.438534259796142578e-01
5.620000000000000000e+02 8.499334335327148438e+00 1.141542434692382812e+00 1.118262767791748047e+00 1.069048285484313965e+00 6.561933159828186035e-01 -1.149725437164306641e+00
5.630000000000000000e+02 8.500323295593261719e+00 1.375605583190917969e+00 1.411666512489318848e+00 1.458069443702697754e+00 8.609207868576049805e-01 -1.488892555236816406e+00
5.640000000000000000e+02 9.372192382812500000e+00 1.157221794128417969e+00 2.111050367355346680e+00 5.917051792144775391e+00 2.408430576324462891e+00 -3.783968925476074219e+00
5.650000000000000000e+02 1.009897041320800781e+01 1.360965251922607422e+00 5.357753634452819824e-01 1.337072467803955078e+01 4.171949863433837891e+00 -1.932043313980102539e+00
5.660000000000000000e+02 1.029183864593505859e+01 1.070809483528137207e+00 8.892168998718261719e-01 1.689224052429199219e+01 5.334436893463134766e+00 -2.413932830095291138e-01
5.670000000000000000e+02 1.094621753692626953e+01 1.065440058708190918e+00 3.244971752166748047e+00 1.528094291687011719e+01 5.557774543762207031e+00 3.758858919143676758e+00
5.680000000000000000e+02 1.105038261413574219e+01 9.287655949592590332e-01 4.861651420593261719e+00 1.501109790802001953e+01 5.961824893951416016e+00 4.794030666351318359e+00
5.690000000000000000e+02 1.134867191314697266e+01 4.438386559486389160e-01 8.979464530944824219e+00 1.279137229919433594e+01 6.531250953674316406e+00 5.055363178253173828e+00
5.700000000000000000e+02 1.137658119201660156e+01 1.111932620406150818e-01 1.071948242187500000e+01 1.212216758728027344e+01 6.852495193481445312e+00 4.034516334533691406e+00
5.710000000000000000e+02 1.135768222808837891e+01 -8.660465478897094727e-02 1.125127124786376953e+01 1.195911216735839844e+01 6.963115215301513672e+00 3.240100145339965820e+00
5.720000000000000000e+02 1.114956474304199219e+01 -7.495307922363281250e-01 9.460991859436035156e+00 1.370764064788818359e+01 6.950590133666992188e+00 6.786598563194274902e-01
5.730000000000000000e+02 1.055389499664306641e+01 -9.605528712272644043e-01 7.113639831542968750e+00 1.824105644226074219e+01 7.606409072875976562e+00 1.873376369476318359e+00
5.740000000000000000e+02 9.789915084838867188e+00 -1.310788512229919434e+00 5.405356884002685547e+00 1.360581111907958984e+01 5.703350543975830078e+00 7.136435985565185547e+00
5.750000000000000000e+02 9.878663063049316406e+00 -1.433499455451965332e+00 4.721384048461914062e+00 1.404382228851318359e+01 5.629561901092529297e+00 6.478963851928710938e+00
5.760000000000000000e+02 9.613013267517089844e+00 -1.223307251930236816e+00 6.458134174346923828e+00 1.193039226531982422e+01 5.516557693481445312e+00 7.891728401184082031e+00
5.770000000000000000e+02 9.401084899902343750e+00 -1.164552330970764160e+00 7.341514110565185547e+00 9.243624687194824219e+00 4.975541591644287109e+00 8.038402557373046875e+00
5.780000000000000000e+02 9.330183982849121094e+00 -1.384363412857055664e+00 6.409584522247314453e+00 8.799682617187500000e+00 4.562779903411865234e+00 7.547069072723388672e+00
5.790000000000000000e+02 8.930303573608398438e+00 -1.360448479652404785e+00 6.567340850830078125e+00 5.656294345855712891e+00 3.667090654373168945e+00 6.523010730743408203e+00
5.800000000000000000e+02 8.432847976684570312e+00 -8.934742808341979980e-01 6.409115791320800781e+00 1.572891354560852051e+00 2.394602298736572266e+00 3.592851161956787109e+00
5.810000000000000000e+02 7.889681339263916016e+00 -1.347106099128723145e+00 4.919889450073242188e+00 1.705499172210693359e+00 1.987616539001464844e+00 3.493414163589477539e+00
5.820000000000000000e+02 7.666182994842529297e+00 -1.057257175445556641e+00 4.437100887298583984e+00 8.756029605865478516e-01 1.593811154365539551e+00 2.452471017837524414e+00
5.830000000000000000e+02 7.463826179504394531e+00 -1.071149468421936035e+00 3.941260337829589844e+00 7.127111554145812988e-01 1.396191477775573730e+00 2.128450870513916016e+00
5.840000000000000000e+02 7.487630367279052734e+00 -1.353373289108276367e+00 4.140199661254882812e+00 1.181180000305175781e+00 1.596413850784301758e+00 2.767887592315673828e+00
5.850000000000000000e+02 6.558133602142333984e+00 -1.260167956352233887e+00 2.578786611557006836e+00 5.303277969360351562e-01 9.327343106269836426e-01 1.545636177062988281e+00
5.860000000000000000e+02 6.502818107604980469e+00 -1.416561841964721680e+00 2.534556865692138672e+00 6.472082138061523438e-01 9.545295238494873047e-01 1.674308657646179199e+00
5.870000000000000000e+02 5.915615558624267578e+00 -1.386669874191284180e+00 1.903061389923095703e+00 4.515231549739837646e-01 7.063753604888916016e-01 1.211450338363647461e+00
5.880000000000000000e+02 6.147385597229003906e+00 -1.184150934219360352e+00 1.966010570526123047e+00 3.597291111946105957e-01 6.977218985557556152e-01 1.130716204643249512e+00
5.890000000000000000e+02 5.952733516693115234e+00 -1.164222836494445801e+00 1.731421351432800293e+00 3.088371157646179199e-01 6.120775341987609863e-01 1.003358364105224609e+00
5.900000000000000000e+02 2.070889949798583984e+00 4.941557049751281738e-01 -2.966620624065399170e-01 -1.540553569793701172e-02 -9.362028539180755615e-02 1.479604095220565796e-01
5.910000000000000000e+02 4.889294624328613281e+00 -1.243731975555419922e-01 -3.352189362049102783e-01 4.120086785405874252e-03 -9.932965040206909180e-02 3.926533088088035583e-02
5.920000000000000000e+02 5.086661815643310547e+00 -1.319323629140853882e-01 -2.620449066162109375e-01 -1.793849369278177619e-04 -7.866729050874710083e-02 4.105482250452041626e-02
5.930000000000000000e+02 5.283787727355957031e+00 -1.421496123075485229e-01 -1.860705465078353882e-01 1.116367429494857788e-02 -5.247205868363380432e-02 5.087561905384063721e-02
5.940000000000000000e+02 5.454619407653808594e+00 -4.220358133316040039e-01 3.709171414375305176e-01 3.009276464581489563e-02 1.203029677271842957e-01 2.159885466098785400e-01
5.950000000000000000e+02 5.032251358032226562e+00 -9.147278070449829102e-01 7.572696208953857422e-01 1.474363058805465698e-01 2.714117765426635742e-01 4.443863332271575928e-01
5.960000000000000000e+02 5.672704696655273438e+00 -4.032779037952423096e-01 4.850009977817535400e-01 3.260422870516777039e-02 1.552815735340118408e-01 2.335646301507949829e-01
5.970000000000000000e+02 5.689333438873291016e+00 -1.425580382347106934e-01 7.958712056279182434e-03 4.415501840412616730e-03 3.712264355272054672e-03 7.595381885766983032e-02
5.980000000000000000e+02 6.094984531402587891e+00 -1.345948725938796997e-01 2.609479725360870361e-01 2.896310063078999519e-03 7.915328443050384521e-02 9.057881683111190796e-02
5.990000000000000000e+02 6.499288082122802734e+00 -3.624794781208038330e-01 1.100638985633850098e+00 4.817194864153862000e-02 3.446432948112487793e-01 3.493804931640625000e-01
6.000000000000000000e+02 6.500439167022705078e+00 -1.290287375450134277e-01 5.822753310203552246e-01 8.386267349123954773e-03 1.771984845399856567e-01 1.163683384656906128e-01
6.010000000000000000e+02 6.907692909240722656e+00 -4.148274362087249756e-01 1.762065887451171875e+00 7.614328712224960327e-02 5.514627695083618164e-01 5.240219831466674805e-01
6.020000000000000000e+02 6.903815746307373047e+00 -1.389468610286712646e-01 9.808091521263122559e-01 -7.142319343984127045e-03 2.921000421047210693e-01 1.443830877542495728e-01
6.030000000000000000e+02 7.121029853820800781e+00 -4.067460894584655762e-01 2.047173261642456055e+00 5.727800726890563965e-02 6.313353776931762695e-01 5.612658858299255371e-01
6.040000000000000000e+02 7.673297882080078125e+00 -3.812748491764068604e-01 2.995284795761108398e+00 1.895986348390579224e-01 9.554650187492370605e-01 8.079472780227661133e-01
6.050000000000000000e+02 8.090831756591796875e+00 -4.654213786125183105e-01 4.467301368713378906e+00 2.486306577920913696e-01 1.414779543876647949e+00 1.315186262130737305e+00
6.060000000000000000e+02 8.513357162475585938e+00 -9.385216236114501953e-02 4.025268077850341797e+00 -1.081369910389184952e-02 1.204336285591125488e+00 2.555891573429107666e-01
6.070000000000000000e+02 8.694006919860839844e+00 -9.929644316434860229e-02 4.929270267486572266e+00 2.247013002634048462e-01 1.546191453933715820e+00 5.222402215003967285e-01
6.080000000000000000e+02 8.780900955200195312e+00 -5.805974006652832031e-01 8.021098136901855469e+00 1.310578703880310059e+00 2.799502849578857422e+00 3.435474157333374023e+00
6.090000000000000000e+02 9.002408027648925781e+00 -5.003924965858459473e-01 9.343996047973632812e+00 1.558103322982788086e+00 3.270629644393920898e+00 4.081300735473632812e+00
6.100000000000000000e+02 2.677865982055664062e+00 4.797182679176330566e-01 -4.642014801502227783e-01 -1.145954709500074387e-02 -1.426983028650283813e-01 1.695375442504882812e-01
6.110000000000000000e+02 3.502223491668701172e+00 1.595564931631088257e-01 -8.682548403739929199e-01 -4.993997048586606979e-03 -2.619746625423431396e-01 7.314991205930709839e-02
6.120000000000000000e+02 4.110939979553222656e+00 1.544675827026367188e-01 -1.161490440368652344e+00 2.218126173829659820e-04 -3.483805954456329346e-01 7.924924790859222412e-02
6.130000000000000000e+02 4.331385135650634766e+00 4.170958399772644043e-01 -1.105945348739624023e+00 -4.508640617132186890e-03 -3.331361711025238037e-01 2.048805803060531616e-01
6.140000000000000000e+02 4.723761558532714844e+00 6.832276582717895508e-01 -1.025923728942871094e+00 -1.779259368777275085e-02 -3.131148815155029297e-01 3.011487722396850586e-01
6.150000000000000000e+02 5.272310256958007812e+00 3.729754388332366943e-01 -1.548803329467773438e+00 -9.847224690020084381e-03 -4.675951898097991943e-01 2.041506022214889526e-01
6.160000000000000000e+02 5.293497562408447266e+00 1.325630992650985718e-01 -1.815895676612854004e+00 -7.013154681771993637e-03 -5.468726754188537598e-01 7.701827585697174072e-02
6.170000000000000000e+02 5.232282638549804688e+00 6.048842072486877441e-01 -1.283629059791564941e+00 -1.859777607023715973e-02 -3.906680643558502197e-01 2.936581969261169434e-01
6.180000000000000000e+02 8.746415138244628906e+00 3.600572347640991211e-01 -2.386270761489868164e+00 -8.569510281085968018e-02 -7.415897250175476074e-01 2.263007611036300659e-01
6.190000000000000000e+02 8.305797576904296875e+00 1.427644640207290649e-01 -4.236418724060058594e+00 -9.970927610993385315e-03 -1.273916959762573242e+00 2.298659980297088623e-01
6.200000000000000000e+02 7.901810646057128906e+00 1.449706256389617920e-01 -3.778086900711059570e+00 2.100363560020923615e-02 -1.127125024795532227e+00 1.708000004291534424e-01
6.210000000000000000e+02 7.500181674957275391e+00 4.128713011741638184e-01 -2.441316127777099609e+00 -5.572053790092468262e-02 -7.491109967231750488e-01 3.009559512138366699e-01
6.220000000000000000e+02 7.501165390014648438e+00 1.396588683128356934e-01 -3.380897998809814453e+00 -9.020031429827213287e-03 -1.016975402832031250e+00 1.425027251243591309e-01
6.230000000000000000e+02 6.921849727630615234e+00 3.830473423004150391e-01 -2.286985397338867188e+00 -1.216510403901338577e-02 -6.897451877593994141e-01 2.532504796981811523e-01
6.240000000000000000e+02 6.729214191436767578e+00 3.933477997779846191e-01 -2.186693906784057617e+00 -1.692906580865383148e-02 -6.610869169235229492e-01 2.657328844070434570e-01
6.250000000000000000e+02 6.333845615386962891e+00 4.256263971328735352e-01 -1.950585246086120605e+00 -1.298818923532962799e-02 -5.890720486640930176e-01 2.568747699260711670e-01
6.260000000000000000e+02 6.309340953826904297e+00 1.476686298847198486e-01 -2.440767765045166016e+00 4.152121982770040631e-05 -7.322178483009338379e-01 1.157052591443061829e-01
6.270000000000000000e+02 5.493331432342529297e+00 1.431408077478408813e-01 -1.931153059005737305e+00 -9.635613299906253815e-03 -5.822365880012512207e-01 8.958911150693893433e-02
6.280000000000000000e+02 8.807046890258789062e+00 5.908421874046325684e-01 -2.775545120239257812e-01 3.259789347648620605e-01 1.452732831239700317e-02 -4.475150108337402344e-01
6.290000000000000000e+02 9.641102790832519531e+00 1.027891039848327637e+00 1.769678235054016113e+00 9.439170837402343750e+00 3.362654685974121094e+00 -4.495504379272460938e+00
6.300000000000000000e+02 9.723552703857421875e+00 1.164067268371582031e+00 1.328983068466186523e+00 1.045199584960937500e+01 3.534293889999389648e+00 -4.067734718322753906e+00
6.310000000000000000e+02 9.169920921325683594e+00 -7.426183819770812988e-01 9.760725021362304688e+00 4.343291282653808594e+00 4.231204986572265625e+00 6.607765197753906250e+00
6.320000000000000000e+02 9.013514518737792969e+00 -8.671277761459350586e-01 8.637255668640136719e+00 4.227020263671875000e+00 3.859282732009887695e+00 6.207186698913574219e+00
6.330000000000000000e+02 1.013618946075439453e+01 -1.204873919486999512e+00 5.209407806396484375e+00 1.661173057556152344e+01 6.546341896057128906e+00 5.245880126953125000e+00
6.340000000000000000e+02 1.096621036529541016e+01 -5.681729912757873535e-01 1.146908569335937500e+01 1.499564075469970703e+01 7.939417839050292969e+00 7.589420676231384277e-01
6.350000000000000000e+02 1.110134124755859375e+01 4.364140033721923828e-01 9.361085891723632812e+00 1.450656986236572266e+01 7.160296916961669922e+00 5.514225006103515625e+00
6.360000000000000000e+02 1.073451900482177734e+01 1.042677521705627441e+00 2.727467536926269531e+00 1.663134384155273438e+01 5.807643413543701172e+00 3.238020181655883789e+00
6.370000000000000000e+02 7.196813225746154785e-01 1.133157849311828613e+00 -4.675485566258430481e-02 -9.776409715414047241e-02 -4.335568472743034363e-02 1.109630241990089417e-01
6.380000000000000000e+02 5.095959901809692383e-01 9.234093427658081055e-01 -2.052320167422294617e-02 -6.404032558202743530e-02 -2.536905929446220398e-02 5.427380651235580444e-02
6.390000000000000000e+02 9.473596811294555664e-01 8.759135007858276367e-01 -7.293491810560226440e-02 -6.074180454015731812e-02 -4.010301828384399414e-02 1.072582602500915527e-01
6.400000000000000000e+02 8.585849761962890625e+00 6.451504826545715332e-01 -4.715034067630767822e-01 1.828358322381973267e-01 -8.660026639699935913e-02 -2.141005545854568481e-01
6.410000000000000000e+02 3.430184721946716309e-01 -6.891425848007202148e-01 -1.889615319669246674e-02 -5.480506643652915955e-02 -2.211036719381809235e-02 -5.147531628608703613e-02
6.420000000000000000e+02 8.211489915847778320e-01 -1.136243939399719238e+00 -2.458518929779529572e-02 -6.974362581968307495e-02 -2.829864434897899628e-02 -1.206142455339431763e-01
6.430000000000000000e+02 7.618465423583984375e-01 -8.771122694015502930e-01 -2.623680233955383301e-02 -6.586840003728866577e-02 -2.763156220316886902e-02 -1.140802726149559021e-01
6.440000000000000000e+02 1.128251910209655762e+00 -7.265512347221374512e-01 -7.047684490680694580e-02 -1.457206811755895615e-02 -2.551467344164848328e-02 -1.129873916506767273e-01
6.450000000000000000e+02 7.798145771026611328e+00 8.820459842681884766e-01 -6.462032198905944824e-01 8.227517455816268921e-02 -1.691784113645553589e-01 9.656289219856262207e-02
6.460000000000000000e+02 7.292043209075927734e+00 6.492977738380432129e-01 -1.590710997581481934e+00 -1.544277090579271317e-02 -4.818461537361145020e-01 3.175737559795379639e-01
6.470000000000000000e+02 7.491149425506591797e+00 7.071627378463745117e-01 -1.416442275047302246e+00 1.290524611249566078e-03 -4.245455265045166016e-01 2.943040132522583008e-01
6.480000000000000000e+02 7.897399425506591797e+00 6.969326734542846680e-01 -1.223619103431701660e+00 3.870126232504844666e-02 -3.554753363132476807e-01 1.854090541601181030e-01
6.490000000000000000e+02 7.121828079223632812e+00 6.090865731239318848e-01 -1.787171244621276855e+00 -1.988004520535469055e-02 -5.421153903007507324e-01 3.173437416553497314e-01
6.500000000000000000e+02 6.947204589843750000e+00 6.253395080566406250e-01 -1.723720669746398926e+00 -2.155888825654983521e-02 -5.235838890075683594e-01 3.411315083503723145e-01
6.510000000000000000e+02 6.761960983276367188e+00 6.432615518569946289e-01 -1.632027387619018555e+00 -7.992540486156940460e-03 -4.920059740543365479e-01 3.400170803070068359e-01
6.520000000000000000e+02 6.371105194091796875e+00 7.061058282852172852e-01 -1.426164269447326660e+00 -1.674288883805274963e-02 -4.328721463680267334e-01 3.498818278312683105e-01
6.530000000000000000e+02 5.778918266296386719e+00 8.067899346351623535e-01 -1.203121066093444824e+00 -2.201356552541255951e-02 -3.675403892993927002e-01 3.435679674148559570e-01
6.540000000000000000e+02 5.950025081634521484e+00 7.224904298782348633e-01 -1.309746980667114258e+00 -2.282817475497722626e-02 -3.997725248336791992e-01 3.349227309226989746e-01
6.550000000000000000e+02 5.419727802276611328e+00 6.486015915870666504e-01 -1.297456741333007812e+00 -1.850415766239166260e-02 -3.947882652282714844e-01 3.123458027839660645e-01
6.560000000000000000e+02 5.058570861816406250e+00 5.610458850860595703e-01 -1.263866901397705078e+00 -7.665512617677450180e-03 -3.814597427845001221e-01 2.750671803951263428e-01
6.570000000000000000e+02 6.443637371063232422e+00 9.457973241806030273e-01 -1.010680913925170898e+00 -1.592111401259899139e-02 -3.079805970191955566e-01 3.435588181018829346e-01
6.580000000000000000e+02 8.837642669677734375e+00 -7.290750741958618164e-01 8.361983299255371094e+00 2.081688642501831055e+00 3.133101701736450195e+00 4.431971549987792969e+00
6.590000000000000000e+02 8.703968048095703125e+00 -8.356453180313110352e-01 7.547969341278076172e+00 2.153698444366455078e+00 2.910500288009643555e+00 4.327263355255126953e+00
6.600000000000000000e+02 8.839380264282226562e+00 -8.827289342880249023e-01 8.201000213623046875e+00 3.008135795593261719e+00 3.362740755081176758e+00 5.336624145507812500e+00
6.610000000000000000e+02 7.849783420562744141e+00 -7.420578598976135254e-01 4.455309391021728516e+00 5.131980776786804199e-01 1.490552306175231934e+00 1.851158857345581055e+00
6.620000000000000000e+02 7.432171344757080078e+00 -8.125846982002258301e-01 3.482521772384643555e+00 4.619942903518676758e-01 1.183354854583740234e+00 1.585137724876403809e+00
6.630000000000000000e+02 7.247812271118164062e+00 -8.348821401596069336e-01 3.207244873046875000e+00 3.777548372745513916e-01 1.075499892234802246e+00 1.433134436607360840e+00
6.640000000000000000e+02 6.707566261291503906e+00 -1.137985229492187500e+00 2.662745237350463867e+00 4.670457839965820312e-01 9.389373064041137695e-01 1.493770480155944824e+00
6.650000000000000000e+02 6.152390956878662109e+00 9.818547368049621582e-01 -9.294986128807067871e-01 -1.183620933443307877e-02 -2.824004292488098145e-01 3.640890419483184814e-01
6.660000000000000000e+02 5.166089534759521484e+00 8.400604128837585449e-01 -1.004423737525939941e+00 -2.041570656001567841e-02 -3.074518442153930664e-01 3.641285002231597900e-01
6.670000000000000000e+02 4.488036632537841797e+00 7.870783209800720215e-01 -8.822336792945861816e-01 -1.600583642721176147e-02 -2.694718539714813232e-01 3.313919305801391602e-01
6.680000000000000000e+02 3.789488315582275391e+00 9.651583433151245117e-01 -5.977163910865783691e-01 -2.611508406698703766e-02 -1.871494352817535400e-01 3.666869699954986572e-01
6.690000000000000000e+02 3.485383033752441406e+00 9.789987802505493164e-01 -5.402697920799255371e-01 -2.705410681664943695e-02 -1.701971590518951416e-01 3.563749492168426514e-01
6.700000000000000000e+02 3.102208375930786133e+00 4.528451859951019287e-01 -6.066720485687255859e-01 -8.489465340971946716e-03 -1.845484524965286255e-01 1.794104874134063721e-01
6.710000000000000000e+02 2.668821096420288086e+00 7.853702306747436523e-01 -4.116822481155395508e-01 -2.688659168779850006e-02 -1.315706521272659302e-01 2.548302114009857178e-01
6.720000000000000000e+02 2.879905700683593750e+00 1.040180444717407227e+00 -3.860031068325042725e-01 -4.023687541484832764e-02 -1.278720051050186157e-01 3.332375884056091309e-01
6.730000000000000000e+02 2.283032178878784180e+00 8.337278962135314941e-01 -3.053114116191864014e-01 -3.710336983203887939e-02 -1.027244403958320618e-01 2.430708557367324829e-01
6.740000000000000000e+02 2.023591279983520508e+00 9.913223981857299805e-01 -2.445957958698272705e-01 -5.465777218341827393e-02 -8.977606892585754395e-02 2.597130537033081055e-01
6.750000000000000000e+02 1.773169398307800293e+00 1.094848155975341797e+00 -1.793879568576812744e-01 -7.565799355506896973e-02 -7.651378214359283447e-02 2.446949183940887451e-01
6.760000000000000000e+02 1.610540509223937988e+00 9.875396490097045898e-01 -1.596876680850982666e-01 -6.995673477649688721e-02 -6.889332085847854614e-02 2.103514075279235840e-01
6.770000000000000000e+02 7.322433948516845703e+00 -3.674551546573638916e-01 2.254663467407226562e+00 8.909729868173599243e-02 7.031282186508178711e-01 5.469997525215148926e-01
6.780000000000000000e+02 7.189186573028564453e+00 -6.365131139755249023e-01 2.667720556259155273e+00 2.113440930843353271e-01 8.637194037437438965e-01 1.013615369796752930e+00
6.790000000000000000e+02 6.494585990905761719e+00 -5.667870044708251953e-01 1.462466359138488770e+00 6.692843884229660034e-02 4.588184356689453125e-01 5.485873222351074219e-01
6.800000000000000000e+02 6.665716648101806641e+00 -6.086487770080566406e-01 1.802165627479553223e+00 1.564177423715591431e-01 5.875750184059143066e-01 7.083151936531066895e-01
6.810000000000000000e+02 5.662438392639160156e+00 -6.451626420021057129e-01 8.180630803108215332e-01 7.895075529813766479e-02 2.691041529178619385e-01 4.115910232067108154e-01
6.820000000000000000e+02 5.153976440429687500e+00 -6.769131422042846680e-01 5.423699021339416504e-01 7.648138701915740967e-02 1.856553852558135986e-01 3.272925317287445068e-01
6.830000000000000000e+02 4.689115524291992188e+00 -3.678166568279266357e-01 -7.608379423618316650e-02 2.096136659383773804e-02 -1.653672941029071808e-02 1.036878079175949097e-01
6.840000000000000000e+02 4.881676197052001953e+00 -8.163195252418518066e-01 5.329794287681579590e-01 9.521902352571487427e-02 1.884595453739166260e-01 3.273349106311798096e-01
6.850000000000000000e+02 4.461433410644531250e+00 -6.964415907859802246e-01 2.183571904897689819e-01 5.924423784017562866e-02 8.328042924404144287e-02 1.908594667911529541e-01
6.860000000000000000e+02 4.224597930908203125e+00 -6.622968316078186035e-01 1.010231077671051025e-01 6.023374199867248535e-02 4.837705567479133606e-02 1.450010836124420166e-01
6.870000000000000000e+02 3.801926136016845703e+00 -5.143706202507019043e-01 -1.418347060680389404e-01 2.508271671831607819e-02 -3.502559661865234375e-02 5.012817308306694031e-02
6.880000000000000000e+02 3.630661249160766602e+00 -6.272665858268737793e-01 -7.466105371713638306e-02 3.418122231960296631e-02 -1.214394811540842056e-02 5.141596123576164246e-02
6.890000000000000000e+02 2.568556547164916992e+00 -5.380747914314270020e-01 -2.131019979715347290e-01 2.251544035971164703e-02 -5.717596784234046936e-02 -5.785514786839485168e-02
6.900000000000000000e+02 1.276379942893981934e+00 9.805626869201660156e-01 -1.160412579774856567e-01 -7.554159313440322876e-02 -5.747485533356666565e-02 1.685428917407989502e-01
6.910000000000000000e+02 1.473438262939453125e+00 1.130170464515686035e+00 -1.331431567668914795e-01 -9.099441766738891602e-02 -6.724126636981964111e-02 2.182468771934509277e-01
6.920000000000000000e+02 6.174290180206298828e+00 -9.929761886596679688e-01 1.825045466423034668e+00 2.690452635288238525e-01 6.282272338867187500e-01 9.513909220695495605e-01
6.930000000000000000e+02 5.829972267150878906e+00 -8.968052864074707031e-01 1.326054453849792480e+00 1.708402335643768311e-01 4.490683972835540771e-01 6.876240372657775879e-01
6.940000000000000000e+02 5.305361270904541016e+00 -7.824894189834594727e-01 7.517476081848144531e-01 9.998330473899841309e-02 2.555192708969116211e-01 4.093315601348876953e-01
6.950000000000000000e+02 4.869118213653564453e+00 -1.037578105926513672e+00 7.748742103576660156e-01 1.579374074935913086e-01 2.798434793949127197e-01 4.597512781620025635e-01
6.960000000000000000e+02 4.970853805541992188e+00 -6.024886965751647949e-01 3.356775045394897461e-01 6.654573976993560791e-02 1.206669807434082031e-01 2.471067458391189575e-01
6.970000000000000000e+02 6.597208976745605469e+00 -9.410620927810668945e-01 2.243084669113159180e+00 2.789845466613769531e-01 7.566207647323608398e-01 1.104619860649108887e+00
6.980000000000000000e+02 1.099483966827392578e+00 6.637505888938903809e-01 -9.585732221603393555e-02 -4.003253951668739319e-02 -4.076695814728736877e-02 9.946819394826889038e-02
6.990000000000000000e+02 4.873821258544921875e+00 8.694833517074584961e-01 -9.139076471328735352e-01 -1.851186901330947876e-02 -2.797258496284484863e-01 3.731250762939453125e-01
7.000000000000000000e+02 4.735702037811279297e+00 5.310602784156799316e-01 -1.189115405082702637e+00 -1.271599344909191132e-02 -3.605494201183319092e-01 2.375022917985916138e-01
7.010000000000000000e+02 4.781222641468048096e-01 7.325435876846313477e-01 -2.532619796693325043e-02 -4.634427651762962341e-02 -2.150114253163337708e-02 4.580275341868400574e-02
7.020000000000000000e+02 6.524793505668640137e-01 6.480366587638854980e-01 -4.389679059386253357e-02 -3.749972954392433167e-02 -2.441895566880702972e-02 5.316154658794403076e-02
7.030000000000000000e+02 5.329104065895080566e-01 -9.645437002182006836e-01 -1.541513297706842422e-02 -9.105282276868820190e-02 -3.194038569927215576e-02 -9.005955606698989868e-02
7.040000000000000000e+02 7.783585786819458008e-01 -7.012048959732055664e-01 -4.841387271881103516e-02 -3.723476082086563110e-02 -2.569459006190299988e-02 -9.191867709159851074e-02
7.050000000000000000e+02 6.917028427124023438e-01 -1.030764341354370117e+00 -3.493887186050415039e-02 -4.529426246881484985e-02 -2.406993880867958069e-02 -1.048549115657806396e-01
7.060000000000000000e+02 6.293925642967224121e-01 -7.808761000633239746e-01 -2.163248509168624878e-02 -3.465466573834419250e-02 -1.688614487648010254e-02 -7.912800461053848267e-02
7.070000000000000000e+02 9.472883939743041992e-01 -7.062159180641174316e-01 -5.813384801149368286e-02 -2.411604300141334534e-02 -2.467496693134307861e-02 -1.064306423068046570e-01
7.080000000000000000e+02 4.776030778884887695e-01 5.666073560714721680e-01 -2.314975857734680176e-02 -2.127056568861007690e-02 -1.332609727978706360e-02 2.107555978000164032e-02
7.090000000000000000e+02 1.538459300994873047e+00 6.425859332084655762e-01 -1.668577045202255249e-01 -3.391404077410697937e-02 -6.023152172565460205e-02 1.393610835075378418e-01
7.100000000000000000e+02 5.843770027160644531e+00 9.733428359031677246e-01 -9.896115064620971680e-01 -1.716779358685016632e-02 -3.020337820053100586e-01 3.892555534839630127e-01
7.110000000000000000e+02 4.688058853149414062e+00 -7.520776391029357910e-01 3.573296368122100830e-01 7.653187215328216553e-02 1.301584541797637939e-01 2.462976276874542236e-01
7.120000000000000000e+02 1.718168497085571289e+00 -7.818244099617004395e-01 -8.753853291273117065e-02 7.507420144975185394e-03 -2.400933206081390381e-02 -1.137595102190971375e-01
7.130000000000000000e+02 2.141017913818359375e+00 -8.937534093856811523e-01 -5.538270995020866394e-02 3.566369786858558655e-02 -5.915703717619180679e-03 -9.337234497070312500e-02
7.140000000000000000e+02 3.295278072357177734e+00 4.408143162727355957e-01 -6.913009881973266602e-01 -1.075618341565132141e-02 -2.106171399354934692e-01 1.810520291328430176e-01
7.150000000000000000e+02 3.908945798873901367e+00 7.542336583137512207e-01 -7.598085999488830566e-01 -1.867608539760112762e-02 -2.335454076528549194e-01 3.000928461551666260e-01
7.160000000000000000e+02 4.898604869842529297e+00 3.364383876323699951e-01 -1.417829632759094238e+00 1.082654809579253197e-03 -4.250241219997406006e-01 1.781676113605499268e-01
7.170000000000000000e+02 4.172647476196289062e+00 -9.147674441337585449e-01 3.118277490139007568e-01 9.545595198869705200e-02 1.221851110458374023e-01 2.212557196617126465e-01
7.180000000000000000e+02 4.341487407684326172e+00 -1.208051443099975586e+00 6.352220177650451660e-01 1.808849424123764038e-01 2.448320984840393066e-01 4.000991582870483398e-01
7.190000000000000000e+02 3.930785894393920898e+00 -8.624976873397827148e-01 1.811870038509368896e-01 8.593360334634780884e-02 8.013617992401123047e-02 1.481359899044036865e-01
7.200000000000000000e+02 3.666007995605468750e+00 -1.085257411003112793e+00 2.699492573738098145e-01 1.158301383256912231e-01 1.157338172197341919e-01 1.621829867362976074e-01
7.210000000000000000e+02 3.434339046478271484e+00 -1.001948237419128418e+00 1.549977660179138184e-01 8.404782414436340332e-02 7.171367853879928589e-02 1.007177755236625671e-01
7.220000000000000000e+02 3.152985572814941406e+00 -1.041568875312805176e+00 1.081082969903945923e-01 8.929225802421569824e-02 5.922016873955726624e-02 5.030361935496330261e-02
7.230000000000000000e+02 3.014698266983032227e+00 -1.173652768135070801e+00 1.750766187906265259e-01 1.164346039295196533e-01 8.745336532592773438e-02 5.897421389818191528e-02
7.240000000000000000e+02 3.278838396072387695e+00 -6.853585243225097656e-01 -7.241713255643844604e-02 4.044114053249359131e-02 -9.592797607183456421e-03 2.067991159856319427e-02
7.250000000000000000e+02 5.003881931304931641e+00 7.624759674072265625e-01 -1.030421257019042969e+00 -1.881035789847373962e-02 -3.147694766521453857e-01 3.396075665950775146e-01
7.260000000000000000e+02 4.868101119995117188e+00 7.044153809547424316e-01 -1.059156656265258789e+00 -2.263883687555789948e-02 -3.245386481285095215e-01 3.107447922229766846e-01
7.270000000000000000e+02 2.721965551376342773e+00 -8.490000367164611816e-01 -5.130569264292716980e-02 5.648005381226539612e-02 1.552308676764369011e-03 -3.787216171622276306e-02
7.280000000000000000e+02 6.305780887603759766e+00 -5.861872434616088867e-01 1.328988790512084961e+00 9.167583286762237549e-02 4.261993765830993652e-01 5.251061916351318359e-01
7.290000000000000000e+02 6.341193199157714844e+00 -7.839299440383911133e-01 1.697945117950439453e+00 1.601352095603942871e-01 5.574240684509277344e-01 7.726273536682128906e-01
7.300000000000000000e+02 2.076251029968261719e+00 7.923982143402099609e-01 -2.634766697883605957e-01 -3.955804184079170227e-02 -9.091041237115859985e-02 2.169519364833831787e-01
7.310000000000000000e+02 3.048688173294067383e+00 -8.854083418846130371e-01 1.929485052824020386e-02 6.340752542018890381e-02 2.481071278452873230e-02 1.563183031976222992e-02
7.320000000000000000e+02 3.992599487304687500e+00 -6.138769388198852539e-01 -1.818927936255931854e-02 4.012616351246833801e-02 6.581064779311418533e-03 9.827306866645812988e-02
7.330000000000000000e+02 4.893347263336181641e+00 5.319082140922546387e-01 -1.224571347236633301e+00 -9.734132327139377594e-03 -3.702916502952575684e-01 2.537646889686584473e-01
7.340000000000000000e+02 4.594274997711181641e+00 5.978508591651916504e-01 -1.068412899971008301e+00 -9.592905640602111816e-03 -3.234017491340637207e-01 2.625061869621276855e-01
7.350000000000000000e+02 3.709774494171142578e+00 6.789032220840454102e-01 -7.374029755592346191e-01 -1.719055883586406708e-02 -2.263780683279037476e-01 2.643926441669464111e-01
7.360000000000000000e+02 5.923292040824890137e-01 -1.038217544555664062e+01 -4.310379177331924438e-02 2.392125368118286133e+00 7.047064900398254395e-01 1.318687498569488525e-01
7.370000000000000000e+02 1.162240219116210938e+01 -1.588941287994384766e+01 3.524502277374267578e+00 7.747395038604736328e+00 3.381569147109985352e+00 4.529800415039062500e+00
7.380000000000000000e+02 1.285109615325927734e+01 -1.508323287963867188e+01 1.301650881767272949e+00 2.813292264938354492e+00 1.234482884407043457e+00 2.498315334320068359e+00
7.390000000000000000e+02 1.661469078063964844e+01 -1.333158111572265625e+01 -7.800379276275634766e+00 -7.171440124511718750e-02 -2.361628055572509766e+00 -7.832014560699462891e-01
7.400000000000000000e+02 1.531369209289550781e+01 -1.376778602600097656e+01 -5.212597370147705078e+00 2.382967807352542877e-02 -1.556630373001098633e+00 -4.748524427413940430e-01
7.410000000000000000e+02 1.973986816406250000e+01 -1.005190181732177734e+01 -3.216938495635986328e+00 -4.464668035507202148e-01 -1.099021553993225098e+00 5.086500048637390137e-01
7.420000000000000000e+02 1.239138317108154297e+01 -1.937359452247619629e+00 4.729486465454101562e+00 9.208558082580566406e+00 4.181413650512695312e+00 9.688688516616821289e-01
7.430000000000000000e+02 1.209748172760009766e+01 1.355225086212158203e+01 -1.485241856426000595e-02 4.077467918395996094e+00 1.218784570693969727e+00 -4.786089435219764709e-02
7.440000000000000000e+02 1.205660057067871094e+01 1.942889785766601562e+01 -5.813404172658920288e-02 3.554585695266723633e+00 1.048935413360595703e+00 -3.277869224548339844e-01
7.450000000000000000e+02 1.547018432617187500e+01 2.508595275878906250e+01 -8.700858056545257568e-02 3.852505445480346680e+00 1.129649043083190918e+00 -3.593626916408538818e-01
7.460000000000000000e+02 1.465547275543212891e+01 3.301369094848632812e+01 -2.790483236312866211e-01 3.670312404632568359e+00 1.017379283905029297e+00 -3.225979506969451904e-01
7.470000000000000000e+02 1.788010406494140625e+01 4.059824371337890625e+01 -5.013256072998046875e-01 4.067176818847656250e+00 1.069755434989929199e+00 -7.454498112201690674e-02
7.480000000000000000e+02 1.294814109802246094e+01 4.064472579956054688e+01 -3.210084140300750732e-01 3.531793355941772461e+00 9.632354974746704102e-01 -7.604318112134933472e-02
7.490000000000000000e+02 4.953575134277343750e+00 4.031923675537109375e+01 -6.809113919734954834e-02 2.603971481323242188e+00 7.607641220092773438e-01 -2.727117761969566345e-02
7.500000000000000000e+02 8.098560333251953125e+00 2.390627861022949219e+01 -9.833052754402160645e-02 2.745529413223266602e+00 7.941596508026123047e-01 -4.399647116661071777e-01
7.510000000000000000e+02 8.225569725036621094e+00 1.591270351409912109e+01 -1.159012988209724426e-01 2.858612060546875000e+00 8.228132128715515137e-01 -4.874948859214782715e-01
7.520000000000000000e+02 8.766255378723144531e+00 1.181476306915283203e+01 -8.986144512891769409e-02 3.377509355545043945e+00 9.862943887710571289e-01 -4.741823673248291016e-01
7.530000000000000000e+02 1.911800503730773926e-01 2.407763719558715820e+00 -1.264357124455273151e-03 -3.595378100872039795e-01 -1.082406491041183472e-01 5.148041620850563049e-02
7.540000000000000000e+02 1.111002254486083984e+01 1.260101437568664551e+00 3.131021499633789062e+00 1.416656017303466797e+01 5.189274311065673828e+00 3.693610668182373047e+00
7.550000000000000000e+02 1.271959686279296875e+01 1.083763599395751953e+00 5.501862049102783203e+00 8.608625411987304688e+00 4.233146190643310547e+00 4.025125026702880859e+00
7.560000000000000000e+02 1.689668536186218262e+00 -1.181909656524658203e+01 -1.936111897230148315e-01 3.339297533035278320e+00 9.437059164047241211e-01 1.218390837311744690e-01
7.570000000000000000e+02 5.563908219337463379e-01 -1.719857215881347656e+01 3.468517959117889404e-02 1.577846050262451172e+00 4.837593734264373779e-01 -1.462794244289398193e-01
7.580000000000000000e+02 8.585214614868164062e+00 -2.222200965881347656e+01 1.332944035530090332e+00 2.170060348510742188e+01 6.910064220428466797e+00 3.020488262176513672e+00
7.590000000000000000e+02 9.389032363891601562e+00 -1.957960510253906250e+01 3.098059415817260742e+00 1.705359840393066406e+01 6.045497417449951172e+00 6.518305301666259766e+00
7.600000000000000000e+02 8.331491470336914062e+00 -1.920514106750488281e+01 2.113061666488647461e+00 1.500127220153808594e+01 5.134300231933593750e+00 3.368332862854003906e+00
7.610000000000000000e+02 1.064915370941162109e+01 -1.700132369995117188e+01 3.505526304244995117e+00 1.132996654510498047e+01 4.450647830963134766e+00 5.665375709533691406e+00
7.620000000000000000e+02 1.723981380462646484e+00 -1.848941802978515625e+01 1.611493676900863647e-01 3.281397104263305664e+00 1.032763957977294922e+00 -1.676603257656097412e-01
7.630000000000000000e+02 6.110063195228576660e-01 -2.398557090759277344e+01 9.664990007877349854e-02 3.276857137680053711e+00 1.012052059173583984e+00 5.941874980926513672e-01
7.640000000000000000e+02 1.030029392242431641e+01 -2.777416610717773438e+01 -5.741053819656372070e-01 2.696941852569580078e+00 6.368508934974670410e-01 -6.674945354461669922e-01
7.650000000000000000e+02 8.758571624755859375e+00 -2.558430290222167969e+01 1.449883937835693359e+00 1.596585083007812500e+01 5.224720478057861328e+00 -1.973515510559082031e+00
7.660000000000000000e+02 8.548678398132324219e+00 -2.751439285278320312e+01 -1.801651000976562500e+00 1.002875232696533203e+01 2.468130350112915039e+00 3.166463375091552734e-01
7.670000000000000000e+02 1.923937916755676270e+00 -2.654025459289550781e+01 -2.916661649942398071e-02 7.161743640899658203e+00 2.139773130416870117e+00 2.000473260879516602e+00
7.680000000000000000e+02 6.404007077217102051e-01 -3.079078674316406250e+01 -1.068909689784049988e-01 1.046045684814453125e+01 3.106069564819335938e+00 5.012083053588867188e-01
7.690000000000000000e+02 1.234926795959472656e+01 -2.982267379760742188e+01 -3.539482593536376953e+00 -3.942681252956390381e-01 -1.180125236511230469e+00 1.358392477035522461e+00
7.700000000000000000e+02 1.501892662048339844e+01 -3.113217926025390625e+01 -4.623386383056640625e+00 -5.926569104194641113e-01 -1.564812898635864258e+00 1.362888574600219727e+00
7.710000000000000000e+02 1.362705039978027344e+01 -3.058077049255371094e+01 -4.460307598114013672e+00 -6.997516751289367676e-01 -1.548017740249633789e+00 1.548362612724304199e+00
7.720000000000000000e+02 2.409423828125000000e+00 -3.433683013916015625e+01 -3.147279322147369385e-01 1.072261619567871094e+01 3.122366428375244141e+00 5.186933875083923340e-01
7.730000000000000000e+02 8.362440466880798340e-01 -3.770680236816406250e+01 -1.862694472074508667e-01 1.198953723907470703e+01 3.540980339050292969e+00 -2.345229871571063995e-02
7.740000000000000000e+02 8.867958068847656250e+00 -3.688171005249023438e+01 -5.485851168632507324e-01 4.885122776031494141e+00 1.300961256027221680e+00 -2.318918555974960327e-01
7.750000000000000000e+02 1.201340675354003906e+01 -3.393872070312500000e+01 -1.442046046257019043e+00 1.867384433746337891e+00 1.276015192270278931e-01 -2.061866074800491333e-01
7.760000000000000000e+02 1.869894027709960938e+01 -3.837918090820312500e+01 -4.701429903507232666e-01 -4.006324112415313721e-01 -2.612326145172119141e-01 4.403902888298034668e-01
7.770000000000000000e+02 2.290084648132324219e+01 -3.607047653198242188e+01 -1.374944329261779785e+00 -3.358362913131713867e-01 -5.132341980934143066e-01 5.190196633338928223e-01
7.780000000000000000e+02 2.342184066772460938e+01 -3.139603996276855469e+01 -2.128105163574218750e+00 -6.595782469958066940e-03 -6.404103040695190430e-01 1.614531129598617554e-01
7.790000000000000000e+02 3.179274082183837891e+00 -3.730500793457031250e+01 -2.512300610542297363e-01 1.055571651458740234e+01 3.091346025466918945e+00 -4.847231134772300720e-02
7.800000000000000000e+02 2.270312500000000000e+01 -3.862629318237304688e+01 -8.121231198310852051e-01 -5.231330394744873047e-01 -4.005768597126007080e-01 4.009897410869598389e-01
7.810000000000000000e+02 2.877281570434570312e+01 -3.162802886962890625e+01 -1.866851925849914551e+00 -1.404453720897436142e-02 -5.642689466476440430e-01 2.167211771011352539e-01
7.820000000000000000e+02 2.697891426086425781e+01 -3.897255325317382812e+01 -1.033105373382568359e+00 -3.951479196548461914e-01 -4.284759759902954102e-01 8.722397685050964355e-02
7.830000000000000000e+02 3.250076675415039062e+01 -3.637889480590820312e+01 -1.405518531799316406e+00 -1.612281501293182373e-01 -4.700240194797515869e-01 -1.308874338865280151e-01
7.840000000000000000e+02 3.259770965576171875e+01 -3.252252960205078125e+01 -2.415966510772705078e+00 -8.547682315111160278e-02 -7.504330277442932129e-01 4.168834388256072998e-01
7.850000000000000000e+02 3.131166267395019531e+01 -3.214415359497070312e+01 -2.012759208679199219e+00 -3.111080080270767212e-02 -6.131610274314880371e-01 3.511480391025543213e-01
7.860000000000000000e+02 3.556920623779296875e+01 -3.624713134765625000e+01 -1.284454107284545898e+00 -2.622302807867527008e-02 -3.932031691074371338e-01 6.674885004758834839e-02
7.870000000000000000e+02 3.838245010375976562e+01 -4.102114105224609375e+01 -1.146489143371582031e+00 1.992602467536926270e+00 2.538340091705322266e-01 2.025501281023025513e-01
7.880000000000000000e+02 3.966223907470703125e+01 -3.206129837036132812e+01 -1.045637488365173340e+00 1.089393496513366699e+00 1.312679238617420197e-02 5.653895139694213867e-01
7.890000000000000000e+02 3.533291244506835938e+01 -3.326405715942382812e+01 -3.286444425582885742e+00 -2.228369414806365967e-01 -1.052784442901611328e+00 -8.872569538652896881e-03
7.900000000000000000e+02 3.392617034912109375e+01 -3.290663146972656250e+01 -2.982066869735717773e+00 -1.618624776601791382e-01 -9.431787729263305664e-01 2.994024157524108887e-01
7.910000000000000000e+02 4.327244949340820312e+01 -3.837430953979492188e+01 -1.857293009757995605e+00 5.096323966979980469e+00 9.717091917991638184e-01 4.199811220169067383e-01
7.920000000000000000e+02 4.086341857910156250e+01 -3.139070701599121094e+01 2.475063800811767578e-01 4.323172569274902344e+00 1.371203660964965820e+00 1.740721464157104492e+00
7.930000000000000000e+02 4.225341796875000000e+01 -2.803491401672363281e+01 8.592209815979003906e-01 1.414135074615478516e+01 4.500171184539794922e+00 9.677267670631408691e-01
7.940000000000000000e+02 4.215179443359375000e+01 -2.934768867492675781e+01 1.197582840919494629e+00 1.074981975555419922e+01 3.584220886230468750e+00 2.096532106399536133e+00
7.950000000000000000e+02 4.750793075561523438e+01 -4.102661132812500000e+01 -2.032420873641967773e+00 6.561638832092285156e+00 1.358765363693237305e+00 -1.360632665455341339e-02
7.960000000000000000e+02 4.963559722900390625e+01 -3.691161727905273438e+01 -1.260893702507019043e+00 6.762858390808105469e+00 1.650589466094970703e+00 -4.709672927856445312e-01
7.970000000000000000e+02 5.376595687866210938e+01 -2.995251464843750000e+01 2.276669263839721680e+00 7.252182960510253906e+00 2.858655691146850586e+00 -2.224200725555419922e+00
7.980000000000000000e+02 5.554433441162109375e+01 -2.952245330810546875e+01 7.224111557006835938e-01 8.712731361389160156e+00 2.830542802810668945e+00 9.916792064905166626e-02
7.990000000000000000e+02 5.515094757080078125e+01 -2.823344612121582031e+01 1.330370306968688965e+00 6.655813217163085938e+00 2.395854949951171875e+00 8.061601966619491577e-02
8.000000000000000000e+02 5.936828613281250000e+01 -2.470536422729492188e+01 2.017704248428344727e+00 1.333421230316162109e+00 1.005337595939636230e+00 1.632975101470947266e+00
8.010000000000000000e+02 5.580982208251953125e+01 -1.709904098510742188e+01 -3.760859966278076172e+00 -8.067572116851806641e-01 -1.370285153388977051e+00 6.884371042251586914e-01
8.020000000000000000e+02 5.472922515869140625e+01 -1.611455726623535156e+01 -4.392268180847167969e+00 -6.930727958679199219e-01 -1.525602340698242188e+00 1.291517138481140137e+00
8.030000000000000000e+02 5.188650894165039062e+01 -1.288026046752929688e+01 1.652897298336029053e-01 4.079223632812500000e+00 1.273354053497314453e+00 -9.223745465278625488e-01
8.040000000000000000e+02 5.066740036010742188e+01 -1.348278427124023438e+01 -8.914348483085632324e-01 5.047481060028076172e+00 1.246813893318176270e+00 -2.425024062395095825e-01
8.050000000000000000e+02 4.850024414062500000e+01 -6.594565868377685547e+00 3.596383631229400635e-01 6.386481761932373047e+00 2.023835897445678711e+00 -1.910556316375732422e+00
8.060000000000000000e+02 4.605617523193359375e+01 -2.906227409839630127e-01 9.403240680694580078e-01 6.268813610076904297e+00 2.162741184234619141e+00 -2.754982471466064453e+00
8.070000000000000000e+02 4.544686126708984375e+01 9.303413033485412598e-01 1.175738811492919922e+00 6.336707115173339844e+00 2.253733873367309570e+00 -2.955857515335083008e+00
8.080000000000000000e+02 4.267841339111328125e+01 9.058346748352050781e+00 1.728772640228271484e+00 1.186288452148437500e+01 4.077497482299804688e+00 -3.454676628112792969e+00
8.090000000000000000e+02 4.105079269409179688e+01 1.187966442108154297e+01 1.324071764945983887e+00 1.036941528320312500e+01 3.508046150207519531e+00 -1.111085891723632812e+00
8.100000000000000000e+02 4.253427886962890625e+01 1.619033241271972656e+01 5.527360439300537109e-01 1.016947937011718750e+01 3.216664552688598633e+00 1.302974462509155273e+00
8.110000000000000000e+02 4.315222167968750000e+01 1.896530151367187500e+01 6.401597857475280762e-01 8.264550209045410156e+00 2.671412944793701172e+00 1.988332509994506836e+00
8.120000000000000000e+02 4.453099060058593750e+01 2.298142433166503906e+01 1.090636253356933594e+00 6.249923706054687500e+00 2.202167987823486328e+00 2.364504337310791016e+00
8.130000000000000000e+02 3.534893417358398438e+01 2.921211624145507812e+01 -3.694180548191070557e-01 5.354874134063720703e+00 1.495636820793151855e+00 -1.519676744937896729e-01
8.140000000000000000e+02 2.751572799682617188e+01 4.088102722167968750e+01 -8.816640377044677734e-01 4.920064449310302734e+00 1.211520075798034668e+00 -5.868145450949668884e-02
8.150000000000000000e+02 2.270897102355957031e+01 4.084508132934570312e+01 -6.979511976242065430e-01 4.575748920440673828e+00 1.163339257240295410e+00 -5.874058976769447327e-02
8.160000000000000000e+02 2.082779693603515625e+01 3.334855270385742188e+01 -4.374386072158813477e-01 4.393670558929443359e+00 1.186869621276855469e+00 -3.251100778579711914e-01
8.170000000000000000e+02 3.867167282104492188e+01 1.666942787170410156e+01 1.109982371330261230e+00 7.589805126190185547e+00 2.609936237335205078e+00 -2.830423973500728607e-02
8.180000000000000000e+02 4.055501556396484375e+01 2.406372261047363281e+01 4.239268898963928223e-01 6.122702598571777344e+00 1.963988780975341797e+00 6.898625493049621582e-01
8.190000000000000000e+02 3.976461791992187500e+01 2.713203430175781250e+01 -5.512310564517974854e-02 5.493369579315185547e+00 1.631474018096923828e+00 3.655433356761932373e-01
8.200000000000000000e+02 5.791296386718750000e+01 -3.616932296752929688e+01 -1.647875607013702393e-01 3.843984603881835938e+00 1.103759050369262695e+00 -2.169753074645996094e+00
8.210000000000000000e+02 6.155764007568359375e+01 -4.089024353027343750e+01 8.047218322753906250e-01 1.458094716072082520e+00 6.788449883460998535e-01 -2.843450307846069336e-01
8.220000000000000000e+02 5.728723144531250000e+01 -3.360241699218750000e+01 2.340535163879394531e+00 4.765233516693115234e+00 2.131730556488037109e+00 -3.156189918518066406e+00
8.230000000000000000e+02 5.844725036621093750e+01 -3.445033645629882812e+01 1.345099568367004395e+00 2.531508684158325195e+00 1.162982463836669922e+00 -2.035845518112182617e+00
8.240000000000000000e+02 5.643188476562500000e+01 -3.260444641113281250e+01 2.550014019012451172e+00 8.520585060119628906e+00 3.321179866790771484e+00 -3.811481952667236328e+00
8.250000000000000000e+02 5.550851058959960938e+01 -3.379594039916992188e+01 7.178253531455993652e-01 6.620056152343750000e+00 2.201364517211914062e+00 -1.330968499183654785e+00
8.260000000000000000e+02 6.330437469482421875e+01 -3.709812927246093750e+01 3.256285488605499268e-01 3.097124695777893066e-01 1.906023025512695312e-01 -1.948305219411849976e-01
8.270000000000000000e+02 6.281143569946289062e+01 -3.504687881469726562e+01 -1.428269624710083008e+00 -1.746370047330856323e-01 -4.808720052242279053e-01 -2.664017081260681152e-01
8.280000000000000000e+02 6.545514678955078125e+01 -3.450391387939453125e+01 -1.349786520004272461e+00 1.561122387647628784e-02 -4.002525806427001953e-01 -6.012808904051780701e-02
8.290000000000000000e+02 6.134182357788085938e+01 -3.507906341552734375e+01 -1.087070703506469727e+00 1.581175327301025391e-01 -2.786859571933746338e-01 -3.129361569881439209e-01
8.300000000000000000e+02 6.980305480957031250e+01 -3.642325592041015625e+01 -3.005298376083374023e-01 3.782959461212158203e+00 1.044728875160217285e+00 9.419283270835876465e-01
8.310000000000000000e+02 7.008764648437500000e+01 -3.138092041015625000e+01 1.079251289367675781e+00 4.237593173980712891e+00 1.595053315162658691e+00 2.080299377441406250e+00
8.320000000000000000e+02 6.982553100585937500e+01 -3.343563461303710938e+01 -3.334896564483642578e-01 3.884361028671264648e+00 1.065261363983154297e+00 1.290982484817504883e+00
8.330000000000000000e+02 6.910387420654296875e+01 -3.226736068725585938e+01 5.379455685615539551e-01 2.318771839141845703e+00 8.570152521133422852e-01 1.220543265342712402e+00
8.340000000000000000e+02 7.809711456298828125e+01 -4.177394485473632812e+01 2.910945713520050049e-01 8.041329383850097656e+00 2.499727249145507812e+00 8.184164017438888550e-02
8.350000000000000000e+02 7.744738769531250000e+01 -3.589855575561523438e+01 -1.475365608930587769e-01 7.735158443450927734e+00 2.276286602020263672e+00 -3.046233654022216797e-01
8.360000000000000000e+02 7.818483734130859375e+01 -2.944726562500000000e+01 1.597966998815536499e-01 6.981657981872558594e+00 2.142436504364013672e+00 -3.936160802841186523e-01
8.370000000000000000e+02 7.391596221923828125e+01 -2.550918769836425781e+01 1.103945136070251465e+00 8.942254066467285156e+00 3.013859748840332031e+00 4.370312690734863281e-01
8.380000000000000000e+02 7.819252014160156250e+01 -1.550464534759521484e+01 -9.418846666812896729e-02 8.164952278137207031e+00 2.421229124069213867e+00 -1.215858012437820435e-01
8.390000000000000000e+02 7.805019378662109375e+01 -8.575762748718261719e+00 -1.791238225996494293e-02 7.299765110015869141e+00 2.184555768966674805e+00 -4.306224584579467773e-01
8.400000000000000000e+02 7.813691711425781250e+01 -1.520751237869262695e+00 7.076288014650344849e-02 6.259476184844970703e+00 1.899071812629699707e+00 -3.436331152915954590e-01
8.410000000000000000e+02 7.817623138427734375e+01 5.500173568725585938e+00 6.394461542367935181e-02 6.191331386566162109e+00 1.876582860946655273e+00 2.420447021722793579e-01
8.420000000000000000e+02 7.819219207763671875e+01 1.249355888366699219e+01 -3.302665427327156067e-02 7.043545246124267578e+00 2.103155612945556641e+00 2.580158114433288574e-01
8.430000000000000000e+02 7.819926452636718750e+01 1.941280174255371094e+01 1.341374684125185013e-02 7.627121448516845703e+00 2.292160511016845703e+00 2.134511619806289673e-01
8.440000000000000000e+02 7.695468902587890625e+01 2.353645515441894531e+01 8.858966082334518433e-02 8.111174583435058594e+00 2.459929227828979492e+00 4.694976210594177246e-01
8.450000000000000000e+02 7.934675598144531250e+01 3.196441841125488281e+01 6.652172189205884933e-03 1.005801200866699219e+01 3.019399166107177734e+00 1.574801653623580933e-01
8.460000000000000000e+02 7.666983032226562500e+01 3.944820022583007812e+01 -9.523875266313552856e-02 9.573147773742675781e+00 2.843372821807861328e+00 4.090311750769615173e-02
8.470000000000000000e+02 7.912290954589843750e+01 3.746738052368164062e+01 -2.811000123620033264e-02 1.042884731292724609e+01 3.120221376419067383e+00 -6.655842810869216919e-02
8.480000000000000000e+02 7.191855621337890625e+01 4.130927658081054688e+01 -3.228884190320968628e-03 5.678713798522949219e+00 1.702645421028137207e+00 -2.847629040479660034e-02
8.490000000000000000e+02 7.046314239501953125e+01 3.652092361450195312e+01 -4.638939201831817627e-01 4.681027412414550781e+00 1.265139937400817871e+00 -2.223998159170150757e-01
8.500000000000000000e+02 6.773846435546875000e+01 3.111474609375000000e+01 -4.487861692905426025e-02 1.987930893898010254e+00 5.829156637191772461e-01 -6.067421436309814453e-01
8.510000000000000000e+02 6.678854370117187500e+01 3.220408630371093750e+01 -5.004245042800903320e-01 7.938681244850158691e-01 8.803308010101318359e-02 4.815236316062510014e-04
8.520000000000000000e+02 6.854911804199218750e+01 2.988453292846679688e+01 3.967996835708618164e-01 4.011691570281982422e+00 1.322547435760498047e+00 -1.119950294494628906e+00
8.530000000000000000e+02 6.912382507324218750e+01 2.852588272094726562e+01 4.708016216754913330e-01 5.944410800933837891e+00 1.924563646316528320e+00 -1.259401202201843262e+00
8.540000000000000000e+02 6.973777008056640625e+01 2.568912506103515625e+01 3.069867789745330811e-01 8.641478538513183594e+00 2.684539556503295898e+00 -7.969415187835693359e-01
8.550000000000000000e+02 7.938954162597656250e+01 2.366007041931152344e+01 2.150272717699408531e-03 8.032378196716308594e+00 2.410358428955078125e+00 1.451815515756607056e-01
8.560000000000000000e+02 6.212287902832031250e+01 3.546494674682617188e+01 -1.379112124443054199e+00 -2.037663012742996216e-01 -4.748635292053222656e-01 5.328958034515380859e-01
8.570000000000000000e+02 6.068223190307617188e+01 3.591764068603515625e+01 -1.222186326980590820e+00 -2.147430330514907837e-01 -4.310787916183471680e-01 3.617534637451171875e-01
8.580000000000000000e+02 6.308517837524414062e+01 3.705112457275390625e+01 -4.776909947395324707e-01 -3.371290564537048340e-01 -2.444460242986679077e-01 3.207060396671295166e-01
8.590000000000000000e+02 6.351153564453125000e+01 3.499029922485351562e+01 -1.672640919685363770e+00 -3.981600999832153320e-01 -6.212403178215026855e-01 6.716848611831665039e-01
8.600000000000000000e+02 6.457230377197265625e+01 3.651135253906250000e+01 -3.642335236072540283e-01 3.789899349212646484e-01 4.426917526870965958e-03 1.099538728594779968e-01
8.610000000000000000e+02 5.738241577148437500e+01 3.625121688842773438e+01 -1.027511835098266602e+00 -1.471272408962249756e-01 -3.523917198181152344e-01 2.574362792074680328e-02
8.620000000000000000e+02 5.909740066528320312e+01 3.627871704101562500e+01 -1.212324500083923340e+00 -1.706409156322479248e-01 -4.148896336555480957e-01 2.081640511751174927e-01
8.630000000000000000e+02 5.239405441284179688e+01 3.859695434570312500e+01 -3.231746256351470947e-01 9.244434833526611328e-01 1.803806573152542114e-01 3.209240734577178955e-01
8.640000000000000000e+02 4.904903030395507812e+01 3.470325469970703125e+01 -3.794824182987213135e-01 2.067329883575439453e+00 5.063542723655700684e-01 5.502901673316955566e-01
8.650000000000000000e+02 4.901014328002929688e+01 3.027970504760742188e+01 6.580602526664733887e-01 1.762647032737731934e+00 7.262122035026550293e-01 1.046780347824096680e+00
8.660000000000000000e+02 5.103020858764648438e+01 3.233206939697265625e+01 2.253013402223587036e-01 8.579095602035522461e-01 3.249632716178894043e-01 4.853788018226623535e-01
8.670000000000000000e+02 4.867337417602539062e+01 3.246918106079101562e+01 -1.612677238881587982e-02 2.071182966232299805e+00 6.165168881416320801e-01 7.505757212638854980e-01
8.680000000000000000e+02 5.318809127807617188e+01 3.418501281738281250e+01 -3.166903853416442871e-01 2.251793146133422852e-01 -2.745332196354866028e-02 1.110062822699546814e-01
8.690000000000000000e+02 5.446265411376953125e+01 3.495935440063476562e+01 -4.453996121883392334e-01 1.519548296928405762e-01 -8.803343027830123901e-02 -1.054810360074043274e-01
8.700000000000000000e+02 4.212307739257812500e+01 3.785899353027343750e+01 -9.403598904609680176e-01 4.066080570220947266e+00 9.377161264419555664e-01 1.935153454542160034e-01
8.710000000000000000e+02 4.508064270019531250e+01 3.123988723754882812e+01 -2.153021842241287231e-01 3.806704282760620117e+00 1.077420592308044434e+00 7.571822404861450195e-01
8.720000000000000000e+02 4.512298583984375000e+01 2.427482032775878906e+01 1.109003424644470215e+00 5.246405601501464844e+00 1.906622648239135742e+00 2.262521028518676758e+00
8.730000000000000000e+02 4.576540374755859375e+01 2.554829216003417969e+01 1.040826678276062012e+00 4.404740333557128906e+00 1.633670210838317871e+00 2.064678668975830078e+00
8.740000000000000000e+02 4.721756744384765625e+01 2.802572631835937500e+01 9.999518394470214844e-01 3.071281194686889648e+00 1.221369862556457520e+00 1.639386057853698730e+00
8.750000000000000000e+02 4.435421752929687500e+01 3.285548400878906250e+01 -4.892301559448242188e-01 3.858407258987426758e+00 1.010753154754638672e+00 5.562915802001953125e-01
8.760000000000000000e+02 3.800701522827148438e+01 3.746739959716796875e+01 -1.019250631332397461e+00 4.790834426879882812e+00 1.131475090980529785e+00 9.843319654464721680e-03
8.770000000000000000e+02 3.488887023925781250e+01 3.582215499877929688e+01 -9.321876764297485352e-01 5.045522212982177734e+00 1.234000325202941895e+00 -9.722356498241424561e-02
8.780000000000000000e+02 3.846104049682617188e+01 2.934758949279785156e+01 -3.528047502040863037e-01 5.302131175994873047e+00 1.484797954559326172e+00 1.313181817531585693e-01
8.790000000000000000e+02 3.243790435791015625e+01 4.069900131225585938e+01 -1.039555430412292480e+00 5.020973682403564453e+00 1.194425463676452637e+00 -4.582379758358001709e-02
8.800000000000000000e+02 2.015356063842773438e+00 4.164703750610351562e+01 -5.309952050447463989e-02 2.388548374176025391e+00 7.006346583366394043e-01 -1.505302079021930695e-02
8.810000000000000000e+02 4.252438545227050781e+00 3.791835784912109375e+01 -2.585546486079692841e-02 2.474377155303955078e+00 7.345564961433410645e-01 -5.792086943984031677e-02
8.820000000000000000e+02 2.386570453643798828e+00 3.563286209106445312e+01 -8.490497246384620667e-03 2.307024478912353516e+00 6.895601749420166016e-01 -8.221438527107238770e-02
8.830000000000000000e+02 2.067249059677124023e+00 2.867752647399902344e+01 -9.319697506725788116e-03 1.956595659255981445e+00 5.841827988624572754e-01 -1.412748098373413086e-01
8.840000000000000000e+02 1.804453849792480469e+00 2.301855468750000000e+01 -9.521362371742725372e-03 1.510942816734313965e+00 4.504264295101165771e-01 -1.753734648227691650e-01
8.850000000000000000e+02 1.642087459564208984e+00 1.752458190917968750e+01 -1.161719765514135361e-02 9.216812849044799805e-01 2.730192244052886963e-01 -2.164501249790191650e-01
8.860000000000000000e+02 1.588413476943969727e+00 1.208437442779541016e+01 -2.570609329268336296e-03 2.110561132431030273e-01 6.254564970731735229e-02 -2.622936069965362549e-01
8.870000000000000000e+02 1.551941752433776855e+00 9.189084053039550781e+00 3.185485675930976868e-02 -1.797867119312286377e-01 -4.437955841422080994e-02 -2.125359326601028442e-01
8.880000000000000000e+02 1.162011146545410156e+01 3.446034789085388184e-01 9.026424407958984375e+00 1.129297924041748047e+01 6.095820903778076172e+00 4.423021316528320312e+00
8.890000000000000000e+02 1.091474342346191406e+01 -1.371470808982849121e+00 5.615631580352783203e+00 1.455477428436279297e+01 6.051121711730957031e+00 1.447005510330200195e+00
8.900000000000000000e+02 1.214061737060546875e+01 -1.704361081123352051e+00 5.450118541717529297e+00 9.910899162292480469e+00 4.608305454254150391e+00 9.010105729103088379e-01
8.910000000000000000e+02 1.063337802886962891e+01 -1.822538971900939941e+00 3.652195692062377930e+00 1.393752193450927734e+01 5.276915073394775391e+00 3.028770685195922852e+00
8.920000000000000000e+02 9.749213218688964844e+00 -1.650717377662658691e+00 4.429597377777099609e+00 1.232050991058349609e+01 5.025032043457031250e+00 6.640026569366455078e+00
8.930000000000000000e+02 1.228400135040283203e+01 -1.419757080078125000e+01 -9.374085068702697754e-01 6.087934970855712891e+00 1.545157909393310547e+00 3.269811153411865234e+00
8.940000000000000000e+02 1.180456066131591797e+01 -1.327311134338378906e+01 -2.495024204254150391e+00 7.238800525665283203e+00 1.423133015632629395e+00 3.142659425735473633e+00
8.950000000000000000e+02 6.566252136230468750e+01 -2.197994422912597656e+01 -1.291251063346862793e+00 2.495627403259277344e-01 -3.125064969062805176e-01 -5.831375345587730408e-02
8.960000000000000000e+02 6.428334808349609375e+01 -2.096588897705078125e+01 -6.544928550720214844e-01 8.129850029945373535e-01 4.754764586687088013e-02 1.030685782432556152e+00
8.970000000000000000e+02 5.935277557373046875e+01 -1.581865692138671875e+01 -1.539881467819213867e+00 1.790591031312942505e-01 -4.082467257976531982e-01 1.936378329992294312e-01
8.980000000000000000e+02 7.005295562744140625e+01 -2.071603584289550781e+01 -1.769599914550781250e+00 3.387523651123046875e+00 4.853771030902862549e-01 -1.398466587066650391e+00
8.990000000000000000e+02 7.056772613525390625e+01 -2.172768783569335938e+01 -9.617835283279418945e-01 4.182217597961425781e+00 9.661302566528320312e-01 -1.237711787223815918e+00
9.000000000000000000e+02 7.220530700683593750e+01 -2.205494499206542969e+01 -1.366549372673034668e+00 8.511462211608886719e+00 2.143473863601684570e+00 -6.809483468532562256e-02
9.010000000000000000e+02 7.286678314208984375e+01 -2.299440383911132812e+01 -1.268281191587448120e-01 8.353332519531250000e+00 2.467951297760009766e+00 8.339486718177795410e-01
9.020000000000000000e+02 7.192865753173828125e+01 -2.596037673950195312e+01 7.189372777938842773e-01 1.287635803222656250e+01 4.078588485717773438e+00 -1.570579111576080322e-01
9.030000000000000000e+02 7.162024688720703125e+01 -2.838433837890625000e+01 1.369183301925659180e+00 1.207485103607177734e+01 4.033210277557373047e+00 2.227040290832519531e+00
9.040000000000000000e+02 7.934399414062500000e+01 -3.340929794311523438e+01 2.695402875542640686e-02 7.726029396057128906e+00 2.325895071029663086e+00 -1.843678355216979980e-01
9.050000000000000000e+02 5.833491134643554688e+01 -2.557954025268554688e+01 1.832534193992614746e+00 1.873548150062561035e+00 1.111824750900268555e+00 1.571279048919677734e+00
9.060000000000000000e+02 6.047155380249023438e+01 -2.389957427978515625e+01 2.088312149047851562e+00 1.153068423271179199e+00 9.724141359329223633e-01 1.401670098304748535e+00
9.070000000000000000e+02 6.304743576049804688e+01 -2.268048286437988281e+01 4.179763495922088623e-01 4.785104393959045410e-01 2.689460515975952148e-01 7.062571048736572266e-01
9.080000000000000000e+02 6.440899658203125000e+01 -2.243050003051757812e+01 -4.062492549419403076e-01 2.494961917400360107e-01 -4.702592268586158752e-02 2.807941138744354248e-01
9.090000000000000000e+02 7.087176513671875000e+01 2.590904998779296875e+01 3.871235549449920654e-01 8.006784439086914062e+00 2.518172264099121094e+00 -1.736950874328613281e-01
9.100000000000000000e+02 6.994260406494140625e+01 2.005641174316406250e+01 2.682601287961006165e-02 9.298900604248046875e+00 2.797717809677124023e+00 8.024048805236816406e-02
9.110000000000000000e+02 7.940067291259765625e+01 1.669196891784667969e+01 1.010435540229082108e-02 7.085979938507080078e+00 2.128825187683105469e+00 7.908764481544494629e-02
9.120000000000000000e+02 7.002124023437500000e+01 1.581137657165527344e+01 2.322033792734146118e-02 9.900447845458984375e+00 2.977100372314453125e+00 1.760263592004776001e-01
9.130000000000000000e+02 6.971518707275390625e+01 1.025732326507568359e+01 -1.352958083152770996e-01 8.558058738708496094e+00 2.526828765869140625e+00 -6.880363225936889648e-01
9.140000000000000000e+02 7.938426208496093750e+01 9.737544059753417969e+00 6.980990292504429817e-04 6.123127937316894531e+00 1.837147831916809082e+00 1.307514011859893799e-01
9.150000000000000000e+02 6.990122985839843750e+01 8.914416313171386719e+00 1.117049008607864380e-01 1.031504058837890625e+01 3.128023624420166016e+00 -1.092710733413696289e+00
9.160000000000000000e+02 7.009162139892578125e+01 7.545430183410644531e+00 3.556227385997772217e-01 1.229280090332031250e+01 3.794527053833007812e+00 -8.380389213562011719e-01
9.170000000000000000e+02 7.023832702636718750e+01 1.863764405250549316e+00 5.475392341613769531e-01 1.351133632659912109e+01 4.217662811279296875e+00 1.032412052154541016e+00
9.180000000000000000e+02 6.966838836669921875e+01 -9.932314157485961914e-01 6.820051670074462891e-01 1.078740215301513672e+01 3.440822124481201172e+00 2.308094024658203125e+00
9.190000000000000000e+02 6.710632324218750000e+01 -7.632121086120605469e+00 8.300995230674743652e-01 4.591241359710693359e+00 1.626402258872985840e+00 1.815355181694030762e+00
9.200000000000000000e+02 6.770862579345703125e+01 -6.346538543701171875e+00 7.939252853393554688e-01 5.462345600128173828e+00 1.876881361007690430e+00 2.016047954559326172e+00
9.210000000000000000e+02 6.655988311767578125e+01 -1.079384994506835938e+01 7.715721726417541504e-01 3.447485446929931641e+00 1.265717267990112305e+00 1.299604058265686035e+00
9.220000000000000000e+02 6.569969940185546875e+01 -1.010995292663574219e+01 9.041385650634765625e-01 3.081807851791381836e+00 1.195783972740173340e+00 1.564008116722106934e+00
9.230000000000000000e+02 6.489672088623046875e+01 -1.129314327239990234e+01 1.098904132843017578e+00 2.482013225555419922e+00 1.074275255203247070e+00 1.493014335632324219e+00
9.240000000000000000e+02 6.303293228149414062e+01 -1.966660118103027344e+01 -5.724666714668273926e-01 1.198929309844970703e+00 1.879387944936752319e-01 1.542636036872863770e+00
9.250000000000000000e+02 6.829348754882812500e+01 -2.137337303161621094e+01 -3.389550447463989258e+00 -2.900946512818336487e-02 -1.025568008422851562e+00 -8.340007066726684570e-02
9.260000000000000000e+02 6.942869567871093750e+01 -1.985023498535156250e+01 -1.017671227455139160e+00 2.571370840072631836e+00 4.661098718643188477e-01 -1.230310559272766113e+00
9.270000000000000000e+02 6.693756866455078125e+01 -2.155043983459472656e+01 -2.968699693679809570e+00 -1.649991422891616821e-01 -9.401096701622009277e-01 -2.347775548696517944e-01
9.280000000000000000e+02 1.911552429199218750e+01 -1.218934440612792969e+01 -7.378652572631835938e+00 -7.357157468795776367e-01 -2.434310436248779297e+00 5.758485794067382812e-01
9.290000000000000000e+02 2.257293891906738281e+01 -1.395580959320068359e+01 -7.896245956420898438e+00 -1.030161738395690918e+00 -2.677922248840332031e+00 2.332446813583374023e+00
9.300000000000000000e+02 2.321034049987792969e+01 -1.297107124328613281e+01 -5.967189788818359375e+00 -6.432797908782958984e-01 -1.983140826225280762e+00 1.035742044448852539e+00
9.310000000000000000e+02 3.028222465515136719e+01 -1.598400497436523438e+01 -3.067729473114013672e+00 2.890584170818328857e-01 -8.336012959480285645e-01 5.615615248680114746e-01
9.320000000000000000e+02 3.251177978515625000e+01 -1.776598548889160156e+01 -2.995432138442993164e+00 1.220829561352729797e-01 -8.620047569274902344e-01 2.916949391365051270e-01
9.330000000000000000e+02 3.266556930541992188e+01 -1.655301094055175781e+01 -2.564953088760375977e+00 3.734825849533081055e-01 -6.574411392211914062e-01 1.546956002712249756e-01
9.340000000000000000e+02 3.644073486328125000e+01 -1.669982719421386719e+01 -5.873834490776062012e-01 1.158854365348815918e+00 1.714412868022918701e-01 -1.847812056541442871e+00
9.350000000000000000e+02 3.709856033325195312e+01 -1.396976280212402344e+01 -1.082075238227844238e+00 3.493861436843872070e+00 7.235358357429504395e-01 -2.573261499404907227e+00
9.360000000000000000e+02 3.731178283691406250e+01 -1.847455263137817383e+00 6.043406724929809570e-01 5.079818725585937500e+00 1.705247759819030762e+00 -1.860938191413879395e+00
9.370000000000000000e+02 4.013762664794921875e+01 2.548592805862426758e+00 1.107051730155944824e+00 6.647856712341308594e+00 2.326472520828247070e+00 -1.970379710197448730e+00
9.380000000000000000e+02 3.858901977539062500e+01 1.507050704956054688e+01 1.298615813255310059e+00 7.872858524322509766e+00 2.751442193984985352e+00 -2.957257330417633057e-01
9.390000000000000000e+02 3.987128448486328125e+01 1.498013973236083984e+01 1.026749014854431152e+00 8.650792121887207031e+00 2.903262376785278320e+00 -7.231972366571426392e-02
9.400000000000000000e+02 3.241413879394531250e+01 1.554588127136230469e+01 1.657956600189208984e+00 5.424235820770263672e+00 2.124657869338989258e+00 -3.253248631954193115e-01
9.410000000000000000e+02 3.298552322387695312e+01 2.515816879272460938e+01 1.774499714374542236e-01 5.450359821319580078e+00 1.688342928886413574e+00 -3.048353791236877441e-01
9.420000000000000000e+02 2.201227378845214844e+01 2.233677482604980469e+01 3.135802447795867920e-01 4.482666492462158203e+00 1.438874125480651855e+00 -2.231937199831008911e-01
9.430000000000000000e+02 2.384291648864746094e+01 2.215924263000488281e+01 4.137492179870605469e-01 4.620156288146972656e+00 1.510171651840209961e+00 -2.354062348604202271e-01
9.440000000000000000e+02 2.187648582458496094e+01 1.843774223327636719e+01 6.788257360458374023e-01 4.432592391967773438e+00 1.533425450325012207e+00 3.829019144177436829e-02
9.450000000000000000e+02 2.649215888977050781e+01 1.751176643371582031e+01 1.144904375076293945e+00 4.666405677795410156e+00 1.743393063545227051e+00 -5.771311372518539429e-02
9.460000000000000000e+02 2.507691383361816406e+01 1.165087985992431641e+01 1.852364659309387207e+00 4.119140148162841797e+00 1.791451454162597656e+00 5.225386619567871094e-01
9.470000000000000000e+02 3.123002815246582031e+01 6.464421749114990234e-03 1.683908581733703613e+00 3.222973585128784180e+00 1.472064733505249023e+00 -8.534647226333618164e-01
9.480000000000000000e+02 3.696195220947265625e+01 5.723090648651123047e+00 1.920640349388122559e+00 6.061336040496826172e+00 2.394592761993408203e+00 -1.041123986244201660e+00
9.490000000000000000e+02 2.556423759460449219e+01 -1.411037731170654297e+01 -4.838465213775634766e+00 -1.768385320901870728e-01 -1.504591107368469238e+00 1.252563834190368652e+00
9.500000000000000000e+02 2.870097923278808594e+01 -1.673332595825195312e+01 -3.547761201858520508e+00 -3.661625385284423828e-01 -1.174177050590515137e+00 1.257406711578369141e+00
9.510000000000000000e+02 3.784423446655273438e+01 -1.801229095458984375e+01 8.285631537437438965e-01 1.975925326347351074e+00 8.413465619087219238e-01 -2.066800117492675781e+00
9.520000000000000000e+02 3.976364517211914062e+01 -1.903134727478027344e+01 3.104973316192626953e+00 5.690033912658691406e+00 2.638502120971679688e+00 -4.191334724426269531e+00
9.530000000000000000e+02 5.154321670532226562e+01 -1.487259483337402344e+01 -1.492377638816833496e+00 4.244031906127929688e+00 8.254962563514709473e-01 -1.343972086906433105e-01
9.540000000000000000e+02 4.116785049438476562e+01 -1.834864044189453125e+01 5.947933197021484375e-01 8.769769668579101562e+00 2.809368848800659180e+00 -3.619424343109130859e+00
9.550000000000000000e+02 4.239252090454101562e+01 -2.408178901672363281e+01 5.061612725257873535e-01 1.716896629333496094e+01 5.302538394927978516e+00 -1.607627391815185547e+00
9.560000000000000000e+02 4.985988616943359375e+01 -3.234439468383789062e+01 5.902879834175109863e-01 6.825325489044189453e+00 2.224684000015258789e+00 -1.428731799125671387e+00
9.570000000000000000e+02 5.094562530517578125e+01 -3.065708732604980469e+01 1.519279241561889648e+00 6.629072189331054688e+00 2.444505453109741211e+00 -1.865446686744689941e+00
9.580000000000000000e+02 4.239919662475585938e+01 -2.281686210632324219e+01 2.645823717117309570e+00 1.849603843688964844e+01 6.342558383941650391e+00 -4.206898212432861328e+00
9.590000000000000000e+02 4.129691696166992188e+01 -3.327964782714843750e+01 -2.054859161376953125e+00 4.978798866271972656e+00 8.771818876266479492e-01 1.048376321792602539e+00
9.600000000000000000e+02 1.125825023651123047e+01 -2.885020637512207031e+01 -2.024065494537353516e+00 6.173686981201171875e-01 -4.220090210437774658e-01 6.221138238906860352e-01
9.610000000000000000e+02 1.030995273590087891e+01 -2.995149993896484375e+01 -2.622252464294433594e+00 3.930528402328491211e+00 3.924827575683593750e-01 -2.247065007686614990e-01
9.620000000000000000e+02 2.141518974304199219e+01 -6.868932247161865234e+00 1.192761212587356567e-01 4.277920722961425781e-01 1.641204506158828735e-01 7.019572705030441284e-02
9.630000000000000000e+02 2.438495635986328125e+01 -1.354489040374755859e+01 -5.496397018432617188e+00 -4.421031177043914795e-01 -1.781550049781799316e+00 1.110064983367919922e+00
9.640000000000000000e+02 2.947807693481445312e+01 -1.443808746337890625e+01 -2.994937658309936523e+00 5.136545896530151367e-01 -7.443849444389343262e-01 3.014968633651733398e-01
9.650000000000000000e+02 2.834956359863281250e+01 -1.402758884429931641e+01 -3.363376855850219727e+00 4.044847190380096436e-01 -8.876676559448242188e-01 4.214919507503509521e-01
9.660000000000000000e+02 3.057974052429199219e+01 -6.014816284179687500e+00 1.506217122077941895e-01 2.233076095581054688e+00 7.151093482971191406e-01 -1.434274196624755859e+00
9.670000000000000000e+02 3.360573577880859375e+01 2.860059261322021484e+00 1.847764492034912109e+00 4.408593177795410156e+00 1.876907229423522949e+00 -8.487760424613952637e-01
9.680000000000000000e+02 2.485514068603515625e+01 -1.098618030548095703e+00 2.406826734542846680e+00 1.718061327934265137e+00 1.237466454505920410e+00 8.763832598924636841e-02
9.690000000000000000e+02 2.539533996582031250e+01 1.299660015106201172e+01 1.689344048500061035e+00 4.270031452178955078e+00 1.787812590599060059e+00 3.634180724620819092e-01
9.700000000000000000e+02 3.994911193847656250e+01 -3.629761695861816406e+00 7.214529812335968018e-02 5.650838851928710938e+00 1.716895222663879395e+00 -2.246714830398559570e+00
9.710000000000000000e+02 4.688571548461914062e+01 -9.972765922546386719e+00 -5.708444118499755859e-01 6.612767219543457031e+00 1.812576770782470703e+00 -1.311413407325744629e+00
9.720000000000000000e+02 4.058426284790039062e+01 -1.998786544799804688e+01 4.314385890960693359e+00 7.441615104675292969e+00 3.526800394058227539e+00 -5.950850009918212891e+00
9.730000000000000000e+02 5.052662277221679688e+01 -8.829494476318359375e+00 4.541330635547637939e-01 6.210365772247314453e+00 1.999349713325500488e+00 -1.726883172988891602e+00
9.740000000000000000e+02 4.563117218017578125e+01 -1.032692527770996094e+01 -9.270770549774169922e-01 6.824203968048095703e+00 1.769138097763061523e+00 -1.410963296890258789e+00
9.750000000000000000e+02 4.598723602294921875e+01 -3.256501674652099609e+00 4.524660706520080566e-01 6.302430152893066406e+00 2.026468992233276367e+00 -2.492186069488525391e+00
9.760000000000000000e+02 4.548586654663085938e+01 -2.039457559585571289e+00 5.802530646324157715e-01 6.294039726257324219e+00 2.062287807464599609e+00 -2.603152990341186523e+00
9.770000000000000000e+02 4.409804534912109375e+01 3.359586000442504883e+00 1.367364645004272461e+00 7.066541671752929688e+00 2.530171871185302734e+00 -3.191589593887329102e+00
9.780000000000000000e+02 3.039200592041015625e+01 -2.154295206069946289e+00 1.303607225418090820e+00 2.699728965759277344e+00 1.201000809669494629e+00 -1.047341108322143555e+00
9.790000000000000000e+02 2.356842041015625000e+01 -7.330621242523193359e+00 -3.084911704063415527e-01 3.249649405479431152e-01 4.942127037793397903e-03 -4.519590437412261963e-01
9.800000000000000000e+02 2.401356124877929688e+01 -3.227797150611877441e-01 2.700113773345947266e+00 1.840939164161682129e+00 1.362315893173217773e+00 3.906157612800598145e-01
9.810000000000000000e+02 4.880806350708007812e+01 -3.549252510070800781e+00 7.091417908668518066e-01 6.330181121826171875e+00 2.111796855926513672e+00 -2.262906789779663086e+00
9.820000000000000000e+02 3.595801162719726562e+01 -1.425875949859619141e+01 -1.070626497268676758e+00 2.444429397583007812e+00 4.121408760547637939e-01 -2.033498525619506836e+00
9.830000000000000000e+02 7.931625366210937500e+01 -2.655898857116699219e+01 2.237183228135108948e-02 6.217496871948242188e+00 1.871960639953613281e+00 7.120640575885772705e-02
9.840000000000000000e+02 7.935929870605468750e+01 -2.092346191406250000e+01 -1.578309200704097748e-02 7.994393825531005859e+00 2.393583297729492188e+00 2.328054159879684448e-01
9.850000000000000000e+02 5.167100143432617188e+01 -2.805366134643554688e+01 1.726959824562072754e+00 6.361135005950927734e+00 2.426428318023681641e+00 -2.160387754440307617e+00
9.860000000000000000e+02 5.242308044433593750e+01 -2.642076301574707031e+01 1.530178427696228027e+00 5.686360359191894531e+00 2.164961814880371094e+00 -1.652274012565612793e+00
9.870000000000000000e+02 5.266197967529296875e+01 -1.411114120483398438e+01 -6.860457658767700195e-01 1.995456814765930176e+00 3.928233385086059570e-01 -2.445899546146392822e-01
9.880000000000000000e+02 5.059386444091796875e+01 -1.593074131011962891e+01 -1.695082068443298340e+00 5.376414299011230469e+00 1.104399681091308594e+00 -3.349989652633666992e-01
9.890000000000000000e+02 5.736254882812500000e+01 -2.650204277038574219e+01 1.495489358901977539e+00 2.541337013244628906e+00 1.211047887802124023e+00 1.799125075340270996e+00
9.900000000000000000e+02 7.937754058837890625e+01 -1.261122798919677734e+01 -5.418855231255292892e-03 8.304969787597656250e+00 2.489865303039550781e+00 -1.210059151053428650e-01
9.910000000000000000e+02 6.924587249755859375e+01 -2.368600368499755859e+00 7.678195834159851074e-01 9.235937118530273438e+00 3.001127004623413086e+00 2.348613739013671875e+00
9.920000000000000000e+02 7.935630035400390625e+01 -5.642351150512695312e+00 1.485865330323576927e-03 6.648864269256591797e+00 1.995105028152465820e+00 -1.814865767955780029e-01
9.930000000000000000e+02 7.125572204589843750e+01 6.259323596954345703e+00 4.298988580703735352e-01 1.117223167419433594e+01 3.480639219284057617e+00 -1.045106500387191772e-01
9.940000000000000000e+02 7.938546752929687500e+01 2.751361131668090820e+00 1.991895958781242371e-02 5.110155105590820312e+00 1.539022326469421387e+00 2.987581072375178337e-03
9.950000000000000000e+02 7.937822723388671875e+01 3.058445549011230469e+01 -1.821757294237613678e-02 9.752856254577636719e+00 2.920391559600830078e+00 1.682236045598983765e-01
9.960000000000000000e+02 3.024271965026855469e+01 2.864127349853515625e+01 -2.606539130210876465e-01 5.152761459350585938e+00 1.467632293701171875e+00 -3.413554430007934570e-01
9.970000000000000000e+02 2.751853179931640625e+01 3.085774040222167969e+01 -3.994762599468231201e-01 4.950412750244140625e+00 1.365280985832214355e+00 -3.502062857151031494e-01
9.980000000000000000e+02 1.636543273925781250e+01 3.094044876098632812e+01 -2.702886760234832764e-01 3.914361000061035156e+00 1.093221664428710938e+00 -3.420148193836212158e-01
9.990000000000000000e+02 1.542601108551025391e+01 2.089802551269531250e+01 4.802994430065155029e-02 3.947983503341674805e+00 1.198804020881652832e+00 -2.341309487819671631e-01
1.000000000000000000e+03 7.224792480468750000e+00 2.583880424499511719e+01 -8.819066733121871948e-02 2.622709512710571289e+00 7.603556513786315918e-01 -4.001046121120452881e-01
1.001000000000000000e+03 2.455211639404296875e+01 2.726056671142578125e+01 -8.704792708158493042e-02 4.734016895294189453e+00 1.394090652465820312e+00 -3.783122301101684570e-01
1.002000000000000000e+03 2.180888891220092773e+00 3.153806304931640625e+01 -1.227573584765195847e-02 2.123058080673217773e+00 6.332347393035888672e-01 -1.157099157571792603e-01
1.003000000000000000e+03 1.664856147766113281e+01 1.937028312683105469e+01 1.704847216606140137e-01 4.117123126983642578e+00 1.286282420158386230e+00 -1.061874032020568848e-01
1.004000000000000000e+03 6.051075458526611328e+00 1.966355705261230469e+01 -7.461588829755783081e-02 2.270211219787597656e+00 6.586786508560180664e-01 -4.638966321945190430e-01
1.005000000000000000e+03 1.299932861328125000e+01 1.428032207489013672e+01 3.028803132474422455e-02 4.129699707031250000e+00 1.247996211051940918e+00 8.366332389414310455e-03
1.006000000000000000e+03 5.964478492736816406e+00 1.142176151275634766e+01 2.718030009418725967e-03 2.133690834045410156e+00 6.409226655960083008e-01 -6.176288723945617676e-01
1.007000000000000000e+03 3.200711059570312500e+01 2.057383918762207031e+01 8.494861721992492676e-01 5.449807167053222656e+00 1.889788031578063965e+00 -3.472899496555328369e-01
1.008000000000000000e+03 3.238397598266601562e+01 1.055227088928222656e+01 2.276750087738037109e+00 5.000387191772460938e+00 2.183141231536865234e+00 -2.953389286994934082e-01
1.009000000000000000e+03 3.978876495361328125e+01 1.187666702270507812e+01 1.730341553688049316e+00 8.904141426086425781e+00 3.190345048904418945e+00 -1.005022525787353516e+00
1.010000000000000000e+03 1.613836288452148438e+00 1.617320442199707031e+01 -1.312940753996372223e-02 7.539399862289428711e-01 2.222431749105453491e-01 -2.305771708488464355e-01
1.011000000000000000e+03 3.286769104003906250e+01 1.162016868591308594e+01 2.189442873001098633e+00 5.229508399963378906e+00 2.225685358047485352e+00 -3.420945703983306885e-01
1.012000000000000000e+03 4.234980010986328125e+01 1.046579837799072266e+01 1.158653497695922852e+00 1.326820659637451172e+01 4.328057765960693359e+00 -2.094359159469604492e+00
1.013000000000000000e+03 4.382490539550781250e+01 6.415785789489746094e+00 2.153502225875854492e+00 8.715235710144042969e+00 3.260621309280395508e+00 -3.956974744796752930e+00
1.014000000000000000e+03 3.634958863258361816e-01 -1.792796373367309570e+00 3.001402318477630615e-02 -1.614578366279602051e-01 -3.943314403295516968e-02 -6.397804617881774902e-02
1.015000000000000000e+03 7.618060111999511719e-01 -1.695350170135498047e+00 4.577640444040298462e-02 -6.926923245191574097e-02 -7.047847844660282135e-03 -8.715952187776565552e-02
1.016000000000000000e+03 2.513082981109619141e+00 -1.674945473670959473e+00 2.508360147476196289e-01 1.723411232233047485e-01 1.269531399011611938e-01 5.945404618978500366e-02
1.017000000000000000e+03 2.714650392532348633e+00 -1.660324573516845703e+00 2.977620065212249756e-01 2.029995173215866089e-01 1.502284556627273560e-01 1.145449206233024597e-01
1.018000000000000000e+03 2.005903720855712891e+00 -4.168261337280273438e+01 4.034006595611572266e-01 1.124514389038085938e+01 3.494563579559326172e+00 -1.113960221409797668e-01
1.019000000000000000e+03 1.260380387306213379e+00 -4.019215393066406250e+01 -2.006388157606124878e-01 1.141649532318115234e+01 3.364756822586059570e+00 -3.097097575664520264e-01
1.020000000000000000e+03 3.287854671478271484e+00 -3.932600402832031250e+01 -1.568027585744857788e-01 1.071762657165527344e+01 3.168247222900390625e+00 -3.032286465167999268e-02
1.021000000000000000e+03 9.797612428665161133e-01 -3.630699920654296875e+01 3.175849094986915588e-02 1.197345829010009766e+01 3.601565122604370117e+00 7.552406936883926392e-02
1.022000000000000000e+03 8.745254278182983398e-01 -3.484544372558593750e+01 -5.259803682565689087e-02 1.190227985382080078e+01 3.554904460906982422e+00 7.897330075502395630e-02
1.023000000000000000e+03 2.624986648559570312e+00 -3.625389480590820312e+01 -2.785655260086059570e-01 1.058961772918701172e+01 3.093315839767456055e+00 -6.741698831319808960e-02
1.024000000000000000e+03 7.275003194808959961e-01 -3.348268127441406250e+01 -9.735735505819320679e-02 1.172815608978271484e+01 3.489239692687988281e+00 2.051665931940078735e-01
1.025000000000000000e+03 6.360161304473876953e-01 -2.943331718444824219e+01 -9.036982432007789612e-03 9.323442459106445312e+00 2.794321775436401367e+00 6.438948512077331543e-01
1.026000000000000000e+03 6.388583183288574219e-01 -2.807001113891601562e+01 -7.642266899347305298e-02 7.929141521453857422e+00 2.355815649032592773e+00 7.333315014839172363e-01
1.027000000000000000e+03 1.925363183021545410e+00 -2.791498184204101562e+01 -1.082113981246948242e-01 8.135017395019531250e+00 2.408041954040527344e+00 1.942645549774169922e+00
1.028000000000000000e+03 6.353039741516113281e-01 -2.670575141906738281e+01 3.529925644397735596e-02 6.360583782196044922e+00 1.918764829635620117e+00 7.973442673683166504e-01
1.029000000000000000e+03 6.075657010078430176e-01 -2.262891197204589844e+01 9.139540791511535645e-02 2.174514770507812500e+00 6.797730326652526855e-01 3.854303359985351562e-01
1.030000000000000000e+03 5.995345115661621094e-01 -2.127040100097656250e+01 6.327600032091140747e-02 1.494530439376831055e+00 4.673419296741485596e-01 2.096307724714279175e-01
1.031000000000000000e+03 1.805559635162353516e+00 -2.117025566101074219e+01 4.228582978248596191e-01 3.809347391128540039e+00 1.269661664962768555e+00 5.357072949409484863e-01
1.032000000000000000e+03 5.876798033714294434e-01 -1.991149520874023438e+01 9.793595224618911743e-02 1.209911942481994629e+00 3.923543691635131836e-01 2.680663578212261200e-02
1.033000000000000000e+03 5.436514616012573242e-01 -1.584074211120605469e+01 -1.250380463898181915e-02 1.968698024749755859e+00 5.868582725524902344e-01 -1.744817495346069336e-01
1.034000000000000000e+03 5.387495160102844238e-01 -1.448495864868164062e+01 -1.438918709754943848e-02 2.352527379989624023e+00 7.014414668083190918e-01 -1.392080336809158325e-01
1.035000000000000000e+03 1.612256884574890137e+00 -1.449419021606445312e+01 -1.076102107763290405e-01 3.359549045562744141e+00 9.755816459655761719e-01 -2.909291684627532959e-01
1.036000000000000000e+03 5.464851260185241699e-01 -1.312803554534912109e+01 -4.282992705702781677e-02 2.594762563705444336e+00 7.655798196792602539e-01 -6.569977104663848877e-02
1.037000000000000000e+03 5.733087658882141113e-01 -8.992509841918945312e+00 -2.902813255786895752e-02 1.985399365425109863e+00 5.869113802909851074e-01 2.128989845514297485e-01
1.038000000000000000e+03 5.114139318466186523e-01 -7.607297420501708984e+00 6.866992916911840439e-03 1.402197003364562988e+00 4.227192103862762451e-01 2.410514205694198608e-01
1.039000000000000000e+03 1.301120877265930176e+00 -6.114727973937988281e+00 5.756318941712379456e-02 1.215266704559326172e+00 3.818489611148834229e-01 5.898385047912597656e-01
1.040000000000000000e+03 3.069047355651855469e+01 -3.889899063110351562e+01 -1.077468514442443848e+00 -1.911085695028305054e-01 -3.805731534957885742e-01 -6.805800646543502808e-02
1.041000000000000000e+03 1.206406974792480469e+01 -4.144686508178710938e+01 2.264301478862762451e-01 2.361536026000976562e+00 7.763898968696594238e-01 -4.212762042880058289e-02
1.042000000000000000e+03 7.870825958251953125e+01 4.018176651000976562e+01 -1.657362878322601318e-01 1.007186412811279297e+01 2.971838235855102539e+00 -2.165380120277404785e-01
1.043000000000000000e+03 7.900501251220703125e+01 3.882606124877929688e+01 4.000764805823564529e-03 1.029830837249755859e+01 3.090692758560180664e+00 -7.823631912469863892e-02
1.044000000000000000e+03 7.918964385986328125e+01 3.610053253173828125e+01 -7.235953211784362793e-02 1.051009845733642578e+01 3.131321668624877930e+00 1.036943774670362473e-02
1.045000000000000000e+03 7.775096893310546875e+01 3.445774459838867188e+01 -1.223318725824356079e-01 9.484601974487304688e+00 2.808681011199951172e+00 2.504930198192596436e-01
1.046000000000000000e+03 7.930127716064453125e+01 3.334333801269531250e+01 -3.392012417316436768e-02 1.029903602600097656e+01 3.079534769058227539e+00 1.233206987380981445e-01
1.047000000000000000e+03 7.813887023925781250e+01 3.042700386047363281e+01 -3.559539467096328735e-02 9.203788757324218750e+00 2.750458002090454102e+00 4.338026642799377441e-01
1.048000000000000000e+03 7.938980102539062500e+01 2.644263267517089844e+01 6.357965525239706039e-03 8.666082382202148438e+00 2.601732015609741211e+00 1.820645183324813843e-01
1.049000000000000000e+03 7.691748046875000000e+01 2.632652282714843750e+01 6.689762324094772339e-02 8.326373100280761719e+00 2.517981052398681641e+00 6.036971211433410645e-01
1.050000000000000000e+03 7.939209747314453125e+01 2.226551628112792969e+01 1.919914782047271729e-02 7.776731491088867188e+00 2.338779211044311523e+00 1.223757863044738770e-01
1.051000000000000000e+03 7.939522552490234375e+01 2.087089538574218750e+01 -4.692737013101577759e-03 7.564083576202392578e+00 2.267817258834838867e+00 1.049631461501121521e-01
1.052000000000000000e+03 7.818074798583984375e+01 2.220438003540039062e+01 2.992100082337856293e-02 7.912546157836914062e+00 2.382740259170532227e+00 2.946465611457824707e-01
1.053000000000000000e+03 7.939775848388671875e+01 1.947677040100097656e+01 1.788562163710594177e-02 7.382954120635986328e+00 2.220252037048339844e+00 9.154062718152999878e-02
1.054000000000000000e+03 7.940126037597656250e+01 1.530243206024169922e+01 -8.359922096133232117e-03 6.944314956665039062e+00 2.080786466598510742e+00 7.625684142112731934e-02
1.055000000000000000e+03 7.940009307861328125e+01 1.391352844238281250e+01 -2.556484192609786987e-03 6.787644863128662109e+00 2.035526514053344727e+00 8.995240181684494019e-02
1.056000000000000000e+03 7.939553070068359375e+01 1.252277469635009766e+01 -5.747455637902021408e-03 6.601400375366210938e+00 1.978695988655090332e+00 9.956322610378265381e-02
1.057000000000000000e+03 7.938951873779296875e+01 1.113068962097167969e+01 -1.059873215854167938e-02 6.381087779998779297e+00 1.911146640777587891e+00 1.190454363822937012e-01
1.058000000000000000e+03 7.938252258300781250e+01 8.342597961425781250e+00 -2.539800247177481651e-03 5.847391128540039062e+00 1.753455400466918945e+00 1.335215717554092407e-01
1.059000000000000000e+03 7.938474273681640625e+01 6.946473121643066406e+00 1.275969017297029495e-02 5.575142383575439453e+00 1.676370501518249512e+00 1.224887222051620483e-01
1.060000000000000000e+03 7.816316986083984375e+01 6.903856277465820312e+00 3.922609239816665649e-02 6.349814414978027344e+00 1.916712164878845215e+00 3.093181252479553223e-01
1.061000000000000000e+03 7.938787841796875000e+01 5.549355030059814453e+00 1.063897926360368729e-02 5.339678764343261719e+00 1.605095386505126953e+00 9.631660580635070801e-02
1.062000000000000000e+03 7.938078308105468750e+01 1.355349421501159668e+00 2.506346814334392548e-02 5.157885074615478516e+00 1.554884552955627441e+00 -4.784541577100753784e-02
1.063000000000000000e+03 7.937753295898437500e+01 -3.883200883865356445e-02 2.144071273505687714e-02 5.317780494689941406e+00 1.601766347885131836e+00 -1.000519245862960815e-01
1.064000000000000000e+03 7.937574768066406250e+01 -1.437502503395080566e+00 1.082621421664953232e-02 5.572805404663085938e+00 1.675089478492736816e+00 -1.369593292474746704e-01
1.065000000000000000e+03 7.937232208251953125e+01 -2.840852022171020508e+00 1.587400026619434357e-02 5.897916793823242188e+00 1.774137258529663086e+00 -1.658658385276794434e-01
1.066000000000000000e+03 7.935102081298828125e+01 -7.036292076110839844e+00 -2.943964442238211632e-03 7.019479274749755859e+00 2.104960680007934570e+00 -1.801684796810150146e-01
1.067000000000000000e+03 7.935164642333984375e+01 -8.430079460144042969e+00 -6.179397460073232651e-03 7.376954078674316406e+00 2.211232423782348633e+00 -1.699416041374206543e-01
1.068000000000000000e+03 7.935776519775390625e+01 -9.824697494506835938e+00 -2.306018956005573273e-03 7.713490009307861328e+00 2.313355207443237305e+00 -1.601495146751403809e-01
1.069000000000000000e+03 7.938793182373046875e+01 -1.399979877471923828e+01 -2.248236536979675293e-02 8.531885147094726562e+00 2.552820682525634766e+00 -9.088177978992462158e-02
1.070000000000000000e+03 7.939819335937500000e+01 -1.538413047790527344e+01 -1.068875286728143692e-02 8.685688972473144531e+00 2.602500200271606445e+00 -5.147240310907363892e-02
1.071000000000000000e+03 7.940533447265625000e+01 -1.676537704467773438e+01 -3.635259717702865601e-02 8.739914894104003906e+00 2.611068725585937500e+00 1.663517323322594166e-03
1.072000000000000000e+03 7.931240081787109375e+01 -2.232650947570800781e+01 -2.627391554415225983e-02 7.461792469024658203e+00 2.230655670166015625e+00 2.770765125751495361e-01
1.073000000000000000e+03 7.775891876220703125e+01 -2.533312606811523438e+01 2.525310516357421875e-01 7.196826934814453125e+00 2.234807252883911133e+00 4.678560793399810791e-01
1.074000000000000000e+03 7.926484680175781250e+01 -2.374235725402832031e+01 2.513940446078777313e-02 6.919580936431884766e+00 2.083416223526000977e+00 2.812107205390930176e-01
1.075000000000000000e+03 7.936659240722656250e+01 -2.794717979431152344e+01 1.158789694309234619e-01 6.183116912841796875e+00 1.889698743820190430e+00 -6.436917930841445923e-02
1.076000000000000000e+03 7.939678955078125000e+01 -2.932055854797363281e+01 -4.541865736246109009e-02 6.419615745544433594e+00 1.912259101867675781e+00 -1.636819690465927124e-01
1.077000000000000000e+03 7.940628051757812500e+01 -3.068368339538574219e+01 8.279102295637130737e-02 6.821661472320556641e+00 2.071335792541503906e+00 -1.965403407812118530e-01
1.078000000000000000e+03 7.925531768798828125e+01 -3.478070831298828125e+01 -5.969149991869926453e-02 8.039917945861816406e+00 2.394068002700805664e+00 -1.465989649295806885e-01
1.079000000000000000e+03 7.912869262695312500e+01 -3.616308212280273438e+01 -8.140773512423038483e-03 8.225307464599609375e+00 2.465150117874145508e+00 -8.996650576591491699e-02
1.080000000000000000e+03 7.896079254150390625e+01 -3.757703018188476562e+01 -1.715226098895072937e-02 8.332975387573242188e+00 2.494746923446655273e+00 -7.169004529714584351e-02
1.081000000000000000e+03 7.876957702636718750e+01 -3.901069641113281250e+01 -1.795800626277923584e-01 8.334726333618164062e+00 2.446543931961059570e+00 5.403925850987434387e-02
1.082000000000000000e+03 6.165502548217773438e+00 3.792000198364257812e+01 -9.081230312585830688e-02 2.747522115707397461e+00 7.970129251480102539e-01 -1.050482913851737976e-01
1.083000000000000000e+03 4.505565261840820312e+01 3.707349014282226562e+01 -7.707538604736328125e-01 3.366487264633178711e+00 7.787200212478637695e-01 2.701508998870849609e-01
1.084000000000000000e+03 4.858820438385009766e-01 2.010758399963378906e+00 -1.202991046011447906e-02 -2.621331810951232910e-01 -8.224892616271972656e-02 1.064457595348358154e-01
1.085000000000000000e+03 4.677657604217529297e+00 1.604344010353088379e+00 -3.106991648674011230e-01 -1.717927493155002594e-02 -9.836353361606597900e-02 4.253573119640350342e-01
1.086000000000000000e+03 1.251995563507080078e+00 6.387478351593017578e+00 6.447416543960571289e-02 -5.724705457687377930e-01 -1.523989289999008179e-01 4.150469903834164143e-04
1.087000000000000000e+03 5.121979117393493652e-01 9.256385803222656250e+00 4.632194526493549347e-03 -7.483630776405334473e-01 -2.231192588806152344e-01 -7.961080223321914673e-02
1.088000000000000000e+03 5.312160849571228027e-01 1.208958339691162109e+01 -8.938505779951810837e-04 -2.783586084842681885e-01 -8.377574384212493896e-02 -9.773495048284530640e-02
1.089000000000000000e+03 5.350180268287658691e-01 1.628724861145019531e+01 -1.769792055711150169e-03 4.350254237651824951e-01 1.299766898155212402e-01 -8.159087598323822021e-02
1.090000000000000000e+03 5.439589023590087891e-01 1.768141365051269531e+01 -2.874478930607438087e-03 6.416353583335876465e-01 1.916282624006271362e-01 -7.554381340742111206e-02
1.091000000000000000e+03 5.848641991615295410e-01 2.187727737426757812e+01 -1.304062083363533020e-03 1.169624447822570801e+00 3.504961133003234863e-01 -6.457986682653427124e-02
1.092000000000000000e+03 6.051616072654724121e-01 2.328490447998046875e+01 -1.368968747556209564e-03 1.320735812187194824e+00 3.958100676536560059e-01 -6.147117540240287781e-02
1.093000000000000000e+03 6.268838047981262207e-01 2.469569778442382812e+01 -8.626392227597534657e-04 1.459995388984680176e+00 4.377398192882537842e-01 -5.907818302512168884e-02
1.094000000000000000e+03 6.900757551193237305e-01 2.894253158569335938e+01 -4.027897957712411880e-03 1.810484290122985840e+00 5.419369339942932129e-01 -4.847409576177597046e-02
1.095000000000000000e+03 7.084704637527465820e-01 3.036154365539550781e+01 -1.626469602342694998e-04 1.905163407325744629e+00 5.715002417564392090e-01 -4.492375254631042480e-02
1.096000000000000000e+03 2.132393121719360352e+00 3.011098289489746094e+01 -1.315653417259454727e-02 2.049144983291625977e+00 6.107965111732482910e-01 -1.309434920549392700e-01
1.097000000000000000e+03 7.207359075546264648e-01 3.177674674987792969e+01 -3.250095061957836151e-03 1.990292549133300781e+00 5.961127281188964844e-01 -4.109808430075645447e-02
1.098000000000000000e+03 7.998684644699096680e-01 3.598166656494140625e+01 5.628882441669702530e-03 2.194432020187377930e+00 6.600183248519897461e-01 -3.639461100101470947e-02
1.099000000000000000e+03 2.758342742919921875e+00 3.817933654785156250e+01 -4.336009267717599869e-03 2.380928516387939453e+00 7.129777669906616211e-01 -9.770847856998443604e-02
1.100000000000000000e+03 1.004162311553955078e+00 3.873200225830078125e+01 -2.032744465395808220e-03 2.311577081680297852e+00 6.928633451461791992e-01 -3.348678722977638245e-02
1.101000000000000000e+03 1.311236858367919922e+00 4.010702133178710938e+01 1.476060878485441208e-02 2.365686416625976562e+00 7.141340970993041992e-01 -4.571291059255599976e-02
1.102000000000000000e+03 2.880271434783935547e+00 1.696226000785827637e+00 -1.974468380212783813e-01 -8.119261264801025391e-02 -8.359183371067047119e-02 4.130000472068786621e-01
1.103000000000000000e+03 2.108022212982177734e+00 1.602741122245788574e+00 -1.569009423255920410e-01 -1.123880520462989807e-01 -8.078669756650924683e-02 3.415006995201110840e-01
1.104000000000000000e+03 1.731615543365478516e+00 1.655511736869812012e+00 -1.158675700426101685e-01 -1.406068056821823120e-01 -7.694230973720550537e-02 3.066000342369079590e-01
1.105000000000000000e+03 1.532097458839416504e+00 1.672901988029479980e+00 -9.525087475776672363e-02 -1.518913507461547852e-01 -7.414266467094421387e-02 2.890985012054443359e-01
1.106000000000000000e+03 1.323223710060119629e+00 1.671099662780761719e+00 -7.452843338251113892e-02 -1.747568100690841675e-01 -7.478557527065277100e-02 2.624751627445220947e-01
1.107000000000000000e+03 9.110066890716552734e-01 1.665070533752441406e+00 -3.374860063195228577e-02 -1.855171620845794678e-01 -6.577973067760467529e-02 1.819960474967956543e-01
1.108000000000000000e+03 6.780586838722229004e-01 1.903971314430236816e+00 -2.039125934243202209e-02 -2.576406598091125488e-01 -8.340957760810852051e-02 1.463731825351715088e-01
1.109000000000000000e+03 5.405046939849853516e-01 1.639769911766052246e+00 -1.396238803863525391e-02 -1.776488274335861206e-01 -5.748336389660835266e-02 9.138851612806320190e-02
1.110000000000000000e+03 1.167241477966308594e+01 -3.334465920925140381e-01 9.991606712341308594e+00 1.067496490478515625e+01 6.199971199035644531e+00 2.234087944030761719e+00
1.111000000000000000e+03 1.141652488708496094e+01 1.237181663513183594e+00 4.078784942626953125e+00 1.305831813812255859e+01 5.141130924224853516e+00 4.261168003082275391e+00
1.112000000000000000e+03 1.179111957550048828e+01 9.089652895927429199e-01 6.057629108428955078e+00 1.126955032348632812e+01 5.198153972625732422e+00 4.660630226135253906e+00
1.113000000000000000e+03 1.095183086395263672e+01 1.407291293144226074e+00 2.206468343734741211e+00 1.423026275634765625e+01 4.931019306182861328e+00 2.863060712814331055e+00
1.114000000000000000e+03 1.075494670867919922e+01 1.503449082374572754e+00 1.271872997283935547e+00 1.429608631134033203e+01 4.670387744903564453e+00 1.734675168991088867e+00
1.115000000000000000e+03 1.055587577819824219e+01 1.582253932952880859e+00 7.406255006790161133e-01 1.382133960723876953e+01 4.368589401245117188e+00 5.274637937545776367e-01
1.116000000000000000e+03 7.096324157714843750e+01 -3.044977569580078125e+01 1.360295057296752930e+00 7.456580162048339844e+00 2.645062446594238281e+00 2.504185676574707031e+00
1.117000000000000000e+03 6.682817077636718750e+01 -3.406829452514648438e+01 -9.196057915687561035e-01 3.366118669509887695e-01 -1.748981773853302002e-01 5.498930439352989197e-02
1.118000000000000000e+03 6.414710998535156250e+01 -3.470472335815429688e+01 -1.567311048507690430e+00 1.430018842220306396e-01 -4.272927343845367432e-01 -3.268920183181762695e-01
1.119000000000000000e+03 6.476351165771484375e+01 3.425316238403320312e+01 -1.399029254913330078e+00 -3.792353570461273193e-01 -5.334793925285339355e-01 7.032324671745300293e-01
1.120000000000000000e+03 6.950109100341796875e+01 2.711374473571777344e+01 3.426162898540496826e-01 7.445564270019531250e+00 2.336454153060913086e+00 -1.134399056434631348e+00
1.121000000000000000e+03 6.991494750976562500e+01 2.285453605651855469e+01 1.148910522460937500e-01 9.301579475402832031e+00 2.824941158294677734e+00 -6.027295440435409546e-02
1.122000000000000000e+03 6.986342620849609375e+01 2.426587677001953125e+01 1.621595323085784912e-01 9.219192504882812500e+00 2.814405679702758789e+00 -3.776192367076873779e-01
1.123000000000000000e+03 6.996013641357421875e+01 1.865827178955078125e+01 -9.918638505041599274e-03 9.449718475341796875e+00 2.831939935684204102e+00 9.584685415029525757e-02
1.124000000000000000e+03 6.998992156982421875e+01 1.436819839477539062e+01 2.345769256353378296e-01 1.021926689147949219e+01 3.136152982711791992e+00 4.214072823524475098e-01
1.125000000000000000e+03 6.981775665283203125e+01 1.296194458007812500e+01 8.134720847010612488e-03 9.100170135498046875e+00 2.732491493225097656e+00 5.795490741729736328e-01
1.126000000000000000e+03 7.134336853027343750e+01 4.834804058074951172e+00 2.208765447139739990e-01 1.159189987182617188e+01 3.543833017349243164e+00 1.533620953559875488e-01
1.127000000000000000e+03 7.003693389892578125e+01 4.174863100051879883e-01 7.175093293190002441e-01 1.261066055297851562e+01 3.998450994491577148e+00 1.880162000656127930e+00
1.128000000000000000e+03 6.878456878662109375e+01 -3.716065168380737305e+00 7.820058465003967285e-01 7.924434185028076172e+00 2.611932039260864258e+00 2.317180395126342773e+00
1.129000000000000000e+03 6.827321624755859375e+01 -5.042951583862304688e+00 8.704990744590759277e-01 6.711530685424804688e+00 2.274609088897705078e+00 2.194502830505371094e+00
1.130000000000000000e+03 6.986766052246093750e+01 -7.461507797241210938e+00 2.386053800582885742e-01 6.267261505126953125e+00 1.951760053634643555e+00 8.070162534713745117e-01
1.131000000000000000e+03 6.399732971191406250e+01 -1.241600990295410156e+01 1.239198207855224609e+00 1.834416389465332031e+00 9.220843911170959473e-01 1.408546447753906250e+00
1.132000000000000000e+03 6.181165695190429688e+01 -1.426871871948242188e+01 8.663412332534790039e-01 8.180596232414245605e-01 5.053202509880065918e-01 9.038648009300231934e-01
1.133000000000000000e+03 5.682865905761718750e+01 -1.649900054931640625e+01 -5.215082645416259766e+00 -4.962819218635559082e-01 -1.713409423828125000e+00 3.600472509860992432e-01
1.134000000000000000e+03 5.094239425659179688e+01 -1.017052841186523438e+01 3.321893513202667236e-01 5.766273975372314453e+00 1.829538941383361816e+00 -1.523819327354431152e+00
1.135000000000000000e+03 5.011671447753906250e+01 -7.496818065643310547e+00 4.860382080078125000e-01 6.380437374114990234e+00 2.059942722320556641e+00 -1.895036816596984863e+00
1.136000000000000000e+03 4.969124221801757812e+01 -6.174537658691406250e+00 6.026438474655151367e-01 6.546183109283447266e+00 2.144648075103759766e+00 -2.053421258926391602e+00
1.137000000000000000e+03 4.761946487426757812e+01 -4.021836280822753906e+00 5.692743659019470215e-01 6.282607555389404297e+00 2.055564641952514648e+00 -2.333486795425415039e+00
1.138000000000000000e+03 4.779501724243164062e+01 -9.842370152473449707e-01 9.907599687576293945e-01 5.910603046417236328e+00 2.070408821105957031e+00 -2.625465393066406250e+00
1.139000000000000000e+03 4.720176696777343750e+01 2.630319893360137939e-01 1.299811959266662598e+00 6.095787048339843750e+00 2.218679666519165039e+00 -2.890913248062133789e+00
1.140000000000000000e+03 4.657903289794921875e+01 1.502892732620239258e+00 1.450976490974426270e+00 6.251221179962158203e+00 2.310659170150756836e+00 -3.063214302062988281e+00
1.141000000000000000e+03 4.593231201171875000e+01 2.734717845916748047e+00 1.563619613647460938e+00 6.282562255859375000e+00 2.353854656219482422e+00 -3.245505809783935547e+00
1.142000000000000000e+03 4.452671813964843750e+01 5.170370101928710938e+00 2.063231706619262695e+00 7.454772472381591797e+00 2.855401277542114258e+00 -3.829715251922607422e+00
1.143000000000000000e+03 4.320019531250000000e+01 7.712874412536621094e+00 1.824420213699340820e+00 9.843763351440429688e+00 3.500455141067504883e+00 -3.882884979248046875e+00
1.144000000000000000e+03 4.224446487426757812e+01 1.191271972656250000e+01 4.891625940799713135e-01 1.242960548400878906e+01 3.875630378723144531e+00 -4.623338878154754639e-01
1.145000000000000000e+03 4.238462829589843750e+01 1.477172756195068359e+01 2.004297971725463867e-01 1.029492092132568359e+01 3.148605108261108398e+00 7.653889656066894531e-01
1.146000000000000000e+03 4.280142211914062500e+01 1.759124374389648438e+01 5.574229359626770020e-01 9.171356201171875000e+00 2.918633699417114258e+00 1.802248001098632812e+00
1.147000000000000000e+03 4.401073074340820312e+01 2.165882301330566406e+01 9.332043528556823730e-01 7.057388305664062500e+00 2.397177934646606445e+00 2.269584655761718750e+00
1.148000000000000000e+03 4.645084762573242188e+01 2.681001472473144531e+01 1.030636310577392578e+00 3.777480363845825195e+00 1.442435026168823242e+00 1.873276472091674805e+00
1.149000000000000000e+03 4.808707809448242188e+01 2.917138671875000000e+01 8.050608634948730469e-01 2.310301780700683594e+00 9.346087574958801270e-01 1.346477150917053223e+00
1.150000000000000000e+03 4.998491287231445312e+01 3.133969879150390625e+01 4.418222308158874512e-01 1.295868635177612305e+00 5.213072896003723145e-01 8.039784431457519531e-01
1.151000000000000000e+03 5.580867004394531250e+01 3.574272537231445312e+01 -7.191196084022521973e-01 -6.289501488208770752e-02 -2.346043884754180908e-01 -1.102625802159309387e-01
1.152000000000000000e+03 2.011899757385253906e+01 -1.307229804992675781e+01 -9.311717033386230469e+00 -6.968952417373657227e-01 -3.002583742141723633e+00 1.162223219871520996e+00
1.153000000000000000e+03 2.502367973327636719e+01 -1.511353302001953125e+01 -4.899904727935791016e+00 -9.448180794715881348e-01 -1.753416895866394043e+00 2.161445856094360352e+00
1.154000000000000000e+03 2.622974205017089844e+01 -1.570421028137207031e+01 -4.167044639587402344e+00 -6.110405921936035156e-01 -1.433425545692443848e+00 1.757679581642150879e+00
1.155000000000000000e+03 2.791203689575195312e+01 -1.513535785675048828e+01 -3.611469984054565430e+00 -4.801550135016441345e-02 -1.097845554351806641e+00 9.896088242530822754e-01
1.156000000000000000e+03 2.994688987731933594e+01 -1.719230842590332031e+01 -3.148743629455566406e+00 -1.453851163387298584e-01 -9.882386326789855957e-01 9.335449934005737305e-01
1.157000000000000000e+03 3.121590995788574219e+01 -1.754718780517578125e+01 -2.978073596954345703e+00 2.811369113624095917e-02 -8.849879503250122070e-01 6.120100617408752441e-01
1.158000000000000000e+03 3.517813491821289062e+01 -1.788729095458984375e+01 -2.847553014755249023e+00 1.380254179239273071e-01 -8.128582239151000977e-01 -1.854683011770248413e-01
1.159000000000000000e+03 3.653180694580078125e+01 -1.790493011474609375e+01 -1.755547046661376953e+00 2.008958011865615845e-01 -4.663953781127929688e-01 -5.530740618705749512e-01
1.160000000000000000e+03 3.924736785888671875e+01 -1.780423164367675781e+01 1.230169057846069336e+00 5.103532314300537109e+00 1.900110363960266113e+00 -3.266131401062011719e+00
1.161000000000000000e+03 4.146910095214843750e+01 -2.091840744018554688e+01 5.448144435882568359e+00 1.384184455871582031e+01 5.786996841430664062e+00 -6.443606853485107422e+00
1.162000000000000000e+03 4.388871765136718750e+01 -2.333211898803710938e+01 3.183209657669067383e+00 1.144442749023437500e+01 4.388290882110595703e+00 -3.036370515823364258e+00
1.163000000000000000e+03 4.226334762573242188e+01 -2.671200561523437500e+01 -2.501646801829338074e-02 1.391459274291992188e+01 4.166872978210449219e+00 -1.746951937675476074e-01
1.164000000000000000e+03 3.834871673583984375e+01 -3.262645339965820312e+01 -2.377239704132080078e+00 3.901982903480529785e-01 -5.961124300956726074e-01 -1.982549577951431274e-01
1.165000000000000000e+03 3.686806106567382812e+01 -3.315561676025390625e+01 -3.208541393280029297e+00 -3.183346688747406006e-01 -1.058062791824340820e+00 -3.196642994880676270e-01
1.166000000000000000e+03 3.194374275207519531e+01 -3.381292724609375000e+01 -2.221439361572265625e+00 -1.857568044215440750e-03 -6.669890880584716797e-01 4.652525857090950012e-02
1.167000000000000000e+03 2.887485885620117188e+01 -3.359587097167968750e+01 -1.890198230743408203e+00 6.414406932890415192e-03 -5.651351213455200195e-01 1.790202856063842773e-01
1.168000000000000000e+03 2.611677932739257812e+01 -3.148831176757812500e+01 -1.948003172874450684e+00 -3.778806421905755997e-03 -5.855346322059631348e-01 1.931961774826049805e-01
1.169000000000000000e+03 2.477077102661132812e+01 -3.142674446105957031e+01 -2.018906116485595703e+00 -6.619897321797907352e-04 -6.058704257011413574e-01 1.700741946697235107e-01
1.170000000000000000e+03 2.209085464477539062e+01 -3.145786666870117188e+01 -2.418168067932128906e+00 4.494052380323410034e-03 -7.241021990776062012e-01 1.619990020990371704e-01
1.171000000000000000e+03 1.937423706054687500e+01 -3.160917091369628906e+01 -3.399153709411621094e+00 -8.889166265726089478e-02 -1.046413660049438477e+00 3.629453778266906738e-01
1.172000000000000000e+03 1.794735717773437500e+01 -3.164513587951660156e+01 -4.047633647918701172e+00 -3.142580091953277588e-01 -1.308567523956298828e+00 6.507878303527832031e-01
1.173000000000000000e+03 1.647744369506835938e+01 -3.149457168579101562e+01 -4.454416275024414062e+00 -4.767182767391204834e-01 -1.479340314865112305e+00 1.026478052139282227e+00
1.174000000000000000e+03 9.408994674682617188e+00 -2.669734573364257812e+01 7.025013566017150879e-01 7.761487007141113281e+00 2.539196491241455078e+00 -2.591586589813232422e+00
1.175000000000000000e+03 8.409719467163085938e+00 -2.353183937072753906e+01 8.940840959548950195e-01 1.997898674011230469e+01 6.261921405792236328e+00 8.426239490509033203e-01
1.176000000000000000e+03 8.896610260009765625e+00 -2.088516426086425781e+01 2.642853498458862305e+00 2.114019966125488281e+01 7.134915828704833984e+00 5.381685733795166016e+00
1.177000000000000000e+03 9.984788894653320312e+00 -1.830744934082031250e+01 3.024800300598144531e+00 1.376603984832763672e+01 5.037251949310302734e+00 6.165040493011474609e+00
1.178000000000000000e+03 9.575839996337890625e+00 -1.514536952972412109e+01 -2.112190872430801392e-01 9.811076164245605469e+00 2.879956960678100586e+00 2.463103055953979492e+00
1.179000000000000000e+03 1.406159973144531250e+01 -1.436927890777587891e+01 -1.683260917663574219e+00 1.320208787918090820e+00 -1.089156642556190491e-01 4.883385002613067627e-01
1.180000000000000000e+03 1.032599449157714844e+01 -1.589935660362243652e+00 4.065300941467285156e+00 1.497722816467285156e+01 5.712758541107177734e+00 4.214775562286376953e+00
1.181000000000000000e+03 1.124394035339355469e+01 -1.106968045234680176e+00 7.401828289031982422e+00 1.318462848663330078e+01 6.175937175750732422e+00 6.792720556259155273e-01
1.182000000000000000e+03 1.108631229400634766e+01 -1.248586654663085938e+00 6.511911869049072266e+00 1.398566341400146484e+01 6.149272918701171875e+00 9.211805462837219238e-01
1.183000000000000000e+03 1.138703632354736328e+01 -9.461706876754760742e-01 8.298719406127929688e+00 1.251939010620117188e+01 6.245432853698730469e+00 7.045134902000427246e-01
1.184000000000000000e+03 9.549832344055175781e+00 -1.680876135826110840e+00 4.743276119232177734e+00 1.044636344909667969e+01 4.556891918182373047e+00 6.846987724304199219e+00
1.185000000000000000e+03 9.916525840759277344e+00 1.732941031455993652e+00 6.750841140747070312e-01 1.048791313171386719e+01 3.348899126052856445e+00 -2.365232467651367188e+00
1.186000000000000000e+03 1.025138854980468750e+01 2.071066617965698242e+00 3.665899038314819336e-01 1.102401638031005859e+01 3.417181968688964844e+00 -1.039718031883239746e+00
1.187000000000000000e+03 1.053368091583251953e+01 -1.546996951103210449e+00 4.297280311584472656e+00 1.511197471618652344e+01 5.822776794433593750e+00 3.076008558273315430e+00
1.188000000000000000e+03 1.204526424407958984e+01 -7.753669619560241699e-01 8.107737541198730469e+00 9.670581817626953125e+00 5.333495616912841797e+00 1.418730020523071289e+00
1.189000000000000000e+03 1.163294696807861328e+01 -5.631079077720642090e-01 9.661175727844238281e+00 1.100944232940673828e+01 6.201185226440429688e+00 1.597815036773681641e+00
1.190000000000000000e+03 5.998128056526184082e-01 -2.177328824996948242e+00 4.866146668791770935e-02 -1.318455040454864502e-01 -2.495521120727062225e-02 -4.922202974557876587e-02
1.191000000000000000e+03 5.699092745780944824e-01 -1.737078309059143066e+00 3.749810159206390381e-02 -1.284891366958618164e-01 -2.729730866849422455e-02 -6.879232078790664673e-02
1.192000000000000000e+03 9.328114986419677734e-01 -1.647419691085815430e+00 5.163687095046043396e-02 -6.927068531513214111e-02 -5.290143657475709915e-03 -9.301870316267013550e-02
1.193000000000000000e+03 4.469111859798431396e-01 -2.728389978408813477e+00 1.472816523164510727e-02 -2.421541064977645874e-01 -6.822778284549713135e-02 -3.370606573298573494e-03
1.194000000000000000e+03 9.731056690216064453e-01 -3.850705623626708984e+00 1.002317592501640320e-01 2.154987305402755737e-01 9.471914917230606079e-02 1.836848109960556030e-01
1.195000000000000000e+03 1.121792078018188477e+00 -1.648148298263549805e+00 6.715207546949386597e-02 -2.387022785842418671e-02 1.298455521464347839e-02 -1.011159196496009827e-01
1.196000000000000000e+03 1.519507527351379395e+00 -1.654955983161926270e+00 7.283977419137954712e-02 4.659714549779891968e-02 3.583107516169548035e-02 -8.288683742284774780e-02
1.197000000000000000e+03 1.898603796958923340e+00 -1.668887615203857422e+00 1.243069693446159363e-01 8.819936215877532959e-02 6.375189870595932007e-02 -4.763163626194000244e-02
1.198000000000000000e+03 2.099959850311279297e+00 -1.680547118186950684e+00 1.567011177539825439e-01 1.355047523975372314e-01 8.766175806522369385e-02 -1.983264833688735962e-02
1.199000000000000000e+03 1.789340972900390625e+00 -1.909086108207702637e+00 1.581620723009109497e-01 8.497697114944458008e-02 7.294171303510665894e-02 -3.969798609614372253e-02
1.200000000000000000e+03 2.641448974609375000e+00 -1.930425047874450684e+00 3.344456553459167480e-01 2.530573010444641113e-01 1.762508898973464966e-01 1.459616720676422119e-01
1.201000000000000000e+03 4.293511807918548584e-01 -6.250895500183105469e+00 1.256186794489622116e-02 7.407554388046264648e-01 2.259951829910278320e-01 2.115722745656967163e-01
1.202000000000000000e+03 3.099899530410766602e+00 -1.640385508537292480e+00 3.717497289180755615e-01 2.223630100488662720e-01 1.782338172197341919e-01 2.005478739738464355e-01
1.203000000000000000e+03 2.911540031433105469e+00 -1.650711417198181152e+00 3.261551856994628906e-01 2.033784091472625732e-01 1.588600724935531616e-01 1.486407071352005005e-01
1.204000000000000000e+03 1.726468205451965332e+00 -8.922533988952636719e+00 -1.429225355386734009e-01 2.655656337738037109e+00 7.538201808929443359e-01 6.383297443389892578e-01
1.205000000000000000e+03 3.309324502944946289e+00 -1.686163783073425293e+00 4.527350366115570068e-01 2.513195276260375977e-01 2.112163752317428589e-01 2.616007328033447266e-01
1.206000000000000000e+03 3.719706773757934570e+00 -1.666599750518798828e+00 6.271705031394958496e-01 2.805877923965454102e-01 2.723274827003479004e-01 4.000445306301116943e-01
1.207000000000000000e+03 3.519840717315673828e+00 -1.678190112113952637e+00 5.408442020416259766e-01 2.842857837677001953e-01 2.475389987230300903e-01 3.381959497928619385e-01
1.208000000000000000e+03 4.119556903839111328e+00 -1.664536356925964355e+00 7.724831104278564453e-01 3.259753882884979248e-01 3.295375406742095947e-01 5.344014763832092285e-01
1.209000000000000000e+03 4.521019935607910156e+00 -1.642810225486755371e+00 1.034247279167175293e+00 3.501149117946624756e-01 4.153086543083190918e-01 6.967304348945617676e-01
1.210000000000000000e+03 4.892338275909423828e+00 -1.600252747535705566e+00 1.221666812896728516e+00 3.617774546146392822e-01 4.750332832336425781e-01 8.273459672927856445e-01
1.211000000000000000e+03 5.077716350555419922e+00 -1.623681902885437012e+00 1.291313767433166504e+00 4.138640165328979492e-01 5.115533471107482910e-01 9.329515695571899414e-01
1.212000000000000000e+03 5.278620243072509766e+00 -1.667851567268371582e+00 1.471040248870849609e+00 5.134103298187255859e-01 5.953351855278015137e-01 1.094838738441467285e+00
1.213000000000000000e+03 5.494093894958496094e+00 -1.683996558189392090e+00 1.675773620605468750e+00 5.423045754432678223e-01 6.654234528541564941e-01 1.225699186325073242e+00
1.214000000000000000e+03 5.756371974945068359e+00 -1.946162939071655273e+00 2.024650812149047852e+00 7.966835498809814453e-01 8.464002609252929688e-01 1.649447917938232422e+00
1.215000000000000000e+03 5.708132266998291016e+00 -1.655217647552490234e+00 1.858537912368774414e+00 5.904812812805175781e-01 7.347058057785034180e-01 1.344196677207946777e+00
1.216000000000000000e+03 5.904260158538818359e+00 -2.112812995910644531e+00 2.135924816131591797e+00 9.828162789344787598e-01 9.356223344802856445e-01 1.890417337417602539e+00
1.217000000000000000e+03 6.316736698150634766e+00 -1.644564509391784668e+00 2.476328134536743164e+00 7.643507719039916992e-01 9.722036123275756836e-01 1.784020304679870605e+00
1.218000000000000000e+03 6.709425449371337891e+00 -1.630008339881896973e+00 2.952826023101806641e+00 8.987857103347778320e-01 1.155483484268188477e+00 2.111736059188842773e+00
1.219000000000000000e+03 6.750678062438964844e+00 -1.897442936897277832e+00 3.052861928939819336e+00 1.296062827110290527e+00 1.304677367210388184e+00 2.566019773483276367e+00
1.220000000000000000e+03 7.096217155456542969e+00 -1.612254261970520020e+00 3.546029567718505859e+00 1.174552202224731445e+00 1.416174530982971191e+00 2.632990121841430664e+00
1.221000000000000000e+03 7.291068077087402344e+00 -1.613976955413818359e+00 3.779385805130004883e+00 1.372224330902099609e+00 1.545482993125915527e+00 2.891725063323974609e+00
1.222000000000000000e+03 7.487801551818847656e+00 -1.621869087219238281e+00 4.048156738281250000e+00 1.622068881988525391e+00 1.701067686080932617e+00 3.205448865890502930e+00
1.223000000000000000e+03 7.686161518096923828e+00 -1.635808110237121582e+00 4.384696960449218750e+00 1.945460796356201172e+00 1.899047374725341797e+00 3.595097303390502930e+00
1.224000000000000000e+03 8.089211463928222656e+00 -1.669811248779296875e+00 4.910503387451171875e+00 2.794482231140136719e+00 2.311495542526245117e+00 4.428009033203125000e+00
1.225000000000000000e+03 8.841042518615722656e+00 -1.946554541587829590e+00 4.614868640899658203e+00 6.261297702789306641e+00 3.262849807739257812e+00 6.132373809814453125e+00
1.226000000000000000e+03 9.332435607910156250e+00 -1.709845423698425293e+00 4.948864936828613281e+00 8.965844154357910156e+00 4.174412727355957031e+00 6.844449520111083984e+00
1.227000000000000000e+03 9.942266464233398438e+00 -1.628332138061523438e+00 4.194499492645263672e+00 1.338954162597656250e+01 5.275212287902832031e+00 5.983774662017822266e+00
1.228000000000000000e+03 1.014078807830810547e+01 1.693363189697265625e+00 5.130105614662170410e-01 1.195008754730224609e+01 3.738929510116577148e+00 -1.544643878936767578e+00
1.229000000000000000e+03 9.688355445861816406e+00 1.716600775718688965e+00 9.050545692443847656e-01 8.885822296142578125e+00 2.937263011932373047e+00 -2.933732748031616211e+00
1.230000000000000000e+03 9.279462814331054688e+00 1.627001404762268066e+00 1.569641470909118652e+00 5.784014701843261719e+00 2.206096887588500977e+00 -3.218485355377197266e+00
1.231000000000000000e+03 9.052550315856933594e+00 1.802253365516662598e+00 1.604295372962951660e+00 4.764762401580810547e+00 1.910717368125915527e+00 -2.789288282394409180e+00
1.232000000000000000e+03 8.705851554870605469e+00 1.604722261428833008e+00 1.710776090621948242e+00 2.670040845870971680e+00 1.314245104789733887e+00 -2.185640335083007812e+00
1.233000000000000000e+03 8.317083358764648438e+00 1.624855518341064453e+00 1.471961975097656250e+00 1.554691553115844727e+00 9.079960584640502930e-01 -1.412321567535400391e+00
1.234000000000000000e+03 8.362599372863769531e+00 1.857484936714172363e+00 1.563594460487365723e+00 2.060639381408691406e+00 1.087270140647888184e+00 -1.709962725639343262e+00
1.235000000000000000e+03 7.915601730346679688e+00 1.654157161712646484e+00 1.065531373023986816e+00 9.025472402572631836e-01 5.904235839843750000e-01 -8.403511047363281250e-01
1.236000000000000000e+03 7.517196655273437500e+00 1.674248933792114258e+00 7.357234358787536621e-01 5.427163839340209961e-01 3.835319578647613525e-01 -4.074937999248504639e-01
1.237000000000000000e+03 7.309598445892333984e+00 1.691507577896118164e+00 5.997729897499084473e-01 4.454563856124877930e-01 3.135688006877899170e-01 -2.850816845893859863e-01
1.238000000000000000e+03 7.088110446929931641e+00 1.697464346885681152e+00 4.426863491535186768e-01 3.133113980293273926e-01 2.267993241548538208e-01 -1.327207535505294800e-01
1.239000000000000000e+03 6.874786853790283203e+00 1.687977790832519531e+00 2.733553946018218994e-01 2.537062168121337891e-01 1.581184864044189453e-01 -1.935194805264472961e-02
1.240000000000000000e+03 6.672570228576660156e+00 1.650784492492675781e+00 1.164891049265861511e-01 1.635435521602630615e-01 8.400979638099670410e-02 9.424462914466857910e-02
1.241000000000000000e+03 6.606916904449462891e+00 1.906055331230163574e+00 3.492071032524108887e-01 2.298022508621215820e-01 1.737028062343597412e-01 1.153954956680536270e-02
1.242000000000000000e+03 6.095009326934814453e+00 1.606221914291381836e+00 -1.427590996026992798e-01 4.556704685091972351e-02 -2.915761619806289673e-02 2.732477188110351562e-01
1.243000000000000000e+03 6.271880626678466797e+00 1.624258637428283691e+00 -4.187125340104103088e-02 9.006243199110031128e-02 1.445735339075326920e-02 2.174643427133560181e-01
1.244000000000000000e+03 5.906010627746582031e+00 1.622418999671936035e+00 -1.825338304042816162e-01 4.662803560495376587e-02 -4.077173769474029541e-02 3.151281177997589111e-01
1.245000000000000000e+03 5.283941745758056641e+00 1.677098512649536133e+00 -2.151762098073959351e-01 1.568009518086910248e-02 -5.984883382916450500e-02 3.789017498493194580e-01
1.246000000000000000e+03 1.354743599891662598e+00 7.783833026885986328e+00 5.609807372093200684e-02 -4.407721757888793945e-01 -1.154022291302680969e-01 -1.183552518486976624e-01
1.247000000000000000e+03 4.370096683502197266e+00 1.800900101661682129e+00 -1.967096775770187378e-01 -2.286665327847003937e-02 -6.587290018796920776e-02 4.449865221977233887e-01
1.248000000000000000e+03 4.265900611877441406e+00 2.043102979660034180e+00 -9.282182157039642334e-02 -2.163571678102016449e-02 -3.433726355433464050e-02 4.246182739734649658e-01
1.249000000000000000e+03 4.122012615203857422e+00 1.624246835708618164e+00 -2.972373068332672119e-01 -3.394252806901931763e-02 -9.935395419597625732e-02 4.462693333625793457e-01
1.250000000000000000e+03 3.093057632446289062e+00 1.734717011451721191e+00 -2.021854668855667114e-01 -7.374393939971923828e-02 -8.277881890535354614e-02 4.252480566501617432e-01
1.251000000000000000e+03 2.678377866744995117e+00 1.679779767990112305e+00 -1.917003244161605835e-01 -8.873435854911804199e-02 -8.413040637969970703e-02 3.964681923389434814e-01
1.252000000000000000e+03 2.547712802886962891e+00 2.189560651779174805e+00 -6.451498717069625854e-02 -1.335850507020950317e-01 -5.943001061677932739e-02 4.099303483963012695e-01
1.253000000000000000e+03 2.469881296157836914e+00 1.670967698097229004e+00 -1.763052791357040405e-01 -9.622053802013397217e-02 -8.175774663686752319e-02 3.839837014675140381e-01
1.254000000000000000e+03 2.280840158462524414e+00 1.613234758377075195e+00 -1.628835201263427734e-01 -1.082803755998611450e-01 -8.134917169809341431e-02 3.599798977375030518e-01
1.255000000000000000e+03 1.924500584602355957e+00 1.629094958305358887e+00 -1.360546797513961792e-01 -1.233983188867568970e-01 -7.783589512109756470e-02 3.267730772495269775e-01
1.256000000000000000e+03 9.106830954551696777e-01 2.029182434082031250e+00 -2.885985001921653748e-02 -2.816585302352905273e-01 -9.315551072359085083e-02 2.014470100402832031e-01
1.257000000000000000e+03 9.104794502258300781e+00 -1.653424501419067383e+00 5.356588840484619141e+00 7.439661979675292969e+00 3.838875293731689453e+00 6.715206146240234375e+00
1.258000000000000000e+03 1.011150455474853516e+01 -1.798582911491394043e+00 3.558529853820800781e+00 1.341123294830322266e+01 5.090929031372070312e+00 5.111013889312744141e+00
1.259000000000000000e+03 5.551969146728515625e+01 -3.083815765380859375e+01 1.893952608108520508e+00 1.080879688262939453e+01 3.810824871063232422e+00 -1.589558959007263184e+00
1.260000000000000000e+03 6.950547027587890625e+01 -2.173959350585937500e+01 -1.369845986366271973e+00 1.459877133369445801e+00 2.700935862958431244e-02 -6.937750577926635742e-01
1.261000000000000000e+03 6.558525085449218750e+01 -2.072430610656738281e+01 -1.346287131309509277e+00 6.426593661308288574e-01 -2.110883295536041260e-01 8.162597417831420898e-01
1.262000000000000000e+03 6.168291854858398438e+01 -2.311803627014160156e+01 1.329664826393127441e+00 6.872862577438354492e-01 6.050853133201599121e-01 1.184807538986206055e+00
1.263000000000000000e+03 5.968384170532226562e+01 -2.302696418762207031e+01 1.309060454368591309e+00 1.160561203956604004e+00 7.408865094184875488e-01 1.310327410697937012e+00
1.264000000000000000e+03 5.647626495361328125e+01 -2.746624565124511719e+01 1.313004016876220703e+00 5.266089916229248047e+00 1.973728299140930176e+00 1.485168337821960449e+00
1.265000000000000000e+03 5.349090194702148438e+01 -2.873763275146484375e+01 1.411686182022094727e+00 7.012298583984375000e+00 2.527195453643798828e+00 -1.717608690261840820e+00
1.266000000000000000e+03 7.107006072998046875e+01 -2.286032295227050781e+01 6.029414534568786621e-01 6.530032157897949219e+00 2.139892101287841797e+00 -2.102476596832275391e+00
1.267000000000000000e+03 7.169723510742187500e+01 -2.392412757873535156e+01 1.251342415809631348e+00 1.106867790222167969e+01 3.696006298065185547e+00 -1.774491906166076660e+00
1.268000000000000000e+03 7.796252441406250000e+01 -2.233639907836914062e+01 -4.455988109111785889e-02 7.603932380676269531e+00 2.267811775207519531e+00 7.166422605514526367e-01
1.269000000000000000e+03 7.202393341064453125e+01 -2.976904487609863281e+01 1.059482812881469727e+00 9.502516746520996094e+00 3.168600082397460938e+00 1.475042104721069336e+00
1.270000000000000000e+03 5.859632873535156250e+01 -2.383396530151367188e+01 1.702733635902404785e+00 1.536731839179992676e+00 9.718396663665771484e-01 1.280109643936157227e+00
1.271000000000000000e+03 7.175666809082031250e+01 -2.716779899597167969e+01 3.182682394981384277e-01 1.338782501220703125e+01 4.111827850341796875e+00 1.074956655502319336e+00
1.272000000000000000e+03 7.274777984619140625e+01 -2.735757064819335938e+01 1.508603453636169434e+00 1.067949676513671875e+01 3.656430244445800781e+00 7.189117670059204102e-01
1.273000000000000000e+03 6.804586791992187500e+01 -3.314929580688476562e+01 -2.382068485021591187e-01 9.304088354110717773e-01 2.076605856418609619e-01 4.765302836894989014e-01
1.274000000000000000e+03 7.091925811767578125e+01 -3.282511901855468750e+01 -4.658350348472595215e-01 5.840610980987548828e+00 1.612432837486267090e+00 1.260248661041259766e+00
1.275000000000000000e+03 5.550500488281250000e+01 -2.628491401672363281e+01 1.080368280410766602e+00 4.727989196777343750e+00 1.742507338523864746e+00 1.787720024585723877e-01
1.276000000000000000e+03 7.163847351074218750e+01 -2.098374557495117188e+01 -1.565913796424865723e+00 6.883059501647949219e+00 1.595143675804138184e+00 -1.213647723197937012e+00
1.277000000000000000e+03 7.272724914550781250e+01 -2.826646423339843750e+01 1.258014202117919922e+00 9.781627655029296875e+00 3.311892509460449219e+00 5.578600168228149414e-01
1.278000000000000000e+03 5.387203598022460938e+01 -3.127458953857421875e+01 2.490322113037109375e+00 6.633089065551757812e+00 2.737023353576660156e+00 -1.498847603797912598e+00
1.279000000000000000e+03 5.754012298583984375e+01 -2.466130447387695312e+01 1.660483598709106445e+00 1.953174829483032227e+00 1.084097504615783691e+00 1.371907711029052734e+00
1.280000000000000000e+03 6.891773223876953125e+01 -3.426457214355468750e+01 -4.568851590156555176e-01 2.687669992446899414e+00 6.692354083061218262e-01 1.074078917503356934e+00
1.281000000000000000e+03 6.795992279052734375e+01 -3.558615112304687500e+01 -2.589865922927856445e-01 1.857418894767761230e+00 4.795297086238861084e-01 9.382809996604919434e-01
1.282000000000000000e+03 6.500093841552734375e+01 -3.603775024414062500e+01 -2.253469377756118774e-01 2.726197540760040283e-01 1.418184768408536911e-02 1.157969906926155090e-01
1.283000000000000000e+03 5.651479721069335938e+01 -2.549516296386718750e+01 1.365092635154724121e+00 3.598429203033447266e+00 1.489056468009948730e+00 1.169180989265441895e+00
1.284000000000000000e+03 6.480885314941406250e+01 -3.956557464599609375e+01 9.577453136444091797e-01 9.667071700096130371e-01 5.773357152938842773e-01 4.307426512241363525e-02
1.285000000000000000e+03 7.486469268798828125e+01 -2.751337242126464844e+01 9.622691273689270020e-01 8.256232261657714844e+00 2.765550374984741211e+00 -1.001658067107200623e-01
1.286000000000000000e+03 7.261584472656250000e+01 -2.482442665100097656e+01 1.285867452621459961e+00 1.111786270141601562e+01 3.721119165420532227e+00 -2.854289412498474121e-01
1.287000000000000000e+03 6.116308975219726562e+01 -1.584977340698242188e+01 -5.556954741477966309e-01 9.971274733543395996e-01 1.324295997619628906e-01 8.679956793785095215e-01
1.288000000000000000e+03 7.197708129882812500e+01 -3.206150054931640625e+01 -5.601013302803039551e-01 7.088644027709960938e+00 1.958562850952148438e+00 4.483980834484100342e-01
1.289000000000000000e+03 4.547591018676757812e+01 -3.002321815490722656e+01 6.756844520568847656e-01 8.166676521301269531e+00 2.652708292007446289e+00 -1.509909510612487793e+00
1.290000000000000000e+03 4.325323486328125000e+01 -2.793408203125000000e+01 1.258895039558410645e+00 1.132188129425048828e+01 3.774232864379882812e+00 2.848384082317352295e-01
1.291000000000000000e+03 1.867344021797180176e+00 -2.518861579895019531e+01 2.257576137781143188e-01 6.158485412597656250e+00 1.915272951126098633e+00 1.928690910339355469e+00
1.292000000000000000e+03 3.510056304931640625e+01 -1.560890007019042969e+01 -1.141412615776062012e+00 1.146165132522583008e+00 1.425747759640216827e-03 -1.346366763114929199e+00
1.293000000000000000e+03 1.145970916748046875e+01 -3.121174430847167969e+01 -2.654333114624023438e+00 2.093918323516845703e+00 -1.681244373321533203e-01 -1.547039598226547241e-01
1.294000000000000000e+03 4.277103805541992188e+01 -1.905544662475585938e+01 9.018193483352661133e-01 9.922863006591796875e+00 3.247404813766479492e+00 -1.868024945259094238e+00
1.295000000000000000e+03 6.264762878417968750e+00 -3.873942184448242188e+01 -2.172197848558425903e-01 7.143642902374267578e+00 2.077926874160766602e+00 1.289279758930206299e-01
1.296000000000000000e+03 1.794343829154968262e+00 -1.039661598205566406e+01 -2.115341573953628540e-01 3.105276346206665039e+00 8.681226372718811035e-01 4.367952048778533936e-01
1.297000000000000000e+03 1.668851971626281738e+00 -1.715364265441894531e+01 9.614636749029159546e-02 3.223535537719726562e+00 9.959045648574829102e-01 -3.733806312084197998e-01
1.298000000000000000e+03 1.836603999137878418e+00 -2.385532569885253906e+01 3.823596835136413574e-01 5.153263092041015625e+00 1.660686850547790527e+00 1.519945621490478516e+00
1.299000000000000000e+03 1.909362435340881348e+00 -2.927548408508300781e+01 -2.972554266452789307e-01 9.078578948974609375e+00 2.634397268295288086e+00 1.659895181655883789e+00
1.300000000000000000e+03 8.499690890312194824e-01 -3.892876052856445312e+01 4.428480193018913269e-02 1.177722644805908203e+01 3.546453237533569336e+00 -1.437093317508697510e-01
1.301000000000000000e+03 2.121110439300537109e+00 -3.314395904541015625e+01 -3.405900895595550537e-01 1.059206008911132812e+01 3.075441122055053711e+00 6.734943985939025879e-01
1.302000000000000000e+03 6.650957465171813965e-01 -3.214053726196289062e+01 -3.893370181322097778e-02 1.126402473449707031e+01 3.367527246475219727e+00 3.531878590583801270e-01
1.303000000000000000e+03 1.917787194252014160e+00 -3.060541534423828125e+01 -3.048484027385711670e-01 9.772278785705566406e+00 2.840229034423828125e+00 1.270942926406860352e+00
1.304000000000000000e+03 6.743543148040771484e+00 -2.426467514038085938e+01 1.612021684646606445e+00 1.291291332244873047e+01 4.357480525970458984e+00 2.495582580566406250e+00
1.305000000000000000e+03 6.208974719047546387e-01 -2.534438514709472656e+01 3.364010527729988098e-02 4.741677284240722656e+00 1.432595252990722656e+00 7.281145453453063965e-01
1.306000000000000000e+03 3.063604354858398438e+00 -2.375191879272460938e+01 8.078291416168212891e-01 6.796221256256103516e+00 2.281215190887451172e+00 2.124403715133666992e+00
1.307000000000000000e+03 5.723915696144104004e-01 -1.855568885803222656e+01 5.152344238013029099e-03 1.287645101547241211e+00 3.878392577171325684e-01 -9.963041543960571289e-02
1.308000000000000000e+03 8.067130088806152344e+00 -1.627120780944824219e+01 1.819185167551040649e-01 1.054603290557861328e+01 3.218385457992553711e+00 1.795524597167968750e+00
1.309000000000000000e+03 3.008554220199584961e+00 -2.105388450622558594e+01 9.416800141334533691e-01 5.864980220794677734e+00 2.041998147964477539e+00 8.454759120941162109e-01
1.310000000000000000e+03 5.680457949638366699e-01 -1.176214504241943359e+01 -3.927092254161834717e-02 2.608670711517333984e+00 7.708199024200439453e-01 3.587248548865318298e-02
1.311000000000000000e+03 2.983602285385131836e+00 -1.065920543670654297e+01 -4.658404886722564697e-01 4.039782524108886719e+00 1.072182536125183105e+00 6.662755012512207031e-01
1.312000000000000000e+03 2.677445888519287109e+00 -1.451821804046630859e+01 -2.286350429058074951e-01 4.437882423400878906e+00 1.262774229049682617e+00 -2.671468257904052734e-01
1.313000000000000000e+03 2.309051752090454102e+00 -1.681054234504699707e+00 2.123348563909530640e-01 1.650187969207763672e-01 1.132060959935188293e-01 3.780279308557510376e-02
1.314000000000000000e+03 3.512092232704162598e-01 -4.935889244079589844e+00 2.900841087102890015e-02 1.085622832179069519e-01 4.127120971679687500e-02 1.348399817943572998e-01
1.315000000000000000e+03 1.319398045539855957e+00 -1.650889396667480469e+00 6.342358142137527466e-02 -4.796699620783329010e-03 1.758806407451629639e-02 -1.040274128317832947e-01
1.316000000000000000e+03 3.282122313976287842e-01 -3.682224750518798828e+00 1.414369512349367142e-02 -2.555094957351684570e-01 -7.240974158048629761e-02 4.461787641048431396e-02
1.317000000000000000e+03 3.060527229309082031e+01 -1.480025482177734375e+01 -2.718511819839477539e+00 6.418132781982421875e-01 -6.230095624923706055e-01 1.010320484638214111e-01
1.318000000000000000e+03 4.071614837646484375e+01 -1.722960662841796875e+01 -1.991662979125976562e-01 7.853468418121337891e+00 2.296290636062622070e+00 -3.326854228973388672e+00
1.319000000000000000e+03 7.460562705993652344e+00 -2.188080978393554688e+01 2.690839767456054688e+00 1.580382633209228516e+01 5.548399925231933594e+00 2.507432460784912109e+00
1.320000000000000000e+03 4.232790374755859375e+01 -2.539821052551269531e+01 3.354452848434448242e-01 1.505426979064941406e+01 4.616914272308349609e+00 -6.488915681838989258e-01
1.321000000000000000e+03 3.855296325683593750e+01 -3.417464828491210938e+01 -1.832821726799011230e+00 1.145458102226257324e+00 -2.062090784311294556e-01 8.966261744499206543e-01
1.322000000000000000e+03 2.349361419677734375e+01 -3.285236740112304688e+01 -2.104931354522705078e+00 -1.956765726208686829e-02 -6.373497247695922852e-01 3.016850054264068604e-01
1.323000000000000000e+03 2.477775001525878906e+01 -3.286467742919921875e+01 -1.993819952011108398e+00 -9.595613926649093628e-03 -6.010246276855468750e-01 2.725067436695098877e-01
1.324000000000000000e+03 2.132251739501953125e+01 -1.348669052124023438e+01 -8.735582351684570312e+00 -6.848048567771911621e-01 -2.826116085052490234e+00 1.981513857841491699e+00
1.325000000000000000e+03 1.790200042724609375e+01 -1.302480983734130859e+01 -9.357656478881835938e+00 -6.341087818145751953e-01 -2.997529506683349609e+00 1.337303519248962402e-01
1.326000000000000000e+03 4.259574508666992188e+01 -3.301406860351562500e+01 -1.790151953697204590e+00 6.437340736389160156e+00 1.394156694412231445e+00 2.286029905080795288e-01
1.327000000000000000e+03 4.230451583862304688e+01 -3.102613830566406250e+01 1.213089600205421448e-01 7.494635105133056641e+00 2.284783124923706055e+00 1.031290054321289062e+00
1.328000000000000000e+03 1.601041412353515625e+01 -1.225271034240722656e+01 -5.227095127105712891e+00 8.582912683486938477e-01 -1.310641169548034668e+00 1.660187959671020508e+00
1.329000000000000000e+03 2.893397092819213867e+00 -1.839544868469238281e+01 4.716584384441375732e-01 5.074775695800781250e+00 1.663930177688598633e+00 -1.352056711912155151e-01
1.330000000000000000e+03 8.862168312072753906e+00 -1.787981224060058594e+01 1.999957919120788574e+00 1.301203632354736328e+01 4.503598213195800781e+00 4.002882003784179688e+00
1.331000000000000000e+03 2.381534385681152344e+01 -1.450041294097900391e+01 -6.428911209106445312e+00 -1.169177412986755371e+00 -2.279426574707031250e+00 2.502900838851928711e+00
1.332000000000000000e+03 3.716416931152343750e+01 -3.479327392578125000e+01 -1.730522274971008301e+00 3.112865090370178223e-01 -4.257707297801971436e-01 3.996725082397460938e-01
1.333000000000000000e+03 1.808551406860351562e+01 -3.366780853271484375e+01 -2.196436166763305664e+00 -4.945716857910156250e-01 -8.073023557662963867e-01 9.578994512557983398e-01
1.334000000000000000e+03 1.822964477539062500e+01 -1.106048393249511719e+01 -4.111236095428466797e+00 -3.616998791694641113e-01 -1.341880798339843750e+00 8.931365013122558594e-01
1.335000000000000000e+03 2.075241088867187500e+01 -3.155063247680664062e+01 -2.883778095245361328e+00 -7.120215147733688354e-02 -8.864941000938415527e-01 2.323764264583587646e-01
1.336000000000000000e+03 4.364933776855468750e+01 -2.447828865051269531e+01 1.769799470901489258e+00 1.359782409667968750e+01 4.610287189483642578e+00 -2.967459917068481445e+00
1.337000000000000000e+03 3.005562973022460938e+01 -3.181261444091796875e+01 -1.861815810203552246e+00 -1.335981395095586777e-02 -5.625526905059814453e-01 2.640151679515838623e-01
1.338000000000000000e+03 3.067967987060546875e+01 -3.340981674194335938e+01 -2.088905096054077148e+00 4.091315716505050659e-02 -6.143975257873535156e-01 1.605202555656433105e-01
1.339000000000000000e+03 3.313349914550781250e+01 -3.424630355834960938e+01 -2.288971424102783203e+00 -1.258352845907211304e-01 -7.244420051574707031e-01 -1.368001103401184082e-01
1.340000000000000000e+03 2.209329032897949219e+01 -1.238981151580810547e+01 -6.291199684143066406e+00 -6.594226360321044922e-01 -2.085186719894409180e+00 6.351731419563293457e-01
1.341000000000000000e+03 1.450983619689941406e+01 -3.300391006469726562e+01 -2.198642253875732422e+00 -2.288200557231903076e-01 -7.282387018203735352e-01 5.367031097412109375e-01
1.342000000000000000e+03 2.610324287414550781e+01 -3.287010574340820312e+01 -1.918284893035888672e+00 -7.556332857348024845e-04 -5.757122039794921875e-01 2.443123012781143188e-01
1.343000000000000000e+03 1.291147708892822266e+01 -3.221546936035156250e+01 -2.333466053009033203e+00 5.640602707862854004e-01 -5.308216810226440430e-01 1.847685873508453369e-01
1.344000000000000000e+03 2.746194839477539062e+01 -1.623047828674316406e+01 -3.956497192382812500e+00 -5.358207225799560547e-01 -1.347695350646972656e+00 1.482534170150756836e+00
1.345000000000000000e+03 2.110591125488281250e+01 -1.177677726745605469e+01 -5.255777835845947266e+00 -7.673468589782714844e-01 -1.806937456130981445e+00 2.317069917917251587e-01
1.346000000000000000e+03 3.515679168701171875e+01 -1.674486541748046875e+01 -1.669857621192932129e+00 4.437274634838104248e-01 -3.678390383720397949e-01 -6.902948021888732910e-01
1.347000000000000000e+03 3.383524322509765625e+01 -1.785644149780273438e+01 -3.111159086227416992e+00 6.210982799530029297e-02 -9.147147536277770996e-01 5.168525874614715576e-02
1.348000000000000000e+03 2.673460578918457031e+01 -1.464393711090087891e+01 -4.171154975891113281e+00 -1.383171528577804565e-01 -1.292841553688049316e+00 1.214768648147583008e+00
1.349000000000000000e+03 3.146859741210937500e+01 -1.631062889099121094e+01 -2.803672552108764648e+00 3.884390294551849365e-01 -7.245700359344482422e-01 3.442669212818145752e-01
1.350000000000000000e+03 2.745480537414550781e+01 -3.155983734130859375e+01 -1.942234277725219727e+00 -2.100625075399875641e-02 -5.889721512794494629e-01 2.084371149539947510e-01
1.351000000000000000e+03 2.964784431457519531e+01 -3.284737777709960938e+01 -1.943275332450866699e+00 2.365290187299251556e-02 -5.758867263793945312e-01 2.257066667079925537e-01
1.352000000000000000e+03 7.915169239044189453e+00 -2.474352455139160156e+01 1.650337219238281250e+00 1.621257019042968750e+01 5.358872413635253906e+00 5.478739738464355469e-01
1.353000000000000000e+03 2.742051315307617188e+01 -3.281822204589843750e+01 -1.852286577224731445e+00 -2.149424888193607330e-02 -5.621342658996582031e-01 2.343226373195648193e-01
1.354000000000000000e+03 9.423702239990234375e+00 -2.864933013916015625e+01 -2.177160263061523438e+00 6.173358917236328125e+00 1.198859572410583496e+00 -5.378659367561340332e-01
1.355000000000000000e+03 4.323495483398437500e+01 -2.685788917541503906e+01 8.359898924827575684e-01 1.315803432464599609e+01 4.198207378387451172e+00 -2.423954457044601440e-01
1.356000000000000000e+03 4.163825607299804688e+01 -1.931437492370605469e+01 1.215765237808227539e+00 1.162137603759765625e+01 3.851142406463623047e+00 -3.902615070343017578e+00
1.357000000000000000e+03 4.346980285644531250e+01 -2.570681953430175781e+01 8.088439702987670898e-01 1.330587100982666016e+01 4.234414577484130859e+00 -1.473758935928344727e+00
1.358000000000000000e+03 2.053818130493164062e+01 -3.505451202392578125e+01 -1.538746833801269531e+00 -3.978817164897918701e-01 -5.809885263442993164e-01 7.470606565475463867e-01
1.359000000000000000e+03 1.962399482727050781e+01 -3.341427612304687500e+01 -2.305178642272949219e+00 -3.356898128986358643e-01 -7.922605276107788086e-01 8.273547291755676270e-01
1.360000000000000000e+03 5.682141494750976562e+01 3.857143020629882812e+01 -2.504454851150512695e-01 -1.463836282491683960e-01 -1.190487369894981384e-01 2.019313871860504150e-01
1.361000000000000000e+03 6.294370651245117188e+01 4.142350387573242188e+01 4.123495519161224365e-01 5.486796423792839050e-02 1.401652544736862183e-01 -3.246409818530082703e-03
1.362000000000000000e+03 5.777303695678710938e+01 -2.288167953491210938e+01 1.191633582115173340e+00 1.520024657249450684e+00 8.134974837303161621e-01 1.110030174255371094e+00
1.363000000000000000e+03 5.900256347656250000e+01 -1.770760345458984375e+01 -1.446223020553588867e+00 6.338325142860412598e-01 -2.437171638011932373e-01 1.268312811851501465e+00
1.364000000000000000e+03 5.468376159667968750e+01 3.776205825805664062e+01 -3.613334596157073975e-01 3.452482223510742188e-01 -4.825571086257696152e-03 1.261368542909622192e-01
1.365000000000000000e+03 6.062310791015625000e+01 -1.505219268798828125e+01 1.653656363487243652e-01 5.173225998878479004e-01 2.048064619302749634e-01 4.605914056301116943e-01
1.366000000000000000e+03 5.801840209960937500e+01 -1.627542495727539062e+01 -3.054087638854980469e+00 2.611016333103179932e-01 -8.378957509994506836e-01 -3.140798807144165039e-01
1.367000000000000000e+03 4.114752197265625000e+01 1.032674312591552734e+01 1.947647213935852051e+00 1.017293643951416016e+01 3.636175155639648438e+00 -1.578393697738647461e+00
1.368000000000000000e+03 4.228719711303710938e+01 1.334821796417236328e+01 2.372355908155441284e-01 1.092913818359375000e+01 3.349912166595458984e+00 3.619635701179504395e-01
1.369000000000000000e+03 7.106750488281250000e+01 3.122384834289550781e+01 -5.243314504623413086e-01 5.954341888427734375e+00 1.629003167152404785e+00 1.433131545782089233e-01
1.370000000000000000e+03 6.692588806152343750e+01 3.424616622924804688e+01 -7.790712714195251465e-01 1.665764331817626953e+00 2.660079002380371094e-01 -1.985591500997543335e-01
1.371000000000000000e+03 4.050408935546875000e+01 1.962487602233886719e+01 7.339572906494140625e-01 7.487775802612304688e+00 2.466520071029663086e+00 7.603195905685424805e-01
1.372000000000000000e+03 4.128182220458984375e+01 1.636887168884277344e+01 7.681617736816406250e-01 8.897161483764648438e+00 2.899597167968750000e+00 7.599613070487976074e-01
1.373000000000000000e+03 7.018991851806640625e+01 6.149977684020996094e+00 2.101211249828338623e-01 1.274409389495849609e+01 3.886264562606811523e+00 -1.955902278423309326e-01
1.374000000000000000e+03 7.337507629394531250e+01 8.001298904418945312e+00 9.890243411064147949e-02 9.189269065856933594e+00 2.786451339721679688e+00 5.633082389831542969e-01
1.375000000000000000e+03 7.779374694824218750e+01 -3.457025909423828125e+01 -1.156559139490127563e-01 7.703461170196533203e+00 2.276341676712036133e+00 -3.535248339176177979e-01
1.376000000000000000e+03 7.667415618896484375e+01 -2.714249992370605469e+01 6.170530915260314941e-01 7.559499263763427734e+00 2.452965736389160156e+00 4.978083446621894836e-02
1.377000000000000000e+03 7.579824066162109375e+01 -2.072516632080078125e+01 -5.451418161392211914e-01 7.897770404815673828e+00 2.205788612365722656e+00 5.962514281272888184e-01
1.378000000000000000e+03 7.926420593261718750e+01 -2.515723228454589844e+01 8.572074770927429199e-02 6.480896472930908203e+00 1.969985127449035645e+00 1.842112094163894653e-01
1.379000000000000000e+03 7.777184295654296875e+01 -2.381361389160156250e+01 1.668364405632019043e-01 7.380472660064697266e+00 2.264192581176757812e+00 6.328320503234863281e-01
1.380000000000000000e+03 7.820740509033203125e+01 -3.072970771789550781e+01 1.895648613572120667e-02 7.172574520111083984e+00 2.157459259033203125e+00 -5.171844959259033203e-01
1.381000000000000000e+03 7.939131164550781250e+01 -3.204362487792968750e+01 -6.271632760763168335e-02 7.293581962585449219e+00 2.169259786605834961e+00 -2.233752608299255371e-01
1.382000000000000000e+03 7.817224121093750000e+01 -3.200113677978515625e+01 1.910470426082611084e-02 7.389386653900146484e+00 2.222547531127929688e+00 -5.253211855888366699e-01
1.383000000000000000e+03 7.587273406982421875e+01 -3.539686203002929688e+01 -2.905197143554687500e-01 7.278646945953369141e+00 2.096438169479370117e+00 -2.839998900890350342e-01
1.384000000000000000e+03 7.627600860595703125e+01 -3.890040969848632812e+01 -2.727009952068328857e-01 7.245013713836669922e+00 2.091693878173828125e+00 -7.158759981393814087e-02
1.385000000000000000e+03 7.601208496093750000e+01 -4.074048995971679688e+01 -2.357231266796588898e-02 7.460785388946533203e+00 2.231163978576660156e+00 -1.943133622407913208e-01
1.386000000000000000e+03 7.868395996093750000e+01 -4.038733291625976562e+01 -9.864721447229385376e-02 8.198053359985351562e+00 2.429821729660034180e+00 2.009586989879608154e-01
1.387000000000000000e+03 7.820641326904296875e+01 1.663233184814453125e+01 -5.015000235289335251e-03 7.393645286560058594e+00 2.216588973999023438e+00 1.779764592647552490e-01
1.388000000000000000e+03 7.790972137451171875e+01 3.310707855224609375e+01 -6.535957753658294678e-02 9.447903633117675781e+00 2.814763069152832031e+00 3.385279178619384766e-01
1.389000000000000000e+03 7.817550659179687500e+01 2.908866882324218750e+01 -1.844544708728790283e-02 8.982051849365234375e+00 2.689082145690917969e+00 4.517993330955505371e-01
1.390000000000000000e+03 7.939325714111328125e+01 2.782644081115722656e+01 -1.293726963922381401e-03 9.030623435974121094e+00 2.708798885345458984e+00 1.864704787731170654e-01
1.391000000000000000e+03 7.816187286376953125e+01 2.638053512573242188e+01 3.299208730459213257e-02 8.505716323852539062e+00 2.561612606048583984e+00 4.327867925167083740e-01
1.392000000000000000e+03 7.816254425048828125e+01 2.499570274353027344e+01 3.470918908715248108e-02 8.284669876098632812e+00 2.495813608169555664e+00 4.009787440299987793e-01
1.393000000000000000e+03 7.938850402832031250e+01 2.505315589904785156e+01 1.263493206351995468e-02 8.328959465026855469e+00 2.502478361129760742e+00 1.617657989263534546e-01
1.394000000000000000e+03 7.702182006835937500e+01 1.656895446777343750e+01 1.075184531509876251e-02 7.690306186676025391e+00 2.310317516326904297e+00 2.666421234607696533e-01
1.395000000000000000e+03 7.939968872070312500e+01 1.808362007141113281e+01 -8.452593348920345306e-03 7.228670120239257812e+00 2.166065216064453125e+00 7.941535115242004395e-02
1.396000000000000000e+03 7.820387268066406250e+01 1.802043151855468750e+01 2.132589556276798248e-02 7.501510620117187500e+00 2.256850957870483398e+00 1.955884397029876709e-01
1.397000000000000000e+03 7.820942687988281250e+01 1.525256729125976562e+01 -6.497770082205533981e-03 7.282085418701171875e+00 2.182676315307617188e+00 1.965070813894271851e-01
1.398000000000000000e+03 7.441927337646484375e+01 9.702297210693359375e+00 -1.391693651676177979e-01 8.598402023315429688e+00 2.537769794464111328e+00 5.446068644523620605e-01
1.399000000000000000e+03 7.817151641845703125e+01 1.110395622253417969e+01 -3.011717088520526886e-02 6.889962196350097656e+00 2.057953596115112305e+00 2.959243059158325195e-01
1.400000000000000000e+03 7.693346405029296875e+01 8.273495674133300781e+00 2.165578119456768036e-02 7.219526767730712891e+00 2.172354698181152344e+00 4.807021915912628174e-01
1.401000000000000000e+03 7.939060211181640625e+01 -1.953104972839355469e+01 -5.797192826867103577e-02 8.417655944824218750e+00 2.507905244827270508e+00 1.482170373201370239e-01
1.402000000000000000e+03 7.810044097900390625e+01 -2.093254470825195312e+01 -1.393232643604278564e-01 7.894510269165039062e+00 2.326556205749511719e+00 5.511278510093688965e-01
1.403000000000000000e+03 7.816543579101562500e+01 -1.414002513885498047e+01 -6.536400318145751953e-02 8.047404289245605469e+00 2.394612073898315430e+00 -2.277909219264984131e-01
1.404000000000000000e+03 7.804528808593750000e+01 -7.176205158233642578e+00 -1.321044377982616425e-02 7.093429088592529297e+00 2.124065637588500977e+00 -4.437528550624847412e-01
1.405000000000000000e+03 7.814494323730468750e+01 1.283937335014343262e+00 1.060390993952751160e-01 6.047376155853271484e+00 1.846024513244628906e+00 -1.251550167798995972e-01
1.406000000000000000e+03 7.939260864257812500e+01 2.920522117614746094e+01 3.493102500215172768e-03 9.404534339904785156e+00 2.822408437728881836e+00 1.881924271583557129e-01
1.407000000000000000e+03 7.799606323242187500e+01 4.167912292480468750e+01 2.928249239921569824e-01 9.944706916809082031e+00 3.071259498596191406e+00 -8.219297975301742554e-02
1.408000000000000000e+03 7.389526367187500000e+01 3.851103973388671875e+01 -1.769857257604598999e-01 6.843128204345703125e+00 1.999842762947082520e+00 1.052199080586433411e-01
1.409000000000000000e+03 7.924732208251953125e+01 3.472306442260742188e+01 -4.776910878717899323e-03 1.046211719512939453e+01 3.137202024459838867e+00 8.954126387834548950e-02
1.410000000000000000e+03 7.575023651123046875e+01 3.686847686767578125e+01 -2.662433385848999023e-01 8.357617378234863281e+00 2.427412271499633789e+00 2.388289272785186768e-01
1.411000000000000000e+03 7.245364379882812500e+01 4.979294776916503906e+00 4.465561211109161377e-01 1.032468986511230469e+01 3.231373786926269531e+00 3.393709361553192139e-01
1.412000000000000000e+03 7.938861846923828125e+01 4.150678634643554688e+00 2.577834762632846832e-02 5.173713207244873047e+00 1.559847354888916016e+00 5.517329648137092590e-02
1.413000000000000000e+03 7.817984771728515625e+01 4.094440937042236328e+00 9.186652302742004395e-02 6.077789783477783203e+00 1.850896835327148438e+00 1.453842222690582275e-01
1.414000000000000000e+03 7.690563964843750000e+01 1.229418277740478516e+00 2.442009150981903076e-01 6.815763473510742188e+00 2.117989301681518555e+00 -1.363648772239685059e-01
1.415000000000000000e+03 7.813132476806640625e+01 -2.941727638244628906e+00 3.751177340745925903e-02 6.450795650482177734e+00 1.946492195129394531e+00 -4.133042395114898682e-01
1.416000000000000000e+03 7.936493682861328125e+01 -4.244112491607666016e+00 -1.828300068154931068e-03 6.267665386199951172e+00 1.879751086235046387e+00 -1.829851120710372925e-01
1.417000000000000000e+03 7.806698608398437500e+01 -5.774905204772949219e+00 -6.474943365901708603e-03 6.878628253936767578e+00 2.061645984649658203e+00 -4.576295614242553711e-01
1.418000000000000000e+03 7.807353210449218750e+01 -9.975371360778808594e+00 -2.783295325934886932e-02 7.509566307067871094e+00 2.244519948959350586e+00 -3.951179087162017822e-01
1.419000000000000000e+03 7.936731719970703125e+01 -1.121898937225341797e+01 -1.364457421004772186e-02 8.027867317199707031e+00 2.404266834259033203e+00 -1.432957649230957031e-01
1.420000000000000000e+03 7.813612365722656250e+01 -1.276185226440429688e+01 -5.217072740197181702e-02 7.889933586120605469e+00 2.351328849792480469e+00 -3.004360795021057129e-01
1.421000000000000000e+03 7.821399688720703125e+01 -1.685716247558593750e+01 -1.077627018094062805e-01 8.221096992492675781e+00 2.434000253677368164e+00 7.430077675962820649e-05
1.422000000000000000e+03 7.940479278564453125e+01 -1.814636421203613281e+01 -1.545733679085969925e-02 8.661117553710937500e+00 2.593698024749755859e+00 6.407280266284942627e-02
1.423000000000000000e+03 7.821785736083984375e+01 -1.820417594909667969e+01 -1.407791525125503540e-01 8.198790550231933594e+00 2.417403221130371094e+00 1.663651019334793091e-01
1.424000000000000000e+03 7.105279541015625000e+01 1.278942394256591797e+01 -3.149918019771575928e-01 9.225664138793945312e+00 2.673201560974121094e+00 -1.550590097904205322e-01
1.425000000000000000e+03 5.364651489257812500e+01 -1.519447803497314453e+01 -1.787714481353759766e+00 2.254296839237213135e-01 -4.686854183673858643e-01 8.611576557159423828e-01
1.426000000000000000e+03 5.206538772583007812e+01 3.332275390625000000e+01 -2.316910959780216217e-02 4.836628735065460205e-01 1.381481289863586426e-01 2.459033578634262085e-01
1.427000000000000000e+03 4.831660842895507812e+01 3.633297729492187500e+01 -5.240309238433837891e-01 2.391726255416870117e+00 5.603086352348327637e-01 5.726624727249145508e-01
1.428000000000000000e+03 6.580805969238281250e+01 3.325064468383789062e+01 -9.047842621803283691e-01 3.668913617730140686e-02 -2.604285478591918945e-01 4.932201802730560303e-01
1.429000000000000000e+03 7.098247528076171875e+01 2.442820549011230469e+01 3.829525411128997803e-01 8.527754783630371094e+00 2.673212289810180664e+00 -1.166600435972213745e-01
1.430000000000000000e+03 6.966564941406250000e+01 1.159984016418457031e+01 -4.030181765556335449e-01 7.868488788604736328e+00 2.239641189575195312e+00 6.693817675113677979e-02
1.431000000000000000e+03 4.713904953002929688e+01 -2.760581970214843750e+00 6.487200260162353516e-01 6.212600708007812500e+00 2.058396100997924805e+00 -2.528706073760986328e+00
1.432000000000000000e+03 5.944804382324218750e+01 3.840232086181640625e+01 -2.383767217397689819e-01 -3.307933211326599121e-01 -1.707510203123092651e-01 1.730739176273345947e-01
1.433000000000000000e+03 6.643881988525390625e+01 -8.890030860900878906e+00 8.577951192855834961e-01 3.789405822753906250e+00 1.394160270690917969e+00 1.691451072692871094e+00
1.434000000000000000e+03 7.032397460937500000e+01 2.900083923339843750e+01 1.080808788537979126e-01 6.258216381072998047e+00 1.909889221191406250e+00 -2.462849169969558716e-01
1.435000000000000000e+03 6.295796585083007812e+01 -1.341171741485595703e+01 1.233558058738708496e+00 1.290286898612976074e+00 7.571534514427185059e-01 1.179174065589904785e+00
1.436000000000000000e+03 6.474480438232421875e+01 -1.319178390502929688e+01 9.111874103546142578e-01 2.036136150360107422e+00 8.841970562934875488e-01 1.093584775924682617e+00
1.437000000000000000e+03 6.998829650878906250e+01 1.724671173095703125e+01 2.942388318479061127e-02 9.641303062438964844e+00 2.901217937469482422e+00 1.208539530634880066e-01
1.438000000000000000e+03 6.602147674560546875e+01 3.563532257080078125e+01 -6.192511916160583496e-01 1.122523188591003418e+00 1.509815752506256104e-01 -1.685876697301864624e-01
1.439000000000000000e+03 4.113695907592773438e+01 1.488053131103515625e+01 6.687708497047424316e-01 9.632647514343261719e+00 3.090425491333007812e+00 4.233189821243286133e-01
1.440000000000000000e+03 4.570775222778320312e+01 2.889072418212890625e+01 3.267562091350555420e-01 3.746250152587890625e+00 1.221901893615722656e+00 1.171726107597351074e+00
1.441000000000000000e+03 4.325941085815429688e+01 2.338493156433105469e+01 7.810569405555725098e-01 6.148598670959472656e+00 2.078896760940551758e+00 1.585731506347656250e+00
1.442000000000000000e+03 4.661270141601562500e+01 3.015151977539062500e+01 2.330096513032913208e-01 3.226119041442871094e+00 1.037738680839538574e+00 1.066127896308898926e+00
1.443000000000000000e+03 4.379106140136718750e+01 2.475028038024902344e+01 6.734159588813781738e-01 5.562148571014404297e+00 1.870669364929199219e+00 1.574697256088256836e+00
1.444000000000000000e+03 6.892156219482421875e+01 3.206947326660156250e+01 -6.955315470695495605e-01 3.910474300384521484e+00 9.644828438758850098e-01 -4.035943746566772461e-01
1.445000000000000000e+03 6.786285400390625000e+01 3.321011352539062500e+01 -7.142616510391235352e-01 2.655603647232055664e+00 5.824025869369506836e-01 -3.520005941390991211e-01
1.446000000000000000e+03 4.850724792480468750e+01 -1.094388008117675781e+01 -3.952763974666595459e-01 6.293740749359130859e+00 1.769539356231689453e+00 -9.973204731941223145e-01
1.447000000000000000e+03 4.355614471435546875e+01 2.031781387329101562e+01 7.261490225791931152e-01 7.634956359863281250e+00 2.508331537246704102e+00 2.127040624618530273e+00
1.448000000000000000e+03 4.925823974609375000e+01 -4.857505321502685547e+00 6.490586400032043457e-01 6.515441894531250000e+00 2.149350166320800781e+00 -2.154671430587768555e+00
1.449000000000000000e+03 4.731181716918945312e+01 -7.012656211853027344e+00 8.575488626956939697e-02 6.395572185516357422e+00 1.944398164749145508e+00 -1.883458137512207031e+00
1.450000000000000000e+03 4.228548431396484375e+01 2.065226364135742188e+01 7.248067855834960938e-01 7.361032485961914062e+00 2.425751686096191406e+00 1.533083200454711914e+00
1.451000000000000000e+03 7.083243560791015625e+01 1.149344539642333984e+01 -6.552230119705200195e-01 9.504778861999511719e+00 2.654866933822631836e+00 6.546239368617534637e-03
1.452000000000000000e+03 5.270006942749023438e+01 -1.600625228881835938e+01 -2.436529874801635742e+00 2.792931079864501953e+00 1.069203689694404602e-01 -1.860725134611129761e-01
1.453000000000000000e+03 6.232467651367187500e+01 -1.506245517730712891e+01 3.916948437690734863e-01 1.134162902832031250e+00 4.577573537826538086e-01 9.287462830543518066e-01
1.454000000000000000e+03 4.105996322631835938e+01 1.339208412170410156e+01 6.898869276046752930e-01 1.015802669525146484e+01 3.254374027252197266e+00 -3.146555423736572266e-01
1.455000000000000000e+03 7.034781646728515625e+01 -2.797632694244384766e+00 4.557964801788330078e-01 8.984952926635742188e+00 2.832224845886230469e+00 1.347520828247070312e+00
1.456000000000000000e+03 7.025690460205078125e+01 3.315765142440795898e+00 1.634333282709121704e-01 1.294553470611572266e+01 3.932690382003784180e+00 2.975538372993469238e-01
1.457000000000000000e+03 4.139291381835937500e+01 5.314706325531005859e+00 1.456854939460754395e+00 7.907853603363037109e+00 2.809412479400634766e+00 -2.294568300247192383e+00
1.458000000000000000e+03 4.807043075561523438e+01 -5.300680160522460938e+00 4.851893484592437744e-01 6.351393222808837891e+00 2.050974845886230469e+00 -2.141883373260498047e+00
1.459000000000000000e+03 4.832613754272460938e+01 -2.255803823471069336e+00 8.159378767013549805e-01 6.088057041168212891e+00 2.071198463439941406e+00 -2.403162002563476562e+00
1.460000000000000000e+03 7.068360900878906250e+01 2.743979835510253906e+01 3.146647810935974121e-01 7.248501777648925781e+00 2.268949985504150391e+00 -2.225658446550369263e-01
1.461000000000000000e+03 6.987336730957031250e+01 -4.194223880767822266e+00 4.659463763236999512e-01 7.980885982513427734e+00 2.534049749374389648e+00 1.402414560317993164e+00
1.462000000000000000e+03 4.524333953857421875e+01 3.952440738677978516e+00 1.833558201789855957e+00 6.640955448150634766e+00 2.542354106903076172e+00 -3.513220548629760742e+00
1.463000000000000000e+03 4.497916412353515625e+01 2.751954460144042969e+01 5.045104026794433594e-01 4.268049240112304688e+00 1.431767821311950684e+00 1.353242874145507812e+00
1.464000000000000000e+03 6.000428771972656250e+01 -1.673165321350097656e+01 -1.247407674789428711e+00 8.306593894958496094e-01 -1.250244826078414917e-01 1.067534089088439941e+00
1.465000000000000000e+03 4.662091445922851562e+01 -1.518539786338806152e+00 7.626168727874755859e-01 6.269622802734375000e+00 2.109671831130981445e+00 -2.672003746032714844e+00
1.466000000000000000e+03 6.877880096435546875e+01 -6.918819427490234375e+00 4.448466897010803223e-01 6.021709918975830078e+00 1.939967036247253418e+00 1.364174842834472656e+00
1.467000000000000000e+03 4.932259750366210938e+01 -9.225544929504394531e+00 1.250103712081909180e-01 6.192364692687988281e+00 1.895212531089782715e+00 -1.446958899497985840e+00
1.468000000000000000e+03 6.815906524658203125e+01 -8.259008407592773438e+00 5.260385870933532715e-01 5.060657978057861328e+00 1.676008939743041992e+00 1.340043067932128906e+00
1.469000000000000000e+03 7.022432708740234375e+01 4.741736412048339844e+00 1.212596148252487183e-02 1.242355155944824219e+01 3.730703115463256836e+00 7.720938324928283691e-02
1.470000000000000000e+03 7.096106719970703125e+01 9.001346588134765625e+00 -6.532681733369827271e-02 1.018647956848144531e+01 3.036345720291137695e+00 5.588119104504585266e-02
1.471000000000000000e+03 7.182213592529296875e+01 1.030308532714843750e+01 -4.898301959037780762e-01 9.721344947814941406e+00 2.769454479217529297e+00 2.570150792598724365e-01
1.472000000000000000e+03 4.185968399047851562e+01 1.927517509460449219e+01 6.296479105949401855e-01 7.968920230865478516e+00 2.579570293426513672e+00 1.332887768745422363e+00
1.473000000000000000e+03 6.644052124023437500e+01 -1.262118911743164062e+01 7.239938378334045410e-01 2.961438894271850586e+00 1.105629801750183105e+00 9.721099138259887695e-01
1.474000000000000000e+03 4.973133087158203125e+01 -1.057641696929931641e+01 -7.260768860578536987e-02 5.986782550811767578e+00 1.774252414703369141e+00 -1.148967623710632324e+00
1.475000000000000000e+03 5.137085342407226562e+01 -1.152750301361083984e+01 2.676165103912353516e-01 5.189142704010009766e+00 1.637027740478515625e+00 -1.257562637329101562e+00
1.476000000000000000e+03 5.016108322143554688e+01 -1.197771263122558594e+01 -1.769347339868545532e-01 5.602185249328613281e+00 1.627575159072875977e+00 -8.039941787719726562e-01
1.477000000000000000e+03 4.982934951782226562e+01 3.342118453979492188e+01 -9.945829212665557861e-02 1.630461335182189941e+00 4.593009054660797119e-01 6.217156648635864258e-01
1.478000000000000000e+03 6.934015655517578125e+01 -5.564309597015380859e+00 4.260916113853454590e-01 6.929188251495361328e+00 2.206583976745605469e+00 1.378913164138793945e+00
1.479000000000000000e+03 4.435792541503906250e+01 2.612454986572265625e+01 5.980721712112426758e-01 4.926563262939453125e+00 1.657390594482421875e+00 1.515441656112670898e+00
1.480000000000000000e+03 4.141008758544921875e+01 8.774519920349121094e+00 1.864194869995117188e+00 9.899454116821289062e+00 3.529094696044921875e+00 -1.941695451736450195e+00
1.481000000000000000e+03 4.191083145141601562e+01 7.288778305053710938e+00 1.723916292190551758e+00 9.349944114685058594e+00 3.322158336639404297e+00 -2.591722488403320312e+00
1.482000000000000000e+03 4.335967636108398438e+01 4.600424289703369141e+00 1.521601319313049316e+00 7.714057445526123047e+00 2.770697593688964844e+00 -3.087951898574829102e+00
1.483000000000000000e+03 4.260503768920898438e+01 5.899464607238769531e+00 1.646556615829467773e+00 8.299943923950195312e+00 2.983950138092041016e+00 -2.940572500228881836e+00
1.484000000000000000e+03 4.760567092895507812e+01 3.134343147277832031e+01 9.664285182952880859e-02 2.597821235656738281e+00 8.083392381668090820e-01 9.229685068130493164e-01
1.485000000000000000e+03 6.992940521240234375e+01 2.145319938659667969e+01 -9.117620997130870819e-03 9.191288948059082031e+00 2.754651308059692383e+00 5.572034046053886414e-02
1.486000000000000000e+03 7.104994201660156250e+01 2.299197959899902344e+01 2.124177217483520508e-01 8.804685592651367188e+00 2.705131053924560547e+00 -2.917690761387348175e-02
1.487000000000000000e+03 4.370218276977539062e+01 1.549664139747619629e+00 1.024281978607177734e+00 6.701310157775878906e+00 2.317677736282348633e+00 -2.845867156982421875e+00
1.488000000000000000e+03 7.109179687500000000e+01 2.158369445800781250e+01 1.048651710152626038e-01 9.000516891479492188e+00 2.731614589691162109e+00 8.951341360807418823e-02
1.489000000000000000e+03 7.583375549316406250e+01 1.513835144042968750e+01 -3.347663953900337219e-02 7.966586112976074219e+00 2.379932880401611328e+00 3.114157021045684814e-01
1.490000000000000000e+03 7.116486358642578125e+01 1.879405212402343750e+01 4.844510555267333984e-02 9.175283432006835938e+00 2.767118453979492188e+00 2.263524830341339111e-01
1.491000000000000000e+03 8.731788396835327148e-01 3.735888290405273438e+01 -2.815648214891552925e-03 2.257565736770629883e+00 6.764250397682189941e-01 -3.712668269872665405e-02
1.492000000000000000e+03 7.517855763435363770e-01 3.458926010131835938e+01 -2.122804755344986916e-03 2.130459785461425781e+00 6.385011076927185059e-01 -3.178816288709640503e-02
1.493000000000000000e+03 7.292124032974243164e-01 3.318561172485351562e+01 -2.217099070549011230e-03 2.065329074859619141e+00 6.189335584640502930e-01 -3.590450808405876160e-02
1.494000000000000000e+03 6.691098213195800781e-01 2.752547264099121094e+01 2.220192400272935629e-04 1.704458832740783691e+00 5.114042758941650391e-01 -5.318962782621383667e-02
1.495000000000000000e+03 6.477583646774291992e-01 2.611004447937011719e+01 -2.500147325918078423e-03 1.587282896041870117e+00 4.754348099231719971e-01 -5.506713688373565674e-02
1.496000000000000000e+03 3.196671009063720703e+00 2.554187393188476562e+01 -2.467479370534420013e-02 1.932564854621887207e+00 5.723670125007629395e-01 -2.420601546764373779e-01
1.497000000000000000e+03 3.078764438629150391e+00 2.413588142395019531e+01 -2.445906959474086761e-02 1.827787876129150391e+00 5.409986376762390137e-01 -2.562896013259887695e-01
1.498000000000000000e+03 2.241459846496582031e+00 3.429954910278320312e+01 -9.921628981828689575e-03 2.258576154708862305e+00 6.745963692665100098e-01 -9.789630025625228882e-02
1.499000000000000000e+03 2.188048124313354492e+00 3.293541336059570312e+01 -1.131808198988437653e-02 2.186607599258422852e+00 6.525868773460388184e-01 -1.057477593421936035e-01
1.500000000000000000e+03 3.386837005615234375e+00 3.924203109741210938e+01 -2.241385355591773987e-02 2.399116992950439453e+00 7.130109667778015137e-01 -6.279234588146209717e-02
1.501000000000000000e+03 5.673046112060546875e-01 2.047451210021972656e+01 -1.162171247415244579e-03 1.006389260292053223e+00 3.015681207180023193e-01 -6.754381954669952393e-02
1.502000000000000000e+03 5.537194013595581055e-01 1.907670974731445312e+01 -1.320755109190940857e-03 8.305034637451171875e-01 2.487547993659973145e-01 -7.053019851446151733e-02
1.503000000000000000e+03 5.275619626045227051e-01 1.489194679260253906e+01 -9.527005022391676903e-04 2.126312851905822754e-01 6.350357085466384888e-02 -8.506654202938079834e-02
1.504000000000000000e+03 5.249602198600769043e-01 1.349380111694335938e+01 -4.031724296510219574e-03 -2.513952925801277161e-02 -8.751376532018184662e-03 -9.133403748273849487e-02
1.505000000000000000e+03 4.564949870109558105e-01 7.844727039337158203e+00 1.577305048704147339e-02 -9.344592094421386719e-01 -2.756058573722839355e-01 -4.981784150004386902e-02
1.506000000000000000e+03 4.097160995006561279e-01 6.438085079193115234e+00 1.048760861158370972e-02 -1.020724654197692871e+00 -3.030711114406585693e-01 -6.369322072714567184e-03
1.507000000000000000e+03 3.411533832550048828e-01 5.043425083160400391e+00 1.189526356756687164e-02 -9.617427587509155273e-01 -2.849542498588562012e-01 3.414249792695045471e-02
1.508000000000000000e+03 3.926747083663940430e+00 1.649119973182678223e+00 -2.808510661125183105e-01 -3.888776898384094238e-02 -9.592165052890777588e-02 4.457562863826751709e-01
1.509000000000000000e+03 1.640782713890075684e+00 1.065168094635009766e+01 1.622650772333145142e-02 3.467795252799987793e-02 1.527133863419294357e-02 -2.586568295955657959e-01
1.510000000000000000e+03 5.396274328231811523e-01 1.067494392395019531e+01 4.810128826647996902e-03 -5.270494818687438965e-01 -1.566718071699142456e-01 -9.231835603713989258e-02
1.511000000000000000e+03 1.577129244804382324e+00 1.345705890655517578e+01 -1.142969354987144470e-02 3.813801407814025879e-01 1.109851375222206116e-01 -2.531618177890777588e-01
1.512000000000000000e+03 1.667370915412902832e+00 1.888147926330566406e+01 -1.131501700729131699e-02 1.080911278724670410e+00 3.208788931369781494e-01 -2.036263644695281982e-01
1.513000000000000000e+03 1.868571281433105469e+00 2.442292022705078125e+01 -1.015408057719469070e-02 1.636548161506652832e+00 4.879182279109954834e-01 -1.654863357543945312e-01
1.514000000000000000e+03 1.114522695541381836e+00 1.668645381927490234e+00 -4.904722794890403748e-02 -1.928323358297348022e-01 -7.256386429071426392e-02 2.212569266557693481e-01
1.515000000000000000e+03 1.351063823699951172e+01 -1.353012752532958984e+01 -2.491685867309570312e+00 3.341133594512939453e+00 2.548343241214752197e-01 2.324216365814208984e+00
1.516000000000000000e+03 1.097781276702880859e+01 -1.484227085113525391e+01 -2.998551130294799805e-01 8.789916992187500000e+00 2.547018527984619141e+00 3.123969793319702148e+00
1.517000000000000000e+03 1.154006576538085938e+01 1.117862105369567871e+00 4.934685707092285156e+00 1.237877845764160156e+01 5.194039344787597656e+00 4.523070335388183594e+00
1.518000000000000000e+03 9.443518519401550293e-01 -1.924366593360900879e+00 5.702954903244972229e-02 -7.099503278732299805e-02 -4.189645871520042419e-03 -7.822764664888381958e-02
1.519000000000000000e+03 2.210885286331176758e+00 -1.980658888816833496e+00 2.569617927074432373e-01 2.075029611587524414e-01 1.393394321203231812e-01 6.439229100942611694e-02
1.520000000000000000e+03 3.918704032897949219e+00 -1.662284493446350098e+00 6.786627173423767090e-01 2.980272173881530762e-01 2.930069565773010254e-01 4.569411575794219971e-01
1.521000000000000000e+03 4.321060657501220703e+00 -1.659752845764160156e+00 8.628476262092590332e-01 3.517808020114898682e-01 3.643885254859924316e-01 5.958299636840820312e-01
1.522000000000000000e+03 4.715030670166015625e+00 -1.624531269073486328e+00 1.122618079185485840e+00 3.454191982746124268e-01 4.404111802577972412e-01 7.516360878944396973e-01
1.523000000000000000e+03 6.114546775817871094e+00 -1.640532732009887695e+00 2.282082796096801758e+00 6.888841390609741211e-01 8.912900686264038086e-01 1.640828967094421387e+00
1.524000000000000000e+03 6.915362834930419922e+00 -1.844333410263061523e+00 3.301245450973510742e+00 1.304216146469116211e+00 1.381638526916503906e+00 2.698610782623291016e+00
1.525000000000000000e+03 7.886063575744628906e+00 -1.653435230255126953e+00 4.640316009521484375e+00 2.331648111343383789e+00 2.091589212417602539e+00 3.989624738693237305e+00
1.526000000000000000e+03 8.052049636840820312e+00 -1.990644097328186035e+00 4.417449951171875000e+00 3.390694856643676758e+00 2.342443466186523438e+00 4.727362155914306641e+00
1.527000000000000000e+03 8.524695396423339844e+00 -1.700269579887390137e+00 5.315290927886962891e+00 4.379732131958007812e+00 2.908506870269775391e+00 5.583364963531494141e+00
1.528000000000000000e+03 8.303535461425781250e+00 -1.700121045112609863e+00 5.077079296112060547e+00 3.635155916213989258e+00 2.613670587539672852e+00 5.028996944427490234e+00
1.529000000000000000e+03 8.917279243469238281e+00 -1.622796297073364258e+00 5.594401359558105469e+00 6.142019271850585938e+00 3.520926237106323242e+00 6.411083221435546875e+00
1.530000000000000000e+03 9.088467597961425781e+00 1.604886293411254883e+00 1.704869866371154785e+00 4.563290119171142578e+00 1.880447983741760254e+00 -2.899075031280517578e+00
1.531000000000000000e+03 8.898589134216308594e+00 1.789068341255187988e+00 1.663143634796142578e+00 3.823845386505126953e+00 1.646096706390380859e+00 -2.518875360488891602e+00
1.532000000000000000e+03 8.543290138244628906e+00 1.842945456504821777e+00 1.626007199287414551e+00 2.535889148712158203e+00 1.248568892478942871e+00 -1.950072407722473145e+00
1.533000000000000000e+03 8.200805664062500000e+00 1.918311119079589844e+00 1.458631873130798340e+00 1.752868175506591797e+00 9.634500145912170410e-01 -1.450014948844909668e+00
1.534000000000000000e+03 6.435125350952148438e+00 1.895104050636291504e+00 2.554975748062133789e-01 1.671680063009262085e-01 1.267996728420257568e-01 9.279379248619079590e-02
1.535000000000000000e+03 6.464858531951904297e+00 1.646321058273315430e+00 2.795010246336460114e-02 1.084850281476974487e-01 4.093053936958312988e-02 1.602632701396942139e-01
1.536000000000000000e+03 5.708015441894531250e+00 1.641851425170898438e+00 -1.783300638198852539e-01 4.642577841877937317e-02 -3.957128524780273438e-02 3.467369675636291504e-01
1.537000000000000000e+03 5.497669696807861328e+00 1.679543852806091309e+00 -1.854867190122604370e-01 2.510522678494453430e-02 -4.811444878578186035e-02 3.648189008235931396e-01
1.538000000000000000e+03 5.029477119445800781e+00 1.904164552688598633e+00 -1.027709916234016418e-01 1.763812452554702759e-02 -2.553986012935638428e-02 3.855424523353576660e-01
1.539000000000000000e+03 5.077659130096435547e+00 1.644799470901489258e+00 -2.665158510208129883e-01 -3.395648440346121788e-03 -8.097345381975173950e-02 3.971196413040161133e-01
1.540000000000000000e+03 3.729293107986450195e+00 1.672624588012695312e+00 -2.655012607574462891e-01 -4.139237105846405029e-02 -9.206809103488922119e-02 4.414044916629791260e-01
1.541000000000000000e+03 3.526510715484619141e+00 1.698982596397399902e+00 -2.432828843593597412e-01 -4.941281303763389587e-02 -8.780870586633682251e-02 4.391081631183624268e-01
1.542000000000000000e+03 3.811107158660888672e+00 2.309849023818969727e+00 5.552150309085845947e-03 -3.645996749401092529e-02 -9.272345341742038727e-03 4.177300930023193359e-01
1.543000000000000000e+03 3.316687345504760742e+00 1.724076628684997559e+00 -2.249605655670166016e-01 -6.325670331716537476e-02 -8.646517992019653320e-02 4.315308928489685059e-01
1.544000000000000000e+03 1.607389807701110840e+00 2.470472097396850586e+00 -1.623435132205486298e-02 -2.425584644079208374e-01 -7.763784378767013550e-02 3.303014934062957764e-01
1.545000000000000000e+03 1.165138053894042969e+01 1.233229115605354309e-01 9.696434020996093750e+00 1.083804225921630859e+01 6.160342693328857422e+00 3.786127567291259766e+00
1.546000000000000000e+03 1.176152610778808594e+01 1.123830795288085938e+00 5.131256103515625000e+00 1.145382118225097656e+01 4.975522994995117188e+00 4.496900558471679688e+00
1.547000000000000000e+03 1.115284252166748047e+01 1.751420378684997559e+00 1.770291566848754883e+00 1.275066566467285156e+01 4.356287479400634766e+00 2.581167936325073242e+00
1.548000000000000000e+03 1.012242221832275391e+01 -1.598465204238891602e+00 4.097529888153076172e+00 1.450816822052001953e+01 5.581709384918212891e+00 5.197598934173583984e+00
1.549000000000000000e+03 1.039684486389160156e+01 -2.139624118804931641e+00 2.780912399291992188e+00 1.282888031005859375e+01 4.682938098907470703e+00 3.965237617492675781e+00
1.550000000000000000e+03 1.140157890319824219e+01 1.710889577865600586e+00 2.412273883819580078e+00 1.225676441192626953e+01 4.400711536407470703e+00 3.194686412811279297e+00
1.551000000000000000e+03 1.151747226715087891e+01 -7.653861045837402344e-01 9.014157295227050781e+00 1.170338535308837891e+01 6.215262889862060547e+00 9.859045743942260742e-01
1.552000000000000000e+03 1.035159111022949219e+01 1.645424485206604004e+00 5.194578766822814941e-01 1.306086826324462891e+01 4.074097633361816406e+00 -5.597317218780517578e-01
1.553000000000000000e+03 1.612129449844360352e+00 2.039933443069458008e+00 -6.217474117875099182e-02 -1.942126005887985229e-01 -7.691620290279388428e-02 3.231496810913085938e-01
1.554000000000000000e+03 1.146502614021301270e+00 2.000494003295898438e+00 -3.615850582718849182e-02 -2.581284046173095703e-01 -8.828607201576232910e-02 2.570568025112152100e-01
1.555000000000000000e+03 1.063402462005615234e+01 -1.370440292358398438e+01 -1.917240262031555176e+00 8.503950119018554688e+00 1.976013064384460449e+00 2.748178005218505859e+00
1.556000000000000000e+03 9.386678695678710938e+00 -1.651026535034179688e+01 1.525268912315368652e+00 1.087145805358886719e+01 3.719017982482910156e+00 3.206506729125976562e+00
1.557000000000000000e+03 7.081358337402343750e+01 1.026419544219970703e+01 -5.636194348335266113e-01 9.554826736450195312e+00 2.697362184524536133e+00 8.472526073455810547e-02
1.558000000000000000e+03 7.222677612304687500e+01 1.241755771636962891e+01 -3.578002154827117920e-01 9.201908111572265625e+00 2.653232336044311523e+00 1.543800681829452515e-01
1.559000000000000000e+03 3.173009300231933594e+01 -1.511472702026367188e+01 -2.443482398986816406e+00 7.071600556373596191e-01 -5.208966732025146484e-01 -5.127396807074546814e-02
1.560000000000000000e+03 3.201002883911132812e+01 -1.393402099609375000e+01 -2.028589487075805664e+00 1.114914655685424805e+00 -2.741024792194366455e-01 -5.743987560272216797e-01
1.561000000000000000e+03 2.909740257263183594e+01 -1.558623600006103516e+01 -3.328997373580932617e+00 1.181052550673484802e-01 -9.632676243782043457e-01 7.229055762290954590e-01
1.562000000000000000e+03 3.025190925598144531e+01 -3.704437255859375000e+01 -1.342688918113708496e+00 -2.047038227319717407e-01 -4.642178416252136230e-01 -6.464314460754394531e-02
1.563000000000000000e+03 3.185421562194824219e+01 -3.507887649536132812e+01 -1.863696813583374023e+00 -9.764789044857025146e-02 -5.884034037590026855e-01 -1.556598246097564697e-01
1.564000000000000000e+03 3.389291381835937500e+01 -1.669986152648925781e+01 -2.199215173721313477e+00 4.019250571727752686e-01 -5.391870141029357910e-01 -2.083402574062347412e-01
1.565000000000000000e+03 4.486581420898437500e+01 -3.739777565002441406e+00 2.631138265132904053e-01 6.278723716735839844e+00 1.962551355361938477e+00 -2.436172962188720703e+00
1.566000000000000000e+03 5.988101959228515625e+00 -3.360358810424804688e+01 -1.242474794387817383e+00 7.943921566009521484e+00 2.010434150695800781e+00 5.203630924224853516e-01
1.567000000000000000e+03 4.494176864624023438e+01 -8.366725444793701172e-01 7.408165335655212402e-01 6.355482101440429688e+00 2.128889560699462891e+00 -2.730389833450317383e+00
1.568000000000000000e+03 4.479495620727539062e+01 2.143888473510742188e+00 1.287304401397705078e+00 6.641000270843505859e+00 2.378491401672363281e+00 -3.120856285095214844e+00
1.569000000000000000e+03 6.078511047363281250e+01 -2.213654708862304688e+01 6.992020010948181152e-01 1.144937872886657715e+00 5.532419681549072266e-01 1.318015456199645996e+00
1.570000000000000000e+03 4.889412307739257812e+01 -1.233371639251708984e+01 -7.776058316230773926e-01 6.135940074920654297e+00 1.607500314712524414e+00 -5.411402583122253418e-01
1.571000000000000000e+03 2.862867355346679688e+01 -3.268001556396484375e+01 -1.884168148040771484e+00 -9.063462726771831512e-03 -5.679694414138793945e-01 2.298692315816879272e-01
1.572000000000000000e+03 3.016107940673828125e+01 -3.551194381713867188e+01 -1.651050806045532227e+00 -1.015502065420150757e-01 -5.257803201675415039e-01 3.055426059290766716e-03
1.573000000000000000e+03 7.700633239746093750e+01 1.248346614837646484e+01 -7.550447434186935425e-02 7.502406120300292969e+00 2.228070497512817383e+00 3.405795693397521973e-01
1.574000000000000000e+03 4.891590499877929688e+01 -7.901320457458496094e+00 2.377714961767196655e-01 6.374871253967285156e+00 1.983792781829833984e+00 -1.718375682830810547e+00
1.575000000000000000e+03 4.811347579956054688e+01 -9.606720924377441406e+00 -2.712562382221221924e-01 6.397545337677001953e+00 1.837886691093444824e+00 -1.307746171951293945e+00
1.576000000000000000e+03 4.289654159545898438e+01 2.660317230224609375e+01 2.820115685462951660e-01 5.204257011413574219e+00 1.645880579948425293e+00 1.029593229293823242e+00
1.577000000000000000e+03 4.485013198852539062e+01 -2.486420249938964844e+01 2.239186286926269531e+00 1.031919574737548828e+01 3.767514705657958984e+00 -2.231329679489135742e+00
1.578000000000000000e+03 4.470029449462890625e+01 -2.616677474975585938e+01 1.651775836944580078e+00 1.100487518310546875e+01 3.796995401382446289e+00 -1.984632372856140137e+00
1.579000000000000000e+03 4.432916164398193359e+00 -3.029643440246582031e+01 -1.251486897468566895e+00 9.300834655761718750e+00 2.414804220199584961e+00 1.925700306892395020e+00
1.580000000000000000e+03 3.177415370941162109e+00 -2.914963150024414062e+01 -6.445482373237609863e-01 9.107443809509277344e+00 2.538868665695190430e+00 2.211124420166015625e+00
1.581000000000000000e+03 4.919155597686767578e+00 -4.058828735351562500e+01 7.665394991636276245e-02 8.710505485534667969e+00 2.636147975921630859e+00 2.758806943893432617e-01
1.582000000000000000e+03 4.504307270050048828e+00 -3.808069229125976562e+01 -2.943785488605499268e-01 9.098902702331542969e+00 2.641357421875000000e+00 3.667969405651092529e-01
1.583000000000000000e+03 2.174342632293701172e+00 -3.822872161865234375e+01 -1.992772966623306274e-01 1.084688282012939453e+01 3.194281816482543945e+00 -2.474984675645828247e-01
1.584000000000000000e+03 5.156103134155273438e+00 -3.678722763061523438e+01 -4.323801696300506592e-01 8.250317573547363281e+00 2.345381259918212891e+00 2.441144287586212158e-01
1.585000000000000000e+03 1.530409693717956543e+00 -7.465116500854492188e+00 -1.590452529489994049e-02 1.907875418663024902e+00 5.675912499427795410e-01 7.074490785598754883e-01
1.586000000000000000e+03 1.626976013183593750e+00 -1.581916141510009766e+01 -2.802540361881256104e-02 3.304188966751098633e+00 9.828491210937500000e-01 -3.965716361999511719e-01
1.587000000000000000e+03 3.274724006652832031e+00 -2.633739852905273438e+01 8.331266790628433228e-02 8.113606452941894531e+00 2.459075689315795898e+00 2.830800533294677734e+00
1.588000000000000000e+03 3.215819835662841797e+00 -2.779380035400390625e+01 -3.805789351463317871e-01 8.765984535217285156e+00 2.515621662139892578e+00 2.663854837417602539e+00
1.589000000000000000e+03 1.836089253425598145e+00 -2.251776885986328125e+01 3.874557018280029297e-01 4.397314071655273438e+00 1.435430884361267090e+00 1.096364617347717285e+00
1.590000000000000000e+03 7.848279953002929688e+00 -2.054429244995117188e+01 2.742198228836059570e+00 1.561109828948974609e+01 5.505988597869873047e+00 2.880429029464721680e+00
1.591000000000000000e+03 4.095500469207763672e+00 -1.109429645538330078e+01 -8.412349820137023926e-01 5.118509769439697266e+00 1.283182501792907715e+00 9.026055335998535156e-01
1.592000000000000000e+03 2.500653982162475586e+00 -7.377887725830078125e+00 -5.005484446883201599e-02 2.440617084503173828e+00 7.171686291694641113e-01 1.068016290664672852e+00
1.593000000000000000e+03 3.465848684310913086e+00 -9.584239006042480469e+00 -5.407778620719909668e-01 4.019515514373779297e+00 1.043621301651000977e+00 1.109494686126708984e+00
1.594000000000000000e+03 2.773309707641601562e+00 -1.708536338806152344e+01 1.532515138387680054e-01 4.838009834289550781e+00 1.497378349304199219e+00 -3.931151032447814941e-01
1.595000000000000000e+03 2.697621107101440430e+00 -1.578992271423339844e+01 -8.980906009674072266e-02 4.594836235046386719e+00 1.351508140563964844e+00 -3.841712772846221924e-01
1.596000000000000000e+03 3.114031076431274414e+00 -2.241725921630859375e+01 9.858536124229431152e-01 6.422012329101562500e+00 2.222359895706176758e+00 1.567582845687866211e+00
1.597000000000000000e+03 3.186814785003662109e+00 -3.043223953247070312e+01 -7.193921804428100586e-01 9.445610046386718750e+00 2.617865324020385742e+00 1.801731944084167480e+00
1.598000000000000000e+03 1.978893280029296875e+00 -3.190034675598144531e+01 -3.219266235828399658e-01 1.027736663818359375e+01 2.986631870269775391e+00 9.709858298301696777e-01
1.599000000000000000e+03 7.208083152770996094e+00 -2.578304672241210938e+01 9.277413487434387207e-01 1.172914218902587891e+01 3.797065019607543945e+00 2.231405973434448242e+00
1.600000000000000000e+03 4.929723739624023438e+00 -2.313383293151855469e+01 1.824775457382202148e+00 9.290394783020019531e+00 3.334551095962524414e+00 2.337338209152221680e+00
1.601000000000000000e+03 3.836288213729858398e+00 -1.697442436218261719e+01 1.745555400848388672e-01 6.185805320739746094e+00 1.908108234405517578e+00 -2.045978456735610962e-01
1.602000000000000000e+03 1.770929336547851562e+00 -1.982360076904296875e+01 2.720011472702026367e-01 3.503406524658203125e+00 1.132622361183166504e+00 9.757497906684875488e-02
1.603000000000000000e+03 1.630955576896667480e+00 -1.316930675506591797e+01 -1.500822156667709351e-01 3.370897769927978516e+00 9.662446379661560059e-01 -1.108211576938629150e-01
1.604000000000000000e+03 3.677532196044921875e+00 -3.377699661254882812e+01 -7.196320295333862305e-01 9.377685546875000000e+00 2.597416162490844727e+00 7.597578167915344238e-01
1.605000000000000000e+03 3.077827930450439453e+00 -3.518889617919921875e+01 -3.938090503215789795e-01 1.011178493499755859e+01 2.915392637252807617e+00 4.372701048851013184e-01
1.606000000000000000e+03 4.299947738647460938e+01 2.752122163772583008e+00 1.133299350738525391e+00 7.093970298767089844e+00 2.468180894851684570e+00 -2.780270576477050781e+00
1.607000000000000000e+03 2.099528121948242188e+01 -3.334187698364257812e+01 -2.237031936645507812e+00 -1.423013359308242798e-01 -7.137999534606933594e-01 5.912505984306335449e-01
1.608000000000000000e+03 6.689265441894531250e+01 -2.045072174072265625e+01 -1.403122663497924805e+00 1.585143506526947021e-01 -3.733825087547302246e-01 7.087531089782714844e-01
1.609000000000000000e+03 6.360246658325195312e+01 -1.426471710205078125e+01 6.847672462463378906e-01 1.562889575958251953e+00 6.742970347404479980e-01 1.052279949188232422e+00
1.610000000000000000e+03 4.689414596557617188e+01 -5.743519306182861328e+00 2.326219081878662109e-01 6.341394901275634766e+00 1.972205042839050293e+00 -2.102577209472656250e+00
1.611000000000000000e+03 7.235694122314453125e+01 6.402863025665283203e+00 3.888132572174072266e-01 1.013044548034667969e+01 3.155777454376220703e+00 3.137528598308563232e-01
1.612000000000000000e+03 2.722765350341796875e+01 -1.357282066345214844e+01 -3.725281000137329102e+00 3.041985034942626953e-01 -1.026324748992919922e+00 4.957657754421234131e-01
1.613000000000000000e+03 2.390710639953613281e+01 -1.197649955749511719e+01 -4.560094356536865234e+00 -2.393955737352371216e-01 -1.439846992492675781e+00 1.302098780870437622e-01
1.614000000000000000e+03 7.317108917236328125e+01 -2.643844795227050781e+01 1.377095460891723633e+00 1.009216594696044922e+01 3.440778493881225586e+00 1.689595729112625122e-01
1.615000000000000000e+03 7.570469665527343750e+01 2.486570358276367188e+01 1.514355689287185669e-01 8.138966560363769531e+00 2.487120628356933594e+00 5.954564809799194336e-01
1.616000000000000000e+03 7.142901611328125000e+01 3.366165161132812500e+00 4.437203109264373779e-01 1.150403881072998047e+01 3.584327697753906250e+00 6.126312017440795898e-01
1.617000000000000000e+03 7.816661071777343750e+01 2.685268163681030273e+00 1.080873012542724609e-01 6.020125865936279297e+00 1.838463902473449707e+00 1.754731871187686920e-02
1.618000000000000000e+03 7.215287780761718750e+01 -3.874432373046875000e+01 -5.222616344690322876e-02 5.146991729736328125e+00 1.528429746627807617e+00 3.246928453445434570e-01
1.619000000000000000e+03 7.299421691894531250e+01 -3.121915817260742188e+01 8.316855132579803467e-02 7.544319152832031250e+00 2.288246393203735352e+00 -6.290221214294433594e-02
1.620000000000000000e+03 7.805155181884765625e+01 -3.327799606323242188e+01 -1.520555466413497925e-01 7.607686519622802734e+00 2.236689329147338867e+00 -4.888562262058258057e-01
1.621000000000000000e+03 7.819121551513671875e+01 2.080769538879394531e+01 3.950372338294982910e-02 7.756090164184570312e+00 2.338678121566772461e+00 2.473591119050979614e-01
1.622000000000000000e+03 7.699870300292968750e+01 2.073858261108398438e+01 5.815020203590393066e-02 7.934956073760986328e+00 2.397931814193725586e+00 3.395623266696929932e-01
1.623000000000000000e+03 7.629139709472656250e+01 3.412106323242187500e+01 -2.321653366088867188e-01 8.637733459472656250e+00 2.521670341491699219e+00 3.619225919246673584e-01
1.624000000000000000e+03 7.664946746826171875e+01 -2.223214912414550781e+01 -1.346161067485809326e-01 7.898013114929199219e+00 2.329019069671630859e+00 8.377111554145812988e-01
1.625000000000000000e+03 7.810942077636718750e+01 -2.813100051879882812e+01 1.762980967760086060e-01 6.926608562469482422e+00 2.130872011184692383e+00 -2.019284367561340332e-01
1.626000000000000000e+03 7.416379547119140625e+01 -2.851420593261718750e+01 9.843396544456481934e-01 8.609869003295898438e+00 2.878262519836425781e+00 -5.730671435594558716e-02
1.627000000000000000e+03 7.796516418457031250e+01 -2.677253913879394531e+01 3.400388360023498535e-01 6.957812786102294922e+00 2.189355373382568359e+00 9.424228966236114502e-02
1.628000000000000000e+03 7.639517974853515625e+01 -3.414022827148437500e+01 -3.456273972988128662e-01 7.503957748413085938e+00 2.147499084472656250e+00 -5.099898576736450195e-01
1.629000000000000000e+03 7.535727691650390625e+01 -2.372441482543945312e+01 3.775877356529235840e-01 8.069433212280273438e+00 2.534106254577636719e+00 8.868706822395324707e-01
1.630000000000000000e+03 7.694504547119140625e+01 -3.192070770263671875e+01 -9.691051393747329712e-02 7.518392562866210938e+00 2.226444482803344727e+00 -6.700875759124755859e-01
1.631000000000000000e+03 7.502828216552734375e+01 -3.137301254272460938e+01 1.088627707213163376e-02 7.707014560699462891e+00 2.315370321273803711e+00 -6.714113950729370117e-01
1.632000000000000000e+03 7.685286712646484375e+01 -3.301678848266601562e+01 -1.395082175731658936e-01 7.498683452606201172e+00 2.207752704620361328e+00 -5.847476124763488770e-01
1.633000000000000000e+03 7.536284637451171875e+01 -3.674809265136718750e+01 -3.720543086528778076e-01 7.245131492614746094e+00 2.061923027038574219e+00 -1.830644011497497559e-01
1.634000000000000000e+03 7.698883819580078125e+01 -3.732064437866210938e+01 -1.768041700124740601e-01 7.502706527709960938e+00 2.197770833969116211e+00 -1.064305827021598816e-01
1.635000000000000000e+03 7.817018127441406250e+01 2.360156631469726562e+01 4.949934408068656921e-02 8.081902503967285156e+00 2.439420700073242188e+00 3.394858837127685547e-01
1.636000000000000000e+03 7.697815704345703125e+01 2.213627052307128906e+01 9.355274587869644165e-02 8.007836341857910156e+00 2.430416822433471680e+00 3.922844827175140381e-01
1.637000000000000000e+03 7.693215942382812500e+01 2.493554687500000000e+01 9.857042133808135986e-02 8.207550048828125000e+00 2.491836071014404297e+00 5.277116298675537109e-01
1.638000000000000000e+03 7.702536773681640625e+01 1.520159912109375000e+01 -2.976140566170215607e-02 7.631801605224609375e+00 2.280611991882324219e+00 2.535345852375030518e-01
1.639000000000000000e+03 7.820651245117187500e+01 1.387658023834228516e+01 -2.472204342484474182e-02 7.166963577270507812e+00 2.142672538757324219e+00 2.065587937831878662e-01
1.640000000000000000e+03 7.702773284912109375e+01 1.384939956665039062e+01 -5.411927402019500732e-02 7.573501586914062500e+00 2.255814552307128906e+00 3.049558103084564209e-01
1.641000000000000000e+03 7.219697570800781250e+01 2.312782096862792969e+01 2.908989787101745605e-01 8.496516227722167969e+00 2.636224508285522461e+00 1.644205302000045776e-01
1.642000000000000000e+03 7.817085266113281250e+01 2.774611091613769531e+01 1.170813944190740585e-02 8.744748115539550781e+00 2.626936912536621094e+00 4.663262963294982910e-01
1.643000000000000000e+03 7.586398315429687500e+01 1.382527446746826172e+01 -8.997912704944610596e-02 7.961722373962402344e+00 2.361522912979125977e+00 3.006345331668853760e-01
1.644000000000000000e+03 7.818524169921875000e+01 -1.955778884887695312e+01 -1.570073217153549194e-01 8.079796791076660156e+00 2.376836776733398438e+00 3.493644893169403076e-01
1.645000000000000000e+03 7.690126037597656250e+01 -2.086718940734863281e+01 -3.352302014827728271e-01 7.847622871398925781e+00 2.253717899322509766e+00 6.696401238441467285e-01
1.646000000000000000e+03 7.804463958740234375e+01 3.176728439331054688e+01 -5.622699856758117676e-02 9.357428550720214844e+00 2.790360450744628906e+00 3.797266781330108643e-01
1.647000000000000000e+03 7.692523956298828125e+01 3.024653244018554688e+01 -8.656959980726242065e-02 8.706514358520507812e+00 2.585983276367187500e+00 5.800744891166687012e-01
1.648000000000000000e+03 7.692858123779296875e+01 9.692877769470214844e+00 -4.409460350871086121e-02 7.335665225982666016e+00 2.187471151351928711e+00 4.703192412853240967e-01
1.649000000000000000e+03 7.577455139160156250e+01 -1.579942893981933594e+01 -3.505569994449615479e-01 7.336559295654296875e+00 2.095800638198852539e+00 -2.639598250389099121e-01
1.650000000000000000e+03 7.704031372070312500e+01 -1.825775337219238281e+01 -3.154548108577728271e-01 7.875969886779785156e+00 2.268154621124267578e+00 1.832626760005950928e-01
1.651000000000000000e+03 7.538601684570312500e+01 -8.957485198974609375e+00 -6.601331382989883423e-02 7.067607402801513672e+00 2.100478172302246094e+00 -5.607437491416931152e-01
1.652000000000000000e+03 7.684834289550781250e+01 -1.155050468444824219e+01 -7.749880105257034302e-02 7.397998809814453125e+00 2.196150064468383789e+00 -4.735420048236846924e-01
1.653000000000000000e+03 7.432670593261718750e+01 -5.648230552673339844e+00 1.116697210818529129e-02 7.349717140197753906e+00 2.208265304565429688e+00 -4.680050909519195557e-01
1.654000000000000000e+03 7.687273406982421875e+01 -4.453070640563964844e+00 2.714639343321323395e-02 6.986278533935546875e+00 2.104027509689331055e+00 -5.638061761856079102e-01
1.655000000000000000e+03 7.696133422851562500e+01 6.855016708374023438e+00 9.698934108018875122e-02 7.077289104461669922e+00 2.152283430099487305e+00 4.366070926189422607e-01
1.656000000000000000e+03 7.578655242919921875e+01 3.825278472900390625e+01 -2.413315773010253906e-01 8.801131248474121094e+00 2.567939996719360352e+00 3.913743197917938232e-01
1.657000000000000000e+03 7.726579284667968750e+01 3.837892150878906250e+01 -1.758701801300048828e-01 9.518110275268554688e+00 2.802671909332275391e+00 -1.974619925022125244e-01
1.658000000000000000e+03 7.576325988769531250e+01 2.896983528137207031e+01 -4.417237639427185059e-02 8.216866493225097656e+00 2.451808214187622070e+00 7.200652956962585449e-01
1.659000000000000000e+03 7.815347290039062500e+01 8.308076858520507812e+00 1.157707162201404572e-02 6.534471511840820312e+00 1.963814496994018555e+00 3.437124788761138916e-01
1.660000000000000000e+03 7.572235107421875000e+01 8.228885650634765625e+00 3.901930898427963257e-02 7.893693447113037109e+00 2.379813909530639648e+00 5.642609000205993652e-01
1.661000000000000000e+03 7.813420104980468750e+01 -1.118681281805038452e-01 8.529793471097946167e-02 6.128095626831054688e+00 1.864018082618713379e+00 -2.382869720458984375e-01
1.662000000000000000e+03 7.692081451416015625e+01 -1.600078821182250977e+00 1.510469168424606323e-01 6.875770092010498047e+00 2.108045101165771484e+00 -4.420482218265533447e-01
1.663000000000000000e+03 7.673109436035156250e+01 -8.743321418762207031e+00 -4.359581321477890015e-02 7.218789100646972656e+00 2.152558088302612305e+00 -5.488842725753784180e-01
1.664000000000000000e+03 7.698542785644531250e+01 -1.564251518249511719e+01 -2.113111168146133423e-01 7.733777046203613281e+00 2.256739854812622070e+00 -1.920374780893325806e-01
1.665000000000000000e+03 7.368169403076171875e+01 3.329082489013671875e+01 -4.491372704505920410e-01 7.320321083068847656e+00 2.061355113983154297e+00 3.405616581439971924e-01
1.666000000000000000e+03 7.654129791259765625e+01 3.279455566406250000e+01 -1.517251133918762207e-01 8.729232788085937500e+00 2.573252439498901367e+00 4.600483775138854980e-01
1.667000000000000000e+03 7.702009582519531250e+01 1.795461654663085938e+01 2.221724018454551697e-02 7.774842739105224609e+00 2.339118003845214844e+00 2.699124217033386230e-01
1.668000000000000000e+03 7.815571594238281250e+01 9.709472656250000000e+00 -2.085596695542335510e-02 6.725803375244140625e+00 2.011484384536743164e+00 3.361203372478485107e-01
1.669000000000000000e+03 7.695960235595703125e+01 1.109670066833496094e+01 -8.265807479619979858e-02 7.444415092468261719e+00 2.208527088165283203e+00 4.197508096694946289e-01
1.670000000000000000e+03 7.694676971435546875e+01 -1.430116748809814453e+01 -1.578016281127929688e-01 7.623801708221435547e+00 2.239799976348876953e+00 -3.138622045516967773e-01
1.671000000000000000e+03 7.671163940429687500e+01 -7.320158004760742188e+00 -3.253173083066940308e-02 7.141918182373046875e+00 2.132815837860107422e+00 -5.833373069763183594e-01
1.672000000000000000e+03 7.758325195312500000e+01 3.581298446655273438e+01 -1.647495329380035400e-01 9.523108482360839844e+00 2.807507753372192383e+00 1.464992761611938477e-01
1.673000000000000000e+03 7.742454528808593750e+01 3.713473892211914062e+01 -1.725366413593292236e-01 9.649867057800292969e+00 2.843199253082275391e+00 5.917396768927574158e-02
1.674000000000000000e+03 7.583895874023437500e+01 2.637794256210327148e+00 3.545917272567749023e-01 7.577921390533447266e+00 2.379753828048706055e+00 9.334065765142440796e-02
1.675000000000000000e+03 7.699324798583984375e+01 5.447970390319824219e+00 1.543692648410797119e-01 6.952996730804443359e+00 2.132209777832031250e+00 3.288556039333343506e-01
1.676000000000000000e+03 7.700559997558593750e+01 4.046922206878662109e+00 1.849895417690277100e-01 6.874044418334960938e+00 2.117710113525390625e+00 2.057276517152786255e-01
1.677000000000000000e+03 7.688259124755859375e+01 -1.778653115034103394e-01 2.075822353363037109e-01 6.835462093353271484e+00 2.112913370132446289e+00 -3.115839958190917969e-01
1.678000000000000000e+03 7.810411071777343750e+01 -4.363239765167236328e+00 1.010073907673358917e-02 6.662712574005126953e+00 2.001843929290771484e+00 -4.433310627937316895e-01
1.679000000000000000e+03 7.693041229248046875e+01 -3.025739669799804688e+00 7.270236313343048096e-02 6.915855407714843750e+00 2.096567392349243164e+00 -5.184800028800964355e-01
1.680000000000000000e+03 7.810486602783203125e+01 -1.137209892272949219e+01 -3.297024220228195190e-02 7.703423976898193359e+00 2.301136016845703125e+00 -3.577441275119781494e-01
1.681000000000000000e+03 7.678589630126953125e+01 -1.015292263031005859e+01 -5.660879984498023987e-02 7.291144847869873047e+00 2.170360803604125977e+00 -5.223327875137329102e-01
1.682000000000000000e+03 7.702019500732421875e+01 -1.695998191833496094e+01 -2.630403339862823486e-01 7.825681209564208984e+00 2.268792390823364258e+00 -1.432768348604440689e-02
1.683000000000000000e+03 3.406528854370117188e+01 -1.451182937622070312e+01 -1.446256995201110840e+00 1.308141231536865234e+00 -4.143474996089935303e-02 -1.157361626625061035e+00
1.684000000000000000e+03 7.137948608398437500e+01 1.584842300415039062e+01 1.307418048381805420e-01 9.317192077636718750e+00 2.834380388259887695e+00 3.364395201206207275e-01
1.685000000000000000e+03 7.152503204345703125e+01 1.778066515922546387e+00 8.778650760650634766e-01 1.089786911010742188e+01 3.532720327377319336e+00 6.875466108322143555e-01
1.686000000000000000e+03 7.129968261718750000e+01 1.533720493316650391e-01 7.790656685829162598e-01 1.057293891906738281e+01 3.405601263046264648e+00 6.780737638473510742e-01
1.687000000000000000e+03 7.112498474121093750e+01 2.018828010559082031e+01 1.362784020602703094e-02 9.060567855834960938e+00 2.722258806228637695e+00 1.820118725299835205e-01
1.688000000000000000e+03 7.123002624511718750e+01 1.737196350097656250e+01 1.005952060222625732e-02 9.273204803466796875e+00 2.784979104995727539e+00 2.567937374114990234e-01
1.689000000000000000e+03 7.225363922119140625e+01 2.171769142150878906e+01 1.597789525985717773e-01 8.661116600036621094e+00 2.646268606185913086e+00 1.956468671560287476e-01
1.690000000000000000e+03 7.469670867919921875e+01 1.781396675109863281e+01 4.780355095863342285e-02 8.304669380187988281e+00 2.505741834640502930e+00 3.313898146152496338e-01
1.691000000000000000e+03 7.229749298095703125e+01 2.032485389709472656e+01 9.489515423774719238e-02 8.811822891235351562e+00 2.672015428543090820e+00 2.540534436702728271e-01
1.692000000000000000e+03 6.741415405273437500e+01 -9.564658164978027344e+00 6.039658784866333008e-01 4.254191398620605469e+00 1.457447171211242676e+00 1.292652130126953125e+00
1.693000000000000000e+03 4.434791946411132812e+01 3.583937287330627441e-01 8.721204400062561035e-01 6.503934860229492188e+00 2.212816476821899414e+00 -2.790536403656005859e+00
1.694000000000000000e+03 4.328357696533203125e+01 -2.177038490772247314e-01 7.031388282775878906e-01 6.452958583831787109e+00 2.146829128265380859e+00 -2.635856151580810547e+00
1.695000000000000000e+03 4.778848171234130859e+00 -1.574958419799804688e+01 -1.538469046354293823e-01 7.102009773254394531e+00 2.084448814392089844e+00 -6.776298582553863525e-02
1.696000000000000000e+03 3.626016616821289062e+01 -1.548299980163574219e+01 -1.023547768592834473e+00 2.135011196136474609e+00 3.334389925003051758e-01 -2.185884475708007812e+00
1.697000000000000000e+03 2.615259933471679688e+01 -3.433567810058593750e+01 -1.684732675552368164e+00 -8.284410834312438965e-02 -5.302730798721313477e-01 2.340668439865112305e-01
1.698000000000000000e+03 1.056989789009094238e+00 5.012029647827148438e+00 6.308452785015106201e-02 -6.276666522026062012e-01 -1.693746298551559448e-01 1.113882586359977722e-01
1.699000000000000000e+03 1.445137262344360352e+00 2.978271245956420898e+00 1.188651006668806076e-02 -3.500516414642333984e-01 -1.014495417475700378e-01 2.972027361392974854e-01
1.700000000000000000e+03 3.975039243698120117e+00 3.521154785156250000e+01 -3.157254680991172791e-02 2.439106464385986328e+00 7.222601771354675293e-01 -1.261875629425048828e-01
1.701000000000000000e+03 2.000681638717651367e+00 2.725442314147949219e+01 -1.050378009676933289e-02 1.858681797981262207e+00 5.544533729553222656e-01 -1.480841487646102905e-01
1.702000000000000000e+03 3.555625200271606445e+00 2.983454513549804688e+01 -2.555128745734691620e-02 2.201110124588012695e+00 6.526676416397094727e-01 -2.061738967895507812e-01
1.703000000000000000e+03 6.341042041778564453e+00 2.920328330993652344e+01 -8.079167455434799194e-02 2.578927755355834961e+00 7.494408488273620605e-01 -3.141120374202728271e-01
1.704000000000000000e+03 3.727638244628906250e+00 3.133836936950683594e+01 -3.380166739225387573e-02 2.290038347244262695e+00 6.768710017204284668e-01 -1.941958814859390259e-01
1.705000000000000000e+03 1.933855295181274414e+00 2.583656883239746094e+01 -9.251721203327178955e-03 1.753096461296081543e+00 5.231534242630004883e-01 -1.583679467439651489e-01
1.706000000000000000e+03 3.317235946655273438e+00 2.695785522460937500e+01 -2.434215694665908813e-02 2.031235456466674805e+00 6.020679473876953125e-01 -2.318120747804641724e-01
1.707000000000000000e+03 3.433957338333129883e+00 2.838566780090332031e+01 -2.616684138774871826e-02 2.120486021041870117e+00 6.282957792282104492e-01 -2.166504561901092529e-01
1.708000000000000000e+03 2.561033964157104492e+00 3.693198776245117188e+01 -2.371065318584442139e-03 2.328666925430297852e+00 6.978887915611267090e-01 -7.741222530603408813e-02
1.709000000000000000e+03 3.671832799911499023e+00 3.398095703125000000e+01 -3.531644120812416077e-02 2.390370130538940430e+00 7.065160870552062988e-01 -1.390857100486755371e-01
1.710000000000000000e+03 3.666270256042480469e+00 3.276018905639648438e+01 -2.763589844107627869e-02 2.348933935165405273e+00 6.963894367218017578e-01 -1.732259392738342285e-01
1.711000000000000000e+03 1.746689200401306152e+00 2.162427520751953125e+01 -9.054412133991718292e-03 1.374295234680175781e+00 4.095722436904907227e-01 -1.832119375467300415e-01
1.712000000000000000e+03 2.972773551940917969e+00 2.274199867248535156e+01 -2.413147315382957458e-02 1.713817834854125977e+00 5.069059133529663086e-01 -2.676624357700347900e-01
1.713000000000000000e+03 1.699553132057189941e+00 2.024613571166992188e+01 -8.934980258345603943e-03 1.231355428695678711e+00 3.667261600494384766e-01 -1.915873289108276367e-01
1.714000000000000000e+03 2.884908914566040039e+00 2.136468887329101562e+01 -2.318086661398410797e-02 1.597359895706176758e+00 4.722537100315093994e-01 -2.823772430419921875e-01
1.715000000000000000e+03 2.647619724273681641e+00 1.214877223968505859e+01 -1.005649846047163010e-02 6.616960167884826660e-01 1.954918652772903442e-01 -3.856193125247955322e-01
1.716000000000000000e+03 2.761033058166503906e+00 1.737025642395019531e+01 -3.209840506315231323e-02 1.234116673469543457e+00 3.606054782867431641e-01 -3.344514071941375732e-01
1.717000000000000000e+03 2.230075597763061523e+00 7.677403926849365234e+00 1.031437814235687256e-01 -4.002711921930313110e-02 1.893499866127967834e-02 -1.784137338399887085e-01
1.718000000000000000e+03 1.589166641235351562e+00 1.481821918487548828e+01 -6.581565830856561661e-03 5.693683028221130371e-01 1.688360124826431274e-01 -2.448523193597793579e-01
1.719000000000000000e+03 2.716031312942504883e+00 1.606155014038085938e+01 -2.643226832151412964e-02 1.095800042152404785e+00 3.208103179931640625e-01 -3.524897396564483643e-01
1.720000000000000000e+03 3.131086826324462891e+00 9.797586441040039062e+00 6.700363010168075562e-02 6.301623582839965820e-01 2.091498076915740967e-01 -4.048397839069366455e-01
1.721000000000000000e+03 2.742990255355834961e+00 1.084178447723388672e+01 3.090706095099449158e-02 5.709536671638488770e-01 1.805582195520401001e-01 -3.911670148372650146e-01
1.722000000000000000e+03 2.638693809509277344e+00 1.344495677947998047e+01 -1.177416276186704636e-02 8.078321218490600586e-01 2.388173937797546387e-01 -3.828278183937072754e-01
1.723000000000000000e+03 3.847826004028320312e+00 1.595641422271728516e+01 -5.202797800302505493e-02 1.472573280334472656e+00 4.261636137962341309e-01 -4.475963115692138672e-01
1.724000000000000000e+03 6.925913238525390625e+01 -8.896965026855468750e+00 2.735037505626678467e-01 5.490186691284179688e+00 1.729107141494750977e+00 8.095462918281555176e-01
1.725000000000000000e+03 4.504425048828125000e+01 -2.384295082092285156e+01 2.439296960830688477e+00 1.057529830932617188e+01 3.904378652572631836e+00 -2.302591323852539062e+00
1.726000000000000000e+03 7.574502563476562500e+01 -1.703947901725769043e+00 2.187199443578720093e-01 7.386057853698730469e+00 2.281433343887329102e+00 -4.376745820045471191e-01
1.727000000000000000e+03 7.079302215576171875e+01 -1.362152338027954102e+00 5.345944166183471680e-01 1.002695178985595703e+01 3.168463945388793945e+00 1.079909086227416992e+00
1.728000000000000000e+03 1.627471160888671875e+01 -3.352350234985351562e+01 -2.163938045501708984e+00 -5.174923539161682129e-01 -8.044291138648986816e-01 8.041042089462280273e-01
1.729000000000000000e+03 4.241178894042968750e+01 2.515424346923828125e+01 4.475971758365631104e-01 5.669870376586914062e+00 1.835240244865417480e+00 1.083220243453979492e+00
1.730000000000000000e+03 4.018153762817382812e+01 1.810237503051757812e+01 8.361997604370117188e-01 7.802166938781738281e+00 2.591510057449340820e+00 5.644814968109130859e-01
1.731000000000000000e+03 4.151988220214843750e+01 1.784473037719726562e+01 7.096289396286010742e-01 8.555214881896972656e+00 2.779453277587890625e+00 9.813372492790222168e-01
1.732000000000000000e+03 4.356228637695312500e+01 -2.917801284790039062e+01 1.232926964759826660e+00 9.452126502990722656e+00 3.205516099929809570e+00 -7.852188348770141602e-01
1.733000000000000000e+03 4.275896072387695312e+01 2.201612663269042969e+01 7.913280129432678223e-01 6.746923446655273438e+00 2.261475563049316406e+00 1.622607946395874023e+00
1.734000000000000000e+03 4.097913360595703125e+01 2.102184104919433594e+01 6.632069945335388184e-01 7.053934097290039062e+00 2.315142393112182617e+00 9.746773242950439453e-01
1.735000000000000000e+03 7.158613204956054688e+00 -2.312321853637695312e+01 2.284674406051635742e+00 1.452838325500488281e+01 5.043917179107666016e+00 2.271729946136474609e+00
1.736000000000000000e+03 4.366903781890869141e+00 -2.207847213745117188e+01 1.615398406982421875e+00 8.353521347045898438e+00 2.990675926208496094e+00 1.784161448478698730e+00
1.737000000000000000e+03 4.340662384033203125e+01 2.814436531066894531e+01 9.333929419517517090e-02 4.761271476745605469e+00 1.456383347511291504e+00 9.222189784049987793e-01
1.738000000000000000e+03 4.203339004516601562e+01 3.258723831176757812e+01 -6.156848073005676270e-01 4.493119716644287109e+00 1.163230538368225098e+00 3.893684744834899902e-01
1.739000000000000000e+03 7.040217590332031250e+01 -6.071053981781005859e+00 2.009500712156295776e-01 7.068144321441650391e+00 2.180728435516357422e+00 7.739061713218688965e-01
1.740000000000000000e+03 2.976385354995727539e+00 -1.971397399902343750e+01 5.730164647102355957e-01 5.359506607055664062e+00 1.779756903648376465e+00 2.957704663276672363e-01
1.741000000000000000e+03 4.205904769897460938e+01 -1.672544288635253906e+01 -9.544183611869812012e-01 8.655883789062500000e+00 2.310439586639404297e+00 -2.476777315139770508e+00
1.742000000000000000e+03 2.290313911437988281e+01 -1.137223815917968750e+01 -4.029503345489501953e+00 -5.025404691696166992e-01 -1.359613060951232910e+00 -8.258683606982231140e-03
1.743000000000000000e+03 2.026306533813476562e+01 -1.099629020690917969e+01 -4.156694412231445312e+00 -7.235971093177795410e-01 -1.464087486267089844e+00 5.053681731224060059e-01
1.744000000000000000e+03 4.235034561157226562e+01 -2.003272819519042969e+01 1.675943136215209961e+00 1.210492229461669922e+01 4.134259700775146484e+00 -2.665591716766357422e+00
1.745000000000000000e+03 4.382109451293945312e+01 -1.736349105834960938e+01 -6.762417554855346680e-01 9.193157196044921875e+00 2.555074691772460938e+00 -1.308340430259704590e+00
1.746000000000000000e+03 6.973515319824218750e+01 3.055440711975097656e+01 -3.019686639308929443e-01 5.108032703399658203e+00 1.441819190979003906e+00 -2.348409295082092285e-01
1.747000000000000000e+03 7.113111114501953125e+01 7.659199714660644531e+00 3.906390368938446045e-01 1.065656948089599609e+01 3.314162492752075195e+00 3.293655067682266235e-02
1.748000000000000000e+03 7.591981506347656250e+01 -3.236697006225585938e+01 -1.785628497600555420e-01 7.633665084838867188e+00 2.236530780792236328e+00 -6.166250705718994141e-01
1.749000000000000000e+03 7.342124938964843750e+01 2.184412765502929688e+01 1.935467571020126343e-01 8.441866874694824219e+00 2.590624332427978516e+00 3.197630643844604492e-01
1.750000000000000000e+03 4.137372970581054688e+01 2.694714546203613281e+01 7.618647813796997070e-02 5.372008800506591797e+00 1.634458541870117188e+00 6.600034832954406738e-01
1.751000000000000000e+03 4.049253082275390625e+01 6.805885791778564453e+00 1.777485847473144531e+00 8.097249031066894531e+00 2.962420225143432617e+00 -1.709199666976928711e+00
1.752000000000000000e+03 7.104178619384765625e+01 -7.960062503814697266e+00 5.391642451286315918e-02 6.516822338104248047e+00 1.971221566200256348e+00 3.097183108329772949e-01
1.753000000000000000e+03 6.167842864990234375e+01 -1.950658035278320312e+01 -5.203114748001098633e-01 1.215001940727233887e+00 2.084071189165115356e-01 1.598474383354187012e+00
1.754000000000000000e+03 1.291698169708251953e+01 -1.270019054412841797e+01 -2.953327894210815430e+00 5.341428756713867188e+00 7.164303064346313477e-01 3.244477272033691406e+00
1.755000000000000000e+03 4.734644317626953125e+01 3.377838516235351562e+01 -3.685918748378753662e-01 2.734475374221801758e+00 7.097650766372680664e-01 6.677577495574951172e-01
1.756000000000000000e+03 5.068178176879882812e+01 3.450746536254882812e+01 -2.447866201400756836e-01 1.299238324165344238e+00 3.163354992866516113e-01 4.415405690670013428e-01
1.757000000000000000e+03 5.434510421752929688e+01 -2.698331642150878906e+01 1.308939337730407715e+00 5.456737041473388672e+00 2.029702901840209961e+00 -7.204886078834533691e-01
1.758000000000000000e+03 5.470404052734375000e+01 -2.518682289123535156e+01 1.361703753471374512e+00 4.233768463134765625e+00 1.678641676902770996e+00 -2.516715526580810547e-01
1.759000000000000000e+03 1.804444885253906250e+01 -9.477507591247558594e+00 -2.209572792053222656e+00 4.304373264312744141e-01 -5.337406396865844727e-01 1.372840166091918945e+00
1.760000000000000000e+03 4.194028091430664062e+01 2.375042343139648438e+01 5.671710968017578125e-01 6.120526790618896484e+00 2.006309270858764648e+00 1.101182222366333008e+00
1.761000000000000000e+03 3.998756790161132812e+01 1.653582763671875000e+01 9.175821542739868164e-01 8.314943313598632812e+00 2.769757509231567383e+00 2.987588942050933838e-01
1.762000000000000000e+03 6.566402435302734375e+01 -1.196810245513916016e+01 9.035711884498596191e-01 2.723684072494506836e+00 1.088176608085632324e+00 1.203799486160278320e+00
1.763000000000000000e+03 6.840106201171875000e+01 -1.030811405181884766e+01 4.281149506568908691e-01 4.578746795654296875e+00 1.502058506011962891e+00 8.570880889892578125e-01
1.764000000000000000e+03 7.748979091644287109e+00 -2.835330772399902344e+01 -2.047235012054443359e+00 9.260314941406250000e+00 2.163923978805541992e+00 1.420909523963928223e+00
1.765000000000000000e+03 6.563937377929687500e+01 -1.822554206848144531e+01 -1.843196898698806763e-01 1.189771056175231934e+00 3.016354441642761230e-01 9.808889031410217285e-01
1.766000000000000000e+03 5.161506652832031250e+00 -2.113379096984863281e+01 1.934088468551635742e+00 9.498339653015136719e+00 3.429728507995605469e+00 1.488044500350952148e+00
1.767000000000000000e+03 5.536817169189453125e+01 -3.232784271240234375e+01 2.308961868286132812e+00 9.295597076416015625e+00 3.481367588043212891e+00 -2.060980319976806641e+00
1.768000000000000000e+03 5.721360778808593750e+01 -3.829698944091796875e+01 -5.298913717269897461e-01 4.488506793975830078e+00 1.187584519386291504e+00 -1.376089811325073242e+00
1.769000000000000000e+03 7.403764343261718750e+01 -3.033629989624023438e+01 5.444125533103942871e-01 8.294992446899414062e+00 2.651821613311767578e+00 -2.577279508113861084e-01
1.770000000000000000e+03 5.672450256347656250e+01 -2.366824722290039062e+01 1.331482410430908203e+00 2.415304660797119141e+00 1.124036192893981934e+00 9.070378541946411133e-01
1.771000000000000000e+03 2.202164268493652344e+01 -1.073653793334960938e+01 -3.605335235595703125e+00 -5.653054714202880859e-01 -1.251192212104797363e+00 1.366209387779235840e-01
1.772000000000000000e+03 2.126557350158691406e+01 -1.004430294036865234e+01 -2.949666261672973633e+00 -3.641067743301391602e-01 -9.941318631172180176e-01 7.385075092315673828e-02
1.773000000000000000e+03 3.980771636962890625e+01 1.343915176391601562e+01 1.272804021835327148e+00 8.955999374389648438e+00 3.068640947341918945e+00 -5.397872328758239746e-01
1.774000000000000000e+03 3.996512603759765625e+01 -3.384534454345703125e+01 -1.615628600120544434e+00 3.122538805007934570e+00 4.520730674266815186e-01 1.508417606353759766e+00
1.775000000000000000e+03 4.198651123046875000e+01 -3.480696868896484375e+01 -1.719132304191589355e+00 5.112306118011474609e+00 1.017952084541320801e+00 8.317174315452575684e-01
1.776000000000000000e+03 6.823569488525390625e+01 -2.022856330871582031e+01 -9.523804187774658203e-01 6.467226743698120117e-01 -9.169732779264450073e-02 -4.798269867897033691e-01
1.777000000000000000e+03 2.610900115966796875e+01 -1.307929897308349609e+01 -4.147207260131835938e+00 1.495693176984786987e-01 -1.199291348457336426e+00 4.572562277317047119e-01
1.778000000000000000e+03 2.366710472106933594e+01 -1.040201473236083984e+01 -2.951168060302734375e+00 -1.349961757659912109e-01 -9.258493185043334961e-01 -2.648345530033111572e-01
1.779000000000000000e+03 7.212286376953125000e+01 2.457058906555175781e+01 3.692048788070678711e-01 8.188814163208007812e+00 2.567405700683593750e+00 1.712285280227661133e-01
1.780000000000000000e+03 7.203429412841796875e+01 2.607285690307617188e+01 3.652334213256835938e-01 7.841309070587158203e+00 2.461962699890136719e+00 2.180793732404708862e-01
1.781000000000000000e+03 3.982398986816406250e+01 1.024857997894287109e+01 2.069636106491088867e+00 8.656710624694824219e+00 3.217904090881347656e+00 -1.211616516113281250e+00
1.782000000000000000e+03 7.223554992675781250e+01 7.812821388244628906e+00 2.007081210613250732e-01 9.911375045776367188e+00 3.033624887466430664e+00 3.558892309665679932e-01
1.783000000000000000e+03 7.193041229248046875e+01 -3.649299240112304688e+01 -4.559530913829803467e-01 5.335305690765380859e+00 1.463805675506591797e+00 5.930013060569763184e-01
1.784000000000000000e+03 1.600747489929199219e+01 -3.566217041015625000e+01 -8.694906234741210938e-01 -1.035621017217636108e-01 -2.919158339500427246e-01 5.313581824302673340e-01
1.785000000000000000e+03 5.206734848022460938e+01 -2.915650558471679688e+01 2.076468229293823242e+00 6.393065452575683594e+00 2.540860176086425781e+00 -2.199004173278808594e+00
1.786000000000000000e+03 5.229224014282226562e+01 -3.033647537231445312e+01 2.039858102798461914e+00 6.289543151855468750e+00 2.498820304870605469e+00 -1.672965049743652344e+00
1.787000000000000000e+03 5.782663726806640625e+01 -2.006595611572265625e+01 -2.881705388426780701e-02 8.046938180923461914e-01 2.327630221843719482e-01 1.245657444000244141e+00
1.788000000000000000e+03 4.924904632568359375e+01 -1.383132553100585938e+01 -1.180340528488159180e+00 6.177326679229736328e+00 1.499095797538757324e+00 -3.751737773418426514e-01
1.789000000000000000e+03 3.722591018676757812e+01 -3.752749633789062500e+01 -1.169340133666992188e+00 1.171240448951721191e+00 5.701082991436123848e-04 4.702006876468658447e-01
1.790000000000000000e+03 3.833593368530273438e+01 -3.567291259765625000e+01 -1.299773812294006348e+00 1.446320652961730957e+00 4.396404325962066650e-02 9.202425479888916016e-01
1.791000000000000000e+03 6.688274383544921875e+01 -1.922181892395019531e+01 -3.802452683448791504e-01 8.450202345848083496e-01 1.394324898719787598e-01 4.466910362243652344e-01
1.792000000000000000e+03 5.699355697631835938e+01 4.114025878906250000e+01 6.861124932765960693e-02 -2.107889801263809204e-01 -4.265331849455833435e-02 7.827098667621612549e-02
1.793000000000000000e+03 6.152096176147460938e+01 3.779699707031250000e+01 -4.394202828407287598e-01 -2.754485011100769043e-01 -2.144606411457061768e-01 2.691704332828521729e-01
1.794000000000000000e+03 7.686390686035156250e+01 -2.836268997192382812e+01 3.931918740272521973e-01 7.414052963256835938e+00 2.342173576354980469e+00 -3.055810928344726562e-01
1.795000000000000000e+03 7.321522521972656250e+01 -2.926298332214355469e+01 8.983864188194274902e-01 9.115576744079589844e+00 3.004189014434814453e+00 -2.887997590005397797e-02
1.796000000000000000e+03 7.271999359130859375e+01 1.384082984924316406e+01 -1.383288949728012085e-01 8.948410987854003906e+00 2.643024682998657227e+00 1.612252593040466309e-01
1.797000000000000000e+03 7.134379577636718750e+01 1.425902748107910156e+01 1.534034013748168945e-01 9.041524887084960938e+00 2.758478641510009766e+00 1.684574782848358154e-01
1.798000000000000000e+03 5.779328155517578125e+01 -1.723526763916015625e+01 -2.393606185913085938e+00 1.062215343117713928e-01 -6.862154006958007812e-01 1.356247663497924805e+00
1.799000000000000000e+03 4.350466156005859375e+01 -2.059314727783203125e+01 2.667196750640869141e+00 1.082035160064697266e+01 4.046264648437500000e+00 -1.835520863533020020e+00
1.800000000000000000e+03 4.205875396728515625e+01 3.039505386352539062e+01 -3.577624261379241943e-01 4.682584762573242188e+00 1.297446727752685547e+00 5.066410899162292480e-01
1.801000000000000000e+03 1.473114776611328125e+01 -1.282175922393798828e+01 -4.065701484680175781e+00 2.178471326828002930e+00 -5.661690235137939453e-01 1.791760444641113281e+00
1.802000000000000000e+03 1.721702766418457031e+01 -1.178971767425537109e+01 -4.886751651763916016e+00 -6.421533972024917603e-02 -1.485290169715881348e+00 1.388005971908569336e+00
1.803000000000000000e+03 7.462618255615234375e+01 -2.454448699951171875e+01 9.129043817520141602e-01 8.557457923889160156e+00 2.841108798980712891e+00 6.339694261550903320e-01
1.804000000000000000e+03 6.994270324707031250e+01 3.451509094238281250e+01 -7.071890830993652344e-01 4.397360324859619141e+00 1.107051372528076172e+00 -2.910293042659759521e-01
1.805000000000000000e+03 7.330474853515625000e+01 -1.612896537780761719e+01 -5.693618059158325195e-01 6.333788394927978516e+00 1.729327917098999023e+00 -5.484999418258666992e-01
1.806000000000000000e+03 9.159850120544433594e+00 -3.190384101867675781e+01 -2.321956396102905273e+00 5.498100280761718750e+00 9.528431892395019531e-01 -2.560691833496093750e-01
1.807000000000000000e+03 9.212651252746582031e+00 -3.061264419555664062e+01 -2.613176584243774414e+00 5.839972019195556641e+00 9.680386781692504883e-01 -1.806929856538772583e-01
1.808000000000000000e+03 7.196055603027343750e+01 2.770886039733886719e+01 1.909273713827133179e-01 7.351285934448242188e+00 2.262664079666137695e+00 3.109910190105438232e-01
1.809000000000000000e+03 5.165397262573242188e+01 3.575234603881835938e+01 -2.960475385189056396e-01 9.836350679397583008e-01 2.062762677669525146e-01 3.892533779144287109e-01
1.810000000000000000e+03 5.009578323364257812e+01 3.754429626464843750e+01 -4.338063001632690430e-01 1.688179731369018555e+00 3.763120174407958984e-01 2.603977918624877930e-01
1.811000000000000000e+03 3.994370651245117188e+01 8.511006355285644531e+00 2.084825992584228516e+00 8.327971458435058594e+00 3.123839139938354492e+00 -1.426285505294799805e+00
1.812000000000000000e+03 3.898568344116210938e+01 -1.636023712158203125e+01 -9.140788912773132324e-01 5.091031551361083984e+00 1.253085851669311523e+00 -3.078814744949340820e+00
1.813000000000000000e+03 4.920079421997070312e+01 -1.533846092224121094e+01 -1.432067275047302246e+00 6.229166507720947266e+00 1.439129829406738281e+00 -3.230770230293273926e-01
1.814000000000000000e+03 6.027210235595703125e+01 4.049425125122070312e+01 1.887323856353759766e-01 -4.283265769481658936e-01 -7.187825441360473633e-02 1.490270197391510010e-01
1.815000000000000000e+03 5.683704376220703125e+01 -1.811599922180175781e+01 -1.240847468376159668e+00 -2.669152989983558655e-02 -3.802617192268371582e-01 9.334369897842407227e-01
1.816000000000000000e+03 5.483218383789062500e+01 -1.798349952697753906e+01 -1.326026320457458496e+00 4.003904163837432861e-01 -2.776907682418823242e-01 -1.386871933937072754e-01
1.817000000000000000e+03 5.379574966430664062e+01 -1.700985908508300781e+01 -2.219697713851928711e+00 1.346158266067504883e+00 -2.620618045330047607e-01 -6.189404129981994629e-01
1.818000000000000000e+03 8.235130310058593750e+00 -1.506554508209228516e+01 -5.067536830902099609e-01 9.861519813537597656e+00 2.806429862976074219e+00 1.700617313385009766e+00
1.819000000000000000e+03 1.394446277618408203e+01 -1.198392868041992188e+01 -3.524534940719604492e+00 3.739264488220214844e+00 6.441886723041534424e-02 2.958402395248413086e+00
1.820000000000000000e+03 4.031615066528320312e+01 -1.597142410278320312e+01 -8.898455500602722168e-01 6.823549747467041016e+00 1.780111312866210938e+00 -3.025932073593139648e+00
1.821000000000000000e+03 6.288631057739257812e+01 -2.111069679260253906e+01 -2.331430613994598389e-01 9.681847095489501953e-01 2.205124795436859131e-01 1.316367983818054199e+00
1.822000000000000000e+03 6.561084747314453125e+01 -1.945849418640136719e+01 -6.122553944587707520e-01 8.257217407226562500e-01 6.403990089893341064e-02 1.211134552955627441e+00
1.823000000000000000e+03 7.317149353027343750e+01 -2.133421707153320312e+01 -9.563368558883666992e-01 7.676604270935058594e+00 2.016080379486083984e+00 1.670555770397186279e-01
1.824000000000000000e+03 7.366896057128906250e+01 -2.381743240356445312e+01 8.296770453453063965e-01 8.399983406066894531e+00 2.768898010253906250e+00 6.379103660583496094e-01
1.825000000000000000e+03 4.403941345214843750e+01 -3.084569358825683594e+01 -1.887685209512710571e-01 8.755492210388183594e+00 2.570017099380493164e+00 -8.639524579048156738e-01
1.826000000000000000e+03 4.432745742797851562e+01 -2.227136993408203125e+01 2.991010427474975586e+00 1.078616809844970703e+01 4.133153438568115234e+00 -2.104169130325317383e+00
1.827000000000000000e+03 4.255687713623046875e+01 -1.790805625915527344e+01 -3.043066263198852539e-01 1.014152431488037109e+01 2.951165199279785156e+00 -2.274410724639892578e+00
1.828000000000000000e+03 6.799711608886718750e+01 3.657494735717773438e+01 -3.562188744544982910e-01 2.748382091522216797e+00 7.176489830017089844e-01 -4.083252251148223877e-01
1.829000000000000000e+03 6.460124969482421875e+01 3.826948547363281250e+01 -1.178606878966093063e-02 5.498605966567993164e-01 1.614223569631576538e-01 -6.935821473598480225e-02
1.830000000000000000e+03 6.832511901855468750e+01 3.463110733032226562e+01 -7.578859329223632812e-01 3.206775188446044922e+00 7.346667647361755371e-01 -4.270540773868560791e-01
1.831000000000000000e+03 5.580788421630859375e+01 -1.894491386413574219e+01 -7.727248072624206543e-01 1.737509816884994507e-01 -1.796921491622924805e-01 4.021100997924804688e-01
1.832000000000000000e+03 5.412473297119140625e+01 -3.463612747192382812e+01 1.688391566276550293e-01 7.281730175018310547e+00 2.235170841217041016e+00 -9.477660655975341797e-01
1.833000000000000000e+03 5.640472412109375000e+01 -3.512631225585937500e+01 7.561837136745452881e-02 6.028760910034179688e+00 1.831313848495483398e+00 -1.844699859619140625e+00
1.834000000000000000e+03 1.148633575439453125e+01 7.542137503623962402e-01 6.709013462066650391e+00 1.251892852783203125e+01 5.768382549285888672e+00 4.959817886352539062e+00
1.835000000000000000e+03 5.751852989196777344e+00 1.900596857070922852e+00 5.672984197735786438e-02 8.343075215816497803e-02 4.204817861318588257e-02 2.744016945362091064e-01
1.836000000000000000e+03 6.491444110870361328e+00 2.063735246658325195e+00 4.829546213150024414e-01 2.648712098598480225e-01 2.243477553129196167e-01 -1.219039224088191986e-02
1.837000000000000000e+03 6.768215656280517578e+00 2.004653215408325195e+00 5.563850998878479004e-01 3.530926406383514404e-01 2.728433012962341309e-01 -1.212829872965812683e-01
1.838000000000000000e+03 7.103363037109375000e+00 2.021011590957641602e+00 7.458087801933288574e-01 5.213630795478820801e-01 3.801515698432922363e-01 -3.363635241985321045e-01
1.839000000000000000e+03 7.491913795471191406e+00 2.166092634201049805e+00 1.105684638023376465e+00 9.804179668426513672e-01 6.258307695388793945e-01 -7.774211764335632324e-01
1.840000000000000000e+03 7.243333339691162109e+00 -2.047092914581298828e+00 3.610134363174438477e+00 1.957511305809020996e+00 1.670293688774108887e+00 3.391969203948974609e+00
1.841000000000000000e+03 8.778766632080078125e+00 2.037232637405395508e+00 1.588250875473022461e+00 3.799226045608520508e+00 1.616243124008178711e+00 -2.327142477035522461e+00
1.842000000000000000e+03 6.892063140869140625e+00 -2.069111585617065430e+00 3.172291278839111328e+00 1.601706147193908691e+00 1.432199239730834961e+00 2.915365457534790039e+00
1.843000000000000000e+03 9.476360321044921875e+00 1.660799503326416016e+00 1.282142281532287598e+00 7.211516380310058594e+00 2.548097610473632812e+00 -3.285300970077514648e+00
1.844000000000000000e+03 6.337546825408935547e+00 -2.250886678695678711e+00 2.569203138351440430e+00 1.368332505226135254e+00 1.181260704994201660e+00 2.444118261337280273e+00
1.845000000000000000e+03 9.008318901062011719e+00 -2.444583415985107422e+00 3.377573251724243164e+00 7.521637439727783203e+00 3.269763231277465820e+00 5.994745254516601562e+00
1.846000000000000000e+03 8.460305213928222656e+00 -2.253605604171752930e+00 4.052240371704101562e+00 5.132678508758544922e+00 2.755475521087646484e+00 5.498362541198730469e+00
1.847000000000000000e+03 5.425514698028564453e+00 -2.513624906539916992e+00 1.848067164421081543e+00 1.106157779693603516e+00 8.862674832344055176e-01 1.827961087226867676e+00
1.848000000000000000e+03 5.301939487457275391e+00 -2.182486534118652344e+00 1.693906903266906738e+00 8.481100797653198242e-01 7.626050710678100586e-01 1.486091017723083496e+00
1.849000000000000000e+03 5.648601531982421875e+00 -2.375587940216064453e+00 2.001972675323486328e+00 1.097404122352600098e+00 9.298130273818969727e-01 1.902335405349731445e+00
1.850000000000000000e+03 4.728266239166259766e+00 -2.047682285308837891e+00 1.274764776229858398e+00 6.080520749092102051e-01 5.648450851440429688e-01 1.040584444999694824e+00
1.851000000000000000e+03 4.750351905822753906e+00 -2.431657075881958008e+00 1.401912569999694824e+00 8.047363162040710449e-01 6.619946956634521484e-01 1.288880467414855957e+00
1.852000000000000000e+03 3.961085319519042969e+00 -7.283647060394287109e+00 -1.620700061321258545e-01 3.473991394042968750e+00 9.935764074325561523e-01 1.777280211448669434e+00
1.853000000000000000e+03 3.872771263122558594e+00 -2.116406440734863281e+00 8.548687100410461426e-01 4.669135212898254395e-01 3.965346813201904297e-01 6.373310685157775879e-01
1.854000000000000000e+03 3.253061056137084961e+00 -2.018754243850708008e+00 5.491828322410583496e-01 3.382053375244140625e-01 2.662164568901062012e-01 3.584407567977905273e-01
1.855000000000000000e+03 3.026020526885986328e+00 -1.873549938201904297e+00 4.153722822666168213e-01 2.713975906372070312e-01 2.060309648513793945e-01 2.289690971374511719e-01
1.856000000000000000e+03 5.035727024078369141e+00 2.119687318801879883e+00 9.522940218448638916e-02 3.803375735878944397e-02 3.997894749045372009e-02 3.442569673061370850e-01
1.857000000000000000e+03 2.458927869796752930e+00 -2.214355707168579102e+00 3.471278548240661621e-01 2.880296111106872559e-01 1.905472427606582642e-01 1.741041839122772217e-01
1.858000000000000000e+03 4.635787010192871094e+00 2.175359964370727539e+00 4.379466176033020020e-02 3.377151116728782654e-02 2.326985262334346771e-02 3.851204812526702881e-01
1.859000000000000000e+03 4.433240890502929688e+00 1.988968491554260254e+00 -9.207206219434738159e-02 -7.847711443901062012e-03 -2.997593209147453308e-02 4.227060675621032715e-01
1.860000000000000000e+03 1.001156044006347656e+01 2.165362596511840820e+00 4.481961131095886230e-01 9.723842620849609375e+00 3.051611661911010742e+00 -1.747608184814453125e+00
1.861000000000000000e+03 8.954915046691894531e+00 1.958592891693115234e+00 1.571775197982788086e+00 4.450636863708496094e+00 1.806723594665527344e+00 -2.577885627746582031e+00
1.862000000000000000e+03 1.192513084411621094e+01 1.327414363622665405e-01 8.872109413146972656e+00 1.003779125213623047e+01 5.672970294952392578e+00 3.579661846160888672e+00
1.863000000000000000e+03 1.165437030792236328e+01 -1.017988622188568115e-01 9.941801071166992188e+00 1.069033241271972656e+01 6.189640045166015625e+00 2.959417343139648438e+00
1.864000000000000000e+03 1.072717571258544922e+01 -2.136187791824340820e+00 2.946492671966552734e+00 1.273443698883056641e+01 4.704278945922851562e+00 2.980632066726684570e+00
1.865000000000000000e+03 1.047909450531005859e+01 1.987901926040649414e+00 4.643115103244781494e-01 1.190475749969482422e+01 3.710720777511596680e+00 -2.136687785387039185e-01
1.866000000000000000e+03 1.017161178588867188e+01 2.532621145248413086e+00 3.579598367214202881e-01 9.397081375122070312e+00 2.926512479782104492e+00 -1.127220988273620605e+00
1.867000000000000000e+03 1.084199523925781250e+01 2.225287199020385742e+00 6.316610574722290039e-01 1.150149345397949219e+01 3.639946222305297852e+00 8.225079774856567383e-01
1.868000000000000000e+03 1.154366016387939453e+00 -1.937098503112792969e+00 5.753589794039726257e-02 -4.448614269495010376e-02 3.914926666766405106e-03 -9.481731057167053223e-02
1.869000000000000000e+03 1.563371539115905762e+00 -1.981773972511291504e+00 1.506742238998413086e-01 5.943363904953002930e-02 6.303235888481140137e-02 -3.614725917577743530e-02
1.870000000000000000e+03 2.001504421234130859e+00 1.875569462776184082e+00 -1.153199449181556702e-01 -1.358004957437515259e-01 -7.533612847328186035e-02 3.590594828128814697e-01
1.871000000000000000e+03 2.745608091354370117e+00 1.947555661201477051e+00 -1.310587525367736816e-01 -1.015209555625915527e-01 -6.977391242980957031e-02 4.190592467784881592e-01
1.872000000000000000e+03 2.055532455444335938e+00 2.135852575302124023e+00 -6.383412331342697144e-02 -1.658856123685836792e-01 -6.891591846942901611e-02 3.723835051059722900e-01
1.873000000000000000e+03 1.745428681373596191e+00 -4.756895065307617188e+00 1.726848036050796509e-01 9.045789241790771484e-01 3.231791257858276367e-01 5.622754693031311035e-01
1.874000000000000000e+03 2.743022680282592773e+00 -2.405023813247680664e+00 4.554738700389862061e-01 4.287046790122985840e-01 2.652535736560821533e-01 3.255559504032135010e-01
1.875000000000000000e+03 1.360180258750915527e+00 2.002533197402954102e+00 -4.922727122902870178e-02 -2.125386744737625122e-01 -7.852978259325027466e-02 2.951340973377227783e-01
1.876000000000000000e+03 2.328394889831542969e+00 1.990879058837890625e+00 -9.676571935415267944e-02 -1.367307901382446289e-01 -7.004895061254501343e-02 3.908399641513824463e-01
1.877000000000000000e+03 1.743631172180175781e+01 -1.023730564117431641e+01 -3.015025854110717773e+00 7.294822931289672852e-01 -6.856630444526672363e-01 1.544665455818176270e+00
1.878000000000000000e+03 1.563255882263183594e+01 -1.119100475311279297e+01 -3.470670700073242188e+00 1.939966440200805664e+00 -4.592113196849822998e-01 2.429278373718261719e+00
1.879000000000000000e+03 3.092247390747070312e+01 -1.363150310516357422e+01 -2.324677705764770508e+00 9.844554662704467773e-01 -4.020666480064392090e-01 -3.270318806171417236e-01
1.880000000000000000e+03 6.812797546386718750e+01 -1.898449707031250000e+01 -4.267640411853790283e-01 1.704640865325927734e+00 3.833630383014678955e-01 -2.088922262191772461e-01
1.881000000000000000e+03 3.122690582275390625e+01 -1.247603797912597656e+01 -1.963107943534851074e+00 1.346166372299194336e+00 -1.850824952125549316e-01 -7.989255785942077637e-01
1.882000000000000000e+03 5.979998397827148438e+01 -2.146218681335449219e+01 3.725285232067108154e-01 1.095500826835632324e+00 4.404087960720062256e-01 1.513975143432617188e+00
1.883000000000000000e+03 2.020999670028686523e+00 2.554009199142456055e+00 -1.137977838516235352e-02 -2.115283310413360596e-01 -6.687243282794952393e-02 3.728827238082885742e-01
1.884000000000000000e+03 1.138430690765380859e+01 -1.237383365631103516e+01 -2.894167900085449219e+00 7.495868206024169922e+00 1.380510091781616211e+00 3.178683519363403320e+00
1.885000000000000000e+03 8.245584487915039062e+00 -1.393476676940917969e+01 -1.467121720314025879e+00 9.201429367065429688e+00 2.320292472839355469e+00 1.682920217514038086e+00
1.886000000000000000e+03 4.281671905517578125e+01 -1.915199875831604004e+00 4.090154469013214111e-01 6.255634784698486328e+00 1.999395132064819336e+00 -2.496063709259033203e+00
1.887000000000000000e+03 4.572557449340820312e+01 -6.176754951477050781e+00 -3.357268497347831726e-02 6.363610744476318359e+00 1.899011373519897461e+00 -2.107138633728027344e+00
1.888000000000000000e+03 4.402288055419921875e+01 2.984303474426269531e+01 -1.029575616121292114e-01 4.270694255828857422e+00 1.250320911407470703e+00 8.324712514877319336e-01
1.889000000000000000e+03 4.645493698120117188e+01 -4.491408824920654297e+00 3.495524823665618896e-01 6.293582916259765625e+00 1.992940664291381836e+00 -2.330651044845581055e+00
1.890000000000000000e+03 4.332003402709960938e+01 -3.044831275939941406e+00 2.422724962234497070e-01 6.228961467742919922e+00 1.941370248794555664e+00 -2.456886768341064453e+00
1.891000000000000000e+03 4.531042861938476562e+01 -4.949431896209716797e+00 1.243361681699752808e-01 6.312509536743164062e+00 1.931053757667541504e+00 -2.287615299224853516e+00
1.892000000000000000e+03 4.223183822631835938e+01 3.992806434631347656e+00 1.303533792495727539e+00 7.419023036956787109e+00 2.616767168045043945e+00 -2.606352329254150391e+00
1.893000000000000000e+03 4.264725494384765625e+01 9.392299056053161621e-01 8.245942592620849609e-01 6.663814544677734375e+00 2.246522665023803711e+00 -2.584962129592895508e+00
1.894000000000000000e+03 3.114383935928344727e+00 -2.498927307128906250e+01 5.248262286186218262e-01 7.434226036071777344e+00 2.387715578079223633e+00 2.589358329772949219e+00
1.895000000000000000e+03 6.944633007049560547e+00 -2.679126358032226562e+01 -8.486016988754272461e-01 1.113141059875488281e+01 3.084842681884765625e+00 2.330565452575683594e+00
1.896000000000000000e+03 3.745470046997070312e+00 -1.575620174407958984e+01 -1.383072137832641602e-01 5.791781902313232422e+00 1.696042299270629883e+00 -2.569576799869537354e-01
1.897000000000000000e+03 5.523262023925781250e+00 -1.976254844665527344e+01 1.752211809158325195e+00 9.628382682800292969e+00 3.414178371429443359e+00 9.101126790046691895e-01
1.898000000000000000e+03 5.708109378814697266e+00 -2.909504318237304688e+01 -1.691734313964843750e+00 9.397256851196289062e+00 2.311656713485717773e+00 2.155651330947875977e+00
1.899000000000000000e+03 5.703561305999755859e+00 -2.385426330566406250e+01 1.804309964179992676e+00 1.102133750915527344e+01 3.847694396972656250e+00 2.645699739456176758e+00
1.900000000000000000e+03 7.204469203948974609e+00 -1.883986091613769531e+01 1.840598344802856445e+00 1.216170883178710938e+01 4.200692176818847656e+00 1.841936469078063965e+00
1.901000000000000000e+03 7.696955680847167969e+00 -1.754221725463867188e+01 1.135044932365417480e+00 1.144743537902832031e+01 3.774744033813476562e+00 1.766077995300292969e+00
1.902000000000000000e+03 4.247572422027587891e+00 -1.959936714172363281e+01 1.169348597526550293e+00 7.384133338928222656e+00 2.566044569015502930e+00 4.990322291851043701e-01
1.903000000000000000e+03 3.270509958267211914e+00 -3.165036773681640625e+01 -7.253553867340087891e-01 9.639863967895507812e+00 2.674352645874023438e+00 1.328281879425048828e+00
1.904000000000000000e+03 4.719046115875244141e+00 -3.251769256591796875e+01 -1.026038646697998047e+00 8.902615547180175781e+00 2.362973213195800781e+00 1.045877575874328613e+00
1.905000000000000000e+03 2.794820547103881836e+00 -1.197310352325439453e+01 -4.355161190032958984e-01 4.177484035491943359e+00 1.122590303421020508e+00 2.736881673336029053e-01
1.906000000000000000e+03 2.761554718017578125e+00 -8.626495361328125000e+00 -2.670016586780548096e-01 3.210410356521606445e+00 8.830226063728332520e-01 1.043634176254272461e+00
1.907000000000000000e+03 3.893324613571166992e+00 -1.220631599426269531e+01 -7.233762145042419434e-01 5.245745182037353516e+00 1.356710672378540039e+00 4.670013189315795898e-01
1.908000000000000000e+03 3.432986736297607422e+00 -3.277529907226562500e+01 -6.716793179512023926e-01 9.667133331298828125e+00 2.698636293411254883e+00 1.060602545738220215e+00
1.909000000000000000e+03 8.490616798400878906e+00 -2.939002799987792969e+01 -2.813154697418212891e+00 7.961216926574707031e+00 1.544418692588806152e+00 4.123307466506958008e-01
1.910000000000000000e+03 7.472219467163085938e+00 -3.005532264709472656e+01 -2.354070663452148438e+00 8.311482429504394531e+00 1.787223577499389648e+00 1.041549086570739746e+00
1.911000000000000000e+03 5.400939941406250000e+00 -3.545846939086914062e+01 -6.956216692924499512e-01 8.207288742065429688e+00 2.253500223159790039e+00 3.366051316261291504e-01
1.912000000000000000e+03 5.162430763244628906e+00 -3.436445236206054688e+01 -1.049828410148620605e+00 8.344581604003906250e+00 2.188426017761230469e+00 5.175057649612426758e-01
1.913000000000000000e+03 2.706548690795898438e+00 -1.325295734405517578e+01 -3.387714028358459473e-01 4.349625587463378906e+00 1.203256249427795410e+00 -5.841102078557014465e-02
1.914000000000000000e+03 3.739990949630737305e+00 -1.456432247161865234e+01 -3.665983676910400391e-01 5.617357730865478516e+00 1.575227856636047363e+00 -1.583628654479980469e-01
1.915000000000000000e+03 2.682800769805908203e+00 -6.332081317901611328e+00 8.638555556535720825e-02 2.097325801849365234e+00 6.551133990287780762e-01 1.178048253059387207e+00
1.916000000000000000e+03 7.186102294921875000e+01 1.129061222076416016e+01 -5.341838002204895020e-01 9.403918266296386719e+00 2.660920381546020508e+00 8.896306157112121582e-02
1.917000000000000000e+03 4.631462860107421875e+01 3.540732955932617188e+01 -5.282045602798461914e-01 2.929960012435913086e+00 7.205266952514648438e-01 5.374589562416076660e-01
1.918000000000000000e+03 7.368119812011718750e+01 3.783810853958129883e+00 5.814532637596130371e-01 9.169964790344238281e+00 2.925425529479980469e+00 3.672055602073669434e-01
1.919000000000000000e+03 7.257063293457031250e+01 3.537489175796508789e+00 6.128996610641479492e-01 1.025290679931640625e+01 3.259742021560668945e+00 4.504863917827606201e-01
1.920000000000000000e+03 8.854735374450683594e+00 -3.904433059692382812e+01 -9.991153329610824585e-02 4.964419364929199219e+00 1.459352374076843262e+00 -1.466007381677627563e-01
1.921000000000000000e+03 6.783595561981201172e+00 -3.703332519531250000e+01 -4.334805607795715332e-01 6.961003780364990234e+00 1.958256959915161133e+00 9.632158279418945312e-02
1.922000000000000000e+03 1.057347297668457031e+00 -4.915995597839355469e+00 8.327954262495040894e-02 5.629709362983703613e-01 1.938751488924026489e-01 3.682927191257476807e-01
1.923000000000000000e+03 4.725375366210937500e+01 -1.127393341064453125e+01 -8.430573344230651855e-01 6.671082973480224609e+00 1.748407602310180664e+00 -9.453303813934326172e-01
1.924000000000000000e+03 7.477062225341796875e+01 1.258078765869140625e+01 -2.258331626653671265e-01 8.376164436340332031e+00 2.445099592208862305e+00 3.561509847640991211e-01
1.925000000000000000e+03 7.697486877441406250e+01 2.637783527374267578e+00 2.525292038917541504e-01 6.839160442352294922e+00 2.127506732940673828e+00 5.060745775699615479e-02
1.926000000000000000e+03 7.557830810546875000e+01 -2.446885257959365845e-01 3.669569194316864014e-01 7.576364040374755859e+00 2.382996320724487305e+00 -2.752164900302886963e-01
1.927000000000000000e+03 7.357270812988281250e+01 5.146552085876464844e+00 4.649856984615325928e-01 9.293346405029296875e+00 2.927499532699584961e+00 4.492346048355102539e-01
1.928000000000000000e+03 7.583966064453125000e+01 5.383204460144042969e+00 2.637154757976531982e-01 7.668577194213867188e+00 2.379687786102294922e+00 4.079032540321350098e-01
1.929000000000000000e+03 7.462342834472656250e+01 6.691143035888671875e+00 2.387686669826507568e-01 8.499946594238281250e+00 2.621614456176757812e+00 5.586749315261840820e-01
1.930000000000000000e+03 7.569110870361328125e+01 9.691061973571777344e+00 -8.550417423248291016e-02 7.971419811248779297e+00 2.365774631500244141e+00 5.441526174545288086e-01
1.931000000000000000e+03 7.531616973876953125e+01 -7.463880538940429688e+00 -4.404692724347114563e-02 7.147428512573242188e+00 2.131014347076416016e+00 -5.575895905494689941e-01
1.932000000000000000e+03 7.677063751220703125e+01 -5.887655258178710938e+00 -7.386045064777135849e-03 7.066785335540771484e+00 2.117819786071777344e+00 -5.817492008209228516e-01
1.933000000000000000e+03 7.368350219726562500e+01 -3.234897136688232422e+00 1.962088644504547119e-01 7.937794208526611328e+00 2.440200805664062500e+00 -3.135849535465240479e-01
1.934000000000000000e+03 7.574616241455078125e+01 1.112688827514648438e+01 -1.446155309677124023e-01 7.975444316864013672e+00 2.349248647689819336e+00 4.757172763347625732e-01
1.935000000000000000e+03 7.571071624755859375e+01 -4.475221633911132812e+00 6.072273850440979004e-02 7.258747577667236328e+00 2.195841073989868164e+00 -5.700413584709167480e-01
1.936000000000000000e+03 7.365249633789062500e+01 -2.149627208709716797e+00 3.393530547618865967e-01 8.140557289123535156e+00 2.543972969055175781e+00 -2.336379736661911011e-01
1.937000000000000000e+03 7.355119323730468750e+01 1.772584915161132812e+01 7.841467857360839844e-02 8.546793937683105469e+00 2.587562799453735352e+00 3.516535758972167969e-01
1.938000000000000000e+03 7.584350585937500000e+01 1.649883651733398438e+01 9.482858702540397644e-03 8.008833885192871094e+00 2.405494928359985352e+00 2.972575128078460693e-01
1.939000000000000000e+03 7.701354217529296875e+01 1.934501647949218750e+01 5.324058234691619873e-02 7.844130516052246094e+00 2.369211435317993164e+00 3.022146522998809814e-01
1.940000000000000000e+03 7.458059692382812500e+01 1.503275012969970703e+01 -4.163930937647819519e-02 8.359675407409667969e+00 2.495410919189453125e+00 2.748308181762695312e-01
1.941000000000000000e+03 7.350987243652343750e+01 1.907845687866210938e+01 8.233916014432907104e-02 8.589953422546386719e+00 2.601687908172607422e+00 3.488385379314422607e-01
1.942000000000000000e+03 7.467484283447265625e+01 1.918405532836914062e+01 9.423649311065673828e-02 8.287735939025878906e+00 2.514591693878173828e+00 3.597594797611236572e-01
1.943000000000000000e+03 7.573561096191406250e+01 -1.448315429687500000e+01 -2.609373927116394043e-01 7.212162494659423828e+00 2.085367441177368164e+00 -3.940871655941009521e-01
1.944000000000000000e+03 7.690258026123046875e+01 -1.293597412109375000e+01 -1.136573329567909241e-01 7.506775379180908203e+00 2.217935323715209961e+00 -4.127075076103210449e-01
1.945000000000000000e+03 7.045056152343750000e+01 -9.341298103332519531e+00 1.501561850309371948e-01 5.824197769165039062e+00 1.792306184768676758e+00 3.360187411308288574e-01
1.946000000000000000e+03 7.560234832763671875e+01 -1.176484107971191406e+01 -1.238466724753379822e-01 7.064538002014160156e+00 2.082207441329956055e+00 -5.162509083747863770e-01
1.947000000000000000e+03 7.701565551757812500e+01 -1.955141258239746094e+01 -3.390257656574249268e-01 7.903360843658447266e+00 2.269300460815429688e+00 4.117799699306488037e-01
1.948000000000000000e+03 7.467039489746093750e+01 -1.846481513977050781e+01 -7.710097432136535645e-01 7.339406013488769531e+00 1.970518946647644043e+00 -4.761369898915290833e-02
1.949000000000000000e+03 7.575902557373046875e+01 -2.459531021118164062e+01 8.033691644668579102e-01 7.969887256622314453e+00 2.631976842880249023e+00 7.192950844764709473e-01
1.950000000000000000e+03 7.382923889160156250e+01 -2.218088912963867188e+01 -5.766865611076354980e-01 8.277052879333496094e+00 2.310110092163085938e+00 4.990532398223876953e-01
1.951000000000000000e+03 7.546600341796875000e+01 -2.190287780761718750e+01 -3.265650272369384766e-01 7.888055324554443359e+00 2.268446922302246094e+00 8.111960887908935547e-01
1.952000000000000000e+03 7.586401367187500000e+01 -1.833034706115722656e+01 -5.260916352272033691e-01 7.632592678070068359e+00 2.131950378417968750e+00 1.264656037092208862e-01
1.953000000000000000e+03 7.643486022949218750e+01 -2.361680030822753906e+01 2.282846868038177490e-01 7.684281349182128906e+00 2.373769760131835938e+00 9.942513704299926758e-01
1.954000000000000000e+03 7.485086822509765625e+01 -2.640222740173339844e+01 1.115450382232666016e+00 8.517709732055664062e+00 2.889948129653930664e+00 3.146279156208038330e-01
1.955000000000000000e+03 7.618613433837890625e+01 -2.580318260192871094e+01 6.761923432350158691e-01 7.660265445709228516e+00 2.500937223434448242e+00 3.896649777889251709e-01
1.956000000000000000e+03 7.388682556152343750e+01 3.659382629394531250e+01 -3.148141503334045410e-01 7.102043151855468750e+00 2.036168575286865234e+00 1.337241977453231812e-01
1.957000000000000000e+03 7.600422668457031250e+01 3.548554992675781250e+01 -2.779811918735504150e-01 8.507077217102050781e+00 2.468729019165039062e+00 2.822898924350738525e-01
1.958000000000000000e+03 7.131260681152343750e+01 3.393925857543945312e+01 -6.112119555473327637e-01 5.573559761047363281e+00 1.488704323768615723e+00 4.772184044122695923e-02
1.959000000000000000e+03 7.459826660156250000e+01 2.195762634277343750e+01 1.810245364904403687e-01 8.236166000366210938e+00 2.525157213211059570e+00 4.002993106842041016e-01
1.960000000000000000e+03 7.336109161376953125e+01 2.325238800048828125e+01 2.743213474750518799e-01 8.266719818115234375e+00 2.562312364578247070e+00 3.379456996917724609e-01
1.961000000000000000e+03 7.692565155029296875e+01 2.768703842163085938e+01 3.662159666419029236e-02 8.459584236145019531e+00 2.548861742019653320e+00 6.286001205444335938e-01
1.962000000000000000e+03 7.442896270751953125e+01 2.619758987426757812e+01 1.812398433685302734e-01 7.985141277313232422e+00 2.449914455413818359e+00 6.489024162292480469e-01
1.963000000000000000e+03 7.696249389648437500e+01 2.898378944396972656e+01 -3.861833736300468445e-02 8.604580879211425781e+00 2.569788694381713867e+00 6.398487687110900879e-01
1.964000000000000000e+03 7.448711395263671875e+01 2.477970123291015625e+01 2.492523789405822754e-01 8.063190460205078125e+00 2.493732929229736328e+00 5.374040603637695312e-01
1.965000000000000000e+03 6.812711334228515625e+01 -1.765243721008300781e+01 -1.251482516527175903e-01 2.232716083526611328e+00 6.322703361511230469e-01 -1.058254018425941467e-01
1.966000000000000000e+03 7.079087829589843750e+01 -1.615275192260742188e+01 -3.114590644836425781e-01 4.740439891815185547e+00 1.328694343566894531e+00 -5.626518726348876953e-01
1.967000000000000000e+03 7.401230621337890625e+01 -3.245416641235351562e+01 -4.281876087188720703e-01 7.642288208007812500e+00 2.164230108261108398e+00 -2.816731929779052734e-01
1.968000000000000000e+03 7.579244995117187500e+01 -2.807002639770507812e+01 7.145690917968750000e-01 7.798944950103759766e+00 2.554054260253906250e+00 -1.503236591815948486e-01
1.969000000000000000e+03 7.676059722900390625e+01 3.151231575012207031e+01 -1.156859472393989563e-01 8.747360229492187500e+00 2.589502096176147461e+00 5.383259654045104980e-01
1.970000000000000000e+03 7.566625213623046875e+01 2.627443695068359375e+01 1.294032484292984009e-01 8.150774955749511719e+00 2.484053373336791992e+00 6.495500206947326660e-01
1.971000000000000000e+03 7.697935485839843750e+01 -3.075484085083007812e+01 1.275287866592407227e-01 7.433543205261230469e+00 2.268321752548217773e+00 -6.761991977691650391e-01
1.972000000000000000e+03 7.594987487792968750e+01 -3.025194358825683594e+01 3.533245325088500977e-01 7.693227767944335938e+00 2.413965702056884766e+00 -5.951031446456909180e-01
1.973000000000000000e+03 7.504825592041015625e+01 -2.931543159484863281e+01 6.773528456687927246e-01 8.037680625915527344e+00 2.614510059356689453e+00 -4.467422068119049072e-01
1.974000000000000000e+03 7.695827484130859375e+01 -2.959083557128906250e+01 3.167255222797393799e-01 7.423362731933593750e+00 2.322026491165161133e+00 -4.771762788295745850e-01
1.975000000000000000e+03 7.249787139892578125e+01 3.166881370544433594e+01 -5.103853344917297363e-01 6.659726142883300781e+00 1.844802260398864746e+00 4.238327443599700928e-01
1.976000000000000000e+03 7.579013061523437500e+01 3.004539299011230469e+01 -1.620252281427383423e-01 8.294073104858398438e+00 2.439614295959472656e+00 6.847442388534545898e-01
1.977000000000000000e+03 7.563060760498046875e+01 1.229325890541076660e+00 4.443521201610565186e-01 7.642431735992431641e+00 2.426035165786743164e+00 -8.696864545345306396e-02
1.978000000000000000e+03 6.577032470703125000e+01 -1.376352977752685547e+01 6.258674860000610352e-01 2.371432304382324219e+00 8.991899490356445312e-01 8.703917860984802246e-01
1.979000000000000000e+03 7.257149505615234375e+01 1.616452980041503906e+01 9.914845228195190430e-02 8.845966339111328125e+00 2.683534622192382812e+00 3.367175757884979248e-01
1.980000000000000000e+03 7.331419372558593750e+01 1.521260929107666016e+01 2.510819211602210999e-02 8.628452301025390625e+00 2.596068143844604492e+00 2.563568353652954102e-01
1.981000000000000000e+03 7.234100341796875000e+01 1.894304275512695312e+01 4.053963720798492432e-02 8.860652923583984375e+00 2.670357942581176758e+00 2.996065020561218262e-01
1.982000000000000000e+03 7.240382385253906250e+01 1.756122589111328125e+01 7.729101181030273438e-02 8.940156936645507812e+00 2.705234289169311523e+00 3.535059094429016113e-01
1.983000000000000000e+03 1.664956665039062500e+01 -1.083526515960693359e+01 -3.489810466766357422e+00 7.639737725257873535e-01 -8.177510499954223633e-01 1.779181838035583496e+00
1.984000000000000000e+03 4.615599441528320312e+01 3.247676467895507812e+01 -2.872573435306549072e-01 3.183173179626464844e+00 8.687747716903686523e-01 7.033572196960449219e-01
1.985000000000000000e+03 4.434903335571289062e+01 3.496388626098632812e+01 -7.003779411315917969e-01 3.780089616775512695e+00 9.239135384559631348e-01 3.947915136814117432e-01
1.986000000000000000e+03 3.840504837036132812e+01 1.033452033996582031e+01 2.172607421875000000e+00 7.621211528778076172e+00 2.938145637512207031e+00 -1.003534078598022461e+00
1.987000000000000000e+03 4.771594619750976562e+01 -8.299237251281738281e+00 -5.234734341502189636e-02 6.397524356842041016e+00 1.903553009033203125e+00 -1.598242759704589844e+00
1.988000000000000000e+03 4.650566864013671875e+01 -8.688056945800781250e+00 -4.061983525753021240e-01 6.535607814788818359e+00 1.838822841644287109e+00 -1.603274345397949219e+00
1.989000000000000000e+03 3.982771873474121094e+00 2.111880302429199219e+01 -4.043227806687355042e-02 1.824324488639831543e+00 5.351676344871520996e-01 -3.585185706615447998e-01
1.990000000000000000e+03 2.823282241821289062e+00 2.001638221740722656e+01 -2.233549579977989197e-02 1.472990632057189941e+00 4.351965188980102539e-01 -2.968476414680480957e-01
1.991000000000000000e+03 4.098765373229980469e+00 2.246420860290527344e+01 -4.256644472479820251e-02 1.927023530006408691e+00 5.653371214866638184e-01 -3.420356214046478271e-01
1.992000000000000000e+03 4.437372684478759766e+00 2.521802520751953125e+01 -4.240920394659042358e-02 2.124216079711914062e+00 6.245420575141906738e-01 -3.149664103984832764e-01
1.993000000000000000e+03 4.949299812316894531e+00 2.950535583496093750e+01 -5.008030310273170471e-02 2.375505208969116211e+00 6.976274847984313965e-01 -2.571965456008911133e-01
1.994000000000000000e+03 3.910446166992187500e+00 1.723025894165039062e+01 -5.505265668034553528e-02 1.564035534858703613e+00 4.526948630809783936e-01 -4.186452329158782959e-01
1.995000000000000000e+03 3.927750587463378906e+00 1.851922416687011719e+01 -4.652878269553184509e-02 1.648856520652770996e+00 4.806983172893524170e-01 -3.997595310211181641e-01
1.996000000000000000e+03 2.790171623229980469e+00 1.868918800354003906e+01 -2.716847322881221771e-02 1.355259776115417480e+00 3.984273672103881836e-01 -3.113828897476196289e-01
1.997000000000000000e+03 3.931586742401123047e+00 1.980807113647460938e+01 -3.988885134458541870e-02 1.736478924751281738e+00 5.089769959449768066e-01 -3.776949644088745117e-01
1.998000000000000000e+03 5.410261154174804688e+00 2.348781204223632812e+01 -5.917885527014732361e-02 2.226173162460327148e+00 6.500982642173767090e-01 -3.841398954391479492e-01
1.999000000000000000e+03 4.622556209564208984e+00 2.663064384460449219e+01 -4.493150860071182251e-02 2.218337774276733398e+00 6.520218849182128906e-01 -2.985347509384155273e-01
2.000000000000000000e+03 4.256389141082763672e+00 2.382972145080566406e+01 -4.254710674285888672e-02 2.023728609085083008e+00 5.943544507026672363e-01 -3.249475657939910889e-01
2.001000000000000000e+03 2.667697668075561523e+00 1.475276470184326172e+01 -2.608960680663585663e-02 9.555920362472534180e-01 2.788507342338562012e-01 -3.707732558250427246e-01
2.002000000000000000e+03 3.808716773986816406e+00 1.116068267822265625e+01 3.335715457797050476e-02 1.122531652450561523e+00 3.467666506767272949e-01 -4.973845183849334717e-01
2.003000000000000000e+03 3.720378875732421875e+00 1.345273208618164062e+01 -2.705036289989948273e-02 1.251214623451232910e+00 3.672492802143096924e-01 -4.778038561344146729e-01
2.004000000000000000e+03 3.767000913619995117e+00 1.469195079803466797e+01 -3.847940266132354736e-02 1.354554533958435059e+00 3.948225080966949463e-01 -4.634205698966979980e-01
2.005000000000000000e+03 5.993813514709472656e+00 3.207583999633789062e+01 -6.889232993125915527e-02 2.596558332443237305e+00 7.582998275756835938e-01 -2.398375421762466431e-01
2.006000000000000000e+03 6.046413421630859375e+00 3.605329132080078125e+01 -8.401975780725479126e-02 2.709010601043701172e+00 7.874972820281982422e-01 -1.564553678035736084e-01
2.007000000000000000e+03 4.793917179107666016e+00 2.806382560729980469e+01 -4.699590802192687988e-02 2.302937746047973633e+00 6.767825484275817871e-01 -2.825503349304199219e-01
2.008000000000000000e+03 4.954699039459228516e+00 3.328084182739257812e+01 -5.593526735901832581e-02 2.499315023422241211e+00 7.330139279365539551e-01 -1.998661905527114868e-01
2.009000000000000000e+03 5.156687736511230469e+00 3.094555091857910156e+01 -5.262711271643638611e-02 2.440906524658203125e+00 7.164838314056396484e-01 -2.353923320770263672e-01
2.010000000000000000e+03 4.813294887542724609e+00 1.346290493011474609e+01 -4.807838797569274902e-02 1.700920701026916504e+00 4.958526790142059326e-01 -5.480059981346130371e-01
2.011000000000000000e+03 2.513014078140258789e+00 8.888140678405761719e+00 9.352880716323852539e-02 2.510816156864166260e-01 1.033831313252449036e-01 -3.010657429695129395e-01
2.012000000000000000e+03 3.984791278839111328e+00 1.025625038146972656e+01 6.689593940973281860e-02 1.137439250946044922e+00 3.613005578517913818e-01 -5.010318756103515625e-01
2.013000000000000000e+03 3.090492010116577148e+00 7.548727512359619141e+00 1.996802836656570435e-01 3.960920870304107666e-01 1.787317097187042236e-01 -2.630204558372497559e-01
2.014000000000000000e+03 2.135996341705322266e+00 6.449881076812744141e+00 1.662667989730834961e-01 -1.819231808185577393e-01 -4.696913529187440872e-03 -3.756360337138175964e-02
2.015000000000000000e+03 5.296110534667968750e+01 -2.478149795532226562e+01 1.449940443038940430e+00 4.780909061431884766e+00 1.869254827499389648e+00 -1.232181668281555176e+00
2.016000000000000000e+03 4.581717300415039062e+01 -2.458361244201660156e+01 2.299418210983276367e+00 9.514100074768066406e+00 3.544055461883544922e+00 -2.542550086975097656e+00
2.017000000000000000e+03 7.266588592529296875e+01 -2.030910491943359375e+01 -1.422073721885681152e+00 7.223343372344970703e+00 1.740380883216857910e+00 -2.954526841640472412e-01
2.018000000000000000e+03 7.246593475341796875e+01 -4.105267822742462158e-01 6.820729374885559082e-01 9.355757713317871094e+00 3.011349201202392578e+00 2.437184005975723267e-01
2.019000000000000000e+03 3.624387741088867188e+01 -1.137672615051269531e+01 -1.040329098701477051e+00 3.586602449417114258e+00 7.638819813728332520e-01 -2.310336112976074219e+00
2.020000000000000000e+03 3.496904373168945312e+01 -1.453107738494873047e+01 -1.278170228004455566e+00 1.842178463935852051e+00 1.692024916410446167e-01 -1.634361982345581055e+00
2.021000000000000000e+03 4.589349746704101562e+01 -2.788316726684570312e+01 1.590120434761047363e+00 8.827891349792480469e+00 3.125403642654418945e+00 -2.133409500122070312e+00
2.022000000000000000e+03 4.690687561035156250e+01 -2.735458183288574219e+01 1.803813457489013672e+00 7.991910457611083984e+00 2.938717126846313477e+00 -2.310575962066650391e+00
2.023000000000000000e+03 7.026999664306640625e+01 3.285522842407226562e+01 -7.343157529830932617e-01 4.940795421600341797e+00 1.261943936347961426e+00 -1.049711778759956360e-01
2.024000000000000000e+03 4.115979385375976562e+01 3.314307212829589844e+00 1.163242697715759277e+00 7.119722366333007812e+00 2.484889507293701172e+00 -2.253459215164184570e+00
2.025000000000000000e+03 4.194449996948242188e+01 2.109504222869873047e+00 1.004003524780273438e+00 6.835726737976074219e+00 2.351918935775756836e+00 -2.462864160537719727e+00
2.026000000000000000e+03 7.098314666748046875e+01 -4.673408985137939453e+00 2.163766324520111084e-01 7.871128082275390625e+00 2.426251411437988281e+00 6.526859998703002930e-01
2.027000000000000000e+03 3.744652557373046875e+01 -1.527253723144531250e+01 -9.519930481910705566e-01 3.339774370193481445e+00 7.163344025611877441e-01 -2.613579511642456055e+00
2.028000000000000000e+03 3.770333099365234375e+01 -1.659321022033691406e+01 -5.689793229103088379e-01 3.204326152801513672e+00 7.906040549278259277e-01 -3.039482116699218750e+00
2.029000000000000000e+03 7.284719085693359375e+01 -1.113691425323486328e+01 -6.478124856948852539e-02 6.275535106658935547e+00 1.863226175308227539e+00 -3.082215189933776855e-01
2.030000000000000000e+03 5.650699615478515625e+00 -1.688808441162109375e+01 3.805851340293884277e-01 8.793155670166015625e+00 2.752122402191162109e+00 2.934374213218688965e-01
2.031000000000000000e+03 7.145576477050781250e+01 -3.213822364807128906e+00 2.933730781078338623e-01 8.632513046264648438e+00 2.677765846252441406e+00 5.653946399688720703e-01
2.032000000000000000e+03 7.183744049072265625e+01 -1.774973869323730469e+00 4.929120242595672607e-01 9.271753311157226562e+00 2.929399728775024414e+00 4.111643135547637939e-01
2.033000000000000000e+03 7.343781280517578125e+01 -5.144414901733398438e+00 4.271529987454414368e-02 7.548994064331054688e+00 2.277512788772583008e+00 -2.324703633785247803e-01
2.034000000000000000e+03 6.739063262939453125e+01 -1.155939674377441406e+01 5.961971282958984375e-01 3.634631156921386719e+00 1.269248485565185547e+00 9.152528643608093262e-01
2.035000000000000000e+03 7.122824859619140625e+01 -1.010637092590332031e+01 4.227071627974510193e-02 6.032385349273681641e+00 1.822396755218505859e+00 5.187644436955451965e-02
2.036000000000000000e+03 7.884472370147705078e+00 -2.647601699829101562e+01 -3.482939898967742920e-01 1.120572757720947266e+01 3.257230043411254883e+00 1.824201226234436035e+00
2.037000000000000000e+03 3.537870788574218750e+01 2.211324119567871094e+01 5.919477343559265137e-01 5.927985668182373047e+00 1.955979943275451660e+00 -1.950167715549468994e-01
2.038000000000000000e+03 4.562894821166992188e+01 -2.290194702148437500e+01 2.670212268829345703e+00 9.559843063354492188e+00 3.669016599655151367e+00 -2.377584934234619141e+00
2.039000000000000000e+03 4.406476593017578125e+01 -1.942351913452148438e+01 7.867196798324584961e-01 1.043990325927734375e+01 3.367986917495727539e+00 -1.509181141853332520e+00
2.040000000000000000e+03 4.781907653808593750e+01 -1.389705657958984375e+01 -1.276453852653503418e+00 6.870460987091064453e+00 1.678202152252197266e+00 -4.819343984127044678e-01
2.041000000000000000e+03 3.852377319335937500e+01 1.351385211944580078e+01 1.606662631034851074e+00 7.916426181793212891e+00 2.856926679611206055e+00 -6.237552762031555176e-01
2.042000000000000000e+03 7.144879150390625000e+01 -6.547638416290283203e+00 7.600720971822738647e-02 7.123245239257812500e+00 2.159775733947753906e+00 2.977692484855651855e-01
2.043000000000000000e+03 7.198832702636718750e+01 -5.298554897308349609e+00 8.712303638458251953e-02 7.676649570465087891e+00 2.329131841659545898e+00 1.758543699979782104e-01
2.044000000000000000e+03 6.666928100585937500e+01 -3.740516662597656250e+01 3.377637267112731934e-01 1.227639913558959961e+00 4.696210920810699463e-01 5.604161620140075684e-01
2.045000000000000000e+03 7.027470397949218750e+01 -1.049034690856933594e+01 1.257148385047912598e-01 5.381244182586669922e+00 1.652087807655334473e+00 3.474198281764984131e-01
2.046000000000000000e+03 3.963819885253906250e+01 2.153818321228027344e+01 6.171140670776367188e-01 6.667654991149902344e+00 2.185430765151977539e+00 5.235825181007385254e-01
2.047000000000000000e+03 3.879208374023437500e+01 1.833954429626464844e+01 9.290173649787902832e-01 7.312303543090820312e+00 2.472396135330200195e+00 1.713165640830993652e-01
2.048000000000000000e+03 5.586399841308593750e+01 -2.264438247680664062e+01 1.035049915313720703e+00 2.172813653945922852e+00 9.623590707778930664e-01 2.963436841964721680e-01
2.049000000000000000e+03 5.181364059448242188e+01 -1.690619468688964844e+01 -1.678279280662536621e+00 3.964020490646362305e+00 6.857223510742187500e-01 -7.617948651313781738e-01
2.050000000000000000e+03 5.289744949340820312e+01 -1.975151824951171875e+01 -9.019926190376281738e-02 3.063306093215942383e+00 8.919320106506347656e-01 -8.890956044197082520e-01
2.051000000000000000e+03 7.511877441406250000e+01 4.057051467895507812e+01 -6.854234263300895691e-03 8.042371749877929688e+00 2.410655260086059570e+00 2.346412986516952515e-01
2.052000000000000000e+03 4.612057876586914062e+01 -7.422395229339599609e+00 -1.863123625516891479e-01 6.435519218444824219e+00 1.874762058258056641e+00 -1.862334012985229492e+00
2.053000000000000000e+03 4.161274337768554688e+01 -1.551997184753417969e+01 -1.319769144058227539e+00 7.934382915496826172e+00 1.984384179115295410e+00 -2.532587528228759766e+00
2.054000000000000000e+03 6.259250640869140625e+00 -2.155439758300781250e+01 2.631366729736328125e+00 1.167908763885498047e+01 4.293136596679687500e+00 1.954176902770996094e+00
2.055000000000000000e+03 4.098939895629882812e+01 2.548414421081542969e+01 2.644976973533630371e-01 5.743419170379638672e+00 1.802375078201293945e+00 6.914411783218383789e-01
2.056000000000000000e+03 5.884293365478515625e+01 -2.215241813659667969e+01 9.051433205604553223e-01 1.304806590080261230e+00 6.629849672317504883e-01 1.256986141204833984e+00
2.057000000000000000e+03 6.262923812866210938e+01 -1.696796226501464844e+01 -4.526727199554443359e-01 1.371842145919799805e+00 2.757508456707000732e-01 1.334963560104370117e+00
2.058000000000000000e+03 7.321713256835937500e+01 2.614093780517578125e+01 2.933622896671295166e-01 7.820557594299316406e+00 2.434175968170166016e+00 4.815228581428527832e-01
2.059000000000000000e+03 2.208937644958496094e+01 -9.121414184570312500e+00 -1.804814696311950684e+00 -2.259136438369750977e-01 -6.092184782028198242e-01 -1.225906386971473694e-01
2.060000000000000000e+03 7.165175628662109375e+01 2.944951248168945312e+01 -1.140906438231468201e-01 6.772026538848876953e+00 1.997380852699279785e+00 3.375759720802307129e-01
2.061000000000000000e+03 2.499211883544921875e+01 -1.254684257507324219e+01 -4.412579059600830078e+00 -2.291869930922985077e-02 -1.330649256706237793e+00 3.630478382110595703e-01
2.062000000000000000e+03 2.459574127197265625e+01 -1.099062156677246094e+01 -3.176857709884643555e+00 1.543353311717510223e-02 -9.484272599220275879e-01 -2.841062545776367188e-01
2.063000000000000000e+03 1.551548862457275391e+01 -3.789074325561523438e+01 -2.417337447404861450e-01 2.590434849262237549e-01 5.192922428250312805e-03 3.012538254261016846e-01
2.064000000000000000e+03 1.049279880523681641e+01 -3.275189971923828125e+01 -1.947146296501159668e+00 3.788788557052612305e+00 5.524926781654357910e-01 -3.349997401237487793e-01
2.065000000000000000e+03 1.381805229187011719e+01 -3.495580291748046875e+01 -1.070607781410217285e+00 6.767174601554870605e-01 -1.181671097874641418e-01 1.004742234945297241e-01
2.066000000000000000e+03 3.846777725219726562e+01 1.194964981079101562e+01 1.912915229797363281e+00 7.834658622741699219e+00 2.924272060394287109e+00 -8.322098255157470703e-01
2.067000000000000000e+03 3.427890396118164062e+01 -3.505474472045898438e+01 -1.876189708709716797e+00 -2.619051039218902588e-01 -6.414284110069274902e-01 -2.134963870048522949e-01
2.068000000000000000e+03 1.882933616638183594e+01 -1.010274696350097656e+01 -3.275406837463378906e+00 -2.926909327507019043e-01 -1.070429325103759766e+00 8.879705071449279785e-01
2.069000000000000000e+03 3.738319015502929688e+01 1.845018959045410156e+01 1.037838459014892578e+00 6.806405544281005859e+00 2.353273153305053711e+00 -6.883443146944046021e-02
2.070000000000000000e+03 6.700805664062500000e+01 -1.350443935394287109e+01 4.709579646587371826e-01 3.036311626434326172e+00 1.052180886268615723e+00 6.719239950180053711e-01
2.071000000000000000e+03 6.814756774902343750e+01 -1.250307273864746094e+01 4.392839074134826660e-01 3.755491018295288086e+00 1.258432507514953613e+00 5.632257461547851562e-01
2.072000000000000000e+03 4.662958908081054688e+01 -2.369441032409667969e+01 2.378892421722412109e+00 8.206189155578613281e+00 3.175524473190307617e+00 -2.114086389541625977e+00
2.073000000000000000e+03 7.404538726806640625e+01 -2.703854942321777344e+01 1.451649188995361328e+00 8.748575210571289062e+00 3.060067415237426758e+00 3.308401107788085938e-01
2.074000000000000000e+03 6.274713134765625000e+01 -1.593228149414062500e+01 -1.350673139095306396e-01 1.370707988739013672e+00 3.706922233104705811e-01 1.102104544639587402e+00
2.075000000000000000e+03 6.401235961914062500e+01 -1.536237716674804688e+01 3.014301359653472900e-01 1.628601074218750000e+00 5.790093541145324707e-01 1.018662810325622559e+00
2.076000000000000000e+03 7.297492218017578125e+01 -3.361957931518554688e+01 -5.288590788841247559e-01 6.700324058532714844e+00 1.851439595222473145e+00 2.155935317277908325e-01
2.077000000000000000e+03 6.716982364654541016e+00 -2.017193603515625000e+01 2.265090703964233398e+00 1.239724731445312500e+01 4.398701667785644531e+00 1.706397056579589844e+00
2.078000000000000000e+03 5.397697830200195312e+01 -2.248989677429199219e+01 9.591990113258361816e-01 3.156687736511230469e+00 1.234766006469726562e+00 -6.004201173782348633e-01
2.079000000000000000e+03 5.320728302001953125e+01 3.669524765014648438e+01 -4.144532978534698486e-01 6.936752200126647949e-01 8.376657217741012573e-02 3.012335002422332764e-01
2.080000000000000000e+03 6.028239822387695312e+01 -2.060855484008789062e+01 7.382128387689590454e-02 1.134825229644775391e+00 3.625939488410949707e-01 1.542018771171569824e+00
2.081000000000000000e+03 1.623635673522949219e+01 -1.007324600219726562e+01 -2.583795547485351562e+00 1.940537095069885254e+00 -1.929775327444076538e-01 2.343063592910766602e+00
2.082000000000000000e+03 7.436885833740234375e+01 2.758944511413574219e+01 1.045547798275947571e-01 7.919751167297363281e+00 2.407291650772094727e+00 6.933618187904357910e-01
2.083000000000000000e+03 6.751134490966796875e+01 3.890903091430664062e+01 5.771492421627044678e-02 2.278513669967651367e+00 7.008686065673828125e-01 -2.546629309654235840e-01
2.084000000000000000e+03 7.036705493927001953e+00 -1.491875171661376953e+01 -7.687585353851318359e-01 9.055118560791015625e+00 2.485908031463623047e+00 1.001995325088500977e+00
2.085000000000000000e+03 9.441684722900390625e+00 -3.421454238891601562e+01 -1.335151553153991699e+00 4.805508613586425781e+00 1.041107177734375000e+00 -2.827674448490142822e-01
2.086000000000000000e+03 5.832558631896972656e+00 -2.659075164794921875e+01 -3.120642602443695068e-01 1.028147602081298828e+01 2.990823507308959961e+00 3.097529888153076172e+00
2.087000000000000000e+03 4.874004364013671875e+01 -1.672700119018554688e+01 -1.187168240547180176e+00 6.773983001708984375e+00 1.676044464111328125e+00 -5.709116458892822266e-01
2.088000000000000000e+03 5.103629302978515625e+01 -1.785837936401367188e+01 -1.028397560119628906e+00 4.833356380462646484e+00 1.141487598419189453e+00 -7.907881140708923340e-01
2.089000000000000000e+03 5.680081844329833984e+00 -3.127170562744140625e+01 -1.601975798606872559e+00 8.645775794982910156e+00 2.113139867782592773e+00 1.332461118698120117e+00
2.090000000000000000e+03 4.848802089691162109e+00 -3.348756408691406250e+01 -1.013271450996398926e+00 8.949180603027343750e+00 2.380772590637207031e+00 8.521893024444580078e-01
2.091000000000000000e+03 6.040306568145751953e+00 -1.843050384521484375e+01 1.235428571701049805e+00 9.821372032165527344e+00 3.317040205001831055e+00 7.188768386840820312e-01
2.092000000000000000e+03 6.017888069152832031e+00 -2.281361961364746094e+01 2.122561216354370117e+00 1.151356983184814453e+01 4.090839385986328125e+00 2.423036336898803711e+00
2.093000000000000000e+03 8.200696945190429688e+00 -3.305792236328125000e+01 -1.825818657875061035e+00 6.402515411376953125e+00 1.373008966445922852e+00 -2.426921576261520386e-02
2.094000000000000000e+03 6.433316802978515625e+01 -1.963118171691894531e+01 -6.967538595199584961e-01 1.090945720672607422e+00 1.182575598359107971e-01 1.370392203330993652e+00
2.095000000000000000e+03 6.451091003417968750e+01 -1.731780052185058594e+01 -1.576628834009170532e-01 1.371964693069458008e+00 3.642905354499816895e-01 1.171137571334838867e+00
2.096000000000000000e+03 5.235484695434570312e+01 4.109172821044921875e+01 -2.731341719627380371e-01 9.573078751564025879e-01 2.052521258592605591e-01 1.139778494834899902e-01
2.097000000000000000e+03 4.759196090698242188e+01 -2.275357437133789062e+01 2.035880565643310547e+00 7.635334968566894531e+00 2.901364803314208984e+00 -1.924570679664611816e+00
2.098000000000000000e+03 5.300720977783203125e+01 -2.755857658386230469e+01 1.606897115707397461e+00 6.148500919342041016e+00 2.326619386672973633e+00 -1.496392965316772461e+00
2.099000000000000000e+03 4.783600616455078125e+01 -1.515866279602050781e+01 -1.352355837821960449e+00 7.187889099121093750e+00 1.750659942626953125e+00 -5.214766263961791992e-01
2.100000000000000000e+03 7.491987609863281250e+01 3.372053527832031250e+01 -3.086017072200775146e-01 7.933797359466552734e+00 2.287558555603027344e+00 4.150043725967407227e-01
2.101000000000000000e+03 6.269268798828125000e+01 3.951533508300781250e+01 2.037872374057769775e-01 5.842966958880424500e-02 7.866507023572921753e-02 9.662015736103057861e-02
2.102000000000000000e+03 5.985264205932617188e+01 -3.489940261840820312e+01 -1.486949920654296875e-01 6.485444903373718262e-01 1.499548405408859253e-01 -8.763437271118164062e-01
2.103000000000000000e+03 6.030556106567382812e+01 -1.949881172180175781e+01 -5.655053853988647461e-01 1.098554491996765137e+00 1.599147170782089233e-01 1.717772841453552246e+00
2.104000000000000000e+03 5.992575454711914062e+01 -1.841977882385253906e+01 -8.302428722381591797e-01 1.052995204925537109e+00 6.682569533586502075e-02 1.566136121749877930e+00
2.105000000000000000e+03 4.478512573242187500e+01 -2.850691604614257812e+01 1.095241785049438477e+00 9.609686851501464844e+00 3.211478471755981445e+00 -1.372323989868164062e+00
2.106000000000000000e+03 3.902412796020507812e+01 2.010245895385742188e+01 7.649430632591247559e-01 6.897437572479248047e+00 2.298714160919189453e+00 3.460475802421569824e-01
2.107000000000000000e+03 4.842660903930664062e+01 -1.803867530822753906e+01 -5.658197402954101562e-01 6.844860076904296875e+00 1.883712053298950195e+00 -7.320075035095214844e-01
2.108000000000000000e+03 6.147945785522460938e+01 -2.092721748352050781e+01 -9.294961392879486084e-02 1.092733979225158691e+00 2.999353110790252686e-01 1.584439396858215332e+00
2.109000000000000000e+03 4.270569324493408203e+00 -2.169578790664672852e+00 1.070454359054565430e+00 5.883724093437194824e-01 4.976480007171630859e-01 8.799623847007751465e-01
2.110000000000000000e+03 4.557694435119628906e+00 -2.935967206954956055e+00 1.308380722999572754e+00 1.088573098182678223e+00 7.190861105918884277e-01 1.444888472557067871e+00
2.111000000000000000e+03 5.041460990905761719e+00 -2.344852924346923828e+00 1.529845595359802246e+00 8.295115828514099121e-01 7.078071832656860352e-01 1.385669589042663574e+00
2.112000000000000000e+03 5.585279941558837891e+00 -2.786920785903930664e+00 1.890393495559692383e+00 1.435579776763916016e+00 9.977920055389404297e-01 2.132104158401489258e+00
2.113000000000000000e+03 7.845595836639404297e+00 -1.960459113121032715e+00 4.287984848022460938e+00 2.854938983917236328e+00 2.142877101898193359e+00 4.308894157409667969e+00
2.114000000000000000e+03 8.430223464965820312e+00 -2.838375329971313477e+00 3.026331901550292969e+00 5.745497226715087891e+00 2.631548643112182617e+00 5.417649745941162109e+00
2.115000000000000000e+03 9.394238471984863281e+00 1.946721196174621582e+00 1.239249825477600098e+00 6.727782249450683594e+00 2.390109539031982422e+00 -2.900473833084106445e+00
2.116000000000000000e+03 7.915246009826660156e+00 -2.414421558380126953e+00 3.683280706405639648e+00 3.834091424942016602e+00 2.255211591720581055e+00 4.739067554473876953e+00
2.117000000000000000e+03 8.626990318298339844e+00 2.279565334320068359e+00 1.486178517341613770e+00 3.316680192947387695e+00 1.440857648849487305e+00 -2.120558023452758789e+00
2.118000000000000000e+03 9.213310241699218750e+00 1.866086840629577637e+00 1.480633854866027832e+00 5.656232357025146484e+00 2.141059875488281250e+00 -2.939820051193237305e+00
2.119000000000000000e+03 9.587859153747558594e+00 2.074945926666259766e+00 9.539517760276794434e-01 7.855636119842529297e+00 2.642876386642456055e+00 -2.597629070281982422e+00
2.120000000000000000e+03 7.577031612396240234e+00 -2.128201007843017578e+00 3.856014251708984375e+00 2.594276666641235352e+00 1.935087203979492188e+00 3.977554798126220703e+00
2.121000000000000000e+03 7.344523906707763672e+00 -2.284121990203857422e+00 3.474349498748779297e+00 2.479806184768676758e+00 1.786246657371520996e+00 3.765730857849121094e+00
2.122000000000000000e+03 7.874824523925781250e+00 2.229051589965820312e+00 1.315121769905090332e+00 1.590172290802001953e+00 8.715882301330566406e-01 -1.208763599395751953e+00
2.123000000000000000e+03 7.199097156524658203e+00 2.210796833038330078e+00 1.039660334587097168e+00 7.520971894264221191e-01 5.375272631645202637e-01 -5.768036246299743652e-01
2.124000000000000000e+03 2.997544288635253906e+00 6.590609073638916016e+00 2.705030143260955811e-01 2.179817855358123779e-01 1.465454399585723877e-01 -1.424902081489562988e-01
2.125000000000000000e+03 6.150682926177978516e+00 2.612065076828002930e+00 6.883414983749389648e-01 4.149275422096252441e-01 3.309807181358337402e-01 -1.171328797936439514e-01
2.126000000000000000e+03 8.105011940002441406e+00 -2.254496574401855469e+00 3.994619607925415039e+00 4.060753345489501953e+00 2.416611909866333008e+00 4.998467922210693359e+00
2.127000000000000000e+03 9.362042427062988281e+00 -2.141970396041870117e+00 3.666503190994262695e+00 9.235946655273437500e+00 3.870735168457031250e+00 6.254871845245361328e+00
2.128000000000000000e+03 5.699878692626953125e+00 2.282253265380859375e+00 3.519626557826995850e-01 1.764036417007446289e-01 1.585098952054977417e-01 1.676107048988342285e-01
2.129000000000000000e+03 9.688238143920898438e+00 -2.247663497924804688e+00 3.086372375488281250e+00 1.056667232513427734e+01 4.095913410186767578e+00 5.807234764099121094e+00
2.130000000000000000e+03 3.767346382141113281e+00 2.672369241714477539e+00 1.331575214862823486e-01 -1.819086074829101562e-02 3.449000045657157898e-02 3.893158435821533203e-01
2.131000000000000000e+03 4.076694965362548828e+00 2.389304637908935547e+00 7.066933065652847290e-02 -1.098228152841329575e-02 1.790611632168292999e-02 4.010198712348937988e-01
2.132000000000000000e+03 9.507190704345703125e+00 2.575106382369995117e+00 7.924127578735351562e-01 6.886171817779541016e+00 2.303575277328491211e+00 -2.157366275787353516e+00
2.133000000000000000e+03 1.005769824981689453e+01 -2.040096521377563477e+00 3.070845603942871094e+00 1.235997486114501953e+01 4.629246234893798828e+00 5.088968276977539062e+00
2.134000000000000000e+03 1.193915462493896484e+01 -9.293173998594284058e-02 9.246706008911132812e+00 9.976263999938964844e+00 5.766891002655029297e+00 3.037544012069702148e+00
2.135000000000000000e+03 1.280657577514648438e+01 -3.058422207832336426e-01 7.451961517333984375e+00 7.836662292480468750e+00 4.586587429046630859e+00 2.456053256988525391e+00
2.136000000000000000e+03 1.252754402160644531e+01 -1.506583988666534424e-01 7.853892326354980469e+00 8.411959648132324219e+00 4.879755496978759766e+00 2.727550745010375977e+00
2.137000000000000000e+03 1.092665863037109375e+01 1.831034779548645020e+00 1.172031641006469727e+00 1.282171535491943359e+01 4.198123931884765625e+00 1.697677612304687500e+00
2.138000000000000000e+03 1.034478378295898438e+01 2.851022720336914062e+00 2.820418179035186768e-01 9.175730705261230469e+00 2.837331771850585938e+00 -7.035430669784545898e-01
2.139000000000000000e+03 1.190196609497070312e+01 -1.447795748710632324e+00 6.190171241760253906e+00 1.060664081573486328e+01 5.039043426513671875e+00 8.200799822807312012e-01
2.140000000000000000e+03 1.128145217895507812e+01 -1.502215385437011719e+00 5.610035419464111328e+00 1.275576782226562500e+01 5.509740829467773438e+00 1.023964881896972656e+00
2.141000000000000000e+03 1.147442150115966797e+01 -1.357545256614685059e+00 6.384283065795898438e+00 1.221777725219726562e+01 5.580617904663085938e+00 7.590387463569641113e-01
2.142000000000000000e+03 1.146633911132812500e+01 -1.768464326858520508e+00 4.838919162750244141e+00 1.195178222656250000e+01 5.037210464477539062e+00 1.113472819328308105e+00
2.143000000000000000e+03 1.125775241851806641e+01 -1.902508258819580078e+00 4.112964153289794922e+00 1.237895774841308594e+01 4.947576522827148438e+00 1.550340294837951660e+00
2.144000000000000000e+03 1.184327888488769531e+01 -9.943521022796630859e-01 7.767078876495361328e+00 1.057616710662841797e+01 5.502974033355712891e+00 9.525961875915527344e-01
2.145000000000000000e+03 1.207532501220703125e+01 7.690549492835998535e-01 6.628508567810058594e+00 1.009377670288085938e+01 5.016685485839843750e+00 4.397647857666015625e+00
2.146000000000000000e+03 2.078545331954956055e+00 -5.698974132537841797e+00 1.617985814809799194e-01 1.499508976936340332e+00 4.983922839164733887e-01 8.751411437988281250e-01
2.147000000000000000e+03 3.383261680603027344e+00 2.178565263748168945e+00 -5.941552296280860901e-02 -6.630408018827438354e-02 -3.771588206291198730e-02 4.374369382858276367e-01
2.148000000000000000e+03 1.265500068664550781e+00 -2.231047868728637695e+00 1.194798275828361511e-01 4.760919511318206787e-02 5.012670904397964478e-02 -3.149338811635971069e-02
2.149000000000000000e+03 3.497773885726928711e+00 -2.237962722778320312e+00 7.155770659446716309e-01 4.919921457767486572e-01 3.622707724571228027e-01 5.596190094947814941e-01
2.150000000000000000e+03 3.251775503158569336e+00 -3.483554363250732422e+00 7.224249243736267090e-01 1.012604475021362305e+00 5.205088257789611816e-01 9.486987590789794922e-01
2.151000000000000000e+03 1.562375903129577637e+00 -3.047880649566650391e+00 1.721698492765426636e-01 2.732178270816802979e-01 1.336162984371185303e-01 1.621040552854537964e-01
2.152000000000000000e+03 1.951107382774353027e+00 -2.261884212493896484e+00 2.164153009653091431e-01 2.001558840274810791e-01 1.249713599681854248e-01 6.599783152341842651e-02
2.153000000000000000e+03 3.133766651153564453e+00 2.675512313842773438e+00 6.379518657922744751e-02 -8.996534347534179688e-02 -7.851047441363334656e-03 4.044486284255981445e-01
2.154000000000000000e+03 2.878617763519287109e+00 -2.103929519653320312e+00 4.471643567085266113e-01 3.266145884990692139e-01 2.321336716413497925e-01 2.617467343807220459e-01
2.155000000000000000e+03 2.822792768478393555e+00 2.242811441421508789e+00 -5.599931627511978149e-02 -1.132651120424270630e-01 -5.077932775020599365e-02 4.230731725692749023e-01
2.156000000000000000e+03 2.801671981811523438e+00 2.688386678695678711e+00 3.438987210392951965e-02 -1.166904047131538391e-01 -2.469016052782535553e-02 4.072089195251464844e-01
2.157000000000000000e+03 8.096858859062194824e-01 3.729546785354614258e+00 1.643044687807559967e-02 -5.729337930679321289e-01 -1.669510155916213989e-01 1.834212839603424072e-01
2.158000000000000000e+03 9.987158775329589844e-01 -2.966865539550781250e+00 6.517326831817626953e-02 2.355952560901641846e-02 2.661983668804168701e-02 4.325281456112861633e-02
2.159000000000000000e+03 3.542845535278320312e+01 -1.301464462280273438e+01 -1.188981652259826660e+00 2.661321401596069336e+00 4.417019188404083252e-01 -2.016973972320556641e+00
2.160000000000000000e+03 2.920981025695800781e+01 -1.179735183715820312e+01 -2.311578273773193359e+00 1.040908694267272949e+00 -3.812008798122406006e-01 -5.711873769760131836e-01
2.161000000000000000e+03 1.233864021301269531e+01 -1.192186260223388672e+01 -3.272993564605712891e+00 6.421166419982910156e+00 9.444518089294433594e-01 3.391702175140380859e+00
2.162000000000000000e+03 3.563748121261596680e+00 -8.180742263793945312e+00 -3.388704061508178711e-01 3.606900691986083984e+00 9.804090857505798340e-01 1.493493437767028809e+00
2.163000000000000000e+03 3.327276468276977539e+00 -7.348913669586181641e+00 -1.176498234272003174e-01 3.086823225021362305e+00 8.907520174980163574e-01 1.474557876586914062e+00
2.164000000000000000e+03 4.428197860717773438e+00 -1.014142322540283203e+01 -8.740264177322387695e-01 5.080192565917968750e+00 1.261849880218505859e+00 1.285596966743469238e+00
2.165000000000000000e+03 4.490386199951171875e+01 -2.118349075317382812e+01 2.766042232513427734e+00 1.027846717834472656e+01 3.913352966308593750e+00 -1.730964779853820801e+00
2.166000000000000000e+03 3.867736816406250000e+01 -1.500425624847412109e+01 -1.002270698547363281e+00 4.817594051361083984e+00 1.144596934318542480e+00 -3.022600412368774414e+00
2.167000000000000000e+03 4.613586425781250000e+00 -2.634986877441406250e+01 9.148707985877990723e-02 9.378485679626464844e+00 2.840991973876953125e+00 3.200399875640869141e+00
2.168000000000000000e+03 6.201429367065429688e+00 -2.539833450317382812e+01 1.092847466468811035e+00 1.149187278747558594e+01 3.775416135787963867e+00 2.745530128479003906e+00
2.169000000000000000e+03 7.470262908935546875e+01 5.287941455841064453e+00 3.885384798049926758e-01 8.424493789672851562e+00 2.643909692764282227e+00 4.385578036308288574e-01
2.170000000000000000e+03 7.348278808593750000e+01 6.556788444519042969e+00 3.213875889778137207e-01 9.280751228332519531e+00 2.880641698837280273e+00 4.870334565639495850e-01
2.171000000000000000e+03 3.352002143859863281e+00 8.467552185058593750e+00 1.649456769227981567e-01 6.331405639648437500e-01 2.394258826971054077e-01 -3.822158277034759521e-01
2.172000000000000000e+03 4.438585281372070312e+01 -2.549298763275146484e+00 4.075292646884918213e-01 6.299311161041259766e+00 2.012052059173583984e+00 -2.550572156906127930e+00
2.173000000000000000e+03 4.270776748657226562e+01 -4.632573604583740234e+00 -6.618811190128326416e-02 6.123316764831542969e+00 1.817138671875000000e+00 -2.348115682601928711e+00
2.174000000000000000e+03 3.915852737426757812e+01 1.707131028175354004e+00 1.047540307044982910e+00 6.190535068511962891e+00 2.171422481536865234e+00 -1.819574713706970215e+00
2.175000000000000000e+03 3.829910278320312500e+01 8.628283500671386719e+00 2.172194242477416992e+00 7.211300849914550781e+00 2.815048456192016602e+00 -1.037616610527038574e+00
2.176000000000000000e+03 5.387946319580078125e+01 -1.885940551757812500e+01 -7.647651433944702148e-01 1.832186579704284668e+00 3.202264308929443359e-01 -6.937837600708007812e-01
2.177000000000000000e+03 5.288593292236328125e+01 -1.788853836059570312e+01 -1.293316721916198730e+00 2.711151123046875000e+00 4.253503382205963135e-01 -7.491956353187561035e-01
2.178000000000000000e+03 5.490582275390625000e+01 -2.164796257019042969e+01 8.533509969711303711e-01 2.346097230911254883e+00 9.598344564437866211e-01 -1.442084312438964844e-01
2.179000000000000000e+03 2.877967071533203125e+01 -1.291335964202880859e+01 -2.869152069091796875e+00 7.430840730667114258e-01 -6.378203630447387695e-01 -1.029919832944869995e-01
2.180000000000000000e+03 2.984947395324707031e+01 -1.329431152343750000e+01 -2.615525960922241211e+00 8.791776299476623535e-01 -5.209045410156250000e-01 -2.155178934335708618e-01
2.181000000000000000e+03 4.377234649658203125e+01 -4.202820301055908203e+00 9.076999127864837646e-02 6.231508731842041016e+00 1.896683573722839355e+00 -2.392308712005615234e+00
2.182000000000000000e+03 3.709478378295898438e+01 1.211577892303466797e+01 2.031891584396362305e+00 6.990097045898437500e+00 2.706596612930297852e+00 -7.396141290664672852e-01
2.183000000000000000e+03 3.720076751708984375e+01 1.363016605377197266e+01 1.762797832489013672e+00 7.128369331359863281e+00 2.667350292205810547e+00 -5.795229673385620117e-01
2.184000000000000000e+03 1.721679568290710449e+00 4.737207889556884766e+00 1.285683363676071167e-01 -3.838616907596588135e-01 -7.658800482749938965e-02 1.650960147380828857e-01
2.185000000000000000e+03 1.952822804450988770e+00 3.719644546508789062e+00 9.923883527517318726e-02 -2.837319970130920410e-01 -5.534794926643371582e-02 3.000131249427795410e-01
2.186000000000000000e+03 4.229247665405273438e+01 -3.519746541976928711e+00 1.243561059236526489e-01 6.093923568725585938e+00 1.865483880043029785e+00 -2.394154787063598633e+00
2.187000000000000000e+03 4.092458724975585938e+01 1.415282011032104492e+00 8.844965100288391113e-01 6.576282501220703125e+00 2.238233566284179688e+00 -2.230922937393188477e+00
2.188000000000000000e+03 9.288332939147949219e+00 -1.285436439514160156e+01 -2.298239707946777344e+00 8.698637008666992188e+00 1.920119166374206543e+00 2.375656127929687500e+00
2.189000000000000000e+03 9.434411048889160156e+00 -1.392220306396484375e+01 -1.656618475914001465e+00 9.167840003967285156e+00 2.253366470336914062e+00 2.300031423568725586e+00
2.190000000000000000e+03 4.386175537109375000e+01 -1.377500414848327637e+00 5.409532785415649414e-01 6.360354900360107422e+00 2.070392608642578125e+00 -2.597751379013061523e+00
2.191000000000000000e+03 7.359472656250000000e+01 1.643153762817382812e+01 4.347073659300804138e-02 8.551953315734863281e+00 2.578627347946166992e+00 3.144977092742919922e-01
2.192000000000000000e+03 2.061417579650878906e+01 -9.287789344787597656e+00 -2.047538042068481445e+00 -3.075400888919830322e-01 -7.065234184265136719e-01 2.152072489261627197e-01
2.193000000000000000e+03 5.638798713684082031e+00 -3.025588417053222656e+01 -1.680151700973510742e+00 9.028546333312988281e+00 2.204518318176269531e+00 1.696870565414428711e+00
2.194000000000000000e+03 4.432877063751220703e+00 -2.908130645751953125e+01 -1.030194878578186035e+00 9.350356101989746094e+00 2.496048450469970703e+00 2.447709560394287109e+00
2.195000000000000000e+03 5.141237735748291016e+00 -1.142576694488525391e+01 -1.178549528121948242e+00 6.126882076263427734e+00 1.484499812126159668e+00 1.108557343482971191e+00
2.196000000000000000e+03 4.109375000000000000e+00 -8.861781120300292969e+00 -5.776582360267639160e-01 4.277268409729003906e+00 1.109883069992065430e+00 1.567727923393249512e+00
2.197000000000000000e+03 6.923648834228515625e+01 -1.130299949645996094e+01 2.700130343437194824e-01 4.754292488098144531e+00 1.507291674613952637e+00 4.175379276275634766e-01
2.198000000000000000e+03 6.758931732177734375e+01 -1.471053314208984375e+01 3.241662383079528809e-01 2.982366085052490234e+00 9.919596910476684570e-01 3.802047967910766602e-01
2.199000000000000000e+03 4.104070663452148438e+00 -1.824166679382324219e+01 7.019916772842407227e-01 6.930506706237792969e+00 2.289749383926391602e+00 1.266332715749740601e-02
2.200000000000000000e+03 5.687473773956298828e+00 -2.782791519165039062e+01 -1.145134687423706055e+00 9.983182907104492188e+00 2.651414394378662109e+00 2.771417140960693359e+00
2.201000000000000000e+03 6.595211982727050781e+00 -1.721862220764160156e+01 6.096187829971313477e-01 9.926092147827148438e+00 3.160713195800781250e+00 8.497238159179687500e-01
2.202000000000000000e+03 4.476201534271240234e+00 -2.777051734924316406e+01 -7.866888642311096191e-01 9.257613182067871094e+00 2.541277170181274414e+00 2.891808032989501953e+00
2.203000000000000000e+03 4.147238731384277344e+00 -2.092407798767089844e+01 1.309876918792724609e+00 7.467905044555664062e+00 2.633334636688232422e+00 1.067315340042114258e+00
2.204000000000000000e+03 7.249053955078125000e+00 -3.193513870239257812e+01 -1.998730421066284180e+00 7.560696601867675781e+00 1.668589949607849121e+00 5.703846812248229980e-01
2.205000000000000000e+03 4.529893398284912109e+00 -3.144150352478027344e+01 -1.208964347839355469e+00 9.125331878662109375e+00 2.374910116195678711e+00 1.442461729049682617e+00
2.206000000000000000e+03 3.786843776702880859e+00 -1.337889957427978516e+01 -5.924105048179626465e-01 5.401191234588623047e+00 1.442634224891662598e+00 1.200607344508171082e-01
2.207000000000000000e+03 7.095108032226562500e+00 -1.383717823028564453e+01 -1.254306674003601074e+00 8.606456756591796875e+00 2.205644845962524414e+00 1.143375873565673828e+00
2.208000000000000000e+03 4.979240894317626953e+00 -1.244438934326171875e+01 -1.084201574325561523e+00 6.320067882537841797e+00 1.570759892463684082e+00 7.297196388244628906e-01
2.209000000000000000e+03 4.527472686767578125e+01 -9.062943458557128906e+00 -6.703745722770690918e-01 6.640781879425048828e+00 1.791122198104858398e+00 -1.688193440437316895e+00
2.210000000000000000e+03 4.434952926635742188e+01 -1.067151260375976562e+01 -1.157491803169250488e+00 6.965445041656494141e+00 1.742385983467102051e+00 -1.653571486473083496e+00
2.211000000000000000e+03 7.549761199951171875e+01 3.117038726806640625e+01 -1.770702004432678223e-01 8.234023094177246094e+00 2.417085886001586914e+00 6.046280860900878906e-01
2.212000000000000000e+03 4.455718612670898438e+01 -6.588792324066162109e+00 -2.581073939800262451e-01 6.357316970825195312e+00 1.829762935638427734e+00 -2.112828969955444336e+00
2.213000000000000000e+03 4.814582347869873047e+00 -1.464393806457519531e+01 -5.612317919731140137e-01 6.801005840301513672e+00 1.871932268142700195e+00 9.266394376754760742e-02
2.214000000000000000e+03 4.162384033203125000e+01 2.984335720539093018e-01 7.266222238540649414e-01 6.423137187957763672e+00 2.144927740097045898e+00 -2.381217241287231445e+00
2.215000000000000000e+03 7.578427886962890625e+01 2.205547714233398438e+01 1.286711245775222778e-01 8.127091407775878906e+00 2.476728677749633789e+00 4.343200922012329102e-01
2.216000000000000000e+03 7.346865844726562500e+01 2.045259666442871094e+01 1.189318671822547913e-01 8.511138916015625000e+00 2.589021444320678711e+00 3.232475519180297852e-01
2.217000000000000000e+03 7.562243652343750000e+01 2.769990730285644531e+01 5.796417221426963806e-02 8.165002822875976562e+00 2.466890096664428711e+00 7.116457819938659668e-01
2.218000000000000000e+03 7.382145690917968750e+01 2.875068092346191406e+01 -3.429832682013511658e-02 7.652636051177978516e+00 2.285501241683959961e+00 6.686934232711791992e-01
2.219000000000000000e+03 3.920389175415039062e+01 5.946976661682128906e+00 1.773880124092102051e+00 7.172628402709960938e+00 2.683952569961547852e+00 -1.443212389945983887e+00
2.220000000000000000e+03 7.587590789794921875e+01 4.007811069488525391e+00 3.208358585834503174e-01 7.580853462219238281e+00 2.370506763458251953e+00 2.323978096246719360e-01
2.221000000000000000e+03 7.574586486816406250e+01 2.345862197875976562e+01 1.695640832185745239e-01 8.116243362426757812e+00 2.485742092132568359e+00 4.974295198917388916e-01
2.222000000000000000e+03 7.464073181152343750e+01 2.056355476379394531e+01 1.194299459457397461e-01 8.306222915649414062e+00 2.527695655822753906e+00 3.747502267360687256e-01
2.223000000000000000e+03 7.588682556152343750e+01 -1.953668594360351562e+01 -5.627257823944091797e-01 7.726630687713623047e+00 2.149171352386474609e+00 3.686278760433197021e-01
2.224000000000000000e+03 7.468143463134765625e+01 -2.292231178283691406e+01 -9.343872964382171631e-02 8.254923820495605469e+00 2.448445558547973633e+00 9.714963436126708984e-01
2.225000000000000000e+03 7.455435943603515625e+01 -2.142598342895507812e+01 -6.815973520278930664e-01 8.011419296264648438e+00 2.198946475982666016e+00 6.973287463188171387e-01
2.226000000000000000e+03 7.453612518310546875e+01 -1.467431545257568359e+01 -3.371757268905639648e-01 6.770306110382080078e+00 1.929939150810241699e+00 -4.617660045623779297e-01
2.227000000000000000e+03 7.568477630615234375e+01 -1.313759422302246094e+01 -1.757660508155822754e-01 7.121919155120849609e+00 2.083846092224121094e+00 -4.642344117164611816e-01
2.228000000000000000e+03 7.585075378417968750e+01 1.250445747375488281e+01 -1.434315890073776245e-01 7.995758056640625000e+00 2.355698108673095703e+00 3.959727585315704346e-01
2.229000000000000000e+03 7.584986114501953125e+01 1.788519668579101562e+01 4.899416863918304443e-02 8.028759956359863281e+00 2.423326253890991211e+00 3.275931477546691895e-01
2.230000000000000000e+03 7.453373718261718750e+01 8.151669502258300781e+00 5.221363529562950134e-02 8.592999458312988281e+00 2.593564033508300781e+00 5.912805199623107910e-01
2.231000000000000000e+03 7.387216186523437500e+01 -7.797064304351806641e+00 -5.773665755987167358e-02 7.032645225524902344e+00 2.092472553253173828e+00 -4.359636604785919189e-01
2.232000000000000000e+03 7.546166992187500000e+01 -5.934181690216064453e+00 -1.773633249104022980e-02 7.225542068481445312e+00 2.162341594696044922e+00 -5.782390832901000977e-01
2.233000000000000000e+03 7.270729827880859375e+01 1.069698143005371094e+01 -3.683448135852813721e-01 9.246971130371093750e+00 2.663587808609008789e+00 4.110809266567230225e-01
2.234000000000000000e+03 7.477586364746093750e+01 3.947642564773559570e+00 4.568167328834533691e-01 8.295059204101562500e+00 2.625562906265258789e+00 3.045870661735534668e-01
2.235000000000000000e+03 7.579607391357421875e+01 -3.092359066009521484e+00 1.150816231966018677e-01 7.294020175933837891e+00 2.222730398178100586e+00 -5.154877305030822754e-01
2.236000000000000000e+03 7.369831085205078125e+01 -4.277320861816406250e+00 1.368860602378845215e-01 7.765425205230712891e+00 2.370693206787109375e+00 -3.282232880592346191e-01
2.237000000000000000e+03 7.583965301513671875e+01 1.926983833312988281e+01 6.249937042593955994e-02 8.078314781188964844e+00 2.442244291305541992e+00 3.405244946479797363e-01
2.238000000000000000e+03 7.549096679687500000e+01 -1.037691783905029297e+01 -8.212531358003616333e-02 7.058732032775878906e+00 2.092982053756713867e+00 -5.388245582580566406e-01
2.239000000000000000e+03 7.417840576171875000e+01 -1.068463611602783203e+01 -1.029973551630973816e-01 6.730383396148681641e+00 1.988215804100036621e+00 -4.660451114177703857e-01
2.240000000000000000e+03 7.437829589843750000e+01 -1.203075981140136719e+01 -1.390166729688644409e-01 6.685641288757324219e+00 1.963987469673156738e+00 -4.790539741516113281e-01
2.241000000000000000e+03 7.581612396240234375e+01 -1.708502960205078125e+01 -4.563382863998413086e-01 7.477416992187500000e+00 2.106323719024658203e+00 -9.858569502830505371e-02
2.242000000000000000e+03 7.026592254638671875e+01 -1.899818038940429688e+01 -9.594463109970092773e-01 4.080810546875000000e+00 9.364092946052551270e-01 -1.109600067138671875e+00
2.243000000000000000e+03 7.370648193359375000e+01 -1.983653068542480469e+01 -1.065821647644042969e+00 7.356710910797119141e+00 1.887266874313354492e+00 -5.965500324964523315e-02
2.244000000000000000e+03 7.478310394287109375e+01 -1.959100914001464844e+01 -8.219292759895324707e-01 7.639967441558837891e+00 2.045411348342895508e+00 2.222361713647842407e-01
2.245000000000000000e+03 7.431146240234375000e+01 -5.747418999671936035e-01 4.752647876739501953e-01 8.153351783752441406e+00 2.588585138320922852e+00 -1.878564804792404175e-01
2.246000000000000000e+03 7.481720733642578125e+01 2.707497358322143555e+00 4.676045179367065430e-01 8.178643226623535156e+00 2.593874216079711914e+00 1.355635970830917358e-01
2.247000000000000000e+03 7.383020782470703125e+01 1.306605529785156250e+01 -2.051788270473480225e-01 8.605909347534179688e+00 2.520219087600708008e+00 2.941626012325286865e-01
2.248000000000000000e+03 7.469610595703125000e+01 1.374998474121093750e+01 -1.276268064975738525e-01 8.368342399597167969e+00 2.472214698791503906e+00 3.073332309722900391e-01
2.249000000000000000e+03 7.330301666259765625e+01 -1.228027820587158203e+00 4.748166501522064209e-01 8.606824874877929688e+00 2.724492311477661133e+00 -6.300921738147735596e-02
2.250000000000000000e+03 7.483153533935546875e+01 2.952483367919921875e+01 -1.214537024497985840e-01 7.920321941375732422e+00 2.339660406112670898e+00 7.329246401786804199e-01
2.251000000000000000e+03 7.398944091796875000e+01 -9.278124809265136719e+00 -6.994500756263732910e-02 6.874156475067138672e+00 2.041263341903686523e+00 -4.386626780033111572e-01
2.252000000000000000e+03 7.248658752441406250e+01 -9.694735527038574219e+00 -4.185921698808670044e-02 6.430716037750244141e+00 1.916657090187072754e+00 -1.911701709032058716e-01
2.253000000000000000e+03 7.335355377197265625e+01 -1.483865928649902344e+01 -3.546796739101409912e-01 6.222817897796630859e+00 1.760441422462463379e+00 -5.246444344520568848e-01
2.254000000000000000e+03 5.237639236450195312e+01 -3.318444442749023438e+01 1.061314821243286133e+00 6.832873344421386719e+00 2.368256330490112305e+00 -1.143410325050354004e+00
2.255000000000000000e+03 4.644362640380859375e+01 -2.897850036621093750e+01 1.230075359344482422e+00 8.275274276733398438e+00 2.851604700088500977e+00 -2.066567897796630859e+00
2.256000000000000000e+03 7.449712371826171875e+01 3.506982803344726562e+01 -4.056083261966705322e-01 7.561239242553710938e+00 2.146689414978027344e+00 2.420008778572082520e-01
2.257000000000000000e+03 7.225370025634765625e+01 3.558266448974609375e+01 -4.545121490955352783e-01 6.158772945404052734e+00 1.711278200149536133e+00 1.200478896498680115e-01
2.258000000000000000e+03 7.106170654296875000e+01 -1.983771705627441406e+01 -1.238133788108825684e+00 4.959204196929931641e+00 1.116321086883544922e+00 -1.230875015258789062e+00
2.259000000000000000e+03 7.401060485839843750e+01 -2.077927589416503906e+01 -1.025232315063476562e+00 7.883175849914550781e+00 2.057383060455322266e+00 2.866949439048767090e-01
2.260000000000000000e+03 3.735432815551757812e+01 1.674118995666503906e+01 1.240740418434143066e+00 7.050566196441650391e+00 2.487391948699951172e+00 -2.212760150432586670e-01
2.261000000000000000e+03 3.729090881347656250e+01 1.515293121337890625e+01 1.510760426521301270e+00 7.124609947204589844e+00 2.590611219406127930e+00 -4.194025993347167969e-01
2.262000000000000000e+03 7.520946502685546875e+01 3.241088485717773438e+01 -2.575282752513885498e-01 8.086726188659667969e+00 2.348759412765502930e+00 5.101044774055480957e-01
2.263000000000000000e+03 6.428826332092285156e+00 3.067859840393066406e+01 -8.473622053861618042e-02 2.649307012557983398e+00 7.693712711334228516e-01 -2.868955731391906738e-01
2.264000000000000000e+03 7.512489318847656250e+01 -3.344526672363281250e+01 -3.283598721027374268e-01 7.362439155578613281e+00 2.110223770141601562e+00 -4.358291923999786377e-01
2.265000000000000000e+03 4.597349929809570312e+01 -1.159061336517333984e+01 -1.137870430946350098e+00 7.078283786773681641e+00 1.782124042510986328e+00 -1.158285260200500488e+00
2.266000000000000000e+03 5.665212154388427734e+00 2.484829902648925781e+01 -6.293179094791412354e-02 2.324045419692993164e+00 6.783341169357299805e-01 -3.705836534500122070e-01
2.267000000000000000e+03 5.093916893005371094e+00 1.840919303894042969e+01 -6.961820274591445923e-02 1.970043778419494629e+00 5.701276659965515137e-01 -4.602037370204925537e-01
2.268000000000000000e+03 5.117847442626953125e+00 1.711231613159179688e+01 -7.458309829235076904e-02 1.918254256248474121e+00 5.531013607978820801e-01 -4.841690957546234131e-01
2.269000000000000000e+03 3.730051755905151367e+00 1.226405715942382812e+01 -1.282782107591629028e-02 1.165611743927001953e+00 3.458351790904998779e-01 -4.965288937091827393e-01
2.270000000000000000e+03 5.924413204193115234e+00 2.626269531250000000e+01 -6.747993826866149902e-02 2.417506933212280273e+00 7.050080895423889160e-01 -3.565470576286315918e-01
2.271000000000000000e+03 3.780145645141601562e+01 7.047386169433593750e+00 2.055671453475952148e+00 6.743578433990478516e+00 2.639775037765502930e+00 -1.055918574333190918e+00
2.272000000000000000e+03 4.869964122772216797e+00 1.462275028228759766e+01 -5.848919600248336792e-02 1.783926248550415039e+00 5.176311135292053223e-01 -5.215158462524414062e-01
2.273000000000000000e+03 5.181910037994384766e+00 2.218036842346191406e+01 -6.151930987834930420e-02 2.130879163742065430e+00 6.208079457283020020e-01 -3.906265199184417725e-01
2.274000000000000000e+03 5.014424324035644531e+00 1.966055679321289062e+01 -5.732354521751403809e-02 2.000919818878173828e+00 5.830788612365722656e-01 -4.360734820365905762e-01
2.275000000000000000e+03 5.025031089782714844e+00 2.090298080444335938e+01 -6.047362834215164185e-02 2.060781478881835938e+00 6.000923514366149902e-01 -4.116311371326446533e-01
2.276000000000000000e+03 6.159688949584960938e+00 2.771982383728027344e+01 -7.222718000411987305e-02 2.502741098403930664e+00 7.291542291641235352e-01 -3.361147940158843994e-01
2.277000000000000000e+03 5.892280101776123047e+00 1.351553630828857422e+01 -6.593022495508193970e-02 2.141801118850708008e+00 6.227612495422363281e-01 -5.660078525543212891e-01
2.278000000000000000e+03 7.207411766052246094e+00 3.466191482543945312e+01 -1.098989546298980713e-01 2.803929090499877930e+00 8.082090616226196289e-01 -1.982609033584594727e-01
2.279000000000000000e+03 5.566394329071044922e+00 3.462767410278320312e+01 -6.548787653446197510e-02 2.606722831726074219e+00 7.623705267906188965e-01 -2.007479965686798096e-01
2.280000000000000000e+03 4.884569644927978516e+00 1.131030941009521484e+01 2.137453481554985046e-02 1.629182457923889160e+00 4.951670765876770020e-01 -5.675534605979919434e-01
2.281000000000000000e+03 7.205567932128906250e+01 9.153969764709472656e+00 -1.527309864759445190e-01 9.721215248107910156e+00 2.870545387268066406e+00 4.463035166263580322e-01
2.282000000000000000e+03 4.491754913330078125e+01 -7.814348697662353516e+00 -4.793570041656494141e-01 6.484854698181152344e+00 1.801649332046508789e+00 -1.921172142028808594e+00
2.283000000000000000e+03 3.350001907348632812e+01 -3.791472244262695312e+01 -1.142017364501953125e+00 -6.449229270219802856e-02 -3.619528710842132568e-01 -2.914714626967906952e-02
2.284000000000000000e+03 3.519047164916992188e+01 -3.983095932006835938e+01 -9.174661040306091309e-01 4.340156912803649902e-01 -1.450351178646087646e-01 9.480321407318115234e-02
2.285000000000000000e+03 2.771587562561035156e+01 -1.248781585693359375e+01 -3.137784242630004883e+00 6.035977602005004883e-01 -7.602559328079223633e-01 -9.115288406610488892e-02
2.286000000000000000e+03 2.665555191040039062e+01 -1.202955150604248047e+01 -3.296826839447021484e+00 4.426438212394714355e-01 -8.562548756599426270e-01 -1.252227872610092163e-01
2.287000000000000000e+03 3.832265472412109375e+01 -1.367255973815917969e+01 -1.248754024505615234e+00 4.651119709014892578e+00 1.020709633827209473e+00 -2.756104946136474609e+00
2.288000000000000000e+03 4.627735900878906250e+01 -1.283343791961669922e+01 -1.306433439254760742e+00 7.238308429718017578e+00 1.779562592506408691e+00 -8.978850841522216797e-01
2.289000000000000000e+03 4.758642959594726562e+01 -1.258871650695800781e+01 -1.096148490905761719e+00 6.828575611114501953e+00 1.719728231430053711e+00 -7.044118046760559082e-01
2.290000000000000000e+03 7.240599060058593750e+01 -8.129315376281738281e+00 -1.346804015338420868e-02 6.761845588684082031e+00 2.024513244628906250e+00 -8.160097151994705200e-02
2.291000000000000000e+03 1.370135593414306641e+01 -1.061848354339599609e+01 -2.989879846572875977e+00 4.676444053649902344e+00 5.059693455696105957e-01 3.355448007583618164e+00
2.292000000000000000e+03 1.456613349914550781e+01 -1.106973552703857422e+01 -3.363657236099243164e+00 3.314391374588012695e+00 -1.477974932640790939e-02 2.980499982833862305e+00
2.293000000000000000e+03 6.325306320190429688e+01 -1.839245796203613281e+01 -5.456520318984985352e-01 1.308942198753356934e+00 2.289870530366897583e-01 1.496376276016235352e+00
2.294000000000000000e+03 5.876884460449218750e+01 -1.874291801452636719e+01 -1.073545098304748535e+00 6.294544339179992676e-01 -1.332271993160247803e-01 1.569361329078674316e+00
2.295000000000000000e+03 5.674749374389648438e+01 -1.981727981567382812e+01 -4.536644741892814636e-02 8.133995532989501953e-01 2.304099351167678833e-01 9.252384901046752930e-01
2.296000000000000000e+03 6.443154907226562500e+01 -1.840484428405761719e+01 -3.940612673759460449e-01 1.229770541191101074e+00 2.507127821445465088e-01 1.398635625839233398e+00
2.297000000000000000e+03 4.544091796875000000e+01 -2.004357910156250000e+01 1.371457457542419434e+00 9.032489776611328125e+00 3.121184110641479492e+00 -1.039524316787719727e+00
2.298000000000000000e+03 6.687035369873046875e+01 -1.794096565246582031e+01 -1.367212831974029541e-01 1.672265052795410156e+00 4.606631398200988770e-01 5.136577486991882324e-01
2.299000000000000000e+03 6.539917755126953125e+01 -1.501003932952880859e+01 4.278316199779510498e-01 2.077796459197998047e+00 7.516884803771972656e-01 8.584138154983520508e-01
2.300000000000000000e+03 4.148209381103515625e+01 2.236833000183105469e+01 6.272448301315307617e-01 6.580090522766113281e+00 2.162200689315795898e+00 1.058666110038757324e+00
2.301000000000000000e+03 7.355390930175781250e+01 -6.606324195861816406e+00 -1.081201992928981781e-02 7.198040485382080078e+00 2.156168699264526367e+00 -3.244023621082305908e-01
2.302000000000000000e+03 4.729222106933593750e+01 -2.952552795410156250e+01 1.234748721122741699e+00 7.632977485656738281e+00 2.660317897796630859e+00 -2.066259622573852539e+00
2.303000000000000000e+03 7.454618072509765625e+01 2.336359024047851562e+01 2.205575257539749146e-01 8.183141708374023438e+00 2.521109819412231445e+00 4.633276164531707764e-01
2.304000000000000000e+03 7.280943298339843750e+01 2.019110441207885742e+00 7.444403171539306641e-01 9.741287231445312500e+00 3.145718097686767578e+00 3.624413311481475830e-01
2.305000000000000000e+03 7.450052642822265625e+01 1.592970967292785645e+00 5.560591816902160645e-01 8.340345382690429688e+00 2.668921232223510742e+00 4.782642051577568054e-02
2.306000000000000000e+03 4.429224777221679688e+01 -3.305263519287109375e+01 -1.089429020881652832e+00 7.302033901214599609e+00 1.863781452178955078e+00 -3.663638234138488770e-01
2.307000000000000000e+03 7.333279418945312500e+01 1.174827671051025391e+01 -3.349514603614807129e-01 8.998944282531738281e+00 2.599197864532470703e+00 2.882339060306549072e-01
2.308000000000000000e+03 4.737063217163085938e+01 -2.457297325134277344e+01 2.180245876312255859e+00 7.939408302307128906e+00 3.035896301269531250e+00 -2.353976726531982422e+00
2.309000000000000000e+03 4.661930847167968750e+01 -2.542713165283203125e+01 2.136122465133666992e+00 8.654237747192382812e+00 3.237107992172241211e+00 -2.280363798141479492e+00
2.310000000000000000e+03 3.838989257812500000e+01 2.643516159057617188e+01 5.723075475543737411e-03 5.603731632232666016e+00 1.682836413383483887e+00 1.668227910995483398e-01
2.311000000000000000e+03 7.107643890380859375e+01 3.885873413085937500e+01 -1.479690223932266235e-01 5.190678119659423828e+00 1.512812733650207520e+00 -1.099814698100090027e-01
2.312000000000000000e+03 1.855242729187011719e+01 -3.588716506958007812e+01 -1.109698057174682617e+00 -4.942612648010253906e-01 -4.811877906322479248e-01 7.166305780410766602e-01
2.313000000000000000e+03 6.914618682861328125e+01 -3.854206466674804688e+01 3.217026293277740479e-01 3.026433229446411133e+00 1.004440784454345703e+00 6.396535038948059082e-01
2.314000000000000000e+03 7.328895568847656250e+01 2.468308067321777344e+01 3.176830410957336426e-01 8.093688964843750000e+00 2.523411512374877930e+00 4.028157293796539307e-01
2.315000000000000000e+03 6.895818233489990234e+00 -1.604363632202148438e+01 -2.493388950824737549e-02 9.639344215393066406e+00 2.884323120117187500e+00 9.248654246330261230e-01
2.316000000000000000e+03 6.890790557861328125e+01 -1.359691524505615234e+01 1.936324387788772583e-01 4.011978626251220703e+00 1.261683344841003418e+00 1.675696820020675659e-01
2.317000000000000000e+03 6.995410156250000000e+01 -1.232297897338867188e+01 1.647731363773345947e-01 4.838925361633300781e+00 1.501109480857849121e+00 9.356743842363357544e-02
2.318000000000000000e+03 5.692543792724609375e+01 -2.181144332885742188e+01 8.157312273979187012e-01 1.569220542907714844e+00 7.154855132102966309e-01 8.928626179695129395e-01
2.319000000000000000e+03 3.345733642578125000e+01 -1.304539871215820312e+01 -1.416198611259460449e+00 1.773741602897644043e+00 1.072628796100616455e-01 -1.356584906578063965e+00
2.320000000000000000e+03 2.284026908874511719e+01 -8.219641685485839844e+00 -1.008373975753784180e+00 1.313499659299850464e-01 -2.631072103977203369e-01 -3.733811080455780029e-01
2.321000000000000000e+03 2.283713722229003906e+01 -9.778062820434570312e+00 -2.384447574615478516e+00 -1.831673681735992432e-01 -7.702845335006713867e-01 -3.141839802265167236e-01
2.322000000000000000e+03 5.396211624145507812e+01 -2.416991233825683594e+01 1.284163713455200195e+00 3.937986850738525391e+00 1.566645145416259766e+00 -6.378973126411437988e-01
2.323000000000000000e+03 5.489237594604492188e+01 -2.343995857238769531e+01 1.214742183685302734e+00 3.201771020889282227e+00 1.324953913688659668e+00 -9.782625734806060791e-02
2.324000000000000000e+03 5.362063217163085938e+01 -2.584413337707519531e+01 1.410041332244873047e+00 5.046730518341064453e+00 1.937031626701354980e+00 -9.329612851142883301e-01
2.325000000000000000e+03 1.928701972961425781e+01 -9.271327018737792969e+00 -1.806229472160339355e+00 9.603070467710494995e-02 -5.130596160888671875e-01 7.136225700378417969e-01
2.326000000000000000e+03 6.573492050170898438e+00 -3.078864288330078125e+01 -1.931414246559143066e+00 8.678412437438964844e+00 2.024099588394165039e+00 1.230517268180847168e+00
2.327000000000000000e+03 5.910075187683105469e+00 -1.476508998870849609e+01 -6.631861925125122070e-01 8.065770149230957031e+00 2.220775365829467773e+00 4.530007243156433105e-01
2.328000000000000000e+03 2.560400009155273438e+01 -1.153346347808837891e+01 -3.429572343826293945e+00 2.569540739059448242e-01 -9.517855048179626465e-01 -2.190983593463897705e-01
2.329000000000000000e+03 2.523524284362792969e+01 -1.002691555023193359e+01 -2.321798563003540039e+00 3.123175203800201416e-01 -6.028442978858947754e-01 -5.505553483963012695e-01
2.330000000000000000e+03 7.300370788574218750e+01 3.002804374694824219e+01 -2.265973091125488281e-01 7.203996181488037109e+00 2.093219757080078125e+00 5.814619660377502441e-01
2.331000000000000000e+03 4.005384063720703125e+01 3.026258087158203125e+01 -4.544107615947723389e-01 5.032734870910644531e+00 1.373497247695922852e+00 2.770206332206726074e-01
2.332000000000000000e+03 3.995287704467773438e+01 2.863715362548828125e+01 -2.196645736694335938e-01 5.245826721191406250e+00 1.507848620414733887e+00 3.054164946079254150e-01
2.333000000000000000e+03 4.068254947662353516e+00 -2.422288703918457031e+01 9.896141290664672852e-01 8.377604484558105469e+00 2.810165405273437500e+00 2.683869838714599609e+00
2.334000000000000000e+03 8.007211685180664062e+00 -4.136393356323242188e+01 6.814745813608169556e-02 5.760857582092285156e+00 1.748701453208923340e+00 -2.553991600871086121e-02
2.335000000000000000e+03 4.662580871582031250e+01 -1.511341381072998047e+01 -1.284790277481079102e+00 7.549433708190917969e+00 1.879392981529235840e+00 -6.529728174209594727e-01
2.336000000000000000e+03 3.284626770019531250e+01 -1.538073253631591797e+01 -2.095402717590332031e+00 7.471240162849426270e-01 -4.044835865497589111e-01 -3.372682332992553711e-01
2.337000000000000000e+03 3.396382522583007812e+01 -1.557214736938476562e+01 -1.743356227874755859e+00 8.159244060516357422e-01 -2.782295644283294678e-01 -6.281857490539550781e-01
2.338000000000000000e+03 4.023881149291992188e+01 -3.576381301879882812e+01 -1.777029275894165039e+00 3.388449192047119141e+00 4.834259748458862305e-01 1.095305442810058594e+00
2.339000000000000000e+03 4.633996582031250000e+01 -3.305379104614257812e+01 -6.704687476158142090e-01 7.316510677337646484e+00 1.993812561035156250e+00 -1.010756850242614746e+00
2.340000000000000000e+03 7.203493595123291016e+00 -3.418354034423828125e+01 -1.314846038818359375e+00 6.909750461578369141e+00 1.678471326828002930e+00 1.818358004093170166e-01
2.341000000000000000e+03 8.212551116943359375e+00 -3.113297653198242188e+01 -2.363629341125488281e+00 7.355010032653808594e+00 1.497414112091064453e+00 3.070502877235412598e-01
2.342000000000000000e+03 4.284143447875976562e+01 -1.506051921844482422e+01 -1.493282198905944824e+00 8.156925201416015625e+00 1.999092936515808105e+00 -1.981046557426452637e+00
2.343000000000000000e+03 3.693661880493164062e+01 1.059536266326904297e+01 2.208917379379272461e+00 6.709157466888427734e+00 2.675422430038452148e+00 -7.715398073196411133e-01
2.344000000000000000e+03 8.191993713378906250e+00 -3.522489166259765625e+01 -1.071515560150146484e+00 5.762583255767822266e+00 1.407320261001586914e+00 -1.591247916221618652e-01
2.345000000000000000e+03 4.746456527709960938e+01 4.098079681396484375e+01 -6.871362924575805664e-01 2.618963718414306641e+00 5.795481801033020020e-01 1.243069991469383240e-01
2.346000000000000000e+03 7.248853302001953125e+01 3.323730468750000000e+01 -5.543613433837890625e-01 6.558092594146728516e+00 1.801119446754455566e+00 3.105190694332122803e-01
2.347000000000000000e+03 4.439147567749023438e+01 -1.570547008514404297e+01 -1.279428958892822266e+00 8.430031776428222656e+00 2.145180702209472656e+00 -1.198833346366882324e+00
2.348000000000000000e+03 4.995392990112304688e+01 -1.714187240600585938e+01 -1.139292955398559570e+00 5.791421890258789062e+00 1.395638704299926758e+00 -6.887369155883789062e-01
2.349000000000000000e+03 5.032344055175781250e+01 -1.871162223815917969e+01 -4.270112514495849609e-01 5.355697631835937500e+00 1.478605985641479492e+00 -1.018970012664794922e+00
2.350000000000000000e+03 7.388953399658203125e+01 3.199363899230957031e+01 -3.436309397220611572e-01 7.551565170288085938e+00 2.162380218505859375e+00 5.257415175437927246e-01
2.351000000000000000e+03 5.402752399444580078e+00 -3.047736883163452148e+00 1.683653354644775391e+00 1.537541508674621582e+00 9.663584232330322266e-01 2.119716167449951172e+00
2.352000000000000000e+03 6.570694923400878906e+00 -2.303834438323974609e+00 2.775210618972778320e+00 1.586290121078491211e+00 1.308450222015380859e+00 2.741697311401367188e+00
2.353000000000000000e+03 7.171178340911865234e+00 -2.227063894271850586e+00 3.341690540313720703e+00 2.152590274810791016e+00 1.648284196853637695e+00 3.468655347824096680e+00
2.354000000000000000e+03 6.260872364044189453e+00 -2.584442377090454102e+00 2.398416996002197266e+00 1.699259519577026367e+00 1.229303002357482910e+00 2.648112535476684570e+00
2.355000000000000000e+03 8.705093383789062500e+00 -2.395399570465087891e+00 3.715818405151367188e+00 6.254489421844482422e+00 2.991092205047607422e+00 5.818233966827392578e+00
2.356000000000000000e+03 8.051710128784179688e+00 -2.685059070587158203e+00 3.236420392990112305e+00 4.602169990539550781e+00 2.351577043533325195e+00 4.981307506561279297e+00
2.357000000000000000e+03 9.274824142456054688e+00 2.164484024047851562e+00 1.256521821022033691e+00 6.159453392028808594e+00 2.224792480468750000e+00 -2.684567213058471680e+00
2.358000000000000000e+03 8.528129577636718750e+00 2.442142963409423828e+00 1.456760287284851074e+00 3.368211030960083008e+00 1.447491407394409180e+00 -2.031316518783569336e+00
2.359000000000000000e+03 7.100702285766601562e+00 2.765772819519042969e+00 1.086919903755187988e+00 1.104833960533142090e+00 6.575261950492858887e-01 -6.977050304412841797e-01
2.360000000000000000e+03 9.337911605834960938e+00 -2.582316398620605469e+00 2.719479560852050781e+00 8.877334594726562500e+00 3.479044198989868164e+00 5.749299049377441406e+00
2.361000000000000000e+03 5.667795181274414062e+00 2.788380622863769531e+00 5.848625302314758301e-01 3.258515894412994385e-01 2.732142508029937744e-01 1.465525291860103607e-02
2.362000000000000000e+03 3.766875505447387695e+00 6.625994205474853516e+00 3.491054773330688477e-01 5.721610784530639648e-01 2.763799726963043213e-01 -2.676926255226135254e-01
2.363000000000000000e+03 5.203919410705566406e+00 2.695102930068969727e+00 4.126119017601013184e-01 1.813722997903823853e-01 1.781952679157257080e-01 1.835571080446243286e-01
2.364000000000000000e+03 9.679352760314941406e+00 -2.691333055496215820e+00 2.305541038513183594e+00 9.824924468994140625e+00 3.639139890670776367e+00 5.345255851745605469e+00
2.365000000000000000e+03 1.210339736938476562e+01 9.845196008682250977e-01 5.872537136077880859e+00 1.020840358734130859e+01 4.824282169342041016e+00 4.429496288299560547e+00
2.366000000000000000e+03 9.111236572265625000e+00 3.001279115676879883e+00 9.176464676856994629e-01 5.440166950225830078e+00 1.907344102859497070e+00 -1.994418025016784668e+00
2.367000000000000000e+03 1.286715602874755859e+01 2.066096216440200806e-01 7.032242298126220703e+00 7.767938613891601562e+00 4.440054416656494141e+00 3.220247268676757812e+00
2.368000000000000000e+03 1.086441135406494141e+01 -2.463775873184204102e+00 2.474678754806518555e+00 1.200296878814697266e+01 4.343294143676757812e+00 2.882705450057983398e+00
2.369000000000000000e+03 1.075871372222900391e+01 2.603491306304931641e+00 4.194302260875701904e-01 1.046451663970947266e+01 3.265183925628662109e+00 3.729544878005981445e-01
2.370000000000000000e+03 1.036279106140136719e+01 -2.440548896789550781e+00 2.340306758880615234e+00 1.194761848449707031e+01 4.286377429962158203e+00 4.068000316619873047e+00
2.371000000000000000e+03 1.118984794616699219e+01 2.513105869293212891e+00 8.282911777496337891e-01 1.064569377899169922e+01 3.442195653915405273e+00 1.435706734657287598e+00
2.372000000000000000e+03 1.199926567077636719e+01 -3.254060447216033936e-01 9.094511985778808594e+00 9.718062400817871094e+00 5.643772125244140625e+00 2.333789348602294922e+00
2.373000000000000000e+03 3.484299659729003906e+00 3.077419996261596680e+00 2.020261287689208984e-01 -3.191043809056282043e-02 5.103470757603645325e-02 3.434121906757354736e-01
2.374000000000000000e+03 1.221239376068115234e+01 2.147932052612304688e+00 2.624306201934814453e+00 9.785120010375976562e+00 3.722827911376953125e+00 3.417408227920532227e+00
2.375000000000000000e+03 4.884546756744384766e+00 2.755515336990356445e+00 3.767080307006835938e-01 1.414559781551361084e-01 1.554491966962814331e-01 2.288624197244644165e-01
2.376000000000000000e+03 4.080612659454345703e+00 2.728984832763671875e+00 1.907018125057220459e-01 1.420720946043729782e-02 6.147270649671554565e-02 3.538517057895660400e-01
2.377000000000000000e+03 2.092919588088989258e+00 -3.126063823699951172e+00 3.233644962310791016e-01 4.628092348575592041e-01 2.358521223068237305e-01 3.288849592208862305e-01
2.378000000000000000e+03 1.588556766510009766e+00 -3.868385791778564453e+00 2.191719710826873779e-01 5.139086842536926270e-01 2.199241966009140015e-01 3.650832176208496094e-01
2.379000000000000000e+03 2.808245897293090820e+00 3.189254045486450195e+00 1.342571526765823364e-01 -1.195834130048751831e-01 4.402122460305690765e-03 3.592548668384552002e-01
2.380000000000000000e+03 3.092617750167846680e+00 -5.622272491455078125e+00 2.933904528617858887e-01 1.997313261032104492e+00 6.872110962867736816e-01 1.342348814010620117e+00
2.381000000000000000e+03 4.143389225006103516e+00 -7.818121433258056641e+00 -3.327474892139434814e-01 3.886318922042846680e+00 1.066071391105651855e+00 1.825057387351989746e+00
2.382000000000000000e+03 3.405360460281372070e+00 -6.548630237579345703e+00 2.896935492753982544e-02 2.744569540023803711e+00 8.320616483688354492e-01 1.516870617866516113e+00
2.383000000000000000e+03 5.369915008544921875e+00 -1.051809310913085938e+01 -1.256075263023376465e+00 5.940305233001708984e+00 1.405269026756286621e+00 1.541490674018859863e+00
2.384000000000000000e+03 2.526748895645141602e+00 -3.182979345321655273e+00 4.190071523189544678e-01 6.409025788307189941e-01 3.179729282855987549e-01 4.722672700881958008e-01
2.385000000000000000e+03 1.735809707641601562e+01 -8.837681770324707031e+00 -1.650213837623596191e+00 1.414644837379455566e+00 -7.067073136568069458e-02 1.667413353919982910e+00
2.386000000000000000e+03 2.138765716552734375e+01 -8.429310798645019531e+00 -1.227928042411804199e+00 7.539506768807768822e-04 -3.681522309780120850e-01 3.334404900670051575e-04
2.387000000000000000e+03 1.862431144714355469e+01 -8.649540901184082031e+00 -1.382028579711914062e+00 5.412573814392089844e-01 -2.522313296794891357e-01 1.000928997993469238e+00
2.388000000000000000e+03 1.186412525177001953e+01 -1.120576667785644531e+01 -2.999155282974243164e+00 6.887925148010253906e+00 1.166630864143371582e+00 3.462068080902099609e+00
2.389000000000000000e+03 1.103802204132080078e+01 -1.153360748291015625e+01 -3.079458951950073242e+00 7.610599040985107422e+00 1.359342098236083984e+00 3.264138460159301758e+00
2.390000000000000000e+03 3.447210311889648438e+01 -1.360266113281250000e+01 -1.316973090171813965e+00 1.979399561882019043e+00 1.987279355525970459e-01 -1.532903432846069336e+00
2.391000000000000000e+03 4.595086574554443359e+00 7.259846210479736328e+00 3.745494782924652100e-01 1.055804729461669922e+00 4.291062653064727783e-01 -4.632972776889801025e-01
2.392000000000000000e+03 4.176440715789794922e+00 8.215021133422851562e+00 2.394054532051086426e-01 1.004326701164245605e+00 3.731196224689483643e-01 -4.700396955013275146e-01
2.393000000000000000e+03 2.724721670150756836e+00 4.744799613952636719e+00 2.636666297912597656e-01 -8.572807908058166504e-02 5.338156595826148987e-02 1.554606705904006958e-01
2.394000000000000000e+03 7.345464324951171875e+01 -1.871109390258789062e+01 -1.003689289093017578e+00 6.963363647460937500e+00 1.787902235984802246e+00 -2.889070510864257812e-01
2.395000000000000000e+03 6.947050476074218750e+01 -1.597629928588867188e+01 -6.438789516687393188e-02 3.687551975250244141e+00 1.086949229240417480e+00 -3.045225143432617188e-01
2.396000000000000000e+03 1.314264678955078125e+01 -1.133530139923095703e+01 -3.099926233291625977e+00 5.456721782684326172e+00 7.070387005805969238e-01 3.511308908462524414e+00
2.397000000000000000e+03 1.254874610900878906e+01 -1.077414894104003906e+01 -3.094684600830078125e+00 6.185772895812988281e+00 9.273264408111572266e-01 3.435686349868774414e+00
2.398000000000000000e+03 4.418103027343750000e+01 -5.385095596313476562e+00 -8.822409063577651978e-02 6.274895668029785156e+00 1.856001496315002441e+00 -2.274051904678344727e+00
2.399000000000000000e+03 4.306304550170898438e+01 -5.781187057495117188e+00 -2.447180300951004028e-01 6.181455135345458984e+00 1.781021118164062500e+00 -2.277867555618286133e+00
2.400000000000000000e+03 3.308374786376953125e+01 -1.422037506103515625e+01 -1.770139575004577637e+00 1.194319486618041992e+00 -1.727460175752639771e-01 -8.012147545814514160e-01
2.401000000000000000e+03 3.152800369262695312e+01 -1.130101585388183594e+01 -1.544362902641296387e+00 1.694513678550720215e+00 4.504521191120147705e-02 -1.146763920783996582e+00
2.402000000000000000e+03 4.244598865509033203e+00 9.579100608825683594e+00 8.610291033983230591e-02 1.202279090881347656e+00 3.865146040916442871e-01 -5.147647261619567871e-01
2.403000000000000000e+03 4.840157032012939453e+00 1.043656444549560547e+01 6.758409738540649414e-02 1.566787481307983398e+00 4.903114736080169678e-01 -5.756353139877319336e-01
2.404000000000000000e+03 4.838062286376953125e+01 -2.392520141601562500e+01 1.986990094184875488e+00 6.927989959716796875e+00 2.674494028091430664e+00 -2.082995891571044922e+00
2.405000000000000000e+03 4.982878112792968750e+01 -2.758938598632812500e+01 1.855627179145812988e+00 6.588432312011718750e+00 2.533217906951904297e+00 -2.319997787475585938e+00
2.406000000000000000e+03 2.337638616561889648e+00 5.444807052612304688e+00 1.785076558589935303e-01 -1.732382178306579590e-01 1.580832293257117271e-03 6.689499318599700928e-02
2.407000000000000000e+03 4.063085937500000000e+01 -3.841946125030517578e-01 6.169570684432983398e-01 6.179620742797851562e+00 2.038973331451416016e+00 -2.223850965499877930e+00
2.408000000000000000e+03 4.125382614135742188e+01 -1.420664668083190918e+00 4.582060277462005615e-01 6.117620468139648438e+00 1.972748041152954102e+00 -2.331594944000244141e+00
2.409000000000000000e+03 1.480139923095703125e+01 -1.011431980133056641e+01 -2.719681739807128906e+00 3.391815662384033203e+00 2.016401737928390503e-01 2.858426332473754883e+00
2.410000000000000000e+03 6.358083343505859375e+01 -1.721575164794921875e+01 -3.119410872459411621e-01 1.423683166503906250e+00 3.335226476192474365e-01 1.375121474266052246e+00
2.411000000000000000e+03 4.167800903320312500e+01 -5.008030891418457031e+00 -1.492218524217605591e-01 5.949097633361816406e+00 1.739962697029113770e+00 -2.332262277603149414e+00
2.412000000000000000e+03 4.271741867065429688e+01 -9.740198135375976562e+00 -1.079897165298461914e+00 6.558962345123291016e+00 1.643719553947448730e+00 -2.070544004440307617e+00
2.413000000000000000e+03 4.245747375488281250e+01 -1.385834407806396484e+01 -1.601148366928100586e+00 7.656658649444580078e+00 1.816653132438659668e+00 -2.097723484039306641e+00
2.414000000000000000e+03 4.225228500366210938e+01 -8.068007826805114746e-01 5.457603335380554199e-01 6.350407600402832031e+00 2.068850278854370117e+00 -2.461625814437866211e+00
2.415000000000000000e+03 3.993687438964843750e+01 6.636140346527099609e-01 8.291934132575988770e-01 6.183224201202392578e+00 2.103725194931030273e+00 -2.047501802444458008e+00
2.416000000000000000e+03 3.021503639221191406e+01 -1.215336227416992188e+01 -2.150587558746337891e+00 1.193157434463500977e+00 -2.872290015220642090e-01 -6.284381747245788574e-01
2.417000000000000000e+03 4.638187026977539062e+01 -2.182167243957519531e+01 2.137165784835815430e+00 8.188163757324218750e+00 3.097599029541015625e+00 -1.679780125617980957e+00
2.418000000000000000e+03 4.837487220764160156e+00 -9.350947380065917969e+00 -9.117493629455566406e-01 5.014813423156738281e+00 1.230919241905212402e+00 1.715880036354064941e+00
2.419000000000000000e+03 1.556678485870361328e+01 -1.027857875823974609e+01 -2.869575738906860352e+00 2.634303808212280273e+00 -7.058160752058029175e-02 2.563787221908569336e+00
2.420000000000000000e+03 4.877035140991210938e+00 -1.353235340118408203e+01 -8.314166665077209473e-01 6.576617240905761719e+00 1.723560094833374023e+00 3.474117219448089600e-01
2.421000000000000000e+03 8.208480834960937500e+00 -1.288327884674072266e+01 -2.017021417617797852e+00 8.648322105407714844e+00 1.989390134811401367e+00 1.928078770637512207e+00
2.422000000000000000e+03 1.035355472564697266e+01 -1.268845081329345703e+01 -2.657824516296386719e+00 8.336285591125488281e+00 1.703538298606872559e+00 2.839686632156372070e+00
2.423000000000000000e+03 5.818535804748535156e+00 -1.584521484375000000e+01 -2.213069647550582886e-01 8.390612602233886719e+00 2.450791835784912109e+00 3.225363492965698242e-01
2.424000000000000000e+03 2.357527542114257812e+01 -8.861664772033691406e+00 -1.516586542129516602e+00 5.576767399907112122e-02 -4.382456541061401367e-01 -4.287319183349609375e-01
2.425000000000000000e+03 5.811853027343750000e+01 -2.114883041381835938e+01 4.335328340530395508e-01 1.092209458351135254e+00 4.577226936817169189e-01 1.253545641899108887e+00
2.426000000000000000e+03 5.593202209472656250e+01 -2.076639556884765625e+01 3.796973526477813721e-01 1.192417621612548828e+00 4.716344773769378662e-01 4.214537143707275391e-01
2.427000000000000000e+03 3.621835327148437500e+01 7.735786914825439453e+00 2.227281570434570312e+00 6.016829013824462891e+00 2.473233222961425781e+00 -7.723354101181030273e-01
2.428000000000000000e+03 3.727801132202148438e+01 3.673947572708129883e+00 1.578862309455871582e+00 5.848316669464111328e+00 2.228153705596923828e+00 -1.290859103202819824e+00
2.429000000000000000e+03 6.674449157714843750e+01 -1.666925621032714844e+01 9.399354457855224609e-02 2.034600257873535156e+00 6.385781168937683105e-01 5.357713103294372559e-01
2.430000000000000000e+03 9.269390106201171875e+00 2.860797309875488281e+01 -1.287565082311630249e-01 2.979375362396240234e+00 8.551856279373168945e-01 -3.937603831291198730e-01
2.431000000000000000e+03 9.561593055725097656e+00 3.258472824096679688e+01 -1.616810709238052368e-01 3.079496860504150391e+00 8.753447532653808594e-01 -3.189282417297363281e-01
2.432000000000000000e+03 7.468226623535156250e+01 1.643569374084472656e+01 4.066697135567665100e-02 8.293191909790039062e+00 2.500157594680786133e+00 3.240405023097991943e-01
2.433000000000000000e+03 7.450131225585937500e+01 1.124630832672119141e+01 -2.298129647970199585e-01 8.544212341308593750e+00 2.494319915771484375e+00 4.728746712207794189e-01
2.434000000000000000e+03 7.465676116943359375e+01 -4.390869140625000000e+00 9.027685970067977905e-02 7.497044563293457031e+00 2.276196479797363281e+00 -4.898315072059631348e-01
2.435000000000000000e+03 7.388394165039062500e+01 2.526264429092407227e+00 6.122360229492187500e-01 8.896787643432617188e+00 2.852707147598266602e+00 2.388799190521240234e-01
2.436000000000000000e+03 7.258480834960937500e+01 -3.349359035491943359e+00 2.352428734302520752e-01 8.297554016113281250e+00 2.559839010238647461e+00 3.526061773300170898e-02
2.437000000000000000e+03 7.464211273193359375e+01 -1.895443201065063477e+00 2.619591355323791504e-01 7.789963722229003906e+00 2.415576934814453125e+00 -3.599797189235687256e-01
2.438000000000000000e+03 7.276234436035156250e+01 -2.135805606842041016e+00 4.091170430183410645e-01 8.673905372619628906e+00 2.724906682968139648e+00 3.792320191860198975e-02
2.439000000000000000e+03 7.454904174804687500e+01 -1.597031879425048828e+01 -4.959082603454589844e-01 6.903020858764648438e+00 1.922133803367614746e+00 -3.852050900459289551e-01
2.440000000000000000e+03 7.331387329101562500e+01 -1.744954109191894531e+01 -8.223699927330017090e-01 6.597976684570312500e+00 1.732681989669799805e+00 -4.799862504005432129e-01
2.441000000000000000e+03 7.250016021728515625e+01 -6.850653171539306641e+00 -1.362266112118959427e-02 7.151063442230224609e+00 2.141232252120971680e+00 -8.800706267356872559e-02
2.442000000000000000e+03 7.578152465820312500e+01 6.788684844970703125e+00 1.656698584556579590e-01 7.796708583831787109e+00 2.388713598251342773e+00 5.115816593170166016e-01
2.443000000000000000e+03 7.106311798095703125e+01 -1.476417255401611328e+01 -1.815499067306518555e-01 4.949261188507080078e+00 1.430313348770141602e+00 -4.119701385498046875e-01
2.444000000000000000e+03 7.458449554443359375e+01 -1.724675369262695312e+01 -6.388132572174072266e-01 7.099812507629394531e+00 1.938299775123596191e+00 -2.363910526037216187e-01
2.445000000000000000e+03 7.581630706787109375e+01 2.065841102600097656e+01 1.095190867781639099e-01 8.089750289916992188e+00 2.459780693054199219e+00 3.801080584526062012e-01
2.446000000000000000e+03 8.221432685852050781e+00 2.079457664489746094e+01 -1.011571586132049561e-01 2.753450870513916016e+00 7.956880927085876465e-01 -4.700927436351776123e-01
2.447000000000000000e+03 6.885712623596191406e+00 2.441643142700195312e+01 -8.066321164369583130e-02 2.530766010284423828e+00 7.350308299064636230e-01 -4.132884144783020020e-01
2.448000000000000000e+03 5.131908416748046875e+00 -1.776782989501953125e+01 7.253632545471191406e-01 8.243481636047363281e+00 2.690653562545776367e+00 2.259271293878555298e-01
2.449000000000000000e+03 6.926320648193359375e+01 -1.880401039123535156e+01 -5.129874348640441895e-01 2.478481292724609375e+00 5.896481871604919434e-01 -8.023753166198730469e-01
2.450000000000000000e+03 5.903334808349609375e+01 -1.976357269287109375e+01 -1.906685084104537964e-01 9.013895392417907715e-01 2.132163047790527344e-01 1.561928033828735352e+00
2.451000000000000000e+03 7.619716644287109375e+00 3.258741760253906250e+01 -1.149143800139427185e-01 2.836277961730957031e+00 8.164090514183044434e-01 -2.672876119613647461e-01
2.452000000000000000e+03 4.026463699340820312e+01 4.579624652862548828e+00 1.420975208282470703e+00 7.269655227661132812e+00 2.607189178466796875e+00 -1.858214735984802246e+00
2.453000000000000000e+03 6.054644107818603516e+00 -1.265198516845703125e+01 -1.369058251380920410e+00 7.329898357391357422e+00 1.788251996040344238e+00 1.022227168083190918e+00
2.454000000000000000e+03 6.424700736999511719e+00 1.701400756835937500e+01 -9.903942793607711792e-02 2.331128835678100586e+00 6.696268320083618164e-01 -5.112504363059997559e-01
2.455000000000000000e+03 6.307583808898925781e+00 1.844710540771484375e+01 -8.883985877037048340e-02 2.308016777038574219e+00 6.657530665397644043e-01 -4.868283271789550781e-01
2.456000000000000000e+03 5.020937442779541016e+00 1.584381198883056641e+01 -7.643808424472808838e-02 1.849522233009338379e+00 5.319252610206604004e-01 -4.950377643108367920e-01
2.457000000000000000e+03 5.979928016662597656e+00 2.070914840698242188e+01 -7.846388220787048340e-02 2.250710964202880859e+00 6.516741514205932617e-01 -4.395611584186553955e-01
2.458000000000000000e+03 3.453792190551757812e+01 1.807629966735839844e+01 1.250105261802673340e+00 6.002645492553710938e+00 2.175825357437133789e+00 -3.346845507621765137e-01
2.459000000000000000e+03 3.994566345214843750e+01 -1.466563415527343750e+01 -1.383003711700439453e+00 6.171855449676513672e+00 1.436655521392822266e+00 -2.922442197799682617e+00
2.460000000000000000e+03 4.242379379272460938e+01 -8.481636047363281250e+00 -8.416364192962646484e-01 6.301255226135253906e+00 1.637885689735412598e+00 -2.156691312789916992e+00
2.461000000000000000e+03 6.262083053588867188e+00 1.564756393432617188e+01 -9.266275912523269653e-02 2.269280910491943359e+00 6.529854536056518555e-01 -5.324752330780029297e-01
2.462000000000000000e+03 7.772729396820068359e+00 2.895077323913574219e+01 -1.040895506739616394e-01 2.780050754547119141e+00 8.027883768081665039e-01 -3.603396117687225342e-01
2.463000000000000000e+03 2.436356544494628906e+01 -9.471154212951660156e+00 -1.910747289657592773e+00 1.617375016212463379e-01 -5.247029662132263184e-01 -5.623139142990112305e-01
2.464000000000000000e+03 4.844873809814453125e+01 -2.064487457275390625e+01 1.046981811523437500e+00 6.744293689727783203e+00 2.337382555007934570e+00 -1.273885250091552734e+00
2.465000000000000000e+03 7.277921295166015625e+01 -4.468848705291748047e+00 1.055891439318656921e-01 7.906389236450195312e+00 2.403593540191650391e+00 -4.750655218958854675e-02
2.466000000000000000e+03 3.793166351318359375e+01 -1.234804725646972656e+01 -1.150559544563293457e+00 4.484842777252197266e+00 1.000284910202026367e+00 -2.621534347534179688e+00
2.467000000000000000e+03 6.990645885467529297e+00 1.068251991271972656e+01 5.036693997681140900e-03 2.625963926315307617e+00 7.893001437187194824e-01 -6.290260553359985352e-01
2.468000000000000000e+03 4.884325981140136719e+00 9.776597976684570312e+00 8.749121427536010742e-02 1.479180335998535156e+00 4.700014889240264893e-01 -5.764244198799133301e-01
2.469000000000000000e+03 4.599306869506835938e+01 -2.661654090881347656e+01 1.966395378112792969e+00 8.788884162902832031e+00 3.226583719253540039e+00 -2.190490484237670898e+00
2.470000000000000000e+03 4.671231460571289062e+01 -3.097613334655761719e+01 5.054006576538085938e-01 7.594542026519775391e+00 2.429982900619506836e+00 -1.747448086738586426e+00
2.471000000000000000e+03 7.352200317382812500e+01 6.671805381774902344e-01 6.774843335151672363e-01 8.909726142883300781e+00 2.876163244247436523e+00 9.282318502664566040e-02
2.472000000000000000e+03 4.548830032348632812e+01 -1.529782104492187500e+01 -1.345467925071716309e+00 8.212295532226562500e+00 2.060048341751098633e+00 -9.623075723648071289e-01
2.473000000000000000e+03 4.484576797485351562e+01 -1.667389678955078125e+01 -9.388548731803894043e-01 8.787097930908203125e+00 2.354472875595092773e+00 -1.145489811897277832e+00
2.474000000000000000e+03 4.327521514892578125e+01 -1.621896934509277344e+01 -1.236941933631896973e+00 9.048315048217773438e+00 2.343411922454833984e+00 -1.750200510025024414e+00
2.475000000000000000e+03 7.091847991943359375e+01 -1.124458694458007812e+01 1.926077343523502350e-02 5.604946136474609375e+00 1.687262058258056641e+00 6.554439663887023926e-02
2.476000000000000000e+03 7.322771453857421875e+01 3.439434814453125000e+01 -4.594697058200836182e-01 6.960885524749755859e+00 1.950424671173095703e+00 2.276037335395812988e-01
2.477000000000000000e+03 3.569471740722656250e+01 1.235003566741943359e+01 2.063609600067138672e+00 6.292508602142333984e+00 2.506835460662841797e+00 -5.771523714065551758e-01
2.478000000000000000e+03 3.666951370239257812e+01 9.111954689025878906e+00 2.250929832458496094e+00 6.388666152954101562e+00 2.591878890991210938e+00 -7.925673127174377441e-01
2.479000000000000000e+03 7.234724044799804688e+00 -1.094954204559326172e+01 -1.977575898170471191e+00 7.388321876525878906e+00 1.623223781585693359e+00 2.128360033035278320e+00
2.480000000000000000e+03 4.471586608886718750e+01 -1.831764793395996094e+01 1.484300792217254639e-01 9.206124305725097656e+00 2.806366443634033203e+00 -1.189394950866699219e+00
2.481000000000000000e+03 4.757660675048828125e+01 -1.636758804321289062e+01 -1.133059620857238770e+00 7.291240215301513672e+00 1.847454190254211426e+00 -5.602206587791442871e-01
2.482000000000000000e+03 5.082787704467773438e+01 -2.953963279724121094e+01 1.744482159614562988e+00 6.364027976989746094e+00 2.432553052902221680e+00 -2.003842592239379883e+00
2.483000000000000000e+03 5.240522766113281250e+01 -2.376978874206542969e+01 1.457185387611389160e+00 4.657714843750000000e+00 1.834470033645629883e+00 -1.266649961471557617e+00
2.484000000000000000e+03 3.740977859497070312e+01 2.036064147949218750e+01 7.965728044509887695e-01 6.527041435241699219e+00 2.197084188461303711e+00 2.884066104888916016e-02
2.485000000000000000e+03 3.577069473266601562e+01 2.013844680786132812e+01 8.805707693099975586e-01 6.170624256134033203e+00 2.115358591079711914e+00 -1.809184998273849487e-01
2.486000000000000000e+03 3.667027282714843750e+01 -1.267207336425781250e+01 -1.136171102523803711e+00 3.568442106246948242e+00 7.296812534332275391e-01 -2.356271266937255859e+00
2.487000000000000000e+03 3.493664550781250000e+01 -1.167099285125732422e+01 -1.131165385246276855e+00 2.815275192260742188e+00 5.052329301834106445e-01 -1.931085348129272461e+00
2.488000000000000000e+03 4.338033294677734375e+01 -6.962034225463867188e+00 -4.722043871879577637e-01 6.296070575714111328e+00 1.747159838676452637e+00 -2.165682792663574219e+00
2.489000000000000000e+03 3.907762908935546875e+01 2.431033897399902344e+01 3.160146474838256836e-01 6.020926952362060547e+00 1.901082515716552734e+00 3.474186062812805176e-01
2.490000000000000000e+03 7.072542572021484375e+01 -1.305670547485351562e+01 6.844566669315099716e-03 5.057809352874755859e+00 1.519396185874938965e+00 -1.070221439003944397e-01
2.491000000000000000e+03 4.172264099121093750e+01 2.853591346740722656e+01 -1.013728156685829163e-01 5.054131031036376953e+00 1.485827445983886719e+00 6.252005696296691895e-01
2.492000000000000000e+03 5.285866165161132812e+01 -2.164834594726562500e+01 8.554561734199523926e-01 3.700687885284423828e+00 1.366843223571777344e+00 -9.848340749740600586e-01
2.493000000000000000e+03 1.800023460388183594e+01 -4.110277557373046875e+01 -5.094277486205101013e-02 -1.627658605575561523e-01 -6.411258876323699951e-02 1.104987785220146179e-01
2.494000000000000000e+03 3.745463562011718750e+01 2.467566680908203125e+01 2.361202836036682129e-01 5.830720424652099609e+00 1.820052266120910645e+00 5.228654667735099792e-02
2.495000000000000000e+03 4.022214889526367188e+01 2.271349906921386719e+01 5.288827419281005859e-01 6.413083553314208984e+00 2.082589864730834961e+00 6.966298818588256836e-01
2.496000000000000000e+03 3.177587699890136719e+01 -4.120701217651367188e+01 -8.611351251602172852e-01 -4.120346903800964355e-02 -2.707015573978424072e-01 -1.557274349033832550e-02
2.497000000000000000e+03 7.483769989013671875e+01 -2.059241294860839844e+01 -7.345407605171203613e-01 7.745801448822021484e+00 2.103378057479858398e+00 4.606767892837524414e-01
2.498000000000000000e+03 3.954293441772460938e+01 3.216873168945312500e+01 -6.415705084800720215e-01 4.912179470062255859e+00 1.281182765960693359e+00 2.026847004890441895e-01
2.499000000000000000e+03 4.384671020507812500e+01 -3.560252380371093750e+01 -1.873961091041564941e+00 5.947566032409667969e+00 1.222081422805786133e+00 3.032464087009429932e-01
2.500000000000000000e+03 4.642759323120117188e+01 -3.554875564575195312e+01 -1.397240519523620605e+00 6.781759738922119141e+00 1.615355730056762695e+00 -4.380760788917541504e-01
2.501000000000000000e+03 5.198672866821289062e+01 -1.877759933471679688e+01 -6.721278429031372070e-01 3.807571649551391602e+00 9.406331181526184082e-01 -1.059200763702392578e+00
2.502000000000000000e+03 5.387530136108398438e+01 -2.070218658447265625e+01 3.040131628513336182e-01 2.495199918746948242e+00 8.397639393806457520e-01 -6.345332860946655273e-01
2.503000000000000000e+03 5.486577224731445312e+01 -1.981793403625488281e+01 1.798446103930473328e-02 1.403488039970397949e+00 4.264417290687561035e-01 -2.012749463319778442e-01
2.504000000000000000e+03 6.817679882049560547e+00 -3.550010681152343750e+01 -8.621658682823181152e-01 6.918921947479248047e+00 1.817026853561401367e+00 1.712941080331802368e-01
2.505000000000000000e+03 6.593115329742431641e+00 2.218955278396606445e+00 6.651332974433898926e-01 3.921599984169006348e-01 3.171879947185516357e-01 -1.537401527166366577e-01
2.506000000000000000e+03 5.716075897216796875e+00 -3.246830940246582031e+00 1.807465791702270508e+00 1.944486737251281738e+00 1.125585794448852539e+00 2.532635688781738281e+00
2.507000000000000000e+03 8.776666641235351562e+00 -3.136856794357299805e+00 2.233627319335937500e+00 6.922670841217041016e+00 2.746889352798461914e+00 5.360024929046630859e+00
2.508000000000000000e+03 7.315570354461669922e+00 -2.511847257614135742e+00 3.222976684570312500e+00 2.811953783035278320e+00 1.810479164123535156e+00 3.921031951904296875e+00
2.509000000000000000e+03 6.444056034088134766e+00 2.592699289321899414e+00 8.114171624183654785e-01 5.486588478088378906e-01 4.080228209495544434e-01 -2.539556920528411865e-01
2.510000000000000000e+03 8.719594955444335938e+00 2.429754734039306641e+00 1.400527238845825195e+00 3.979960441589355469e+00 1.614146232604980469e+00 -2.180530786514282227e+00
2.511000000000000000e+03 7.559113025665283203e+00 -2.651442766189575195e+00 3.214464187622070312e+00 3.437092781066894531e+00 1.995467066764831543e+00 4.319797039031982422e+00
2.512000000000000000e+03 7.091516017913818359e+00 -2.476439714431762695e+00 3.144062757492065430e+00 2.405727863311767578e+00 1.664937257766723633e+00 3.593003988265991211e+00
2.513000000000000000e+03 7.599329948425292969e+00 2.670327425003051758e+00 1.285963654518127441e+00 1.576632261276245117e+00 8.587787747383117676e-01 -1.105935215950012207e+00
2.514000000000000000e+03 7.135029315948486328e+00 3.011716842651367188e+00 1.165677189826965332e+00 1.310566902160644531e+00 7.428732514381408691e-01 -8.528637886047363281e-01
2.515000000000000000e+03 8.905015945434570312e+00 2.566695213317871094e+00 1.241357684135437012e+00 4.574336528778076172e+00 1.744708299636840820e+00 -2.200997829437255859e+00
2.516000000000000000e+03 6.717813014984130859e+00 2.999967098236083984e+00 1.016445755958557129e+00 9.225687384605407715e-01 5.817043185234069824e-01 -5.426537990570068359e-01
2.517000000000000000e+03 9.743377685546875000e+00 -3.173629760742187500e+00 1.601144552230834961e+00 9.408727645874023438e+00 3.302961826324462891e+00 4.952502727508544922e+00
2.518000000000000000e+03 1.268002510070800781e+01 -9.751477241516113281e-01 6.985736846923828125e+00 8.286608695983886719e+00 4.581703662872314453e+00 1.465181708335876465e+00
2.519000000000000000e+03 1.146108722686767578e+01 2.506197690963745117e+00 1.144784688949584961e+00 1.056394577026367188e+01 3.512619018554687500e+00 2.010326862335205078e+00
2.520000000000000000e+03 1.036902236938476562e+01 -2.752003908157348633e+00 1.869764208793640137e+00 1.117158031463623047e+01 3.912403106689453125e+00 4.087023258209228516e+00
2.521000000000000000e+03 4.392354011535644531e+00 2.712790727615356445e+00 2.377337366342544556e-01 5.172900483012199402e-02 8.683882653713226318e-02 3.171970546245574951e-01
2.522000000000000000e+03 9.903775215148925781e+00 3.237676143646240234e+00 3.803509473800659180e-01 7.533336162567138672e+00 2.374106168746948242e+00 -1.276773333549499512e+00
2.523000000000000000e+03 1.131175518035888672e+01 2.111860036849975586e+00 1.439537405967712402e+00 1.154270744323730469e+01 3.894673347473144531e+00 2.269847869873046875e+00
2.524000000000000000e+03 1.062824535369873047e+01 -2.643627882003784180e+00 2.069351434707641602e+00 1.162681102752685547e+01 4.108848571777343750e+00 3.495859861373901367e+00
2.525000000000000000e+03 1.236439895629882812e+01 -1.082605957984924316e+00 7.013969898223876953e+00 8.961773872375488281e+00 4.792723178863525391e+00 1.230028271675109863e+00
2.526000000000000000e+03 1.096164226531982422e+01 2.522024631500244141e+00 5.204932093620300293e-01 1.083949661254882812e+01 3.407996892929077148e+00 8.586202859878540039e-01
2.527000000000000000e+03 1.230227470397949219e+01 7.556023597717285156e-01 6.541570186614990234e+00 9.394930839538574219e+00 4.780950546264648438e+00 4.230828285217285156e+00
2.528000000000000000e+03 1.169549942016601562e+01 -1.635448336601257324e+00 5.444603443145751953e+00 1.129490280151367188e+01 5.021852016448974609e+00 8.879158496856689453e-01
2.529000000000000000e+03 4.108705520629882812e+00 3.135714769363403320e+00 3.175995945930480957e-01 6.058660894632339478e-02 1.134558618068695068e-01 2.866402864456176758e-01
2.530000000000000000e+03 3.298604011535644531e+00 -2.494753360748291016e+00 6.936817765235900879e-01 5.527509450912475586e-01 3.739298284053802490e-01 5.938009023666381836e-01
2.531000000000000000e+03 3.642332315444946289e+00 -3.710937500000000000e+00 8.053123354911804199e-01 1.224282622337341309e+00 6.088784933090209961e-01 1.211765646934509277e+00
2.532000000000000000e+03 3.937845230102539062e+00 -3.339430332183837891e+00 9.604482054710388184e-01 1.122322201728820801e+00 6.248311400413513184e-01 1.231589913368225098e+00
2.533000000000000000e+03 2.882894039154052734e+00 -3.290534257888793945e+00 5.544587969779968262e-01 8.208903670310974121e-01 4.126047492027282715e-01 6.954220533370971680e-01
2.534000000000000000e+03 2.700928211212158203e+00 -5.157846927642822266e+00 3.441715240478515625e-01 1.561797499656677246e+00 5.717906951904296875e-01 1.099884986877441406e+00
2.535000000000000000e+03 3.778849601745605469e+00 3.106768131256103516e+00 2.621683180332183838e-01 1.394834462553262711e-02 8.283500373363494873e-02 3.148530423641204834e-01
2.536000000000000000e+03 1.951594471931457520e+00 3.111223697662353516e+00 4.847497493028640747e-02 -2.721611559391021729e-01 -6.710585206747055054e-02 3.527235686779022217e-01
2.537000000000000000e+03 2.435527563095092773e+00 2.637407302856445312e+00 4.266513977199792862e-03 -1.634276062250137329e-01 -4.774832725524902344e-02 4.009825885295867920e-01
2.538000000000000000e+03 2.401922941207885742e+00 -4.473084449768066406e+00 3.397526443004608154e-01 1.169049978256225586e+00 4.526407718658447266e-01 8.197053074836730957e-01
2.539000000000000000e+03 4.868686199188232422e+00 -2.869893074035644531e+00 1.436176657676696777e+00 1.157825708389282227e+00 7.782006859779357910e-01 1.607928514480590820e+00
2.540000000000000000e+03 2.612957239151000977e+00 -3.612372875213623047e+00 4.599838554859161377e-01 8.590677976608276367e-01 3.957154750823974609e-01 6.583733558654785156e-01
2.541000000000000000e+03 3.282705783843994141e+00 3.602827548980712891e+00 2.978264093399047852e-01 -2.087495289742946625e-02 8.308544009923934937e-02 2.784586846828460693e-01
2.542000000000000000e+03 6.014671802520751953e+00 -3.467550516128540039e+00 1.815644264221191406e+00 2.339989423751831055e+00 1.246690034866333008e+00 2.874746322631835938e+00
2.543000000000000000e+03 5.432591438293457031e+00 8.512649536132812500e+00 2.426484823226928711e-01 1.675755977630615234e+00 5.755213499069213867e-01 -6.086669564247131348e-01
2.544000000000000000e+03 4.615999221801757812e+00 -8.257817268371582031e+00 -5.734549760818481445e-01 4.386365890502929688e+00 1.143873214721679688e+00 1.948587656021118164e+00
2.545000000000000000e+03 4.430500507354736328e+00 6.598431587219238281e+00 4.319436252117156982e-01 8.732043504714965820e-01 3.915444016456604004e-01 -3.840571343898773193e-01
2.546000000000000000e+03 3.782686710357666016e+00 5.883386611938476562e+00 4.051746726036071777e-01 4.398764073848724365e-01 2.535153329372406006e-01 -1.666833907365798950e-01
2.547000000000000000e+03 3.645088672637939453e+00 -5.844656944274902344e+00 2.185458987951278687e-01 2.462610244750976562e+00 8.043467998504638672e-01 1.628990769386291504e+00
2.548000000000000000e+03 3.084945440292358398e+00 5.749475479125976562e+00 2.923558354377746582e-01 1.451565176248550415e-01 1.312537044286727905e-01 -4.743556305766105652e-02
2.549000000000000000e+03 3.898351907730102539e+00 7.419006824493408203e+00 3.086194992065429688e-01 7.652211785316467285e-01 3.221521973609924316e-01 -3.745552301406860352e-01
2.550000000000000000e+03 6.303781986236572266e+00 -1.078023624420166016e+01 -1.600758790969848633e+00 6.759487628936767578e+00 1.547618746757507324e+00 1.813742518424987793e+00
2.551000000000000000e+03 4.368664741516113281e+00 8.946545600891113281e+00 1.780859231948852539e-01 1.177889466285705566e+00 4.067926108837127686e-01 -5.241769552230834961e-01
2.552000000000000000e+03 2.499604797363281250e+01 -8.593637466430664062e+00 -1.233079314231872559e+00 4.107111990451812744e-01 -2.467104345560073853e-01 -6.668695807456970215e-01
2.553000000000000000e+03 2.415445566177368164e+00 3.759382486343383789e+00 1.849985569715499878e-01 -1.703156977891921997e-01 4.404855892062187195e-03 2.855293452739715576e-01
2.554000000000000000e+03 1.404008674621582031e+01 -9.815569877624511719e+00 -2.670861482620239258e+00 4.448679447174072266e+00 5.333452820777893066e-01 3.237159729003906250e+00
2.555000000000000000e+03 7.370340824127197266e+00 1.507440090179443359e+01 -1.092083007097244263e-01 2.660873651504516602e+00 7.654995918273925781e-01 -5.280691385269165039e-01
2.556000000000000000e+03 9.305216789245605469e+00 1.834875106811523438e+01 -1.020339056849479675e-01 3.061117649078369141e+00 8.877251148223876953e-01 -4.491222500801086426e-01
2.557000000000000000e+03 4.180888366699218750e+01 -2.453386306762695312e+00 2.783810198307037354e-01 6.111737728118896484e+00 1.917035698890686035e+00 -2.380369901657104492e+00
2.558000000000000000e+03 4.369035720825195312e+01 -8.174182891845703125e+00 -6.790907382965087891e-01 6.453243732452392578e+00 1.732245922088623047e+00 -2.022815465927124023e+00
2.559000000000000000e+03 6.558400726318359375e+01 -1.706985664367675781e+01 -5.075474083423614502e-02 1.623666524887084961e+00 4.718735218048095703e-01 9.456375241279602051e-01
2.560000000000000000e+03 6.538034057617187500e+01 -1.605859375000000000e+01 1.444924324750900269e-01 1.751389741897583008e+00 5.687646269798278809e-01 8.515874147415161133e-01
2.561000000000000000e+03 4.498215866088867188e+01 -1.312286853790283203e+01 -1.480565309524536133e+00 7.656802654266357422e+00 1.852871179580688477e+00 -1.243601799011230469e+00
2.562000000000000000e+03 4.403684234619140625e+01 -1.462541103363037109e+01 -1.545702815055847168e+00 8.284885406494140625e+00 2.021754741668701172e+00 -1.457787871360778809e+00
2.563000000000000000e+03 4.635879898071289062e+01 -1.798511886596679688e+01 -2.515939176082611084e-01 8.196813583374023438e+00 2.383565664291381836e+00 -7.396972179412841797e-01
2.564000000000000000e+03 5.094827651977539062e+00 9.120792388916015625e+00 1.597855985164642334e-01 1.528242349624633789e+00 5.064083933830261230e-01 -5.736029148101806641e-01
2.565000000000000000e+03 4.131716918945312500e+01 -3.964827060699462891e+00 1.022981479763984680e-02 5.922957897186279297e+00 1.779956340789794922e+00 -2.320439100265502930e+00
2.566000000000000000e+03 5.977941513061523438e+00 -1.369242477416992188e+01 -1.121683955192565918e+00 7.652414321899414062e+00 1.959219217300415039e+00 7.123428583145141602e-01
2.567000000000000000e+03 4.840666294097900391e+00 1.236602020263671875e+01 -1.918189600110054016e-02 1.661054849624633789e+00 4.925619065761566162e-01 -5.564299225807189941e-01
2.568000000000000000e+03 5.449641704559326172e+00 1.013391685485839844e+01 7.002414017915725708e-02 1.821869134902954102e+00 5.675680041313171387e-01 -6.126373410224914551e-01
2.569000000000000000e+03 2.069095802307128906e+01 -7.712693691253662109e+00 -4.735789895057678223e-01 2.308238297700881958e-01 -7.282654941082000732e-02 2.310394495725631714e-01
2.570000000000000000e+03 4.401371765136718750e+01 -9.416357994079589844e+00 -9.362304210662841797e-01 6.670537948608398438e+00 1.720292329788208008e+00 -1.845264077186584473e+00
2.571000000000000000e+03 4.304717254638671875e+01 -1.100821399688720703e+01 -1.331390142440795898e+00 6.889411449432373047e+00 1.667406439781188965e+00 -1.944908857345581055e+00
2.572000000000000000e+03 7.065029144287109375e+01 -1.766275787353515625e+01 -6.291939020156860352e-01 4.396894454956054688e+00 1.130310177803039551e+00 -8.495510220527648926e-01
2.573000000000000000e+03 3.899079895019531250e+01 -1.385476738214492798e-01 7.587503194808959961e-01 5.807973861694335938e+00 1.970017194747924805e+00 -1.938374161720275879e+00
2.574000000000000000e+03 1.012455081939697266e+01 -1.176350212097167969e+01 -2.792411565780639648e+00 8.086982727050781250e+00 1.588371396064758301e+00 2.951243877410888672e+00
2.575000000000000000e+03 2.820629310607910156e+01 -1.138301658630371094e+01 -2.428876638412475586e+00 8.538924455642700195e-01 -4.724952876567840576e-01 -5.606810450553894043e-01
2.576000000000000000e+03 2.618841171264648438e+01 -1.051842975616455078e+01 -2.421997547149658203e+00 4.884687066078186035e-01 -5.800586938858032227e-01 -5.549747943878173828e-01
2.577000000000000000e+03 3.822856521606445312e+01 8.160123229026794434e-01 9.953159093856811523e-01 5.717665672302246094e+00 2.013894319534301758e+00 -1.722413301467895508e+00
2.578000000000000000e+03 5.322588348388671875e+01 -2.326868057250976562e+01 1.219001531600952148e+00 3.935366153717041016e+00 1.546310305595397949e+00 -9.107912778854370117e-01
2.579000000000000000e+03 1.153225040435791016e+01 -1.053442573547363281e+01 -3.023109674453735352e+00 7.149259090423583984e+00 1.237844824790954590e+00 3.423711061477661133e+00
2.580000000000000000e+03 9.004458427429199219e+00 -1.020086860656738281e+01 -2.471531629562377930e+00 7.726157665252685547e+00 1.576387763023376465e+00 3.027754068374633789e+00
2.581000000000000000e+03 6.160909652709960938e+00 -1.167234706878662109e+01 -1.581408619880676270e+00 7.018766403198242188e+00 1.631207346916198730e+00 1.425045728683471680e+00
2.582000000000000000e+03 6.549780845642089844e+00 2.307926750183105469e+01 -7.925031334161758423e-02 2.438519716262817383e+00 7.077807784080505371e-01 -4.238468408584594727e-01
2.583000000000000000e+03 8.528877258300781250e+00 2.533925247192382812e+01 -1.034014374017715454e-01 2.832166433334350586e+00 8.186295032501220703e-01 -4.270032346248626709e-01
2.584000000000000000e+03 3.923593521118164062e+01 3.689857006072998047e+00 1.372693896293640137e+00 6.650953769683837891e+00 2.407094240188598633e+00 -1.654535412788391113e+00
2.585000000000000000e+03 3.818790817260742188e+01 4.789543628692626953e+00 1.664574861526489258e+00 6.411254405975341797e+00 2.422748804092407227e+00 -1.307692885398864746e+00
2.586000000000000000e+03 7.336837005615234375e+01 -1.359109973907470703e+01 -2.227455973625183105e-01 6.246272087097167969e+00 1.807057976722717285e+00 -4.695902764797210693e-01
2.587000000000000000e+03 7.449806976318359375e+01 -1.336352062225341797e+01 -2.198375910520553589e-01 6.691405773162841797e+00 1.941470384597778320e+00 -4.955912530422210693e-01
2.588000000000000000e+03 7.198404693603515625e+01 -1.767908668518066406e+01 -8.317327499389648438e-01 5.670347213745117188e+00 1.451584458351135254e+00 -8.033676743507385254e-01
2.589000000000000000e+03 3.443901443481445312e+01 2.389178466796875000e+01 3.533712625503540039e-01 5.682957649230957031e+00 1.810898661613464355e+00 -2.315592467784881592e-01
2.590000000000000000e+03 1.997236442565917969e+01 -8.529567718505859375e+00 -1.288652896881103516e+00 9.660430252552032471e-02 -3.576145768165588379e-01 4.892928600311279297e-01
2.591000000000000000e+03 1.927913665771484375e+01 -7.810073375701904297e+00 -5.085130333900451660e-01 6.722070574760437012e-01 4.910820722579956055e-02 7.322489023208618164e-01
2.592000000000000000e+03 7.514562606811523438e+00 1.854486846923828125e+01 -1.001695990562438965e-01 2.613094806671142578e+00 7.538775801658630371e-01 -4.822689294815063477e-01
2.593000000000000000e+03 4.650706481933593750e+01 -1.402098751068115234e+01 -1.384564042091369629e+00 7.543840885162353516e+00 1.847783088684082031e+00 -7.826283574104309082e-01
2.594000000000000000e+03 4.467775726318359375e+01 -1.191465187072753906e+01 -1.367608666419982910e+00 7.256201744079589844e+00 1.766577959060668945e+00 -1.436710238456726074e+00
2.595000000000000000e+03 4.370867156982421875e+01 -1.346819686889648438e+01 -1.576686739921569824e+00 7.702834129333496094e+00 1.837844133377075195e+00 -1.647254586219787598e+00
2.596000000000000000e+03 7.645014286041259766e+00 1.970352935791015625e+01 -9.689783304929733276e-02 2.616245746612548828e+00 7.558043599128723145e-01 -4.740593731403350830e-01
2.597000000000000000e+03 6.806168365478515625e+01 -1.615095710754394531e+01 8.562376350164413452e-02 2.854403495788574219e+00 8.820081949234008789e-01 9.401291608810424805e-02
2.598000000000000000e+03 2.427542495727539062e+01 -7.981056213378906250e+00 -7.895991802215576172e-01 3.755280077457427979e-01 -1.242213621735572815e-01 -6.339911818504333496e-01
2.599000000000000000e+03 3.737945175170898438e+01 1.733013868331909180e+00 1.238015890121459961e+00 5.579337120056152344e+00 2.045205831527709961e+00 -1.512933135032653809e+00
2.600000000000000000e+03 5.115539550781250000e+01 -2.696320533752441406e+01 1.820155620574951172e+00 6.114796161651611328e+00 2.380485534667968750e+00 -2.075062036514282227e+00
2.601000000000000000e+03 4.947128295898437500e+01 -1.918752479553222656e+01 7.218652218580245972e-02 6.023435115814208984e+00 1.828686475753784180e+00 -9.640687704086303711e-01
2.602000000000000000e+03 3.957416152954101562e+01 -1.334513664245605469e+01 -1.319045305252075195e+00 5.680454254150390625e+00 1.308422684669494629e+00 -2.770059585571289062e+00
2.603000000000000000e+03 3.918927764892578125e+01 -1.200846672058105469e+01 -1.294844627380371094e+00 5.364911079406738281e+00 1.221019983291625977e+00 -2.634895801544189453e+00
2.604000000000000000e+03 1.121839141845703125e+01 3.001381874084472656e+01 -1.662179231643676758e-01 3.252237319946289062e+00 9.258058071136474609e-01 -3.905360996723175049e-01
2.605000000000000000e+03 4.195400238037109375e+01 -6.109694957733154297e+00 -3.829321563243865967e-01 6.028912544250488281e+00 1.693794131278991699e+00 -2.297213315963745117e+00
2.606000000000000000e+03 4.218225860595703125e+01 -7.267630577087402344e+00 -5.982832908630371094e-01 6.132940769195556641e+00 1.660397291183471680e+00 -2.237063646316528320e+00
2.607000000000000000e+03 3.586610031127929688e+01 -1.011877250671386719e+01 -9.144243597984313965e-01 3.615766048431396484e+00 8.104025125503540039e-01 -2.207884073257446289e+00
2.608000000000000000e+03 5.180555725097656250e+01 -2.069486045837402344e+01 4.079932272434234619e-01 4.187125682830810547e+00 1.378535628318786621e+00 -1.199206233024597168e+00
2.609000000000000000e+03 5.101557159423828125e+01 -1.961880302429199219e+01 -1.720256730914115906e-02 4.803891181945800781e+00 1.436006546020507812e+00 -1.081940174102783203e+00
2.610000000000000000e+03 3.269541168212890625e+01 1.906735229492187500e+01 1.119727373123168945e+00 5.551019191741943359e+00 2.001224040985107422e+00 -3.493610322475433350e-01
2.611000000000000000e+03 3.604423141479492188e+01 1.673807525634765625e+01 1.373804926872253418e+00 6.507889270782470703e+00 2.364508152008056641e+00 -3.311754167079925537e-01
2.612000000000000000e+03 4.850861740112304688e+01 -2.952727127075195312e+01 1.486394047737121582e+00 7.028635501861572266e+00 2.554508924484252930e+00 -2.180863380432128906e+00
2.613000000000000000e+03 4.805435562133789062e+01 -2.679550552368164062e+01 1.899348855018615723e+00 7.381009578704833984e+00 2.784107446670532227e+00 -2.412676811218261719e+00
2.614000000000000000e+03 4.957447433471679688e+01 -2.331168746948242188e+01 1.722980022430419922e+00 6.201270580291748047e+00 2.377275228500366211e+00 -1.886300921440124512e+00
2.615000000000000000e+03 7.220584106445312500e+01 -1.910175704956054688e+01 -1.247793078422546387e+00 6.294486045837402344e+00 1.514007925987243652e+00 -7.921648621559143066e-01
2.616000000000000000e+03 5.083395767211914062e+01 -3.318885803222656250e+01 5.207087397575378418e-01 6.700339794158935547e+00 2.166314601898193359e+00 -1.130491495132446289e+00
2.617000000000000000e+03 5.239965438842773438e+01 -3.165588378906250000e+01 1.586543798446655273e+00 6.811788082122802734e+00 2.519499540328979492e+00 -1.441068172454833984e+00
2.618000000000000000e+03 4.972043228149414062e+01 -2.959308624267578125e+01 1.528865218162536621e+00 6.736102104187011719e+00 2.479490041732788086e+00 -2.165010213851928711e+00
2.619000000000000000e+03 4.121054077148437500e+01 -1.426977443695068359e+01 -1.495977997779846191e+00 7.120989322662353516e+00 1.687503337860107422e+00 -2.572862863540649414e+00
2.620000000000000000e+03 4.985329437255859375e+01 -2.025779342651367188e+01 5.010491609573364258e-01 5.713474273681640625e+00 1.864356994628906250e+00 -1.247596144676208496e+00
2.621000000000000000e+03 7.170649051666259766e+00 -1.183822250366210938e+01 -1.912232875823974609e+00 7.744086742401123047e+00 1.749556064605712891e+00 1.789836168289184570e+00
2.622000000000000000e+03 4.591330337524414062e+01 -1.893912887573242188e+01 3.744551837444305420e-01 8.826829910278320312e+00 2.760385751724243164e+00 -9.658281207084655762e-01
2.623000000000000000e+03 5.232558822631835938e+01 -3.512211227416992188e+01 -1.529279798269271851e-01 6.884030342102050781e+00 2.019330739974975586e+00 -7.780254483222961426e-01
2.624000000000000000e+03 4.848982238769531250e+01 -2.810357475280761719e+01 1.800470113754272461e+00 7.101530075073242188e+00 2.670600175857543945e+00 -2.336007356643676758e+00
2.625000000000000000e+03 5.045145797729492188e+01 -2.146505737304687500e+01 9.387679100036621094e-01 5.326799392700195312e+00 1.879670143127441406e+00 -1.404404759407043457e+00
2.626000000000000000e+03 7.149868011474609375e+01 -1.359809970855712891e+01 -9.784074872732162476e-02 5.346889495849609375e+00 1.574714660644531250e+00 -2.948103249073028564e-01
2.627000000000000000e+03 3.890908050537109375e+01 2.268946075439453125e+01 5.069668292999267578e-01 6.327031612396240234e+00 2.050199508666992188e+00 3.281076252460479736e-01
2.628000000000000000e+03 3.362656021118164062e+01 -1.174415302276611328e+01 -1.315106153488159180e+00 2.244179010391235352e+00 2.787218987941741943e-01 -1.581745982170104980e+00
2.629000000000000000e+03 3.247556304931640625e+01 -1.164452266693115234e+01 -1.420194506645202637e+00 1.828553318977355957e+00 1.225076690316200256e-01 -1.311736345291137695e+00
2.630000000000000000e+03 7.166297149658203125e+01 -1.193727779388427734e+01 -2.640232071280479431e-02 5.732065200805664062e+00 1.711698770523071289e+00 -1.875267028808593750e-01
2.631000000000000000e+03 3.708061981201171875e+01 2.766574668884277344e+01 -1.793853491544723511e-01 5.485140800476074219e+00 1.591726660728454590e+00 5.462263245135545731e-03
2.632000000000000000e+03 7.850810050964355469e+00 3.068779563903808594e+01 -1.119076982140541077e-01 2.817058324813842773e+00 8.115451931953430176e-01 -3.310959637165069580e-01
2.633000000000000000e+03 7.536255359649658203e+00 2.734854507446289062e+01 -9.826754778623580933e-02 2.707525253295898438e+00 7.827773094177246094e-01 -3.822718560695648193e-01
2.634000000000000000e+03 1.077939891815185547e+01 -3.573612976074218750e+01 -8.261374831199645996e-01 3.460198640823364258e+00 7.902183532714843750e-01 -3.086458444595336914e-01
2.635000000000000000e+03 4.525009155273437500e+01 -1.426326465606689453e+01 -1.439136028289794922e+00 7.823908329010009766e+00 1.915431618690490723e+00 -1.039061546325683594e+00
2.636000000000000000e+03 5.183914184570312500e+01 -2.529648971557617188e+01 1.625457763671875000e+00 5.439984321594238281e+00 2.119632720947265625e+00 -1.619680285453796387e+00
2.637000000000000000e+03 3.057906532287597656e+01 -1.097715950012207031e+01 -1.621675491333007812e+00 1.568772673606872559e+00 -1.587081886827945709e-02 -1.033884286880493164e+00
2.638000000000000000e+03 3.549023437500000000e+01 1.092916488647460938e+01 2.221604824066162109e+00 6.065408706665039062e+00 2.486104011535644531e+00 -6.108469367027282715e-01
2.639000000000000000e+03 3.473001861572265625e+01 8.306345939636230469e+00 2.297921657562255859e+00 5.505149364471435547e+00 2.340921401977539062e+00 -5.888556838035583496e-01
2.640000000000000000e+03 7.658063888549804688e+00 -3.326571226119995117e+00 2.361267805099487305e+00 4.375502586364746094e+00 2.021031141281127930e+00 4.529356002807617188e+00
2.641000000000000000e+03 4.791344642639160156e+00 3.656482934951782227e+00 5.576213002204895020e-01 3.124218583106994629e-01 2.610129415988922119e-01 5.044368281960487366e-02
2.642000000000000000e+03 6.438759803771972656e+00 2.925621986389160156e+00 8.916500210762023926e-01 7.057240009307861328e-01 4.792121946811676025e-01 -3.721332848072052002e-01
2.643000000000000000e+03 4.537256717681884766e+00 5.489964485168457031e+00 5.296177864074707031e-01 6.671903729438781738e-01 3.590424358844757080e-01 -2.550520896911621094e-01
2.644000000000000000e+03 9.417574882507324219e+00 -3.247189283370971680e+00 1.723049521446228027e+00 8.668069839477539062e+00 3.117335796356201172e+00 5.173409461975097656e+00
2.645000000000000000e+03 9.205373764038085938e+00 2.654198408126831055e+00 9.871650934219360352e-01 5.770761013031005859e+00 2.027377843856811523e+00 -2.191922903060913086e+00
2.646000000000000000e+03 8.468641281127929688e+00 2.721336364746093750e+00 1.344409584999084473e+00 3.393584728240966797e+00 1.421398282051086426e+00 -1.914702892303466797e+00
2.647000000000000000e+03 8.698656082153320312e+00 -2.765084266662597656e+00 3.003136396408081055e+00 6.584214687347412109e+00 2.876205205917358398e+00 5.663252830505371094e+00
2.648000000000000000e+03 8.176335334777832031e+00 -2.977995634078979492e+00 2.814711570739746094e+00 5.156646251678466797e+00 2.391407251358032227e+00 5.075472354888916016e+00
2.649000000000000000e+03 8.779486656188964844e+00 2.858568906784057617e+00 1.170240044593811035e+00 4.357423305511474609e+00 1.658299088478088379e+00 -2.035861015319824219e+00
2.650000000000000000e+03 1.228910732269287109e+01 1.837203949689865112e-01 8.078775405883789062e+00 8.952199935913085938e+00 5.109292984008789062e+00 3.418310880661010742e+00
2.651000000000000000e+03 1.197681522369384766e+01 2.287620782852172852e+00 2.085481166839599609e+00 1.014124774932861328e+01 3.668018817901611328e+00 3.027915000915527344e+00
2.652000000000000000e+03 6.283616065979003906e+00 3.192771196365356445e+00 9.344779253005981445e-01 7.555807232856750488e-01 5.070176124572753906e-01 -3.896887302398681641e-01
2.653000000000000000e+03 4.620147705078125000e+00 -6.846839904785156250e+00 -9.291375428438186646e-02 3.719307899475097656e+00 1.087918281555175781e+00 2.179084300994873047e+00
2.654000000000000000e+03 1.023050022125244141e+01 -3.504781007766723633e+00 1.029024600982666016e+00 9.774477005004882812e+00 3.241050720214843750e+00 4.177434444427490234e+00
2.655000000000000000e+03 4.451273918151855469e+00 -3.806329965591430664e+00 1.093667626380920410e+00 1.608600258827209473e+00 8.106803297996520996e-01 1.731720447540283203e+00
2.656000000000000000e+03 1.196427536010742188e+01 2.817013740539550781e+00 1.407709717750549316e+00 9.554703712463378906e+00 3.288723945617675781e+00 2.428941965103149414e+00
2.657000000000000000e+03 3.416908025741577148e+00 -4.337568759918212891e+00 6.256433725357055664e-01 1.491980075836181641e+00 6.352870464324951172e-01 1.264697074890136719e+00
2.658000000000000000e+03 1.238935375213623047e+01 6.023393273353576660e-01 6.824232578277587891e+00 9.097939491271972656e+00 4.776651382446289062e+00 4.049228191375732422e+00
2.659000000000000000e+03 1.148584461212158203e+01 -2.349322795867919922e+00 3.241423130035400391e+00 1.124071502685546875e+01 4.344641685485839844e+00 1.706124901771545410e+00
2.660000000000000000e+03 3.627806663513183594e+00 3.428359746932983398e+00 3.049827814102172852e-01 1.340035069733858109e-02 9.551493823528289795e-02 2.829675972461700439e-01
2.661000000000000000e+03 1.194544124603271484e+01 -1.896572470664978027e+00 4.752190589904785156e+00 1.051449394226074219e+01 4.580005168914794922e+00 9.963091611862182617e-01
2.662000000000000000e+03 1.178075790405273438e+01 -2.359186887741088867e+00 3.449769258499145508e+00 1.062422752380371094e+01 4.222198963165283203e+00 1.417303442955017090e+00
2.663000000000000000e+03 1.260269546508789062e+01 1.555001139640808105e+00 4.361956596374511719e+00 9.072936058044433594e+00 4.030467987060546875e+00 4.021944522857666016e+00
2.664000000000000000e+03 3.868497133255004883e+00 3.823844194412231445e+00 4.069593250751495361e-01 1.063756495714187622e-01 1.540004909038543701e-01 1.850354373455047607e-01
2.665000000000000000e+03 1.573977756500244141e+01 -9.589154243469238281e+00 -2.238501071929931641e+00 2.676304578781127930e+00 1.313410699367523193e-01 2.387123584747314453e+00
2.666000000000000000e+03 1.303507614135742188e+01 -1.021904468536376953e+01 -2.909021139144897461e+00 5.765387535095214844e+00 8.569098711013793945e-01 3.489216089248657227e+00
2.667000000000000000e+03 4.909649372100830078e+00 7.937741279602050781e+00 3.102723658084869385e-01 1.337302446365356445e+00 4.942724108695983887e-01 -5.437006354331970215e-01
2.668000000000000000e+03 4.465136051177978516e+00 -7.388105392456054688e+00 -2.519621253013610840e-01 3.885271072387695312e+00 1.089992761611938477e+00 2.078085422515869141e+00
2.669000000000000000e+03 4.038976669311523438e+00 -6.678485393524169922e+00 -2.121419087052345276e-02 3.215487480163574219e+00 9.582819938659667969e-01 1.858771085739135742e+00
2.670000000000000000e+03 6.136677742004394531e+00 1.052149772644042969e+01 4.167712479829788208e-02 2.190572023391723633e+00 6.696747541427612305e-01 -6.424050927162170410e-01
2.671000000000000000e+03 5.991652965545654297e+00 1.248276329040527344e+01 -4.457835480570793152e-02 2.158967733383178711e+00 6.343168020248413086e-01 -5.913111567497253418e-01
2.672000000000000000e+03 4.234756469726562500e+00 3.558076620101928711e+00 4.439515173435211182e-01 1.509992629289627075e-01 1.784852296113967896e-01 1.764338910579681396e-01
2.673000000000000000e+03 3.277147531509399414e+00 5.070793628692626953e+00 3.333023190498352051e-01 1.245550364255905151e-01 1.373572051525115967e-01 4.442903771996498108e-02
2.674000000000000000e+03 5.228972911834716797e+00 -8.639437675476074219e+00 -8.208908438682556152e-01 5.042866230010986328e+00 1.266592621803283691e+00 2.109051942825317383e+00
2.675000000000000000e+03 6.194239139556884766e+00 -8.263674736022949219e+00 -9.782862663269042969e-01 5.607523441314697266e+00 1.388771176338195801e+00 2.660864591598510742e+00
2.676000000000000000e+03 2.355795478820800781e+01 -5.783021450042724609e+00 7.269962430000305176e-01 6.454814076423645020e-01 4.117432832717895508e-01 -3.369921445846557617e-01
2.677000000000000000e+03 5.908112049102783203e+00 8.050732612609863281e+00 3.099994957447052002e-01 1.918225169181823730e+00 6.684674024581909180e-01 -6.710833907127380371e-01
2.678000000000000000e+03 4.216297626495361328e+00 -6.059665679931640625e+00 1.664444357156753540e-01 3.010836839675903320e+00 9.531844258308410645e-01 1.958156347274780273e+00
2.679000000000000000e+03 5.490748405456542969e+00 7.573564529418945312e+00 3.749191761016845703e-01 1.623162746429443359e+00 5.994245409965515137e-01 -6.162430644035339355e-01
2.680000000000000000e+03 5.766524314880371094e+00 9.493808746337890625e+00 1.267644166946411133e-01 1.996770262718200684e+00 6.370604038238525391e-01 -6.366340517997741699e-01
2.681000000000000000e+03 9.950577735900878906e+00 -1.090809440612792969e+01 -2.824729204177856445e+00 7.906790256500244141e+00 1.524618268013000488e+00 3.116112470626831055e+00
2.682000000000000000e+03 7.321275234222412109e+00 -1.013726234436035156e+01 -1.904446005821228027e+00 7.115991592407226562e+00 1.563463687896728516e+00 2.469794750213623047e+00
2.683000000000000000e+03 5.642076015472412109e+00 -9.709109306335449219e+00 -1.216977477073669434e+00 5.835109710693359375e+00 1.385439634323120117e+00 1.935118079185485840e+00
2.684000000000000000e+03 5.924217224121093750e+00 -8.961824417114257812e+00 -1.161904215812683105e+00 5.697813510894775391e+00 1.360772728919982910e+00 2.309315204620361328e+00
2.685000000000000000e+03 4.085706710815429688e+01 -6.324754238128662109e+00 -4.440523087978363037e-01 5.770226955413818359e+00 1.597852468490600586e+00 -2.325045347213745117e+00
2.686000000000000000e+03 4.084442138671875000e+01 -3.005936622619628906e+00 1.952406018972396851e-01 5.889969348907470703e+00 1.825562953948974609e+00 -2.301033496856689453e+00
2.687000000000000000e+03 4.068830490112304688e+01 -5.296936511993408203e+00 -2.070500999689102173e-01 5.750318050384521484e+00 1.662980437278747559e+00 -2.298544883728027344e+00
2.688000000000000000e+03 4.573353958129882812e+01 -1.616508674621582031e+01 -1.150469183921813965e+00 8.121623039245605469e+00 2.091346263885498047e+00 -7.730024456977844238e-01
2.689000000000000000e+03 4.732204055786132812e+01 -1.809506797790527344e+01 -2.894566357135772705e-01 7.671851158142089844e+00 2.214718341827392578e+00 -7.591078281402587891e-01
2.690000000000000000e+03 3.967653656005859375e+01 -1.115105509757995605e+00 5.547121167182922363e-01 5.826710224151611328e+00 1.914426684379577637e+00 -2.112256765365600586e+00
2.691000000000000000e+03 4.043380737304687500e+01 -4.362858772277832031e+00 -3.380444645881652832e-02 5.741534709930419922e+00 1.712319016456604004e+00 -2.276601552963256836e+00
2.692000000000000000e+03 1.793175697326660156e+01 -8.032002449035644531e+00 -7.758058905601501465e-01 1.254530668258666992e+00 1.436174511909484863e-01 1.360855340957641602e+00
2.693000000000000000e+03 7.205216979980468750e+01 -1.621633148193359375e+01 -4.970704317092895508e-01 5.513659954071044922e+00 1.504976868629455566e+00 -6.269633769989013672e-01
2.694000000000000000e+03 1.506046295166015625e+01 -9.269612312316894531e+00 -2.171380043029785156e+00 3.591880321502685547e+00 4.261500835418701172e-01 2.702379465103149414e+00
2.695000000000000000e+03 2.670698165893554688e+01 -9.503337860107421875e+00 -1.706025004386901855e+00 7.274241447448730469e-01 -2.935802638530731201e-01 -8.009870052337646484e-01
2.696000000000000000e+03 2.719411659240722656e+01 -1.096099758148193359e+01 -2.552706241607666016e+00 7.025482058525085449e-01 -5.550473928451538086e-01 -5.639222860336303711e-01
2.697000000000000000e+03 1.213921642303466797e+01 -1.029444122314453125e+01 -2.864950656890869141e+00 6.644586086273193359e+00 1.133890628814697266e+00 3.539550065994262695e+00
2.698000000000000000e+03 4.209462356567382812e+01 -1.261405944824218750e+01 -1.547682523727416992e+00 7.056073188781738281e+00 1.652517199516296387e+00 -2.201570272445678711e+00
2.699000000000000000e+03 6.938127136230468750e+01 -1.752566337585449219e+01 -3.112632334232330322e-01 3.167186260223388672e+00 8.567768931388854980e-01 -5.561471581459045410e-01
2.700000000000000000e+03 4.006769561767578125e+01 -1.031002426147460938e+01 -1.164724469184875488e+00 5.729155540466308594e+00 1.369329214096069336e+00 -2.455060243606567383e+00
2.701000000000000000e+03 4.109858322143554688e+01 -8.712636947631835938e+00 -8.947557806968688965e-01 5.996030807495117188e+00 1.530382513999938965e+00 -2.301194429397583008e+00
2.702000000000000000e+03 2.141952514648437500e+01 -5.339104175567626953e+00 1.210130929946899414e+00 8.230627179145812988e-01 6.099580526351928711e-01 2.053357064723968506e-01
2.703000000000000000e+03 1.721676254272460938e+01 -7.499644756317138672e+00 -4.855365455150604248e-01 2.093920946121215820e+00 4.825153052806854248e-01 1.567275524139404297e+00
2.704000000000000000e+03 2.431247711181640625e+01 -6.446884155273437500e+00 2.204427421092987061e-01 6.415255665779113770e-01 2.585904896259307861e-01 -5.637860298156738281e-01
2.705000000000000000e+03 3.516611480712890625e+01 9.579607963562011719e+00 2.290389060974121094e+00 5.786888122558593750e+00 2.423183202743530273e+00 -5.905256271362304688e-01
2.706000000000000000e+03 3.643568038940429688e+01 2.586738109588623047e+00 1.485785961151123047e+00 5.373321056365966797e+00 2.057732105255126953e+00 -1.265216946601867676e+00
2.707000000000000000e+03 6.734457015991210938e+00 1.404660892486572266e+01 -9.202333539724349976e-02 2.436873435974121094e+00 7.034550905227661133e-01 -5.584027767181396484e-01
2.708000000000000000e+03 7.766166210174560547e+00 1.717155647277832031e+01 -1.183001771569252014e-01 2.700028181076049805e+00 7.745184302330017090e-01 -4.964121282100677490e-01
2.709000000000000000e+03 4.173942947387695312e+01 -1.133846378326416016e+01 -1.388079762458801270e+00 6.604987621307373047e+00 1.565072298049926758e+00 -2.259062528610229492e+00
2.710000000000000000e+03 4.836951065063476562e+01 -1.931567573547363281e+01 3.589916229248046875e-01 6.948583126068115234e+00 2.192272424697875977e+00 -9.445784687995910645e-01
2.711000000000000000e+03 5.131612777709960938e+01 -2.411398887634277344e+01 1.574966073036193848e+00 5.320459365844726562e+00 2.068627595901489258e+00 -1.675110340118408203e+00
2.712000000000000000e+03 4.937271499633789062e+01 -2.633995246887207031e+01 1.947395324707031250e+00 6.607594966888427734e+00 2.566497087478637695e+00 -2.321154356002807617e+00
2.713000000000000000e+03 9.848116874694824219e+00 2.472936058044433594e+01 -1.144295781850814819e-01 3.047502279281616211e+00 8.799218535423278809e-01 -4.387525916099548340e-01
2.714000000000000000e+03 1.086634635925292969e+01 2.809115982055664062e+01 -1.478578746318817139e-01 3.192219495773315430e+00 9.133085012435913086e-01 -4.075166583061218262e-01
2.715000000000000000e+03 4.825996398925781250e+01 -3.110643196105957031e+01 6.684996485710144043e-01 7.076984882354736328e+00 2.323645353317260742e+00 -1.785262227058410645e+00
2.716000000000000000e+03 7.668924331665039062e+00 2.258338737487792969e+01 -9.391397982835769653e-02 2.648242950439453125e+00 7.662986516952514648e-01 -4.514778554439544678e-01
2.717000000000000000e+03 6.237349033355712891e+00 2.183386993408203125e+01 -7.570499181747436523e-02 2.338486671447753906e+00 6.788344979286193848e-01 -4.370218813419342041e-01
2.718000000000000000e+03 1.428481578826904297e+01 -8.958252906799316406e+00 -2.022032737731933594e+00 4.436780929565429688e+00 7.244244813919067383e-01 2.952478170394897461e+00
2.719000000000000000e+03 1.332901859283447266e+01 -9.554963111877441406e+00 -2.559189558029174805e+00 5.379353046417236328e+00 8.460490107536315918e-01 3.378336906433105469e+00
2.720000000000000000e+03 7.828478336334228516e+00 1.139578056335449219e+01 -5.210386216640472412e-02 2.994817733764648438e+00 8.828141689300537109e-01 -5.592135787010192871e-01
2.721000000000000000e+03 7.096593856811523438e+00 1.242613410949707031e+01 -6.663546711206436157e-02 2.617761373519897461e+00 7.653377652168273926e-01 -5.737549662590026855e-01
2.722000000000000000e+03 2.212598037719726562e+01 -7.554380416870117188e+00 -4.023709893226623535e-01 1.690901368856430054e-01 -6.998424977064132690e-02 -1.572043597698211670e-01
2.723000000000000000e+03 3.957132720947265625e+01 -4.498489379882812500e+00 -4.882419481873512268e-02 5.532408237457275391e+00 1.645075201988220215e+00 -2.222352743148803711e+00
2.724000000000000000e+03 3.827683639526367188e+01 2.724328756332397461e+00 1.313396811485290527e+00 6.059793949127197266e+00 2.211957216262817383e+00 -1.536502480506896973e+00
2.725000000000000000e+03 4.691807937622070312e+01 -2.055772209167480469e+01 1.534924626350402832e+00 8.005129814147949219e+00 2.862016201019287109e+00 -1.297127127647399902e+00
2.726000000000000000e+03 1.004557800292968750e+01 1.756168556213378906e+01 -9.233024716377258301e-02 3.297623634338378906e+00 9.615880250930786133e-01 -3.949269354343414307e-01
2.727000000000000000e+03 9.163296699523925781e+00 -1.189103984832763672e+01 -2.585426568984985352e+00 8.327378273010253906e+00 1.722585439682006836e+00 2.610088586807250977e+00
2.728000000000000000e+03 3.762068939208984375e+01 -7.956898212432861328e+00 -6.441728472709655762e-01 4.657759666442871094e+00 1.204075932502746582e+00 -2.312001943588256836e+00
2.729000000000000000e+03 2.500456237792968750e+01 -7.152480602264404297e+00 -2.502898275852203369e-01 5.865170955657958984e-01 1.008681729435920715e-01 -6.872854828834533691e-01
2.730000000000000000e+03 4.551392364501953125e+01 -1.744719123840332031e+01 -7.559073567390441895e-01 8.660805702209472656e+00 2.371469497680664062e+00 -9.009510278701782227e-01
2.731000000000000000e+03 4.715101623535156250e+01 -1.926474761962890625e+01 3.343349993228912354e-01 7.658481597900390625e+00 2.397845029830932617e+00 -9.005854129791259766e-01
2.732000000000000000e+03 3.462749099731445312e+01 -1.031126403808593750e+01 -9.875219464302062988e-01 3.040432214736938477e+00 6.158730983734130859e-01 -1.986241459846496582e+00
2.733000000000000000e+03 4.892869567871093750e+01 -2.511604499816894531e+01 1.978889822959899902e+00 6.777791023254394531e+00 2.627004384994506836e+00 -2.245424032211303711e+00
2.734000000000000000e+03 5.011917495727539062e+01 -2.458454704284667969e+01 1.782156944274902344e+00 5.963719844818115234e+00 2.323762893676757812e+00 -1.976049304008483887e+00
2.735000000000000000e+03 6.990839385986328125e+01 -1.439197063446044922e+01 4.294158145785331726e-02 4.320818424224853516e+00 1.309128046035766602e+00 -1.364565789699554443e-01
2.736000000000000000e+03 1.078332996368408203e+01 -1.074089050292968750e+01 -2.850547075271606445e+00 7.545865058898925781e+00 1.408595442771911621e+00 3.325113058090209961e+00
2.737000000000000000e+03 7.247755527496337891e+00 2.136522865295410156e+01 -8.911158889532089233e-02 2.558254718780517578e+00 7.407429814338684082e-01 -4.578455090522766113e-01
2.738000000000000000e+03 9.003948211669921875e+00 1.502081298828125000e+01 -1.112249568104743958e-01 3.153478622436523438e+00 9.126761555671691895e-01 -4.408845007419586182e-01
2.739000000000000000e+03 3.410073089599609375e+01 2.700361824035644531e+01 -7.975585758686065674e-02 5.446648597717285156e+00 1.610067844390869141e+00 -2.415908724069595337e-01
2.740000000000000000e+03 3.578523254394531250e+01 2.565213012695312500e+01 1.092825829982757568e-01 5.643984794616699219e+00 1.725980162620544434e+00 -1.236555352807044983e-01
2.741000000000000000e+03 3.338770294189453125e+01 -1.037970924377441406e+01 -1.086638569831848145e+00 2.510375738143920898e+00 4.271211624145507812e-01 -1.723374366760253906e+00
2.742000000000000000e+03 3.878859329223632812e+01 -1.064511394500732422e+01 -1.096700549125671387e+00 5.118890285491943359e+00 1.206656932830810547e+00 -2.516955137252807617e+00
2.743000000000000000e+03 9.476708412170410156e+00 3.048550224304199219e+01 -1.423620730638504028e-01 3.033668994903564453e+00 8.673920631408691406e-01 -3.582578897476196289e-01
2.744000000000000000e+03 4.862874221801757812e+01 -3.499136352539062500e+01 -7.413768768310546875e-01 6.888005256652832031e+00 1.843988537788391113e+00 -8.113089799880981445e-01
2.745000000000000000e+03 5.107282257080078125e+01 -3.187082099914550781e+01 1.446385860443115234e+00 6.515107154846191406e+00 2.388447999954223633e+00 -1.596985101699829102e+00
2.746000000000000000e+03 3.878042984008789062e+01 -1.869208455085754395e+00 4.797416627407073975e-01 5.493203639984130859e+00 1.791883587837219238e+00 -2.035334348678588867e+00
2.747000000000000000e+03 3.431227111816406250e+01 1.258766460418701172e+01 2.075300693511962891e+00 5.763464927673339844e+00 2.351629734039306641e+00 -4.736174345016479492e-01
2.748000000000000000e+03 3.411567306518554688e+01 1.127042293548583984e+01 2.210375070571899414e+00 5.574810981750488281e+00 2.335555791854858398e+00 -4.560852348804473877e-01
2.749000000000000000e+03 3.596599960327148438e+01 1.836354637145996094e+01 1.124474644660949707e+00 6.403040885925292969e+00 2.258254528045654297e+00 -2.290829420089721680e-01
2.750000000000000000e+03 3.597211837768554688e+01 1.524010848999023438e+01 1.611000299453735352e+00 6.552266120910644531e+00 2.448979854583740234e+00 -4.384128451347351074e-01
2.751000000000000000e+03 3.366433715820312500e+01 2.127040481567382812e+01 7.306094765663146973e-01 5.692950725555419922e+00 1.927067995071411133e+00 -3.074231445789337158e-01
2.752000000000000000e+03 3.417914962768554688e+01 1.965891265869140625e+01 9.781839251518249512e-01 5.854405879974365234e+00 2.049776792526245117e+00 -3.107828497886657715e-01
2.753000000000000000e+03 7.128711700439453125e+00 -1.280606269836425781e+01 -1.736969351768493652e+00 8.159625053405761719e+00 1.926796793937683105e+00 1.427429795265197754e+00
2.754000000000000000e+03 3.724563598632812500e+01 2.252313613891601562e+01 5.229314565658569336e-01 6.122137546539306641e+00 1.993520736694335938e+00 4.983600601553916931e-02
2.755000000000000000e+03 1.281786632537841797e+01 -3.704274749755859375e+01 -3.648557364940643311e-01 1.889721632003784180e+00 4.574597775936126709e-01 -4.298485070466995239e-02
2.756000000000000000e+03 4.338001251220703125e+01 -1.225560855865478516e+01 -1.500697255134582520e+00 7.322644233703613281e+00 1.746584177017211914e+00 -1.803286314010620117e+00
2.757000000000000000e+03 8.936938285827636719e+00 2.690434455871582031e+01 -1.159467399120330811e-01 2.912486791610717773e+00 8.389619588851928711e-01 -4.141924679279327393e-01
2.758000000000000000e+03 3.329781723022460938e+01 8.834060668945312500e+00 2.337964296340942383e+00 5.062042713165283203e+00 2.220002174377441406e+00 -4.070802628993988037e-01
2.759000000000000000e+03 5.225780868530273438e+01 -2.271099281311035156e+01 1.101488828659057617e+00 4.327148437500000000e+00 1.628591179847717285e+00 -1.239896535873413086e+00
2.760000000000000000e+03 7.321336364746093750e+01 -1.236769485473632812e+01 -1.340774744749069214e-01 6.237613201141357422e+00 1.831060767173767090e+00 -4.303397834300994873e-01
2.761000000000000000e+03 4.890266799926757812e+01 -2.200547790527343750e+01 1.520076990127563477e+00 6.485209465026855469e+00 2.401585817337036133e+00 -1.613789319992065430e+00
2.762000000000000000e+03 3.560082244873046875e+01 6.455869197845458984e+00 2.145424604415893555e+00 5.646368503570556641e+00 2.337538003921508789e+00 -7.668198347091674805e-01
2.763000000000000000e+03 3.736112594604492188e+01 -1.038139611482620239e-01 9.141185879707336426e-01 5.309429645538330078e+00 1.867064476013183594e+00 -1.701706886291503906e+00
2.764000000000000000e+03 3.752716827392578125e+01 -1.103159332275390625e+01 -1.065809011459350586e+00 4.389141082763671875e+00 9.969995617866516113e-01 -2.451458215713500977e+00
2.765000000000000000e+03 3.895769882202148438e+01 -5.827664852142333984e+00 -2.924756109714508057e-01 5.250823020935058594e+00 1.487504243850708008e+00 -2.256642580032348633e+00
2.766000000000000000e+03 9.311123847961425781e+00 2.329428672790527344e+01 -1.089075356721878052e-01 2.958849906921386719e+00 8.549826741218566895e-01 -4.480825066566467285e-01
2.767000000000000000e+03 1.038210964202880859e+01 2.632736015319824219e+01 -1.248846501111984253e-01 3.130753040313720703e+00 9.017605185508728027e-01 -4.267126321792602539e-01
2.768000000000000000e+03 7.219700622558593750e+01 -1.490423965454101562e+01 -2.998993098735809326e-01 5.670317649841308594e+00 1.611125469207763672e+00 -4.924107789993286133e-01
2.769000000000000000e+03 7.235129547119140625e+01 -1.376165676116943359e+01 -2.063769549131393433e-01 5.762875556945800781e+00 1.666949510574340820e+00 -4.532773494720458984e-01
2.770000000000000000e+03 4.930499076843261719e+00 6.016879081726074219e+00 5.462607741355895996e-01 1.017659068107604980e+00 4.691759645938873291e-01 -4.320025146007537842e-01
2.771000000000000000e+03 6.247297286987304688e+00 -3.196283340454101562e+00 2.095468282699584961e+00 2.303415536880493164e+00 1.319665193557739258e+00 2.997651100158691406e+00
2.772000000000000000e+03 7.106882095336914062e+00 3.457753181457519531e+00 1.125451803207397461e+00 1.607304573059082031e+00 8.198269605636596680e-01 -9.406207799911499023e-01
2.773000000000000000e+03 8.366213798522949219e+00 -3.599122762680053711e+00 1.799198865890502930e+00 6.108017444610595703e+00 2.372164726257324219e+00 5.007237911224365234e+00
2.774000000000000000e+03 6.441555500030517578e+00 3.470681190490722656e+00 9.768840670585632324e-01 1.028531432151794434e+00 6.016246676445007324e-01 -5.440916419029235840e-01
2.775000000000000000e+03 6.151422977447509766e+00 2.931293725967407227e+00 7.726780176162719727e-01 5.164741873741149902e-01 3.867456614971160889e-01 -2.055311501026153564e-01
2.776000000000000000e+03 7.488329887390136719e+00 2.971495866775512695e+00 1.250468730926513672e+00 1.717824101448059082e+00 8.904878497123718262e-01 -1.092306733131408691e+00
2.777000000000000000e+03 8.532100677490234375e+00 -3.202932357788085938e+00 2.286122083663940430e+00 6.382541656494140625e+00 2.600599050521850586e+00 5.287078857421875000e+00
2.778000000000000000e+03 7.274466037750244141e+00 -2.916993856430053711e+00 2.791889190673828125e+00 3.195246934890747070e+00 1.796140789985656738e+00 4.012436389923095703e+00
2.779000000000000000e+03 8.362233161926269531e+00 3.041584968566894531e+00 1.249318003654479980e+00 3.338778495788574219e+00 1.376428961753845215e+00 -1.758986353874206543e+00
2.780000000000000000e+03 7.837663173675537109e+00 2.800729990005493164e+00 1.342596292495727539e+00 2.106136560440063477e+00 1.034619808197021484e+00 -1.380330801010131836e+00
2.781000000000000000e+03 1.286226749420166016e+01 8.179707527160644531e-01 6.029048919677734375e+00 8.135416030883789062e+00 4.249339580535888672e+00 3.852376937866210938e+00
2.782000000000000000e+03 1.250732231140136719e+01 1.245156764984130859e+00 5.046518325805664062e+00 9.120473861694335938e+00 4.250097751617431641e+00 4.133565425872802734e+00
2.783000000000000000e+03 1.042890548706054688e+01 -3.090597152709960938e+00 1.496724486351013184e+00 1.069924640655517578e+01 3.658791303634643555e+00 3.970320701599121094e+00
2.784000000000000000e+03 4.885406970977783203e+00 -3.340132951736450195e+00 1.362174868583679199e+00 1.524427771568298340e+00 8.659808039665222168e-01 1.862565875053405762e+00
2.785000000000000000e+03 4.125196933746337891e+00 -2.720450878143310547e+00 1.071633934974670410e+00 8.410450816154479980e-01 5.738037228584289551e-01 1.081252098083496094e+00
2.786000000000000000e+03 5.236048221588134766e+00 -3.440640926361083984e+00 1.511007666587829590e+00 1.796522736549377441e+00 9.922591447830200195e-01 2.190625667572021484e+00
2.787000000000000000e+03 3.282232999801635742e+00 -5.004201412200927734e+00 4.586595594882965088e-01 1.751523017883300781e+00 6.630547642707824707e-01 1.344010353088378906e+00
2.788000000000000000e+03 5.059216022491455078e+00 3.988702058792114258e+00 6.603645682334899902e-01 4.861404895782470703e-01 3.439515233039855957e-01 -1.087736114859580994e-01
2.789000000000000000e+03 1.104075336456298828e+01 -2.734613418579101562e+00 2.124508857727050781e+00 1.129791736602783203e+01 4.026728153228759766e+00 2.684969663619995117e+00
2.790000000000000000e+03 1.036406993865966797e+01 3.339885234832763672e+00 2.245390564203262329e-01 8.341296195983886719e+00 2.569750547409057617e+00 -6.119656562805175781e-01
2.791000000000000000e+03 1.321127796173095703e+01 -1.215484619140625000e+00 6.033929824829101562e+00 7.265373229980468750e+00 3.989790916442871094e+00 1.449040055274963379e+00
2.792000000000000000e+03 3.083952665328979492e+00 4.262895584106445312e+00 2.989470362663269043e-01 -2.315152436494827271e-02 8.273866027593612671e-02 1.940192729234695435e-01
2.793000000000000000e+03 2.926218271255493164e+00 -4.036194801330566406e+00 5.207732915878295898e-01 1.174765825271606445e+00 5.086617469787597656e-01 9.691449999809265137e-01
2.794000000000000000e+03 3.922215700149536133e+00 4.650734901428222656e+00 4.449283778667449951e-01 2.535650432109832764e-01 2.095480263233184814e-01 2.569067105650901794e-02
2.795000000000000000e+03 3.481871128082275391e+00 4.514792442321777344e+00 3.827262818813323975e-01 1.095568016171455383e-01 1.476849168539047241e-01 1.086095497012138367e-01
2.796000000000000000e+03 3.880323171615600586e+00 -5.162371158599853516e+00 5.338334441184997559e-01 2.188469648361206055e+00 8.166909217834472656e-01 1.723578453063964844e+00
2.797000000000000000e+03 5.072374343872070312e+00 3.345405817031860352e+00 5.825891494750976562e-01 3.055842220783233643e-01 2.664520144462585449e-01 4.862510785460472107e-02
2.798000000000000000e+03 4.295011997222900391e+00 4.773490428924560547e+00 5.048952102661132812e-01 4.298496246337890625e-01 2.804234623908996582e-01 -7.258844375610351562e-02
2.799000000000000000e+03 4.405935287475585938e+00 5.971076965332031250e+00 4.848668277263641357e-01 7.323571443557739258e-01 3.651672005653381348e-01 -3.015626072883605957e-01
2.800000000000000000e+03 4.742513656616210938e+00 -6.303617000579833984e+00 8.470873534679412842e-02 3.484728813171386719e+00 1.070831298828125000e+00 2.285243034362792969e+00
2.801000000000000000e+03 4.976717948913574219e+00 -7.659857273101806641e+00 -4.391602277755737305e-01 4.426334381103515625e+00 1.196152210235595703e+00 2.267329216003417969e+00
2.802000000000000000e+03 7.250161647796630859e+00 9.397796630859375000e+00 9.440118074417114258e-02 2.799772977828979492e+00 8.682522177696228027e-01 -6.805692911148071289e-01
2.803000000000000000e+03 8.576481819152832031e+00 1.127185058593750000e+01 -6.907564401626586914e-02 3.367278814315795898e+00 9.894609451293945312e-01 -5.112093091011047363e-01
2.804000000000000000e+03 9.826110839843750000e+00 -1.011265754699707031e+01 -2.587678194046020508e+00 7.696459770202636719e+00 1.532634377479553223e+00 3.236476898193359375e+00
2.805000000000000000e+03 6.644243240356445312e+00 9.224460601806640625e+00 1.393652707338333130e-01 2.440087080001831055e+00 7.738357186317443848e-01 -6.908765435218811035e-01
2.806000000000000000e+03 4.996793746948242188e+00 6.519398689270019531e+00 4.933851361274719238e-01 1.140026807785034180e+00 4.900235831737518311e-01 -4.783803820610046387e-01
2.807000000000000000e+03 5.181336879730224609e+00 7.050523757934570312e+00 4.354989528656005859e-01 1.368016242980957031e+00 5.410545468330383301e-01 -5.512962341308593750e-01
2.808000000000000000e+03 6.353162765502929688e+00 7.668308258056640625e+00 3.621650040149688721e-01 2.180054426193237305e+00 7.626658678054809570e-01 -7.261340022087097168e-01
2.809000000000000000e+03 6.475927829742431641e+00 -9.967403411865234375e+00 -1.584714055061340332e+00 6.519132137298583984e+00 1.480325341224670410e+00 2.184726953506469727e+00
2.810000000000000000e+03 1.855007171630859375e+01 -7.114498138427734375e+00 3.299398347735404968e-02 1.263486385345458984e+00 3.889440894126892090e-01 9.894730448722839355e-01
2.811000000000000000e+03 1.461011219024658203e+01 -8.117846488952636719e+00 -1.477323293685913086e+00 4.520213603973388672e+00 9.128670692443847656e-01 2.648824930191040039e+00
2.812000000000000000e+03 1.107944488525390625e+01 -9.046966552734375000e+00 -2.508590459823608398e+00 7.288319110870361328e+00 1.433918595314025879e+00 3.466061830520629883e+00
2.813000000000000000e+03 9.210344314575195312e+00 1.638532638549804688e+01 -1.240686178207397461e-01 3.094290733337402344e+00 8.910666108131408691e-01 -4.352369904518127441e-01
2.814000000000000000e+03 8.263386726379394531e+00 1.428166007995605469e+01 -1.061330065131187439e-01 2.991468191146850586e+00 8.656005263328552246e-01 -4.833302497863769531e-01
2.815000000000000000e+03 1.062898826599121094e+01 -9.972168922424316406e+00 -2.772688388824462891e+00 7.544785022735595703e+00 1.431628942489624023e+00 3.390247821807861328e+00
2.816000000000000000e+03 8.159652709960937500e+00 -1.102695274353027344e+01 -2.300350427627563477e+00 7.824791908264160156e+00 1.657332539558410645e+00 2.488333940505981445e+00
2.817000000000000000e+03 6.417371749877929688e+00 9.810761451721191406e+00 9.081970155239105225e-02 2.332447767257690430e+00 7.269802689552307129e-01 -6.695365309715270996e-01
2.818000000000000000e+03 6.053979873657226562e+00 8.924277305603027344e+00 1.644560098648071289e-01 2.095964431762695312e+00 6.781261563301086426e-01 -6.584751009941101074e-01
2.819000000000000000e+03 2.071979522705078125e+01 -6.167655467987060547e+00 7.498660087585449219e-01 7.230928540229797363e-01 4.418876469135284424e-01 2.979190051555633545e-01
2.820000000000000000e+03 6.957935333251953125e+00 1.148523902893066406e+01 -2.969507873058319092e-02 2.595422506332397461e+00 7.697182297706604004e-01 -6.054628491401672363e-01
2.821000000000000000e+03 7.114904880523681641e+00 1.000120162963867188e+01 4.134010896086692810e-02 2.693262338638305664e+00 8.203807473182678223e-01 -6.523936986923217773e-01
2.822000000000000000e+03 7.219777679443359375e+01 -1.282149410247802734e+01 -1.006029918789863586e-01 5.820625305175781250e+00 1.716006755828857422e+00 -3.268160223960876465e-01
2.823000000000000000e+03 1.137830829620361328e+01 -9.880167007446289062e+00 -2.692320585250854492e+00 7.147910118103027344e+00 1.336676955223083496e+00 3.485110521316528320e+00
2.824000000000000000e+03 2.212483787536621094e+01 -6.011112689971923828e+00 7.377618551254272461e-01 5.700047612190246582e-01 3.923299908638000488e-01 -5.173559859395027161e-02
2.825000000000000000e+03 8.174122810363769531e+00 -1.191511917114257812e+01 -2.261507034301757812e+00 8.190505981445312500e+00 1.778699636459350586e+00 2.176433324813842773e+00
2.826000000000000000e+03 9.069273948669433594e+00 -1.100912761688232422e+01 -2.555876016616821289e+00 7.973966121673583984e+00 1.625427126884460449e+00 2.800237417221069336e+00
2.827000000000000000e+03 1.250423145294189453e+01 -9.923007965087890625e+00 -2.773762702941894531e+00 6.236437797546386719e+00 1.038802504539489746e+00 3.479842901229858398e+00
2.828000000000000000e+03 1.998855781555175781e+01 -6.984897613525390625e+00 9.802629798650741577e-02 6.512548327445983887e-01 2.247843444347381592e-01 5.208420753479003906e-01
2.829000000000000000e+03 3.934610748291015625e+01 -2.832631111145019531e+00 2.540880739688873291e-01 5.541560173034667969e+00 1.738694548606872559e+00 -2.172726631164550781e+00
2.830000000000000000e+03 3.841447067260742188e+01 -3.427095174789428711e+00 1.976780295372009277e-01 5.225003719329833984e+00 1.626804590225219727e+00 -2.120535612106323242e+00
2.831000000000000000e+03 3.309867477416992188e+01 -8.954092979431152344e+00 -7.200540900230407715e-01 2.695510149002075195e+00 5.926368236541748047e-01 -1.750799655914306641e+00
2.832000000000000000e+03 2.508708763122558594e+01 -5.554091930389404297e+00 7.415133118629455566e-01 8.842034935951232910e-01 4.877150356769561768e-01 -5.885607004165649414e-01
2.833000000000000000e+03 7.562542438507080078e+00 1.340436553955078125e+01 -9.358554333448410034e-02 2.767534971237182617e+00 8.021848201751708984e-01 -5.340691208839416504e-01
2.834000000000000000e+03 3.810805130004882812e+01 -9.730725288391113281e-01 6.978665590286254883e-01 5.422855377197265625e+00 1.836216688156127930e+00 -1.865849971771240234e+00
2.835000000000000000e+03 3.663112640380859375e+01 -2.809572696685791016e+00 4.701874852180480957e-01 4.722289562225341797e+00 1.557743072509765625e+00 -1.873574614524841309e+00
2.836000000000000000e+03 1.543253421783447266e+01 -8.469750404357910156e+00 -1.466436982154846191e+00 3.422674894332885742e+00 5.868713855743408203e-01 2.399681329727172852e+00
2.837000000000000000e+03 1.666894149780273438e+01 -8.265639305114746094e+00 -1.117520928382873535e+00 2.204507350921630859e+00 3.260959386825561523e-01 1.920906186103820801e+00
2.838000000000000000e+03 3.553285980224609375e+01 -8.980954170227050781e+00 -7.276045680046081543e-01 3.651495456695556641e+00 8.771672844886779785e-01 -2.154507875442504883e+00
2.839000000000000000e+03 2.558781623840332031e+01 -7.820158958435058594e+00 -6.547414660453796387e-01 6.834748983383178711e-01 8.620033040642738342e-03 -8.042119145393371582e-01
2.840000000000000000e+03 2.579533195495605469e+01 -9.102325439453125000e+00 -1.479212284088134766e+00 5.455965399742126465e-01 -2.800847291946411133e-01 -7.623245120048522949e-01
2.841000000000000000e+03 4.082870864868164062e+01 -1.298381042480468750e+01 -1.508082628250122070e+00 6.530979156494140625e+00 1.506868958473205566e+00 -2.562462568283081055e+00
2.842000000000000000e+03 4.139125061035156250e+01 -1.003146076202392578e+01 -1.157150745391845703e+00 6.233439922332763672e+00 1.522886753082275391e+00 -2.282229900360107422e+00
2.843000000000000000e+03 3.222386932373046875e+01 -1.054510211944580078e+01 -1.302339911460876465e+00 2.024628162384033203e+00 2.166864424943923950e-01 -1.444949269294738770e+00
2.844000000000000000e+03 2.953422737121582031e+01 -7.554840087890625000e+00 -4.542349874973297119e-01 1.701316833496093750e+00 3.741245567798614502e-01 -1.312565684318542480e+00
2.845000000000000000e+03 9.183414459228515625e+00 2.011296463012695312e+01 -1.046062260866165161e-01 2.985491514205932617e+00 8.642656207084655762e-01 -4.561742544174194336e-01
2.846000000000000000e+03 6.797930717468261719e+00 2.025323677062988281e+01 -9.147557616233825684e-02 2.453147411346435547e+00 7.085015773773193359e-01 -4.652901291847229004e-01
2.847000000000000000e+03 3.654568862915039062e+01 7.390324473381042480e-01 1.157936215400695801e+00 5.140832901000976562e+00 1.889630794525146484e+00 -1.490404963493347168e+00
2.848000000000000000e+03 4.094045639038085938e+01 -7.457967758178710938e+00 -6.712703704833984375e-01 5.855713367462158203e+00 1.555332899093627930e+00 -2.306193828582763672e+00
2.849000000000000000e+03 3.673395919799804688e+01 -7.138175010681152344e+00 -4.181968569755554199e-01 4.380067825317382812e+00 1.188561201095581055e+00 -2.193550825119018555e+00
2.850000000000000000e+03 3.615669250488281250e+01 4.509988307952880859e+00 1.818158626556396484e+00 5.566862583160400391e+00 2.215506315231323242e+00 -1.023463606834411621e+00
2.851000000000000000e+03 8.769578933715820312e+00 2.198939704895019531e+01 -1.024666354060173035e-01 2.869637489318847656e+00 8.301512598991394043e-01 -4.580437242984771729e-01
2.852000000000000000e+03 1.019094944000244141e+01 1.652866172790527344e+01 -1.044248640537261963e-01 3.370882034301757812e+00 9.799371361732482910e-01 -3.678628206253051758e-01
2.853000000000000000e+03 8.970408439636230469e+00 1.736343765258789062e+01 -1.189302355051040649e-01 3.017133235931396484e+00 8.694609403610229492e-01 -4.471732378005981445e-01
2.854000000000000000e+03 5.063259124755859375e+01 -2.580926132202148438e+01 1.781846523284912109e+00 6.038579940795898438e+00 2.346127986907958984e+00 -2.057278394699096680e+00
2.855000000000000000e+03 9.739334106445312500e+00 1.568317604064941406e+01 -1.090344190597534180e-01 3.310982465744018555e+00 9.605844616889953613e-01 -3.798550963401794434e-01
2.856000000000000000e+03 2.279577255249023438e+01 -5.147300720214843750e+00 1.169035196304321289e+00 7.945907711982727051e-01 5.890877842903137207e-01 -1.063233762979507446e-01
2.857000000000000000e+03 2.284917068481445312e+01 -6.673645973205566406e+00 1.667833626270294189e-01 4.617312848567962646e-01 1.885543912649154663e-01 -2.871462404727935791e-01
2.858000000000000000e+03 3.436213302612304688e+01 1.403380203247070312e+01 1.872902154922485352e+00 5.898527622222900391e+00 2.331428766250610352e+00 -4.418148994445800781e-01
2.859000000000000000e+03 3.582816696166992188e+01 1.379735088348388672e+01 1.861858248710632324e+00 6.465491294860839844e+00 2.498204708099365234e+00 -5.489220023155212402e-01
2.860000000000000000e+03 5.390344238281250000e+01 -3.280260848999023438e+01 1.506345272064208984e+00 7.156307697296142578e+00 2.598795890808105469e+00 -8.403586745262145996e-01
2.861000000000000000e+03 4.832830810546875000e+01 -3.292673873901367188e+01 6.999898701906204224e-02 6.906386375427246094e+00 2.092915534973144531e+00 -1.343639969825744629e+00
2.862000000000000000e+03 3.317376327514648438e+01 1.759084320068359375e+01 1.342699408531188965e+00 5.653862953186035156e+00 2.098968744277954102e+00 -3.687781691551208496e-01
2.863000000000000000e+03 1.118249416351318359e+01 2.398152160644531250e+01 -1.166403293609619141e-01 3.265579700469970703e+00 9.446818232536315918e-01 -4.289522767066955566e-01
2.864000000000000000e+03 1.185333824157714844e+01 2.558542060852050781e+01 -1.246572136878967285e-01 3.347216844558715820e+00 9.667679071426391602e-01 -4.231925308704376221e-01
2.865000000000000000e+03 3.961204528808593750e+01 -7.439203739166259766e+00 -6.388598084449768066e-01 5.422374248504638672e+00 1.435054421424865723e+00 -2.347592115402221680e+00
2.866000000000000000e+03 3.140702629089355469e+01 1.845330619812011719e+01 1.200788259506225586e+00 5.346621513366699219e+00 1.964223027229309082e+00 -3.268009722232818604e-01
2.867000000000000000e+03 3.478481674194335938e+01 1.666146087646484375e+01 1.437697291374206543e+00 6.135745048522949219e+00 2.272032737731933594e+00 -3.740491271018981934e-01
2.868000000000000000e+03 3.424676132202148438e+01 4.029191970825195312e+00 1.945740461349487305e+00 4.800032138824462891e+00 2.023731708526611328e+00 -8.077501654624938965e-01
2.869000000000000000e+03 2.709386253356933594e+01 -8.475764274597167969e+00 -9.775565862655639648e-01 8.996039628982543945e-01 -2.338578738272190094e-02 -9.500479102134704590e-01
2.870000000000000000e+03 2.872314643859863281e+01 -1.023629283905029297e+01 -1.833082795143127441e+00 1.139861583709716797e+00 -2.079663276672363281e-01 -9.171213507652282715e-01
2.871000000000000000e+03 3.301127624511718750e+01 2.270134162902832031e+01 5.637841224670410156e-01 5.584267139434814453e+00 1.844415426254272461e+00 -3.291417658329010010e-01
2.872000000000000000e+03 1.259508419036865234e+01 2.740921974182128906e+01 -1.536970138549804688e-01 3.442284822463989258e+00 9.865763187408447266e-01 -4.100721776485443115e-01
2.873000000000000000e+03 9.438492774963378906e+00 3.499633789062500000e+01 -1.718022525310516357e-01 3.098357915878295898e+00 8.779667019844055176e-01 -2.455649226903915405e-01
2.874000000000000000e+03 3.717786788940429688e+01 3.110000038146972656e+01 -5.674861073493957520e-01 5.189296245574951172e+00 1.386543154716491699e+00 -1.519974227994680405e-02
2.875000000000000000e+03 1.301770782470703125e+01 5.769059062004089355e-01 6.373831748962402344e+00 7.696761608123779297e+00 4.221178054809570312e+00 3.575713157653808594e+00
2.876000000000000000e+03 1.289135169982910156e+01 -1.367547392845153809e+00 6.043862819671630859e+00 7.997370719909667969e+00 4.212369918823242188e+00 1.204158425331115723e+00
2.877000000000000000e+03 6.996169567108154297e+00 -3.144000291824340820e+00 2.421317100524902344e+00 3.088014841079711914e+00 1.652799606323242188e+00 3.769838809967041016e+00
2.878000000000000000e+03 1.231539249420166016e+01 1.798302650451660156e+00 3.590696573257446289e+00 9.711833953857421875e+00 3.990759134292602539e+00 3.832770824432373047e+00
2.879000000000000000e+03 9.413068771362304688e+00 3.202723503112792969e+00 6.859912276268005371e-01 6.222627639770507812e+00 2.072585582733154297e+00 -1.784918546676635742e+00
2.880000000000000000e+03 9.722969055175781250e+00 -9.369059562683105469e+00 -2.441405534744262695e+00 7.591238498687744141e+00 1.544949889183044434e+00 3.370077371597290039e+00
2.881000000000000000e+03 8.935276985168457031e+00 3.340855836868286133e+00 9.011927247047424316e-01 4.902805805206298828e+00 1.741199612617492676e+00 -1.803698658943176270e+00
2.882000000000000000e+03 1.241306400299072266e+01 2.403001546859741211e+00 2.428460597991943359e+00 9.305522918701171875e+00 3.520195245742797852e+00 3.289412736892700195e+00
2.883000000000000000e+03 1.242972469329833984e+01 2.010224819183349609e+00 3.163542032241821289e+00 9.413814544677734375e+00 3.773206949234008789e+00 3.682414531707763672e+00
2.884000000000000000e+03 5.375699520111083984e+00 5.968454837799072266e+00 5.891026258468627930e-01 1.245008587837219238e+00 5.502333641052246094e-01 -5.257300734519958496e-01
2.885000000000000000e+03 1.285143470764160156e+01 -1.992696166038513184e+00 4.794329166412353516e+00 8.187828063964843750e+00 3.894647121429443359e+00 1.023040413856506348e+00
2.886000000000000000e+03 1.773266029357910156e+01 -6.613286495208740234e+00 4.049748480319976807e-01 1.968680143356323242e+00 7.120965123176574707e-01 1.265413284301757812e+00
2.887000000000000000e+03 8.236444473266601562e+00 3.365442752838134766e+00 1.145957708358764648e+00 3.267341136932373047e+00 1.323989629745483398e+00 -1.619509220123291016e+00
2.888000000000000000e+03 8.650821685791015625e+00 3.180915594100952148e+00 1.091547489166259766e+00 4.145637989044189453e+00 1.571155667304992676e+00 -1.839521408081054688e+00
2.889000000000000000e+03 7.584006309509277344e+00 -2.859980106353759766e+00 2.867064237594604492e+00 3.791376113891601562e+00 1.997532129287719727e+00 4.396792888641357422e+00
2.890000000000000000e+03 8.611249923706054688e+00 -3.563216209411621094e+00 1.739496588706970215e+00 6.583773136138916016e+00 2.496980905532836914e+00 5.075022697448730469e+00
2.891000000000000000e+03 8.049546241760253906e+00 -3.402091503143310547e+00 2.195405483245849609e+00 5.248118877410888672e+00 2.233057260513305664e+00 4.865800380706787109e+00
2.892000000000000000e+03 9.233695030212402344e+00 -4.019602775573730469e+00 9.145928621292114258e-01 7.808349132537841797e+00 2.616882562637329102e+00 4.822652339935302734e+00
2.893000000000000000e+03 7.322370052337646484e+00 3.233462810516357422e+00 1.186163783073425293e+00 1.677813053131103516e+00 8.591930270195007324e-01 -1.019992113113403320e+00
2.894000000000000000e+03 9.922606468200683594e+00 3.786340713500976562e+00 3.214649260044097900e-01 6.958133697509765625e+00 2.183879613876342773e+00 -1.031333446502685547e+00
2.895000000000000000e+03 9.915342330932617188e+00 -3.609312057495117188e+00 1.032876014709472656e+00 9.187212944030761719e+00 3.066026687622070312e+00 4.527062416076660156e+00
2.896000000000000000e+03 9.377782821655273438e+00 -3.632788896560668945e+00 1.235233306884765625e+00 8.389167785644531250e+00 2.887320280075073242e+00 4.981420516967773438e+00
2.897000000000000000e+03 1.189709472656250000e+01 3.398999452590942383e+00 8.563966751098632812e-01 8.894355773925781250e+00 2.925225734710693359e+00 1.785111904144287109e+00
2.898000000000000000e+03 1.692899322509765625e+01 -6.293154239654541016e+00 5.012575984001159668e-01 2.780895233154296875e+00 9.846458435058593750e-01 1.449495077133178711e+00
2.899000000000000000e+03 1.175284194946289062e+01 -2.953774452209472656e+00 2.211645126342773438e+00 1.024589252471923828e+01 3.737261295318603516e+00 1.877207756042480469e+00
2.900000000000000000e+03 5.446928024291992188e+00 -4.035840034484863281e+00 1.325733900070190430e+00 2.393176555633544922e+00 1.115673184394836426e+00 2.566258668899536133e+00
2.901000000000000000e+03 4.039272308349609375e+00 -3.822822093963623047e+00 9.421809911727905273e-01 1.445159316062927246e+00 7.162020802497863770e-01 1.485511183738708496e+00
2.902000000000000000e+03 5.556732654571533203e+00 -3.618090152740478516e+00 1.584834337234497070e+00 2.155745983123779297e+00 1.122174143791198730e+00 2.571697235107421875e+00
2.903000000000000000e+03 4.894352912902832031e+00 -4.208873271942138672e+00 1.085706472396850586e+00 2.239498138427734375e+00 9.975613951683044434e-01 2.253190279006958008e+00
2.904000000000000000e+03 1.090199661254882812e+01 3.116880893707275391e+00 3.308469653129577637e-01 9.445370674133300781e+00 2.932865381240844727e+00 4.368005096912384033e-01
2.905000000000000000e+03 1.055049324035644531e+01 -3.416759729385375977e+00 1.113543272018432617e+00 1.015802955627441406e+01 3.381471872329711914e+00 3.746181488037109375e+00
2.906000000000000000e+03 1.127808666229248047e+01 3.768558025360107422e+00 3.579226434230804443e-01 8.512658119201660156e+00 2.661174058914184570e+00 7.410002946853637695e-01
2.907000000000000000e+03 6.576746940612792969e+00 3.814264535903930664e+00 1.008252382278442383e+00 1.277644634246826172e+00 6.857691407203674316e-01 -6.801544427871704102e-01
2.908000000000000000e+03 1.074880695343017578e+01 -3.208981990814208984e+00 1.367055177688598633e+00 1.062871265411376953e+01 3.598730325698852539e+00 3.418216705322265625e+00
2.909000000000000000e+03 1.015193271636962891e+01 3.556928873062133789e+00 2.746040821075439453e-01 7.661601066589355469e+00 2.380861520767211914e+00 -8.304457664489746094e-01
2.910000000000000000e+03 1.220971107482910156e+01 2.621006250381469727e+00 1.885215640068054199e+00 9.425676345825195312e+00 3.393267631530761719e+00 2.868671894073486328e+00
2.911000000000000000e+03 1.118413257598876953e+01 -3.113288402557373047e+00 1.686371207237243652e+00 1.050894260406494141e+01 3.658594131469726562e+00 2.688703060150146484e+00
2.912000000000000000e+03 4.482539653778076172e+00 3.917218923568725586e+00 5.290841460227966309e-01 2.879154682159423828e-01 2.450998872518539429e-01 5.743478983640670776e-02
2.913000000000000000e+03 5.598608493804931641e+00 3.359352827072143555e+00 7.315346598625183105e-01 5.191059708595275879e-01 3.751921951770782471e-01 -1.237753927707672119e-01
2.914000000000000000e+03 5.674157619476318359e+00 6.803085803985595703e+00 4.879812002182006836e-01 1.628616452217102051e+00 6.349793076515197754e-01 -6.381355524063110352e-01
2.915000000000000000e+03 4.777804851531982422e+00 3.097672939300537109e+00 4.520924985408782959e-01 1.815654784440994263e-01 1.900973916053771973e-01 1.792413890361785889e-01
2.916000000000000000e+03 5.345145225524902344e+00 3.673213243484497070e+00 7.016384005546569824e-01 5.084048509597778320e-01 3.630129694938659668e-01 -1.166655123233795166e-01
2.917000000000000000e+03 8.402010917663574219e+00 -7.582092285156250000e+00 -1.360275506973266602e+00 6.878883361816406250e+00 1.655582427978515625e+00 3.597697496414184570e+00
2.918000000000000000e+03 7.425869464874267578e+00 -9.384932518005371094e+00 -1.778646349906921387e+00 6.873522758483886719e+00 1.528462886810302734e+00 2.754719495773315430e+00
2.919000000000000000e+03 4.960926532745361328e+00 5.562495708465576172e+00 5.844674110412597656e-01 9.245675206184387207e-01 4.527105093002319336e-01 -3.781270384788513184e-01
2.920000000000000000e+03 6.710112094879150391e+00 3.333541393280029297e+00 1.029462814331054688e+00 1.102315068244934082e+00 6.395333409309387207e-01 -6.428819298744201660e-01
2.921000000000000000e+03 4.647861003875732422e+00 5.118038177490234375e+00 5.997899770736694336e-01 6.451783776283264160e-01 3.734905123710632324e-01 -2.289418131113052368e-01
2.922000000000000000e+03 6.774107456207275391e+00 8.035251617431640625e+00 2.762795686721801758e-01 2.481566429138183594e+00 8.273538351058959961e-01 -7.391200065612792969e-01
2.923000000000000000e+03 7.883721351623535156e+00 9.476796150207519531e+00 5.160614103078842163e-02 3.131921291351318359e+00 9.550582170486450195e-01 -6.414405703544616699e-01
2.924000000000000000e+03 4.159109115600585938e+00 4.211641311645507812e+00 4.962616860866546631e-01 2.533980309963226318e-01 2.248979061841964722e-01 6.423294544219970703e-02
2.925000000000000000e+03 5.247396469116210938e+00 -6.409056663513183594e+00 3.308413550257682800e-03 4.017057895660400391e+00 1.206109881401062012e+00 2.638388395309448242e+00
2.926000000000000000e+03 4.482927322387695312e+00 -5.438215255737304688e+00 4.481460750102996826e-01 2.765094041824340820e+00 9.639720320701599121e-01 2.109780788421630859e+00
2.927000000000000000e+03 5.835581779479980469e+00 -7.297852993011474609e+00 -4.750825762748718262e-01 4.896303653717041016e+00 1.326366305351257324e+00 2.763007879257202148e+00
2.928000000000000000e+03 5.214312553405761719e+00 -7.032402515411376953e+00 -2.439101934432983398e-01 4.277775287628173828e+00 1.210159540176391602e+00 2.539811611175537109e+00
2.929000000000000000e+03 5.559898376464843750e+00 -7.963051795959472656e+00 -7.130510807037353516e-01 4.977825641632080078e+00 1.279432296752929688e+00 2.461074829101562500e+00
2.930000000000000000e+03 7.836971759796142578e+00 1.007819938659667969e+01 2.145847538486123085e-03 3.085269212722778320e+00 9.262245297431945801e-01 -6.178065538406372070e-01
2.931000000000000000e+03 6.861366271972656250e+00 8.740163803100585938e+00 1.678191274404525757e-01 2.541387796401977539e+00 8.127620220184326172e-01 -7.035162448883056641e-01
2.932000000000000000e+03 6.390747547149658203e+00 8.441040992736816406e+00 2.261556982994079590e-01 2.256875038146972656e+00 7.449092268943786621e-01 -6.906700134277343750e-01
2.933000000000000000e+03 1.347781753540039062e+01 -8.809453964233398438e+00 -2.174161434173583984e+00 5.444956302642822266e+00 9.812384247779846191e-01 3.192915439605712891e+00
2.934000000000000000e+03 1.274077987670898438e+01 -8.812615394592285156e+00 -2.245079994201660156e+00 6.243484973907470703e+00 1.199521422386169434e+00 3.396652698516845703e+00
2.935000000000000000e+03 1.199926185607910156e+01 -9.837647438049316406e+00 -2.841757774353027344e+00 6.835617542266845703e+00 1.198158025741577148e+00 3.470847845077514648e+00
2.936000000000000000e+03 3.332855606079101562e+01 -7.548647880554199219e+00 -4.031960964202880859e-01 2.950386762619018555e+00 7.641571760177612305e-01 -1.813532829284667969e+00
2.937000000000000000e+03 3.490879821777343750e+01 -7.168720245361328125e+00 -3.506507575511932373e-01 3.647709369659423828e+00 9.891176223754882812e-01 -2.008484363555908203e+00
2.938000000000000000e+03 1.390795516967773438e+01 -7.714954376220703125e+00 -1.360768675804138184e+00 5.321413040161132812e+00 1.188193321228027344e+00 2.789500474929809570e+00
2.939000000000000000e+03 1.210256195068359375e+01 -8.831173896789550781e+00 -2.395276784896850586e+00 6.776580810546875000e+00 1.314391255378723145e+00 3.447946310043334961e+00
2.940000000000000000e+03 8.849817276000976562e+00 -4.357801914215087891e+00 7.326227426528930664e-01 7.132235050201416016e+00 2.359457254409790039e+00 4.726072311401367188e+00
2.941000000000000000e+03 1.595747089385986328e+01 -7.737530231475830078e+00 -9.143947362899780273e-01 3.298526287078857422e+00 7.152394652366638184e-01 2.125988960266113281e+00
2.942000000000000000e+03 3.709934234619140625e+01 -9.752748489379882812e+00 -8.846837282180786133e-01 4.254036426544189453e+00 1.010805845260620117e+00 -2.373542785644531250e+00
2.943000000000000000e+03 3.833560943603515625e+01 -9.213137626647949219e+00 -8.758895397186279297e-01 4.921246528625488281e+00 1.213607192039489746e+00 -2.404024600982666016e+00
2.944000000000000000e+03 2.007013702392578125e+01 -5.458310127258300781e+00 1.260243773460388184e+00 1.098819375038146973e+00 7.077189087867736816e-01 5.426848530769348145e-01
2.945000000000000000e+03 1.540256881713867188e+01 -7.139315128326416016e+00 -5.621501803398132324e-01 3.988326072692871094e+00 1.027852773666381836e+00 2.118079185485839844e+00
2.946000000000000000e+03 8.470082283020019531e+00 1.289314270019531250e+01 -9.868344664573669434e-02 3.161517620086669922e+00 9.188502430915832520e-01 -4.866221845149993896e-01
2.947000000000000000e+03 1.590725803375244141e+01 -6.593902587890625000e+00 4.371224716305732727e-02 3.644564390182495117e+00 1.106482982635498047e+00 1.829624295234680176e+00
2.948000000000000000e+03 2.585959053039550781e+01 -6.430141925811767578e+00 1.388531178236007690e-01 9.381415843963623047e-01 3.230984210968017578e-01 -8.187639713287353516e-01
2.949000000000000000e+03 9.091576576232910156e+00 1.361390399932861328e+01 -1.121764928102493286e-01 3.291460275650024414e+00 9.537851810455322266e-01 -4.346618354320526123e-01
2.950000000000000000e+03 8.029984474182128906e+00 1.213899707794189453e+01 -8.015683293342590332e-02 3.061617136001586914e+00 8.944380879402160645e-01 -5.255138874053955078e-01
2.951000000000000000e+03 7.799555778503417969e+00 1.070921325683593750e+01 -3.108880482614040375e-02 3.024680852890014648e+00 8.980776071548461914e-01 -5.891824364662170410e-01
2.952000000000000000e+03 3.749370956420898438e+01 -3.437259674072265625e+00 2.787271440029144287e-01 4.918044090270996094e+00 1.559031367301940918e+00 -2.016202449798583984e+00
2.953000000000000000e+03 3.162560081481933594e+01 -9.132885932922363281e+00 -8.698723316192626953e-01 2.127814531326293945e+00 3.773826360702514648e-01 -1.507102370262145996e+00
2.954000000000000000e+03 3.577894973754882812e+01 -2.394195199012756348e-01 1.065215945243835449e+00 4.736298561096191406e+00 1.740454316139221191e+00 -1.508126497268676758e+00
2.955000000000000000e+03 5.044535446166992188e+01 -3.490997314453125000e+01 -1.883977055549621582e-01 6.822566986083984375e+00 1.990250825881958008e+00 -9.563838243484497070e-01
2.956000000000000000e+03 9.867137908935546875e+00 2.127196693420410156e+01 -1.050828471779823303e-01 3.082591772079467773e+00 8.932526707649230957e-01 -4.432916939258575439e-01
2.957000000000000000e+03 8.468943595886230469e+00 1.906917190551757812e+01 -1.056182682514190674e-01 2.850442886352539062e+00 8.234474062919616699e-01 -4.756607115268707275e-01
2.958000000000000000e+03 4.045048141479492188e+01 -1.166900730133056641e+01 -1.340880870819091797e+00 6.064667224884033203e+00 1.417135953903198242e+00 -2.499660015106201172e+00
2.959000000000000000e+03 2.811702537536621094e+01 -8.713365554809570312e+00 -1.055653691291809082e+00 1.215705037117004395e+00 4.801538586616516113e-02 -1.049040198326110840e+00
2.960000000000000000e+03 2.770420265197753906e+01 -9.858894348144531250e+00 -1.716890215873718262e+00 9.466788172721862793e-01 -2.310634106397628784e-01 -8.334529399871826172e-01
2.961000000000000000e+03 3.981885147094726562e+01 -6.336334228515625000e+00 -4.206260144710540771e-01 5.478350639343261719e+00 1.517317414283752441e+00 -2.304075479507446289e+00
2.962000000000000000e+03 3.976784133911132812e+01 -5.458484172821044922e+00 -2.276617735624313354e-01 5.516632556915283203e+00 1.586691141128540039e+00 -2.264136314392089844e+00
2.963000000000000000e+03 3.539224624633789062e+01 3.353702306747436523e+00 1.725357055664062500e+00 5.095446586608886719e+00 2.046241283416748047e+00 -1.040117263793945312e+00
2.964000000000000000e+03 2.339686012268066406e+01 -4.293012142181396484e+00 1.566082358360290527e+00 9.686647057533264160e-01 7.604241371154785156e-01 -1.225772574543952942e-01
2.965000000000000000e+03 1.307261753082275391e+01 1.620078849792480469e+01 1.030382141470909119e-02 3.937355756759643555e+00 1.184297919273376465e+00 -1.181720793247222900e-01
2.966000000000000000e+03 3.492341613769531250e+01 5.224856853485107422e+00 2.030412912368774414e+00 5.190811634063720703e+00 2.166367292404174805e+00 -7.853606939315795898e-01
2.967000000000000000e+03 3.361897277832031250e+01 5.846177101135253906e+00 2.214668512344360352e+00 4.830671310424804688e+00 2.113601922988891602e+00 -5.580100417137145996e-01
2.968000000000000000e+03 3.301551437377929688e+01 1.269279956817626953e+01 2.052537918090820312e+00 5.400918483734130859e+00 2.236037015914916992e+00 -3.573092818260192871e-01
2.969000000000000000e+03 3.462896728515625000e+01 1.540191841125488281e+01 1.663598775863647461e+00 6.034452915191650391e+00 2.309415578842163086e+00 -4.191578924655914307e-01
2.970000000000000000e+03 3.420330047607421875e+01 7.071384429931640625e+00 2.271345138549804688e+00 5.152759552001953125e+00 2.227231264114379883e+00 -5.711549520492553711e-01
2.971000000000000000e+03 3.374675750732421875e+01 1.003721809387207031e+01 2.299268007278442383e+00 5.341730117797851562e+00 2.292299509048461914e+00 -4.474302530288696289e-01
2.972000000000000000e+03 1.252528667449951172e+01 2.307382392883300781e+01 -9.624774754047393799e-02 3.485957384109497070e+00 1.016912817955017090e+00 -3.974801898002624512e-01
2.973000000000000000e+03 5.231206130981445312e+01 -3.773499298095703125e+01 -1.176855683326721191e+00 6.754594802856445312e+00 1.673321723937988281e+00 -6.207564473152160645e-01
2.974000000000000000e+03 2.623162078857421875e+01 -8.237429618835449219e+00 -9.759514331817626953e-01 7.489910125732421875e-01 -6.808813661336898804e-02 -8.791893124580383301e-01
2.975000000000000000e+03 1.473128223419189453e+01 2.357758522033691406e+01 -6.883453577756881714e-02 3.769097805023193359e+00 1.110078930854797363e+00 -3.457452356815338135e-01
2.976000000000000000e+03 3.133553886413574219e+01 1.358440876007080078e+01 1.937128543853759766e+00 5.018276214599609375e+00 2.086621522903442383e+00 -2.205949723720550537e-01
2.977000000000000000e+03 3.155771064758300781e+01 2.214834403991699219e+01 6.384499669075012207e-01 5.371677875518798828e+00 1.803038358688354492e+00 -3.483171164989471436e-01
2.978000000000000000e+03 2.800792503356933594e+01 1.690554809570312500e+01 1.324743986129760742e+00 4.784645080566406250e+00 1.832816720008850098e+00 -1.242551356554031372e-01
2.979000000000000000e+03 2.968066787719726562e+01 2.691884803771972656e+01 -1.104928180575370789e-02 5.146446704864501953e+00 1.540619254112243652e+00 -3.695147931575775146e-01
2.980000000000000000e+03 3.047857856750488281e+01 2.434017372131347656e+01 3.042659461498260498e-01 5.251083850860595703e+00 1.666604995727539062e+00 -3.729155659675598145e-01
2.981000000000000000e+03 3.716848754882812500e+01 -6.103853225708007812e+00 -2.609163224697113037e-01 4.585235595703125000e+00 1.297295689582824707e+00 -2.187510251998901367e+00
2.982000000000000000e+03 1.148462104797363281e+01 -8.424703598022460938e+00 -2.261068582534790039e+00 7.153187274932861328e+00 1.467635631561279297e+00 3.478010892868041992e+00
2.983000000000000000e+03 9.198429107666015625e+00 3.529612541198730469e+00 7.145804166793823242e-01 5.478449821472167969e+00 1.857909083366394043e+00 -1.674982070922851562e+00
2.984000000000000000e+03 9.447840690612792969e+00 3.759767770767211914e+00 5.305695533752441406e-01 5.986019611358642578e+00 1.954976677894592285e+00 -1.464214444160461426e+00
2.985000000000000000e+03 8.885054588317871094e+00 -3.522317886352539062e+00 1.674677014350891113e+00 7.252302169799804688e+00 2.678093671798706055e+00 5.147679805755615234e+00
2.986000000000000000e+03 8.090400695800781250e+00 2.918257474899291992e+00 1.322716712951660156e+00 2.671819925308227539e+00 1.198360919952392578e+00 -1.582679152488708496e+00
2.987000000000000000e+03 6.448583126068115234e+00 -3.514302968978881836e+00 1.904736518859863281e+00 2.890780210494995117e+00 1.438655018806457520e+00 3.348012685775756836e+00
2.988000000000000000e+03 7.716090679168701172e+00 3.116998434066772461e+00 1.264744877815246582e+00 2.163154602050781250e+00 1.028369784355163574e+00 -1.305692076683044434e+00
2.989000000000000000e+03 9.546583175659179688e+00 -4.148552417755126953e+00 6.290392875671386719e-01 8.290568351745605469e+00 2.675882339477539062e+00 4.613446712493896484e+00
2.990000000000000000e+03 1.201579189300537109e+01 -2.293931484222412109e+00 3.870189189910888672e+00 1.004623126983642578e+01 4.174925804138183594e+00 1.196561098098754883e+00
2.991000000000000000e+03 1.048371887207031250e+01 -9.248929023742675781e+00 -2.438934803009033203e+00 7.478859424591064453e+00 1.511977434158325195e+00 3.479025125503540039e+00
2.992000000000000000e+03 1.319100570678710938e+01 -3.011273145675659180e-01 6.892842292785644531e+00 7.135825157165527344e+00 4.208600521087646484e+00 2.433740854263305664e+00
2.993000000000000000e+03 5.651661396026611328e+00 5.728724956512451172e+00 6.365340352058410645e-01 1.363284468650817871e+00 5.999455451965332031e-01 -5.640977025032043457e-01
2.994000000000000000e+03 7.594484806060791016e+00 8.054469108581542969e+00 2.073380649089813232e-01 3.044564008712768555e+00 9.755706191062927246e-01 -7.462568879127502441e-01
2.995000000000000000e+03 1.009213161468505859e+01 -3.963234424591064453e+00 5.883713960647583008e-01 9.103131294250488281e+00 2.907450675964355469e+00 4.202826023101806641e+00
2.996000000000000000e+03 4.815883636474609375e+00 -3.802114009857177734e+00 1.187411546707153320e+00 1.859459042549133301e+00 9.140611886978149414e-01 2.007888317108154297e+00
2.997000000000000000e+03 1.173033905029296875e+01 2.413374900817871094e+00 1.614264130592346191e+00 1.039186859130859375e+01 3.601840019226074219e+00 2.580742359161376953e+00
2.998000000000000000e+03 1.165720272064208984e+01 2.952538013458251953e+00 9.499584436416625977e-01 9.659638404846191406e+00 3.182879209518432617e+00 1.833990454673767090e+00
2.999000000000000000e+03 1.355291748046875000e+01 -1.915475577116012573e-01 6.383666515350341797e+00 6.592368125915527344e+00 3.892810344696044922e+00 2.539857864379882812e+00
3.000000000000000000e+03 1.210469341278076172e+01 -2.522003173828125000e+00 3.399458885192871094e+00 9.798951148986816406e+00 3.959522962570190430e+00 1.270879507064819336e+00
3.001000000000000000e+03 1.349277114868164062e+01 1.252132952213287354e-01 6.399828433990478516e+00 6.757574558258056641e+00 3.947220802307128906e+00 2.926995992660522461e+00
3.002000000000000000e+03 1.343361377716064453e+01 4.366503357887268066e-01 6.176434993743896484e+00 7.004855155944824219e+00 3.954387187957763672e+00 3.267393112182617188e+00
3.003000000000000000e+03 1.038569450378417969e+01 -3.861646652221679688e+00 6.824191808700561523e-01 9.457633972167968750e+00 3.042016029357910156e+00 3.952696323394775391e+00
3.004000000000000000e+03 1.330807971954345703e+01 -6.625439524650573730e-01 6.498908996582031250e+00 6.995914459228515625e+00 4.048447132110595703e+00 2.022345066070556641e+00
3.005000000000000000e+03 1.080275058746337891e+01 3.359485864639282227e+00 2.707400321960449219e-01 8.804497718811035156e+00 2.722571372985839844e+00 1.776198595762252808e-01
3.006000000000000000e+03 6.261048316955566406e+00 -3.753665208816528320e+00 1.720220685005187988e+00 2.905732154846191406e+00 1.387785792350769043e+00 3.241328716278076172e+00
3.007000000000000000e+03 1.110301876068115234e+01 -3.742258787155151367e+00 9.095749258995056152e-01 9.826216697692871094e+00 3.220737457275390625e+00 3.084016799926757812e+00
3.008000000000000000e+03 1.159539699554443359e+01 3.571638107299804688e+00 5.846956372261047363e-01 8.783789634704589844e+00 2.810545444488525391e+00 1.299683809280395508e+00
3.009000000000000000e+03 1.175976371765136719e+01 -2.726074457168579102e+00 2.692776679992675781e+00 1.036574172973632812e+01 3.917555570602416992e+00 1.752224326133728027e+00
3.010000000000000000e+03 7.065124034881591797e+00 -7.873591899871826172e+00 -1.096461534500122070e+00 6.102729320526123047e+00 1.501880407333374023e+00 3.139846086502075195e+00
3.011000000000000000e+03 6.665102005004882812e+00 -9.213507652282714844e+00 -1.456707239151000977e+00 6.350096225738525391e+00 1.468016743659973145e+00 2.540623664855957031e+00
3.012000000000000000e+03 4.968607902526855469e+00 4.630262851715087891e+00 6.608402729034423828e-01 6.722865700721740723e-01 3.999380469322204590e-01 -2.338299453258514404e-01
3.013000000000000000e+03 5.994117736816406250e+00 7.231561183929443359e+00 4.315183162689208984e-01 1.874681949615478516e+00 6.918600797653198242e-01 -6.840610504150390625e-01
3.014000000000000000e+03 3.993955850601196289e+00 -4.463506698608398438e+00 7.590948343276977539e-01 1.871187686920166016e+00 7.890847921371459961e-01 1.678245782852172852e+00
3.015000000000000000e+03 5.931307315826416016e+00 6.408058166503906250e+00 5.516061186790466309e-01 1.699943304061889648e+00 6.754648089408874512e-01 -6.696870923042297363e-01
3.016000000000000000e+03 6.374773502349853516e+00 6.546507358551025391e+00 5.420763492584228516e-01 2.027096509933471680e+00 7.707518935203552246e-01 -7.606277465820312500e-01
3.017000000000000000e+03 1.334503078460693359e+01 -8.089955329895019531e+00 -1.702133059501647949e+00 5.755180358886718750e+00 1.215914130210876465e+00 3.098807811737060547e+00
3.018000000000000000e+03 7.162997245788574219e+00 7.658947944641113281e+00 3.116014301776885986e-01 2.724121093750000000e+00 9.107167720794677734e-01 -7.837138772010803223e-01
3.019000000000000000e+03 5.432033061981201172e+00 -5.609347820281982422e+00 4.161422550678253174e-01 3.554379224777221680e+00 1.191156387329101562e+00 2.736261844635009766e+00
3.020000000000000000e+03 6.863098621368408203e+00 -8.512706756591796875e+00 -1.314528107643127441e+00 6.198041439056396484e+00 1.465053915977478027e+00 2.848002195358276367e+00
3.021000000000000000e+03 8.166628837585449219e+00 -1.021530532836914062e+01 -2.200685262680053711e+00 7.504907131195068359e+00 1.591266632080078125e+00 2.733488321304321289e+00
3.022000000000000000e+03 6.136793613433837891e+00 -5.952515125274658203e+00 1.373637169599533081e-01 4.417098999023437500e+00 1.366338849067687988e+00 3.182292461395263672e+00
3.023000000000000000e+03 7.352231502532958984e+00 8.848169326782226562e+00 1.397559046745300293e-01 2.871417522430419922e+00 9.033520817756652832e-01 -7.127156257629394531e-01
3.024000000000000000e+03 8.594861030578613281e+00 1.069265842437744141e+01 -5.655842646956443787e-02 3.392267704010009766e+00 1.000712752342224121e+00 -5.211790204048156738e-01
3.025000000000000000e+03 1.155130767822265625e+01 -8.870053291320800781e+00 -2.377366781234741211e+00 7.103814125061035156e+00 1.417934179306030273e+00 3.503252267837524414e+00
3.026000000000000000e+03 1.206146907806396484e+01 -9.343696594238281250e+00 -2.527319908142089844e+00 6.721064090728759766e+00 1.258123278617858887e+00 3.501381874084472656e+00
3.027000000000000000e+03 2.725195121765136719e+01 -7.412174701690673828e+00 -4.333499968051910400e-01 1.089162588119506836e+00 1.967437714338302612e-01 -1.008528828620910645e+00
3.028000000000000000e+03 2.671900749206542969e+01 -5.689842700958251953e+00 4.894199669361114502e-01 1.202915191650390625e+00 5.077005624771118164e-01 -8.524671792984008789e-01
3.029000000000000000e+03 9.233950614929199219e+00 4.038391590118408203e+00 5.695900321006774902e-01 5.369816780090332031e+00 1.781822085380554199e+00 -1.416496515274047852e+00
3.030000000000000000e+03 3.660879135131835938e+01 -8.621456146240234375e+00 -7.100143432617187500e-01 4.154018878936767578e+00 1.033201456069946289e+00 -2.266066551208496094e+00
3.031000000000000000e+03 9.827055931091308594e+00 -4.115966796875000000e+00 5.614095926284790039e-01 8.704114913940429688e+00 2.779657363891601562e+00 4.435292243957519531e+00
3.032000000000000000e+03 1.929164505004882812e+01 -6.238869667053222656e+00 7.374704480171203613e-01 1.205975532531738281e+00 5.830338001251220703e-01 7.381456494331359863e-01
3.033000000000000000e+03 3.855526351928710938e+01 -4.663639545440673828e+00 -5.693108960986137390e-02 5.192441463470458984e+00 1.540653109550476074e+00 -2.204454183578491211e+00
3.034000000000000000e+03 2.207080841064453125e+01 -4.501502990722656250e+00 1.637138605117797852e+00 9.362363219261169434e-01 7.720124721527099609e-01 1.322595030069351196e-01
3.035000000000000000e+03 2.075100135803222656e+01 -4.664701938629150391e+00 1.691634297370910645e+00 1.098616719245910645e+00 8.370752930641174316e-01 4.286360740661621094e-01
3.036000000000000000e+03 9.857291221618652344e+00 1.177077293395996094e+01 -9.250758588314056396e-02 3.765208721160888672e+00 1.101810336112976074e+00 -3.342932462692260742e-01
3.037000000000000000e+03 8.957207679748535156e+00 -9.467130661010742188e+00 -2.236653089523315430e+00 7.495877742767333984e+00 1.577767491340637207e+00 3.185535192489624023e+00
3.038000000000000000e+03 2.268224906921386719e+01 -3.662636041641235352e+00 1.927517056465148926e+00 1.106555461883544922e+00 9.102217555046081543e-01 1.162739619612693787e-01
3.039000000000000000e+03 1.014355564117431641e+01 1.930375099182128906e+01 -1.017291694879531860e-01 3.191899299621582031e+00 9.270510673522949219e-01 -4.153293073177337646e-01
3.040000000000000000e+03 1.096671581268310547e+01 2.041570091247558594e+01 -8.770380169153213501e-02 3.313804626464843750e+00 9.678302407264709473e-01 -4.069680571556091309e-01
3.041000000000000000e+03 2.945824623107910156e+01 -6.119245529174804688e+00 1.710676848888397217e-01 1.897612094879150391e+00 6.206039190292358398e-01 -1.290953874588012695e+00
3.042000000000000000e+03 2.825782966613769531e+01 -7.508690834045410156e+00 -4.386207461357116699e-01 1.367709040641784668e+00 2.787264883518218994e-01 -1.129769206047058105e+00
3.043000000000000000e+03 1.053226757049560547e+01 1.509861278533935547e+01 -1.046300232410430908e-01 3.550848245620727539e+00 1.033865451812744141e+00 -3.167615234851837158e-01
3.044000000000000000e+03 9.799061775207519531e+00 1.432004070281982422e+01 -1.064215973019599915e-01 3.446762561798095703e+00 1.002102255821228027e+00 -3.686247766017913818e-01
3.045000000000000000e+03 1.409819507598876953e+01 -6.336225986480712891e+00 -2.856189906597137451e-01 5.559804916381835938e+00 1.582255721092224121e+00 2.324051380157470703e+00
3.046000000000000000e+03 1.651571273803710938e+01 -7.039896488189697266e+00 -1.308247894048690796e-01 2.872980356216430664e+00 8.226466774940490723e-01 1.741983532905578613e+00
3.047000000000000000e+03 3.439324188232421875e+01 -9.072093963623046875e+00 -7.171866893768310547e-01 3.185292482376098633e+00 7.404317259788513184e-01 -1.961820125579833984e+00
3.048000000000000000e+03 3.656650543212890625e+01 -1.039229393005371094e+00 8.296808004379272461e-01 4.911596298217773438e+00 1.722383141517639160e+00 -1.687841057777404785e+00
3.049000000000000000e+03 3.507818603515625000e+01 -1.176931142807006836e+00 9.673207998275756836e-01 4.397729396820068359e+00 1.609515070915222168e+00 -1.512247920036315918e+00
3.050000000000000000e+03 3.493509674072265625e+01 4.999948740005493164e-01 1.304050207138061523e+00 4.552494049072265625e+00 1.756963253021240234e+00 -1.305196642875671387e+00
3.051000000000000000e+03 3.968890380859375000e+01 -8.855535507202148438e+00 -8.770236968994140625e-01 5.483024597167968750e+00 1.381800293922424316e+00 -2.388426065444946289e+00
3.052000000000000000e+03 3.799191665649414062e+01 -2.575238943099975586e+00 4.330867528915405273e-01 5.189948081970214844e+00 1.686910390853881836e+00 -1.987407326698303223e+00
3.053000000000000000e+03 3.036829757690429688e+01 -9.787981033325195312e+00 -1.269958853721618652e+00 1.636087894439697266e+00 1.098387092351913452e-01 -1.227592349052429199e+00
3.054000000000000000e+03 3.103933334350585938e+01 -7.437267780303955078e+00 -3.894205093383789062e-01 2.210422515869140625e+00 5.463005900382995605e-01 -1.495928883552551270e+00
3.055000000000000000e+03 1.107520580291748047e+01 1.830102920532226562e+01 -8.379754424095153809e-02 3.437066555023193359e+00 1.005980730056762695e+00 -3.526814877986907959e-01
3.056000000000000000e+03 1.948388862609863281e+01 -4.740739822387695312e+00 1.745158910751342773e+00 1.460363030433654785e+00 9.616565704345703125e-01 7.305397391319274902e-01
3.057000000000000000e+03 1.122216224670410156e+01 1.610190391540527344e+01 -8.229125291109085083e-02 3.615964174270629883e+00 1.060101866722106934e+00 -2.834779918193817139e-01
3.058000000000000000e+03 2.931909370422363281e+01 -9.011910438537597656e+00 -1.041786074638366699e+00 1.466075301170349121e+00 1.272867619991302490e-01 -1.175049304962158203e+00
3.059000000000000000e+03 3.565343475341796875e+01 1.526413679122924805e+00 1.400374770164489746e+00 4.929928779602050781e+00 1.899091005325317383e+00 -1.285378217697143555e+00
3.060000000000000000e+03 2.460924530029296875e+01 -3.894399404525756836e+00 1.490785598754882812e+00 1.131425380706787109e+00 7.866632938385009766e-01 -3.399961292743682861e-01
3.061000000000000000e+03 3.366905975341796875e+01 1.619306564331054688e+01 1.575590968132019043e+00 5.751641273498535156e+00 2.198169708251953125e+00 -3.877560794353485107e-01
3.062000000000000000e+03 3.187445831298828125e+01 1.231023216247558594e+01 2.101311206817626953e+00 5.018587112426757812e+00 2.135969638824462891e+00 -2.433612048625946045e-01
3.063000000000000000e+03 3.052283287048339844e+01 9.937116622924804688e+00 2.295866727828979492e+00 4.471325874328613281e+00 2.030157804489135742e+00 -5.986010283231735229e-02
3.064000000000000000e+03 3.189628982543945312e+01 9.373324394226074219e+00 2.327227592468261719e+00 4.751758098602294922e+00 2.123695611953735352e+00 -2.349214851856231689e-01
3.065000000000000000e+03 3.184780693054199219e+01 1.704701995849609375e+01 1.405813336372375488e+00 5.353841781616210938e+00 2.027896404266357422e+00 -3.189018368721008301e-01
3.066000000000000000e+03 1.053110504150390625e+01 2.255568313598632812e+01 -1.052684709429740906e-01 3.182164192199707031e+00 9.230687618255615234e-01 -4.378750622272491455e-01
3.067000000000000000e+03 3.105715751647949219e+01 1.125669670104980469e+01 2.183922529220581055e+00 4.761301994323730469e+00 2.083567380905151367e+00 -1.511714011430740356e-01
3.068000000000000000e+03 2.962022972106933594e+01 1.185261249542236328e+01 2.090885877609252930e+00 4.549078941345214844e+00 1.991989374160766602e+00 -7.934493944048881531e-03
3.069000000000000000e+03 3.011956405639648438e+01 1.820020675659179688e+01 1.202610135078430176e+00 5.087429046630859375e+00 1.887011766433715820e+00 -2.638540863990783691e-01
3.070000000000000000e+03 2.921808242797851562e+01 1.600653648376464844e+01 1.498752474784851074e+00 4.860691547393798828e+00 1.907833218574523926e+00 -1.479324251413345337e-01
3.071000000000000000e+03 5.239893722534179688e+01 -4.086382675170898438e+01 -1.634391069412231445e+00 6.408318042755126953e+00 1.432178020477294922e+00 -2.411469370126724243e-01
3.072000000000000000e+03 5.498349761962890625e+01 -3.681245803833007812e+01 -7.835233211517333984e-01 5.942756175994873047e+00 1.547769904136657715e+00 -1.029356837272644043e+00
3.073000000000000000e+03 8.996937751770019531e+00 3.843207597732543945e+00 7.225420475006103516e-01 4.987493991851806641e+00 1.713010787963867188e+00 -1.573421001434326172e+00
3.074000000000000000e+03 8.302992820739746094e+00 -8.158513069152832031e+00 -1.619583606719970703e+00 6.972046852111816406e+00 1.605738878250122070e+00 3.429439306259155273e+00
3.075000000000000000e+03 8.627614021301269531e+00 -3.930085420608520508e+00 1.316703677177429199e+00 6.708344459533691406e+00 2.407514333724975586e+00 4.938796043395996094e+00
3.076000000000000000e+03 8.118206977844238281e+00 3.688892602920532227e+00 1.071879267692565918e+00 3.221860170364379883e+00 1.288121819496154785e+00 -1.497112274169921875e+00
3.077000000000000000e+03 8.507744789123535156e+00 3.495378494262695312e+00 1.032554268836975098e+00 3.873597383499145508e+00 1.471845507621765137e+00 -1.679265379905700684e+00
3.078000000000000000e+03 8.760653495788574219e+00 3.657760143280029297e+00 8.676270842552185059e-01 4.486698627471923828e+00 1.606297731399536133e+00 -1.645708322525024414e+00
3.079000000000000000e+03 7.015948295593261719e+00 -3.436043024063110352e+00 2.147765636444091797e+00 3.389658689498901367e+00 1.661227345466613770e+00 3.844193935394287109e+00
3.080000000000000000e+03 7.549012660980224609e+00 3.448292732238769531e+00 1.174773931503295898e+00 2.155330657958984375e+00 9.990313649177551270e-01 -1.203574895858764648e+00
3.081000000000000000e+03 7.311481475830078125e+00 3.737347841262817383e+00 1.107904553413391113e+00 1.995717883110046387e+00 9.310867190361022949e-01 -1.085174083709716797e+00
3.082000000000000000e+03 1.285744953155517578e+01 2.002195835113525391e+00 3.531358480453491211e+00 8.570141792297363281e+00 3.630450248718261719e+00 3.720898628234863281e+00
3.083000000000000000e+03 1.220998764038085938e+01 -2.140508413314819336e+00 4.246264934539794922e+00 9.622920036315917969e+00 4.160755634307861328e+00 1.036858201026916504e+00
3.084000000000000000e+03 6.055474281311035156e+00 -4.011939525604248047e+00 1.487455606460571289e+00 2.908187627792358398e+00 1.318692922592163086e+00 3.110135078430175781e+00
3.085000000000000000e+03 7.026892185211181641e+00 3.962236166000366211e+00 1.046349644660949707e+00 1.824223279953002930e+00 8.611719012260437012e-01 -9.532319903373718262e-01
3.086000000000000000e+03 6.854780673980712891e+00 3.647836446762084961e+00 1.063284873962402344e+00 1.443028450012207031e+00 7.518939971923828125e-01 -8.016126155853271484e-01
3.087000000000000000e+03 5.855772495269775391e+00 3.615792512893676758e+00 8.527116179466247559e-01 7.463714480400085449e-01 4.797249138355255127e-01 -3.200288712978363037e-01
3.088000000000000000e+03 1.263578319549560547e+01 -2.167938947677612305e+00 4.433377742767333984e+00 8.706407546997070312e+00 3.941935539245605469e+00 1.010368943214416504e+00
3.089000000000000000e+03 6.902051925659179688e+00 -3.793156385421752930e+00 1.779977798461914062e+00 3.682219028472900391e+00 1.638659119606018066e+00 3.831657648086547852e+00
3.090000000000000000e+03 1.347804737091064453e+01 -1.630617499351501465e+00 5.247385501861572266e+00 6.988817691802978516e+00 3.670861005783081055e+00 1.302445650100708008e+00
3.091000000000000000e+03 5.732354640960693359e+00 -6.234500408172607422e+00 3.201578557491302490e-02 4.287240028381347656e+00 1.295776724815368652e+00 2.895235300064086914e+00
3.092000000000000000e+03 1.065860748291015625e+01 3.643396139144897461e+00 2.168694734573364258e-01 8.233310699462890625e+00 2.535053968429565430e+00 -1.115943789482116699e-01
3.093000000000000000e+03 7.467045307159423828e+00 -4.060612678527832031e+00 1.537322402000427246e+00 4.648435115814208984e+00 1.855727195739746094e+00 4.305217742919921875e+00
3.094000000000000000e+03 7.454473495483398438e+00 -3.592712402343750000e+00 2.028410673141479492e+00 4.244805812835693359e+00 1.881964921951293945e+00 4.330253124237060547e+00
3.095000000000000000e+03 7.240306377410888672e+00 -3.448302507400512695e+00 2.166346073150634766e+00 3.802543640136718750e+00 1.790666937828063965e+00 4.109319686889648438e+00
3.096000000000000000e+03 1.194281291961669922e+01 -7.828154563903808594e+00 -1.931887626647949219e+00 6.992704868316650391e+00 1.518245220184326172e+00 3.374758958816528320e+00
3.097000000000000000e+03 1.082154369354248047e+01 -4.159501552581787109e+00 4.477180242538452148e-01 9.312726974487304688e+00 2.928133487701416016e+00 3.470345020294189453e+00
3.098000000000000000e+03 8.918276786804199219e+00 -3.944584846496582031e+00 1.142411351203918457e+00 7.302339076995849609e+00 2.533425092697143555e+00 4.930283546447753906e+00
3.099000000000000000e+03 7.034981250762939453e+00 -4.066381931304931641e+00 1.539395928382873535e+00 4.064153671264648438e+00 1.681064963340759277e+00 3.956193208694458008e+00
3.100000000000000000e+03 6.809425830841064453e+00 -3.540376901626586914e+00 2.031486272811889648e+00 3.242073297500610352e+00 1.582067847251892090e+00 3.707143068313598633e+00
3.101000000000000000e+03 1.016638374328613281e+01 4.103174686431884766e+00 2.273580282926559448e-01 7.054609298706054688e+00 2.184590101242065430e+00 -6.784583330154418945e-01
3.102000000000000000e+03 1.794119644165039062e+01 -5.676489830017089844e+00 1.072431921958923340e+00 2.066759824752807617e+00 9.417575597763061523e-01 1.099918246269226074e+00
3.103000000000000000e+03 1.315266895294189453e+01 -1.833751916885375977e+00 5.012705326080322266e+00 7.630071163177490234e+00 3.792833089828491211e+00 1.106703400611877441e+00
3.104000000000000000e+03 5.782398223876953125e+00 5.327987194061279297e+00 7.281846404075622559e-01 1.364893436431884766e+00 6.279234290122985840e-01 -5.861378312110900879e-01
3.105000000000000000e+03 5.425954341888427734e+00 5.157816886901855469e+00 7.007542252540588379e-01 1.023105859756469727e+00 5.171580314636230469e-01 -4.311564862728118896e-01
3.106000000000000000e+03 4.778391838073730469e+00 -4.917418003082275391e+00 7.426307201385498047e-01 2.627260446548461914e+00 1.010967373847961426e+00 2.261444330215454102e+00
3.107000000000000000e+03 5.762771129608154297e+00 -4.480076313018798828e+00 1.133875370025634766e+00 3.054626941680908203e+00 1.256550669670104980e+00 2.945977926254272461e+00
3.108000000000000000e+03 4.746848583221435547e+00 4.245957374572753906e+00 6.075978279113769531e-01 4.644711911678314209e-01 3.216207027435302734e-01 -7.623919099569320679e-02
3.109000000000000000e+03 6.442673683166503906e+00 6.993750572204589844e+00 4.573967158794403076e-01 2.100461483001708984e+00 7.673574686050415039e-01 -7.531700730323791504e-01
3.110000000000000000e+03 6.380782127380371094e+00 5.911320209503173828e+00 6.519185900688171387e-01 1.904182076454162598e+00 7.668302059173583984e-01 -7.632485628128051758e-01
3.111000000000000000e+03 6.009134769439697266e+00 5.907117843627929688e+00 6.459946036338806152e-01 1.665915727615356445e+00 6.935731172561645508e-01 -6.855256557464599609e-01
3.112000000000000000e+03 1.423048877716064453e+01 -7.184863090515136719e+00 -9.404167532920837402e-01 5.155709266662597656e+00 1.264587879180908203e+00 2.574007272720336914e+00
3.113000000000000000e+03 1.344587993621826172e+01 -7.204728603363037109e+00 -1.174698948860168457e+00 6.069030761718750000e+00 1.468299508094787598e+00 2.824618339538574219e+00
3.114000000000000000e+03 1.478532028198242188e+01 -7.382729530334472656e+00 -8.403048515319824219e-01 4.470903873443603516e+00 1.089179754257202148e+00 2.406968116760253906e+00
3.115000000000000000e+03 8.235482215881347656e+00 -8.787777900695800781e+00 -1.834941625595092773e+00 7.084630966186523438e+00 1.574906826019287109e+00 3.199371814727783203e+00
3.116000000000000000e+03 5.031924247741699219e+00 5.094330310821533203e+00 6.484206318855285645e-01 7.988623976707458496e-01 4.341849088668823242e-01 -3.111917972564697266e-01
3.117000000000000000e+03 6.740439891815185547e+00 7.337052345275878906e+00 3.892250359058380127e-01 2.417720556259155273e+00 8.420836925506591797e-01 -7.915157675743103027e-01
3.118000000000000000e+03 4.983487129211425781e+00 -5.867797374725341797e+00 3.233065605163574219e-01 3.422406911849975586e+00 1.123714089393615723e+00 2.494705438613891602e+00
3.119000000000000000e+03 6.157433032989501953e+00 -6.739187717437744141e+00 -3.017523288726806641e-01 4.856315135955810547e+00 1.366368889808654785e+00 3.048318862915039062e+00
3.120000000000000000e+03 1.649248123168945312e+01 -5.306030273437500000e+00 1.183713316917419434e+00 3.379638433456420898e+00 1.369005560874938965e+00 1.404119133949279785e+00
3.121000000000000000e+03 6.450461387634277344e+00 -7.624100208282470703e+00 -8.129042983055114746e-01 5.534769058227539062e+00 1.416559338569641113e+00 2.975256443023681641e+00
3.122000000000000000e+03 1.006120777130126953e+01 -8.471612930297851562e+00 -2.166884660720825195e+00 7.483435153961181641e+00 1.594965100288391113e+00 3.538536787033081055e+00
3.123000000000000000e+03 7.190707206726074219e+00 8.397980690002441406e+00 1.951735615730285645e-01 2.769957304000854492e+00 8.895393013954162598e-01 -7.251107692718505859e-01
3.124000000000000000e+03 1.302127552032470703e+01 -7.506793975830078125e+00 -1.478455543518066406e+00 6.281670093536376953e+00 1.440964460372924805e+00 2.991274118423461914e+00
3.125000000000000000e+03 8.543045997619628906e+00 9.502450942993164062e+00 1.208553649485111237e-02 3.539486408233642578e+00 1.065471529960632324e+00 -5.685003399848937988e-01
3.126000000000000000e+03 9.223609924316406250e+00 1.136613082885742188e+01 -8.036589622497558594e-02 3.624401330947875977e+00 1.063210606575012207e+00 -4.153842031955718994e-01
3.127000000000000000e+03 1.044358730316162109e+01 -8.669617652893066406e+00 -2.295242309570312500e+00 7.515006542205810547e+00 1.565929293632507324e+00 3.522167205810546875e+00
3.128000000000000000e+03 1.096154022216796875e+01 -8.562299728393554688e+00 -2.235876083374023438e+00 7.367909908294677734e+00 1.539610147476196289e+00 3.548804044723510742e+00
3.129000000000000000e+03 9.049407005310058594e+00 -4.828946113586425781e+00 2.430875897407531738e-01 7.350127220153808594e+00 2.277964353561401367e+00 4.508556365966796875e+00
3.130000000000000000e+03 8.589046478271484375e+00 1.009223747253417969e+01 -3.079870529472827911e-02 3.451333045959472656e+00 1.026160359382629395e+00 -5.353292822837829590e-01
3.131000000000000000e+03 1.267023849487304688e+01 -8.233399391174316406e+00 -2.045366287231445312e+00 6.366192817687988281e+00 1.296247959136962891e+00 3.313516139984130859e+00
3.132000000000000000e+03 9.982001304626464844e+00 -4.406351089477539062e+00 2.768909335136413574e-01 8.614108085632324219e+00 2.667299747467041016e+00 4.225183010101318359e+00
3.133000000000000000e+03 8.191916465759277344e+00 -9.470959663391113281e+00 -2.053529500961303711e+00 7.279900074005126953e+00 1.567911148071289062e+00 2.998671054840087891e+00
3.134000000000000000e+03 1.876800155639648438e+01 -5.412399291992187500e+00 1.303557515144348145e+00 1.692707061767578125e+00 8.988793492317199707e-01 8.935716152191162109e-01
3.135000000000000000e+03 1.134661293029785156e+01 1.438926506042480469e+01 -7.351373136043548584e-02 3.819184303283691406e+00 1.123701214790344238e+00 -1.989727020263671875e-01
3.136000000000000000e+03 2.591794013977050781e+01 -4.769659519195556641e+00 9.948348999023437500e-01 1.189121961593627930e+00 6.551870703697204590e-01 -6.694732904434204102e-01
3.137000000000000000e+03 1.295607185363769531e+01 -2.869818925857543945e+00 3.143879652023315430e+00 7.972643375396728516e+00 3.334956884384155273e+00 1.238967180252075195e+00
3.138000000000000000e+03 1.716089630126953125e+01 -5.529824256896972656e+00 1.115522027015686035e+00 2.727318048477172852e+00 1.152852058410644531e+00 1.330823302268981934e+00
3.139000000000000000e+03 9.454597473144531250e+00 1.074034500122070312e+01 -7.208780944347381592e-02 3.811990261077880859e+00 1.121970653533935547e+00 -4.018490910530090332e-01
3.140000000000000000e+03 2.390956687927246094e+01 -3.484453678131103516e+00 1.810860872268676758e+00 1.165594220161437988e+00 8.929365277290344238e-01 -9.916383028030395508e-02
3.141000000000000000e+03 2.422838211059570312e+01 -4.863952159881591797e+00 1.147008180618286133e+00 9.337317347526550293e-01 6.242219805717468262e-01 -3.969938457012176514e-01
3.142000000000000000e+03 1.175957679748535156e+01 2.167385292053222656e+01 -8.997878432273864746e-02 3.407471895217895508e+00 9.952479600906372070e-01 -3.994497656822204590e-01
3.143000000000000000e+03 9.853055000305175781e+00 1.298043060302734375e+01 -9.451188147068023682e-02 3.607648611068725586e+00 1.053941011428833008e+00 -3.454003930091857910e-01
3.144000000000000000e+03 1.056581497192382812e+01 1.364071846008300781e+01 -9.327494353055953979e-02 3.725039720535278320e+00 1.089529395103454590e+00 -2.811287939548492432e-01
3.145000000000000000e+03 3.440888595581054688e+01 -2.062272310256958008e+00 8.797285556793212891e-01 4.036398410797119141e+00 1.474838137626647949e+00 -1.543346405029296875e+00
3.146000000000000000e+03 3.467716217041015625e+01 2.235410451889038086e+00 1.631099700927734375e+00 4.701353549957275391e+00 1.899735927581787109e+00 -1.062673807144165039e+00
3.147000000000000000e+03 3.301591873168945312e+01 4.626294136047363281e+00 2.132709503173828125e+00 4.457109451293945312e+00 1.976945638656616211e+00 -5.822516679763793945e-01
3.148000000000000000e+03 3.370940017700195312e+01 -1.374976754188537598e+00 1.086123943328857422e+00 3.907919168472290039e+00 1.498212933540344238e+00 -1.372141599655151367e+00
3.149000000000000000e+03 3.280727005004882812e+01 7.624908924102783203e+00 2.340432882308959961e+00 4.793993473052978516e+00 2.140327930450439453e+00 -3.755835890769958496e-01
3.150000000000000000e+03 3.441343307495117188e+01 -7.981765747070312500e+00 -5.143173933029174805e-01 3.336621761322021484e+00 8.466913104057312012e-01 -1.945443749427795410e+00
3.151000000000000000e+03 3.528346633911132812e+01 -8.010757446289062500e+00 -5.451282858848571777e-01 3.717161178588867188e+00 9.516099095344543457e-01 -2.090540885925292969e+00
3.152000000000000000e+03 2.984426116943359375e+01 1.335494327545166016e+01 1.917981266975402832e+00 4.739441871643066406e+00 1.997226953506469727e+00 -9.281487762928009033e-02
3.153000000000000000e+03 3.610345840454101562e+01 -7.717177867889404297e+00 -5.394975543022155762e-01 4.011255264282226562e+00 1.041527271270751953e+00 -2.158262014389038086e+00
3.154000000000000000e+03 3.043364715576171875e+01 1.663288307189941406e+01 1.445458292961120605e+00 5.084419727325439453e+00 1.958963394165039062e+00 -2.405550330877304077e-01
3.155000000000000000e+03 3.026833343505859375e+01 -5.033125877380371094e+00 4.795962870121002197e-01 2.261631488800048828e+00 8.223683834075927734e-01 -1.332942962646484375e+00
3.156000000000000000e+03 3.226575088500976562e+01 -6.626169681549072266e+00 -1.400298029184341431e-01 2.713162899017333984e+00 7.719399333000183105e-01 -1.656726121902465820e+00
3.157000000000000000e+03 3.580984115600585938e+01 -6.842751979827880859e+00 -3.071438968181610107e-01 3.988968372344970703e+00 1.104547381401062012e+00 -2.085645675659179688e+00
3.158000000000000000e+03 3.736562347412109375e+01 -4.725566864013671875e+00 1.690847612917423248e-02 4.767131805419921875e+00 1.435212135314941406e+00 -2.110473155975341797e+00
3.159000000000000000e+03 8.375225067138671875e+00 3.781155347824096680e+00 9.717024564743041992e-01 3.689274311065673828e+00 1.398293018341064453e+00 -1.558828115463256836e+00
3.160000000000000000e+03 1.041842269897460938e+01 3.888626337051391602e+00 2.028569281101226807e-01 7.628201484680175781e+00 2.349317550659179688e+00 -4.419709444046020508e-01
3.161000000000000000e+03 7.537322998046875000e+00 7.328734397888183594e+00 3.295566439628601074e-01 2.995626688003540039e+00 9.975550174713134766e-01 -8.276584744453430176e-01
3.162000000000000000e+03 1.289971923828125000e+01 -2.343357563018798828e+00 4.090333461761474609e+00 8.148886680603027344e+00 3.671766042709350586e+00 1.089166998863220215e+00
3.163000000000000000e+03 6.267065525054931641e+00 3.960304498672485352e+00 9.332050681114196777e-01 1.119551420211791992e+00 6.158269047737121582e-01 -5.607015490531921387e-01
3.164000000000000000e+03 1.387479209899902344e+01 -7.845012098550796509e-02 6.077641010284423828e+00 6.183875083923339844e+00 3.678454875946044922e+00 2.609824895858764648e+00
3.165000000000000000e+03 1.282967281341552734e+01 2.454074621200561523e+00 2.722810745239257812e+00 8.633885383605957031e+00 3.407008886337280273e+00 3.398969888687133789e+00
3.166000000000000000e+03 8.568897247314453125e+00 -4.294081687927246094e+00 9.349699020385742188e-01 6.682371139526367188e+00 2.285202264785766602e+00 4.765471935272216797e+00
3.167000000000000000e+03 1.068080425262451172e+01 4.272140979766845703e+00 1.715335547924041748e-01 7.430840492248535156e+00 2.280712127685546875e+00 -1.330719441175460815e-01
3.168000000000000000e+03 9.479250907897949219e+00 -4.545365810394287109e+00 3.313645422458648682e-01 7.989009380340576172e+00 2.496112108230590820e+00 4.498153209686279297e+00
3.169000000000000000e+03 1.021568775177001953e+01 -4.270287513732910156e+00 3.890415728092193604e-01 8.936469078063964844e+00 2.797653198242187500e+00 4.073391437530517578e+00
3.170000000000000000e+03 1.366636753082275391e+01 -5.148342847824096680e-01 6.238531112670898438e+00 6.435242652893066406e+00 3.802132129669189453e+00 2.227959871292114258e+00
3.171000000000000000e+03 6.887443542480468750e+00 6.943442344665527344e+00 4.505113661289215088e-01 2.492600679397583008e+00 8.829336166381835938e-01 -8.244848251342773438e-01
3.172000000000000000e+03 1.096904087066650391e+01 4.011068344116210938e+00 2.249238193035125732e-01 8.024765968322753906e+00 2.474906921386718750e+00 2.539014816284179688e-01
3.173000000000000000e+03 1.220903110504150391e+01 3.247940063476562500e+00 1.242807388305664062e+00 8.854609489440917969e+00 3.029225111007690430e+00 2.268858194351196289e+00
3.174000000000000000e+03 1.126854991912841797e+01 -4.455447673797607422e+00 3.047412037849426270e-01 8.964311599731445312e+00 2.780715942382812500e+00 3.108004808425903320e+00
3.175000000000000000e+03 8.066288948059082031e+00 -4.134076118469238281e+00 1.313294649124145508e+00 5.752136230468750000e+00 2.119629383087158203e+00 4.676168918609619141e+00
3.176000000000000000e+03 8.046306610107421875e+00 8.369858741760253906e+00 1.389204561710357666e-01 3.295737743377685547e+00 1.030397415161132812e+00 -7.109076380729675293e-01
3.177000000000000000e+03 1.091224193572998047e+01 -4.545403957366943359e+00 8.867342025041580200e-02 8.937369346618652344e+00 2.707812786102294922e+00 3.419208049774169922e+00
3.178000000000000000e+03 1.049961662292480469e+01 -4.216873168945312500e+00 3.643876016139984131e-01 9.190106391906738281e+00 2.866348266601562500e+00 3.802125692367553711e+00
3.179000000000000000e+03 1.300129795074462891e+01 1.688574433326721191e+00 4.229818820953369141e+00 8.283773422241210938e+00 3.754077672958374023e+00 3.867459297180175781e+00
3.180000000000000000e+03 7.511632919311523438e+00 -4.542031288146972656e+00 1.040567278861999512e+00 5.066701889038085938e+00 1.832180738449096680e+00 4.261503696441650391e+00
3.181000000000000000e+03 9.150980949401855469e+00 -4.440109252929687500e+00 5.339443087577819824e-01 7.556331157684326172e+00 2.427082538604736328e+00 4.641592979431152344e+00
3.182000000000000000e+03 1.263488483428955078e+01 2.214693784713745117e+00 2.922330856323242188e+00 9.005925178527832031e+00 3.578476905822753906e+00 3.534191846847534180e+00
3.183000000000000000e+03 6.965976715087890625e+00 4.513695240020751953e+00 9.310179352760314941e-01 1.964001059532165527e+00 8.685057163238525391e-01 -9.294680356979370117e-01
3.184000000000000000e+03 5.665256500244140625e+00 3.989531278610229492e+00 8.049572110176086426e-01 7.961437702178955078e-01 4.803302884101867676e-01 -3.265851140022277832e-01
3.185000000000000000e+03 5.349676609039306641e+00 4.377740859985351562e+00 7.346135973930358887e-01 7.668707966804504395e-01 4.504453241825103760e-01 -2.954568266868591309e-01
3.186000000000000000e+03 1.566364192962646484e+01 -5.656699180603027344e+00 7.177699804306030273e-01 4.138964176177978516e+00 1.457020163536071777e+00 1.662007927894592285e+00
3.187000000000000000e+03 1.625926971435546875e+01 -5.965972423553466797e+00 6.490951776504516602e-01 3.428303241729736328e+00 1.223219513893127441e+00 1.600707292556762695e+00
3.188000000000000000e+03 1.154822158813476562e+01 -3.493084192276000977e+00 1.358153462409973145e+00 9.744348526000976562e+00 3.330750703811645508e+00 2.444990634918212891e+00
3.189000000000000000e+03 6.730288505554199219e+00 4.180470943450927734e+00 9.700294137001037598e-01 1.610960841178894043e+00 7.742970585823059082e-01 -8.058241605758666992e-01
3.190000000000000000e+03 7.980568885803222656e+00 7.635981082916259766e+00 2.271764725446701050e-01 3.365331411361694336e+00 1.077752351760864258e+00 -7.744570970535278320e-01
3.191000000000000000e+03 4.558821678161621094e+00 3.368504762649536133e+00 4.857330620288848877e-01 1.925951987504959106e-01 2.034984827041625977e-01 1.521605998277664185e-01
3.192000000000000000e+03 6.708112239837646484e+00 -7.067963600158691406e+00 -6.004628539085388184e-01 5.506170272827148438e+00 1.471712231636047363e+00 3.227501153945922852e+00
3.193000000000000000e+03 1.377496242523193359e+01 -6.791963100433349609e+00 -7.822046279907226562e-01 5.698984622955322266e+00 1.475033998489379883e+00 2.615139961242675781e+00
3.194000000000000000e+03 5.439725875854492188e+00 -4.462635517120361328e+00 1.067929863929748535e+00 2.688039541244506836e+00 1.126790881156921387e+00 2.596869707107543945e+00
3.195000000000000000e+03 5.909422397613525391e+00 -5.488766193389892578e+00 4.752307832241058350e-01 3.901763439178466797e+00 1.313098311424255371e+00 3.059465408325195312e+00
3.196000000000000000e+03 8.902100563049316406e+00 -8.192252159118652344e+00 -1.770141243934631348e+00 7.227485179901123047e+00 1.637203216552734375e+00 3.512605905532836914e+00
3.197000000000000000e+03 1.455630111694335938e+01 -6.782575607299804688e+00 -4.516904056072235107e-01 4.904214382171630859e+00 1.335757136344909668e+00 2.242216587066650391e+00
3.198000000000000000e+03 9.571305274963378906e+00 -8.709814071655273438e+00 -2.118935585021972656e+00 7.467551708221435547e+00 1.604584813117980957e+00 3.481325387954711914e+00
3.199000000000000000e+03 9.901967048645019531e+00 -8.048516273498535156e+00 -1.929262638092041016e+00 7.470052719116210938e+00 1.662236928939819336e+00 3.608036279678344727e+00
3.200000000000000000e+03 7.922988891601562500e+00 8.889127731323242188e+00 1.054011508822441101e-01 3.203703165054321289e+00 9.927313327789306641e-01 -6.708045005798339844e-01
3.201000000000000000e+03 1.249871158599853516e+01 -7.693137645721435547e+00 -1.674963712692260742e+00 6.595274448394775391e+00 1.476093292236328125e+00 3.251965522766113281e+00
3.202000000000000000e+03 8.527140617370605469e+00 8.953159332275390625e+00 5.054028704762458801e-02 3.606126546859741211e+00 1.097000002861022949e+00 -6.147227883338928223e-01
3.203000000000000000e+03 1.043054962158203125e+01 -8.239282608032226562e+00 -2.061904907226562500e+00 7.510235786437988281e+00 1.634499192237854004e+00 3.593254327774047852e+00
3.204000000000000000e+03 1.087264633178710938e+01 -8.095880508422851562e+00 -2.102645158767700195e+00 7.430423736572265625e+00 1.598333597183227539e+00 3.554564714431762695e+00
3.205000000000000000e+03 1.307140541076660156e+01 -6.813065528869628906e+00 -1.001756548881530762e+00 6.442924022674560547e+00 1.632350325584411621e+00 2.797427177429199219e+00
3.206000000000000000e+03 1.727486228942871094e+01 -4.797345161437988281e+00 1.693012714385986328e+00 2.759160280227661133e+00 1.335651874542236328e+00 1.209722161293029785e+00
3.207000000000000000e+03 1.484610939025878906e+01 -4.040500640869140625e+00 2.095627546310424805e+00 5.278003215789794922e+00 2.212089300155639648e+00 1.409650921821594238e+00
3.208000000000000000e+03 1.787928581237792969e+01 -4.898010730743408203e+00 1.735046982765197754e+00 2.347182989120483398e+00 1.224668979644775391e+00 1.075469255447387695e+00
3.209000000000000000e+03 2.138636207580566406e+01 -3.852066278457641602e+00 2.028640031814575195e+00 1.178927659988403320e+00 9.622703194618225098e-01 3.767421543598175049e-01
3.210000000000000000e+03 2.010924148559570312e+01 -3.992149591445922852e+00 2.113064050674438477e+00 1.435849905014038086e+00 1.064674139022827148e+00 6.504402160644531250e-01
3.211000000000000000e+03 1.842488670349121094e+01 -4.685094356536865234e+00 1.857531309127807617e+00 2.059961557388305664e+00 1.175247907638549805e+00 9.755319356918334961e-01
3.212000000000000000e+03 9.238327026367187500e+00 1.237183094024658203e+01 -9.779801964759826660e-02 3.473208904266357422e+00 1.012623310089111328e+00 -4.151181280612945557e-01
3.213000000000000000e+03 2.200447082519531250e+01 -3.020762920379638672e+00 2.324925422668457031e+00 1.267448306083679199e+00 1.077712059020996094e+00 3.623075783252716064e-01
3.214000000000000000e+03 2.742390823364257812e+01 -4.846580505371093750e+00 8.260372877120971680e-01 1.504025340080261230e+00 6.990187764167785645e-01 -9.128700494766235352e-01
3.215000000000000000e+03 2.955179023742675781e+01 -5.095375537872314453e+00 5.305763483047485352e-01 2.086206197738647461e+00 7.850347757339477539e-01 -1.230578303337097168e+00
3.216000000000000000e+03 2.542081069946289062e+01 -3.831691503524780273e+00 1.459415197372436523e+00 1.212560653686523438e+00 8.015927672386169434e-01 -4.597107470035552979e-01
3.217000000000000000e+03 2.330282783508300781e+01 -2.831441879272460938e+00 2.179888248443603516e+00 1.239372730255126953e+00 1.025778293609619141e+00 1.118176728487014771e-01
3.218000000000000000e+03 1.051489353179931641e+01 1.232411670684814453e+01 -9.070704877376556396e-02 3.900774002075195312e+00 1.143020033836364746e+00 -2.604268789291381836e-01
3.219000000000000000e+03 3.428442001342773438e+01 -4.780650436878204346e-01 1.192447900772094727e+00 4.181097507476806641e+00 1.612063646316528320e+00 -1.352925896644592285e+00
3.220000000000000000e+03 1.216861343383789062e+01 1.524909591674804688e+01 -3.172257170081138611e-02 3.885318517684936523e+00 1.156078815460205078e+00 -1.440793424844741821e-01
3.221000000000000000e+03 3.402369308471679688e+01 1.151609778404235840e+00 1.534885525703430176e+00 4.311689376831054688e+00 1.753972411155700684e+00 -1.106635332107543945e+00
3.222000000000000000e+03 1.410728740692138672e+01 1.721466255187988281e+01 6.153234466910362244e-02 3.986297130584716797e+00 1.214348793029785156e+00 -9.659883379936218262e-02
3.223000000000000000e+03 1.206457614898681641e+01 1.723442840576171875e+01 -4.301873967051506042e-02 3.681294441223144531e+00 1.091482639312744141e+00 -2.554092705249786377e-01
3.224000000000000000e+03 3.385450363159179688e+01 -4.568784236907958984e+00 3.230035901069641113e-01 3.533341884613037109e+00 1.156903624534606934e+00 -1.729660868644714355e+00
3.225000000000000000e+03 2.834151268005371094e+01 -5.644443511962890625e+00 3.787899017333984375e-01 1.626331090927124023e+00 6.015362739562988281e-01 -1.102870225906372070e+00
3.226000000000000000e+03 2.668858909606933594e+01 -4.045570850372314453e+00 1.216455340385437012e+00 1.455987811088562012e+00 8.017329573631286621e-01 -6.958658695220947266e-01
3.227000000000000000e+03 3.141869354248046875e+01 8.150898933410644531e+00 2.378610134124755859e+00 4.454694747924804688e+00 2.049991369247436523e+00 -1.861926168203353882e-01
3.228000000000000000e+03 3.173536491394042969e+01 5.161564826965332031e+00 2.293291568756103516e+00 4.162742137908935547e+00 1.936810135841369629e+00 -3.613128066062927246e-01
3.229000000000000000e+03 3.622383117675781250e+01 -4.595025539398193359e+00 1.332782208919525146e-01 4.373456478118896484e+00 1.352020382881164551e+00 -1.983830451965332031e+00
3.230000000000000000e+03 3.005406379699707031e+01 8.658193588256835938e+00 2.376670598983764648e+00 4.239127635955810547e+00 1.984739422798156738e+00 -7.118026725947856903e-03
3.231000000000000000e+03 3.594851303100585938e+01 -5.778762817382812500e+00 -9.528397768735885620e-02 4.165799617767333984e+00 1.221154689788818359e+00 -2.028855800628662109e+00
3.232000000000000000e+03 2.838840293884277344e+01 1.358718776702880859e+01 1.815720200538635254e+00 4.536519050598144531e+00 1.905671834945678711e+00 5.323406308889389038e-02
3.233000000000000000e+03 2.915187644958496094e+01 1.044885540008544922e+01 2.233953714370727539e+00 4.314965248107910156e+00 1.964675784111022949e+00 8.366739749908447266e-02
3.234000000000000000e+03 3.066090393066406250e+01 1.964286613464355469e+01 9.702700972557067871e-01 5.237291812896728516e+00 1.862268567085266113e+00 -3.150645494461059570e-01
3.235000000000000000e+03 2.860417747497558594e+01 1.861114311218261719e+01 1.104411363601684570e+00 4.937800407409667969e+00 1.812663555145263672e+00 -2.172136604785919189e-01
3.236000000000000000e+03 1.391674232482910156e+01 2.203568840026855469e+01 -4.778723418712615967e-02 3.707547426223754883e+00 1.097928047180175781e+00 -3.348584771156311035e-01
3.237000000000000000e+03 1.329349040985107422e+01 2.463812828063964844e+01 -1.112227961421012878e-01 3.554358482360839844e+00 1.032940745353698730e+00 -3.939167857170104980e-01
3.238000000000000000e+03 3.591999816894531250e+01 -3.590123414993286133e+00 3.726557195186614990e-01 4.393968582153320312e+00 1.429987192153930664e+00 -1.874156117439270020e+00
3.239000000000000000e+03 3.529943847656250000e+01 -4.320627212524414062e+00 2.620375752449035645e-01 4.071479320526123047e+00 1.300055146217346191e+00 -1.867491960525512695e+00
3.240000000000000000e+03 3.515504074096679688e+01 -2.806161642074584961e+00 6.274984478950500488e-01 4.227022647857666016e+00 1.456356287002563477e+00 -1.705200433731079102e+00
3.241000000000000000e+03 3.481306838989257812e+01 -5.331992626190185547e+00 8.240287005901336670e-02 3.792948484420776367e+00 1.162605404853820801e+00 -1.891287446022033691e+00
3.242000000000000000e+03 1.354702377319335938e+01 1.518493175506591797e+00 4.590326309204101562e+00 7.274051189422607422e+00 3.559313297271728516e+00 3.691322565078735352e+00
3.243000000000000000e+03 1.379655075073242188e+01 5.434726476669311523e-01 5.790360927581787109e+00 6.510145664215087891e+00 3.690151929855346680e+00 3.213829517364501953e+00
3.244000000000000000e+03 8.785911560058593750e+00 4.170329093933105469e+00 7.162325382232666016e-01 4.491082191467285156e+00 1.562194466590881348e+00 -1.461586356163024902e+00
3.245000000000000000e+03 9.461812973022460938e+00 4.270525455474853516e+00 4.160310626029968262e-01 5.730967044830322266e+00 1.844099402427673340e+00 -1.228749155998229980e+00
3.246000000000000000e+03 7.105982780456542969e+00 6.304781436920166016e+00 5.405195355415344238e-01 2.579947710037231445e+00 9.361401796340942383e-01 -8.929145932197570801e-01
3.247000000000000000e+03 9.671639442443847656e+00 4.552348136901855469e+00 3.164957761764526367e-01 5.933056354522705078e+00 1.874865531921386719e+00 -1.009667396545410156e+00
3.248000000000000000e+03 1.196396827697753906e+01 -2.772809743881225586e+00 2.728397846221923828e+00 9.777507781982421875e+00 3.751771688461303711e+00 1.574104428291320801e+00
3.249000000000000000e+03 9.940691947937011719e+00 -7.643158912658691406e+00 -1.786573767662048340e+00 7.525760650634765625e+00 1.721755981445312500e+00 3.693033933639526367e+00
3.250000000000000000e+03 1.411701011657714844e+01 -1.166331768035888672e+00 5.404208660125732422e+00 5.927030086517333984e+00 3.399371623992919922e+00 1.736220717430114746e+00
3.251000000000000000e+03 7.764132976531982422e+00 3.949003458023071289e+00 1.048292160034179688e+00 2.696124553680419922e+00 1.123325109481811523e+00 -1.301772832870483398e+00
3.252000000000000000e+03 1.154885768890380859e+01 4.201295852661132812e+00 3.767428398132324219e-01 7.973042964935302734e+00 2.504935741424560547e+00 9.242011308670043945e-01
3.253000000000000000e+03 8.879256248474121094e+00 7.822730064392089844e+00 1.167786493897438049e-01 3.975031375885009766e+00 1.227542996406555176e+00 -6.587767601013183594e-01
3.254000000000000000e+03 1.198066425323486328e+01 -3.002488374710083008e+00 2.364771842956542969e+00 9.610724449157714844e+00 3.592648744583129883e+00 1.722676277160644531e+00
3.255000000000000000e+03 1.055170154571533203e+01 -4.586816310882568359e+00 7.261774688959121704e-02 8.811416625976562500e+00 2.665210247039794922e+00 3.726886034011840820e+00
3.256000000000000000e+03 1.023376464843750000e+01 -4.550533294677734375e+00 8.221480250358581543e-02 8.716626167297363281e+00 2.639652252197265625e+00 4.012137413024902344e+00
3.257000000000000000e+03 1.111842918395996094e+01 -5.521153926849365234e+00 -5.473645925521850586e-01 8.196453094482421875e+00 2.294726610183715820e+00 3.366622447967529297e+00
3.258000000000000000e+03 8.051089286804199219e+00 4.009086132049560547e+00 9.705848693847656250e-01 3.187769174575805664e+00 1.247506260871887207e+00 -1.385920286178588867e+00
3.259000000000000000e+03 7.494059562683105469e+00 4.052433967590332031e+00 1.038173079490661621e+00 2.386267423629760742e+00 1.027332186698913574e+00 -1.175315737724304199e+00
3.260000000000000000e+03 7.710684299468994141e+00 4.261734485626220703e+00 9.335460662841796875e-01 2.762749195098876953e+00 1.108888626098632812e+00 -1.224729299545288086e+00
3.261000000000000000e+03 6.502845764160156250e+00 -6.315206050872802734e+00 -1.042139828205108643e-01 4.954360961914062500e+00 1.455044150352478027e+00 3.332422256469726562e+00
3.262000000000000000e+03 9.249964714050292969e+00 4.490075588226318359e+00 4.650729298591613770e-01 5.304890155792236328e+00 1.730988860130310059e+00 -1.230528354644775391e+00
3.263000000000000000e+03 1.231361484527587891e+01 -7.190182685852050781e+00 -1.470881104469299316e+00 6.896421432495117188e+00 1.627662181854248047e+00 3.149479389190673828e+00
3.264000000000000000e+03 6.959065914154052734e+00 -6.578581809997558594e+00 -4.077121913433074951e-01 5.472534656524658203e+00 1.519446730613708496e+00 3.463086843490600586e+00
3.265000000000000000e+03 6.566784381866455078e+00 -4.567430019378662109e+00 1.095526576042175293e+00 3.891019105911254883e+00 1.495963692665100098e+00 3.557118415832519531e+00
3.266000000000000000e+03 6.078674316406250000e+00 -4.626767635345458984e+00 1.068666815757751465e+00 3.405321598052978516e+00 1.342196583747863770e+00 3.189596891403198242e+00
3.267000000000000000e+03 6.112265110015869141e+00 5.469207763671875000e+00 7.225211858749389648e-01 1.603411793708801270e+00 6.977798938751220703e-01 -6.917927861213684082e-01
3.268000000000000000e+03 6.515545845031738281e+00 -4.022586345672607422e+00 1.563987493515014648e+00 3.388445138931274414e+00 1.485729813575744629e+00 3.518522977828979492e+00
3.269000000000000000e+03 1.381052303314208984e+01 -2.052527904510498047e+00 4.518825531005859375e+00 6.558579444885253906e+00 3.323221445083618164e+00 1.250767946243286133e+00
3.270000000000000000e+03 5.628238677978515625e+00 4.745098590850830078e+00 7.603143453598022461e-01 1.022753119468688965e+00 5.349202156066894531e-01 -4.352750778198242188e-01
3.271000000000000000e+03 7.836775302886962891e+00 -7.465622425079345703e+00 -1.148994326591491699e+00 6.516710281372070312e+00 1.610314846038818359e+00 3.522475957870483398e+00
3.272000000000000000e+03 7.547631740570068359e+00 -8.689243316650390625e+00 -1.589104652404785156e+00 6.707773685455322266e+00 1.535600662231445312e+00 3.047410011291503906e+00
3.273000000000000000e+03 5.915774345397949219e+00 -5.025744438171386719e+00 7.348973751068115234e-01 3.595277070999145508e+00 1.299052357673645020e+00 3.052785873413085938e+00
3.274000000000000000e+03 8.915205001831054688e+00 -8.801099777221679688e+00 -2.065548181533813477e+00 7.362109661102294922e+00 1.588968396186828613e+00 3.367497920989990234e+00
3.275000000000000000e+03 9.449434280395507812e+00 -8.145698547363281250e+00 -1.925385832786560059e+00 7.423854827880859375e+00 1.649540662765502930e+00 3.579818248748779297e+00
3.276000000000000000e+03 7.267229557037353516e+00 -7.300829410552978516e+00 -8.913774490356445312e-01 6.029547214508056641e+00 1.541450977325439453e+00 3.387322425842285156e+00
3.277000000000000000e+03 7.685482025146484375e+00 -8.050567626953125000e+00 -1.379791259765625000e+00 6.573538780212402344e+00 1.558124184608459473e+00 3.277964591979980469e+00
3.278000000000000000e+03 8.528626441955566406e+00 8.453992843627929688e+00 7.887247204780578613e-02 3.664377689361572266e+00 1.122975111007690430e+00 -6.417964100837707520e-01
3.279000000000000000e+03 1.540956783294677734e+01 -6.188395977020263672e+00 2.547371089458465576e-01 4.252739429473876953e+00 1.352242946624755859e+00 1.880800485610961914e+00
3.280000000000000000e+03 1.126459503173828125e+01 -7.481299877166748047e+00 -1.791728138923645020e+00 7.422472953796386719e+00 1.689223408699035645e+00 3.496894836425781250e+00
3.281000000000000000e+03 1.275795745849609375e+01 -7.047432899475097656e+00 -1.235407590866088867e+00 6.654986858367919922e+00 1.625873804092407227e+00 3.008577823638916016e+00
3.282000000000000000e+03 9.412657737731933594e+00 1.005144691467285156e+01 -5.572052299976348877e-02 3.883102893829345703e+00 1.148214697837829590e+00 -4.183784127235412598e-01
3.283000000000000000e+03 9.177881240844726562e+00 9.452458381652832031e+00 -1.962611451745033264e-02 3.876246452331542969e+00 1.156986117362976074e+00 -4.706681668758392334e-01
3.284000000000000000e+03 1.037845134735107422e+01 1.106683731079101562e+01 -8.035221695899963379e-02 4.078834533691406250e+00 1.199544668197631836e+00 -2.390152066946029663e-01
3.285000000000000000e+03 1.305016613006591797e+01 -5.673143386840820312e+00 -1.396775990724563599e-01 6.965017795562744141e+00 2.047602176666259766e+00 2.437604665756225586e+00
3.286000000000000000e+03 1.166798782348632812e+01 -6.872756481170654297e+00 -1.396743178367614746e+00 7.439770698547363281e+00 1.812908172607421875e+00 3.303300619125366211e+00
3.287000000000000000e+03 1.415818500518798828e+01 -6.477231383323669434e-01 5.733458518981933594e+00 5.836007118225097656e+00 3.470839738845825195e+00 2.125518560409545898e+00
3.288000000000000000e+03 9.077591896057128906e+00 8.401445388793945312e+00 4.153990000486373901e-02 3.998410701751708984e+00 1.211985230445861816e+00 -5.548818707466125488e-01
3.289000000000000000e+03 9.641693115234375000e+00 9.181693077087402344e+00 -1.959111168980598450e-02 4.144814014434814453e+00 1.237566947937011719e+00 -4.044357240200042725e-01
3.290000000000000000e+03 3.410795593261718750e+01 -6.397687435150146484e+00 -1.066576689481735229e-01 3.445317983627319336e+00 1.001598119735717773e+00 -1.870975136756896973e+00
3.291000000000000000e+03 1.225430488586425781e+01 -2.992645502090454102e+00 2.513009309768676758e+00 9.251320838928222656e+00 3.529299020767211914e+00 1.519654035568237305e+00
3.292000000000000000e+03 2.263973236083984375e+01 -2.167531728744506836e+00 2.493955135345458984e+00 1.430669546127319336e+00 1.177387356758117676e+00 3.729347288608551025e-01
3.293000000000000000e+03 2.985035705566406250e+01 -4.436226367950439453e+00 7.656176686286926270e-01 2.266628503799438477e+00 9.096738100051879883e-01 -1.196880221366882324e+00
3.294000000000000000e+03 1.177000999450683594e+01 1.218170166015625000e+01 -3.002961911261081696e-02 4.248215675354003906e+00 1.265455842018127441e+00 -1.312582381069660187e-02
3.295000000000000000e+03 2.454491233825683594e+01 -2.914462804794311523e+00 1.973661303520202637e+00 1.357526540756225586e+00 9.993563294410705566e-01 -1.625447720289230347e-01
3.296000000000000000e+03 1.273556137084960938e+01 1.257287788391113281e+01 4.552582278847694397e-02 4.355638504028320312e+00 1.320349335670471191e+00 1.284388750791549683e-01
3.297000000000000000e+03 1.394434356689453125e+01 1.511957073211669922e+01 9.592016786336898804e-02 4.164304733276367188e+00 1.278067469596862793e+00 5.497496202588081360e-02
3.298000000000000000e+03 2.606763267517089844e+01 -3.298848390579223633e+00 1.556886434555053711e+00 1.474379301071166992e+00 9.093797206878662109e-01 -5.181595683097839355e-01
3.299000000000000000e+03 3.243360900878906250e+01 3.409950971603393555e+00 2.057823896408081055e+00 4.115374565124511719e+00 1.851959586143493652e+00 -6.242156624794006348e-01
3.300000000000000000e+03 3.343702697753906250e+01 9.643369913101196289e-02 1.427930116653442383e+00 3.977577924728393555e+00 1.621652483940124512e+00 -1.153301835060119629e+00
3.301000000000000000e+03 3.152606201171875000e+01 -5.436246871948242188e+00 2.580135464668273926e-01 2.566942691802978516e+00 8.474869132041931152e-01 -1.507311820983886719e+00
3.302000000000000000e+03 1.300416278839111328e+01 2.066730880737304688e+01 -3.845511004328727722e-02 3.639607429504394531e+00 1.080345749855041504e+00 -3.258595764636993408e-01
3.303000000000000000e+03 3.228199005126953125e+01 6.400202751159667969e+00 2.325702190399169922e+00 4.463757038116455078e+00 2.036837577819824219e+00 -3.620781898498535156e-01
3.304000000000000000e+03 3.118843460083007812e+01 3.900493621826171875e+00 2.232468605041503906e+00 3.822426557540893555e+00 1.816468477249145508e+00 -3.903621137142181396e-01
3.305000000000000000e+03 3.449356079101562500e+01 -3.654717683792114258e+00 4.726499617099761963e-01 3.870105981826782227e+00 1.302826762199401855e+00 -1.725746870040893555e+00
3.306000000000000000e+03 2.871202659606933594e+01 9.131053924560546875e+00 2.337656974792480469e+00 4.065463066101074219e+00 1.920935988426208496e+00 1.757663339376449585e-01
3.307000000000000000e+03 2.811758041381835938e+01 1.221975803375244141e+01 1.973726391792297363e+00 4.385635852813720703e+00 1.907808661460876465e+00 1.405450403690338135e-01
3.308000000000000000e+03 2.703295135498046875e+01 1.398148918151855469e+01 1.675531268119812012e+00 4.453293323516845703e+00 1.838647484779357910e+00 1.410187482833862305e-01
3.309000000000000000e+03 1.311678409576416016e+01 1.836019897460937500e+01 -1.326851174235343933e-02 3.773339509963989258e+00 1.128021240234375000e+00 -2.276024222373962402e-01
3.310000000000000000e+03 1.421777725219726562e+01 1.955102920532226562e+01 2.698860876262187958e-02 3.857796669006347656e+00 1.165435552597045898e+00 -2.202538400888442993e-01
3.311000000000000000e+03 2.922695350646972656e+01 2.050135231018066406e+01 8.291048407554626465e-01 5.085722446441650391e+00 1.774448156356811523e+00 -3.041019737720489502e-01
3.312000000000000000e+03 2.695180702209472656e+01 1.926181030273437500e+01 9.369493126869201660e-01 4.786494255065917969e+00 1.717033147811889648e+00 -1.826422214508056641e-01
3.313000000000000000e+03 7.220474243164062500e+00 4.266107559204101562e+00 9.969231486320495605e-01 2.136099815368652344e+00 9.399068355560302734e-01 -1.047437191009521484e+00
3.314000000000000000e+03 1.665558815002441406e+01 -4.635761737823486328e+00 1.790900826454162598e+00 3.320970058441162109e+00 1.533561229705810547e+00 1.336035251617431641e+00
3.315000000000000000e+03 8.299180030822753906e+00 4.386818408966064453e+00 8.041380047798156738e-01 3.717285156250000000e+00 1.356426954269409180e+00 -1.375977039337158203e+00
3.316000000000000000e+03 9.042835235595703125e+00 4.323156356811523438e+00 5.735501646995544434e-01 4.923397541046142578e+00 1.649084329605102539e+00 -1.338563799858093262e+00
3.317000000000000000e+03 8.193091392517089844e+00 -4.549104213714599609e+00 8.323429822921752930e-01 6.131143093109130859e+00 2.089045763015747070e+00 4.581140995025634766e+00
3.318000000000000000e+03 7.775900363922119141e+00 -4.730535507202148438e+00 7.945328354835510254e-01 5.576829910278320312e+00 1.911408782005310059e+00 4.351133346557617188e+00
3.319000000000000000e+03 6.789985179901123047e+00 -4.302569866180419922e+00 1.334582090377807617e+00 3.957527637481689453e+00 1.587632894515991211e+00 3.742224454879760742e+00
3.320000000000000000e+03 6.760924816131591797e+00 -5.924589157104492188e+00 5.798213183879852295e-02 4.965491294860839844e+00 1.507042050361633301e+00 3.535149335861206055e+00
3.321000000000000000e+03 8.463434219360351562e+00 -4.648353099822998047e+00 6.237235069274902344e-01 6.556227207183837891e+00 2.153985261917114258e+00 4.594221115112304688e+00
3.322000000000000000e+03 1.216365814208984375e+01 -2.734949111938476562e+00 2.932982206344604492e+00 9.558215141296386719e+00 3.747359037399291992e+00 1.431264042854309082e+00
3.323000000000000000e+03 8.000965118408203125e+00 4.327414512634277344e+00 8.807054758071899414e-01 3.182300806045532227e+00 1.218901872634887695e+00 -1.306781649589538574e+00
3.324000000000000000e+03 1.397650527954101562e+01 -3.700098991394042969e-01 5.975927352905273438e+00 6.050892353057861328e+00 3.608046054840087891e+00 2.362308502197265625e+00
3.325000000000000000e+03 1.013263416290283203e+01 4.637055873870849609e+00 2.010503560304641724e-01 6.480029582977294922e+00 2.004323959350585938e+00 -6.447687149047851562e-01
3.326000000000000000e+03 9.061402320861816406e+00 -6.221979618072509766e+00 -7.543264627456665039e-01 7.238275051116943359e+00 1.945184469223022461e+00 4.090147495269775391e+00
3.327000000000000000e+03 1.125698471069335938e+01 4.442501544952392578e+00 2.371920496225357056e-01 7.662583827972412109e+00 2.369932651519775391e+00 5.176458358764648438e-01
3.328000000000000000e+03 9.810611724853515625e+00 -4.701816558837890625e+00 9.067568928003311157e-02 8.320751190185546875e+00 2.523428201675415039e+00 4.281860351562500000e+00
3.329000000000000000e+03 1.417239189147949219e+01 2.701131105422973633e-01 5.630164146423339844e+00 5.902553081512451172e+00 3.459815025329589844e+00 2.837876558303833008e+00
3.330000000000000000e+03 1.398536968231201172e+01 1.684419155120849609e+00 4.339446544647216797e+00 6.688501834869384766e+00 3.308384656906127930e+00 3.550797700881958008e+00
3.331000000000000000e+03 9.418839454650878906e+00 4.749662876129150391e+00 3.803103268146514893e-01 5.444478034973144531e+00 1.747436523437500000e+00 -1.090835809707641602e+00
3.332000000000000000e+03 6.820410728454589844e+00 -4.873601436614990234e+00 8.342892527580261230e-01 4.461751937866210938e+00 1.588812351226806641e+00 3.760455846786499023e+00
3.333000000000000000e+03 1.198095989227294922e+01 -3.462413072586059570e+00 1.606365203857421875e+00 9.294829368591308594e+00 3.270358324050903320e+00 2.022536039352416992e+00
3.334000000000000000e+03 6.362480640411376953e+00 -4.813063144683837891e+00 9.224185943603515625e-01 3.897573947906494141e+00 1.445997834205627441e+00 3.416324853897094727e+00
3.335000000000000000e+03 1.321877288818359375e+01 -2.622603654861450195e+00 3.669665336608886719e+00 7.582109928131103516e+00 3.375532627105712891e+00 1.134140610694885254e+00
3.336000000000000000e+03 1.151392078399658203e+01 -4.081759452819824219e+00 6.555138826370239258e-01 9.193670272827148438e+00 2.954755306243896484e+00 2.789381504058837891e+00
3.337000000000000000e+03 1.331322002410888672e+01 -6.432677745819091797e+00 -6.805609464645385742e-01 6.396098136901855469e+00 1.714661121368408203e+00 2.635896205902099609e+00
3.338000000000000000e+03 6.284884929656982422e+00 -4.299129009246826172e+00 1.329813599586486816e+00 3.384918212890625000e+00 1.414419531822204590e+00 3.342002153396606445e+00
3.339000000000000000e+03 1.254856109619140625e+01 3.158353328704833984e+00 1.613613724708557129e+00 8.614164352416992188e+00 3.068333387374877930e+00 2.637610435485839844e+00
3.340000000000000000e+03 1.141844367980957031e+01 -4.791567325592041016e+00 -1.868614181876182556e-02 8.672883033752441406e+00 2.596259117126464844e+00 3.049061298370361328e+00
3.341000000000000000e+03 1.410159778594970703e+01 -1.761548757553100586e+00 4.827785015106201172e+00 6.075527667999267578e+00 3.270993709564208984e+00 1.405421495437622070e+00
3.342000000000000000e+03 1.741983985900878906e+01 -4.091831207275390625e+00 2.343411922454833984e+00 2.816428422927856445e+00 1.547952175140380859e+00 1.159789919853210449e+00
3.343000000000000000e+03 5.970312118530273438e+00 4.612967967987060547e+00 8.119757175445556641e-01 1.157716989517211914e+00 5.909078121185302734e-01 -5.382435321807861328e-01
3.344000000000000000e+03 6.783634185791015625e+00 6.523400783538818359e+00 5.294574499130249023e-01 2.375505924224853516e+00 8.714889883995056152e-01 -8.349836468696594238e-01
3.345000000000000000e+03 6.276454925537109375e+00 -5.416893005371093750e+00 5.100638270378112793e-01 4.184941291809082031e+00 1.408501625061035156e+00 3.323316574096679688e+00
3.346000000000000000e+03 6.924475669860839844e+00 -5.523458480834960938e+00 3.524003922939300537e-01 4.935044288635253906e+00 1.586233496665954590e+00 3.723449945449829102e+00
3.347000000000000000e+03 7.338532924652099609e+00 6.945455074310302734e+00 4.184382855892181396e-01 2.799074172973632812e+00 9.652537703514099121e-01 -8.562509417533874512e-01
3.348000000000000000e+03 7.942029953002929688e+00 4.644608020782470703e+00 8.372590541839599609e-01 3.181017875671386719e+00 1.205483078956604004e+00 -1.264127135276794434e+00
3.349000000000000000e+03 6.365259647369384766e+00 4.696732521057128906e+00 8.651887774467468262e-01 1.517286300659179688e+00 7.147425413131713867e-01 -7.208206057548522949e-01
3.350000000000000000e+03 5.917457103729248047e+00 4.962260246276855469e+00 7.840099334716796875e-01 1.314070940017700195e+00 6.294242739677429199e-01 -5.896824002265930176e-01
3.351000000000000000e+03 1.198389339447021484e+01 -6.232670307159423828e+00 -9.278169274330139160e-01 7.498808860778808594e+00 1.971297621726989746e+00 3.032594442367553711e+00
3.352000000000000000e+03 8.948612213134765625e+00 -7.645664215087890625e+00 -1.561150193214416504e+00 7.211007595062255859e+00 1.694957256317138672e+00 3.677084684371948242e+00
3.353000000000000000e+03 7.995967864990234375e+00 -6.919205188751220703e+00 -8.976472616195678711e-01 6.483901023864746094e+00 1.675876140594482422e+00 3.721103906631469727e+00
3.354000000000000000e+03 1.436204719543457031e+01 -5.799041748046875000e+00 2.581650614738464355e-01 5.458173751831054688e+00 1.714901685714721680e+00 2.006352186203002930e+00
3.355000000000000000e+03 1.587060451507568359e+01 -5.066214561462402344e+00 1.321769356727600098e+00 4.018991947174072266e+00 1.602228403091430664e+00 1.515084147453308105e+00
3.356000000000000000e+03 1.527185821533203125e+01 -4.833640098571777344e+00 1.393971204757690430e+00 4.726200580596923828e+00 1.836051583290100098e+00 1.542605519294738770e+00
3.357000000000000000e+03 9.461894989013671875e+00 -7.645895004272460938e+00 -1.644625782966613770e+00 7.376947402954101562e+00 1.719696402549743652e+00 3.685081720352172852e+00
3.358000000000000000e+03 1.180447864532470703e+01 -7.336779594421386719e+00 -1.591794967651367188e+00 7.183253765106201172e+00 1.677437543869018555e+00 3.361670494079589844e+00
3.359000000000000000e+03 1.266238212585449219e+01 -6.621857643127441406e+00 -1.020503401756286621e+00 6.915755748748779297e+00 1.768575668334960938e+00 2.919977188110351562e+00
3.360000000000000000e+03 8.373433113098144531e+00 8.003920555114746094e+00 1.540407091379165649e-01 3.587196588516235352e+00 1.122371196746826172e+00 -7.064232826232910156e-01
3.361000000000000000e+03 1.026898860931396484e+01 -7.849793434143066406e+00 -1.928318023681640625e+00 7.506035804748535156e+00 1.673315286636352539e+00 3.610964775085449219e+00
3.362000000000000000e+03 1.071406555175781250e+01 -7.629363059997558594e+00 -1.809227705001831055e+00 7.508397579193115234e+00 1.709751009941101074e+00 3.618677854537963867e+00
3.363000000000000000e+03 8.749064445495605469e+00 -4.735755443572998047e+00 4.328032433986663818e-01 6.963747978210449219e+00 2.218965291976928711e+00 4.571752548217773438e+00
3.364000000000000000e+03 1.237342643737792969e+01 -5.917415142059326172e+00 -5.954132676124572754e-01 7.370334625244140625e+00 2.032476425170898438e+00 2.837778329849243164e+00
3.365000000000000000e+03 9.306407928466796875e+00 5.190215110778808594e+00 3.541609942913055420e-01 5.071587085723876953e+00 1.627724409103393555e+00 -1.010237574577331543e+00
3.366000000000000000e+03 9.150653839111328125e+00 4.923575401306152344e+00 4.253190159797668457e-01 4.969165325164794922e+00 1.618345260620117188e+00 -1.127786159515380859e+00
3.367000000000000000e+03 9.600706100463867188e+00 8.255426406860351562e+00 2.134857885539531708e-02 4.325473308563232422e+00 1.304046630859375000e+00 -4.588828682899475098e-01
3.368000000000000000e+03 1.381142425537109375e+01 -5.518603801727294922e+00 2.576334476470947266e-01 6.209292888641357422e+00 1.940077900886535645e+00 2.115051507949829102e+00
3.369000000000000000e+03 1.799097824096679688e+01 -4.311291694641113281e+00 2.080444097518920898e+00 2.401819229125976562e+00 1.344678997993469238e+00 1.048715949058532715e+00
3.370000000000000000e+03 1.890637016296386719e+01 -4.071028232574462891e+00 2.206998109817504883e+00 1.922636866569519043e+00 1.238890528678894043e+00 9.253730773925781250e-01
3.371000000000000000e+03 1.424258422851562500e+01 -2.419569492340087891e-01 5.772457599639892578e+00 5.800307273864746094e+00 3.471829414367675781e+00 2.464724540710449219e+00
3.372000000000000000e+03 2.072346687316894531e+01 -3.206367731094360352e+00 2.458123922348022461e+00 1.436916112899780273e+00 1.168511986732482910e+00 6.189754605293273926e-01
3.373000000000000000e+03 3.302663421630859375e+01 -1.996575355529785156e+00 1.049712896347045898e+00 3.557313442230224609e+00 1.382107853889465332e+00 -1.348803043365478516e+00
3.374000000000000000e+03 2.928291511535644531e+01 -3.921747684478759766e+00 9.550290107727050781e-01 2.182857990264892578e+00 9.413660764694213867e-01 -1.062969207763671875e+00
3.375000000000000000e+03 3.313716888427734375e+01 -5.552237510681152344e+00 1.377098113298416138e-01 3.201889276504516602e+00 1.001879692077636719e+00 -1.729090571403503418e+00
3.376000000000000000e+03 3.154483032226562500e+01 1.037692904472351074e+00 1.821646571159362793e+00 3.523984670639038086e+00 1.603689312934875488e+00 -7.866043448448181152e-01
3.377000000000000000e+03 1.109742832183837891e+01 1.167153835296630859e+01 -6.536146998405456543e-02 4.202581882476806641e+00 1.241166114807128906e+00 -1.260420382022857666e-01
3.378000000000000000e+03 2.405743026733398438e+01 -2.030395984649658203e+00 2.295660972595214844e+00 1.480107188224792480e+00 1.132730484008789062e+00 8.078507333993911743e-02
3.379000000000000000e+03 3.205219268798828125e+01 -5.659807324409484863e-01 1.458473801612854004e+00 3.450495719909667969e+00 1.472690939903259277e+00 -1.059930205345153809e+00
3.380000000000000000e+03 2.536308670043945312e+01 -2.840051889419555664e+00 1.869854927062988281e+00 1.439627766609191895e+00 9.928448200225830078e-01 -2.659245729446411133e-01
3.381000000000000000e+03 1.124750137329101562e+01 1.291978263854980469e+01 -5.741843208670616150e-02 4.023268222808837891e+00 1.189754962921142578e+00 -1.381859630346298218e-01
3.382000000000000000e+03 1.545532035827636719e+01 1.304758644104003906e+01 3.569197356700897217e-01 4.486005783081054688e+00 1.452877640724182129e+00 4.617814421653747559e-01
3.383000000000000000e+03 1.472074127197265625e+01 1.404882144927978516e+01 2.203963249921798706e-01 4.348371982574462891e+00 1.370630502700805664e+00 2.588520050048828125e-01
3.384000000000000000e+03 1.527694320678710938e+01 1.826772689819335938e+01 1.106853112578392029e-01 4.038710117340087891e+00 1.244818568229675293e+00 -8.978731185197830200e-02
3.385000000000000000e+03 2.878480529785156250e+01 -4.680713176727294922e+00 7.675666213035583496e-01 1.944956302642822266e+00 8.137568831443786621e-01 -1.097513079643249512e+00
3.386000000000000000e+03 2.804269790649414062e+01 -4.009074211120605469e+00 1.065199136734008789e+00 1.774703502655029297e+00 8.519707918167114258e-01 -9.083723425865173340e-01
3.387000000000000000e+03 1.945376396179199219e+01 -3.324630260467529297e+00 2.588464975357055664e+00 1.811422467231750488e+00 1.319966197013854980e+00 8.786431550979614258e-01
3.388000000000000000e+03 3.093579864501953125e+01 6.911241054534912109e+00 2.400218725204467773e+00 4.196825504302978516e+00 1.979113221168518066e+00 -1.592797487974166870e-01
3.389000000000000000e+03 3.043891716003417969e+01 5.659425258636474609e+00 2.396629333496093750e+00 3.890543699264526367e+00 1.886151909828186035e+00 -1.508075892925262451e-01
3.390000000000000000e+03 3.303069686889648438e+01 1.716115355491638184e+00 1.746068120002746582e+00 4.082090854644775391e+00 1.748447775840759277e+00 -9.004399776458740234e-01
3.391000000000000000e+03 3.371827697753906250e+01 -2.875020265579223633e+00 7.519876360893249512e-01 3.665268182754516602e+00 1.325176715850830078e+00 -1.554187178611755371e+00
3.392000000000000000e+03 3.149788856506347656e+01 -3.634899854660034180e+00 8.167071938514709473e-01 2.806770801544189453e+00 1.087043404579162598e+00 -1.334032177925109863e+00
3.393000000000000000e+03 2.960169219970703125e+01 7.395355224609375000e+00 2.431976318359375000e+00 3.964233636856079102e+00 1.918862938880920410e+00 4.172406345605850220e-02
3.394000000000000000e+03 1.739064598083496094e+01 1.762812042236328125e+01 3.314991295337677002e-01 4.249842166900634766e+00 1.374402403831481934e+00 7.249762117862701416e-02
3.395000000000000000e+03 1.419879055023193359e+01 2.633648109436035156e+01 -1.320330798625946045e-01 3.652875900268554688e+00 1.056252837181091309e+00 -3.939503431320190430e-01
3.396000000000000000e+03 1.497735309600830078e+01 1.601318740844726562e+01 1.672755330801010132e-01 4.172711372375488281e+00 1.301995992660522461e+00 7.450471818447113037e-02
3.397000000000000000e+03 2.571064186096191406e+01 1.440762519836425781e+01 1.525962471961975098e+00 4.398621082305908203e+00 1.777375102043151855e+00 2.310860604047775269e-01
3.398000000000000000e+03 7.049485683441162109e+00 -4.591263771057128906e+00 1.044595003128051758e+00 4.532789230346679688e+00 1.673215270042419434e+00 3.953981637954711914e+00
3.399000000000000000e+03 7.286645889282226562e+00 -5.679324150085449219e+00 1.207337453961372375e-01 5.435242652893066406e+00 1.666792869567871094e+00 3.875153064727783203e+00
3.400000000000000000e+03 1.251428794860839844e+01 -2.830755233764648438e+00 2.947989940643310547e+00 8.814894676208496094e+00 3.528865337371826172e+00 1.349179387092590332e+00
3.401000000000000000e+03 1.241396141052246094e+01 -3.328448057174682617e+00 2.120740413665771484e+00 8.762937545776367188e+00 3.265103340148925781e+00 1.626225471496582031e+00
3.402000000000000000e+03 7.313945293426513672e+00 -4.836493492126464844e+00 8.274879455566406250e-01 4.994170188903808594e+00 1.746497392654418945e+00 4.094347476959228516e+00
3.403000000000000000e+03 7.877962112426757812e+00 -5.248992919921875000e+00 2.820523381233215332e-01 5.946197509765625000e+00 1.868474960327148438e+00 4.225865840911865234e+00
3.404000000000000000e+03 7.640185356140136719e+00 4.600589752197265625e+00 8.719698190689086914e-01 2.833948135375976562e+00 1.111775398254394531e+00 -1.178099870681762695e+00
3.405000000000000000e+03 1.350646591186523438e+01 -2.331869602203369141e+00 4.140854358673095703e+00 7.156218528747558594e+00 3.389121770858764648e+00 1.145991325378417969e+00
3.406000000000000000e+03 9.882003784179687500e+00 4.875408172607421875e+00 2.337696701288223267e-01 6.011505603790283203e+00 1.873582601547241211e+00 -7.781244516372680664e-01
3.407000000000000000e+03 1.068731880187988281e+01 4.967174053192138672e+00 1.427856236696243286e-01 6.773296356201171875e+00 2.074824571609497070e+00 -8.768394589424133301e-02
3.408000000000000000e+03 1.413051605224609375e+01 -4.430296421051025391e+00 1.467464923858642578e+00 6.116262912750244141e+00 2.275118350982666016e+00 1.594300389289855957e+00
3.409000000000000000e+03 1.679081726074218750e+01 -3.951725482940673828e+00 2.414039611816406250e+00 3.295134305953979492e+00 1.712752223014831543e+00 1.238813042640686035e+00
3.410000000000000000e+03 9.359163284301757812e+00 -4.942559719085693359e+00 2.053746208548545837e-02 7.700353145599365234e+00 2.316267251968383789e+00 4.392212390899658203e+00
3.411000000000000000e+03 1.242359447479248047e+01 3.659370899200439453e+00 1.093359827995300293e+00 8.271108627319335938e+00 2.809340476989746094e+00 2.122653245925903320e+00
3.412000000000000000e+03 1.212876796722412109e+01 3.811288833618164062e+00 8.238260149955749512e-01 8.329771041870117188e+00 2.746078968048095703e+00 1.757441639900207520e+00
3.413000000000000000e+03 1.421273612976074219e+01 6.033911705017089844e-01 5.421559810638427734e+00 5.993145942687988281e+00 3.424411535263061523e+00 3.076102018356323242e+00
3.414000000000000000e+03 7.411390304565429688e+00 6.549056053161621094e+00 4.780583381652832031e-01 2.819783210754394531e+00 9.893524646759033203e-01 -8.965963125228881836e-01
3.415000000000000000e+03 7.370554924011230469e+00 6.009493350982666016e+00 5.784706473350524902e-01 2.790580511093139648e+00 1.010715365409851074e+00 -9.525136947631835938e-01
3.416000000000000000e+03 8.796393394470214844e+00 7.255772113800048828e+00 1.848981976509094238e-01 4.009468078613281250e+00 1.258309841156005859e+00 -7.346550822257995605e-01
3.417000000000000000e+03 6.439254760742187500e+00 -5.702104568481445312e+00 2.923580110073089600e-01 4.572951793670654297e+00 1.459592938423156738e+00 3.424575090408325195e+00
3.418000000000000000e+03 7.178333759307861328e+00 -6.107325077056884766e+00 -1.319467723369598389e-01 5.477334976196289062e+00 1.603616476058959961e+00 3.707422256469726562e+00
3.419000000000000000e+03 1.344035339355468750e+01 1.868343591690063477e+00 4.015958786010742188e+00 7.533219337463378906e+00 3.464753389358520508e+00 3.686254024505615234e+00
3.420000000000000000e+03 7.456824302673339844e+00 -6.778418540954589844e+00 -6.408014893531799316e-01 5.993053913116455078e+00 1.605675816535949707e+00 3.619523048400878906e+00
3.421000000000000000e+03 1.342012310028076172e+01 2.262679338455200195e+00 3.409658908843994141e+00 7.677222728729248047e+00 3.326064586639404297e+00 3.578171730041503906e+00
3.422000000000000000e+03 1.644682884216308594e+01 -2.900058031082153320e+00 3.238585472106933594e+00 3.674239397048950195e+00 2.073847532272338867e+00 1.302207231521606445e+00
3.423000000000000000e+03 1.616793632507324219e+01 -3.868030786514282227e+00 2.456547260284423828e+00 3.895857810974121094e+00 1.905721545219421387e+00 1.313258528709411621e+00
3.424000000000000000e+03 6.563485145568847656e+00 5.236915111541748047e+00 7.719619274139404297e-01 1.859175562858581543e+00 7.893412113189697266e-01 -8.033221364021301270e-01
3.425000000000000000e+03 7.299057960510253906e+00 4.608781337738037109e+00 8.992989063262939453e-01 2.377526283264160156e+00 9.830475449562072754e-01 -1.061799287796020508e+00
3.426000000000000000e+03 1.509421348571777344e+01 -5.408445835113525391e+00 8.385096192359924316e-01 4.833847999572753906e+00 1.701707243919372559e+00 1.725311040878295898e+00
3.427000000000000000e+03 6.756302356719970703e+00 4.871479034423828125e+00 8.588948249816894531e-01 1.903430700302124023e+00 8.286976814270019531e-01 -8.609333634376525879e-01
3.428000000000000000e+03 7.072735309600830078e+00 5.172417163848876953e+00 7.980716228485107422e-01 2.327709436416625977e+00 9.377343058586120605e-01 -9.803614616394042969e-01
3.429000000000000000e+03 1.095945358276367188e+01 4.701353549957275391e+00 1.527555435895919800e-01 7.232179164886474609e+00 2.215480327606201172e+00 1.370057761669158936e-01
3.430000000000000000e+03 1.013745021820068359e+01 -4.863641738891601562e+00 -9.465932846069335938e-02 8.446289062500000000e+00 2.505488872528076172e+00 4.011608123779296875e+00
3.431000000000000000e+03 1.048866653442382812e+01 -4.968472957611083984e+00 -2.240357995033264160e-01 8.539903640747070312e+00 2.494760274887084961e+00 3.782813072204589844e+00
3.432000000000000000e+03 1.603740310668945312e+01 -4.459453105926513672e+00 1.880398631095886230e+00 3.955582141876220703e+00 1.750794172286987305e+00 1.380381226539611816e+00
3.433000000000000000e+03 8.333395004272460938e+00 -5.000708580017089844e+00 3.655260205268859863e-01 6.430834770202636719e+00 2.038908243179321289e+00 4.440877914428710938e+00
3.434000000000000000e+03 8.537712097167968750e+00 -7.052865505218505859e+00 -1.128063797950744629e+00 6.899766921997070312e+00 1.731510877609252930e+00 3.791623353958129883e+00
3.435000000000000000e+03 1.003812980651855469e+01 -7.195327281951904297e+00 -1.541425824165344238e+00 7.526151180267333984e+00 1.795417547225952148e+00 3.724698543548583984e+00
3.436000000000000000e+03 1.059232425689697266e+01 -7.153428077697753906e+00 -1.625893831253051758e+00 7.616319179534912109e+00 1.797127604484558105e+00 3.642946720123291016e+00
3.437000000000000000e+03 1.217542362213134766e+01 -6.691103935241699219e+00 -1.104386329650878906e+00 7.172513961791992188e+00 1.820438265800476074e+00 3.106033802032470703e+00
3.438000000000000000e+03 8.253405570983886719e+00 7.152001857757568359e+00 2.725610733032226562e-01 3.595356702804565430e+00 1.160375356674194336e+00 -8.172467350959777832e-01
3.439000000000000000e+03 9.570152282714843750e+00 -6.754539489746093750e+00 -1.212344765663146973e+00 7.466707229614257812e+00 1.876308679580688477e+00 3.878295421600341797e+00
3.440000000000000000e+03 9.309878349304199219e+00 7.218364715576171875e+00 1.275943368673324585e-01 4.435981273651123047e+00 1.369072675704956055e+00 -6.190001964569091797e-01
3.441000000000000000e+03 1.002543067932128906e+01 8.749303817749023438e+00 -1.246020849794149399e-02 4.428205490112304688e+00 1.324723482131958008e+00 -3.165527582168579102e-01
3.442000000000000000e+03 1.083293914794921875e+01 1.032791042327880859e+01 -4.749735444784164429e-02 4.369596481323242188e+00 1.296629667282104492e+00 -1.378364562988281250e-01
3.443000000000000000e+03 1.011303520202636719e+01 9.751243591308593750e+00 -5.004917085170745850e-02 4.226042270660400391e+00 1.252797961235046387e+00 -2.851430475711822510e-01
3.444000000000000000e+03 1.885156631469726562e+01 -2.627659559249877930e+00 3.009379148483276367e+00 2.220661163330078125e+00 1.569012045860290527e+00 1.105180978775024414e+00
3.445000000000000000e+03 3.230646133422851562e+01 -4.578417778015136719e+00 4.492918550968170166e-01 2.984061002731323242e+00 1.030005812644958496e+00 -1.569579243659973145e+00
3.446000000000000000e+03 2.133273315429687500e+01 -2.385899066925048828e+00 2.664878129959106445e+00 1.515927791595458984e+00 1.254241824150085449e+00 6.322051286697387695e-01
3.447000000000000000e+03 2.007245826721191406e+01 -2.571477413177490234e+00 2.828550100326538086e+00 1.765934467315673828e+00 1.378345370292663574e+00 8.749857544898986816e-01
3.448000000000000000e+03 2.194516372680664062e+01 -1.527855277061462402e+00 2.826150417327880859e+00 1.618755698204040527e+00 1.333471775054931641e+00 6.534373760223388672e-01
3.449000000000000000e+03 2.332050514221191406e+01 -1.284320116043090820e+00 2.636473655700683594e+00 1.612938046455383301e+00 1.274823427200317383e+00 3.832145631313323975e-01
3.450000000000000000e+03 2.734517097473144531e+01 -3.247561693191528320e+00 1.407915472984313965e+00 1.739211797714233398e+00 9.441381692886352539e-01 -7.164100408554077148e-01
3.451000000000000000e+03 2.868909263610839844e+01 -3.232390880584716797e+00 1.245999574661254883e+00 2.116926908493041992e+00 1.008877992630004883e+00 -9.206700325012207031e-01
3.452000000000000000e+03 3.252980804443359375e+01 5.919647812843322754e-01 1.622429728507995605e+00 3.762769460678100586e+00 1.615559816360473633e+00 -9.676433801651000977e-01
3.453000000000000000e+03 1.375813865661621094e+01 1.321486854553222656e+01 1.299749761819839478e-01 4.385141372680664062e+00 1.354534864425659180e+00 2.258783876895904541e-01
3.454000000000000000e+03 1.588127803802490234e+01 -1.713458657264709473e+00 4.208523750305175781e+00 4.160651683807373047e+00 2.510752677917480469e+00 1.573257565498352051e+00
3.455000000000000000e+03 1.188240146636962891e+01 9.926901817321777344e+00 2.912288159132003784e-02 4.757446765899658203e+00 1.435970902442932129e+00 1.662213951349258423e-01
3.456000000000000000e+03 3.218168640136718750e+01 -2.656796455383300781e+00 9.973767995834350586e-01 3.166188478469848633e+00 1.249069571495056152e+00 -1.337809562683105469e+00
3.457000000000000000e+03 2.992781448364257812e+01 4.385996818542480469e+00 2.382372140884399414e+00 3.601875782012939453e+00 1.795274376869201660e+00 -1.657790243625640869e-01
3.458000000000000000e+03 3.301210403442382812e+01 -3.685299634933471680e+00 6.060655117034912109e-01 3.340026140213012695e+00 1.183827519416809082e+00 -1.570350050926208496e+00
3.459000000000000000e+03 2.914445686340332031e+01 6.138494968414306641e+00 2.473971128463745117e+00 3.708629131317138672e+00 1.854780077934265137e+00 6.659027934074401855e-02
3.460000000000000000e+03 2.867631149291992188e+01 4.884624481201171875e+00 2.490293025970458984e+00 3.402532577514648438e+00 1.767847657203674316e+00 7.222468405961990356e-02
3.461000000000000000e+03 1.572719287872314453e+01 1.482882595062255859e+01 3.005718886852264404e-01 4.320191860198974609e+00 1.386229157447814941e+00 2.621626257896423340e-01
3.462000000000000000e+03 1.612142562866210938e+01 1.687535858154296875e+01 2.431993484497070312e-01 4.194053649902343750e+00 1.331175923347473145e+00 7.580413669347763062e-02
3.463000000000000000e+03 2.828384971618652344e+01 7.851394653320312500e+00 2.431530475616455078e+00 3.833859682083129883e+00 1.879617094993591309e+00 2.407560646533966064e-01
3.464000000000000000e+03 2.604457283020019531e+01 9.961990356445312500e+00 2.163392543792724609e+00 3.935332059860229492e+00 1.829617381095886230e+00 5.180000066757202148e-01
3.465000000000000000e+03 2.737339401245117188e+01 9.560818672180175781e+00 2.267957687377929688e+00 3.983093500137329102e+00 1.875315308570861816e+00 3.476992547512054443e-01
3.466000000000000000e+03 1.835574340820312500e+01 2.442974281311035156e+01 -1.031231251545250416e-03 4.166792392730712891e+00 1.249728322029113770e+00 -3.167066574096679688e-01
3.467000000000000000e+03 2.528120803833007812e+01 1.977062034606933594e+01 7.679932117462158203e-01 4.667846679687500000e+00 1.630751967430114746e+00 -1.435016840696334839e-01
3.468000000000000000e+03 2.740666961669921875e+01 1.541419219970703125e+01 1.514151573181152344e+00 4.597691535949707031e+00 1.833552956581115723e+00 2.480766363441944122e-02
3.469000000000000000e+03 7.096359729766845703e+00 -5.151392936706542969e+00 5.814177989959716797e-01 4.936431407928466797e+00 1.655354738235473633e+00 3.907794952392578125e+00
3.470000000000000000e+03 7.325153350830078125e+00 5.474100589752197266e+00 6.831246018409729004e-01 2.676309585571289062e+00 1.007830262184143066e+00 -9.925567507743835449e-01
3.471000000000000000e+03 8.933838844299316406e+00 -5.183216571807861328e+00 -2.537380903959274292e-02 7.178667545318603516e+00 2.145987987518310547e+00 4.392809867858886719e+00
3.472000000000000000e+03 1.443316650390625000e+01 1.164500713348388672e-01 5.543622970581054688e+00 5.587952136993408203e+00 3.339472532272338867e+00 2.682072877883911133e+00
3.473000000000000000e+03 6.642956733703613281e+00 5.732003211975097656e+00 6.830797791481018066e-01 2.084287881851196289e+00 8.302102684974670410e-01 -8.383069634437561035e-01
3.474000000000000000e+03 1.261769676208496094e+01 2.608194589614868164e+00 2.327103137969970703e+00 8.925585746765136719e+00 3.375806570053100586e+00 3.195353507995605469e+00
3.475000000000000000e+03 9.226492881774902344e+00 -5.310177803039550781e+00 -2.141195386648178101e-01 7.457037925720214844e+00 2.172875404357910156e+00 4.295772075653076172e+00
3.476000000000000000e+03 7.625191211700439453e+00 -6.288273334503173828e+00 -3.880629539489746094e-01 5.963360309600830078e+00 1.672589182853698730e+00 3.821471691131591797e+00
3.477000000000000000e+03 1.006119155883789062e+01 5.273265838623046875e+00 1.570040136575698853e-01 5.963945865631103516e+00 1.836284995079040527e+00 -5.795738697052001953e-01
3.478000000000000000e+03 1.183970069885253906e+01 3.991348266601562500e+00 5.640251636505126953e-01 8.233916282653808594e+00 2.639382362365722656e+00 1.337785720825195312e+00
3.479000000000000000e+03 1.183425331115722656e+01 4.602504730224609375e+00 4.073416888713836670e-01 7.603981494903564453e+00 2.403397083282470703e+00 1.055176854133605957e+00
3.480000000000000000e+03 8.537761688232421875e+00 6.178848266601562500e+00 3.678951859474182129e-01 3.965992689132690430e+00 1.300166368484497070e+00 -9.468502402305603027e-01
3.481000000000000000e+03 8.197340011596679688e+00 4.740245819091796875e+00 7.289963960647583008e-01 3.595109462738037109e+00 1.297231793403625488e+00 -1.241582751274108887e+00
3.482000000000000000e+03 1.307278251647949219e+01 -3.235980033874511719e+00 2.552783489227294922e+00 7.818034648895263672e+00 3.111245393753051758e+00 1.351400375366210938e+00
3.483000000000000000e+03 1.040279960632324219e+01 4.786947727203369141e+00 1.645680516958236694e-01 6.677515983581542969e+00 2.052625179290771484e+00 -3.763171434402465820e-01
3.484000000000000000e+03 1.356996440887451172e+01 -5.990936756134033203e+00 -1.864554286003112793e-01 6.219662666320800781e+00 1.809962153434753418e+00 2.365279674530029297e+00
3.485000000000000000e+03 9.676402091979980469e+00 -5.082974433898925781e+00 -1.674139499664306641e-01 7.955124855041503906e+00 2.336313247680664062e+00 4.240146636962890625e+00
3.486000000000000000e+03 1.374425029754638672e+01 8.720676302909851074e-01 5.457200527191162109e+00 6.726413249969482422e+00 3.655084133148193359e+00 3.448109626770019531e+00
3.487000000000000000e+03 1.439528942108154297e+01 -4.446439146995544434e-01 5.596448898315429688e+00 5.560285568237304688e+00 3.347020387649536133e+00 2.243282794952392578e+00
3.488000000000000000e+03 1.331014060974121094e+01 -5.245690822601318359e+00 3.198679685592651367e-01 6.815216541290283203e+00 2.140525341033935547e+00 2.161817312240600586e+00
3.489000000000000000e+03 1.453622341156005859e+01 -5.200729846954345703e+00 8.361507654190063477e-01 5.505533218383789062e+00 1.902505278587341309e+00 1.755636334419250488e+00
3.490000000000000000e+03 7.865335941314697266e+00 5.799929141998291016e+00 5.630713105201721191e-01 3.233698129653930664e+00 1.139030814170837402e+00 -1.033651947975158691e+00
3.491000000000000000e+03 7.348400115966796875e+00 4.975204944610595703e+00 8.187892436981201172e-01 2.539098978042602539e+00 1.007366418838500977e+00 -1.051980853080749512e+00
3.492000000000000000e+03 1.281478977203369141e+01 -6.162480354309082031e+00 -6.165169477462768555e-01 6.921524524688720703e+00 1.891502261161804199e+00 2.720207214355468750e+00
3.493000000000000000e+03 1.308941078186035156e+01 2.309616088867187500e+00 3.172663450241088867e+00 8.186764717102050781e+00 3.407828330993652344e+00 3.562533140182495117e+00
3.494000000000000000e+03 8.195363044738769531e+00 -5.373945713043212891e+00 1.028139740228652954e-01 6.328579902648925781e+00 1.929418206214904785e+00 4.289056301116943359e+00
3.495000000000000000e+03 1.307640266418457031e+01 -3.722361087799072266e+00 1.957648396492004395e+00 7.715554714202880859e+00 2.901960849761962891e+00 1.579216361045837402e+00
3.496000000000000000e+03 7.773926734924316406e+00 6.599549293518066406e+00 4.017994701862335205e-01 3.239998579025268555e+00 1.092539429664611816e+00 -8.997200727462768555e-01
3.497000000000000000e+03 1.183362293243408203e+01 -3.173033714294433594e+00 1.990247130393981934e+00 9.763711929321289062e+00 3.526187658309936523e+00 1.978783965110778809e+00
3.498000000000000000e+03 1.105350494384765625e+01 -6.607655525207519531e+00 -1.303578972816467285e+00 7.715459823608398438e+00 1.923564195632934570e+00 3.507517337799072266e+00
3.499000000000000000e+03 1.058655357360839844e+01 9.223984718322753906e+00 -2.246348746120929718e-02 4.575264930725097656e+00 1.365840435028076172e+00 -1.422815620899200439e-01
3.500000000000000000e+03 1.114684295654296875e+01 -7.028291225433349609e+00 -1.490272760391235352e+00 7.545187950134277344e+00 1.816474556922912598e+00 3.526494503021240234e+00
3.501000000000000000e+03 1.152155399322509766e+01 -6.452289104461669922e+00 -1.114161849021911621e+00 7.635721683502197266e+00 1.956467986106872559e+00 3.345200777053833008e+00
3.502000000000000000e+03 9.530482292175292969e+00 -7.192069530487060547e+00 -1.495715498924255371e+00 7.452735900878906250e+00 1.787106156349182129e+00 3.786665439605712891e+00
3.503000000000000000e+03 8.528229713439941406e+00 -5.426619052886962891e+00 -5.764074996113777161e-02 6.736806869506835938e+00 2.003749847412109375e+00 4.314516544342041016e+00
3.504000000000000000e+03 8.082630157470703125e+00 -6.430277347564697266e+00 -6.503472328186035156e-01 6.484754085540771484e+00 1.750322103500366211e+00 3.917541503906250000e+00
3.505000000000000000e+03 1.399903964996337891e+01 -4.997920036315917969e+00 8.743261098861694336e-01 6.101241111755371094e+00 2.092670202255249023e+00 1.843847990036010742e+00
3.506000000000000000e+03 1.469310379028320312e+01 -4.617600440979003906e+00 1.488049030303955078e+00 5.415537357330322266e+00 2.071075916290283203e+00 1.565116524696350098e+00
3.507000000000000000e+03 8.413766860961914062e+00 6.636555194854736328e+00 3.216621875762939453e-01 3.783664703369140625e+00 1.231598138809204102e+00 -8.835196495056152344e-01
3.508000000000000000e+03 9.370282173156738281e+00 5.832748889923095703e+00 2.498232275247573853e-01 4.917223453521728516e+00 1.550114035606384277e+00 -8.282917141914367676e-01
3.509000000000000000e+03 9.391531944274902344e+00 7.722058773040771484e+00 7.864134758710861206e-02 4.348226547241210938e+00 1.328060388565063477e+00 -5.503960251808166504e-01
3.510000000000000000e+03 1.543455696105957031e+01 -4.258222579956054688e+00 2.005258321762084961e+00 4.589094638824462891e+00 1.978305816650390625e+00 1.427328109741210938e+00
3.511000000000000000e+03 9.806515693664550781e+00 7.607644081115722656e+00 5.710742622613906860e-02 4.658847808837890625e+00 1.414786577224731445e+00 -4.227816462516784668e-01
3.512000000000000000e+03 1.026482486724853516e+01 7.815863609313964844e+00 1.833609864115715027e-02 4.894240856170654297e+00 1.473773002624511719e+00 -2.461013495922088623e-01
3.513000000000000000e+03 1.823290443420410156e+01 -3.068890571594238281e+00 2.890152931213378906e+00 2.442379236221313477e+00 1.599759697914123535e+00 1.118723511695861816e+00
3.514000000000000000e+03 2.066651535034179688e+01 -1.771857857704162598e+00 3.004704236984252930e+00 1.767210960388183594e+00 1.431574583053588867e+00 8.992457985877990723e-01
3.515000000000000000e+03 1.945252799987792969e+01 -1.949159860610961914e+00 3.187961339950561523e+00 2.069866180419921875e+00 1.577348232269287109e+00 1.117130756378173828e+00
3.516000000000000000e+03 2.317340850830078125e+01 3.266877233982086182e-01 2.921574592590332031e+00 1.990387678146362305e+00 1.473588705062866211e+00 6.924542188644409180e-01
3.517000000000000000e+03 2.256538009643554688e+01 -6.266586780548095703e-01 2.899565458297729492e+00 1.793038725852966309e+00 1.407781243324279785e+00 6.733731627464294434e-01
3.518000000000000000e+03 2.576062011718750000e+01 -1.832788348197937012e+00 2.082079648971557617e+00 1.688654422760009766e+00 1.131220221519470215e+00 -2.139873504638671875e-01
3.519000000000000000e+03 2.343740463256835938e+01 3.857478618621826172e+00 2.869826316833496094e+00 2.825383424758911133e+00 1.708562970161437988e+00 1.069368124008178711e+00
3.520000000000000000e+03 1.461116600036621094e+01 1.226965427398681641e+01 2.757592499256134033e-01 4.576862812042236328e+00 1.455786585807800293e+00 4.662405550479888916e-01
3.521000000000000000e+03 1.188152217864990234e+01 1.140541362762451172e+01 -1.586765982210636139e-02 4.411931991577148438e+00 1.318819403648376465e+00 4.032199829816818237e-02
3.522000000000000000e+03 1.680051040649414062e+01 1.551856517791748047e+01 3.868225216865539551e-01 4.324597835540771484e+00 1.413426041603088379e+00 2.627805173397064209e-01
3.523000000000000000e+03 3.192373657226562500e+01 2.202385902404785156e+00 1.948384523391723633e+00 3.783795833587646484e+00 1.719654083251953125e+00 -6.963349580764770508e-01
3.524000000000000000e+03 2.988441848754882812e+01 -3.362861394882202148e+00 1.093073010444641113e+00 2.418874740600585938e+00 1.053584337234497070e+00 -1.076855897903442383e+00
3.525000000000000000e+03 2.945474624633789062e+01 -2.584922552108764648e+00 1.307039856910705566e+00 2.383646488189697266e+00 1.107205986976623535e+00 -9.510985016822814941e-01
3.526000000000000000e+03 3.033922576904296875e+01 -3.908112764358520508e+00 8.218582868576049805e-01 2.458954095840454102e+00 9.842436909675598145e-01 -1.220847129821777344e+00
3.527000000000000000e+03 3.092447280883789062e+01 -4.502429962158203125e+00 6.153009533882141113e-01 2.489275455474853516e+00 9.313729405403137207e-01 -1.372486591339111328e+00
3.528000000000000000e+03 3.043901443481445312e+01 1.286174297332763672e+00 2.021174669265747070e+00 3.199367046356201172e+00 1.566162586212158203e+00 -5.586370825767517090e-01
3.529000000000000000e+03 2.606496810913085938e+01 1.591017532348632812e+01 1.353087544441223145e+00 4.536958217620849609e+00 1.767013669013977051e+00 7.351179420948028564e-02
3.530000000000000000e+03 2.412275886535644531e+01 1.336876487731933594e+01 1.531704783439636230e+00 4.261382102966308594e+00 1.737926006317138672e+00 4.481098353862762451e-01
3.531000000000000000e+03 2.786016845703125000e+01 6.592421531677246094e+00 2.505021333694458008e+00 3.563310623168945312e+00 1.820499539375305176e+00 2.901458144187927246e-01
3.532000000000000000e+03 2.743854904174804688e+01 5.349054813385009766e+00 2.567041873931884766e+00 3.311650514602661133e+00 1.763607740402221680e+00 3.181268274784088135e-01
3.533000000000000000e+03 1.879799842834472656e+01 1.815218162536621094e+01 4.216871559619903564e-01 4.299087047576904297e+00 1.416232228279113770e+00 6.301221251487731934e-02
3.534000000000000000e+03 1.833916664123535156e+01 2.008558845520019531e+01 2.516638636589050293e-01 4.227825641632080078e+00 1.343846917152404785e+00 -1.067127287387847900e-01
3.535000000000000000e+03 2.639029693603515625e+01 1.126725482940673828e+01 2.006034374237060547e+00 4.130799770355224609e+00 1.841050267219543457e+00 3.909907341003417969e-01
3.536000000000000000e+03 2.671916389465332031e+01 1.260573196411132812e+01 1.844874501228332520e+00 4.293019294738769531e+00 1.841368079185485840e+00 2.732354998588562012e-01
3.537000000000000000e+03 3.063956069946289062e+01 -3.161416292190551758e+00 1.050128340721130371e+00 2.630059242248535156e+00 1.104056239128112793e+00 -1.173382163047790527e+00
3.538000000000000000e+03 2.803901100158691406e+01 -2.435804128646850586e+00 1.548238158226013184e+00 2.017663717269897461e+00 1.069770574569702148e+00 -7.186912298202514648e-01
3.539000000000000000e+03 1.821302223205566406e+01 2.225130462646484375e+01 1.195846498012542725e-01 4.180195808410644531e+00 1.289934158325195312e+00 -2.354401051998138428e-01
3.540000000000000000e+03 1.467445755004882812e+01 2.965616416931152344e+01 -2.100204974412918091e-01 3.692126035690307617e+00 1.044631719589233398e+00 -3.798078000545501709e-01
3.541000000000000000e+03 1.420022869110107422e+01 2.162607192993164062e+00 3.744895458221435547e+00 6.559453487396240234e+00 3.091304779052734375e+00 3.447107553482055664e+00
3.542000000000000000e+03 1.443571662902832031e+01 -3.234474420547485352e+00 2.914591312408447266e+00 5.848517894744873047e+00 2.628932714462280273e+00 1.287487506866455078e+00
3.543000000000000000e+03 8.467321395874023438e+00 4.835755825042724609e+00 6.528702974319458008e-01 3.913416862487792969e+00 1.369886159896850586e+00 -1.254035353660583496e+00
3.544000000000000000e+03 8.477969169616699219e+00 -5.744079113006591797e+00 -2.715446650981903076e-01 6.668127059936523438e+00 1.918974637985229492e+00 4.177085399627685547e+00
3.545000000000000000e+03 1.320040512084960938e+01 2.674499273300170898e+00 2.672568559646606445e+00 7.931299209594726562e+00 3.181160211563110352e+00 3.319540023803710938e+00
3.546000000000000000e+03 8.135191917419433594e+00 -6.046479701995849609e+00 -3.851014375686645508e-01 6.393385887145996094e+00 1.802485346794128418e+00 4.006329536437988281e+00
3.547000000000000000e+03 1.471729087829589844e+01 2.872406244277954102e-01 5.304454326629638672e+00 5.369492530822753906e+00 3.202184200286865234e+00 2.728286027908325195e+00
3.548000000000000000e+03 1.126297664642333984e+01 5.164549350738525391e+00 1.639548242092132568e-01 6.949412345886230469e+00 2.134010076522827148e+00 3.809638619422912598e-01
3.549000000000000000e+03 8.632251739501953125e+00 -5.089337825775146484e+00 1.766998171806335449e-01 6.816570758819580078e+00 2.097981214523315430e+00 4.434224605560302734e+00
3.550000000000000000e+03 8.153967857360839844e+00 -5.727607727050781250e+00 -1.410192847251892090e-01 6.324366092681884766e+00 1.855004072189331055e+00 4.167089939117431641e+00
3.551000000000000000e+03 1.632571411132812500e+01 -2.064661026000976562e+00 3.878018856048583984e+00 3.825761079788208008e+00 2.311134099960327148e+00 1.456199407577514648e+00
3.552000000000000000e+03 7.629354476928710938e+00 -5.588706970214843750e+00 8.247731626033782959e-02 5.746350765228271484e+00 1.748648405075073242e+00 4.028834819793701172e+00
3.553000000000000000e+03 1.210259819030761719e+01 4.377029895782470703e+00 5.825299024581909180e-01 7.779322147369384766e+00 2.508555650711059570e+00 1.411795139312744141e+00
3.554000000000000000e+03 8.923097610473632812e+00 6.235862731933593750e+00 2.925477027893066406e-01 4.301279544830322266e+00 1.378148198127746582e+00 -8.822468519210815430e-01
3.555000000000000000e+03 9.526187896728515625e+00 -5.468584060668945312e+00 -4.111042618751525879e-01 7.713349342346191406e+00 2.190673589706420898e+00 4.196096420288085938e+00
3.556000000000000000e+03 1.183303356170654297e+01 -4.015600681304931641e+00 9.485875368118286133e-01 9.007718086242675781e+00 2.986891508102416992e+00 2.375047922134399414e+00
3.557000000000000000e+03 1.207043647766113281e+01 -4.886788845062255859e+00 9.506025910377502441e-02 8.134645462036132812e+00 2.468911647796630859e+00 2.677515268325805664e+00
3.558000000000000000e+03 1.035663509368896484e+01 -5.351185321807861328e+00 -4.621108472347259521e-01 8.221183776855468750e+00 2.327721834182739258e+00 3.822296619415283203e+00
3.559000000000000000e+03 1.174070358276367188e+01 -4.641037464141845703e+00 2.062780410051345825e-01 8.581786155700683594e+00 2.636419296264648438e+00 2.818350791931152344e+00
3.560000000000000000e+03 1.112878990173339844e+01 -5.172091484069824219e+00 -3.426899909973144531e-01 8.451503753662109375e+00 2.432644128799438477e+00 3.337407112121582031e+00
3.561000000000000000e+03 7.982062816619873047e+00 4.961095333099365234e+00 7.217660546302795410e-01 3.318727493286132812e+00 1.212148070335388184e+00 -1.191770911216735840e+00
3.562000000000000000e+03 1.410777091979980469e+01 1.350171804428100586e+00 4.737049579620361328e+00 6.437272548675537109e+00 3.352296590805053711e+00 3.469233512878417969e+00
3.563000000000000000e+03 1.475732707977294922e+01 -1.200386643409729004e+00 5.030648231506347656e+00 5.177354335784912109e+00 3.062400817871093750e+00 1.787436723709106445e+00
3.564000000000000000e+03 7.558498859405517578e+00 5.241228580474853516e+00 7.104768753051757812e-01 2.871583700180053711e+00 1.074618220329284668e+00 -1.069394826889038086e+00
3.565000000000000000e+03 1.056003761291503906e+01 -6.244259357452392578e+00 -1.100156545639038086e+00 7.877618789672851562e+00 2.033238649368286133e+00 3.690198659896850586e+00
3.566000000000000000e+03 9.860125541687011719e+00 -5.629256248474121094e+00 -5.924559235572814941e-01 7.867650508880615234e+00 2.182558298110961914e+00 4.031011581420898438e+00
3.567000000000000000e+03 1.460384082794189453e+01 1.530336737632751465e+00 4.411117553710937500e+00 5.889720916748046875e+00 3.090251684188842773e+00 3.308008432388305664e+00
3.568000000000000000e+03 9.042869567871093750e+00 -7.167734146118164062e+00 -1.314767599105834961e+00 7.189434528350830078e+00 1.762400150299072266e+00 3.790734529495239258e+00
3.569000000000000000e+03 1.482660865783691406e+01 -2.925696074962615967e-01 5.318975925445556641e+00 5.163446903228759766e+00 3.144726753234863281e+00 2.347676277160644531e+00
3.570000000000000000e+03 8.858972549438476562e+00 6.721613883972167969e+00 2.417505085468292236e-01 4.157595634460449219e+00 1.319803953170776367e+00 -8.012297153472900391e-01
3.571000000000000000e+03 1.392035484313964844e+01 -2.834611892700195312e+00 3.348454952239990234e+00 6.477515697479248047e+00 2.947791337966918945e+00 1.230287671089172363e+00
3.572000000000000000e+03 1.004316520690917969e+01 -6.700929164886474609e+00 -1.312690734863281250e+00 7.647867202758789062e+00 1.900552868843078613e+00 3.809799671173095703e+00
3.573000000000000000e+03 7.906994342803955078e+00 6.135751247406005859e+00 4.903367161750793457e-01 3.259732723236083984e+00 1.125020861625671387e+00 -9.791747331619262695e-01
3.574000000000000000e+03 7.786163330078125000e+00 5.483370304107666016e+00 6.354200839996337891e-01 3.117432355880737305e+00 1.125855803489685059e+00 -1.070710539817810059e+00
3.575000000000000000e+03 9.053463935852050781e+00 -5.634482860565185547e+00 -3.968095481395721436e-01 7.277942657470703125e+00 2.064339876174926758e+00 4.229817867279052734e+00
3.576000000000000000e+03 7.845945358276367188e+00 -5.885747432708740234e+00 -1.509605944156646729e-01 6.083388805389404297e+00 1.779728412628173828e+00 4.032650947570800781e+00
3.577000000000000000e+03 8.773907661437988281e+00 -6.605548858642578125e+00 -9.712880253791809082e-01 6.987917900085449219e+00 1.804988980293273926e+00 3.914666175842285156e+00
3.578000000000000000e+03 1.211300563812255859e+01 -5.581586837768554688e+00 -3.840310275554656982e-01 7.825005531311035156e+00 2.232292413711547852e+00 2.794000864028930664e+00
3.579000000000000000e+03 9.754947662353515625e+00 7.170314311981201172e+00 8.078678697347640991e-02 4.771016597747802734e+00 1.455541014671325684e+00 -4.837352633476257324e-01
3.580000000000000000e+03 1.051213741302490234e+01 8.049026489257812500e+00 -2.078246761811897159e-04 4.945828437805175781e+00 1.483686208724975586e+00 -1.862202286720275879e-01
3.581000000000000000e+03 1.625325584411621094e+01 -3.334800481796264648e+00 2.877901077270507812e+00 3.839313745498657227e+00 2.015164375305175781e+00 1.292632699012756348e+00
3.582000000000000000e+03 1.072332286834716797e+01 8.349222183227539062e+00 -1.121093705296516418e-02 4.890440940856933594e+00 1.463768959045410156e+00 -1.009363606572151184e-01
3.583000000000000000e+03 1.726998901367187500e+01 -2.982900857925415039e+00 3.035295963287353516e+00 3.046141147613525391e+00 1.824431180953979492e+00 1.225058078765869141e+00
3.584000000000000000e+03 1.597282981872558594e+01 -2.613953113555908203e+00 3.540032863616943359e+00 4.104600906372070312e+00 2.293390035629272461e+00 1.374135971069335938e+00
3.585000000000000000e+03 1.558980846405029297e+01 -3.700268507003784180e+00 2.528605461120605469e+00 4.474531173706054688e+00 2.100940942764282227e+00 1.332119703292846680e+00
3.586000000000000000e+03 1.467583942413330078e+01 -6.307065486907958984e-01 5.391250133514404297e+00 5.298346042633056641e+00 3.206878662109375000e+00 2.127797842025756836e+00
3.587000000000000000e+03 1.832295608520507812e+01 -1.968082785606384277e+00 3.433796167373657227e+00 2.580871582031250000e+00 1.804400324821472168e+00 1.304489254951477051e+00
3.588000000000000000e+03 2.002046394348144531e+01 -1.189704775810241699e+00 3.289983987808227539e+00 2.068957328796386719e+00 1.607682347297668457e+00 1.160850048065185547e+00
3.589000000000000000e+03 1.728667259216308594e+01 -1.954578161239624023e+00 3.674136161804199219e+00 3.124666213989257812e+00 2.039640665054321289e+00 1.441444277763366699e+00
3.590000000000000000e+03 1.208416938781738281e+01 9.431838035583496094e+00 4.891918227076530457e-02 4.994973182678222656e+00 1.513167738914489746e+00 2.734236419200897217e-01
3.591000000000000000e+03 1.119538402557373047e+01 9.670002937316894531e+00 -9.830895811319351196e-03 4.684143066406250000e+00 1.402293682098388672e+00 -2.290204400196671486e-03
3.592000000000000000e+03 2.124468612670898438e+01 -9.204945564270019531e-01 3.096349239349365234e+00 1.867009878158569336e+00 1.489007711410522461e+00 9.349219202995300293e-01
3.593000000000000000e+03 2.233899879455566406e+01 9.262908101081848145e-01 3.103591680526733398e+00 2.193953514099121094e+00 1.589263558387756348e+00 1.004060506820678711e+00
3.594000000000000000e+03 3.135831642150878906e+01 -1.585442066192626953e+00 1.338170170783996582e+00 3.060115098953247070e+00 1.319485545158386230e+00 -1.078998804092407227e+00
3.595000000000000000e+03 2.645867919921875000e+01 -8.756833076477050781e-01 2.202989101409912109e+00 1.967072248458862305e+00 1.251018404960632324e+00 -2.003977149724960327e-01
3.596000000000000000e+03 1.295992088317871094e+01 1.149762153625488281e+01 9.430095553398132324e-02 4.598604679107666016e+00 1.407871603965759277e+00 2.827127873897552490e-01
3.597000000000000000e+03 1.511381626129150391e+01 1.075565338134765625e+01 4.503065943717956543e-01 4.816920757293701172e+00 1.580168128013610840e+00 7.920192480087280273e-01
3.598000000000000000e+03 2.474000167846679688e+01 1.034961700439453125e+01 2.022538900375366211e+00 3.965333461761474609e+00 1.796361684799194336e+00 6.627740263938903809e-01
3.599000000000000000e+03 2.729178810119628906e+01 -1.641333818435668945e+00 1.877085447311401367e+00 1.980833649635314941e+00 1.157375693321228027e+00 -4.846799671649932861e-01
3.600000000000000000e+03 2.662232017517089844e+01 -2.498251914978027344e+00 1.730347156524658203e+00 1.678764343261718750e+00 1.022733449935913086e+00 -5.011413097381591797e-01
3.601000000000000000e+03 1.611179161071777344e+01 1.213738155364990234e+01 5.360960364341735840e-01 4.589020729064941406e+00 1.537535071372985840e+00 6.869807243347167969e-01
3.602000000000000000e+03 1.738349342346191406e+01 1.423292160034179688e+01 5.488507151603698730e-01 4.401718139648437500e+00 1.485170722007751465e+00 4.513462483882904053e-01
3.603000000000000000e+03 2.659755134582519531e+01 7.015357017517089844e+00 2.500567436218261719e+00 3.519448280334472656e+00 1.806004762649536133e+00 5.121314525604248047e-01
3.604000000000000000e+03 1.795054817199707031e+01 1.609089660644531250e+01 4.794673919677734375e-01 4.327897071838378906e+00 1.442209362983703613e+00 2.491712570190429688e-01
3.605000000000000000e+03 1.639327621459960938e+01 1.368405342102050781e+01 4.527440071105957031e-01 4.441137790679931641e+00 1.468164563179016113e+00 4.673105776309967041e-01
3.606000000000000000e+03 2.055572319030761719e+01 -3.600845932960510254e-01 3.336021661758422852e+00 2.117461919784545898e+00 1.636045098304748535e+00 1.215645670890808105e+00
3.607000000000000000e+03 2.955294227600097656e+01 -1.027908176183700562e-02 1.897521376609802246e+00 2.806767225265502930e+00 1.411286592483520508e+00 -6.288546919822692871e-01
3.608000000000000000e+03 3.068888664245605469e+01 -6.828503608703613281e-01 1.635211586952209473e+00 3.006165742874145508e+00 1.392413258552551270e+00 -8.737192749977111816e-01
3.609000000000000000e+03 3.066786956787109375e+01 2.585187196731567383e+00 2.159458875656127930e+00 3.483682632446289062e+00 1.692942500114440918e+00 -4.485662579536437988e-01
3.610000000000000000e+03 1.951839065551757812e+01 1.508944988250732422e+01 7.538096904754638672e-01 4.372353076934814453e+00 1.537848830223083496e+00 4.159205257892608643e-01
3.611000000000000000e+03 2.698395919799804688e+01 8.280645370483398438e+00 2.388134002685546875e+00 3.746414184570312500e+00 1.840364456176757812e+00 4.414077699184417725e-01
3.612000000000000000e+03 2.744893836975097656e+01 2.117667007446289062e+01 6.816527247428894043e-01 4.899432659149169922e+00 1.674325704574584961e+00 -2.749567925930023193e-01
3.613000000000000000e+03 2.014235115051269531e+01 2.233373069763183594e+01 2.193735390901565552e-01 4.349725246429443359e+00 1.370729684829711914e+00 -2.157706469297409058e-01
3.614000000000000000e+03 9.382596015930175781e+00 5.470474243164062500e+00 2.775493562221527100e-01 5.043207645416259766e+00 1.596227049827575684e+00 -8.876338005065917969e-01
3.615000000000000000e+03 1.296312999725341797e+01 2.714066743850708008e+00 2.458155155181884766e+00 8.330370903015136719e+00 3.236557960510253906e+00 3.250548839569091797e+00
3.616000000000000000e+03 9.080913543701171875e+00 5.397156715393066406e+00 3.773811757564544678e-01 4.673834323883056641e+00 1.515364646911621094e+00 -1.026489734649658203e+00
3.617000000000000000e+03 1.410688018798828125e+01 2.426771640777587891e+00 3.425309181213378906e+00 6.754381656646728516e+00 3.053907394409179688e+00 3.412450790405273438e+00
3.618000000000000000e+03 1.378300189971923828e+01 2.335810422897338867e+00 3.451933383941650391e+00 7.110628604888916016e+00 3.168768644332885742e+00 3.500589609146118164e+00
3.619000000000000000e+03 1.505887603759765625e+01 -8.564305305480957031e-01 5.064103126525878906e+00 4.893407344818115234e+00 2.987253189086914062e+00 1.955805897712707520e+00
3.620000000000000000e+03 8.820178031921386719e+00 -5.489728450775146484e+00 -1.848321557044982910e-01 7.029815673828125000e+00 2.053495168685913086e+00 4.288212776184082031e+00
3.621000000000000000e+03 1.363927173614501953e+01 -3.715939283370971680e+00 2.164183616638183594e+00 6.833396434783935547e+00 2.699274063110351562e+00 1.421386241912841797e+00
3.622000000000000000e+03 9.780366897583007812e+00 5.814479351043701172e+00 1.728554964065551758e-01 5.336615562438964844e+00 1.652841329574584961e+00 -6.470145583152770996e-01
3.623000000000000000e+03 1.155980205535888672e+01 4.865572452545166016e+00 2.673831880092620850e-01 7.299563884735107422e+00 2.270084142684936523e+00 7.131460905075073242e-01
3.624000000000000000e+03 1.251887321472167969e+01 6.232078552246093750e+00 3.467639684677124023e-01 6.380461692810058594e+00 2.018167734146118164e+00 1.006815671920776367e+00
3.625000000000000000e+03 1.421243572235107422e+01 -2.439574480056762695e+00 3.937289714813232422e+00 6.039953708648681641e+00 2.993173122406005859e+00 1.253038287162780762e+00
3.626000000000000000e+03 1.010104656219482422e+01 -6.208067893981933594e+00 -9.903092980384826660e-01 7.756573677062988281e+00 2.029879331588745117e+00 3.852894544601440430e+00
3.627000000000000000e+03 1.148770713806152344e+01 -5.131926059722900391e+00 -1.893196851015090942e-01 8.365886688232421875e+00 2.452970266342163086e+00 3.078690767288208008e+00
3.628000000000000000e+03 1.071845436096191406e+01 -5.450850009918212891e+00 -5.633732676506042480e-01 8.284836769104003906e+00 2.316439151763916016e+00 3.652125835418701172e+00
3.629000000000000000e+03 9.791648864746093750e+00 6.261648178100585938e+00 1.359612345695495605e-01 5.151937484741210938e+00 1.586369633674621582e+00 -5.796920061111450195e-01
3.630000000000000000e+03 9.316426277160644531e+00 -5.846012592315673828e+00 -6.179925799369812012e-01 7.433538436889648438e+00 2.044663667678833008e+00 4.125642299652099609e+00
3.631000000000000000e+03 8.499145507812500000e+00 -6.357177257537841797e+00 -7.062748670578002930e-01 6.781381607055664062e+00 1.822531938552856445e+00 3.988801479339599609e+00
3.632000000000000000e+03 1.468278598785400391e+01 -1.757972955703735352e+00 4.611858844757080078e+00 5.399889945983886719e+00 3.003524541854858398e+00 1.505744695663452148e+00
3.633000000000000000e+03 1.254166698455810547e+01 -5.477228164672851562e+00 -1.227111518383026123e-01 7.422996044158935547e+00 2.190085411071777344e+00 2.584207296371459961e+00
3.634000000000000000e+03 1.516821670532226562e+01 1.161301612854003906e+00 4.608293533325195312e+00 5.200168609619140625e+00 2.942538738250732422e+00 3.008447170257568359e+00
3.635000000000000000e+03 1.352411270141601562e+01 -3.124682664871215820e+00 2.908333301544189453e+00 7.053853511810302734e+00 2.988656044006347656e+00 1.295200943946838379e+00
3.636000000000000000e+03 1.575224971771240234e+01 -3.160293102264404297e+00 3.034178733825683594e+00 4.314625740051269531e+00 2.204641342163085938e+00 1.307373642921447754e+00
3.637000000000000000e+03 1.098446369171142578e+01 -6.228624343872070312e+00 -1.043866038322448730e+00 7.832609653472900391e+00 2.036623001098632812e+00 3.536514759063720703e+00
3.638000000000000000e+03 1.062656402587890625e+01 -5.830524444580078125e+00 -7.725189924240112305e-01 8.040409088134765625e+00 2.180366992950439453e+00 3.666061162948608398e+00
3.639000000000000000e+03 9.401875495910644531e+00 -6.427999496459960938e+00 -1.019529461860656738e+00 7.411011219024658203e+00 1.917444586753845215e+00 3.949990987777709961e+00
3.640000000000000000e+03 1.675722503662109375e+01 -1.470694303512573242e+00 4.056486129760742188e+00 3.549721002578735352e+00 2.281862020492553711e+00 1.640032768249511719e+00
3.641000000000000000e+03 9.315340995788574219e+00 6.732892036437988281e+00 1.670410782098770142e-01 4.548341274261474609e+00 1.414614677429199219e+00 -6.854382753372192383e-01
3.642000000000000000e+03 1.302984142303466797e+01 -4.826773166656494141e+00 6.180447340011596680e-01 7.268827438354492188e+00 2.366061687469482422e+00 2.151689767837524414e+00
3.643000000000000000e+03 1.502385425567626953e+01 -3.490659713745117188e+00 2.680164337158203125e+00 5.070033073425292969e+00 2.325059175491333008e+00 1.325987458229064941e+00
3.644000000000000000e+03 1.134321498870849609e+01 -6.081746578216552734e+00 -9.251591563224792480e-01 7.838494777679443359e+00 2.074000597000122070e+00 3.313067197799682617e+00
3.645000000000000000e+03 1.171772575378417969e+01 -5.840268135070800781e+00 -6.614717245101928711e-01 7.871239185333251953e+00 2.162930250167846680e+00 3.151900529861450195e+00
3.646000000000000000e+03 1.424170780181884766e+01 -3.815279006958007812e+00 2.220965623855590820e+00 6.035647392272949219e+00 2.476984024047851562e+00 1.413803219795227051e+00
3.647000000000000000e+03 9.767061233520507812e+00 6.720500469207763672e+00 1.060546115040779114e-01 4.966204643249511719e+00 1.521677732467651367e+00 -5.314621925354003906e-01
3.648000000000000000e+03 8.574478149414062500e+00 5.716417789459228516e+00 4.298434853553771973e-01 4.048639297485351562e+00 1.343544840812683105e+00 -1.038835883140563965e+00
3.649000000000000000e+03 1.054992771148681641e+01 7.223537445068359375e+00 3.514084219932556152e-02 5.266561031341552734e+00 1.590510487556457520e+00 -1.655269414186477661e-01
3.650000000000000000e+03 1.682714653015136719e+01 -2.467842817306518555e+00 3.490132331848144531e+00 3.451711416244506836e+00 2.082553148269653320e+00 1.365383386611938477e+00
3.651000000000000000e+03 1.445809459686279297e+01 -2.076208114624023438e+00 4.338004112243652344e+00 5.673226833343505859e+00 3.003369331359863281e+00 1.354677557945251465e+00
3.652000000000000000e+03 1.779438018798828125e+01 -1.408468961715698242e+00 3.763841152191162109e+00 2.911099433898925781e+00 2.002482175827026367e+00 1.526510119438171387e+00
3.653000000000000000e+03 1.556984424591064453e+01 -1.029210448265075684e+00 4.727332115173339844e+00 4.498097419738769531e+00 2.767628669738769531e+00 1.866992712020874023e+00
3.654000000000000000e+03 1.887160491943359375e+01 -1.359235405921936035e+00 3.505013704299926758e+00 2.429356336593627930e+00 1.780310988426208496e+00 1.366474747657775879e+00
3.655000000000000000e+03 1.520004844665527344e+01 2.178675383329391479e-01 4.996320247650146484e+00 4.887153625488281250e+00 2.965042114257812500e+00 2.594159841537475586e+00
3.656000000000000000e+03 1.255165672302246094e+01 9.825496673583984375e+00 8.229561150074005127e-02 4.932206630706787109e+00 1.504350662231445312e+00 3.824120759963989258e-01
3.657000000000000000e+03 1.103066539764404297e+01 8.750472068786621094e+00 -7.829775102436542511e-03 4.897627353668212891e+00 1.466939330101013184e+00 -1.396376639604568481e-02
3.658000000000000000e+03 2.180515098571777344e+01 -1.815410703420639038e-02 3.128324985504150391e+00 1.998803019523620605e+00 1.538138389587402344e+00 9.723848700523376465e-01
3.659000000000000000e+03 2.553845787048339844e+01 3.303971290588378906e+00 2.732233762741088867e+00 2.736654043197631836e+00 1.640666365623474121e+00 5.497769117355346680e-01
3.660000000000000000e+03 1.143230533599853516e+01 8.325419425964355469e+00 2.604353800415992737e-02 5.207626819610595703e+00 1.570101022720336914e+00 1.620528995990753174e-01
3.661000000000000000e+03 3.043763351440429688e+01 1.847794651985168457e-01 1.821137189865112305e+00 3.039103269577026367e+00 1.458072185516357422e+00 -7.328024506568908691e-01
3.662000000000000000e+03 2.805958175659179688e+01 -7.643646597862243652e-01 1.979025840759277344e+00 2.318013429641723633e+00 1.289111733436584473e+00 -4.690792858600616455e-01
3.663000000000000000e+03 1.698871040344238281e+01 1.254128551483154297e+01 6.240375041961669922e-01 4.517693996429443359e+00 1.542519450187683105e+00 6.733987331390380859e-01
3.664000000000000000e+03 1.842570686340332031e+01 1.471020221710205078e+01 6.483505964279174805e-01 4.388890743255615234e+00 1.511172413825988770e+00 4.381240308284759521e-01
3.665000000000000000e+03 1.640192794799804688e+01 1.119950389862060547e+01 6.827606558799743652e-01 4.690335273742675781e+00 1.611928820610046387e+00 9.091566801071166992e-01
3.666000000000000000e+03 2.570320892333984375e+01 8.686745643615722656e+00 2.304622173309326172e+00 3.750675916671752930e+00 1.816589355468750000e+00 6.257547140121459961e-01
3.667000000000000000e+03 1.407605266571044922e+01 1.128107738494873047e+01 2.356912642717361450e-01 4.717274188995361328e+00 1.485889673233032227e+00 5.169991850852966309e-01
3.668000000000000000e+03 2.343414688110351562e+01 1.073662567138671875e+01 1.839528203010559082e+00 4.025596141815185547e+00 1.759537339210510254e+00 7.903938293457031250e-01
3.669000000000000000e+03 2.938892173767089844e+01 3.068695306777954102e+00 2.327781438827514648e+00 3.253494739532470703e+00 1.674382925033569336e+00 -2.040832936763763428e-01
3.670000000000000000e+03 2.818590545654296875e+01 3.657820940017700195e+00 2.500440597534179688e+00 3.119287014007568359e+00 1.685918331146240234e+00 6.159674003720283508e-02
3.671000000000000000e+03 2.885265350341796875e+01 -1.646219134330749512e+00 1.647383689880371094e+00 2.384523630142211914e+00 1.209572196006774902e+00 -7.342087030410766602e-01
3.672000000000000000e+03 2.622282409667968750e+01 5.760156631469726562e+00 2.595263242721557617e+00 3.257663726806640625e+00 1.755878090858459473e+00 5.549035072326660156e-01
3.673000000000000000e+03 2.789746475219726562e+01 8.831179738044738770e-01 2.295889377593994141e+00 2.537010192871093750e+00 1.449869871139526367e+00 -2.055263668298721313e-01
3.674000000000000000e+03 2.258293151855468750e+01 3.456994533538818359e+00 2.956295728683471680e+00 2.793726444244384766e+00 1.725006699562072754e+00 1.223860144615173340e+00
3.675000000000000000e+03 2.186657524108886719e+01 1.530379962921142578e+01 1.039695143699645996e+00 4.358322620391845703e+00 1.619405269622802734e+00 3.556059002876281738e-01
3.676000000000000000e+03 2.287403678894042969e+01 1.368148231506347656e+01 1.357680797576904297e+00 4.285045623779296875e+00 1.692817926406860352e+00 4.993889033794403076e-01
3.677000000000000000e+03 1.918459701538085938e+01 1.651545143127441406e+01 5.920630097389221191e-01 4.346495628356933594e+00 1.481567502021789551e+00 2.380979508161544800e-01
3.678000000000000000e+03 2.536153984069824219e+01 7.408932685852050781e+00 2.449004173278808594e+00 3.521037101745605469e+00 1.791012406349182129e+00 7.259849309921264648e-01
3.679000000000000000e+03 2.443631935119628906e+01 9.069444656372070312e+00 2.185287237167358398e+00 3.785418987274169922e+00 1.791211843490600586e+00 7.964231967926025391e-01
3.680000000000000000e+03 2.564848709106445312e+01 2.175567817687988281e+01 5.455241203308105469e-01 4.747457504272460938e+00 1.587894558906555176e+00 -2.587411403656005859e-01
3.681000000000000000e+03 2.190945243835449219e+01 2.028224945068359375e+01 4.964938759803771973e-01 4.461518287658691406e+00 1.487403631210327148e+00 -1.034296974539756775e-01
3.682000000000000000e+03 3.197797012329101562e+01 2.365911293029785156e+01 3.997921943664550781e-01 5.409359455108642578e+00 1.742745518684387207e+00 -3.455121219158172607e-01
3.683000000000000000e+03 1.307680416107177734e+01 3.407650709152221680e+00 1.784099817276000977e+00 7.856868743896484375e+00 2.892290592193603516e+00 2.760165691375732422e+00
3.684000000000000000e+03 8.513077735900878906e+00 5.251687526702880859e+00 5.431790351867675781e-01 4.000559806823730469e+00 1.363121628761291504e+00 -1.151075482368469238e+00
3.685000000000000000e+03 1.313199615478515625e+01 2.941385030746459961e+00 2.324038505554199219e+00 7.956636428833007812e+00 3.084202527999877930e+00 3.117307901382446289e+00
3.686000000000000000e+03 1.236700534820556641e+01 4.182960510253906250e+00 7.829024195671081543e-01 7.867977142333984375e+00 2.595263957977294922e+00 1.748036026954650879e+00
3.687000000000000000e+03 1.358031654357910156e+01 -4.309664726257324219e+00 1.388450503349304199e+00 6.748994827270507812e+00 2.441233634948730469e+00 1.698399424552917480e+00
3.688000000000000000e+03 1.108240509033203125e+01 6.963726997375488281e+00 4.925464466214179993e-02 5.662948131561279297e+00 1.713660836219787598e+00 8.649566024541854858e-02
3.689000000000000000e+03 1.262563896179199219e+01 4.511355876922607422e+00 8.002259135246276855e-01 7.543815612792968750e+00 2.503212451934814453e+00 1.772442936897277832e+00
3.690000000000000000e+03 1.273966789245605469e+01 3.533475399017333984e+00 1.409065961837768555e+00 8.136672973632812500e+00 2.863721847534179688e+00 2.467469930648803711e+00
3.691000000000000000e+03 1.347359085083007812e+01 2.657638311386108398e+00 2.815205574035644531e+00 7.604637622833251953e+00 3.125952959060668945e+00 3.330034255981445312e+00
3.692000000000000000e+03 1.501620864868164062e+01 -1.914969205856323242e+00 4.279045581817626953e+00 4.969714164733886719e+00 2.774627923965454102e+00 1.475271344184875488e+00
3.693000000000000000e+03 8.969247817993164062e+00 5.769513607025146484e+00 3.470008075237274170e-01 4.470363616943359375e+00 1.445209264755249023e+00 -9.682137966156005859e-01
3.694000000000000000e+03 1.465076541900634766e+01 6.449251174926757812e-01 5.154143810272216797e+00 5.509428024291992188e+00 3.199071645736694336e+00 2.960362911224365234e+00
3.695000000000000000e+03 1.185632228851318359e+01 -5.244098663330078125e+00 -2.186853736639022827e-01 8.136711120605468750e+00 2.375407695770263672e+00 2.882376909255981445e+00
3.696000000000000000e+03 1.092133331298828125e+01 5.829154014587402344e+00 7.991998642683029175e-02 6.281078338623046875e+00 1.908299446105957031e+00 4.289713874459266663e-02
3.697000000000000000e+03 1.303485584259033203e+01 -4.270041465759277344e+00 1.163896083831787109e+00 7.553027629852294922e+00 2.615077018737792969e+00 1.861775279045104980e+00
3.698000000000000000e+03 1.190058231353759766e+01 -4.364905357360839844e+00 6.464421153068542480e-01 8.683365821838378906e+00 2.798942327499389648e+00 2.512680768966674805e+00
3.699000000000000000e+03 8.206828117370605469e+00 6.115686416625976562e+00 4.322212040424346924e-01 3.657118082046508789e+00 1.226801753044128418e+00 -9.739791154861450195e-01
3.700000000000000000e+03 1.439789009094238281e+01 2.415478467941284180e+00 3.526886701583862305e+00 6.407656192779541016e+00 2.980362892150878906e+00 3.350081682205200195e+00
3.701000000000000000e+03 1.469289302825927734e+01 -2.745935440063476562e+00 3.536005496978759766e+00 5.457863807678222656e+00 2.698160648345947266e+00 1.277109742164611816e+00
3.702000000000000000e+03 1.531048870086669922e+01 7.352642416954040527e-01 4.773947238922119141e+00 4.935366153717041016e+00 2.912794113159179688e+00 2.794322252273559570e+00
3.703000000000000000e+03 1.467118358612060547e+01 1.071610808372497559e+00 4.831142902374267578e+00 5.636212825775146484e+00 3.140206575393676758e+00 3.151023149490356445e+00
3.704000000000000000e+03 1.075450897216796875e+01 6.318479537963867188e+00 7.105125486850738525e-02 5.846898078918457031e+00 1.775384783744812012e+00 -7.011330872774124146e-02
3.705000000000000000e+03 1.521307563781738281e+01 -4.526368975639343262e-01 5.035080909729003906e+00 4.791100502014160156e+00 2.947854280471801758e+00 2.189558744430541992e+00
3.706000000000000000e+03 1.106603717803955078e+01 8.012486457824707031e+00 1.633593812584877014e-02 5.172222614288330078e+00 1.556567668914794922e+00 4.371128976345062256e-02
3.707000000000000000e+03 1.240783309936523438e+01 8.986985206604003906e+00 9.949304163455963135e-02 5.151911258697509766e+00 1.575421333312988281e+00 4.125864207744598389e-01
3.708000000000000000e+03 1.092923927307128906e+01 7.383266448974609375e+00 3.212135657668113708e-02 5.386853218078613281e+00 1.625692367553710938e+00 -1.389351324178278446e-03
3.709000000000000000e+03 1.016281318664550781e+01 7.156392574310302734e+00 4.442079365253448486e-02 5.069103240966796875e+00 1.534057259559631348e+00 -3.233171105384826660e-01
3.710000000000000000e+03 1.989490699768066406e+01 1.409652233123779297e-01 3.514068365097045898e+00 2.417062282562255859e+00 1.779339194297790527e+00 1.485898971557617188e+00
3.711000000000000000e+03 1.522583770751953125e+01 -2.967287778854370117e+00 3.240259170532226562e+00 4.854474544525146484e+00 2.428420066833496094e+00 1.313157200813293457e+00
3.712000000000000000e+03 1.542712306976318359e+01 -2.436525821685791016e+00 3.778906583786010742e+00 4.590432643890380859e+00 2.510801792144775391e+00 1.377824068069458008e+00
3.713000000000000000e+03 2.105728340148925781e+01 5.375607609748840332e-01 3.304505825042724609e+00 2.261900186538696289e+00 1.669921755790710449e+00 1.268508911132812500e+00
3.714000000000000000e+03 1.883153152465820312e+01 -1.681134402751922607e-01 3.737742424011230469e+00 2.688895225524902344e+00 1.927991271018981934e+00 1.672650456428527832e+00
3.715000000000000000e+03 1.940558624267578125e+01 -6.511388421058654785e-01 3.550835371017456055e+00 2.361259937286376953e+00 1.773628592491149902e+00 1.419864177703857422e+00
3.716000000000000000e+03 1.832537841796875000e+01 -8.253640532493591309e-01 3.792769193649291992e+00 2.768277645111083984e+00 1.968314051628112793e+00 1.595826029777526855e+00
3.717000000000000000e+03 2.284004402160644531e+01 1.895434498786926270e+00 3.036412477493286133e+00 2.381202936172485352e+00 1.625284671783447266e+00 9.994758963584899902e-01
3.718000000000000000e+03 2.560666656494140625e+01 -1.777019165456295013e-02 2.494086027145385742e+00 2.042388439178466797e+00 1.360942363739013672e+00 1.039343029260635376e-01
3.719000000000000000e+03 2.658988189697265625e+01 2.959630489349365234e+00 2.638803243637084961e+00 2.758124828338623047e+00 1.619078397750854492e+00 3.028398752212524414e-01
3.720000000000000000e+03 2.710389137268066406e+01 1.501982331275939941e+00 2.442531347274780273e+00 2.571253776550292969e+00 1.504135608673095703e+00 9.222127497196197510e-03
3.721000000000000000e+03 2.122344017028808594e+01 1.319081592559814453e+01 1.220432519912719727e+00 4.301053047180175781e+00 1.656445622444152832e+00 6.426510214805603027e-01
3.722000000000000000e+03 1.792664146423339844e+01 1.298944282531738281e+01 7.283964157104492188e-01 4.473910331726074219e+00 1.560691952705383301e+00 6.742445230484008789e-01
3.723000000000000000e+03 2.866870880126953125e+01 1.883685469627380371e+00 2.291867017745971680e+00 2.936225891113281250e+00 1.568427920341491699e+00 -2.268870919942855835e-01
3.724000000000000000e+03 2.938170051574707031e+01 1.028453946113586426e+00 2.126644611358642578e+00 2.958590269088745117e+00 1.525570511817932129e+00 -4.191503226757049561e-01
3.725000000000000000e+03 1.380621433258056641e+01 1.026157474517822266e+01 2.462783306837081909e-01 4.938704013824462891e+00 1.555494666099548340e+00 6.223095655441284180e-01
3.726000000000000000e+03 1.477070903778076172e+01 9.894714355468750000e+00 4.725728034973144531e-01 4.966247081756591797e+00 1.631645917892456055e+00 8.978778719902038574e-01
3.727000000000000000e+03 1.549952983856201172e+01 1.156797981262207031e+01 4.599863886833190918e-01 4.706109523773193359e+00 1.549828767776489258e+00 7.240076661109924316e-01
3.728000000000000000e+03 2.153445816040039062e+01 1.495262265205383301e+00 3.225566864013671875e+00 2.420343399047851562e+00 1.693773031234741211e+00 1.292953252792358398e+00
3.729000000000000000e+03 2.383769035339355469e+01 1.203272247314453125e+01 1.676074266433715820e+00 4.162087917327880859e+00 1.751448750495910645e+00 5.949794650077819824e-01
3.730000000000000000e+03 2.315213584899902344e+01 9.412574768066406250e+00 2.014236927032470703e+00 3.897651433944702148e+00 1.773566484451293945e+00 9.468805789947509766e-01
3.731000000000000000e+03 2.701606559753417969e+01 4.135507583618164062e+00 2.606503248214721680e+00 3.027027130126953125e+00 1.690059065818786621e+00 3.206230401992797852e-01
3.732000000000000000e+03 2.176573371887207031e+01 1.402050685882568359e+01 1.176917433738708496e+00 4.313958644866943359e+00 1.647262811660766602e+00 5.256071090698242188e-01
3.733000000000000000e+03 2.502474975585937500e+01 6.123770236968994141e+00 2.595069169998168945e+00 3.283193826675415039e+00 1.763478875160217285e+00 7.948861718177795410e-01
3.734000000000000000e+03 2.980361175537109375e+01 -1.083657503128051758e+00 1.669147133827209473e+00 2.721464633941650391e+00 1.317183613777160645e+00 -7.873132228851318359e-01
3.735000000000000000e+03 2.360795402526855469e+01 2.011655426025390625e+01 6.320156455039978027e-01 4.558825969696044922e+00 1.557252526283264160e+00 -1.223945990204811096e-01
3.736000000000000000e+03 2.016313171386718750e+01 2.027245140075683594e+01 3.755394220352172852e-01 4.349714279174804688e+00 1.417576074600219727e+00 -9.930938482284545898e-02
3.737000000000000000e+03 2.031711959838867188e+01 1.840210151672363281e+01 5.340875983238220215e-01 4.363310337066650391e+00 1.469219326972961426e+00 5.827812105417251587e-02
3.738000000000000000e+03 1.442553901672363281e+01 1.903705000877380371e+00 4.055179119110107422e+00 6.203655719757080078e+00 3.077650547027587891e+00 3.388678550720214844e+00
3.739000000000000000e+03 1.483462905883789062e+01 2.744780302047729492e+00 3.277431249618530273e+00 5.935420036315917969e+00 2.763855457305908203e+00 3.172111272811889648e+00
3.740000000000000000e+03 1.496712875366210938e+01 2.015782520174980164e-02 5.210893630981445312e+00 5.102576255798339844e+00 3.094040870666503906e+00 2.506199836730957031e+00
3.741000000000000000e+03 1.163750743865966797e+01 5.589715480804443359e+00 1.995116472244262695e-01 6.723692893981933594e+00 2.076961278915405273e+00 5.905248522758483887e-01
3.742000000000000000e+03 1.026410770416259766e+01 6.246143341064453125e+00 9.036660939455032349e-02 5.575781345367431641e+00 1.699844360351562500e+00 -3.422363996505737305e-01
3.743000000000000000e+03 1.214611816406250000e+01 4.962596893310546875e+00 4.446244835853576660e-01 7.245350360870361328e+00 2.306992292404174805e+00 1.175987839698791504e+00
3.744000000000000000e+03 1.263577842712402344e+01 4.016735076904296875e+00 1.032533407211303711e+00 7.867276191711425781e+00 2.669942855834960938e+00 2.050733327865600586e+00
3.745000000000000000e+03 1.574386310577392578e+01 2.179852008819580078e+00 3.803691387176513672e+00 5.050443172454833984e+00 2.656240463256835938e+00 2.999356269836425781e+00
3.746000000000000000e+03 8.793794631958007812e+00 -5.769182682037353516e+00 -4.288534522056579590e-01 7.020888805389404297e+00 1.977610588073730469e+00 4.193084716796875000e+00
3.747000000000000000e+03 1.727086830139160156e+01 -8.791119456291198730e-01 4.081308364868164062e+00 3.284293413162231445e+00 2.209680557250976562e+00 1.757099866867065430e+00
3.748000000000000000e+03 1.367105102539062500e+01 2.983027935028076172e+00 2.575109958648681641e+00 7.311315059661865234e+00 2.965927362442016602e+00 3.178493261337280273e+00
3.749000000000000000e+03 1.341454124450683594e+01 3.229120016098022461e+00 2.215952157974243164e+00 7.532619476318359375e+00 2.924571514129638672e+00 2.999421834945678711e+00
3.750000000000000000e+03 1.547115135192871094e+01 -1.947751522064208984e+00 4.131961822509765625e+00 4.544727802276611328e+00 2.603007078170776367e+00 1.491945862770080566e+00
3.751000000000000000e+03 1.489425373077392578e+01 -2.305875301361083984e+00 3.996474266052246094e+00 5.187652587890625000e+00 2.755238056182861328e+00 1.348219513893127441e+00
3.752000000000000000e+03 1.513903808593750000e+01 1.652068853378295898e+00 4.234314441680908203e+00 5.424993515014648438e+00 2.897792577743530273e+00 3.151615142822265625e+00
3.753000000000000000e+03 1.472963428497314453e+01 2.275260686874389648e+00 3.723047018051147461e+00 5.991947650909423828e+00 2.914498567581176758e+00 3.295956134796142578e+00
3.754000000000000000e+03 1.617604827880859375e+01 -1.160661816596984863e+00 4.366167545318603516e+00 3.931061029434204102e+00 2.489168643951416016e+00 1.778270006179809570e+00
3.755000000000000000e+03 1.074631500244140625e+01 7.754596233367919922e+00 1.839685626327991486e-02 5.133491516113281250e+00 1.545566558837890625e+00 -9.612952172756195068e-02
3.756000000000000000e+03 1.064970684051513672e+01 6.803844928741455078e+00 4.373791441321372986e-02 5.513055801391601562e+00 1.667038083076477051e+00 -1.247809305787086487e-01
3.757000000000000000e+03 1.296547222137451172e+01 9.365780830383300781e+00 1.686462610960006714e-01 5.079442024230957031e+00 1.574426531791687012e+00 5.400218963623046875e-01
3.758000000000000000e+03 1.188595962524414062e+01 8.653831481933593750e+00 4.986518621444702148e-02 5.208048820495605469e+00 1.577374219894409180e+00 2.875045835971832275e-01
3.759000000000000000e+03 1.350474262237548828e+01 -4.829693317413330078e+00 8.297334313392639160e-01 6.757918834686279297e+00 2.276295661926269531e+00 1.897454142570495605e+00
3.760000000000000000e+03 1.611320304870605469e+01 5.337386578321456909e-02 4.610149860382080078e+00 4.173847675323486328e+00 2.635199308395385742e+00 2.324723243713378906e+00
3.761000000000000000e+03 2.034080123901367188e+01 1.022572278976440430e+00 3.437464475631713867e+00 2.515870571136474609e+00 1.786000490188598633e+00 1.537091612815856934e+00
3.762000000000000000e+03 1.282241058349609375e+01 1.051964473724365234e+01 1.114797890186309814e-01 4.808764934539794922e+00 1.476073503494262695e+00 3.711814284324645996e-01
3.763000000000000000e+03 2.373805999755859375e+01 1.345475912094116211e+00 2.919364452362060547e+00 2.228059768676757812e+00 1.544227242469787598e+00 7.245787382125854492e-01
3.764000000000000000e+03 2.469291114807128906e+01 7.672615647315979004e-01 2.725833415985107422e+00 2.113455057144165039e+00 1.451786518096923828e+00 4.137322604656219482e-01
3.765000000000000000e+03 2.868839645385742188e+01 1.999240964651107788e-01 2.074173688888549805e+00 2.633504152297973633e+00 1.412303328514099121e+00 -4.309744834899902344e-01
3.766000000000000000e+03 2.642326164245605469e+01 7.760807871818542480e-01 2.481629133224487305e+00 2.292641639709472656e+00 1.432281255722045898e+00 6.434453278779983521e-02
3.767000000000000000e+03 1.530837249755859375e+01 8.668852806091308594e+00 7.425831556320190430e-01 5.153286933898925781e+00 1.768761038780212402e+00 1.280220746994018555e+00
3.768000000000000000e+03 1.747897529602050781e+01 1.128740787506103516e+01 8.706283569335937500e-01 4.579690456390380859e+00 1.635095596313476562e+00 9.676834940910339355e-01
3.769000000000000000e+03 2.719545555114746094e+01 -1.315852347761392593e-02 2.266889095306396484e+00 2.259067535400390625e+00 1.357787013053894043e+00 -2.021503001451492310e-01
3.770000000000000000e+03 2.764227485656738281e+01 2.513781785964965820e+00 2.483908176422119141e+00 2.814464807510375977e+00 1.589511871337890625e+00 3.624932467937469482e-02
3.771000000000000000e+03 2.120933723449707031e+01 3.068669319152832031e+00 3.111213207244873047e+00 2.868441581726074219e+00 1.793896436691284180e+00 1.546855807304382324e+00
3.772000000000000000e+03 1.888968658447265625e+01 1.344927883148193359e+01 8.473153710365295410e-01 4.406811714172363281e+00 1.576238155364990234e+00 6.381985545158386230e-01
3.773000000000000000e+03 1.940095520019531250e+01 1.231165027618408203e+01 1.077183961868286133e+00 4.375191688537597656e+00 1.635712742805480957e+00 8.134482502937316895e-01
3.774000000000000000e+03 2.084414482116699219e+01 1.173788833618164062e+01 1.324598789215087891e+00 4.284615993499755859e+00 1.682764410972595215e+00 8.534819483757019043e-01
3.775000000000000000e+03 1.849721527099609375e+01 1.174924564361572266e+01 1.001646041870117188e+00 4.461032390594482422e+00 1.638803601264953613e+00 9.164644479751586914e-01
3.776000000000000000e+03 2.587107849121093750e+01 4.525153636932373047e+00 2.676839828491210938e+00 3.013747453689575195e+00 1.707176208496093750e+00 5.706868767738342285e-01
3.777000000000000000e+03 2.326754760742187500e+01 1.661974906921386719e+01 1.018547177314758301e+00 4.434970855712890625e+00 1.636055469512939453e+00 1.678058803081512451e-01
3.778000000000000000e+03 2.081371307373046875e+01 1.411214828491210938e+01 1.025788784027099609e+00 4.345466613769531250e+00 1.611376643180847168e+00 5.320100188255310059e-01
3.779000000000000000e+03 2.066804122924804688e+01 1.531109046936035156e+01 8.847492337226867676e-01 4.360586643218994141e+00 1.573600888252258301e+00 3.914459943771362305e-01
3.780000000000000000e+03 2.310555458068847656e+01 1.509902667999267578e+01 1.184415340423583984e+00 4.363452434539794922e+00 1.664360284805297852e+00 3.309846520423889160e-01
3.781000000000000000e+03 2.050419235229492188e+01 1.675050926208496094e+01 7.177384495735168457e-01 4.368731021881103516e+00 1.525940895080566406e+00 2.195121198892593384e-01
3.782000000000000000e+03 2.496221542358398438e+01 1.797280693054199219e+01 9.888350963592529297e-01 4.576192855834960938e+00 1.669508457183837891e+00 -1.983688585460186005e-02
3.783000000000000000e+03 2.385917091369628906e+01 6.454697132110595703e+00 2.544671058654785156e+00 3.362524986267089844e+00 1.772158741950988770e+00 1.023636341094970703e+00
3.784000000000000000e+03 2.416144752502441406e+01 7.772390842437744141e+00 2.355398654937744141e+00 3.600266218185424805e+00 1.786699533462524414e+00 9.161671996116638184e-01
3.785000000000000000e+03 6.812792205810546875e+01 -4.110283279418945312e+01 7.280523180961608887e-01 2.287319898605346680e+00 9.046117067337036133e-01 2.086458355188369751e-01
3.786000000000000000e+03 1.561232376098632812e+01 2.775385284423828125e+01 -1.670829802751541138e-01 3.824991941452026367e+00 1.097372651100158691e+00 -3.752961754798889160e-01
3.787000000000000000e+03 1.347386932373046875e+01 3.119961929321289062e+01 -2.254046499729156494e-01 3.543278932571411133e+00 9.953622817993164062e-01 -3.617288768291473389e-01
3.788000000000000000e+03 1.625922393798828125e+01 -5.263407230377197266e-01 4.514340400695800781e+00 3.959065914154052734e+00 2.542021751403808594e+00 2.024784326553344727e+00
3.789000000000000000e+03 1.021160125732421875e+01 6.728681087493896484e+00 6.644391268491744995e-02 5.279400348663330078e+00 1.603753328323364258e+00 -3.298864960670471191e-01
3.790000000000000000e+03 1.284169101715087891e+01 4.326055049896240234e+00 9.832769632339477539e-01 7.524569511413574219e+00 2.552354097366333008e+00 1.986842036247253418e+00
3.791000000000000000e+03 1.457911777496337891e+01 3.497057914733886719e+00 2.556437730789184570e+00 6.290073394775390625e+00 2.653953313827514648e+00 2.997213602066040039e+00
3.792000000000000000e+03 1.409643936157226562e+01 2.757529258728027344e+00 3.091239213943481445e+00 6.850410461425781250e+00 2.982495069503784180e+00 3.346435785293579102e+00
3.793000000000000000e+03 1.498823451995849609e+01 5.172504186630249023e-01 4.986470222473144531e+00 5.143498897552490234e+00 3.038990736007690430e+00 2.786501884460449219e+00
3.794000000000000000e+03 1.131537914276123047e+01 7.613074302673339844e+00 4.161743819713592529e-02 5.446983337402343750e+00 1.646580219268798828e+00 1.633438766002655029e-01
3.795000000000000000e+03 2.076377487182617188e+01 2.001354932785034180e+00 3.292574167251586914e+00 2.706521034240722656e+00 1.799728512763977051e+00 1.575418949127197266e+00
3.796000000000000000e+03 1.406149387359619141e+01 3.138887643814086914e+00 2.645941734313964844e+00 6.882120132446289062e+00 2.858418464660644531e+00 3.154806852340698242e+00
3.797000000000000000e+03 1.219102859497070312e+01 8.196737289428710938e+00 1.130811870098114014e-01 5.424137115478515625e+00 1.661165595054626465e+00 4.567530155181884766e-01
3.798000000000000000e+03 1.270867061614990234e+01 8.523089408874511719e+00 1.840654760599136353e-01 5.363648414611816406e+00 1.664314270019531250e+00 6.138736009597778320e-01
3.799000000000000000e+03 1.659137725830078125e+01 3.113688230514526367e-01 4.411569595336914062e+00 3.943249940872192383e+00 2.506445884704589844e+00 2.312488555908203125e+00
3.800000000000000000e+03 1.565998172760009766e+01 -6.413337588310241699e-02 4.811259746551513672e+00 4.469249248504638672e+00 2.784152746200561523e+00 2.343488693237304688e+00
3.801000000000000000e+03 1.552546310424804688e+01 3.513770401477813721e-01 4.832243919372558594e+00 4.655140399932861328e+00 2.846215248107910156e+00 2.590758323669433594e+00
3.802000000000000000e+03 1.568074893951416016e+01 1.656799316406250000e+00 4.140534877777099609e+00 4.927519798278808594e+00 2.720416545867919922e+00 2.956417798995971680e+00
3.803000000000000000e+03 1.518984317779541016e+01 2.185042142868041992e+00 3.805787801742553711e+00 5.532637119293212891e+00 2.801527500152587891e+00 3.165755271911621094e+00
3.804000000000000000e+03 1.196356868743896484e+01 7.453282833099365234e+00 1.192529797554016113e-01 5.709127902984619141e+00 1.748514294624328613e+00 4.748304188251495361e-01
3.805000000000000000e+03 1.172820758819580078e+01 7.890081882476806641e+00 6.492385268211364746e-02 5.464526176452636719e+00 1.658835053443908691e+00 3.152865469455718994e-01
3.806000000000000000e+03 1.783080673217773438e+01 -3.326756358146667480e-01 3.996594667434692383e+00 3.073519945144653320e+00 2.121034383773803711e+00 1.836230993270874023e+00
3.807000000000000000e+03 1.927460670471191406e+01 5.748119354248046875e-01 3.657708883285522461e+00 2.697454214096069336e+00 1.906548976898193359e+00 1.728509664535522461e+00
3.808000000000000000e+03 2.201257896423339844e+01 2.487191677093505859e+00 3.101088523864746094e+00 2.634695053100585938e+00 1.720735073089599609e+00 1.303822636604309082e+00
3.809000000000000000e+03 1.576126098632812500e+01 2.746156930923461914e+00 3.381147861480712891e+00 5.202479839324951172e+00 2.575088262557983398e+00 3.001208543777465820e+00
3.810000000000000000e+03 2.329038238525390625e+01 2.843684673309326172e+00 2.968724489212036133e+00 2.571719884872436523e+00 1.662133336067199707e+00 9.992960691452026367e-01
3.811000000000000000e+03 2.621768760681152344e+01 1.787796139717102051e+00 2.612931966781616211e+00 2.453761339187622070e+00 1.520007967948913574e+00 2.402905970811843872e-01
3.812000000000000000e+03 1.445192337036132812e+01 9.057149887084960938e+00 4.875843822956085205e-01 5.187609195709228516e+00 1.702558040618896484e+00 1.019104719161987305e+00
3.813000000000000000e+03 1.362990570068359375e+01 9.415183067321777344e+00 2.671317160129547119e-01 5.141613006591796875e+00 1.622623443603515625e+00 7.233204841613769531e-01
3.814000000000000000e+03 1.614602279663085938e+01 1.026313400268554688e+01 7.228586077690124512e-01 4.807156562805175781e+00 1.659004569053649902e+00 1.047696709632873535e+00
3.815000000000000000e+03 1.427937793731689453e+01 4.051926136016845703e+00 1.941348433494567871e+00 6.565021038055419922e+00 2.551910877227783203e+00 2.716939449310302734e+00
3.816000000000000000e+03 2.027784156799316406e+01 1.039807605743408203e+01 1.518132209777832031e+00 4.235039234161376953e+00 1.725951433181762695e+00 1.122436881065368652e+00
3.817000000000000000e+03 2.173403739929199219e+01 1.225669384002685547e+01 1.393235683441162109e+00 4.243592739105224609e+00 1.691048502922058105e+00 7.555676102638244629e-01
3.818000000000000000e+03 2.449080467224121094e+01 3.631634950637817383e+00 2.806304693222045898e+00 2.774530172348022461e+00 1.674250483512878418e+00 7.945792675018310547e-01
3.819000000000000000e+03 2.234136390686035156e+01 1.132400608062744141e+01 1.653434038162231445e+00 4.128521442413330078e+00 1.734586715698242188e+00 8.359102010726928711e-01
3.820000000000000000e+03 2.191010284423828125e+01 9.426998138427734375e+00 1.892181634902954102e+00 3.984923839569091797e+00 1.763131618499755859e+00 1.101619005203247070e+00
3.821000000000000000e+03 2.187631416320800781e+01 1.677489280700683594e+01 8.541556596755981445e-01 4.400206089019775391e+00 1.576308488845825195e+00 2.033962011337280273e-01
3.822000000000000000e+03 2.270448875427246094e+01 1.238847637176513672e+01 1.511491775512695312e+00 4.197974681854248047e+00 1.712839961051940918e+00 6.620574593544006348e-01
3.823000000000000000e+03 2.472851181030273438e+01 4.854247093200683594e+00 2.714390516281127930e+00 3.016371488571166992e+00 1.719228625297546387e+00 8.114072084426879883e-01
3.824000000000000000e+03 2.302291488647460938e+01 8.085677146911621094e+00 2.253236770629882812e+00 3.689805984497070312e+00 1.782912850379943848e+00 1.093697071075439453e+00
3.825000000000000000e+03 2.018255043029785156e+01 2.457463645935058594e+01 4.442112520337104797e-02 4.335157394409179688e+00 1.313873648643493652e+00 -3.126203715801239014e-01
3.826000000000000000e+03 2.801689338684082031e+01 2.319193649291992188e+01 4.278603196144104004e-01 4.992313861846923828e+00 1.626052260398864746e+00 -3.429377377033233643e-01
3.827000000000000000e+03 2.215800285339355469e+01 2.727714538574218750e+01 -1.146438866853713989e-01 4.514898300170898438e+00 1.320076346397399902e+00 -3.698714077472686768e-01
3.828000000000000000e+03 3.224834060668945312e+01 2.804585647583007812e+01 -1.890828907489776611e-01 5.298858165740966797e+00 1.532932519912719727e+00 -3.015877604484558105e-01
3.829000000000000000e+03 1.220205116271972656e+01 3.445534515380859375e+01 -2.448856681585311890e-01 3.416435003280639648e+00 9.514647722244262695e-01 -2.897297441959381104e-01
3.830000000000000000e+03 1.160731983184814453e+01 3.211198806762695312e+01 -1.996129453182220459e-01 3.324050903320312500e+00 9.373313784599304199e-01 -3.484295606613159180e-01
3.831000000000000000e+03 1.296807003021240234e+01 3.724487686157226562e+01 -3.031494915485382080e-01 3.532136201858520508e+00 9.686959981918334961e-01 -1.960809528827667236e-01
3.832000000000000000e+03 1.192328643798828125e+01 -3.926158523559570312e+01 2.942214347422122955e-02 2.654771327972412109e+00 8.052580356597900391e-01 -1.144234538078308105e-01
3.833000000000000000e+03 2.342552757263183594e+01 1.828836822509765625e+01 8.217319846153259277e-01 4.502687931060791016e+00 1.597325921058654785e+00 1.728595979511737823e-02
3.834000000000000000e+03 5.716538619995117188e+01 -4.098724365234375000e+01 -5.049065351486206055e-01 4.328290462493896484e+00 1.147015094757080078e+00 -4.879275262355804443e-01
3.835000000000000000e+03 2.849876594543457031e+01 -3.532258224487304688e+01 -1.649449110031127930e+00 -9.613841027021408081e-02 -5.236762762069702148e-01 1.274991631507873535e-01
3.836000000000000000e+03 3.982836151123046875e+01 -3.816182327270507812e+01 -1.446586966514587402e+00 2.900726795196533203e+00 4.362419247627258301e-01 6.897596120834350586e-01
3.837000000000000000e+03 4.279059600830078125e+01 -4.116773986816406250e+01 -1.792659044265747070e+00 4.603109359741210938e+00 8.431351780891418457e-01 1.347239613533020020e-01
3.838000000000000000e+03 2.745410919189453125e+01 -3.682917404174804688e+01 -1.336529970169067383e+00 -2.363051474094390869e-01 -4.718505442142486572e-01 1.346373558044433594e-01
3.839000000000000000e+03 2.001892471313476562e+01 2.698656845092773438e+01 -1.169923916459083557e-01 4.320913314819335938e+00 1.261176228523254395e+00 -3.616026341915130615e-01
3.840000000000000000e+03 1.832268905639648438e+01 3.227786636352539062e+01 -3.531467318534851074e-01 4.156873226165771484e+00 1.141117930412292480e+00 -3.289619386196136475e-01
3.841000000000000000e+03 9.122481346130371094e+00 3.780750274658203125e+01 -1.743564456701278687e-01 3.049963235855102539e+00 8.626820445060729980e-01 -1.432915031909942627e-01
3.842000000000000000e+03 7.244091796875000000e+01 -4.119775772094726562e+01 1.262836605310440063e-01 5.089110374450683594e+00 1.564618229866027832e+00 7.412842661142349243e-02
3.843000000000000000e+03 4.182191848754882812e+01 3.506826019287109375e+01 -8.031589388847351074e-01 4.331912994384765625e+00 1.058626174926757812e+00 2.988647222518920898e-01
3.844000000000000000e+03 3.889883804321289062e+01 3.459841537475585938e+01 -8.420540690422058105e-01 4.793202400207519531e+00 1.185344576835632324e+00 9.660355001688003540e-02
3.845000000000000000e+03 1.328193759918212891e+01 3.774159193038940430e+00 1.617761254310607910e+00 7.529097080230712891e+00 2.744057655334472656e+00 2.610059976577758789e+00
3.846000000000000000e+03 1.561915969848632812e+01 1.225775122642517090e+00 4.392017364501953125e+00 4.831442356109619141e+00 2.767037868499755859e+00 2.859208822250366211e+00
3.847000000000000000e+03 1.831044197082519531e+01 2.594409286975860596e-01 3.886307954788208008e+00 3.000349283218383789e+00 2.065997123718261719e+00 1.893110513687133789e+00
3.848000000000000000e+03 1.140147781372070312e+01 6.024472236633300781e+00 1.257678121328353882e-01 6.334471225738525391e+00 1.938071608543395996e+00 3.611983954906463623e-01
3.849000000000000000e+03 1.231952953338623047e+01 5.578726768493652344e+00 3.891109824180603027e-01 6.791532516479492188e+00 2.154192924499511719e+00 1.098540306091308594e+00
3.850000000000000000e+03 1.216192626953125000e+01 7.022244930267333984e+00 1.755949258804321289e-01 5.953749656677246094e+00 1.838803291320800781e+00 6.493517160415649414e-01
3.851000000000000000e+03 1.190629959106445312e+01 5.250877857208251953e+00 3.079096376895904541e-01 7.055225372314453125e+00 2.208940505981445312e+00 8.953765034675598145e-01
3.852000000000000000e+03 1.293064880371093750e+01 4.803821086883544922e+00 8.565067648887634277e-01 7.159256458282470703e+00 2.404728889465332031e+00 1.816371679306030273e+00
3.853000000000000000e+03 1.238471126556396484e+01 4.718455791473388672e+00 6.305680871009826660e-01 7.417361736297607422e+00 2.414378881454467773e+00 1.496939778327941895e+00
3.854000000000000000e+03 1.367056751251220703e+01 3.650593757629394531e+00 1.969694972038269043e+00 7.184176921844482422e+00 2.746161460876464844e+00 2.819332361221313477e+00
3.855000000000000000e+03 1.244959354400634766e+01 7.745549201965332031e+00 1.879466027021408081e-01 5.648951530456542969e+00 1.751069426536560059e+00 6.513983607292175293e-01
3.856000000000000000e+03 1.526332759857177734e+01 2.731661558151245117e+00 3.358872175216674805e+00 5.610959053039550781e+00 2.690949440002441406e+00 3.120297193527221680e+00
3.857000000000000000e+03 1.568350696563720703e+01 -5.312122106552124023e-01 4.801143646240234375e+00 4.403367996215820312e+00 2.761353492736816406e+00 2.108469009399414062e+00
3.858000000000000000e+03 1.187738609313964844e+01 6.321381092071533203e+00 1.824803203344345093e-01 6.290986537933349609e+00 1.942040085792541504e+00 6.223475337028503418e-01
3.859000000000000000e+03 1.151508426666259766e+01 7.187433719635009766e+00 7.198645919561386108e-02 5.719652652740478516e+00 1.737491726875305176e+00 2.932192385196685791e-01
3.860000000000000000e+03 1.548247337341308594e+01 4.488184452056884766e+00 2.143475532531738281e+00 5.621576309204101562e+00 2.329515457153320312e+00 2.615081548690795898e+00
3.861000000000000000e+03 1.446143341064453125e+01 3.140343189239501953e+00 2.810349941253662109e+00 6.430328369140625000e+00 2.772203445434570312e+00 3.159122228622436523e+00
3.862000000000000000e+03 1.411916637420654297e+01 3.572476863861083984e+00 2.250358581542968750e+00 6.758384704589843750e+00 2.702622890472412109e+00 2.917761087417602539e+00
3.863000000000000000e+03 1.569851779937744141e+01 8.776330351829528809e-01 4.581509590148925781e+00 4.672545909881591797e+00 2.776216745376586914e+00 2.749563455581665039e+00
3.864000000000000000e+03 1.686882781982421875e+01 -2.877747714519500732e-01 4.312282085418701172e+00 3.619723320007324219e+00 2.379601716995239258e+00 2.018815755844116211e+00
3.865000000000000000e+03 1.740840721130371094e+01 1.692108660936355591e-01 4.120017051696777344e+00 3.371333599090576172e+00 2.247405052185058594e+00 2.059030294418334961e+00
3.866000000000000000e+03 1.622519683837890625e+01 1.553819417953491211e+00 4.091008186340332031e+00 4.479969978332519531e+00 2.571293354034423828e+00 2.759035348892211914e+00
3.867000000000000000e+03 1.946882629394531250e+01 3.733182430267333984e+00 3.014570236206054688e+00 3.485837459564208984e+00 1.950122237205505371e+00 2.010326862335205078e+00
3.868000000000000000e+03 1.599091148376464844e+01 1.114664316177368164e+00 4.370281696319580078e+00 4.509538173675537109e+00 2.663945913314819336e+00 2.727597475051879883e+00
3.869000000000000000e+03 1.414401149749755859e+01 8.364944458007812500e+00 4.858098030090332031e-01 5.396288871765136719e+00 1.764629602432250977e+00 1.097271203994750977e+00
3.870000000000000000e+03 1.327977561950683594e+01 8.863654136657714844e+00 2.651450335979461670e-01 5.293676853179931641e+00 1.667646527290344238e+00 7.515437602996826172e-01
3.871000000000000000e+03 1.482551479339599609e+01 3.203961372375488281e+00 2.854166030883789062e+00 6.059417724609375000e+00 2.674075126647949219e+00 3.072082996368408203e+00
3.872000000000000000e+03 2.419569969177246094e+01 2.454264879226684570e+00 2.884176731109619141e+00 2.464499950408935547e+00 1.604603052139282227e+00 7.640882730484008789e-01
3.873000000000000000e+03 1.966199684143066406e+01 1.421052932739257812e+00 3.513487339019775391e+00 2.814268827438354492e+00 1.898326873779296875e+00 1.784450650215148926e+00
3.874000000000000000e+03 2.520371627807617188e+01 2.019559860229492188e+00 2.744953870773315430e+00 2.436907291412353516e+00 1.554558277130126953e+00 4.696892201900482178e-01
3.875000000000000000e+03 1.700570297241210938e+01 9.633731842041015625e+00 9.786155819892883301e-01 4.745110988616943359e+00 1.717118024826049805e+00 1.244722127914428711e+00
3.876000000000000000e+03 1.354249477386474609e+01 8.374847412109375000e+00 3.544028103351593018e-01 5.428437709808349609e+00 1.734852194786071777e+00 9.122740030288696289e-01
3.877000000000000000e+03 1.455531215667724609e+01 7.926662445068359375e+00 6.634955406188964844e-01 5.416111469268798828e+00 1.823881983757019043e+00 1.293652057647705078e+00
3.878000000000000000e+03 2.276092720031738281e+01 6.797144889831542969e+00 2.453631877899169922e+00 3.501575946807861328e+00 1.786562323570251465e+00 1.197423696517944336e+00
3.879000000000000000e+03 2.238623809814453125e+01 5.469953060150146484e+00 2.683038711547851562e+00 3.253813028335571289e+00 1.781055569648742676e+00 1.328261494636535645e+00
3.880000000000000000e+03 1.781096649169921875e+01 1.004647254943847656e+01 1.099107503890991211e+00 4.594189167022705078e+00 1.707989096641540527e+00 1.206160306930541992e+00
3.881000000000000000e+03 1.996424102783203125e+01 1.134635639190673828e+01 1.284756898880004883e+00 4.312897682189941406e+00 1.679296374320983887e+00 9.324862957000732422e-01
3.882000000000000000e+03 2.199597740173339844e+01 8.307632446289062500e+00 2.141547203063964844e+00 3.814366579055786133e+00 1.786774158477783203e+00 1.208304643630981445e+00
3.883000000000000000e+03 2.353795433044433594e+01 5.101937770843505859e+00 2.732812881469726562e+00 3.096127748489379883e+00 1.748682141304016113e+00 1.079560756683349609e+00
3.884000000000000000e+03 2.172830963134765625e+01 7.187875747680664062e+00 2.314430236816406250e+00 3.669030189514160156e+00 1.795038104057312012e+00 1.354124426841735840e+00
3.885000000000000000e+03 1.461874008178710938e+01 -4.023927307128906250e+01 1.420885026454925537e-01 7.945600748062133789e-01 2.809945940971374512e-01 1.458728760480880737e-01
3.886000000000000000e+03 2.874161529541015625e+01 2.519483947753906250e+01 1.813037544488906860e-01 5.101213932037353516e+00 1.584755182266235352e+00 -3.842588067054748535e-01
3.887000000000000000e+03 7.441516113281250000e+01 -3.802959442138671875e+01 -2.674284875392913818e-01 6.461555957794189453e+00 1.858238220214843750e+00 -3.147362265735864639e-03
3.888000000000000000e+03 2.535583686828613281e+01 -3.571698760986328125e+01 -1.431526660919189453e+00 -2.138518244028091431e-01 -4.936135411262512207e-01 3.342919647693634033e-01
3.889000000000000000e+03 2.681763076782226562e+01 2.641435050964355469e+01 9.104870259761810303e-03 4.910011291503906250e+00 1.475734829902648926e+00 -3.832655847072601318e-01
3.890000000000000000e+03 2.611167526245117188e+01 2.396117210388183594e+01 2.892949581146240234e-01 4.822954654693603516e+00 1.533674955368041992e+00 -3.328818380832672119e-01
3.891000000000000000e+03 3.371900939941406250e+01 3.319842529296875000e+01 -7.083151340484619141e-01 5.177871704101562500e+00 1.340867042541503906e+00 -1.856432706117630005e-01
3.892000000000000000e+03 3.311986541748046875e+01 3.045484161376953125e+01 -4.814952611923217773e-01 5.254346370697021484e+00 1.431855320930480957e+00 -2.476743459701538086e-01
3.893000000000000000e+03 1.744948959350585938e+01 2.873684692382812500e+01 -2.120292931795120239e-01 4.052906036376953125e+00 1.152263045310974121e+00 -3.663683533668518066e-01
3.894000000000000000e+03 4.760398864746093750e+01 3.833473968505859375e+01 -6.558115482330322266e-01 2.610232830047607422e+00 5.863264203071594238e-01 3.651019334793090820e-01
3.895000000000000000e+03 4.248405075073242188e+01 4.092318725585937500e+01 -9.923846721649169922e-01 3.945112466812133789e+00 8.858183622360229492e-01 7.128486037254333496e-02
3.896000000000000000e+03 4.701839828491210938e+01 -3.818923950195312500e+01 -1.807862401008605957e+00 6.553869247436523438e+00 1.423802137374877930e+00 -1.265249848365783691e-01
3.897000000000000000e+03 1.382884883880615234e+01 4.111614227294921875e+00 1.682534217834472656e+00 6.906122207641601562e+00 2.576596975326538086e+00 2.593073368072509766e+00
3.898000000000000000e+03 1.208599472045898438e+01 5.927508831024169922e+00 2.701646983623504639e-01 6.537338256835937500e+00 2.042250871658325195e+00 8.417686820030212402e-01
3.899000000000000000e+03 1.249256610870361328e+01 5.254397392272949219e+00 5.172542929649353027e-01 6.999293327331542969e+00 2.254964351654052734e+00 1.332311630249023438e+00
3.900000000000000000e+03 1.266773700714111328e+01 5.003847122192382812e+00 6.460441946983337402e-01 7.155847072601318359e+00 2.340567350387573242e+00 1.550749421119689941e+00
3.901000000000000000e+03 1.123201942443847656e+01 6.509254455566406250e+00 7.561865448951721191e-02 5.975617885589599609e+00 1.815370917320251465e+00 2.022244632244110107e-01
3.902000000000000000e+03 1.311339855194091797e+01 4.538398265838623047e+00 1.050256609916687012e+00 7.222828388214111328e+00 2.481925487518310547e+00 2.049875736236572266e+00
3.903000000000000000e+03 1.343127155303955078e+01 4.172194004058837891e+00 1.439724087715148926e+00 7.234869480133056641e+00 2.602378129959106445e+00 2.443264245986938477e+00
3.904000000000000000e+03 1.169419288635253906e+01 6.750783443450927734e+00 1.151258051395416260e-01 6.002368927001953125e+00 1.835248470306396484e+00 4.366768896579742432e-01
3.905000000000000000e+03 1.785701370239257812e+01 6.405140161514282227e-01 3.979580640792846680e+00 3.270315647125244141e+00 2.174968957901000977e+00 2.088751077651977539e+00
3.906000000000000000e+03 1.670356559753417969e+01 1.222133278846740723e+00 4.132040023803710938e+00 4.100199222564697266e+00 2.469671726226806641e+00 2.562494039535522461e+00
3.907000000000000000e+03 2.001624107360839844e+01 2.398535490036010742e+00 3.338784933090209961e+00 2.957300186157226562e+00 1.888825535774230957e+00 1.815141797065734863e+00
3.908000000000000000e+03 1.591086006164550781e+01 5.149071812629699707e-01 4.641694068908691406e+00 4.427829742431640625e+00 2.720857143402099609e+00 2.557513475418090820e+00
3.909000000000000000e+03 1.508720111846923828e+01 7.987549781799316406e+00 8.066775202751159668e-01 5.326239109039306641e+00 1.839875102043151855e+00 1.435497999191284180e+00
3.910000000000000000e+03 1.706179809570312500e+01 7.047537565231323242e-01 4.174675941467285156e+00 3.740076065063476562e+00 2.374425649642944336e+00 2.326337099075317383e+00
3.911000000000000000e+03 2.035313034057617188e+01 3.554960727691650391e+00 3.056027412414550781e+00 3.200196981430053711e+00 1.876867294311523438e+00 1.796397089958190918e+00
3.912000000000000000e+03 1.572199726104736328e+01 3.269770383834838867e+00 3.021098375320434570e+00 5.325666427612304688e+00 2.504029512405395508e+00 2.927162647247314453e+00
3.913000000000000000e+03 1.322103977203369141e+01 7.563690662384033203e+00 3.807052075862884521e-01 5.730999469757080078e+00 1.833511471748352051e+00 1.014641642570495605e+00
3.914000000000000000e+03 1.297558879852294922e+01 8.052777290344238281e+00 2.617086470127105713e-01 5.544790267944335938e+00 1.741949677467346191e+00 7.898893356323242188e-01
3.915000000000000000e+03 2.180861473083496094e+01 4.203553676605224609e+00 2.903136968612670898e+00 3.056478500366210938e+00 1.787884593009948730e+00 1.451070189476013184e+00
3.916000000000000000e+03 1.375335788726806641e+01 7.887960910797119141e+00 4.637885689735412598e-01 5.617057800292968750e+00 1.824253797531127930e+00 1.126816987991333008e+00
3.917000000000000000e+03 1.811107063293457031e+01 1.209980487823486328e+00 3.833134174346923828e+00 3.324961900711059570e+00 2.147428750991821289e+00 2.170096397399902344e+00
3.918000000000000000e+03 1.652504348754882812e+01 8.861675262451171875e+00 1.011919736862182617e+00 4.886851787567138672e+00 1.769631505012512207e+00 1.384880781173706055e+00
3.919000000000000000e+03 1.892745208740234375e+01 9.781234741210937500e+00 1.335015535354614258e+00 4.420415401458740234e+00 1.726629257202148438e+00 1.250668764114379883e+00
3.920000000000000000e+03 1.438815116882324219e+01 4.546509265899658203e+00 1.682078361511230469e+00 6.404381275177001953e+00 2.425937891006469727e+00 2.519178390502929688e+00
3.921000000000000000e+03 2.040296363830566406e+01 6.551948070526123047e+00 2.322750568389892578e+00 3.807480812072753906e+00 1.839069366455078125e+00 1.643442273139953613e+00
3.922000000000000000e+03 2.010148620605468750e+01 9.305704116821289062e+00 1.666781425476074219e+00 4.205593109130859375e+00 1.761712312698364258e+00 1.299614548683166504e+00
3.923000000000000000e+03 2.111184310913085938e+01 8.750241279602050781e+00 1.912824392318725586e+00 3.993377447128295898e+00 1.771860599517822266e+00 1.267076492309570312e+00
3.924000000000000000e+03 2.141069412231445312e+01 1.061338615417480469e+01 1.634428977966308594e+00 4.139288425445556641e+00 1.732115268707275391e+00 9.945245385169982910e-01
3.925000000000000000e+03 2.074324607849121094e+01 7.661600112915039062e+00 2.094028234481811523e+00 3.929444789886474609e+00 1.807041883468627930e+00 1.468337297439575195e+00
3.926000000000000000e+03 2.823707771301269531e+01 2.826697540283203125e+01 -1.873431354761123657e-01 5.012267589569091797e+00 1.447477340698242188e+00 -3.773227632045745850e-01
3.927000000000000000e+03 2.414654922485351562e+01 2.449873733520507812e+01 1.907259374856948853e-01 4.672469139099121094e+00 1.458958625793457031e+00 -3.316398859024047852e-01
3.928000000000000000e+03 2.214620590209960938e+01 2.466157531738281250e+01 1.068450435996055603e-01 4.516779422760009766e+00 1.387087345123291016e+00 -3.159510195255279541e-01
3.929000000000000000e+03 3.621314239501953125e+01 3.345918655395507812e+01 -7.712216973304748535e-01 5.093271732330322266e+00 1.296615004539489746e+00 -8.090648055076599121e-02
3.930000000000000000e+03 2.727859115600585938e+01 -4.133438110351562500e+01 -8.543324470520019531e-01 -5.080261826515197754e-01 -4.087075889110565186e-01 2.488206699490547180e-02
3.931000000000000000e+03 3.078864479064941406e+01 3.393293380737304688e+01 -6.998557448387145996e-01 5.109255313873291016e+00 1.322819828987121582e+00 -2.454535812139511108e-01
3.932000000000000000e+03 1.273554039001464844e+01 5.902474880218505859e+00 4.768093228340148926e-01 6.568741798400878906e+00 2.113665342330932617e+00 1.259644389152526855e+00
3.933000000000000000e+03 1.530599784851074219e+01 3.853935956954956055e+00 2.514987230300903320e+00 5.731590747833251953e+00 2.473973274230957031e+00 2.848445415496826172e+00
3.934000000000000000e+03 1.393406772613525391e+01 7.067995548248291016e+00 6.312727332115173340e-01 5.840881347656250000e+00 1.941646337509155273e+00 1.381195306777954102e+00
3.935000000000000000e+03 1.292498683929443359e+01 6.479150295257568359e+00 4.344300925731658936e-01 6.211503505706787109e+00 1.993780016899108887e+00 1.165158152580261230e+00
3.936000000000000000e+03 1.630531501770019531e+01 7.881031036376953125e-01 4.407422065734863281e+00 4.236773014068603516e+00 2.593258619308471680e+00 2.561619758605957031e+00
3.937000000000000000e+03 1.630378532409667969e+01 2.828856706619262695e+00 3.342723846435546875e+00 4.795826435089111328e+00 2.441565036773681641e+00 2.837129592895507812e+00
3.938000000000000000e+03 1.266458415985107422e+01 7.299057483673095703e+00 2.628307640552520752e-01 5.868530273437500000e+00 1.839408397674560547e+00 8.359650373458862305e-01
3.939000000000000000e+03 1.868827247619628906e+01 9.364065527915954590e-01 3.743260860443115234e+00 3.012434720993041992e+00 2.026708602905273438e+00 1.954063653945922852e+00
3.940000000000000000e+03 1.900142097473144531e+01 1.725489497184753418e+00 3.577350378036499023e+00 3.085273265838623047e+00 1.998787164688110352e+00 2.001761674880981445e+00
3.941000000000000000e+03 1.579608726501464844e+01 3.725382566452026367e+00 2.703386783599853516e+00 5.321873664855957031e+00 2.407578229904174805e+00 2.790266513824462891e+00
3.942000000000000000e+03 1.525111770629882812e+01 3.279397249221801758e+00 2.915275573730468750e+00 5.688869476318359375e+00 2.581243515014648438e+00 2.996540307998657227e+00
3.943000000000000000e+03 1.796191215515136719e+01 3.555732965469360352e+00 3.078856468200683594e+00 4.022177696228027344e+00 2.130310297012329102e+00 2.419678449630737305e+00
3.944000000000000000e+03 1.688116264343261719e+01 2.241311073303222656e+00 3.677321434020996094e+00 4.296577453613281250e+00 2.392169713973999023e+00 2.676601648330688477e+00
3.945000000000000000e+03 1.928268623352050781e+01 2.650303363800048828e+00 3.346154212951660156e+00 3.256637573242187500e+00 1.980837583541870117e+00 2.025442600250244141e+00
3.946000000000000000e+03 1.337587451934814453e+01 7.024498939514160156e+00 4.825578927993774414e-01 5.940268516540527344e+00 1.926847934722900391e+00 1.224382400512695312e+00
3.947000000000000000e+03 1.872227478027343750e+01 8.609526634216308594e+00 1.552104115486145020e+00 4.439860820770263672e+00 1.797589421272277832e+00 1.511042237281799316e+00
3.948000000000000000e+03 1.709733772277832031e+01 7.623687744140625000e+00 1.404774785041809082e+00 4.834712028503417969e+00 1.871846079826354980e+00 1.738820791244506836e+00
3.949000000000000000e+03 1.776332855224609375e+01 9.020568847656250000e+00 1.299520134925842285e+00 4.625386714935302734e+00 1.777472138404846191e+00 1.445160269737243652e+00
3.950000000000000000e+03 2.256572341918945312e+01 -4.125699615478515625e+01 -5.218684673309326172e-01 -6.432926654815673828e-01 -3.495483398437500000e-01 1.360056251287460327e-01
3.951000000000000000e+03 1.284125518798828125e+01 5.303081989288330078e+00 6.292979121208190918e-01 6.890549182891845703e+00 2.255954027175903320e+00 1.521290659904479980e+00
3.952000000000000000e+03 1.392874622344970703e+01 4.567510128021240234e+00 1.471146106719970703e+00 6.702672958374023438e+00 2.452145814895629883e+00 2.407104492187500000e+00
3.953000000000000000e+03 1.282233619689941406e+01 6.862368583679199219e+00 3.318691551685333252e-01 6.059164047241210938e+00 1.917309880256652832e+00 9.969762563705444336e-01
3.954000000000000000e+03 1.233906459808349609e+01 6.609794139862060547e+00 2.514230906963348389e-01 6.171114921569824219e+00 1.926761388778686523e+00 8.219552040100097656e-01
3.955000000000000000e+03 1.772436904907226562e+01 2.234045982360839844e+00 3.578624963760375977e+00 3.778438091278076172e+00 2.207118988037109375e+00 2.407939672470092773e+00
3.956000000000000000e+03 1.722433662414550781e+01 1.689350128173828125e+00 3.861050844192504883e+00 3.913191080093383789e+00 2.332272529602050781e+00 2.502376556396484375e+00
3.957000000000000000e+03 1.478227329254150391e+01 3.959876298904418945e+00 2.270066499710083008e+00 6.120724678039550781e+00 2.517237424850463867e+00 2.816982507705688477e+00
3.958000000000000000e+03 1.491241455078125000e+01 4.566043376922607422e+00 1.901575088500976562e+00 5.989010334014892578e+00 2.367175579071044922e+00 2.564113855361938477e+00
3.959000000000000000e+03 1.616374206542968750e+01 3.404726982116699219e+00 3.011134386062622070e+00 5.005030632019042969e+00 2.404849529266357422e+00 2.818069934844970703e+00
3.960000000000000000e+03 1.610124206542968750e+01 7.239308357238769531e+00 1.242004275321960449e+00 5.162669658660888672e+00 1.921402215957641602e+00 1.777114152908325195e+00
3.961000000000000000e+03 1.443038749694824219e+01 7.149211883544921875e+00 8.143326044082641602e-01 5.664337158203125000e+00 1.943601012229919434e+00 1.545503497123718262e+00
3.962000000000000000e+03 1.441041183471679688e+01 5.005968570709228516e+00 1.484710693359375000e+00 6.296799659729003906e+00 2.334453105926513672e+00 2.338758230209350586e+00
3.963000000000000000e+03 1.632574844360351562e+01 2.154227972030639648e+00 3.775297880172729492e+00 4.561885833740234375e+00 2.501155138015747070e+00 2.809235095977783203e+00
3.964000000000000000e+03 1.483417129516601562e+01 5.114091396331787109e+00 1.603244662284851074e+00 5.967158317565917969e+00 2.271121025085449219e+00 2.354625463485717773e+00
3.965000000000000000e+03 1.683218765258789062e+01 2.845615148544311523e+00 3.365844011306762695e+00 4.502114295959472656e+00 2.360387563705444336e+00 2.726510763168334961e+00
3.966000000000000000e+03 1.755690383911132812e+01 1.122882843017578125e+00 3.956120729446411133e+00 3.563037157058715820e+00 2.255747318267822266e+00 2.288311719894409180e+00
3.967000000000000000e+03 1.800083541870117188e+01 2.896915674209594727e+00 3.314770221710205078e+00 3.814326286315917969e+00 2.138729095458984375e+00 2.363175630569458008e+00
3.968000000000000000e+03 1.693081474304199219e+01 4.484717845916748047e+00 2.539318323135375977e+00 4.733011245727539062e+00 2.181698799133300781e+00 2.504132509231567383e+00
3.969000000000000000e+03 1.832729148864746094e+01 1.950812220573425293e+00 3.614222049713134766e+00 3.431629180908203125e+00 2.113755464553833008e+00 2.220155239105224609e+00
3.970000000000000000e+03 1.995073318481445312e+01 5.458709239959716797e+00 2.578337192535400391e+00 3.725464820861816406e+00 1.891140580177307129e+00 1.845518350601196289e+00
3.971000000000000000e+03 1.554478836059570312e+01 6.123063564300537109e+00 1.429540872573852539e+00 5.487117290496826172e+00 2.074997425079345703e+00 2.072043657302856445e+00
3.972000000000000000e+03 2.083292961120605469e+01 4.796153545379638672e+00 2.775843620300292969e+00 3.381210327148437500e+00 1.847116231918334961e+00 1.683145642280578613e+00
3.973000000000000000e+03 1.775790596008300781e+01 7.587083339691162109e+00 1.600915551185607910e+00 4.614995479583740234e+00 1.864773273468017578e+00 1.736912369728088379e+00
3.974000000000000000e+03 1.975522613525390625e+01 8.168270111083984375e+00 1.856175780296325684e+00 4.155341148376464844e+00 1.803455114364624023e+00 1.515024781227111816e+00
3.975000000000000000e+03 1.605674552917480469e+01 8.207628250122070312e+00 1.047309041023254395e+00 5.046228885650634766e+00 1.828061342239379883e+00 1.523711800575256348e+00
3.976000000000000000e+03 1.411762237548828125e+01 7.533510684967041016e+00 5.801167488098144531e-01 5.644631385803222656e+00 1.867424368858337402e+00 1.278985142707824707e+00
3.977000000000000000e+03 1.947465133666992188e+01 7.082073211669921875e+00 2.059405326843261719e+00 4.125809669494628906e+00 1.855564475059509277e+00 1.720494985580444336e+00
3.978000000000000000e+03 1.725180625915527344e+01 5.160321712493896484e+00 2.312231063842773438e+00 4.659442424774169922e+00 2.091501951217651367e+00 2.335511207580566406e+00
3.979000000000000000e+03 1.356252193450927734e+01 5.027125835418701172e+00 1.073872208595275879e+00 6.733906745910644531e+00 2.342333793640136719e+00 2.024722337722778320e+00
3.980000000000000000e+03 1.448979759216308594e+01 5.431257247924804688e+00 1.296692252159118652e+00 6.099648952484130859e+00 2.218902349472045898e+00 2.132908582687377930e+00
3.981000000000000000e+03 1.399085712432861328e+01 5.015758514404296875e+00 1.307918787002563477e+00 6.506600856781005859e+00 2.344355821609497070e+00 2.222359657287597656e+00
3.982000000000000000e+03 1.727489280700683594e+01 2.608806610107421875e+00 3.467211961746215820e+00 4.141602039337158203e+00 2.282644271850585938e+00 2.584468603134155273e+00
3.983000000000000000e+03 1.708093261718750000e+01 3.477360963821411133e+00 3.085677385330200195e+00 4.483225345611572266e+00 2.270670890808105469e+00 2.649542093276977539e+00
3.984000000000000000e+03 1.634708023071289062e+01 4.833861351013183594e+00 2.248038768768310547e+00 5.102106571197509766e+00 2.205043554306030273e+00 2.496654987335205078e+00
3.985000000000000000e+03 1.854814338684082031e+01 7.492026805877685547e+00 1.787141561508178711e+00 4.411264419555664062e+00 1.859521865844726562e+00 1.735759735107421875e+00
3.986000000000000000e+03 1.732802009582519531e+01 8.289142608642578125e+00 1.344842553138732910e+00 4.729837417602539062e+00 1.822403907775878906e+00 1.584642410278320312e+00
3.987000000000000000e+03 1.915949058532714844e+01 6.098453521728515625e+00 2.275200128555297852e+00 4.096353054046630859e+00 1.911465883255004883e+00 1.912693500518798828e+00
3.988000000000000000e+03 1.485610866546630859e+01 7.456923484802246094e+00 8.554053902626037598e-01 5.531895637512207031e+00 1.916190385818481445e+00 1.566697478294372559e+00
3.989000000000000000e+03 1.474738311767578125e+01 5.901404857635498047e+00 1.204862833023071289e+00 5.918094635009765625e+00 2.136887311935424805e+00 2.019901037216186523e+00
3.990000000000000000e+03 1.650126838684082031e+01 7.608053207397460938e+00 1.277792334556579590e+00 4.993319034576416016e+00 1.881333351135253906e+00 1.715452313423156738e+00
3.991000000000000000e+03 1.653836631774902344e+01 6.991235256195068359e+00 1.470448017120361328e+00 5.014949321746826172e+00 1.945619106292724609e+00 1.900316119194030762e+00
3.992000000000000000e+03 2.135968780517578125e+01 6.006009101867675781e+00 2.525622129440307617e+00 3.540232419967651367e+00 1.819756388664245605e+00 1.522755146026611328e+00
3.993000000000000000e+03 1.932321357727050781e+01 4.729854583740234375e+00 2.744814872741699219e+00 3.739372491836547852e+00 1.945256233215332031e+00 2.011698484420776367e+00
3.994000000000000000e+03 1.302761554718017578e+01 5.656925678253173828e+00 6.255020499229431152e-01 6.668113231658935547e+00 2.188084602355957031e+00 1.504046916961669922e+00
3.995000000000000000e+03 1.364429092407226562e+01 5.419372081756591797e+00 9.559985399246215820e-01 6.513246536254882812e+00 2.240773677825927734e+00 1.868599653244018555e+00
3.996000000000000000e+03 1.394418621063232422e+01 5.920407295227050781e+00 9.234911799430847168e-01 6.191500663757324219e+00 2.134497642517089844e+00 1.795177102088928223e+00
3.997000000000000000e+03 1.317657089233398438e+01 5.132740497589111328e+00 8.473457694053649902e-01 6.861471652984619141e+00 2.312645196914672852e+00 1.798341631889343262e+00
3.998000000000000000e+03 1.604678916931152344e+01 4.232104778289794922e+00 2.473121404647827148e+00 5.241442680358886719e+00 2.314369201660156250e+00 2.671864748001098633e+00
3.999000000000000000e+03 1.332741928100585938e+01 6.537988185882568359e+00 5.503848791122436523e-01 6.135656356811523438e+00 2.005812406539916992e+00 1.342890977859497070e+00
4.000000000000000000e+03 1.308976554870605469e+01 6.208118438720703125e+00 5.452827215194702148e-01 6.346621036529541016e+00 2.067571163177490234e+00 1.355029344558715820e+00
4.001000000000000000e+03 1.432281780242919922e+01 6.203721046447753906e+00 9.842491745948791504e-01 5.985392093658447266e+00 2.090892314910888672e+00 1.812387585639953613e+00
4.002000000000000000e+03 1.755065155029296875e+01 3.134275913238525391e+00 3.252332210540771484e+00 4.131184101104736328e+00 2.215054988861083984e+00 2.528415203094482422e+00
4.003000000000000000e+03 1.575562667846679688e+01 5.150882720947265625e+00 1.901341319084167480e+00 5.463788032531738281e+00 2.209538936614990234e+00 2.409996509552001953e+00
4.004000000000000000e+03 1.770339393615722656e+01 6.711197853088378906e+00 1.840248584747314453e+00 4.591229915618896484e+00 1.929443478584289551e+00 1.939869761466979980e+00
4.005000000000000000e+03 1.656561851501464844e+01 3.854983568191528320e+00 2.821744918823242188e+00 4.828649520874023438e+00 2.295118331909179688e+00 2.668612003326416016e+00
4.006000000000000000e+03 1.858558464050292969e+01 2.792874813079833984e+00 3.333737850189208984e+00 3.557288885116577148e+00 2.067307949066162109e+00 2.222651720046997070e+00
4.007000000000000000e+03 1.863169670104980469e+01 3.702498674392700195e+00 3.024980545043945312e+00 3.808340311050415039e+00 2.049996137619018555e+00 2.248479604721069336e+00
4.008000000000000000e+03 1.707897186279296875e+01 6.863327026367187500e+00 1.626904606819152832e+00 4.850793838500976562e+00 1.943309545516967773e+00 1.931981801986694336e+00
4.009000000000000000e+03 1.839520645141601562e+01 6.494311809539794922e+00 2.039840698242187500e+00 4.371179580688476562e+00 1.923306107521057129e+00 1.942371487617492676e+00
4.010000000000000000e+03 1.859841346740722656e+01 4.581590652465820312e+00 2.748589515686035156e+00 3.968835353851318359e+00 2.015227317810058594e+00 2.200819253921508789e+00
4.011000000000000000e+03 1.564970302581787109e+01 7.640322685241699219e+00 1.027351260185241699e+00 5.244803905487060547e+00 1.881646633148193359e+00 1.624104738235473633e+00
4.012000000000000000e+03 1.502445030212402344e+01 6.467880249023437500e+00 1.124793291091918945e+00 5.665122509002685547e+00 2.036974906921386719e+00 1.870335817337036133e+00
4.013000000000000000e+03 1.367367362976074219e+01 6.308813571929931641e+00 6.957228779792785645e-01 6.132305145263671875e+00 2.048408269882202148e+00 1.521876692771911621e+00
4.014000000000000000e+03 1.334374904632568359e+01 5.985186576843261719e+00 6.615133881568908691e-01 6.389836311340332031e+00 2.115404844284057617e+00 1.522242307662963867e+00
4.015000000000000000e+03 1.634472656250000000e+01 6.399181365966796875e+00 1.585747361183166504e+00 5.120581150054931641e+00 2.011898517608642578e+00 2.043528079986572266e+00
4.016000000000000000e+03 1.814811706542968750e+01 5.632890224456787109e+00 2.282328605651855469e+00 4.324742794036865234e+00 1.982121348381042480e+00 2.110867023468017578e+00
4.017000000000000000e+03 1.690882301330566406e+01 6.149242401123046875e+00 1.836945652961730957e+00 4.881923198699951172e+00 2.015660524368286133e+00 2.118170738220214844e+00
4.018000000000000000e+03 1.582375812530517578e+01 6.705255985260009766e+00 1.325697660446166992e+00 5.310931682586669922e+00 1.990988850593566895e+00 1.915058135986328125e+00
4.019000000000000000e+03 1.607895278930664062e+01 5.785767555236816406e+00 1.730710744857788086e+00 5.256887435913085938e+00 2.096279382705688477e+00 2.214179277420043945e+00
4.020000000000000000e+03 1.522758007049560547e+01 5.528253555297851562e+00 1.565792083740234375e+00 5.717809200286865234e+00 2.185080289840698242e+00 2.252230644226074219e+00
4.021000000000000000e+03 1.789490318298339844e+01 4.811281681060791016e+00 2.574947357177734375e+00 4.305219173431396484e+00 2.064049959182739258e+00 2.299748659133911133e+00
4.022000000000000000e+03 1.752515792846679688e+01 4.094435214996337891e+00 2.818320035934448242e+00 4.336865425109863281e+00 2.146555662155151367e+00 2.454587936401367188e+00
4.023000000000000000e+03 1.664968490600585938e+01 5.475155830383300781e+00 2.024799346923828125e+00 4.987391948699951172e+00 2.103657484054565430e+00 2.309710979461669922e+00
4.024000000000000000e+03 1.751311683654785156e+01 5.904263973236083984e+00 2.068067073822021484e+00 4.624128818511962891e+00 2.007658720016479492e+00 2.147225141525268555e+00
4.025000000000000000e+03 1.531257438659667969e+01 7.065260887145996094e+00 1.058153033256530762e+00 5.459031105041503906e+00 1.955155253410339355e+00 1.733907699584960938e+00
4.026000000000000000e+03 1.879490280151367188e+01 5.314897537231445312e+00 2.458510398864746094e+00 4.081840991973876953e+00 1.962105393409729004e+00 2.060375213623046875e+00
4.027000000000000000e+03 3.136624526977539062e+01 2.610534667968750000e+01 6.203006580471992493e-02 5.286948680877685547e+00 1.604693531990051270e+00 -3.418818712234497070e-01
4.028000000000000000e+03 3.041117668151855469e+01 3.099680709838867188e+01 -4.738686978816986084e-01 5.132106304168701172e+00 1.397471308708190918e+00 -3.086379766464233398e-01
4.029000000000000000e+03 1.631097030639648438e+01 3.521459960937500000e+01 -3.775661885738372803e-01 3.902405500411987305e+00 1.057451844215393066e+00 -2.526749372482299805e-01
4.030000000000000000e+03 8.223537445068359375e+00 4.090896987915039062e+01 -1.483552753925323486e-01 2.950748920440673828e+00 8.407180905342102051e-01 -4.227782785892486572e-02
4.031000000000000000e+03 7.430445861816406250e+01 -3.474835968017578125e+01 -6.078189015388488770e-01 6.923239231109619141e+00 1.894626021385192871e+00 -1.535554230213165283e-01
4.032000000000000000e+03 2.985449981689453125e+01 2.244602966308593750e+01 5.720075964927673340e-01 5.197999477386474609e+00 1.731002211570739746e+00 -3.515517413616180420e-01
4.033000000000000000e+03 1.945090103149414062e+01 2.954786872863769531e+01 -2.538110613822937012e-01 4.258567333221435547e+00 1.201426863670349121e+00 -3.667511045932769775e-01
4.034000000000000000e+03 2.177930068969726562e+01 3.017732048034667969e+01 -2.983330786228179932e-01 4.486255645751953125e+00 1.256376862525939941e+00 -3.686783611774444580e-01
4.035000000000000000e+03 3.746825027465820312e+01 4.074527359008789062e+01 -1.101624727249145508e+00 4.782026290893554688e+00 1.104120492935180664e+00 -3.729166463017463684e-03
4.036000000000000000e+03 1.923299980163574219e+01 3.684828567504882812e+01 -4.973672330379486084e-01 4.206824779510498047e+00 1.112837314605712891e+00 -2.127840369939804077e-01
4.037000000000000000e+03 2.327195739746093750e+01 3.744459152221679688e+01 -6.613054871559143066e-01 4.611502647399902344e+00 1.185059189796447754e+00 -1.781772524118423462e-01
4.038000000000000000e+03 2.746730422973632812e+01 3.756808853149414062e+01 -8.123518824577331543e-01 4.915051937103271484e+00 1.230809926986694336e+00 -1.780878752470016479e-01
4.039000000000000000e+03 3.171240997314453125e+01 3.719418716430664062e+01 -9.296147823333740234e-01 5.057118415832519531e+00 1.238251090049743652e+00 -1.372449398040771484e-01
4.040000000000000000e+03 2.740092468261718750e+01 3.418737792968750000e+01 -6.532627940177917480e-01 4.915932655334472656e+00 1.278800964355468750e+00 -2.771004140377044678e-01
4.041000000000000000e+03 2.395882225036621094e+01 3.396707916259765625e+01 -5.494337081909179688e-01 4.665249824523925781e+00 1.234744906425476074e+00 -3.002961874008178711e-01
4.042000000000000000e+03 2.453990554809570312e+01 3.050220108032226562e+01 -3.415976762771606445e-01 4.726741313934326172e+00 1.315543055534362793e+00 -3.699296414852142334e-01
4.043000000000000000e+03 3.715838789939880371e-01 1.669431090354919434e+00 -2.280264161527156830e-02 -1.483050584793090820e-01 -5.133230984210968018e-02 8.379607647657394409e-02
4.044000000000000000e+03 1.352193802595138550e-01 -2.020437955856323242e+00 9.523347951471805573e-03 -3.379171788692474365e-01 -9.851814806461334229e-02 -1.589298807084560394e-02
4.045000000000000000e+03 1.344454646110534668e+00 -1.949657440185546875e+00 1.065886542201042175e-01 6.025515124201774597e-02 5.005314201116561890e-02 -5.750346556305885315e-02
4.046000000000000000e+03 1.709575295448303223e+00 -1.641404509544372559e+00 9.447230398654937744e-02 5.159645527601242065e-02 4.382062703371047974e-02 -6.465147435665130615e-02
4.047000000000000000e+03 3.653992414474487305e+00 -1.941141128540039062e+00 6.832213401794433594e-01 3.561617434024810791e-01 3.118149340152740479e-01 4.755080640316009521e-01
4.048000000000000000e+03 4.048674583435058594e+00 -1.916278719902038574e+00 8.234871625900268555e-01 3.864980936050415039e-01 3.629955649375915527e-01 5.926769971847534180e-01
4.049000000000000000e+03 4.466865539550781250e+00 -1.920678138732910156e+00 1.072079896926879883e+00 4.717448651790618896e-01 4.631474614143371582e-01 8.325332999229431152e-01
4.050000000000000000e+03 4.823772907257080078e+00 -1.786887407302856445e+00 1.184663891792297363e+00 4.487619996070861816e-01 4.900277554988861084e-01 8.816568851470947266e-01
4.051000000000000000e+03 5.008926391601562500e+00 -1.842243313789367676e+00 1.336057066917419434e+00 5.468004345893859863e-01 5.648572444915771484e-01 1.040010571479797363e+00
4.052000000000000000e+03 5.936836719512939453e+00 -1.897848129272460938e+00 2.189690589904785156e+00 8.160434365272521973e-01 9.017202258110046387e-01 1.735036134719848633e+00
4.053000000000000000e+03 5.911540508270263672e+00 -1.639911174774169922e+00 2.070912361145019531e+00 6.282545924186706543e-01 8.097500801086425781e-01 1.491932630538940430e+00
4.054000000000000000e+03 6.515518665313720703e+00 -1.643104791641235352e+00 2.707083702087402344e+00 8.298160433769226074e-01 1.061069965362548828e+00 1.945605516433715820e+00
4.055000000000000000e+03 6.344653129577636719e+00 -1.939949870109558105e+00 2.586473226547241211e+00 1.072018861770629883e+00 1.097547650337219238e+00 2.154813766479492188e+00
4.056000000000000000e+03 6.560788154602050781e+00 -1.950488448143005371e+00 2.836081504821777344e+00 1.191839694976806641e+00 1.208376288414001465e+00 2.391311407089233398e+00
4.057000000000000000e+03 6.902490139007568359e+00 -1.616469383239746094e+00 3.273995876312255859e+00 1.057176709175109863e+00 1.299351811408996582e+00 2.388985395431518555e+00
4.058000000000000000e+03 7.088713169097900391e+00 -1.838465571403503418e+00 3.459334373474121094e+00 1.454772114753723145e+00 1.474231958389282227e+00 2.855371952056884766e+00
4.059000000000000000e+03 7.404967784881591797e+00 -2.079482316970825195e+00 3.697296619415283203e+00 2.227372407913208008e+00 1.777400612831115723e+00 3.623699188232421875e+00
4.060000000000000000e+03 7.644886970520019531e+00 -1.898117423057556152e+00 4.087042808532714844e+00 2.329822778701782227e+00 1.925059676170349121e+00 3.835665464401245117e+00
4.061000000000000000e+03 8.254894256591796875e+00 -2.046187400817871094e+00 4.443118572235107422e+00 4.151660919189453125e+00 2.578433752059936523e+00 5.184287548065185547e+00
4.062000000000000000e+03 8.731818199157714844e+00 -1.656457424163818359e+00 5.552031040191650391e+00 5.195357322692871094e+00 3.224216699600219727e+00 6.035833835601806641e+00
4.063000000000000000e+03 8.644116401672363281e+00 -2.058623552322387695e+00 4.434215068817138672e+00 5.573384284973144531e+00 3.002279758453369141e+00 5.820001602172851562e+00
4.064000000000000000e+03 9.013850212097167969e+00 -1.836831450462341309e+00 4.972084522247314453e+00 7.214875698089599609e+00 3.656088113784790039e+00 6.539399147033691406e+00
4.065000000000000000e+03 9.061443328857421875e+00 -2.091467618942260742e+00 4.138451099395751953e+00 7.462375164031982422e+00 3.480247974395751953e+00 6.245184898376464844e+00
4.066000000000000000e+03 9.747289657592773438e+00 -1.919280886650085449e+00 3.612402915954589844e+00 1.154572200775146484e+01 4.547437667846679688e+00 6.070644378662109375e+00
4.067000000000000000e+03 1.086953067779541016e+01 -1.746058583259582520e+00 4.128022670745849609e+00 1.370788192749023438e+01 5.350771427154541016e+00 2.123917818069458008e+00
4.068000000000000000e+03 1.073066806793212891e+01 -1.472540736198425293e+00 4.875558376312255859e+00 1.505636501312255859e+01 5.979577064514160156e+00 2.223761081695556641e+00
4.069000000000000000e+03 1.108135223388671875e+01 -1.633052945137023926e+00 4.785395145416259766e+00 1.338609981536865234e+01 5.451448440551757812e+00 1.518766999244689941e+00
4.070000000000000000e+03 1.165762996673583984e+01 -1.187791824340820312e+00 7.083613872528076172e+00 1.139849853515625000e+01 5.544633865356445312e+00 7.403489947319030762e-01
4.071000000000000000e+03 1.211402893066406250e+01 -1.259692907333374023e+00 6.714057922363281250e+00 9.847081184387207031e+00 4.968341827392578125e+00 9.225463271141052246e-01
4.072000000000000000e+03 1.217832469940185547e+01 -5.482422187924385071e-02 8.549638748168945312e+00 9.092177391052246094e+00 5.292544841766357422e+00 3.040381193161010742e+00
4.073000000000000000e+03 1.218910121917724609e+01 4.994004666805267334e-01 7.440812110900878906e+00 9.691676139831542969e+00 5.139746665954589844e+00 4.185149192810058594e+00
4.074000000000000000e+03 1.155593109130859375e+01 5.512093901634216309e-01 7.992888450622558594e+00 1.185835456848144531e+01 5.955372810363769531e+00 4.877847671508789062e+00
4.075000000000000000e+03 1.188906574249267578e+01 4.789684414863586426e-01 8.012324333190917969e+00 1.042520523071289062e+01 5.531259059906005859e+00 4.369324684143066406e+00
4.076000000000000000e+03 1.182509803771972656e+01 6.802989244461059570e-01 7.210842609405517578e+00 1.096974086761474609e+01 5.454174995422363281e+00 4.653218269348144531e+00
4.077000000000000000e+03 1.137078380584716797e+01 9.287068843841552734e-01 5.597119331359863281e+00 1.311363792419433594e+01 5.613227367401123047e+00 4.844222068786621094e+00
4.078000000000000000e+03 1.123134422302246094e+01 1.083769202232360840e+00 4.363421440124511719e+00 1.386753368377685547e+01 5.469286441802978516e+00 4.511448383331298828e+00
4.079000000000000000e+03 1.107544422149658203e+01 2.165214776992797852e+00 1.026045203208923340e+00 1.167605018615722656e+01 3.810628652572631836e+00 1.643109321594238281e+00
4.080000000000000000e+03 1.070311069488525391e+01 1.908945560455322266e+00 7.318211197853088379e-01 1.255788421630859375e+01 3.986911535263061523e+00 7.501233220100402832e-01
4.081000000000000000e+03 9.937924385070800781e+00 2.699349641799926758e+00 4.324247241020202637e-01 8.460875511169433594e+00 2.667989969253540039e+00 -1.526877403259277344e+00
4.082000000000000000e+03 8.897864341735839844e+00 1.598339915275573730e+00 1.748635649681091309e+00 3.543224334716796875e+00 1.587558031082153320e+00 -2.542248487472534180e+00
4.083000000000000000e+03 8.512475013732910156e+00 1.613480925559997559e+00 1.654434442520141602e+00 2.009621381759643555e+00 1.099216818809509277e+00 -1.819129467010498047e+00
4.084000000000000000e+03 8.727640151977539062e+00 1.818779230117797852e+00 1.675169467926025391e+00 3.188209056854248047e+00 1.459013581275939941e+00 -2.276503562927246094e+00
4.085000000000000000e+03 8.365603446960449219e+00 2.071596860885620117e+00 1.522155404090881348e+00 2.452152252197265625e+00 1.192292332649230957e+00 -1.812943696975708008e+00
4.086000000000000000e+03 8.059724807739257812e+00 2.088182687759399414e+00 1.407953143119812012e+00 1.697890639305114746e+00 9.317531585693359375e-01 -1.370783329010009766e+00
4.087000000000000000e+03 8.117867469787597656e+00 1.652004957199096680e+00 1.257790207862854004e+00 1.225310802459716797e+00 7.449303269386291504e-01 -1.104235529899597168e+00
4.088000000000000000e+03 7.743802070617675781e+00 1.865317940711975098e+00 1.052188634872436523e+00 8.301226496696472168e-01 5.646933913230895996e-01 -7.713051438331604004e-01
4.089000000000000000e+03 7.714197158813476562e+00 1.641833901405334473e+00 9.141765236854553223e-01 6.581226587295532227e-01 4.716897606849670410e-01 -6.197690367698669434e-01
4.090000000000000000e+03 7.610940456390380859e+00 1.950473189353942871e+00 1.083278894424438477e+00 9.101000428199768066e-01 5.980136990547180176e-01 -7.557511925697326660e-01
4.091000000000000000e+03 6.135567665100097656e+00 1.809833407402038574e+00 8.824070543050765991e-02 1.022549420595169067e-01 5.714869499206542969e-02 2.044268548488616943e-01
4.092000000000000000e+03 5.555727005004882812e+00 2.009752273559570312e+00 9.444427490234375000e-02 8.127475529909133911e-02 5.271570757031440735e-02 2.859475910663604736e-01
4.093000000000000000e+03 5.199581146240234375e+00 1.968451142311096191e+00 -3.605077276006340981e-03 2.883748896420001984e-02 7.569723296910524368e-03 3.567411899566650391e-01
4.094000000000000000e+03 4.833705902099609375e+00 1.904913544654846191e+00 -1.196438670158386230e-01 5.953477695584297180e-03 -3.410711884498596191e-02 4.063998162746429443e-01
4.095000000000000000e+03 4.869114398956298828e+00 1.635744452476501465e+00 -2.896717190742492676e-01 -1.183858886361122131e-02 -9.045309573411941528e-02 4.121328592300415039e-01
4.096000000000000000e+03 4.559803962707519531e+00 1.742981672286987305e+00 -2.332222163677215576e-01 -1.420808210968971252e-02 -7.422909140586853027e-02 4.359714686870574951e-01
4.097000000000000000e+03 4.503737926483154297e+00 1.584806203842163086e+00 -3.355662226676940918e-01 -2.992809936404228210e-02 -1.096482947468757629e-01 4.368646144866943359e-01
4.098000000000000000e+03 4.317549705505371094e+00 1.603696703910827637e+00 -3.195558190345764160e-01 -2.790258266031742096e-02 -1.042375192046165466e-01 4.438516199588775635e-01
4.099000000000000000e+03 4.184043407440185547e+00 1.857007741928100586e+00 -1.701134294271469116e-01 -3.188532963395118713e-02 -6.059962511062622070e-02 4.440155923366546631e-01
4.100000000000000000e+03 4.004085540771484375e+00 1.943890452384948730e+00 -1.359220743179321289e-01 -3.807326406240463257e-02 -5.219860374927520752e-02 4.425596594810485840e-01
4.101000000000000000e+03 3.810448646545410156e+00 2.005505800247192383e+00 -1.099192798137664795e-01 -4.309494420886039734e-02 -4.590426757931709290e-02 4.436622262001037598e-01
4.102000000000000000e+03 3.612663030624389648e+00 2.085498571395874023e+00 -8.035387098789215088e-02 -5.257269740104675293e-02 -3.987796977162361145e-02 4.388239681720733643e-01
4.103000000000000000e+03 3.105518817901611328e+00 2.206033706665039062e+00 -6.047907099127769470e-02 -8.600798994302749634e-02 -4.394611716270446777e-02 4.330878555774688721e-01
4.104000000000000000e+03 1.828634500503540039e+00 1.971452832221984863e+00 -7.529406994581222534e-02 -1.697385162115097046e-01 -7.350977510213851929e-02 3.482716679573059082e-01
4.105000000000000000e+03 7.159712314605712891e-01 1.638447165489196777e+00 -2.356954477727413177e-02 -1.973984539508819580e-01 -6.629040092229843140e-02 1.523519903421401978e-01
4.106000000000000000e+03 2.237945646047592163e-01 1.745234370231628418e+00 -1.664398424327373505e-02 -1.747163385152816772e-01 -5.740809440612792969e-02 5.456833913922309875e-02
4.107000000000000000e+03 1.038098931312561035e+00 2.553206443786621094e+00 -1.003852020949125290e-02 -3.427784442901611328e-01 -1.058450862765312195e-01 2.456658333539962769e-01
4.108000000000000000e+03 2.562471032142639160e-01 3.676716566085815430e+00 -7.303417660295963287e-04 -7.241238951683044434e-01 -2.174562662839889526e-01 5.931760743260383606e-02
4.109000000000000000e+03 5.968368148803710938e+01 -3.658746337890625000e+01 4.174075648188591003e-02 2.055294752120971680e+00 6.291106343269348145e-01 -1.604758262634277344e+00
4.110000000000000000e+03 4.277504730224609375e+01 -2.167524528503417969e+01 4.461458206176757812e+00 1.490139484405517578e+01 5.808856010437011719e+00 -4.189340591430664062e+00
4.111000000000000000e+03 6.009626007080078125e+01 -3.836352539062500000e+01 3.977321386337280273e-01 1.905524849891662598e+00 6.909770965576171875e-01 -1.058357238769531250e+00
4.112000000000000000e+03 6.739023590087890625e+01 4.134830856323242188e+01 2.356755137443542480e-01 2.279021739959716797e+00 7.544091343879699707e-01 -8.239469677209854126e-02
4.113000000000000000e+03 9.767604470252990723e-01 -2.316812276840209961e+00 8.078354597091674805e-02 -5.467028915882110596e-02 7.833976298570632935e-03 -4.067297279834747314e-02
4.114000000000000000e+03 6.046839714050292969e+00 2.223570346832275391e+00 4.230835139751434326e-01 2.223642468452453613e-01 1.936343312263488770e-01 8.296070992946624756e-02
4.115000000000000000e+03 1.290253043174743652e+00 2.292267560958862305e+00 -2.307465299963951111e-02 -2.652482092380523682e-01 -8.649685978889465332e-02 2.919806838035583496e-01
4.116000000000000000e+03 3.114193916320800781e+00 -2.268286705017089844e+00 5.754097700119018555e-01 4.216008186340332031e-01 2.991031706333160400e-01 4.074532985687255859e-01
4.117000000000000000e+03 3.765944957733154297e+00 -2.868572950363159180e+00 9.176794886589050293e-01 8.040341138839721680e-01 5.165140628814697266e-01 9.526240229606628418e-01
4.118000000000000000e+03 4.022972106933593750e+00 -2.361392974853515625e+00 9.653064012527465820e-01 6.511996388435363770e-01 4.849518239498138428e-01 8.670214414596557617e-01
4.119000000000000000e+03 1.002541542053222656e+01 -2.359019994735717773e+00 2.576907873153686523e+00 1.154473686218261719e+01 4.236493587493896484e+00 4.962218761444091797e+00
4.120000000000000000e+03 3.447591781616210938e+00 2.643296957015991211e+00 8.374964445829391479e-02 -5.535327643156051636e-02 8.518910035490989685e-03 4.050087034702301025e-01
4.121000000000000000e+03 4.626524925231933594e+00 1.935654759407043457e+00 -1.124156787991523743e-01 6.065473426133394241e-03 -3.190506249666213989e-02 4.163723587989807129e-01
4.122000000000000000e+03 5.341287612915039062e+00 2.184966087341308594e+00 1.614781320095062256e-01 8.839917182922363281e-02 7.496318966150283813e-02 2.911303043365478516e-01
4.123000000000000000e+03 2.179032564163208008e+00 1.790264368057250977e+00 -1.370230168104171753e-01 -1.255456656217575073e-01 -7.877060770988464355e-02 3.583779335021972656e-01
4.124000000000000000e+03 5.933501243591308594e+00 1.862554430961608887e+00 9.639877080917358398e-02 1.229648664593696594e-01 6.580909341573715210e-02 2.427171319723129272e-01
4.125000000000000000e+03 5.875809192657470703e+00 2.080054521560668945e+00 2.567269504070281982e-01 1.564982831478118896e-01 1.239675655961036682e-01 1.775439530611038208e-01
4.126000000000000000e+03 5.173071861267089844e+00 -1.935982108116149902e+00 1.570878744125366211e+00 6.024761795997619629e-01 6.520065069198608398e-01 1.227633237838745117e+00
4.127000000000000000e+03 6.702487945556640625e+00 2.444894075393676758e+00 8.373268842697143555e-01 5.856803655624389648e-01 4.269021749496459961e-01 -3.244247436523437500e-01
4.128000000000000000e+03 6.230203628540039062e+00 2.007155895233154297e+00 2.983684241771697998e-01 1.886028647422790527e-01 1.460913866758346558e-01 1.126626431941986084e-01
4.129000000000000000e+03 6.911491870880126953e+00 2.191687345504760742e+00 8.066453337669372559e-01 5.335779190063476562e-01 4.020669758319854736e-01 -3.300699591636657715e-01
4.130000000000000000e+03 7.047285079956054688e+00 2.395226716995239258e+00 9.972506165504455566e-01 7.819531559944152832e-01 5.337611436843872070e-01 -5.405570268630981445e-01
4.131000000000000000e+03 7.294929981231689453e+00 2.011949300765991211e+00 8.780124783515930176e-01 6.254827380180358887e-01 4.510485827922821045e-01 -4.797452092170715332e-01
4.132000000000000000e+03 6.878059864044189453e+00 2.666481733322143555e+00 9.874917864799499512e-01 8.204191923141479492e-01 5.423732995986938477e-01 -5.305618047714233398e-01
4.133000000000000000e+03 7.895637035369873047e+00 1.902344584465026855e+00 1.218670487403869629e+00 1.179405689239501953e+00 7.194228768348693848e-01 -1.002474427223205566e+00
4.134000000000000000e+03 7.773779392242431641e+00 2.024411678314208984e+00 1.254128217697143555e+00 1.185036659240722656e+00 7.317494750022888184e-01 -9.999942779541015625e-01
4.135000000000000000e+03 8.280384063720703125e+00 2.302174568176269531e+00 1.490432500839233398e+00 2.478928089141845703e+00 1.190808176994323730e+00 -1.723436832427978516e+00
4.136000000000000000e+03 7.925107955932617188e+00 2.501369237899780273e+00 1.404435276985168457e+00 1.970848083496093750e+00 1.012585043907165527e+00 -1.406012177467346191e+00
4.137000000000000000e+03 9.407467842102050781e+00 2.300305604934692383e+00 9.941142201423645020e-01 6.667781829833984375e+00 2.298568725585937500e+00 -2.464968204498291016e+00
4.138000000000000000e+03 9.100142478942871094e+00 2.080887556076049805e+00 1.404112219810485840e+00 5.233052253723144531e+00 1.991149306297302246e+00 -2.645011901855468750e+00
4.139000000000000000e+03 9.768088340759277344e+00 2.343785047531127930e+00 6.243857741355895996e-01 8.370163917541503906e+00 2.698364734649658203e+00 -2.045738935470581055e+00
4.140000000000000000e+03 1.039485168457031250e+01 2.408194780349731445e+00 3.186627030372619629e-01 1.032822704315185547e+01 3.194067001342773438e+00 -6.049747467041015625e-01
4.141000000000000000e+03 1.061699485778808594e+01 2.306687593460083008e+00 3.918122053146362305e-01 1.111159801483154297e+01 3.451022863388061523e+00 9.742007404565811157e-02
4.142000000000000000e+03 1.155226516723632812e+01 2.046144247055053711e+00 1.877415895462036133e+00 1.131477642059326172e+01 3.957657575607299805e+00 2.807363271713256836e+00
4.143000000000000000e+03 1.037399864196777344e+01 -1.845679283142089844e+00 3.385862112045288086e+00 1.375521087646484375e+01 5.142322063446044922e+00 3.942287206649780273e+00
4.144000000000000000e+03 8.280571937561035156e+00 -2.509625196456909180e+00 3.540655612945556641e+00 4.938248634338378906e+00 2.543671369552612305e+00 5.239450454711914062e+00
4.145000000000000000e+03 7.454738616943359375e+00 -1.859048485755920410e+00 3.945795297622680664e+00 1.947071313858032227e+00 1.767859935760498047e+00 3.492126703262329102e+00
4.146000000000000000e+03 7.269587039947509766e+00 -1.838628649711608887e+00 3.683729887008666992e+00 1.703001499176025391e+00 1.616019368171691895e+00 3.159320592880249023e+00
4.147000000000000000e+03 6.134736537933349609e+00 -1.916791677474975586e+00 2.350071907043457031e+00 9.292439818382263184e-01 9.837948083877563477e-01 1.910108923912048340e+00
4.148000000000000000e+03 6.119211196899414062e+00 -2.179896354675292969e+00 2.365399122238159180e+00 1.198727726936340332e+00 1.069238066673278809e+00 2.176062345504760742e+00
4.149000000000000000e+03 5.546760082244873047e+00 -2.042566299438476562e+00 1.855536818504333496e+00 7.947002053260803223e-01 7.950711250305175781e-01 1.567919611930847168e+00
4.150000000000000000e+03 1.201771736145019531e+01 3.406587541103363037e-01 8.251540184020996094e+00 9.923719406127929688e+00 5.452578067779541016e+00 3.980490446090698242e+00
4.151000000000000000e+03 1.212982177734375000e+01 1.200022771954536438e-01 8.434469223022460938e+00 9.423919677734375000e+00 5.357516765594482422e+00 3.469174861907958984e+00
4.152000000000000000e+03 1.230150794982910156e+01 4.164873957633972168e-01 7.599112033843994141e+00 9.098196029663085938e+00 5.009192466735839844e+00 3.826224327087402344e+00
4.153000000000000000e+03 1.224267196655273438e+01 -5.234677791595458984e-01 8.285002708435058594e+00 9.090250015258789062e+00 5.212575912475585938e+00 1.977652430534362793e+00
4.154000000000000000e+03 1.227499866485595703e+01 -2.693694233894348145e-01 8.242757797241210938e+00 8.846224784851074219e+00 5.126694679260253906e+00 2.520291328430175781e+00
4.155000000000000000e+03 1.157940673828125000e+01 1.296582221984863281e+00 4.000611782073974609e+00 1.196120929718017578e+01 4.788546085357666016e+00 4.186633110046386719e+00
4.156000000000000000e+03 1.135570621490478516e+01 1.433621406555175781e+00 3.140561342239379883e+00 1.283731365203857422e+01 4.793362617492675781e+00 3.764652252197265625e+00
4.157000000000000000e+03 1.157190132141113281e+01 1.476237893104553223e+00 3.429344415664672852e+00 1.199592781066894531e+01 4.627581596374511719e+00 3.897760868072509766e+00
4.158000000000000000e+03 1.218735218048095703e+01 1.258975863456726074e+00 4.899312973022460938e+00 1.007763481140136719e+01 4.493084430694580078e+00 4.272447109222412109e+00
4.159000000000000000e+03 4.976912498474121094e+00 -2.054887533187866211e+00 1.501111984252929688e+00 6.623138189315795898e-01 6.490277647972106934e-01 1.223293781280517578e+00
4.160000000000000000e+03 7.348196411132812500e+01 -2.780440711975097656e+01 1.247010588645935059e+00 9.310491561889648438e+00 3.167250871658325195e+00 -1.218648627400398254e-01
4.161000000000000000e+03 5.571001434326171875e+01 -2.445333290100097656e+01 1.262476205825805664e+00 3.201102018356323242e+00 1.339073419570922852e+00 2.993381619453430176e-01
4.162000000000000000e+03 6.140695190429687500e+01 -3.706468582153320312e+01 3.347847163677215576e-01 5.354829430580139160e-01 2.610802948474884033e-01 -6.718663573265075684e-01
4.163000000000000000e+03 2.237977743148803711e+00 -2.594713211059570312e+00 3.137908279895782471e-01 3.657737076282501221e-01 2.038693577051162720e-01 2.277136743068695068e-01
4.164000000000000000e+03 3.030136108398437500e+00 -2.522111892700195312e+00 5.910384654998779297e-01 5.405225753784179688e-01 3.394683003425598145e-01 5.064736604690551758e-01
4.165000000000000000e+03 5.893072605133056641e+00 2.506125211715698242e+00 5.425527691841125488e-01 2.967367470264434814e-01 2.517868578433990479e-01 2.208685502409934998e-02
4.166000000000000000e+03 3.372851371765136719e+00 -2.926906108856201172e+00 7.391061186790466309e-01 7.905929088592529297e-01 4.589097201824188232e-01 8.143841028213500977e-01
4.167000000000000000e+03 2.988936662673950195e+00 -2.878979444503784180e+00 5.673065781593322754e-01 6.970782876014709473e-01 3.793154656887054443e-01 5.971173644065856934e-01
4.168000000000000000e+03 4.444035530090332031e+00 -2.541370630264282227e+00 1.233897089958190918e+00 8.174747824668884277e-01 6.154115796089172363e-01 1.185003876686096191e+00
4.169000000000000000e+03 5.172599792480468750e+00 -2.721396446228027344e+00 1.630071997642517090e+00 1.183359861373901367e+00 8.440295457839965820e-01 1.753039717674255371e+00
4.170000000000000000e+03 1.176070404052734375e+01 1.318560123443603516e+00 4.214417934417724609e+00 1.144317054748535156e+01 4.697276592254638672e+00 4.189159870147705078e+00
4.171000000000000000e+03 1.164642333984375000e+01 1.677689671516418457e+00 3.042213201522827148e+00 1.152700901031494141e+01 4.370766639709472656e+00 3.609063386917114258e+00
4.172000000000000000e+03 1.176708316802978516e+01 1.532335638999938965e+00 3.592209577560424805e+00 1.129347133636474609e+01 4.465703964233398438e+00 3.911631584167480469e+00
4.173000000000000000e+03 7.383855819702148438e+00 2.590024948120117188e+00 1.157020688056945801e+00 1.262084722518920898e+00 7.257316112518310547e-01 -8.776062130928039551e-01
4.174000000000000000e+03 6.333193302154541016e+00 2.174575567245483398e+00 5.149754285812377930e-01 2.720528542995452881e-01 2.361084818840026855e-01 -2.145624253898859024e-03
4.175000000000000000e+03 6.403068542480468750e+00 2.341296911239624023e+00 6.429485082626342773e-01 3.926604092121124268e-01 3.106826543807983398e-01 -1.152045130729675293e-01
4.176000000000000000e+03 6.218249797821044922e+00 2.341278076171875000e+00 5.642323493957519531e-01 3.159543275833129883e-01 2.640559971332550049e-01 -2.526134811341762543e-02
4.177000000000000000e+03 5.861730575561523438e+00 -2.341911792755126953e+00 2.153702259063720703e+00 1.133337259292602539e+00 9.861118197441101074e-01 2.047868967056274414e+00
4.178000000000000000e+03 6.509063720703125000e+00 -2.691514253616333008e+00 2.534823656082153320e+00 2.020746469497680664e+00 1.366670966148376465e+00 3.010598659515380859e+00
4.179000000000000000e+03 8.570599555969238281e+00 2.081297636032104492e+00 1.581360936164855957e+00 2.990097284317016602e+00 1.371437430381774902e+00 -2.070267200469970703e+00
4.180000000000000000e+03 1.269270801544189453e+01 5.874199420213699341e-02 7.357636451721191406e+00 8.039096832275390625e+00 4.619019985198974609e+00 3.059492588043212891e+00
4.181000000000000000e+03 1.238412570953369141e+01 4.204699769616127014e-02 8.014531135559082031e+00 8.752395629882812500e+00 5.030077934265136719e+00 3.126067638397216797e+00
4.182000000000000000e+03 9.671032905578613281e+00 2.915695667266845703e+00 5.807924270629882812e-01 7.224959373474121094e+00 2.341725587844848633e+00 -1.774887323379516602e+00
4.183000000000000000e+03 1.013202095031738281e+01 3.027588367462158203e+00 3.180906176567077637e-01 8.339973449707031250e+00 2.597419261932373047e+00 -1.044030308723449707e+00
4.184000000000000000e+03 6.259825229644775391e-01 2.646687746047973633e+00 -4.094336647540330887e-03 -4.144025444984436035e-01 -1.255490630865097046e-01 1.657430529594421387e-01
4.185000000000000000e+03 1.414085030555725098e+00 3.742324113845825195e+00 4.833597689867019653e-02 -4.376697242259979248e-01 -1.168001294136047363e-01 2.608629763126373291e-01
4.186000000000000000e+03 2.222142219543457031e+00 4.286295890808105469e+00 1.927866637706756592e-01 -2.114619165658950806e-01 -5.602575372904539108e-03 2.217413932085037231e-01
4.187000000000000000e+03 5.481109619140625000e+00 2.493072509765625000e+00 3.960192799568176270e-01 1.893726885318756104e-01 1.756175905466079712e-01 1.620714515447616577e-01
4.188000000000000000e+03 6.934195041656494141e+00 3.181829214096069336e+00 1.112531781196594238e+00 1.226199865341186523e+00 7.016195058822631836e-01 -7.465323209762573242e-01
4.189000000000000000e+03 3.172630786895751953e+00 3.143523216247558594e+00 1.640725135803222656e-01 -6.959719210863113403e-02 2.834259718656539917e-02 3.593368530273437500e-01
4.190000000000000000e+03 2.402297973632812500e+00 3.173624992370605469e+00 9.111687541007995605e-02 -1.734538227319717407e-01 -2.470108494162559509e-02 3.610398471355438232e-01
4.191000000000000000e+03 4.412226486206054688e+01 -2.735747528076171875e+01 1.456781148910522461e+00 1.045995903015136719e+01 3.575022220611572266e+00 -1.228832483291625977e+00
4.192000000000000000e+03 1.298624515533447266e+01 -8.432596325874328613e-01 6.744108676910400391e+00 7.551980018615722656e+00 4.288826465606689453e+00 1.788728713989257812e+00
4.193000000000000000e+03 1.233078193664550781e+01 -1.527391195297241211e+00 5.945999145507812500e+00 9.330639839172363281e+00 4.582991600036621094e+00 9.420393109321594238e-01
4.194000000000000000e+03 1.266289710998535156e+01 -6.351056098937988281e-01 7.413769245147705078e+00 8.110654830932617188e+00 4.657327175140380859e+00 1.894411444664001465e+00
4.195000000000000000e+03 1.180214977264404297e+01 1.952774286270141602e+00 2.543728351593017578e+00 1.089632129669189453e+01 4.032014846801757812e+00 3.361272096633911133e+00
4.196000000000000000e+03 9.212534904479980469e+00 2.370454311370849609e+00 1.133450865745544434e+00 5.843361854553222656e+00 2.093043804168701172e+00 -2.459306001663208008e+00
4.197000000000000000e+03 4.027743816375732422e+00 -3.463669967651367188e+01 -5.821249485015869141e-01 9.432104110717773438e+00 2.654993534088134766e+00 4.880666732788085938e-01
4.198000000000000000e+03 3.865003347396850586e+00 -3.643609237670898438e+01 -5.882353186607360840e-01 9.563870429992675781e+00 2.692690610885620117e+00 4.970490038394927979e-01
4.199000000000000000e+03 8.970134735107421875e+00 -2.778450489044189453e+00 2.797576904296875000e+00 7.499703407287597656e+00 3.089184045791625977e+00 5.714890956878662109e+00
4.200000000000000000e+03 9.226152420043945312e+00 -2.912908315658569336e+00 2.302908420562744141e+00 8.318348884582519531e+00 3.186377048492431641e+00 5.497666835784912109e+00
4.201000000000000000e+03 1.002851581573486328e+01 -2.728452682495117188e+00 1.978720903396606445e+00 1.070240497589111328e+01 3.804337739944458008e+00 4.746435165405273438e+00
4.202000000000000000e+03 1.240338230133056641e+01 9.682543873786926270e-01 5.927599430084228516e+00 9.258739471435546875e+00 4.555902004241943359e+00 4.197342872619628906e+00
4.203000000000000000e+03 1.210768032073974609e+01 6.150966286659240723e-01 7.277431011199951172e+00 9.879922866821289062e+00 5.147206306457519531e+00 4.276474952697753906e+00
4.204000000000000000e+03 1.194439220428466797e+01 1.298326015472412109e+00 4.705460071563720703e+00 1.089954948425292969e+01 4.681502819061279297e+00 4.409937858581542969e+00
4.205000000000000000e+03 8.182722091674804688e+00 2.591507673263549805e+00 1.409627795219421387e+00 2.541524648666381836e+00 1.185345768928527832e+00 -1.653002858161926270e+00
4.206000000000000000e+03 7.343988895416259766e+00 2.365302801132202148e+00 1.096981525421142578e+00 1.063967108726501465e+00 6.482845544815063477e-01 -7.461290955543518066e-01
4.207000000000000000e+03 1.206206035614013672e+01 1.859858751296997070e+00 3.159278631210327148e+00 1.032707118988037109e+01 4.045905113220214844e+00 3.684123277664184570e+00
4.208000000000000000e+03 1.288915538787841797e+01 -1.444213464856147766e-02 7.094954013824462891e+00 7.677552223205566406e+00 4.431752204895019531e+00 2.906454086303710938e+00
4.209000000000000000e+03 5.760089111328125000e+01 -1.904286003112792969e+01 -6.812089681625366211e-01 4.298589527606964111e-01 -7.540500164031982422e-02 1.328396558761596680e+00
4.210000000000000000e+03 2.229405212402343750e+01 -3.315209579467773438e+01 -2.201590776443481445e+00 -1.014741584658622742e-01 -6.909194588661193848e-01 4.874054491519927979e-01
4.211000000000000000e+03 2.329119300842285156e+01 -3.422865295410156250e+01 -1.934158921241760254e+00 -1.474908292293548584e-01 -6.244949102401733398e-01 5.501783490180969238e-01
4.212000000000000000e+03 8.288068771362304688e+00 -3.287576436996459961e+00 2.320001840591430664e+00 5.712929248809814453e+00 2.409879446029663086e+00 5.134057998657226562e+00
4.213000000000000000e+03 9.017226219177246094e+00 -3.066777229309082031e+00 2.167516946792602539e+00 7.555360794067382812e+00 2.916863441467285156e+00 5.402307033538818359e+00
4.214000000000000000e+03 3.757441759109497070e+00 -2.411729097366333008e+00 8.315989971160888672e-01 6.081638336181640625e-01 4.319288730621337891e-01 7.491101622581481934e-01
4.215000000000000000e+03 4.274034500122070312e+00 -3.113089799880981445e+00 1.125020146369934082e+00 1.070403814315795898e+00 6.586271524429321289e-01 1.332602024078369141e+00
4.216000000000000000e+03 7.384398651123046875e+01 -3.636314010620117188e+01 -4.208893477916717529e-01 6.341821670532226562e+00 1.776279687881469727e+00 6.716967374086380005e-02
4.217000000000000000e+03 4.125808715820312500e+00 -3.548609924316406250e+01 -5.599348545074462891e-01 9.312681198120117188e+00 2.625823974609375000e+00 3.118470907211303711e-01
4.218000000000000000e+03 7.162147521972656250e+01 -3.449200057983398438e+01 -7.635480165481567383e-01 5.691500663757324219e+00 1.478385806083679199e+00 6.442752480506896973e-01
4.219000000000000000e+03 7.204201221466064453e+00 2.528381586074829102e+00 1.042212009429931641e+00 1.015967726707458496e+00 6.174539327621459961e-01 -6.905514597892761230e-01
4.220000000000000000e+03 1.227387619018554688e+01 1.546141266822814941e+00 4.128416061401367188e+00 9.862725257873535156e+00 4.197342395782470703e+00 4.081321239471435547e+00
4.221000000000000000e+03 7.699331760406494141e+00 2.384527921676635742e+00 1.256417393684387207e+00 1.465098142623901367e+00 8.164546489715576172e-01 -1.083628296852111816e+00
4.222000000000000000e+03 1.582199692726135254e+00 -2.404377222061157227e+00 1.665936857461929321e-01 1.390697956085205078e-01 9.169904142618179321e-02 3.454616293311119080e-02
4.223000000000000000e+03 5.863345623016357422e+00 3.091201066970825195e+00 7.559046745300292969e-01 5.112013816833496094e-01 3.801318407058715820e-01 -1.555865406990051270e-01
4.224000000000000000e+03 5.363138675689697266e+00 3.044447422027587891e+00 5.973364114761352539e-01 3.202807605266571045e-01 2.752851545810699463e-01 4.720409959554672241e-02
4.225000000000000000e+03 7.011816406250000000e+01 -3.474312973022460938e+01 -6.355081796646118164e-01 4.305103302001953125e+00 1.100878596305847168e+00 1.208825469017028809e+00
4.226000000000000000e+03 2.152984142303466797e+00 -3.789307117462158203e+00 3.221118748188018799e-01 7.129706144332885742e-01 3.105247318744659424e-01 5.154330730438232422e-01
4.227000000000000000e+03 1.055029201507568359e+01 2.707787275314331055e+00 3.278701603412628174e-01 9.831592559814453125e+00 3.047838926315307617e+00 -2.275025546550750732e-01
4.228000000000000000e+03 1.199706554412841797e+01 1.568824410438537598e+00 3.760469675064086914e+00 1.065019702911376953e+01 4.323200225830078125e+00 4.009814262390136719e+00
4.229000000000000000e+03 7.293544292449951172e+00 2.839224576950073242e+00 1.237522840499877930e+00 1.364521026611328125e+00 7.806131839752197266e-01 -9.205350279808044434e-01
4.230000000000000000e+03 4.469194412231445312e+00 2.177687168121337891e+00 5.392026156187057495e-03 -2.262123394757509232e-03 9.389708284288644791e-04 3.992892205715179443e-01
4.231000000000000000e+03 1.217698001861572266e+01 2.699014544486999512e-01 8.119448661804199219e+00 9.426024436950683594e+00 5.263641834259033203e+00 3.677235364913940430e+00
4.232000000000000000e+03 1.243781185150146484e+01 3.346817195415496826e-01 7.599703311920166016e+00 8.789224624633789062e+00 4.916678428649902344e+00 3.622560024261474609e+00
4.233000000000000000e+03 1.259866142272949219e+01 5.623183846473693848e-01 6.789324283599853516e+00 8.545150756835937500e+00 4.600342750549316406e+00 3.837927341461181641e+00
4.234000000000000000e+03 4.830968856811523438e+00 2.177177906036376953e+00 8.134703338146209717e-02 4.235972464084625244e-02 3.711202740669250488e-02 3.582533299922943115e-01
4.235000000000000000e+03 5.114379882812500000e+00 2.365396261215209961e+00 2.176885306835174561e-01 8.023610711097717285e-02 8.937738835811614990e-02 2.883467674255371094e-01
4.236000000000000000e+03 4.655573844909667969e+00 2.579438209533691406e+00 2.503986656665802002e-01 8.937052637338638306e-02 1.019307598471641541e-01 3.104820847511291504e-01
4.237000000000000000e+03 4.875119209289550781e+00 2.452548503875732422e+00 2.311283797025680542e-01 7.876489311456680298e-02 9.296798706054687500e-02 3.018816709518432617e-01
4.238000000000000000e+03 6.830132484436035156e+00 -2.372044324874877930e+00 2.951836824417114258e+00 1.940563678741455078e+00 1.467720150947570801e+00 3.117372274398803711e+00
4.239000000000000000e+03 5.751657485961914062e+00 -2.654650688171386719e+00 2.084943056106567383e+00 1.388426899909973145e+00 1.042011022567749023e+00 2.224291801452636719e+00
4.240000000000000000e+03 5.930894851684570312e+00 -2.584260225296020508e+00 2.174380540847778320e+00 1.369149923324584961e+00 1.063059091567993164e+00 2.260418891906738281e+00
4.241000000000000000e+03 6.058173656463623047e+00 -2.424479246139526367e+00 2.274513959884643555e+00 1.320106744766235352e+00 1.078386187553405762e+00 2.264873981475830078e+00
4.242000000000000000e+03 6.072032928466796875e+00 -2.853713512420654297e+00 2.151343345642089844e+00 1.806234836578369141e+00 1.187273383140563965e+00 2.633560180664062500e+00
4.243000000000000000e+03 2.965388870239257812e+01 -3.441141891479492188e+01 -1.904355287551879883e+00 2.590851392596960068e-03 -5.705293416976928711e-01 4.720361903309822083e-02
4.244000000000000000e+03 7.426369476318359375e+01 3.068271827697753906e+01 -2.945953011512756348e-01 7.683848381042480469e+00 2.216775894165039062e+00 6.498704552650451660e-01
4.245000000000000000e+03 4.534569263458251953e+00 -3.320871829986572266e+00 1.166932463645935059e+00 1.333256244659423828e+00 7.500566244125366211e-01 1.568654656410217285e+00
4.246000000000000000e+03 2.869623184204101562e+00 3.754721641540527344e+00 2.426631003618240356e-01 -9.906537085771560669e-02 4.307931661605834961e-02 2.796641290187835693e-01
4.247000000000000000e+03 6.504232406616210938e+00 -3.058734655380249023e+00 2.292995452880859375e+00 2.367642164230346680e+00 1.398191332817077637e+00 3.183760881423950195e+00
4.248000000000000000e+03 1.353471088409423828e+01 -1.032572865486145020e+00 5.966173171997070312e+00 6.709393978118896484e+00 3.802670001983642578e+00 1.732816457748413086e+00
4.249000000000000000e+03 4.137589931488037109e+00 2.153261423110961914e+00 -4.006774723529815674e-02 -1.974247395992279053e-02 -1.794306747615337372e-02 4.207496643066406250e-01
4.250000000000000000e+03 6.746428489685058594e+00 -3.082832813262939453e+00 2.386674404144287109e+00 2.728083372116088867e+00 1.534427404403686523e+00 3.506118059158325195e+00
4.251000000000000000e+03 6.777223110198974609e+00 -2.742141962051391602e+00 2.692579984664916992e+00 2.369567394256591797e+00 1.518644213676452637e+00 3.367372274398803711e+00
4.252000000000000000e+03 2.479629707336425781e+01 -3.428962707519531250e+01 -1.738379120826721191e+00 -1.128703951835632324e-01 -5.553748607635498047e-01 4.147058129310607910e-01
4.253000000000000000e+03 6.034710884094238281e+00 -3.238406372070312500e+01 -1.578758239746093750e+00 8.293670654296875000e+00 2.014473915100097656e+00 8.928899168968200684e-01
4.254000000000000000e+03 2.618407487869262695e+00 -2.764946699142456055e+00 4.471137821674346924e-01 5.222474932670593262e-01 2.908083796501159668e-01 4.127153158187866211e-01
4.255000000000000000e+03 7.967943668365478516e+00 3.247979640960693359e+00 1.227924823760986328e+00 2.678264617919921875e+00 1.171856880187988281e+00 -1.483079791069030762e+00
4.256000000000000000e+03 1.102712345123291016e+01 -2.046774387359619141e+00 3.492309093475341797e+00 1.267201042175292969e+01 4.849296092987060547e+00 2.099083900451660156e+00
4.257000000000000000e+03 1.150613117218017578e+01 -2.043793201446533203e+00 4.001609802246093750e+00 1.160505390167236328e+01 4.681999206542968750e+00 1.362541913986206055e+00
4.258000000000000000e+03 1.256077384948730469e+01 2.061454951763153076e-01 7.525755882263183594e+00 8.455700874328613281e+00 4.794437408447265625e+00 3.327289104461669922e+00
4.259000000000000000e+03 1.317129135131835938e+01 2.755591459572315216e-02 6.837383747100830078e+00 7.270607471466064453e+00 4.232397556304931641e+00 2.922918319702148438e+00
4.260000000000000000e+03 7.503587722778320312e+00 -2.313108921051025391e+00 3.570400714874267578e+00 2.831058025360107422e+00 1.920437693595886230e+00 4.063742637634277344e+00
4.261000000000000000e+03 1.009474754333496094e+01 -3.125086545944213867e+00 1.536370396614074707e+00 1.018122482299804688e+01 3.515278577804565430e+00 4.502152919769287109e+00
4.262000000000000000e+03 1.257592296600341797e+01 -1.436977505683898926e+00 6.014972686767578125e+00 8.623535156250000000e+00 4.391552448272705078e+00 1.078571677207946777e+00
4.263000000000000000e+03 1.112534523010253906e+01 2.785497188568115234e+00 5.905521512031555176e-01 1.014978313446044922e+01 3.222100496292114258e+00 1.032088160514831543e+00
4.264000000000000000e+03 1.054672718048095703e+01 3.132645606994628906e+00 2.642765343189239502e-01 8.909880638122558594e+00 2.752247095108032227e+00 -2.956985235214233398e-01
4.265000000000000000e+03 9.671807289123535156e+00 3.485921621322631836e+00 4.621371030807495117e-01 6.750029087066650391e+00 2.163649797439575195e+00 -1.413172125816345215e+00
4.266000000000000000e+03 5.809607982635498047e+00 -2.924459457397460938e+00 1.961669921875000000e+00 1.730240464210510254e+00 1.107573151588439941e+00 2.437648534774780273e+00
4.267000000000000000e+03 7.754035472869873047e+00 -2.221272230148315430e+00 3.894524097442626953e+00 3.149895668029785156e+00 2.113325834274291992e+00 4.421066284179687500e+00
4.268000000000000000e+03 7.630735397338867188e+00 -2.395043611526489258e+00 3.574862718582153320e+00 3.234879493713378906e+00 2.042922735214233398e+00 4.349993705749511719e+00
4.269000000000000000e+03 7.814765930175781250e+00 -2.831469058990478516e+00 2.994007587432861328e+00 4.168309688568115234e+00 2.148695230484008789e+00 4.684522628784179688e+00
4.270000000000000000e+03 7.083797931671142578e+00 -2.067820072174072266e+00 3.335701227188110352e+00 1.835584759712219238e+00 1.551385760307312012e+00 3.155012607574462891e+00
4.271000000000000000e+03 7.915439128875732422e+00 -3.125103473663330078e+00 2.614342927932739258e+00 4.697711467742919922e+00 2.193616390228271484e+00 4.810311794281005859e+00
4.272000000000000000e+03 8.152401924133300781e+00 -3.648075342178344727e+00 1.861034989356994629e+00 5.643802165985107422e+00 2.251451015472412109e+00 4.905169963836669922e+00
4.273000000000000000e+03 1.680734062194824219e+01 -9.529376029968261719e+00 -2.150879859924316406e+00 1.381776571273803711e+00 -2.307309955358505249e-01 1.922547101974487305e+00
4.274000000000000000e+03 1.135677909851074219e+01 3.130682468414306641e+00 6.130078434944152832e-01 9.459736824035644531e+00 3.021823406219482422e+00 1.227237939834594727e+00
4.275000000000000000e+03 5.054385662078857422e+00 -2.497207069396972656e+01 1.061035037040710449e+00 9.767713546752929688e+00 3.248624563217163086e+00 3.071738481521606445e+00
4.276000000000000000e+03 6.203613662719726562e+01 -1.817123413085937500e+01 -6.275177597999572754e-01 1.274075269699096680e+00 1.939672380685806274e-01 1.602590441703796387e+00
4.277000000000000000e+03 6.092531204223632812e+01 -1.757149887084960938e+01 -8.508561849594116211e-01 1.153796315193176270e+00 9.088204801082611084e-02 1.464704632759094238e+00
4.278000000000000000e+03 4.228842735290527344e+00 3.652898025512695312e+01 -2.699131518602371216e-02 2.505022048950195312e+00 7.434092164039611816e-01 -1.063713431358337402e-01
4.279000000000000000e+03 1.298983573913574219e+01 2.938586616516113281e+01 -1.805849820375442505e-01 3.482181310653686523e+00 9.904789328575134277e-01 -3.922356665134429932e-01
4.280000000000000000e+03 4.774678802490234375e+01 -2.557948303222656250e+01 2.141422986984252930e+00 7.484039306640625000e+00 2.887638568878173828e+00 -2.372262239456176758e+00
4.281000000000000000e+03 4.733631134033203125e+01 -2.842007637023925781e+01 1.667417883872985840e+00 7.675855636596679688e+00 2.802982091903686523e+00 -2.304729700088500977e+00
4.282000000000000000e+03 6.178010177612304688e+01 -1.657624244689941406e+01 -5.691998004913330078e-01 1.227329492568969727e+00 1.974388957023620605e-01 1.242101788520812988e+00
4.283000000000000000e+03 9.002841949462890625e+00 2.309811353683471680e+00 1.347093582153320312e+00 4.979613304138183594e+00 1.898012042045593262e+00 -2.432583808898925781e+00
4.284000000000000000e+03 8.804728507995605469e+00 2.250355243682861328e+00 1.444072604179382324e+00 4.075902462005615234e+00 1.655992627143859863e+00 -2.270131587982177734e+00
4.285000000000000000e+03 1.257484531402587891e+01 -1.724169611930847168e+00 5.306889057159423828e+00 8.720863342285156250e+00 4.208325862884521484e+00 1.018084406852722168e+00
4.286000000000000000e+03 7.037294864654541016e+00 -2.813574790954589844e+00 2.764945030212402344e+00 2.762833118438720703e+00 1.658333420753479004e+00 3.707651138305664062e+00
4.287000000000000000e+03 4.320309162139892578e+00 2.422300338745117188e+00 1.234792545437812805e-01 6.220578216016292572e-03 3.890994936227798462e-02 3.870507180690765381e-01
4.288000000000000000e+03 4.533897399902343750e+00 2.354209423065185547e+00 1.233131438493728638e-01 2.618677541613578796e-02 4.484997317194938660e-02 3.739587366580963135e-01
4.289000000000000000e+03 1.386115264892578125e+01 -8.432928323745727539e-01 5.874715328216552734e+00 6.212234497070312500e+00 3.626084804534912109e+00 1.931424260139465332e+00
4.290000000000000000e+03 1.379554653167724609e+01 -1.403627872467041016e+00 5.369527816772460938e+00 6.411622047424316406e+00 3.534344911575317383e+00 1.508219957351684570e+00
4.291000000000000000e+03 1.256597042083740234e+01 1.827872633934020996e+00 3.699245691299438477e+00 9.146002769470214844e+00 3.853574514389038086e+00 3.834592342376708984e+00
4.292000000000000000e+03 7.826217174530029297e+00 3.599517583847045898e+00 1.141518354415893555e+00 2.647529125213623047e+00 1.136714220046997070e+00 -1.364622950553894043e+00
4.293000000000000000e+03 5.041282272338867188e+01 -2.861933135986328125e+01 1.939693689346313477e+00 6.429479122161865234e+00 2.510751962661743164e+00 -2.273321151733398438e+00
4.294000000000000000e+03 3.472284793853759766e+00 4.046432018280029297e+00 3.602321445941925049e-01 5.773206427693367004e-02 1.253892630338668823e-01 1.914925128221511841e-01
4.295000000000000000e+03 2.758604431152343750e+01 -3.419134902954101562e+01 -1.785900354385375977e+00 -4.117519035935401917e-02 -5.481226444244384766e-01 1.737597286701202393e-01
4.296000000000000000e+03 5.925509643554687500e+01 -2.071171379089355469e+01 1.206597983837127686e-01 1.030281901359558105e+00 3.452825248241424561e-01 1.526372909545898438e+00
4.297000000000000000e+03 4.304540157318115234e+00 2.209661483764648438e+00 8.849251084029674530e-03 -3.165624570101499557e-03 1.705087837763130665e-03 4.013315439224243164e-01
4.298000000000000000e+03 1.087241077423095703e+01 -2.929778337478637695e+00 1.756437540054321289e+00 1.108719253540039062e+01 3.853089094161987305e+00 3.084177732467651367e+00
4.299000000000000000e+03 1.116423606872558594e+01 -2.364808082580566406e+00 2.906834363937377930e+00 1.187291908264160156e+01 4.433926105499267578e+00 2.159462690353393555e+00
4.300000000000000000e+03 1.124801635742187500e+01 -2.649077653884887695e+00 2.450833082199096680e+00 1.121453666687011719e+01 4.099610805511474609e+00 2.275890588760375977e+00
4.301000000000000000e+03 1.179820442199707031e+01 -2.112176656723022461e+00 4.126717090606689453e+00 1.068888854980468750e+01 4.444681644439697266e+00 1.199643611907958984e+00
4.302000000000000000e+03 5.841187000274658203e+00 -3.774059772491455078e+00 1.587659120559692383e+00 2.471745252609252930e+00 1.217821359634399414e+00 2.813020706176757812e+00
4.303000000000000000e+03 7.320738983154296875e+01 2.763356971740722656e+01 1.241602152585983276e-01 7.575159549713134766e+00 2.309795856475830078e+00 5.811802744865417480e-01
4.304000000000000000e+03 4.964386367797851562e+01 -3.093147850036621094e+01 1.188960075378417969e+00 6.670078754425048828e+00 2.357711553573608398e+00 -1.894886612892150879e+00
4.305000000000000000e+03 6.884320735931396484e+00 -2.895445060729980469e+01 -2.114703416824340820e+00 9.346253395080566406e+00 2.169464826583862305e+00 1.745186448097229004e+00
4.306000000000000000e+03 9.150983810424804688e+00 -3.395342350006103516e+00 1.702197074890136719e+00 7.737723827362060547e+00 2.831976175308227539e+00 5.186818122863769531e+00
4.307000000000000000e+03 1.275682544708251953e+01 3.944749832153320312e-01 6.880693435668945312e+00 8.010299682617187500e+00 4.467298030853271484e+00 3.500023126602172852e+00
4.308000000000000000e+03 9.689214706420898438e+00 4.029601097106933594e+00 3.671174347400665283e-01 6.320946693420410156e+00 2.006419181823730469e+00 -1.162302732467651367e+00
4.309000000000000000e+03 7.494079589843750000e+00 -2.477270603179931641e+00 3.370109319686889648e+00 3.103482007980346680e+00 1.942077398300170898e+00 4.184529304504394531e+00
4.310000000000000000e+03 7.734286308288574219e+00 -2.571845531463623047e+00 3.373117923736572266e+00 3.612061977386474609e+00 2.095553874969482422e+00 4.516917228698730469e+00
4.311000000000000000e+03 1.070864391326904297e+01 2.962007522583007812e+00 3.059909641742706299e-01 9.542398452758789062e+00 2.954516887664794922e+00 9.234787523746490479e-02
4.312000000000000000e+03 1.090211200714111328e+01 2.884733200073242188e+00 4.226059317588806152e-01 9.849447250366210938e+00 3.081615924835205078e+00 5.258440971374511719e-01
4.313000000000000000e+03 9.916337966918945312e+00 4.327980995178222656e+00 2.663052082061767578e-01 6.418629169464111328e+00 2.005480289459228516e+00 -8.886706233024597168e-01
4.314000000000000000e+03 6.640450954437255859e+00 -3.325111150741577148e+00 2.125193595886230469e+00 2.894199848175048828e+00 1.505818009376525879e+00 3.480142354965209961e+00
4.315000000000000000e+03 1.616158676147460938e+01 -8.954181671142578125e+00 -1.827841281890869141e+00 2.613512277603149414e+00 2.357012927532196045e-01 2.272173404693603516e+00
4.316000000000000000e+03 4.789253234863281250e+00 -1.681441307067871094e+01 1.707244813442230225e-01 7.267664909362792969e+00 2.231516838073730469e+00 -8.324360847473144531e-02
4.317000000000000000e+03 6.038244724273681641e+00 3.365544557571411133e+00 8.822256326675415039e-01 7.048001885414123535e-01 4.761077463626861572e-01 -3.249891400337219238e-01
4.318000000000000000e+03 9.658169746398925781e+00 -3.814437627792358398e+00 9.266045093536376953e-01 8.652163505554199219e+00 2.873630523681640625e+00 4.650681018829345703e+00
4.319000000000000000e+03 1.310776996612548828e+01 1.333563804626464844e+00 4.928297042846679688e+00 7.925071239471435547e+00 3.856010437011718750e+00 3.873482942581176758e+00
4.320000000000000000e+03 1.335200405120849609e+01 7.371196746826171875e-01 5.883293628692626953e+00 7.249479293823242188e+00 3.939831972122192383e+00 3.540968418121337891e+00
4.321000000000000000e+03 4.949923706054687500e+01 -1.819959068298339844e+01 -6.088131070137023926e-01 6.189441680908203125e+00 1.674188494682312012e+00 -7.622458338737487793e-01
4.322000000000000000e+03 6.431396484375000000e+01 -1.640761756896972656e+01 -8.614292740821838379e-02 1.612565994262695312e+00 4.579269289970397949e-01 1.063257336616516113e+00
4.323000000000000000e+03 3.958129882812500000e+01 2.576393890380859375e+01 1.491613686084747314e-01 5.774984359741210938e+00 1.777243733406066895e+00 3.891742527484893799e-01
4.324000000000000000e+03 4.697271347045898438e+01 -1.726115989685058594e+01 -9.456369280815124512e-01 7.837348461151123047e+00 2.067513465881347656e+00 -7.417989373207092285e-01
4.325000000000000000e+03 4.621387863159179688e+01 -1.676715850830078125e+01 -9.283919334411621094e-01 8.047331809997558594e+00 2.135681867599487305e+00 -7.608062028884887695e-01
4.326000000000000000e+03 4.449547290802001953e+00 3.056799888610839844e+00 3.635643720626831055e-01 1.051400378346443176e-01 1.406113207340240479e-01 2.515383660793304443e-01
4.327000000000000000e+03 5.094258880615234375e+01 -2.279856109619140625e+01 1.353865385055541992e+00 5.156839370727539062e+00 1.953211426734924316e+00 -1.519871115684509277e+00
4.328000000000000000e+03 5.783697605133056641e+00 -4.103670597076416016e+00 1.353885531425476074e+00 2.782962322235107422e+00 1.241054415702819824e+00 2.892088890075683594e+00
4.329000000000000000e+03 7.252370834350585938e+00 -3.177713632583618164e+00 2.462243556976318359e+00 3.558365345001220703e+00 1.806182622909545898e+00 4.106697559356689453e+00
4.330000000000000000e+03 7.397630691528320312e+00 -2.732102870941162109e+00 2.974145650863647461e+00 3.192632198333740234e+00 1.850033402442932129e+00 4.085218429565429688e+00
4.331000000000000000e+03 6.834547996520996094e+00 -2.786988639831542969e+01 -1.502327799797058105e+00 1.007178592681884766e+01 2.570837497711181641e+00 2.132231235504150391e+00
4.332000000000000000e+03 7.472939014434814453e+00 -3.088962078094482422e+00 2.621583223342895508e+00 3.828445196151733398e+00 1.935008525848388672e+00 4.345625877380371094e+00
4.333000000000000000e+03 8.374799728393554688e+00 -3.911286354064941406e+00 1.437832236289978027e+00 6.207321643829345703e+00 2.293546199798583984e+00 4.862774848937988281e+00
4.334000000000000000e+03 1.440326118469238281e+01 -1.476658105850219727e+00 4.973168849945068359e+00 5.628383159637451172e+00 3.180465698242187500e+00 1.586645722389221191e+00
4.335000000000000000e+03 1.442689037322998047e+01 -9.160772562026977539e-01 5.417083740234375000e+00 5.519169330596923828e+00 3.280875921249389648e+00 1.927787899971008301e+00
4.336000000000000000e+03 8.333774566650390625e+00 4.061594486236572266e+00 8.841550350189208984e-01 3.704272508621215820e+00 1.376528263092041016e+00 -1.455594062805175781e+00
4.337000000000000000e+03 8.574532508850097656e+00 3.946461439132690430e+00 8.464268445968627930e-01 4.104549407958984375e+00 1.485292792320251465e+00 -1.530578494071960449e+00
4.338000000000000000e+03 1.246617126464843750e+01 -2.385354518890380859e+00 3.893969297409057617e+00 9.027730941772460938e+00 3.876510143280029297e+00 1.181182980537414551e+00
4.339000000000000000e+03 1.312021923065185547e+01 3.168111145496368408e-01 6.575675487518310547e+00 7.409589290618896484e+00 4.195579528808593750e+00 3.251644611358642578e+00
4.340000000000000000e+03 1.324211120605468750e+01 1.028279185295104980e+00 5.462124824523925781e+00 7.561117649078369141e+00 3.906972646713256836e+00 3.749375343322753906e+00
4.341000000000000000e+03 1.365708351135253906e+01 1.195969104766845703e+00 5.063400745391845703e+00 6.988149166107177734e+00 3.615464925765991211e+00 3.616806507110595703e+00
4.342000000000000000e+03 3.229185485839843750e+01 -1.277299690246582031e+01 -1.714424610137939453e+00 1.550571441650390625e+00 -4.915596172213554382e-02 -9.873127937316894531e-01
4.343000000000000000e+03 6.635822296142578125e+01 -1.553840351104736328e+01 2.776647210121154785e-01 2.278575897216796875e+00 7.668722271919250488e-01 6.592681407928466797e-01
4.344000000000000000e+03 5.125547409057617188e+00 -3.897694349288940430e+00 1.275706648826599121e+00 2.121217727661132812e+00 1.019077301025390625e+00 2.331818342208862305e+00
4.345000000000000000e+03 1.111476325988769531e+01 -3.398672103881835938e+00 1.250286698341369629e+00 1.021507167816162109e+01 3.439607620239257812e+00 2.914360046386718750e+00
4.346000000000000000e+03 1.125077247619628906e+01 -2.879960775375366211e+00 2.031469583511352539e+00 1.080779266357421875e+01 3.851778745651245117e+00 2.470456123352050781e+00
4.347000000000000000e+03 1.151251411437988281e+01 -2.657971858978271484e+00 2.600811719894409180e+00 1.086318588256835938e+01 4.039199352264404297e+00 1.948858022689819336e+00
4.348000000000000000e+03 1.150876522064208984e+01 -2.932767868041992188e+00 2.153095960617065430e+00 1.044754505157470703e+01 3.780192375183105469e+00 2.166278362274169922e+00
4.349000000000000000e+03 6.667174339294433594e+00 -3.751711606979370117e+00 1.801663637161254883e+00 3.335341453552246094e+00 1.541101574897766113e+00 3.605194330215454102e+00
4.350000000000000000e+03 3.721576690673828125e+00 9.186755180358886719e+00 1.408347040414810181e-01 8.501996994018554688e-01 2.973103225231170654e-01 -4.482842385768890381e-01
4.351000000000000000e+03 7.833799839019775391e+00 -3.573498249053955078e+00 2.010733366012573242e+00 4.958308696746826172e+00 2.090712785720825195e+00 4.678606033325195312e+00
4.352000000000000000e+03 7.649374961853027344e+00 -3.803250551223754883e+00 1.802261114120483398e+00 4.783237934112548828e+00 1.975649714469909668e+00 4.498076915740966797e+00
4.353000000000000000e+03 6.147295475006103516e+00 3.645363092422485352e+00 9.136498570442199707e-01 9.096636176109313965e-01 5.469940304756164551e-01 -4.448133707046508789e-01
4.354000000000000000e+03 4.659754562377929688e+01 -1.605283737182617188e+01 -1.209283947944641113e+00 7.909392356872558594e+00 2.010032415390014648e+00 -7.127596735954284668e-01
4.355000000000000000e+03 1.071730422973632812e+01 -3.771744966506958008e+00 7.615966796875000000e-01 9.784165382385253906e+00 3.163728475570678711e+00 3.544086694717407227e+00
4.356000000000000000e+03 1.038508415222167969e+01 4.445191860198974609e+00 1.752333194017410278e-01 6.967974662780761719e+00 2.142962455749511719e+00 -4.201764166355133057e-01
4.357000000000000000e+03 1.416662120819091797e+01 4.547942429780960083e-03 5.853790760040283203e+00 5.874435424804687500e+00 3.518467903137207031e+00 2.635609865188598633e+00
4.358000000000000000e+03 1.382708072662353516e+01 2.243664413690567017e-01 5.962434291839599609e+00 6.358897209167480469e+00 3.696399211883544922e+00 2.901742696762084961e+00
4.359000000000000000e+03 1.418497562408447266e+01 9.847407937049865723e-01 5.103110313415527344e+00 6.186724185943603516e+00 3.386950254440307617e+00 3.306578397750854492e+00
4.360000000000000000e+03 1.267390727996826172e+01 -9.397722244262695312e+00 -2.619499444961547852e+00 6.256458282470703125e+00 1.091087698936462402e+00 3.436530351638793945e+00
4.361000000000000000e+03 1.188021373748779297e+01 -2.580079793930053711e+00 3.128113031387329102e+00 1.028633499145507812e+01 4.024334430694580078e+00 1.499607563018798828e+00
4.362000000000000000e+03 7.473185729980468750e+01 -3.154484748840332031e+00 1.748389154672622681e-01 7.614120960235595703e+00 2.336688041687011719e+00 -4.458638429641723633e-01
4.363000000000000000e+03 1.108058071136474609e+01 3.350852966308593750e+00 3.520189225673675537e-01 8.990032196044921875e+00 2.802615404129028320e+00 5.825369358062744141e-01
4.364000000000000000e+03 1.813483428955078125e+01 2.657425689697265625e+01 -1.152193769812583923e-01 4.119952678680419922e+00 1.201419949531555176e+00 -3.580890893936157227e-01
4.365000000000000000e+03 1.654824638366699219e+01 2.606540298461914062e+01 -1.115908473730087280e-01 3.965846776962280273e+00 1.156276822090148926e+00 -3.639931380748748779e-01
4.366000000000000000e+03 7.319218444824218750e+01 9.484860420227050781e+00 -1.982304006814956665e-01 9.246888160705566406e+00 2.714597463607788086e+00 4.949251711368560791e-01
4.367000000000000000e+03 7.847302913665771484e+00 -3.993210792541503906e+00 1.535441040992736816e+00 5.262695789337158203e+00 2.039441108703613281e+00 4.599866390228271484e+00
4.368000000000000000e+03 8.308135986328125000e+00 -4.226680755615234375e+00 1.118414282798767090e+00 6.207944869995117188e+00 2.197907686233520508e+00 4.737156391143798828e+00
4.369000000000000000e+03 4.456806659698486328e+00 4.470283508300781250e+00 5.505867600440979004e-01 4.222947657108306885e-01 2.918644547462463379e-01 -5.302336439490318298e-02
4.370000000000000000e+03 3.837321519851684570e+00 5.224530220031738281e+00 4.222333431243896484e-01 3.469722270965576172e-01 2.307616621255874634e-01 -7.516171783208847046e-02
4.371000000000000000e+03 7.285369110107421875e+01 -5.923475742340087891e+00 2.626490034162998199e-02 7.397053241729736328e+00 2.226995468139648438e+00 -1.606114208698272705e-01
4.372000000000000000e+03 1.205450820922851562e+01 -8.327024459838867188e+00 -2.111731052398681641e+00 6.855258941650390625e+00 1.423058390617370605e+00 3.423834562301635742e+00
4.373000000000000000e+03 1.151731872558593750e+01 -3.196169376373291016e+00 1.702229857444763184e+00 1.010320472717285156e+01 3.541630268096923828e+00 2.332750082015991211e+00
4.374000000000000000e+03 4.496641635894775391e+00 -4.401822090148925781e+00 8.631818890571594238e-01 2.125320434570312500e+00 8.965506553649902344e-01 1.966899752616882324e+00
4.375000000000000000e+03 1.232111930847167969e+01 -2.597717046737670898e+00 3.358560562133789062e+00 9.297257423400878906e+00 3.796745300292968750e+00 1.259961605072021484e+00
4.376000000000000000e+03 1.271841430664062500e+01 -2.609597444534301758e+00 3.461772680282592773e+00 8.377096176147460938e+00 3.551660537719726562e+00 1.198792457580566406e+00
4.377000000000000000e+03 8.580847740173339844e+00 4.494611263275146484e+00 7.068198919296264648e-01 4.137257575988769531e+00 1.453223228454589844e+00 -1.359876155853271484e+00
4.378000000000000000e+03 1.152162933349609375e+01 -3.794682025909423828e+00 1.038683891296386719e+00 9.477445602416992188e+00 3.154839038848876953e+00 2.579943180084228516e+00
4.379000000000000000e+03 7.111258029937744141e+00 -3.657021760940551758e+00 1.880989074707031250e+00 3.862856626510620117e+00 1.723153710365295410e+00 4.015794754028320312e+00
4.380000000000000000e+03 7.269870281219482422e+00 -3.851024866104125977e+00 1.753273010253906250e+00 4.217264652252197266e+00 1.791161298751831055e+00 4.156569957733154297e+00
4.381000000000000000e+03 7.690535068511962891e+00 -4.257764339447021484e+00 1.288080215454101562e+00 5.179990768432617188e+00 1.940421223640441895e+00 4.431398391723632812e+00
4.382000000000000000e+03 7.987160682678222656e+00 -3.773196458816528320e+00 1.763722062110900879e+00 5.374327659606933594e+00 2.141414880752563477e+00 4.738087177276611328e+00
4.383000000000000000e+03 1.385505580902099609e+01 2.001544475555419922e+00 3.879031896591186523e+00 6.936712741851806641e+00 3.244723320007324219e+00 3.535970687866210938e+00
4.384000000000000000e+03 7.934828281402587891e+00 -4.422154903411865234e+00 1.045772433280944824e+00 5.660692691802978516e+00 2.011939525604248047e+00 4.527525901794433594e+00
4.385000000000000000e+03 4.028843307495117188e+01 -2.080706119537353516e+00 3.499066829681396484e-01 5.884954929351806641e+00 1.870458483695983887e+00 -2.230936050415039062e+00
4.386000000000000000e+03 9.587126731872558594e+00 5.049849987030029297e+00 2.851520478725433350e-01 5.506567955017089844e+00 1.737515926361083984e+00 -9.107229709625244141e-01
4.387000000000000000e+03 1.116749382019042969e+01 -4.106341838836669922e+00 5.132401585578918457e-01 9.335109710693359375e+00 2.954504966735839844e+00 3.089717149734497070e+00
4.388000000000000000e+03 1.499371910095214844e+01 -1.542076110839843750e+00 4.665891170501708984e+00 4.957571983337402344e+00 2.887038946151733398e+00 1.651037573814392090e+00
4.389000000000000000e+03 1.275072288513183594e+01 2.817464351654052734e+00 2.170829534530639648e+00 8.521249771118164062e+00 3.207623720169067383e+00 3.061065196990966797e+00
4.390000000000000000e+03 2.965151405334472656e+01 -1.070317935943603516e+01 -1.768280029296875000e+00 1.265411019325256348e+00 -1.508607268333435059e-01 -9.357889890670776367e-01
4.391000000000000000e+03 1.146578407287597656e+01 -9.320361137390136719e+00 -2.609578371047973633e+00 7.199756145477294922e+00 1.377053260803222656e+00 3.502140998840332031e+00
4.392000000000000000e+03 5.097274303436279297e+00 -4.601135253906250000e+00 1.008484125137329102e+00 2.501623392105102539e+00 1.053032159805297852e+00 2.452234745025634766e+00
4.393000000000000000e+03 6.025359153747558594e+00 4.226067066192626953e+00 8.769909143447875977e-01 1.071293592453002930e+00 5.844853520393371582e-01 -5.080434679985046387e-01
4.394000000000000000e+03 6.392233371734619141e+00 4.302538394927978516e+00 9.278121590614318848e-01 1.410052299499511719e+00 7.013593316078186035e-01 -6.894972920417785645e-01
4.395000000000000000e+03 6.243022441864013672e+00 5.083539009094238281e+00 7.974869012832641602e-01 1.562768578529357910e+00 7.080766558647155762e-01 -7.102048397064208984e-01
4.396000000000000000e+03 4.292394638061523438e+00 5.194903850555419922e+00 5.065763592720031738e-01 5.137690901756286621e-01 3.061036467552185059e-01 -1.506178975105285645e-01
4.397000000000000000e+03 1.676496696472167969e+01 2.445035934448242188e+01 -3.536094352602958679e-02 4.010549545288085938e+00 1.192556619644165039e+00 -3.348116576671600342e-01
4.398000000000000000e+03 1.138905429840087891e+01 -7.955688953399658203e+00 -1.974502205848693848e+00 7.268923282623291016e+00 1.588326334953308105e+00 3.502798557281494141e+00
4.399000000000000000e+03 5.239895343780517578e+00 -5.051251411437988281e+00 6.835654377937316895e-01 3.074635744094848633e+00 1.127460360527038574e+00 2.583361387252807617e+00
4.400000000000000000e+03 5.599218368530273438e+00 -4.826654434204101562e+00 8.206818103790283203e-01 3.208608150482177734e+00 1.208786964416503906e+00 2.836337089538574219e+00
4.401000000000000000e+03 7.263991832733154297e+00 -4.322042465209960938e+00 1.282636642456054688e+00 4.587386131286621094e+00 1.761006832122802734e+00 4.114237308502197266e+00
4.402000000000000000e+03 8.749799728393554688e+00 4.750555038452148438e+00 5.836509466171264648e-01 4.388110160827636719e+00 1.491528272628784180e+00 -1.258610010147094727e+00
4.403000000000000000e+03 9.015112876892089844e+00 4.623847961425781250e+00 5.304353237152099609e-01 4.817941665649414062e+00 1.604513049125671387e+00 -1.251733183860778809e+00
4.404000000000000000e+03 1.273137283325195312e+01 -3.110953092575073242e+00 2.573107481002807617e+00 8.308937072753906250e+00 3.264613151550292969e+00 1.402474164962768555e+00
4.405000000000000000e+03 8.158200263977050781e+00 -3.879324197769165039e+00 1.544057726860046387e+00 5.811711788177490234e+00 2.206730842590332031e+00 4.809726238250732422e+00
4.406000000000000000e+03 4.615469455718994141e+00 4.755693435668945312e+00 5.774013400077819824e-01 5.682160258293151855e-01 3.436852097511291504e-01 -1.602557152509689331e-01
4.407000000000000000e+03 1.040150260925292969e+01 5.148114204406738281e+00 1.397758275270462036e-01 6.311559677124023438e+00 1.935400724411010742e+00 -3.606307804584503174e-01
4.408000000000000000e+03 2.632185363769531250e+01 -7.350246906280517578e+00 -3.529747426509857178e-01 8.618703484535217285e-01 1.526686847209930420e-01 -9.002639055252075195e-01
4.409000000000000000e+03 1.249221324920654297e+01 2.825105667114257812e+00 1.915777683258056641e+00 8.903785705566406250e+00 3.245869159698486328e+00 2.884094953536987305e+00
4.410000000000000000e+03 1.287523555755615234e+01 3.086666822433471680e+00 2.000070810317993164e+00 8.207888603210449219e+00 3.062387943267822266e+00 2.906416893005371094e+00
4.411000000000000000e+03 7.658896923065185547e+00 4.963753223419189453e+00 7.810117006301879883e-01 2.928406238555908203e+00 1.112825393676757812e+00 -1.128990054130554199e+00
4.412000000000000000e+03 1.158654689788818359e+01 -4.375371456146240234e+00 4.523324966430664062e-01 8.991297721862792969e+00 2.833089113235473633e+00 2.824870586395263672e+00
4.413000000000000000e+03 6.409646034240722656e+00 5.567896842956542969e+00 7.078475952148437500e-01 1.814672350883483887e+00 7.567560076713562012e-01 -7.594425082206726074e-01
4.414000000000000000e+03 7.101522922515869141e+00 5.734551906585693359e+00 6.615099906921386719e-01 2.486506462097167969e+00 9.444049596786499023e-01 -9.461386203765869141e-01
4.415000000000000000e+03 6.847616195678710938e+00 5.461613655090332031e+00 7.319591045379638672e-01 2.158106803894042969e+00 8.670198321342468262e-01 -8.912371993064880371e-01
4.416000000000000000e+03 9.713817596435546875e+00 5.403450489044189453e+00 2.182578295469284058e-01 5.475093364715576172e+00 1.708005309104919434e+00 -7.590320110321044922e-01
4.417000000000000000e+03 1.020919704437255859e+01 5.744493484497070312e+00 1.117688640952110291e-01 5.792401790618896484e+00 1.771251201629638672e+00 -4.116577208042144775e-01
4.418000000000000000e+03 8.863725662231445312e+00 5.117929935455322266e+00 4.742723703384399414e-01 4.505469322204589844e+00 1.493922591209411621e+00 -1.135160565376281738e+00
4.419000000000000000e+03 1.104664993286132812e+01 -4.877860069274902344e+00 -8.716036379337310791e-02 8.644178390502929688e+00 2.567105293273925781e+00 3.378039360046386719e+00
4.420000000000000000e+03 1.544538879394531250e+01 -1.506069660186767578e+00 4.553380012512207031e+00 4.576248645782470703e+00 2.738888502120971680e+00 1.656687378883361816e+00
4.421000000000000000e+03 1.502002429962158203e+01 -6.530783176422119141e+00 -1.325244754552841187e-01 4.698723793029785156e+00 1.369859814643859863e+00 2.072211742401123047e+00
4.422000000000000000e+03 1.000882530212402344e+01 -5.228752613067626953e+00 -3.528825044631958008e-01 8.185780525207519531e+00 2.349869251251220703e+00 4.054190635681152344e+00
4.423000000000000000e+03 1.081683254241943359e+01 -5.097426414489746094e+00 -2.840170562267303467e-01 8.483612060546875000e+00 2.459878683090209961e+00 3.541186571121215820e+00
4.424000000000000000e+03 1.293585777282714844e+01 3.884977817535400391e+00 1.316801428794860840e+00 7.726892948150634766e+00 2.713108301162719727e+00 2.343657493591308594e+00
4.425000000000000000e+03 1.376565647125244141e+01 2.678268194198608398e+00 3.031119108200073242e+00 7.180586814880371094e+00 3.063511848449707031e+00 3.386443853378295898e+00
4.426000000000000000e+03 1.828783988952636719e+01 -3.711464405059814453e+00 2.493256092071533203e+00 2.339758396148681641e+00 1.449904322624206543e+00 1.041193246841430664e+00
4.427000000000000000e+03 1.092147731781005859e+01 5.376095294952392578e+00 1.189826428890228271e-01 6.639088630676269531e+00 2.027421236038208008e+00 8.866919577121734619e-02
4.428000000000000000e+03 5.335210323333740234e+00 5.590406894683837891e+00 6.314411163330078125e-01 1.097148299217224121e+00 5.185768008232116699e-01 -4.739939570426940918e-01
4.429000000000000000e+03 1.491699123382568359e+01 -5.976152896881103516e+00 2.281369715929031372e-01 4.923930644989013672e+00 1.545620322227478027e+00 1.908501744270324707e+00
4.430000000000000000e+03 1.058388042449951172e+01 5.564901351928710938e+00 9.748114645481109619e-02 6.159867286682128906e+00 1.877204537391662598e+00 -2.190810889005661011e-01
4.431000000000000000e+03 5.482139587402343750e+00 6.386682987213134766e+00 5.409283041954040527e-01 1.397338986396789551e+00 5.814801454544067383e-01 -5.740821957588195801e-01
4.432000000000000000e+03 1.634548377990722656e+01 2.262650871276855469e+01 2.417487651109695435e-02 4.002300739288330078e+00 1.207942605018615723e+00 -2.768940925598144531e-01
4.433000000000000000e+03 1.450737285614013672e+01 -1.899599134922027588e-01 5.512978553771972656e+00 5.470477581024169922e+00 3.295036792755126953e+00 2.445616722106933594e+00
4.434000000000000000e+03 1.445512199401855469e+01 2.768739700317382812e+00 3.160389900207519531e+00 6.424721717834472656e+00 2.875533580780029297e+00 3.258301258087158203e+00
4.435000000000000000e+03 3.834600067138671875e+01 -6.846752643585205078e+00 -4.565690755844116211e-01 5.008833408355712891e+00 1.365679383277893066e+00 -2.293331384658813477e+00
4.436000000000000000e+03 1.257374286651611328e+01 -3.731252193450927734e+00 1.676542639732360840e+00 8.347835540771484375e+00 3.007313489913940430e+00 1.746761322021484375e+00
4.437000000000000000e+03 8.202382087707519531e+00 5.740627765655517578e+00 5.037577748298645020e-01 3.624244213104248047e+00 1.238400578498840332e+00 -1.038161039352416992e+00
4.438000000000000000e+03 8.116731643676757812e+00 5.332129001617431641e+00 6.132275462150573730e-01 3.472752571105957031e+00 1.225793957710266113e+00 -1.115217208862304688e+00
4.439000000000000000e+03 8.048727989196777344e+00 -4.885329246520996094e+00 5.584468841552734375e-01 6.022100448608398438e+00 1.974164128303527832e+00 4.413728713989257812e+00
4.440000000000000000e+03 7.594113349914550781e+00 -5.046979904174804688e+00 5.569960474967956543e-01 5.433145523071289062e+00 1.797042489051818848e+00 4.163695812225341797e+00
4.441000000000000000e+03 5.906961917877197266e+00 1.450492382049560547e+01 -8.439311385154724121e-02 2.133544683456420898e+00 6.147454977035522461e-01 -5.435998439788818359e-01
4.442000000000000000e+03 6.857429981231689453e+00 5.994361400604248047e+00 6.316872835159301758e-01 2.286103010177612305e+00 8.753371238708496094e-01 -8.689948320388793945e-01
4.443000000000000000e+03 6.562211990356445312e+00 6.217642784118652344e+00 5.866161584854125977e-01 2.093493700027465820e+00 8.040329217910766602e-01 -7.946344614028930664e-01
4.444000000000000000e+03 1.527606105804443359e+01 -9.111274778842926025e-02 5.041019439697265625e+00 4.759223461151123047e+00 2.940072774887084961e+00 2.380785465240478516e+00
4.445000000000000000e+03 9.674034118652343750e+00 -6.061178684234619141e+00 -8.429621458053588867e-01 7.643626689910888672e+00 2.040199279785156250e+00 4.015705585479736328e+00
4.446000000000000000e+03 1.023000621795654297e+01 -5.754903793334960938e+00 -7.289091348648071289e-01 8.014645576477050781e+00 2.185720920562744141e+00 3.881184816360473633e+00
4.447000000000000000e+03 1.228827095031738281e+01 -4.534375190734863281e+00 6.393591165542602539e-01 8.208839416503906250e+00 2.654459476470947266e+00 2.322028636932373047e+00
4.448000000000000000e+03 1.309204387664794922e+01 4.219305515289306641e+00 1.226687669754028320e+00 7.420253753662109375e+00 2.594082355499267578e+00 2.238693952560424805e+00
4.449000000000000000e+03 9.345839500427246094e+00 6.265345573425292969e+00 2.063878774642944336e-01 4.736121177673339844e+00 1.482752680778503418e+00 -7.559674382209777832e-01
4.450000000000000000e+03 1.216298103332519531e+01 -3.850671529769897461e+00 1.252606511116027832e+00 8.870269775390625000e+00 3.036862850189208984e+00 2.121803283691406250e+00
4.451000000000000000e+03 2.768818473815917969e+01 -6.523235797882080078e+00 4.417882487177848816e-02 1.319626927375793457e+00 4.091417193412780762e-01 -1.076136112213134766e+00
4.452000000000000000e+03 6.258718013763427734e+00 -5.089767456054687500e+00 6.659995913505554199e-01 4.008417129516601562e+00 1.402325034141540527e+00 3.323741674423217773e+00
4.453000000000000000e+03 1.152904224395751953e+01 -5.477830886840820312e+00 -5.192107558250427246e-01 8.066446304321289062e+00 2.264170885086059570e+00 3.139437437057495117e+00
4.454000000000000000e+03 3.282980728149414062e+01 1.401899242401123047e+01 1.906863451004028320e+00 5.438503742218017578e+00 2.203610181808471680e+00 -3.611184358596801758e-01
4.455000000000000000e+03 6.589629173278808594e+00 -5.401809692382812500e+00 4.798820018768310547e-01 4.545176982879638672e+00 1.507517695426940918e+00 3.578396081924438477e+00
4.456000000000000000e+03 6.554557323455810547e+00 -5.063966751098632812e+00 7.007646560668945312e-01 4.319672584533691406e+00 1.506131052970886230e+00 3.575969457626342773e+00
4.457000000000000000e+03 1.253342342376708984e+01 -4.951965332031250000e+00 2.671523988246917725e-01 7.768180370330810547e+00 2.410599708557128906e+00 2.325677871704101562e+00
4.458000000000000000e+03 1.251839351654052734e+01 -4.162259578704833984e+00 1.085788488388061523e+00 8.192874908447265625e+00 2.783598899841308594e+00 2.021979808807373047e+00
4.459000000000000000e+03 1.055612182617187500e+01 -6.686780452728271484e+00 -1.299264430999755859e+00 7.699637889862060547e+00 1.920112013816833496e+00 3.682565450668334961e+00
4.460000000000000000e+03 3.099483489990234375e+01 1.510968208312988281e+01 1.725219726562500000e+00 5.059938430786132812e+00 2.035547494888305664e+00 -2.356638908386230469e-01
4.461000000000000000e+03 9.166575431823730469e+00 -6.757827281951904297e+00 -1.151921749114990234e+00 7.248524665832519531e+00 1.828980803489685059e+00 3.897858619689941406e+00
4.462000000000000000e+03 1.675968551635742188e+01 -3.327947378158569336e+00 2.888738155364990234e+00 3.375303268432617188e+00 1.879212379455566406e+00 1.254892110824584961e+00
4.463000000000000000e+03 1.772096443176269531e+01 -3.466199636459350586e+00 2.726535320281982422e+00 2.752878189086914062e+00 1.643824100494384766e+00 1.144569873809814453e+00
4.464000000000000000e+03 2.439594268798828125e+01 1.479453372955322266e+01 1.360160946846008301e+00 4.377375125885009766e+00 1.721260905265808105e+00 2.851231992244720459e-01
4.465000000000000000e+03 2.467081069946289062e+01 1.632660102844238281e+01 1.174160361289978027e+00 4.479034900665283203e+00 1.695958614349365234e+00 1.302448362112045288e-01
4.466000000000000000e+03 1.778424263000488281e+01 -2.483276605606079102e+00 3.270810127258300781e+00 2.764284133911132812e+00 1.810528278350830078e+00 1.288585901260375977e+00
4.467000000000000000e+03 7.576768398284912109e+00 5.722863197326660156e+00 6.158103942871093750e-01 2.923049211502075195e+00 1.061657905578613281e+00 -1.005711197853088379e+00
4.468000000000000000e+03 1.103794097900390625e+01 -5.883107185363769531e+00 -8.290895819664001465e-01 8.034564971923828125e+00 2.161642551422119141e+00 3.472531080245971680e+00
4.469000000000000000e+03 7.396517753601074219e+00 -5.346812725067138672e+00 3.998669981956481934e-01 5.360820293426513672e+00 1.728206157684326172e+00 4.030368804931640625e+00
4.470000000000000000e+03 2.974956512451171875e+01 1.478672409057617188e+01 1.715490937232971191e+00 4.866754055023193359e+00 1.974673509597778320e+00 -1.358888596296310425e-01
4.471000000000000000e+03 8.449419975280761719e+00 -6.049325942993164062e+00 -4.898687005043029785e-01 6.660532951354980469e+00 1.851199269294738770e+00 4.069598674774169922e+00
4.472000000000000000e+03 3.584478759765625000e+01 -1.953917503356933594e+00 7.386336326599121094e-01 4.535322189331054688e+00 1.582186698913574219e+00 -1.700554609298706055e+00
4.473000000000000000e+03 8.078534126281738281e+00 6.435212612152099609e+00 3.921563625335693359e-01 3.487294435501098633e+00 1.163835287094116211e+00 -9.210960268974304199e-01
4.474000000000000000e+03 7.620127201080322266e+00 6.284798145294189453e+00 5.080730915069580078e-01 3.046751737594604492e+00 1.066447496414184570e+00 -9.556106925010681152e-01
4.475000000000000000e+03 2.776081085205078125e+01 1.087546730041503906e+01 2.135548353195190430e+00 4.185535907745361328e+00 1.896325230598449707e+00 2.475786507129669189e-01
4.476000000000000000e+03 8.747829437255859375e+00 -6.078052520751953125e+00 -6.281977295875549316e-01 6.991817474365234375e+00 1.909085988998413086e+00 4.077992439270019531e+00
4.477000000000000000e+03 2.861734199523925781e+01 1.490902042388916016e+01 1.639649748802185059e+00 4.688033580780029297e+00 1.898305058479309082e+00 -5.435813218355178833e-02
4.478000000000000000e+03 7.773067951202392578e+00 6.983816146850585938e+00 3.626227974891662598e-01 3.227579832077026367e+00 1.077060818672180176e+00 -8.690789341926574707e-01
4.479000000000000000e+03 1.333331203460693359e+01 5.481850624084472656e+00 8.007180094718933105e-01 6.650028705596923828e+00 2.235224008560180664e+00 1.726367115974426270e+00
4.480000000000000000e+03 3.293589019775390625e+01 -9.764572381973266602e-01 1.275711417198181152e+00 3.637543201446533203e+00 1.473976373672485352e+00 -1.226535558700561523e+00
4.481000000000000000e+03 1.044687461853027344e+01 7.570803165435791016e+00 1.180361770093441010e-02 5.101278305053710938e+00 1.533924460411071777e+00 -2.046515643596649170e-01
4.482000000000000000e+03 1.986576843261718750e+01 1.383720111846923828e+01 9.489241838455200195e-01 4.363012313842773438e+00 1.593580961227416992e+00 5.785560011863708496e-01
4.483000000000000000e+03 9.122864723205566406e+00 8.947691917419433594e+00 1.591188833117485046e-02 3.948749542236328125e+00 1.189398407936096191e+00 -5.092375874519348145e-01
4.484000000000000000e+03 2.031653976440429688e+01 1.275457763671875000e+01 1.149137139320373535e+00 4.324672698974609375e+00 1.642143011093139648e+00 7.333062291145324707e-01
4.485000000000000000e+03 1.349807167053222656e+01 4.595824241638183594e+00 1.232414722442626953e+00 6.959353446960449219e+00 2.457530498504638672e+00 2.216830968856811523e+00
4.486000000000000000e+03 1.015028667449951172e+01 7.525049209594726562e+00 3.661704063415527344e-02 4.912920951843261719e+00 1.484861373901367188e+00 -3.046037852764129639e-01
4.487000000000000000e+03 1.357207965850830078e+01 5.731314659118652344e+00 8.172140717506408691e-01 6.435647964477539062e+00 2.175858497619628906e+00 1.715212345123291016e+00
4.488000000000000000e+03 1.404635334014892578e+01 5.478708744049072266e+00 1.107103109359741211e+00 6.321434497833251953e+00 2.228561162948608398e+00 2.007696866989135742e+00
4.489000000000000000e+03 1.568849563598632812e+01 9.433218955993652344e+00 7.153488993644714355e-01 4.984930992126464844e+00 1.710083961486816406e+00 1.169756174087524414e+00
4.490000000000000000e+03 1.153860950469970703e+01 9.129795074462890625e+00 1.308437809348106384e-02 4.942208290100097656e+00 1.486587762832641602e+00 1.364916563034057617e-01
4.491000000000000000e+03 1.405467987060546875e+01 6.575628757476806641e+00 7.402614355087280273e-01 5.959107875823974609e+00 2.009810686111450195e+00 1.555335521697998047e+00
4.492000000000000000e+03 1.451718807220458984e+01 6.648946285247802734e+00 9.167506694793701172e-01 5.777508735656738281e+00 2.008277893066406250e+00 1.702679038047790527e+00
4.493000000000000000e+03 1.031299972534179688e+01 8.355228424072265625e+00 6.239027716219425201e-03 4.710709571838378906e+00 1.415084600448608398e+00 -2.231018245220184326e-01
4.494000000000000000e+03 9.979688644409179688e+00 8.019915580749511719e+00 3.069573454558849335e-02 4.620960712432861328e+00 1.395496964454650879e+00 -3.349854946136474609e-01
4.495000000000000000e+03 1.926805686950683594e+01 1.077735805511474609e+01 1.262880563735961914e+00 4.387001037597656250e+00 1.694964528083801270e+00 1.089800596237182617e+00
4.496000000000000000e+03 1.181761550903320312e+01 1.060290622711181641e+01 -7.161821122281253338e-04 4.560033321380615234e+00 1.367795109748840332e+00 9.048764407634735107e-02
4.497000000000000000e+03 9.900979042053222656e+00 -9.946446865797042847e-03 5.070891952514648438e+01 4.717914104461669922e+00 1.662804985046386719e+01 1.075110340118408203e+01
4.498000000000000000e+03 9.904818534851074219e+00 -2.906142920255661011e-02 4.791885375976562500e+01 1.433842372894287109e+01 1.867718315124511719e+01 2.095652198791503906e+01
4.499000000000000000e+03 9.912311553955078125e+00 -4.706101492047309875e-02 4.424966430664062500e+01 2.382838439941406250e+01 2.042341423034667969e+01 2.550584602355957031e+01
4.500000000000000000e+03 9.923169136047363281e+00 -6.325436383485794067e-02 3.884470367431640625e+01 3.368734359741210938e+01 2.175961303710937500e+01 2.745263862609863281e+01
4.501000000000000000e+03 9.936976432800292969e+00 -7.701997458934783936e-02 3.351831436157226562e+01 4.240079498291015625e+01 2.277573204040527344e+01 2.660142898559570312e+01
4.502000000000000000e+03 9.953202247619628906e+00 -8.782950043678283691e-02 2.847814750671386719e+01 4.956072235107421875e+01 2.341166114807128906e+01 2.346830177307128906e+01
4.503000000000000000e+03 9.971223831176757812e+00 -9.526807069778442383e-02 2.491456794738769531e+01 5.439923477172851562e+01 2.379414176940917969e+01 1.876943969726562500e+01
4.504000000000000000e+03 9.990350723266601562e+00 -9.905018657445907593e-02 2.281147575378417969e+01 5.663956832885742188e+01 2.383531379699707031e+01 1.327979850769042969e+01
4.505000000000000000e+03 1.000984764099121094e+01 -9.903068840503692627e-02 2.263881301879882812e+01 5.650583267211914062e+01 2.374339294433593750e+01 7.962343215942382812e+00
4.506000000000000000e+03 1.002896595001220703e+01 -9.521032124757766724e-02 2.382060432434082031e+01 5.432122039794921875e+01 2.344254875183105469e+01 3.438551425933837891e+00
4.507000000000000000e+03 1.004697322845458984e+01 -8.773572742938995361e-02 2.615886878967285156e+01 5.089647674560546875e+01 2.311660385131835938e+01 2.679588496685028076e-01
4.508000000000000000e+03 1.006317710876464844e+01 -7.689376920461654663e-02 2.893944358825683594e+01 4.680513000488281250e+01 2.272337150573730469e+01 -1.432259082794189453e+00
4.509000000000000000e+03 1.007695674896240234e+01 -6.310057640075683594e-02 3.186834144592285156e+01 4.283774566650390625e+01 2.241182518005371094e+01 -1.637013673782348633e+00
4.510000000000000000e+03 1.008778285980224609e+01 -4.688554257154464722e-02 3.440525054931640625e+01 3.932105636596679688e+01 2.211789131164550781e+01 -5.936037898063659668e-01
4.511000000000000000e+03 1.009523963928222656e+01 -2.887100912630558014e-02 3.639892578125000000e+01 3.683819580078125000e+01 2.197113609313964844e+01 1.508097767829895020e+00
4.512000000000000000e+03 1.009904003143310547e+01 -9.748386219143867493e-03 3.746967697143554688e+01 3.538563537597656250e+01 2.185659408569335938e+01 4.357196807861328125e+00
4.513000000000000000e+03 1.009904003143310547e+01 9.748386219143867493e-03 3.748533630371093750e+01 3.542278671264648438e+01 2.187243652343750000e+01 7.618494033813476562e+00
4.514000000000000000e+03 1.009523963928222656e+01 2.887100912630558014e-02 3.610564422607421875e+01 3.673663330078125000e+01 2.185268402099609375e+01 1.091002655029296875e+01
4.515000000000000000e+03 1.008778285980224609e+01 4.688554257154464722e-02 3.339041137695312500e+01 3.958223342895507812e+01 2.189179420471191406e+01 1.366380119323730469e+01
4.516000000000000000e+03 1.007695674896240234e+01 6.310057640075683594e-02 2.921492958068847656e+01 4.336412811279296875e+01 2.177371788024902344e+01 1.541454124450683594e+01
4.517000000000000000e+03 1.006317710876464844e+01 7.689376920461654663e-02 2.411175918579101562e+01 4.771457672119140625e+01 2.154790115356445312e+01 1.559482479095458984e+01
4.518000000000000000e+03 1.004697322845458984e+01 8.773572742938995361e-02 1.851025390625000000e+01 5.181655502319335938e+01 2.109804344177246094e+01 1.396233177185058594e+01
4.519000000000000000e+03 1.002896595001220703e+01 9.521032124757766724e-02 1.308612632751464844e+01 5.476851272583007812e+01 2.035639190673828125e+01 1.057414340972900391e+01
4.520000000000000000e+03 1.000984764099121094e+01 9.903068840503692627e-02 8.535620689392089844e+00 5.588455963134765625e+01 1.932605361938476562e+01 5.780285358428955078e+00
4.521000000000000000e+03 9.990350723266601562e+00 9.905018657445907593e-02 5.114317417144775391e+00 5.458801269531250000e+01 1.791069984436035156e+01 3.385369777679443359e-01
4.522000000000000000e+03 9.971223831176757812e+00 9.526807069778442383e-02 3.195427894592285156e+00 5.090999984741210938e+01 1.623162841796875000e+01 -5.075506210327148438e+00
4.523000000000000000e+03 9.953202247619628906e+00 8.782950043678283691e-02 2.123926639556884766e+00 4.504003906250000000e+01 1.414918994903564453e+01 -9.649758338928222656e+00
4.524000000000000000e+03 9.936976432800292969e+00 7.701997458934783936e-02 1.996259808540344238e+00 3.764461898803710938e+01 1.189226341247558594e+01 -1.295393276214599609e+01
4.525000000000000000e+03 9.923169136047363281e+00 6.325436383485794067e-02 1.864861965179443359e+00 2.946172332763671875e+01 9.397975921630859375e+00 -1.476651382446289062e+01
4.526000000000000000e+03 9.912311553955078125e+00 4.706101492047309875e-02 2.159386396408081055e+00 2.077759552001953125e+01 6.881094455718994141e+00 -1.489841270446777344e+01
4.527000000000000000e+03 9.904818534851074219e+00 2.906142920255661011e-02 1.904515981674194336e+00 1.258242034912109375e+01 4.346080780029296875e+00 -1.353744125366210938e+01
4.528000000000000000e+03 9.900979042053222656e+00 9.946446865797042847e-03 2.916998624801635742e+00 4.193356513977050781e+00 2.133106470108032227e+00 -6.907839298248291016e+00
