# el_label, x, y, sXX, sYY, sZZ, sXY
1.000000000000000000e+00 4.953689575195312500e+01 -2.133200836181640625e+01 5.662531852722167969e-01 -1.092012405395507812e+00 -1.577277481555938721e-01 8.554219603538513184e-01
2.000000000000000000e+00 4.776270294189453125e+01 -2.127538490295410156e+01 -4.719701111316680908e-01 1.259909629821777344e+00 2.363818585872650146e-01 -2.928830683231353760e-03
3.000000000000000000e+00 4.839369583129882812e+01 -2.145845985412597656e+01 7.757685780525207520e-01 2.164555788040161133e+00 8.820973038673400879e-01 2.128635883331298828e+00
4.000000000000000000e+00 4.760478591918945312e+01 -2.170355415344238281e+01 3.619127988815307617e+00 3.193149089813232422e+00 2.043683052062988281e+00 -7.045367360115051270e-01
5.000000000000000000e+00 4.885086822509765625e+01 -2.057592773437500000e+01 -2.955946207046508789e+00 9.043579101562500000e-01 -6.154764890670776367e-01 7.230609059333801270e-01
6.000000000000000000e+00 4.908120346069335938e+01 -2.128461074829101562e+01 1.063917636871337891e+00 6.303931772708892822e-02 3.380870819091796875e-01 1.890375494956970215e+00
7.000000000000000000e+00 4.701505661010742188e+01 -2.126548767089843750e+01 -9.330276846885681152e-01 2.570095062255859375e-01 -2.028054445981979370e-01 -2.017245769500732422e+00
8.000000000000000000e+00 4.800907897949218750e+01 -2.067630577087402344e+01 -4.845799922943115234e+00 3.352606594562530518e-01 -1.353161811828613281e+00 -5.557473897933959961e-01
9.000000000000000000e+00 4.728337478637695312e+01 -2.075931167602539062e+01 -5.383132457733154297e+00 -2.148586809635162354e-01 -1.679397344589233398e+00 -1.160395264625549316e+00
1.000000000000000000e+01 4.683437728881835938e+01 -2.175952339172363281e+01 2.267157077789306641e+00 -1.232184529304504395e+00 3.104918003082275391e-01 -1.253500819206237793e+00
1.100000000000000000e+01 4.665119171142578125e+01 -2.089194488525390625e+01 -3.518522500991821289e+00 2.145659178495407104e-02 -1.049119710922241211e+00 -1.812021732330322266e+00
1.200000000000000000e+01 5.623451995849609375e+01 -2.959057044982910156e+01 -1.331759430468082428e-02 2.920668944716453552e-02 4.766728263348340988e-03 1.008776854723691940e-02
1.300000000000000000e+01 5.565113830566406250e+01 -2.877158546447753906e+01 -3.716513514518737793e-02 -5.314114037901163101e-03 -1.274377480149269104e-02 -2.135712094604969025e-02
1.400000000000000000e+01 5.578096771240234375e+01 -2.943754768371582031e+01 3.163796663284301758e-02 4.667977616190910339e-02 2.349532209336757660e-02 -1.562410127371549606e-02
1.500000000000000000e+01 5.624991607666015625e+01 -2.877285385131835938e+01 5.166716873645782471e-03 1.861634477972984314e-02 7.134918589144945145e-03 -1.054797321557998657e-02
1.600000000000000000e+01 5.513600158691406250e+01 -2.821121597290039062e+01 4.807023704051971436e-02 4.741016030311584473e-02 2.864411845803260803e-02 -1.615612953901290894e-02
1.700000000000000000e+01 5.471333312988281250e+01 -2.882779884338378906e+01 3.851484740152955055e-03 4.893952235579490662e-02 1.583730243146419525e-02 -5.116906017065048218e-02
1.800000000000000000e+01 5.527025222778320312e+01 -2.918111991882324219e+01 1.621047221124172211e-02 8.698000758886337280e-02 3.095714561641216278e-02 -7.403990626335144043e-02
1.900000000000000000e+01 5.339364242553710938e+01 -2.805727005004882812e+01 6.308621913194656372e-02 5.343969911336898804e-02 3.495777770876884460e-02 -9.757135808467864990e-02
2.000000000000000000e+01 5.377851486206054688e+01 -2.742521476745605469e+01 8.906484395265579224e-02 1.022548973560333252e-01 5.739592388272285461e-02 -4.838511720299720764e-02
2.100000000000000000e+01 5.443378829956054688e+01 -2.781516456604003906e+01 4.507956281304359436e-02 7.777974009513854980e-03 1.585726067423820496e-02 -6.374023109674453735e-02
2.200000000000000000e+01 5.312462234497070312e+01 -2.703296089172363281e+01 9.803605824708938599e-02 2.097811177372932434e-02 3.570425137877464294e-02 -1.229854449629783630e-01
2.300000000000000000e+01 5.271967697143554688e+01 -2.765297698974609375e+01 7.136835157871246338e-02 1.827444732189178467e-01 7.623384892940521240e-02 -9.497469663619995117e-02
2.400000000000000000e+01 5.247245407104492188e+01 -2.663854980468750000e+01 1.747144609689712524e-01 1.711493432521820068e-01 1.037591397762298584e-01 -8.711630105972290039e-02
2.500000000000000000e+01 5.204744338989257812e+01 -2.724652481079101562e+01 8.945859968662261963e-02 1.148805692791938782e-01 6.130174919962882996e-02 -1.623853147029876709e-01
2.600000000000000000e+01 5.406898117065429688e+01 -2.845926094055175781e+01 4.316408559679985046e-02 1.149961352348327637e-01 4.744806513190269470e-02 -7.155666500329971313e-02
2.700000000000000000e+01 5.614400482177734375e+01 -3.054480934143066406e+01 1.101461891084909439e-02 1.002018824219703674e-01 3.336495161056518555e-02 -2.085168473422527313e-02
2.800000000000000000e+01 5.570403671264648438e+01 -3.140752029418945312e+01 7.537148147821426392e-02 1.817219108343124390e-01 7.712801545858383179e-02 -4.542680829763412476e-02
2.900000000000000000e+01 5.198250579833984375e+01 -3.054438972473144531e+01 -1.506029348820447922e-02 2.069261521100997925e-01 5.755975842475891113e-02 -8.348521590232849121e-02
3.000000000000000000e+01 4.647434997558593750e+01 -3.195674324035644531e+01 -5.332062020897865295e-02 1.378007531166076660e-01 2.534404210746288300e-02 6.108863651752471924e-02
3.100000000000000000e+01 4.285160064697265625e+01 -3.138913917541503906e+01 3.369265794754028320e-02 -2.255260758101940155e-02 3.342015668749809265e-03 4.324001073837280273e-02
3.200000000000000000e+01 4.066204452514648438e+01 -3.140900611877441406e+01 1.226541772484779358e-02 1.124901510775089264e-02 7.054329849779605865e-03 4.102024249732494354e-03
3.300000000000000000e+01 4.223688507080078125e+01 -3.546899032592773438e+01 -2.674139104783535004e-02 3.345742821693420410e-02 2.014811616390943527e-03 2.733307704329490662e-02
3.400000000000000000e+01 4.527561950683593750e+01 -3.735277175903320312e+01 -3.196879848837852478e-02 7.983559370040893555e-02 1.436003763228654861e-02 2.267482876777648926e-02
3.500000000000000000e+01 4.307231140136718750e+01 -3.387702560424804688e+01 2.472568303346633911e-02 2.696825191378593445e-02 1.550818048417568207e-02 2.129354700446128845e-02
3.600000000000000000e+01 5.556109237670898438e+01 -3.018188476562500000e+01 4.283083602786064148e-03 1.126853525638580322e-01 3.509053215384483337e-02 -4.536836966872215271e-02
3.700000000000000000e+01 5.369228744506835938e+01 -2.914724540710449219e+01 2.915199846029281616e-02 8.267977088689804077e-02 3.354953229427337646e-02 -7.450889796018600464e-02
3.800000000000000000e+01 5.275731658935546875e+01 -3.042935943603515625e+01 -4.884643480181694031e-03 1.174825504422187805e-01 3.377937152981758118e-02 -7.618599385023117065e-02
3.900000000000000000e+01 4.873273849487304688e+01 -3.099365425109863281e+01 -7.406111061573028564e-02 2.028762698173522949e-01 3.864454850554466248e-02 6.878005340695381165e-03
4.000000000000000000e+01 4.723529052734375000e+01 -3.024894523620605469e+01 -5.352430790662765503e-02 2.177623212337493896e-01 4.927140474319458008e-02 4.415233060717582703e-02
4.100000000000000000e+01 4.494554519653320312e+01 -3.105268669128417969e+01 1.606548391282558441e-02 9.507261961698532104e-02 3.334143012762069702e-02 8.545997738838195801e-02
4.200000000000000000e+01 4.368402481079101562e+01 -3.007915687561035156e+01 -3.567933337762951851e-03 -1.756630465388298035e-02 -6.340271327644586563e-03 1.052931919693946838e-01
4.300000000000000000e+01 4.240121078491210938e+01 -2.896246719360351562e+01 1.561766024678945541e-03 -1.444891244173049927e-01 -4.287820681929588318e-02 3.069682419300079346e-02
4.400000000000000000e+01 4.168989181518554688e+01 -3.027345848083496094e+01 3.081614384427666664e-03 -3.161925449967384338e-02 -8.561292663216590881e-03 1.448383368551731110e-02
4.500000000000000000e+01 4.178727722167968750e+01 -3.274649047851562500e+01 -3.578779520466923714e-03 1.320893131196498871e-02 2.889045514166355133e-03 3.791439160704612732e-02
4.600000000000000000e+01 3.803565979003906250e+01 -3.301057434082031250e+01 -4.333745222538709641e-03 2.050483413040637970e-02 4.851326812058687210e-03 -4.558959975838661194e-03
4.700000000000000000e+01 3.649695968627929688e+01 -3.333156585693359375e+01 -5.095141008496284485e-03 -1.492567546665668488e-02 -6.006245035678148270e-03 4.883062210865318775e-04
4.800000000000000000e+01 3.685056686401367188e+01 -3.536434555053710938e+01 -1.013085991144180298e-02 2.045683376491069794e-02 3.097792156040668488e-03 4.378457553684711456e-03
4.900000000000000000e+01 3.498358535766601562e+01 -3.948523330688476562e+01 -8.363773114979267120e-03 -3.509780159220099449e-03 -3.562066005542874336e-03 -1.371224410831928253e-03
5.000000000000000000e+01 3.813043212890625000e+01 -4.089651870727539062e+01 7.360320538282394409e-03 2.534151263535022736e-02 9.810550138354301453e-03 8.351041935384273529e-03
5.100000000000000000e+01 5.330470657348632812e+01 -2.987039184570312500e+01 2.500684373080730438e-02 1.563872098922729492e-01 5.441821366548538208e-02 -1.101771891117095947e-01
5.200000000000000000e+01 5.230134582519531250e+01 -2.843890190124511719e+01 5.371214076876640320e-02 1.403438150882720947e-01 5.821678414940834045e-02 -1.012033000588417053e-01
5.300000000000000000e+01 4.933884048461914062e+01 -2.819263076782226562e+01 -1.307670027017593384e-02 2.977811992168426514e-01 8.541134744882583618e-02 -5.443429574370384216e-02
5.400000000000000000e+01 4.909339141845703125e+01 -2.583338928222656250e+01 6.280629336833953857e-02 5.205919742584228516e-01 1.750194877386093140e-01 -1.572090834379196167e-01
5.500000000000000000e+01 4.806863403320312500e+01 -2.462282371520996094e+01 3.814162686467170715e-02 9.988524913787841797e-01 3.110982179641723633e-01 -2.664374113082885742e-01
5.600000000000000000e+01 4.711827850341796875e+01 -2.443514442443847656e+01 3.486926853656768799e-01 5.834166407585144043e-01 2.796327769756317139e-01 3.805722594261169434e-01
5.700000000000000000e+01 4.750033187866210938e+01 -2.305010223388671875e+01 8.264518380165100098e-01 2.695488691329956055e+00 1.056582093238830566e+00 5.194650888442993164e-01
5.800000000000000000e+01 4.562314605712890625e+01 -2.276989746093750000e+01 6.830601096153259277e-01 -6.710523366928100586e-01 3.602324984967708588e-03 -4.701394587755203247e-02
5.900000000000000000e+01 4.424176025390625000e+01 -2.319893646240234375e+01 1.822395324707031250e-01 -3.570793569087982178e-01 -5.245194584131240845e-02 -1.874691992998123169e-01
6.000000000000000000e+01 4.346236801147460938e+01 -2.344155693054199219e+01 7.482687383890151978e-02 -2.850439846515655518e-01 -6.306513398885726929e-02 -1.947785168886184692e-01
6.100000000000000000e+01 4.283502960205078125e+01 -2.499298095703125000e+01 7.452941965311765671e-03 -3.369321823120117188e-01 -9.884377568960189819e-02 6.579859182238578796e-03
6.200000000000000000e+01 4.626939392089843750e+01 -2.722938346862792969e+01 7.687166333198547363e-03 2.829965353012084961e-01 8.720511198043823242e-02 1.364533156156539917e-01
6.300000000000000000e+01 4.746086502075195312e+01 -2.751379585266113281e+01 -2.863553538918495178e-02 3.513214588165283203e-01 9.680578112602233887e-02 5.697233229875564575e-02
6.400000000000000000e+01 4.816752624511718750e+01 -2.792649650573730469e+01 -2.838763408362865448e-02 4.077796041965484619e-01 1.138175874948501587e-01 -5.513636395335197449e-02
6.500000000000000000e+01 5.010903930664062500e+01 -2.819960212707519531e+01 5.503137782216072083e-02 3.286346197128295898e-01 1.150998026132583618e-01 -6.442314386367797852e-02
6.600000000000000000e+01 5.085269546508789062e+01 -2.755883979797363281e+01 4.175668582320213318e-02 1.967740207910537720e-01 7.155921310186386108e-02 -1.462903171777725220e-01
6.700000000000000000e+01 4.700832366943359375e+01 -2.246566009521484375e+01 1.373115420341491699e+00 -3.292359709739685059e-01 3.131638467311859131e-01 1.444516420364379883e+00
6.800000000000000000e+01 4.254951858520507812e+01 -2.604879760742187500e+01 5.114948004484176636e-02 -3.293341994285583496e-01 -8.345541357994079590e-02 2.596239931881427765e-02
6.900000000000000000e+01 4.413258743286132812e+01 -2.778934097290039062e+01 3.531460091471672058e-02 -3.157021477818489075e-03 9.647273458540439606e-03 1.310823261737823486e-01
7.000000000000000000e+01 4.602762603759765625e+01 -2.900949287414550781e+01 -2.825896814465522766e-02 1.911605894565582275e-01 4.887048527598381042e-02 1.167022958397865295e-01
7.100000000000000000e+01 4.397487640380859375e+01 -2.536317253112792969e+01 1.944803148508071899e-01 -1.800021976232528687e-01 4.343436565250158310e-03 6.898110359907150269e-02
7.200000000000000000e+01 4.260430145263671875e+01 -2.748279571533203125e+01 -2.963900938630104065e-02 -2.591766715049743652e-01 -8.664470911026000977e-02 6.956348568201065063e-02
7.300000000000000000e+01 4.477224349975585938e+01 -2.943254280090332031e+01 -6.982136517763137817e-02 7.117552310228347778e-02 4.062477091792970896e-04 1.242725253105163574e-01
7.400000000000000000e+01 3.195440101623535156e+01 -3.284563446044921875e+01 -2.121113240718841553e-03 -5.006101913750171661e-03 -2.138164592906832695e-03 -3.963310155086219311e-04
7.500000000000000000e+01 3.050325584411621094e+01 -3.257025909423828125e+01 -2.350932219997048378e-03 2.205408643931150436e-03 -4.365712811704725027e-05 2.748923841863870621e-03
7.600000000000000000e+01 2.941523170471191406e+01 -3.450376510620117188e+01 -1.400982495397329330e-02 2.225202275440096855e-03 -3.535386873409152031e-03 -5.433198530226945877e-03
7.700000000000000000e+01 3.028632926940917969e+01 -3.584930419921875000e+01 7.630907930433750153e-03 6.528752273879945278e-04 2.485135104507207870e-03 -2.299389336258172989e-03
7.800000000000000000e+01 2.820734977722167969e+01 -3.612392044067382812e+01 7.820740342140197754e-03 -2.621093764901161194e-03 1.559894066303968430e-03 2.500848844647407532e-03
7.900000000000000000e+01 3.654376602172851562e+01 -3.728058624267578125e+01 1.662857085466384888e-02 1.879289560019969940e-02 1.062643993645906448e-02 5.239387508481740952e-03
8.000000000000000000e+01 3.335670089721679688e+01 -3.320680999755859375e+01 -7.072054315358400345e-03 4.950038855895400047e-04 -1.973115140572190285e-03 -2.623627660796046257e-03
8.100000000000000000e+01 2.912792778015136719e+01 -3.212084579467773438e+01 -4.109880886971950531e-03 -4.133628099225461483e-04 -1.356973196379840374e-03 5.165717448107898235e-05
8.200000000000000000e+01 3.183068275451660156e+01 -4.094626998901367188e+01 8.868386037647724152e-03 6.134495139122009277e-03 4.500864539295434952e-03 -3.801084822043776512e-03
8.300000000000000000e+01 2.777246665954589844e+01 -3.186797904968261719e+01 -4.041162319481372833e-03 1.364732044748961926e-03 -8.029290474951267242e-04 1.601588301127776504e-04
8.400000000000000000e+01 2.827244567871093750e+01 -3.381830215454101562e+01 1.956783933565020561e-03 3.015092108398675919e-03 1.491562812589108944e-03 -4.997636424377560616e-04
8.500000000000000000e+01 2.638454437255859375e+01 -3.168837928771972656e+01 -2.660726895555853844e-03 -4.349643422756344080e-04 -9.287073626182973385e-04 -1.411593286320567131e-03
8.600000000000000000e+01 2.710085296630859375e+01 -3.349550628662109375e+01 1.900860574096441269e-03 -2.372649963945150375e-03 -1.415368606103584170e-04 -1.737228012643754482e-03
8.700000000000000000e+01 2.250104904174804688e+01 -4.077961349487304688e+01 -1.502145314589142799e-04 6.424305611290037632e-04 1.476648030802607536e-04 -2.148203784599900246e-03
8.800000000000000000e+01 2.381724548339843750e+01 -3.119867897033691406e+01 -2.198552945628762245e-03 4.761767573654651642e-03 7.689644116908311844e-04 1.080470043234527111e-03
8.900000000000000000e+01 2.504217338562011719e+01 -3.146316719055175781e+01 -1.193401054479181767e-03 -2.724321559071540833e-03 -1.175316749140620232e-03 6.384556763805449009e-04
9.000000000000000000e+01 2.306441497802734375e+01 -3.438397979736328125e+01 3.592434804886579514e-03 2.016828162595629692e-03 1.682778936810791492e-03 -2.406873274594545364e-03
9.100000000000000000e+01 2.492097282409667969e+01 -3.528541564941406250e+01 -2.481327624991536140e-03 3.589757485315203667e-03 3.325289580971002579e-04 -5.119478330016136169e-03
9.200000000000000000e+01 2.355006027221679688e+01 -3.771493530273437500e+01 5.488452501595020294e-03 -9.202276705764234066e-04 1.370467361994087696e-03 1.481249928474426270e-03
9.300000000000000000e+01 2.264950370788574219e+01 -3.120000839233398438e+01 -1.264658989384770393e-03 -2.809306373819708824e-03 -1.222189632244408131e-03 -2.119769575074315071e-03
9.400000000000000000e+01 2.199329566955566406e+01 -3.301136016845703125e+01 -2.158504910767078400e-03 -2.906534820795059204e-03 -1.519511919468641281e-03 -2.046446315944194794e-03
9.500000000000000000e+01 2.103736114501953125e+01 -3.595298004150390625e+01 -5.393303465098142624e-03 -3.532021772116422653e-03 -2.677597571164369583e-03 -4.506482582655735314e-06
9.600000000000000000e+01 2.136867141723632812e+01 -3.146833419799804688e+01 -1.875954330898821354e-05 -5.868999869562685490e-04 -1.816978619899600744e-04 5.179528961889445782e-04
9.700000000000000000e+01 1.858400917053222656e+01 -3.366139602661132812e+01 1.343832234852015972e-03 -1.591580221429467201e-03 -7.432438724208623171e-05 1.556758303195238113e-03
9.800000000000000000e+01 1.836053848266601562e+01 -3.596307754516601562e+01 -4.501659423112869263e-03 -3.632639709394425154e-04 -1.459477003663778305e-03 -6.162516656331717968e-04
9.900000000000000000e+01 1.734261512756347656e+01 -4.075860977172851562e+01 -9.741413523443043232e-04 -2.046656562015414238e-03 -9.062393219210207462e-04 1.507657580077648163e-03
1.000000000000000000e+02 1.995166397094726562e+01 -3.165166091918945312e+01 -1.043895259499549866e-03 5.634096451103687286e-04 -1.441456988686695695e-04 3.931138198822736740e-04
1.010000000000000000e+02 1.847729873657226562e+01 -3.165055465698242188e+01 -5.985553143545985222e-04 4.806342185474932194e-04 -3.537632801453582942e-05 -4.233977524563670158e-04
1.020000000000000000e+02 1.637716674804687500e+01 -3.448064041137695312e+01 3.836214542388916016e-03 4.685014951974153519e-03 2.556368941441178322e-03 -2.157905109925195575e-04
1.030000000000000000e+02 1.701679992675781250e+01 -3.145345878601074219e+01 -2.686392326722852886e-05 2.220714086433872581e-04 5.856224743183702230e-05 -7.279891869984567165e-04
1.040000000000000000e+02 1.560796356201171875e+01 -3.120154571533203125e+01 2.010055177379399538e-04 -2.420392818748950958e-03 -6.658161873929202557e-04 8.362541557289659977e-04
1.050000000000000000e+02 1.421921253204345703e+01 -3.297804260253906250e+01 2.086020773276686668e-03 -4.944520187564194202e-04 4.774706321768462658e-04 -1.115240738727152348e-03
1.060000000000000000e+02 1.066628837585449219e+01 -3.172064781188964844e+01 -8.558707195334136486e-04 1.989360200241208076e-03 3.400468267500400543e-04 -7.042895304039120674e-04
1.070000000000000000e+02 8.256416320800781250e+00 -3.295366668701171875e+01 3.049343125894665718e-03 -2.934130025096237659e-04 8.267790544778108597e-04 -2.128803404048085213e-03
1.080000000000000000e+02 6.670378684997558594e+00 -3.212981796264648438e+01 6.479087915067793801e-06 -7.357579306699335575e-04 -2.187836507800966501e-04 2.423989790258929133e-04
1.090000000000000000e+02 5.549849033355712891e+00 -3.313121795654296875e+01 -4.720427561551332474e-03 -2.068903704639524221e-04 -1.478195423260331154e-03 1.059853471815586090e-03
1.100000000000000000e+02 2.141007661819458008e+00 -3.173734855651855469e+01 1.036723493598401546e-03 4.584464768413454294e-04 4.485509998630732298e-04 -4.589354794006794691e-04
1.110000000000000000e+02 7.193840742111206055e-01 -3.187788772583007812e+01 5.000910605303943157e-04 -3.649276914075016975e-05 1.390794932376593351e-04 2.233452687505632639e-04
1.120000000000000000e+02 7.854983806610107422e-01 -3.332674407958984375e+01 -4.874730948358774185e-04 3.525009087752550840e-04 -4.049164999742060900e-05 1.204917134600691497e-04
1.130000000000000000e+02 7.985920310020446777e-01 -3.477931213378906250e+01 -1.666800089878961444e-04 9.793091885512694716e-05 -2.062472594843711704e-05 -3.702188550960272551e-04
1.140000000000000000e+02 5.849535942077636719e+00 -3.755801773071289062e+01 4.793106054421514273e-04 -1.767203793860971928e-03 -3.863679594360291958e-04 -2.505176526028662920e-04
1.150000000000000000e+02 1.245561122894287109e+01 -4.104492568969726562e+01 1.508088316768407822e-04 1.057233894243836403e-03 3.624128294177353382e-04 -9.580489713698625565e-04
1.160000000000000000e+02 7.998637676239013672e+00 -4.096757507324218750e+01 1.284608006244525313e-04 3.279406519141048193e-04 1.369204401271417737e-04 7.817656151019036770e-04
1.170000000000000000e+02 1.218190383911132812e+01 -3.802588653564453125e+01 -8.033129270188510418e-04 -2.823975635692477226e-03 -1.088186516426503658e-03 2.686679130420088768e-03
1.180000000000000000e+02 8.612403869628906250e+00 -3.789321136474609375e+01 1.023808727040886879e-03 2.394095063209533691e-03 1.025371137075126171e-03 -2.009484451264142990e-03
1.190000000000000000e+02 1.468405342102050781e+01 -3.518629837036132812e+01 -4.187585785984992981e-03 -9.024758473969995975e-04 -1.527018495835363865e-03 6.730763707309961319e-04
1.200000000000000000e+02 1.246070766448974609e+01 -3.261820602416992188e+01 4.160560274613089859e-05 -1.049893442541360855e-03 -3.024863544851541519e-04 1.562598510645329952e-03
1.210000000000000000e+02 1.143338298797607422e+01 -2.952421569824218750e+01 2.035156940110027790e-04 -2.088712353724986315e-04 -1.606664000064483844e-06 3.997421881649643183e-04
1.220000000000000000e+02 8.883625984191894531e+00 -3.094450759887695312e+01 -3.497936530038714409e-03 -2.127662301063537598e-03 -1.687679672613739967e-03 2.073551731882616878e-04
1.230000000000000000e+02 7.161566257476806641e+00 -3.037144470214843750e+01 9.792271303012967110e-04 2.347908914089202881e-03 9.981407783925533295e-04 1.351333921775221825e-04
1.240000000000000000e+02 5.483802795410156250e+00 -2.968178558349609375e+01 -9.493841789662837982e-04 -1.464685890823602676e-03 -7.242209976539015770e-04 7.271873182617127895e-04
1.250000000000000000e+02 3.938869476318359375e+00 -2.881442260742187500e+01 6.064993795007467270e-04 8.199207368306815624e-04 4.279260465409606695e-04 -4.606756265275180340e-04
1.260000000000000000e+02 2.527493238449096680e+00 -2.820547485351562500e+01 -1.899794326163828373e-03 1.750328465277561918e-06 -5.694131832569837570e-04 -1.243709266418591142e-04
1.270000000000000000e+02 6.976333856582641602e-01 -2.927176856994628906e+01 -6.359455292113125324e-04 -1.028170299832709134e-04 -2.216287684859707952e-04 5.779576022177934647e-04
1.280000000000000000e+02 5.939036011695861816e-01 -3.050704002380371094e+01 6.190172280184924603e-05 2.966624451801180840e-04 1.075692489393986762e-04 -4.967537824995815754e-04
1.290000000000000000e+02 1.032267379760742188e+01 -2.825125312805175781e+01 -1.592542830621823668e-04 -1.127628493122756481e-03 -3.860648139379918575e-04 8.566251199226826429e-05
1.300000000000000000e+02 9.444721221923828125e+00 -2.691306686401367188e+01 -4.470229032449424267e-05 -1.172110351035371423e-04 -4.857399835600517690e-05 1.277132541872560978e-03
1.310000000000000000e+02 7.287513732910156250e+00 -2.478576087951660156e+01 -2.308570547029376030e-03 3.969079989474266768e-04 -5.734987789765000343e-04 -4.731150693260133266e-04
1.320000000000000000e+02 6.563798904418945312e+00 -2.263354682922363281e+01 -7.436582382069900632e-05 1.447046524845063686e-03 4.118042124900966883e-04 -2.368433342780917883e-04
1.330000000000000000e+02 6.950136661529541016e+00 -2.360237312316894531e+01 2.076111966744065285e-03 -1.711447257548570633e-03 1.093994433176703751e-04 -1.892381405923515558e-04
1.340000000000000000e+02 5.959973812103271484e+00 -2.041745758056640625e+01 -1.762401312589645386e-03 -5.877265939489006996e-04 -7.050383719615638256e-04 6.432505324482917786e-04
1.350000000000000000e+02 5.594797134399414062e+00 -1.853835296630859375e+01 -3.577620955184102058e-04 -4.825227078981697559e-04 -2.520854468457400799e-04 7.563594263046979904e-04
1.360000000000000000e+02 3.284276962280273438e+00 -1.667832946777343750e+01 -9.431387297809123993e-04 -9.292099275626242161e-04 -5.617045680992305279e-04 1.275535905733704567e-04
1.370000000000000000e+02 8.029865026473999023e-01 -1.370689487457275391e+01 1.167923794128000736e-03 6.538172601722180843e-05 3.699916414916515350e-04 6.020229557179845870e-05
1.380000000000000000e+02 1.465158581733703613e+00 -1.569460105895996094e+01 3.447046328801661730e-04 7.100292714312672615e-05 1.247122709173709154e-04 2.641367427713703364e-05
1.390000000000000000e+02 4.984258711338043213e-01 -1.624760818481445312e+01 2.930144313722848892e-03 5.439321830635890365e-05 8.953612414188683033e-04 1.590670435689389706e-04
1.400000000000000000e+02 1.936168193817138672e+00 -1.701604461669921875e+01 7.702496950514614582e-04 6.360039114952087402e-04 4.218760877847671509e-04 4.659781916416250169e-05
1.410000000000000000e+02 4.509368896484375000e+00 -1.787018013000488281e+01 -5.624898476526141167e-04 -7.917640614323318005e-04 -4.062761727254837751e-04 6.014776881784200668e-04
1.420000000000000000e+02 5.079105854034423828e+00 -2.123414993286132812e+01 1.009663683362305164e-03 6.957536679692566395e-04 5.116251995787024498e-04 -2.096821845043450594e-04
1.430000000000000000e+02 7.634950637817382812e+00 -2.623110008239746094e+01 2.378088189288973808e-03 3.652411978691816330e-04 8.229987579397857189e-04 3.868600178975611925e-04
1.440000000000000000e+02 8.350007057189941406e+00 -2.295336151123046875e+01 -3.472279058769345284e-04 5.779070779681205750e-04 6.920374289620667696e-05 1.627133460715413094e-04
1.450000000000000000e+02 7.623807907104492188e+00 -2.020700645446777344e+01 -1.382956397719681263e-03 -1.490018097683787346e-03 -8.618923602625727654e-04 5.929530598223209381e-04
1.460000000000000000e+02 9.293378829956054688e+00 -1.968080711364746094e+01 -1.526272622868418694e-03 -3.046720812562853098e-04 -5.492834025062620640e-04 7.719153072685003281e-04
1.470000000000000000e+02 6.376827716827392578e+00 -1.850193023681640625e+01 6.713407929055392742e-04 1.352165360003709793e-03 6.070518866181373596e-04 -1.076747663319110870e-03
1.480000000000000000e+02 5.686789512634277344e+00 -1.685997390747070312e+01 -1.757788995746523142e-04 -1.984180649742484093e-03 -6.479878793470561504e-04 5.897481460124254227e-04
1.490000000000000000e+02 3.624662160873413086e+00 -1.516670894622802734e+01 1.284085097722709179e-03 6.445023464038968086e-04 5.785762332379817963e-04 -5.578730906563578174e-06
1.500000000000000000e+02 8.688917756080627441e-01 -1.218540000915527344e+01 -7.123776013031601906e-04 -2.012707409448921680e-05 -2.197514113504439592e-04 4.740554868476465344e-05
1.510000000000000000e+02 8.234351158142089844e+00 -1.919679069519042969e+01 1.158782979473471642e-03 7.790595991536974907e-04 5.813527386635541916e-04 -8.674720884300768375e-04
1.520000000000000000e+02 7.236458778381347656e+00 -1.878111076354980469e+01 -8.059941465035080910e-04 -1.308686682023108006e-03 -6.344042485579848289e-04 8.387687266804277897e-04
1.530000000000000000e+02 6.597821712493896484e+00 -1.695292854309082031e+01 1.521384110674262047e-04 9.641620563343167305e-04 3.348901227582246065e-04 -3.542860213201493025e-04
1.540000000000000000e+02 4.891459941864013672e+00 -1.551250743865966797e+01 -8.601466543041169643e-04 -8.396241464652121067e-04 -5.099312402307987213e-04 3.470856754574924707e-04
1.550000000000000000e+02 2.434268951416015625e+00 -1.203774738311767578e+01 6.285287672653794289e-04 2.720022457651793957e-04 2.701593039091676474e-04 1.598152739461511374e-04
1.560000000000000000e+02 2.246391296386718750e+00 -1.063450622558593750e+01 -6.923531764186918736e-04 1.063372183125466108e-04 -1.758047874318435788e-04 -7.879107579356059432e-05
1.570000000000000000e+02 8.728251457214355469e+00 -1.807796096801757812e+01 -1.033777953125536442e-03 -3.666167031042277813e-04 -4.201183910481631756e-04 5.010141758248209953e-04
1.580000000000000000e+02 1.049765968322753906e+01 -1.719277000427246094e+01 -1.044053002260625362e-03 -2.452674088999629021e-04 -3.867961349897086620e-04 5.825127591378986835e-04
1.590000000000000000e+02 9.001399993896484375e+00 -1.572311592102050781e+01 -5.665458156727254391e-04 5.676016444340348244e-04 3.167514250890235417e-07 -3.386580792721360922e-04
1.600000000000000000e+02 9.194704055786132812e+00 -1.335962009429931641e+01 1.723986788420006633e-04 -2.053926145890727639e-04 -9.898178177536465228e-06 3.564231446944177151e-04
1.610000000000000000e+02 7.939328670501708984e+00 -1.253714847564697266e+01 3.204281965736299753e-04 3.897275601048022509e-04 2.130467328242957592e-04 3.655988548416644335e-04
1.620000000000000000e+02 7.870048046112060547e+00 -1.143801116943359375e+01 -1.976989151444286108e-04 -3.631218278314918280e-04 -1.682462170720100403e-04 -2.513103536330163479e-04
1.630000000000000000e+02 8.479890823364257812e+00 -9.185416221618652344e+00 -1.490245485911145806e-04 4.483745942707173526e-05 -3.125612784060649574e-05 1.884694211184978485e-04
1.640000000000000000e+02 8.792631149291992188e+00 -7.891063213348388672e+00 -8.915251964936032891e-05 -1.224316365551203489e-04 -6.347525049932301044e-05 1.988126459764316678e-04
1.650000000000000000e+02 1.027428817749023438e+01 -4.716413974761962891e+00 1.221016427734866738e-04 1.387449010508134961e-04 7.825396460248157382e-05 1.003837460302747786e-04
1.660000000000000000e+02 9.655552864074707031e+00 -3.876849412918090820e+00 1.355928106931969523e-04 1.136847713496536016e-04 7.478327461285516620e-05 8.988953049993142486e-05
1.670000000000000000e+02 1.077046298980712891e+01 -2.372177839279174805e+00 -7.882930367486551404e-05 -1.514725008746609092e-04 -6.909054354764521122e-05 -7.670010381843894720e-05
1.680000000000000000e+02 9.214817047119140625e+00 -1.976375937461853027e+00 -9.185157978208735585e-05 -1.018007314996793866e-04 -5.809569483972154558e-05 -4.631710180547088385e-05
1.690000000000000000e+02 8.297426223754882812e+00 -2.846512317657470703e+00 -1.734877296257764101e-04 -9.539524035062640905e-05 -8.066488953772932291e-05 -1.994605918298475444e-05
1.700000000000000000e+02 8.160994529724121094e+00 -3.748323678970336914e+00 2.320923522347584367e-04 9.969022357836365700e-05 9.953477274393662810e-05 -4.746868398797232658e-06
1.710000000000000000e+02 7.971836566925048828e+00 -6.149510860443115234e+00 -1.053372488968307152e-05 -1.262268633581697941e-04 -4.102817911189049482e-05 2.326343965250998735e-04
1.720000000000000000e+02 8.009377479553222656e+00 -8.330993652343750000e+00 2.149496285710483789e-04 5.328427050699247047e-06 6.608341209357604384e-05 -2.948238397948443890e-04
1.730000000000000000e+02 6.636691570281982422e+00 -1.154327678680419922e+01 6.256028427742421627e-04 1.825490908231586218e-04 2.424455888103693724e-04 1.480440696468576789e-04
1.740000000000000000e+02 8.526369094848632812e+00 -1.465220069885253906e+01 2.336976467631757259e-04 -2.942809078376740217e-04 -1.817497650336008519e-05 4.890387644991278648e-04
1.750000000000000000e+02 7.710969924926757812e+00 -1.688249969482421875e+01 -6.174350855872035027e-04 -4.059072816744446754e-04 -3.070027159992605448e-04 2.815973421093076468e-04
1.760000000000000000e+02 7.572090148925781250e+00 -1.784155082702636719e+01 7.034837617538869381e-04 8.388981805182993412e-04 4.627145826816558838e-04 -6.749965832568705082e-04
1.770000000000000000e+02 6.698331356048583984e+00 -1.963618469238281250e+01 1.348261139355599880e-03 9.804826695472002029e-04 6.986231310293078423e-04 -6.083759362809360027e-04
1.780000000000000000e+02 1.284141349792480469e+01 -3.297698259353637695e+00 8.675893332110717893e-05 1.599282113602384925e-04 7.400614413199946284e-05 3.142649075016379356e-05
1.790000000000000000e+02 1.124095344543457031e+01 -3.311416625976562500e+00 -4.207114398013800383e-05 -1.739547005854547024e-04 -6.480775482486933470e-05 -5.368785423343069851e-05
1.800000000000000000e+02 1.211528587341308594e+01 -4.424700736999511719e+00 1.147670263890177011e-04 1.738242135616019368e-04 8.657737635076045990e-05 -7.937008922453969717e-05
1.810000000000000000e+02 1.125897121429443359e+01 -5.526546478271484375e+00 1.045654062181711197e-04 2.242936898255720735e-04 9.865772881312295794e-05 -8.660811727168038487e-05
1.820000000000000000e+02 1.178808593750000000e+01 -6.035197257995605469e+00 -2.801535883918404579e-04 -1.665357558522373438e-04 -1.340068120043724775e-04 1.733641547616571188e-04
1.830000000000000000e+02 1.310799217224121094e+01 -8.962300300598144531e+00 -2.720983757171779871e-04 1.007326864055357873e-04 -5.140970461070537567e-05 -1.266586041310802102e-04
1.840000000000000000e+02 1.527874565124511719e+01 -1.005041503906250000e+01 1.843534992076456547e-04 2.681402838788926601e-04 1.357481378363445401e-04 -1.870136329671368003e-04
1.850000000000000000e+02 1.950681877136230469e+01 -1.341612052917480469e+01 1.396008738083764911e-04 5.490785697475075722e-04 2.066038287011906505e-04 -1.718709245324134827e-04
1.860000000000000000e+02 1.965668296813964844e+01 -1.175968456268310547e+01 -1.366892975056543946e-04 -1.153621560661122203e-04 -7.561544043710455298e-05 -1.618710957700386643e-04
1.870000000000000000e+02 2.219646072387695312e+01 -1.321442127227783203e+01 6.808400939917191863e-05 2.180075898650102317e-05 2.696543015190400183e-05 -7.665621524211019278e-05
1.880000000000000000e+02 1.793369102478027344e+01 -1.265878582000732422e+01 -1.446061560272937641e-05 9.670078725321218371e-05 2.467205013090278953e-05 4.924840686726383865e-05
1.890000000000000000e+02 1.988091659545898438e+01 -1.041383266448974609e+01 2.015398640651255846e-04 -5.069469261798076332e-05 4.525354961515404284e-05 1.491637231083586812e-04
1.900000000000000000e+02 1.960631752014160156e+01 -9.095809936523437500e+00 -2.164924226235598326e-04 -7.309137345146154985e-06 -6.714047049172222614e-05 -3.435606049606576562e-05
1.910000000000000000e+02 1.917063522338867188e+01 -8.557076454162597656e+00 2.132045774487778544e-04 7.554001967946533114e-06 6.622757064178586006e-05 2.456256879668217152e-05
1.920000000000000000e+02 1.824933815002441406e+01 -7.528008937835693359e+00 1.892523432616144419e-04 3.316055881441570818e-05 6.672387098660692573e-05 -7.949010068841744214e-06
1.930000000000000000e+02 1.725518035888671875e+01 -6.570734024047851562e+00 1.136271966970525682e-04 9.663229866418987513e-05 6.307784497039392591e-05 8.760886885283980519e-06
1.940000000000000000e+02 1.570469951629638672e+01 -5.206762790679931641e+00 -1.159487583208829165e-04 -8.388365677092224360e-05 -5.994972525513730943e-05 -4.219544280203990638e-05
1.950000000000000000e+02 1.359716606140136719e+01 -4.547914981842041016e+00 -1.613039348740130663e-04 -1.071658189175650477e-04 -8.054092904785647988e-05 6.900800599396461621e-06
1.960000000000000000e+02 1.344262313842773438e+01 -3.639637231826782227e+00 -1.055591856129467487e-04 -1.361415052087977529e-04 -7.251020724652335048e-05 -1.941993832588195801e-05
1.970000000000000000e+02 1.247567176818847656e+01 -3.858086347579956055e+00 -8.284697105409577489e-05 -1.840301119955256581e-04 -8.006312418729066849e-05 2.412011963315308094e-05
1.980000000000000000e+02 1.151889324188232422e+01 -1.270055961608886719e+01 5.188529030419886112e-04 5.102829309180378914e-04 3.087407385464757681e-04 -1.290444342885166407e-04
1.990000000000000000e+02 1.274030971527099609e+01 -1.336802387237548828e+01 -7.918795454315841198e-04 -3.425670438446104527e-04 -3.403339651413261890e-04 3.293877816759049892e-04
2.000000000000000000e+02 1.228747177124023438e+01 -1.088004398345947266e+01 6.544321076944470406e-04 1.283152960240840912e-05 2.001790853682905436e-04 -1.834017166402190924e-04
2.010000000000000000e+02 1.202737426757812500e+01 -1.179944705963134766e+01 -5.849155131727457047e-04 -4.790269304066896439e-04 -3.191827272530645132e-04 2.063976280624046922e-04
2.020000000000000000e+02 1.046435165405273438e+01 -1.215087985992431641e+01 -5.545822787098586559e-04 -4.426044179126620293e-04 -2.991560031659901142e-04 -4.233764047967270017e-05
2.030000000000000000e+02 1.042426776885986328e+01 -1.517935562133789062e+01 -1.654640655033290386e-04 -6.162005010992288589e-04 -2.344993699807673693e-04 4.876078746747225523e-04
2.040000000000000000e+02 1.384144115447998047e+01 -1.427180385589599609e+01 3.800353151746094227e-04 4.950351431034505367e-04 2.625211491249501705e-04 -3.987508534919470549e-04
2.050000000000000000e+02 1.503948020935058594e+01 -1.252184295654296875e+01 -5.165941547602415085e-04 -4.608908056979998946e-05 -1.688049669610336423e-04 -6.404128362191841006e-05
2.060000000000000000e+02 1.541502189636230469e+01 -1.145191287994384766e+01 6.223384407348930836e-04 5.455354403238743544e-05 2.030675823334604502e-04 -5.223044354352168739e-05
2.070000000000000000e+02 1.326826286315917969e+01 -9.924124717712402344e+00 3.119870380032807589e-04 -1.208293688250705600e-04 5.734729711548425257e-05 1.685932802502065897e-04
2.080000000000000000e+02 1.067232704162597656e+01 -8.117583274841308594e+00 -3.447524795774370432e-04 1.338518777629360557e-04 -6.327018490992486477e-05 -1.582815748406574130e-04
2.090000000000000000e+02 1.152281284332275391e+01 -9.844505310058593750e+00 5.188806680962443352e-04 -1.667617325438186526e-04 1.056356777553446591e-04 -2.651722461450845003e-04
2.100000000000000000e+02 1.346610546112060547e+01 -1.101336669921875000e+01 -4.853376885876059532e-04 2.098422264680266380e-04 -8.264864300144836307e-05 -1.197348319692537189e-04
2.110000000000000000e+02 1.341708660125732422e+01 -1.223029041290283203e+01 7.350947707891464233e-04 1.890073472168296576e-04 2.772306324914097786e-04 -1.338495494564995170e-04
2.120000000000000000e+02 1.525033473968505859e+01 -1.368790531158447266e+01 6.004677561577409506e-05 -5.881343386135995388e-04 -1.584262645337730646e-04 3.797209647018462420e-04
2.130000000000000000e+02 1.816600799560546875e+01 -1.339149665832519531e+01 -5.775423414888791740e-05 -6.406357279047369957e-04 -2.095169911626726389e-04 1.411008124705404043e-04
2.140000000000000000e+02 2.183613014221191406e+01 -1.260972023010253906e+01 -8.776888716965913773e-05 -8.408937719650566578e-05 -5.155747930984944105e-05 5.410320591181516647e-05
2.150000000000000000e+02 2.147586059570312500e+01 -1.198450279235839844e+01 4.424943108460865915e-05 1.642803981667384505e-04 6.255894550122320652e-05 -5.014821363147348166e-05
2.160000000000000000e+02 2.078038597106933594e+01 -1.076876258850097656e+01 9.638028132030740380e-05 1.360294263577088714e-04 6.972291157580912113e-05 1.602925767656415701e-04
2.170000000000000000e+02 2.252386665344238281e+01 -1.428753089904785156e+01 4.805030039278790355e-05 1.234417868545278907e-04 5.144762690179049969e-05 -2.154385765607003123e-05
2.180000000000000000e+02 1.467095661163330078e+01 -5.330409526824951172e+00 -1.486942637711763382e-04 -8.747501124162226915e-05 -7.085078686941415071e-05 -2.497393688827287406e-05
2.190000000000000000e+02 1.515869617462158203e+01 -4.784812927246093750e+00 1.244204904651269317e-04 8.709727262612432241e-05 6.345532892737537622e-05 3.466950875008478761e-05
2.200000000000000000e+02 1.153851127624511719e+01 -2.655049324035644531e+00 6.781160482205450535e-05 1.590460742590948939e-04 6.805730663472786546e-05 7.350509258685633540e-05
2.210000000000000000e+02 5.989685535430908203e+00 -1.928105711936950684e+00 -1.269303611479699612e-04 -7.461566565325483680e-05 -6.046380804036743939e-05 -4.701996203948510811e-06
2.220000000000000000e+02 5.660978794097900391e+00 -4.466074943542480469e+00 1.354412815999239683e-04 1.129587326431646943e-04 7.452000136254355311e-05 1.031528372550383210e-04
2.230000000000000000e+02 5.662046432495117188e+00 -6.446827411651611328e+00 -6.976837175898253918e-05 2.151196713384706527e-05 -1.447692193323746324e-05 -2.042137202806770802e-04
2.240000000000000000e+02 5.821662902832031250e+00 -8.630594253540039062e+00 2.228525772807188332e-05 -2.629251102916896343e-04 -7.219195686047896743e-05 3.615408495534211397e-04
2.250000000000000000e+02 5.993300437927246094e+00 -9.434691429138183594e+00 -5.211478564888238907e-04 -8.322216308442875743e-05 -1.813109993236139417e-04 -2.084650441247504205e-05
2.260000000000000000e+02 5.736667156219482422e+00 -1.038355445861816406e+01 6.772519554942846298e-04 1.494556927355006337e-04 2.480122784618288279e-04 -1.083495735656470060e-04
2.270000000000000000e+02 6.538386344909667969e+00 -1.272251987457275391e+01 -6.375735974870622158e-04 -2.044563589151948690e-04 -2.526089956518262625e-04 -3.290273889433592558e-04
2.280000000000000000e+02 6.033688068389892578e+00 -1.540221023559570312e+01 -8.957874524639919400e-05 2.156437403755262494e-04 3.781949999392963946e-05 -8.522256393916904926e-05
2.290000000000000000e+02 2.102498531341552734e+00 -2.016686201095581055e+00 1.033499302138807252e-05 6.695897172903642058e-05 2.318818769708741456e-05 4.377551886136643589e-05
2.300000000000000000e+02 1.275655627250671387e+00 -2.120253086090087891e+00 -8.201527816709131002e-05 -7.151067984523251653e-05 -4.605779031408019364e-05 -8.121256541926413774e-05
2.310000000000000000e+02 5.036013722419738770e-01 -3.554465055465698242e+00 -2.989886561408638954e-04 -2.984866296174004674e-05 -9.865119500318542123e-05 -7.706988981226459146e-05
2.320000000000000000e+02 2.327741146087646484e+00 -5.807765483856201172e+00 7.081774674588814378e-05 3.956179716624319553e-05 3.311386171844787896e-05 8.907570008886978030e-05
2.330000000000000000e+02 4.213080406188964844e+00 -7.382512092590332031e+00 -5.348440026864409447e-04 -6.567720993189141154e-05 -1.801563630579039454e-04 1.697591651463881135e-04
2.340000000000000000e+02 4.752418041229248047e+00 -6.505323886871337891e+00 6.094382260926067829e-04 4.838768290937878191e-05 1.973477774299681187e-04 -3.088493249379098415e-04
2.350000000000000000e+02 4.083370685577392578e+00 -3.579121112823486328e+00 -3.089472593273967505e-04 -2.487857636879198253e-05 -1.001477503450587392e-04 9.580561055599901010e-08
2.360000000000000000e+02 3.143102169036865234e+00 -2.647737026214599609e+00 4.076792902196757495e-05 -5.495555524248629808e-05 -4.256287411408266053e-06 -2.160317853849846870e-05
2.370000000000000000e+02 6.387224197387695312e-01 -4.920409202575683594e+00 3.729747841134667397e-04 2.821266389219090343e-05 1.203562351292930543e-04 9.778495586942881346e-05
2.380000000000000000e+02 3.080055475234985352e+00 -6.809681415557861328e+00 4.232241772115230560e-04 6.387092435033991933e-05 1.461285282857716084e-04 -2.494790824130177498e-04
2.390000000000000000e+02 4.510856628417968750e+00 -8.779019355773925781e+00 -2.380440710112452507e-04 -4.658739489968866110e-04 -2.111754001816734672e-04 2.669967070687562227e-04
2.400000000000000000e+02 8.264272212982177734e-01 -6.328610897064208984e+00 -4.290264914743602276e-04 -2.426852176995453192e-07 -1.287807535845786333e-04 -8.705175423528999090e-05
2.410000000000000000e+02 3.584020614624023438e+00 -8.351566314697265625e+00 4.639162507373839617e-04 2.618524304125458002e-04 2.177306014345958829e-04 -6.529092934215441346e-05
2.420000000000000000e+02 4.815007209777832031e+00 -1.007981300354003906e+01 -3.162246139254420996e-04 -4.555736668407917023e-04 -2.315394813194870949e-04 4.108363646082580090e-04
2.430000000000000000e+02 4.043878078460693359e+00 -9.620664596557617188e+00 -2.665511965460609645e-05 7.822432671673595905e-04 2.266764495288953185e-04 -2.506258315406739712e-04
2.440000000000000000e+02 2.379248619079589844e+00 -7.954550266265869141e+00 -6.116306758485734463e-04 -1.287577615585178137e-04 -2.221165195805951953e-04 6.370626215357333422e-05
2.450000000000000000e+02 4.238648891448974609e+00 -1.101840782165527344e+01 5.452072364278137684e-04 4.090995644219219685e-04 2.862920518964529037e-04 -3.729117161128669977e-04
2.460000000000000000e+02 7.540605068206787109e-01 -9.268302917480468750e+00 -6.695472984574735165e-04 3.104804636677727103e-05 -1.915497850859537721e-04 -4.862261630478315055e-05
2.470000000000000000e+02 7.685968279838562012e-01 -1.069715881347656250e+01 7.316797273233532906e-04 -3.120375913567841053e-05 2.101427962770685554e-04 -2.394060902588535100e-05
2.480000000000000000e+02 4.436796665191650391e+00 -1.383385562896728516e+01 -1.338911824859678745e-03 -2.595470505184493959e-05 -4.094599571544677019e-04 4.188319144304841757e-04
2.490000000000000000e+02 5.084377765655517578e+00 -1.259596443176269531e+01 1.018808339722454548e-03 1.934669271577149630e-04 3.636826004367321730e-04 -2.941050624940544367e-04
2.500000000000000000e+02 6.393439769744873047e-01 -1.755192565917968750e+01 -1.956566004082560539e-03 -2.710355329327285290e-04 -6.682804669253528118e-04 -2.953758812509477139e-04
2.510000000000000000e+02 7.873774766921997070e-01 -2.043321800231933594e+01 -1.714488375000655651e-03 1.328714424744248390e-04 -4.744850739371031523e-04 -2.852177130989730358e-04
2.520000000000000000e+02 2.478311777114868164e+00 -2.167645072937011719e+01 -1.958756707608699799e-03 2.345727407373487949e-04 -5.172552191652357578e-04 -1.732959935907274485e-04
2.530000000000000000e+02 5.426853179931640625e+00 -2.294028472900390625e+01 3.019306343048810959e-03 -8.637129794806241989e-04 6.466780323535203934e-04 -9.453331585973501205e-04
2.540000000000000000e+02 5.675284862518310547e+00 -2.410223007202148438e+01 -3.363985335454344749e-03 1.956979045644402504e-03 -4.221019044052809477e-04 6.459729047492146492e-04
2.550000000000000000e+02 8.783145904541015625e+00 -2.562153625488281250e+01 -1.261679688468575478e-03 -3.148494215565733612e-06 -3.794484655372798443e-04 -2.245724172098562121e-04
2.560000000000000000e+02 2.306372880935668945e+00 -2.009284782409667969e+01 1.408309326507151127e-03 -2.782215888146311045e-04 3.390263009350746870e-04 6.001942674629390240e-04
2.570000000000000000e+02 2.561135053634643555e+00 -2.326611137390136719e+01 2.152921166270971298e-03 -4.130396700929850340e-04 5.219644517637789249e-04 -2.334335877094417810e-04
2.580000000000000000e+02 4.334031581878662109e+00 -2.461668014526367188e+01 2.078162506222724915e-03 -1.175088691525161266e-03 2.709221153054386377e-04 -4.832631384488195181e-04
2.590000000000000000e+02 6.321522235870361328e+00 -2.648744010925292969e+01 -2.982251811772584915e-03 -1.356219290755689144e-03 -1.301541342400014400e-03 8.866482530720531940e-04
2.600000000000000000e+02 8.297494888305664062e+00 -2.761627769470214844e+01 -3.103949129581451416e-03 1.597623573616147041e-03 -4.518976784311234951e-04 -2.355108968913555145e-03
2.610000000000000000e+02 8.955942153930664062e+00 -2.905187416076660156e+01 5.058514885604381561e-03 3.030709922313690186e-03 2.426767488941550255e-03 -2.443739504087716341e-04
2.620000000000000000e+02 8.461367487907409668e-01 -2.190000343322753906e+01 1.611865824088454247e-03 3.529169407556764781e-05 4.941472434438765049e-04 7.115679181879386306e-05
2.630000000000000000e+02 2.748328208923339844e+00 -2.491692733764648438e+01 -1.867292448878288269e-03 1.525373081676661968e-04 -5.144265596754848957e-04 6.236041663214564323e-04
2.640000000000000000e+02 5.086102008819580078e+00 -2.591150665283203125e+01 -8.226449135690927505e-04 2.580911852419376373e-03 5.274800932966172695e-04 -5.593351670540869236e-04
2.650000000000000000e+02 6.016362667083740234e+00 -2.800600433349609375e+01 1.445380388759076595e-03 2.141380449756979942e-03 1.076028216630220413e-03 -1.083019189536571503e-03
2.660000000000000000e+02 7.524299621582031250e+00 -2.871005821228027344e+01 4.944805987179279327e-04 -3.715198021382093430e-03 -9.662152733653783798e-04 9.567862143740057945e-04
2.670000000000000000e+02 8.871695995330810547e-01 -2.337691497802734375e+01 -1.371174468658864498e-03 1.419258187524974346e-04 -3.687746066134423018e-04 1.046405086526647210e-04
2.680000000000000000e+02 9.311482310295104980e-01 -2.486921882629394531e+01 9.997094748541712761e-04 6.987407687120139599e-05 3.208750858902931213e-04 -2.590441727079451084e-04
2.690000000000000000e+02 2.749616861343383789e+00 -2.661755943298339844e+01 1.516696880571544170e-03 7.055401219986379147e-04 6.666711415164172649e-04 -4.374358395580202341e-04
2.700000000000000000e+02 9.293166995048522949e-01 -2.636530494689941406e+01 -7.967403507791459560e-04 -1.123184993048198521e-04 -2.727176470216363668e-04 1.361723407171666622e-04
2.710000000000000000e+02 2.945686817169189453e+00 -2.973190498352050781e+01 2.312609925866127014e-03 -4.417791205924004316e-04 5.612492677755653858e-04 4.406056541483849287e-04
2.720000000000000000e+02 8.937164545059204102e-01 -2.789958000183105469e+01 8.422168903052806854e-04 -4.347983121988363564e-05 2.396211057202890515e-04 -2.149522333638742566e-04
2.730000000000000000e+02 1.699180483818054199e+00 -3.021148300170898438e+01 -1.088227843865752220e-03 1.153415360022336245e-04 -2.918659010902047157e-04 2.968417247757315636e-04
2.740000000000000000e+02 7.432684302330017090e-01 -3.620624160766601562e+01 1.710734097287058830e-03 3.772995842155069113e-04 6.264101248234510422e-04 7.432072889059782028e-04
2.750000000000000000e+02 6.128000020980834961e-01 -3.754145050048828125e+01 -3.677270375192165375e-03 5.948665202595293522e-04 -9.247211855836212635e-04 -6.296009523794054985e-04
2.760000000000000000e+02 4.768710613250732422e+00 -4.008937835693359375e+01 -1.786625012755393982e-03 -2.817257773131132126e-03 -1.381164882332086563e-03 -3.772716154344379902e-04
2.770000000000000000e+02 7.056779265403747559e-01 -3.873727035522460938e+01 3.940457012504339218e-03 1.054725609719753265e-03 1.498554716818034649e-03 7.795926067046821117e-04
2.780000000000000000e+02 1.169407129287719727e+00 -3.998955154418945312e+01 -2.343589207157492638e-03 7.881121127866208553e-04 -4.666431341320276260e-04 -4.479667113628238440e-04
2.790000000000000000e+02 1.978786826133728027e+00 -4.158801269531250000e+01 9.594014845788478851e-04 4.784848424606025219e-04 4.313659155741333961e-04 -3.046677156817167997e-04
2.800000000000000000e+02 1.698199844360351562e+01 -3.315383148193359375e+01 -2.440863754600286484e-03 6.283110124059021473e-04 -5.437657819129526615e-04 2.514504594728350639e-03
2.810000000000000000e+02 1.421669101715087891e+01 -3.090397262573242188e+01 -9.117709705606102943e-04 2.853625919669866562e-03 5.825564730912446976e-04 6.149619584903120995e-04
2.820000000000000000e+02 2.741679954528808594e+01 -4.110648727416992188e+01 2.785636112093925476e-03 -2.920707222074270248e-03 -4.052133226650767028e-05 7.668722537346184254e-04
2.830000000000000000e+02 3.333057785034179688e+01 -3.693888473510742188e+01 1.148238684982061386e-02 8.488812483847141266e-03 5.991359706968069077e-03 4.376166034489870071e-03
2.840000000000000000e+02 3.486417770385742188e+01 -3.349741744995117188e+01 -6.611939053982496262e-03 8.393110707402229309e-03 5.343514494597911835e-04 2.996741328388452530e-03
2.850000000000000000e+02 3.879125595092773438e+01 -3.521389770507812500e+01 5.329602863639593124e-03 1.103650126606225967e-02 4.909831099212169647e-03 1.835336163640022278e-02
2.860000000000000000e+02 3.943622207641601562e+01 -3.235951995849609375e+01 -5.077715497463941574e-03 -1.833015587180852890e-03 -2.073219278827309608e-03 1.416098047047853470e-02
2.870000000000000000e+02 3.898305892944335938e+01 -3.784656143188476562e+01 -9.683074429631233215e-03 1.873407885432243347e-02 2.715301467105746269e-03 2.407906576991081238e-03
2.880000000000000000e+02 4.553701019287109375e+01 -3.382157516479492188e+01 -9.078812785446643829e-03 8.799672871828079224e-02 2.367537654936313629e-02 3.835020214319229126e-02
2.890000000000000000e+02 4.722514724731445312e+01 -3.545079803466796875e+01 -3.321914374828338623e-02 1.150127127766609192e-01 2.453806996345520020e-02 2.687309309840202332e-02
2.900000000000000000e+02 4.938118743896484375e+01 -3.617270278930664062e+01 -2.268521673977375031e-02 1.425379961729049683e-01 3.595583513379096985e-02 5.786427762359380722e-03
2.910000000000000000e+02 4.981053924560546875e+01 -3.398066711425781250e+01 -4.418444260954856873e-02 1.678886264562606812e-01 3.711125254631042480e-02 2.734570531174540520e-03
2.920000000000000000e+02 4.815750885009765625e+01 -3.304887771606445312e+01 -3.325367718935012817e-02 1.680220514535903931e-01 4.043051227927207947e-02 1.301355008035898209e-02
2.930000000000000000e+02 5.293682098388671875e+01 -3.675071716308593750e+01 -1.627100445330142975e-02 1.420565396547317505e-01 3.773565962910652161e-02 -2.111711725592613220e-02
2.940000000000000000e+02 5.128110122680664062e+01 -3.519150924682617188e+01 -2.627651765942573547e-02 1.133260205388069153e-01 2.611484937369823456e-02 -1.603610627353191376e-02
2.950000000000000000e+02 5.222723770141601562e+01 -3.361066818237304688e+01 -1.318582240492105484e-02 1.586907953023910522e-01 4.365149512887001038e-02 -3.466061502695083618e-02
2.960000000000000000e+02 5.080235671997070312e+01 -3.252526092529296875e+01 -5.038328468799591064e-02 1.507927030324935913e-01 3.012282773852348328e-02 -3.636195510625839233e-02
2.970000000000000000e+02 5.383300018310546875e+01 -3.257802963256835938e+01 1.276710163801908493e-02 1.320274770259857178e-01 4.343837499618530273e-02 -4.974016919732093811e-02
2.980000000000000000e+02 5.271439361572265625e+01 -3.219857788085937500e+01 -2.307454496622085571e-02 1.409997493028640747e-01 3.537756204605102539e-02 -5.531476065516471863e-02
2.990000000000000000e+02 5.788012695312500000e+01 -4.105537414550781250e+01 -1.390387769788503647e-02 6.383108347654342651e-02 1.497816108167171478e-02 -9.551714174449443817e-03
3.000000000000000000e+02 5.528633499145507812e+01 -3.785631179809570312e+01 -2.615872025489807129e-02 9.956713020801544189e-02 2.202252298593521118e-02 -1.793994382023811340e-02
3.010000000000000000e+02 5.507205200195312500e+01 -3.366318893432617188e+01 2.291796170175075531e-02 1.055289208889007568e-01 3.853406384587287903e-02 -3.974974527955055237e-02
3.020000000000000000e+02 5.500391387939453125e+01 -3.259753036499023438e+01 3.120994754135608673e-02 1.190306916832923889e-01 4.507219418883323669e-02 -3.347770124673843384e-02
3.030000000000000000e+02 5.494573974609375000e+01 -3.168904113769531250e+01 5.360928177833557129e-02 1.086985692381858826e-01 4.869235306978225708e-02 -5.836380273103713989e-02
3.040000000000000000e+02 5.673720550537109375e+01 -3.332469940185546875e+01 4.192749783396720886e-02 9.747285395860671997e-02 4.182010516524314880e-02 -5.887820571660995483e-02
3.050000000000000000e+02 5.621843338012695312e+01 -3.224860763549804688e+01 4.365686327219009399e-02 1.236062124371528625e-01 5.017892271280288696e-02 -8.079607039690017700e-02
3.060000000000000000e+02 6.006865692138671875e+01 -3.524542999267578125e+01 -3.399789333343505859e-03 2.434543706476688385e-02 6.283694412559270859e-03 -1.404761709272861481e-02
3.070000000000000000e+02 5.848426818847656250e+01 -3.520226669311523438e+01 1.644037477672100067e-02 4.906907677650451660e-02 1.965283416211605072e-02 -3.901981562376022339e-02
3.080000000000000000e+02 5.821556091308593750e+01 -3.813370895385742188e+01 -1.274996809661388397e-02 6.461684405803680420e-02 1.556006260216236115e-02 -1.968538016080856323e-02
3.090000000000000000e+02 6.046487808227539062e+01 -3.754983520507812500e+01 1.459703687578439713e-02 3.415448963642120361e-02 1.462545804679393768e-02 -1.567524857819080353e-02
3.100000000000000000e+02 6.193349456787109375e+01 -3.684607696533203125e+01 9.394737891852855682e-03 2.008360752370208502e-04 2.878672210499644279e-03 -3.488844260573387146e-03
3.110000000000000000e+02 6.293685913085937500e+01 -3.488196182250976562e+01 -1.489422190934419632e-02 1.309813815169036388e-03 -4.075322300195693970e-03 -3.042949363589286804e-03
3.120000000000000000e+02 6.153565597534179688e+01 -3.507082748413085938e+01 -1.423167437314987183e-02 -4.436420742422342300e-03 -5.600428674370050430e-03 -7.404597272397950292e-05
3.130000000000000000e+02 6.242455291748046875e+01 -4.105210494995117188e+01 4.238096065819263458e-03 2.228731662034988403e-02 7.957624271512031555e-03 -6.616666214540600777e-04
3.140000000000000000e+02 6.417876434326171875e+01 -3.781676483154296875e+01 -1.052938587963581085e-02 -7.582465186715126038e-04 -3.386289812624454498e-03 -1.818962045945227146e-03
3.150000000000000000e+02 6.569050598144531250e+01 -3.438163375854492188e+01 -1.048743817955255508e-02 -1.059194328263401985e-03 -3.463989822193980217e-03 1.887444377643987536e-04
3.160000000000000000e+02 6.829261779785156250e+01 -3.309472274780273438e+01 -4.654108546674251556e-03 4.586687311530113220e-03 -2.022637090703938156e-05 -3.105914918705821037e-03
3.170000000000000000e+02 6.922229766845703125e+01 -3.459294509887695312e+01 -8.123334846459329128e-04 -4.612523771356791258e-04 -3.820757556241005659e-04 3.857206786051392555e-03
3.180000000000000000e+02 7.205871582031250000e+01 -3.753420257568359375e+01 5.064237397164106369e-03 2.051275456324219704e-03 2.134653972461819649e-03 -1.917233748827129602e-05
3.190000000000000000e+02 7.421743774414062500e+01 -3.864719772338867188e+01 -5.072214175015687943e-03 -6.603696965612471104e-04 -1.719775144010782242e-03 7.898640469647943974e-04
3.200000000000000000e+02 7.877621459960937500e+01 -4.043603515625000000e+01 9.361397242173552513e-04 -2.680275822058320045e-03 -5.232408293522894382e-04 3.160101186949759722e-05
3.210000000000000000e+02 7.813970947265625000e+01 -4.178725814819335938e+01 -7.573729380965232849e-04 -2.566512906923890114e-03 -9.971658000722527504e-04 -2.498936955817043781e-04
3.220000000000000000e+02 7.884696197509765625e+01 -3.908778381347656250e+01 -8.648895891383290291e-05 -2.500884933397173882e-03 -7.762121967971324921e-04 3.047957434318959713e-04
3.230000000000000000e+02 7.709225463867187500e+01 -3.757815933227539062e+01 -3.627034602686762810e-03 4.722548692370764911e-05 -1.073942752555012703e-03 1.680874556768685579e-04
3.240000000000000000e+02 7.796261596679687500e+01 -3.360281372070312500e+01 2.427686937153339386e-03 5.888028535991907120e-04 9.049469372257590294e-04 1.790522714145481586e-03
3.250000000000000000e+02 7.830890655517578125e+01 -3.169806098937988281e+01 -1.045307377353310585e-03 5.061696283519268036e-04 -1.617413072381168604e-04 1.103129703551530838e-03
3.260000000000000000e+02 7.731979370117187500e+01 -2.932282638549804688e+01 -1.093720667995512486e-03 -6.158758769743144512e-04 -5.128789925947785378e-04 -2.294033911311998963e-04
3.270000000000000000e+02 7.794317626953125000e+01 -3.031001091003417969e+01 4.605856884154491127e-05 -1.142048276960849762e-03 -3.287969157099723816e-04 -4.755613554152660072e-05
3.280000000000000000e+02 7.578770446777343750e+01 -2.934760475158691406e+01 -9.190525161102414131e-04 -5.424373084679245949e-04 -4.384469357319176197e-04 6.336033693514764309e-04
3.290000000000000000e+02 7.533635711669921875e+01 -3.115424537658691406e+01 -1.629558159038424492e-03 -8.070236071944236755e-04 -7.309745415113866329e-04 2.231944818049669266e-03
3.300000000000000000e+02 7.515504455566406250e+01 -3.448473358154296875e+01 -5.988367367535829544e-03 1.251099311048164964e-04 -1.758977188728749752e-03 2.656982105690985918e-04
3.310000000000000000e+02 7.475371551513671875e+01 -3.588674545288085938e+01 3.017252311110496521e-03 1.371457474306225777e-03 1.316612935625016689e-03 2.993211848661303520e-03
3.320000000000000000e+02 7.538516998291015625e+01 -3.705741882324218750e+01 3.554690163582563400e-03 -7.107892306521534920e-04 8.531702915206551552e-04 -1.088731805793941021e-03
3.330000000000000000e+02 7.628602600097656250e+01 -4.086790466308593750e+01 2.058552578091621399e-03 -1.103330519981682301e-03 2.865665883291512728e-04 1.222378923557698727e-03
3.340000000000000000e+02 7.655514526367187500e+01 -3.912457656860351562e+01 1.810224726796150208e-03 4.499702481552958488e-04 6.780584808439016342e-04 2.591980155557394028e-03
3.350000000000000000e+02 7.613374328613281250e+01 -3.592785644531250000e+01 -2.868504030629992485e-03 -9.982421761378645897e-04 -1.160023850388824940e-03 1.519792829640209675e-03
3.360000000000000000e+02 7.681570434570312500e+01 -3.354774475097656250e+01 -2.617378020659089088e-03 -6.612683646380901337e-04 -9.835938690230250359e-04 6.541355978697538376e-04
3.370000000000000000e+02 7.613492584228515625e+01 -3.133796119689941406e+01 2.319327555596828461e-03 -1.076861983165144920e-03 3.727397124748677015e-04 -1.760547049343585968e-03
3.380000000000000000e+02 7.961159515380859375e+01 -2.935177803039550781e+01 2.241854090243577957e-03 4.343101463746279478e-04 8.028492447920143604e-04 -2.001555403694510460e-04
3.390000000000000000e+02 7.868930053710937500e+01 -3.052857017517089844e+01 6.922683096490800381e-04 7.104777032509446144e-04 4.208238096907734871e-04 -6.400051061064004898e-04
3.400000000000000000e+02 6.609886932373046875e+01 -3.616009902954101562e+01 -7.920340634882450104e-03 -1.452147611416876316e-03 -2.811746438965201378e-03 -1.376325846649706364e-03
3.410000000000000000e+02 6.704589080810546875e+01 -3.386671447753906250e+01 -6.493529770523309708e-03 -3.720229724422097206e-03 -3.064127871766686440e-03 -2.000577747821807861e-03
3.420000000000000000e+02 6.776826477050781250e+01 -3.558612823486328125e+01 -8.364099077880382538e-03 6.853610742837190628e-03 -4.531466111075133085e-04 4.297491628676652908e-03
3.430000000000000000e+02 7.015869903564453125e+01 -3.972836685180664062e+01 -3.362831193953752518e-03 -7.350136991590261459e-03 -3.213890362530946732e-03 1.141955377534031868e-03
3.440000000000000000e+02 6.868492889404296875e+01 -3.751664352416992188e+01 6.674129050225019455e-03 -2.066281624138355255e-03 1.382354181259870529e-03 5.814533680677413940e-03
3.450000000000000000e+02 7.306427764892578125e+01 -4.110507202148437500e+01 4.713198170065879822e-03 9.612727444618940353e-04 1.702341367490589619e-03 1.709698000922799110e-03
3.460000000000000000e+02 7.560218811035156250e+01 -3.026786613464355469e+01 9.801485575735569000e-04 6.501586758531630039e-04 4.890921991318464279e-04 -1.050549792125821114e-03
3.470000000000000000e+02 7.500816345214843750e+01 -2.931220436096191406e+01 6.889443029649555683e-04 5.842543905600905418e-04 3.819596022367477417e-04 -7.055226597003638744e-04
3.480000000000000000e+02 7.222432708740234375e+01 -2.937131309509277344e+01 1.764531712979078293e-03 1.612767577171325684e-03 1.013189787045121193e-03 -9.178214822895824909e-04
3.490000000000000000e+02 7.257294464111328125e+01 -3.325436019897460938e+01 -1.974596874788403511e-03 -6.578783504664897919e-04 -7.897425675764679909e-04 2.179289003834128380e-03
3.500000000000000000e+02 7.164705657958984375e+01 -3.463263320922851562e+01 2.491045743227005005e-04 3.076092340052127838e-03 9.975590510293841362e-04 2.094955852953717113e-04
3.510000000000000000e+02 7.199898529052734375e+01 -3.106506538391113281e+01 1.417910563759505749e-03 -1.084766932763159275e-03 9.994308493332937360e-05 4.176096117589622736e-04
3.520000000000000000e+02 7.109031677246093750e+01 -3.023634529113769531e+01 -5.229725502431392670e-03 -3.633892396464943886e-03 -2.659085439518094063e-03 1.733812969177961349e-03
3.530000000000000000e+02 7.148296356201171875e+01 -2.934540939331054688e+01 1.171975629404187202e-03 -1.170246279798448086e-03 5.188100544728513341e-07 -1.072551705874502659e-03
3.540000000000000000e+02 7.028876495361328125e+01 -3.108684158325195312e+01 2.283317036926746368e-03 3.667239798232913017e-03 1.785167027264833450e-03 -3.028430044651031494e-03
3.550000000000000000e+02 7.136035919189453125e+01 -3.220984649658203125e+01 -2.577458508312702179e-03 4.977250937372446060e-04 -6.239200592972338200e-04 -3.695650957524776459e-04
3.560000000000000000e+02 6.937513732910156250e+01 -3.213470077514648438e+01 -3.857035655528306961e-03 -3.888456150889396667e-03 -2.323647495359182358e-03 2.959255129098892212e-03
3.570000000000000000e+02 7.042067718505859375e+01 -3.612551498413085938e+01 -3.549649147316813469e-03 -3.597721923142671585e-03 -2.144211204722523689e-03 1.202933606691658497e-03
3.580000000000000000e+02 7.040269470214843750e+01 -3.341301345825195312e+01 -2.036827849224209785e-03 -6.784237921237945557e-04 -8.145754691213369370e-04 -5.231405375525355339e-04
3.590000000000000000e+02 5.329700469970703125e+01 -3.113733863830566406e+01 5.152663961052894592e-02 1.487380713224411011e-01 6.007941067218780518e-02 -8.474723249673843384e-02
3.600000000000000000e+02 5.449818801879882812e+01 -3.066710090637207031e+01 4.575902968645095825e-02 1.215224117040634155e-01 5.018443241715431213e-02 -7.590909302234649658e-02
3.610000000000000000e+02 5.113230133056640625e+01 -2.932493591308593750e+01 1.956491172313690186e-02 2.297772765159606934e-01 7.480265200138092041e-02 -7.174646854400634766e-02
3.620000000000000000e+02 4.852367019653320312e+01 -2.524422264099121094e+01 3.443886339664459229e-02 5.491527318954467773e-01 1.750774830579757690e-01 -1.813155263662338257e-01
3.630000000000000000e+02 4.972417449951171875e+01 -2.635674858093261719e+01 6.171601638197898865e-02 3.278373777866363525e-01 1.168660223484039307e-01 -1.907503306865692139e-01
3.640000000000000000e+02 4.558934402465820312e+01 -2.462300109863281250e+01 1.921406388282775879e-01 1.426747888326644897e-01 1.004446297883987427e-01 1.539783924818038940e-01
3.650000000000000000e+02 4.568870544433593750e+01 -2.347124862670898438e+01 6.154139041900634766e-01 -2.815287113189697266e-01 1.001655533909797668e-01 1.434431374073028564e-01
3.660000000000000000e+02 4.492939758300781250e+01 -2.466409492492675781e+01 3.885669708251953125e-01 -1.357436776161193848e-01 7.584699243307113647e-02 2.013957351446151733e-01
3.670000000000000000e+02 4.417499923706054688e+01 -2.448185729980468750e+01 1.515148282051086426e-01 -2.643138468265533447e-01 -3.383970260620117188e-02 4.378810059279203415e-03
3.680000000000000000e+02 4.869329452514648438e+01 -2.655499076843261719e+01 2.824126742780208588e-03 4.957945644855499268e-01 1.495856046676635742e-01 -1.048653498291969299e-01
3.690000000000000000e+02 2.230774164199829102e+00 -3.647255706787109375e+01 -8.914830395951867104e-04 3.612130240071564913e-04 -1.590810134075582027e-04 -9.160052868537604809e-04
3.700000000000000000e+02 2.349354505538940430e+00 -3.332776260375976562e+01 -6.085571949370205402e-04 -8.025331771932542324e-04 -4.233271174598485231e-04 3.424936221563257277e-05
3.710000000000000000e+02 4.090346336364746094e+00 -3.508581924438476562e+01 -3.002887824550271034e-04 -2.143870806321501732e-03 -7.332478417083621025e-04 -2.373367460677400231e-04
3.720000000000000000e+02 3.925809144973754883e+00 -3.327787017822265625e+01 2.005187096074223518e-03 1.205417327582836151e-03 9.631813154555857182e-04 -8.491890621371567249e-04
3.730000000000000000e+02 6.034297943115234375e+00 -3.514645767211914062e+01 2.074423246085643768e-03 2.257037209346890450e-03 1.299438183195888996e-03 -1.758181722834706306e-03
3.740000000000000000e+02 8.300925254821777344e+00 -3.513161468505859375e+01 -4.291018005460500717e-03 -1.850626082159578800e-03 -1.842493191361427307e-03 3.179365070536732674e-03
3.750000000000000000e+02 9.949665069580078125e+00 -3.402320861816406250e+01 2.647261833772063255e-03 -1.806585059966892004e-04 7.399809546768665314e-04 -1.683039154158905149e-04
3.760000000000000000e+02 1.214299011230468750e+01 -3.512538146972656250e+01 2.566828043200075626e-04 1.231965958140790462e-03 4.465946403797715902e-04 -2.617525635287165642e-03
3.770000000000000000e+02 1.567263984680175781e+01 -3.293437957763671875e+01 -2.723076380789279938e-03 1.034051310853101313e-04 -7.859013858251273632e-04 -2.512710168957710266e-03
3.780000000000000000e+02 2.695976257324218750e+01 -3.505981445312500000e+01 -1.060428563505411148e-02 -1.574583584442734718e-03 -3.653660882264375687e-03 1.001811237074434757e-03
3.790000000000000000e+02 4.053224945068359375e+01 -3.423129272460937500e+01 9.965759702026844025e-03 3.272127360105514526e-02 1.280611008405685425e-02 9.530544281005859375e-03
3.800000000000000000e+02 4.413746261596679688e+01 -3.520773696899414062e+01 -1.077395863831043243e-02 7.934488356113433838e-02 2.057127840816974640e-02 4.764209315180778503e-02
3.810000000000000000e+02 2.564263343811035156e+01 -3.335069274902343750e+01 -1.958464272320270538e-03 -1.347808400169014931e-03 -9.918818250298500061e-04 3.031180473044514656e-03
3.820000000000000000e+02 2.425937080383300781e+01 -3.289194107055664062e+01 -5.511130206286907196e-03 2.602531341835856438e-03 -8.725797524675726891e-04 -1.253919326700270176e-03
3.830000000000000000e+02 2.319341278076171875e+01 -3.217370223999023438e+01 -8.308872347697615623e-04 2.872096840292215347e-03 6.123628700152039528e-04 -6.080761668272316456e-04
3.840000000000000000e+02 2.039307594299316406e+01 -3.364511108398437500e+01 2.508676610887050629e-03 -7.698509143665432930e-04 5.216476856730878353e-04 -1.388205215334892273e-03
3.850000000000000000e+02 4.415946006774902344e+00 -2.723161888122558594e+01 -6.289263837970793247e-04 -2.041061175987124443e-03 -8.009962621144950390e-04 5.750785348936915398e-04
3.860000000000000000e+02 6.112563133239746094e+00 -2.523906135559082031e+01 3.881628625094890594e-03 -2.089125337079167366e-03 5.377509514801204205e-04 3.090103564318269491e-05
3.870000000000000000e+02 4.087330818176269531e+00 -2.306399345397949219e+01 -2.426065038889646530e-03 6.809150800108909607e-04 -5.235449643805623055e-04 2.013751509366557002e-04
3.880000000000000000e+02 6.818489074707031250e+00 -2.109641456604003906e+01 1.665839925408363342e-03 5.947006284259259701e-04 6.781621486879885197e-04 -2.628847432788461447e-04
3.890000000000000000e+02 7.785869598388671875e+00 -2.188948631286621094e+01 -1.421264605596661568e-03 -1.482220366597175598e-03 -8.710454567335546017e-04 6.353759090416133404e-04
3.900000000000000000e+02 5.233558654785156250e+00 -1.973399353027343750e+01 1.055044704116880894e-03 5.089950282126665115e-04 4.692119255196303129e-04 -6.997864693403244019e-04
3.910000000000000000e+02 3.633796453475952148e+00 -1.952605056762695312e+01 -1.007547689368948340e-04 3.080128808505833149e-04 6.217743066372349858e-05 -3.717280924320220947e-04
3.920000000000000000e+02 5.971299648284912109e+00 -1.913541793823242188e+01 -8.187770727090537548e-04 -1.024224446155130863e-03 -5.529004265554249287e-04 7.046458194963634014e-04
3.930000000000000000e+02 4.623143672943115234e+00 -1.669058609008789062e+01 5.644568591378629208e-04 1.154264318756759167e-03 5.156163242645561695e-04 -3.126655938103795052e-04
3.940000000000000000e+02 7.589260578155517578e+00 -1.594385051727294922e+01 6.142688798718154430e-04 -4.044982197228819132e-04 6.293120532063767314e-05 8.873081242199987173e-05
3.950000000000000000e+02 6.520580291748046875e+00 -1.774103736877441406e+01 -2.698951866477727890e-04 -1.451477059163153172e-03 -5.164116737432777882e-04 9.363068384118378162e-04
3.960000000000000000e+02 1.140325355529785156e+01 -1.604479789733886719e+01 7.090913713909685612e-04 3.114069404546171427e-04 3.061495081055909395e-04 -5.417750217020511627e-04
3.970000000000000000e+02 1.164959239959716797e+01 -1.431454753875732422e+01 4.235181550029665232e-04 5.088080652058124542e-04 2.796978515107184649e-04 -5.408302531577646732e-04
3.980000000000000000e+02 8.109810829162597656e+00 -1.361526203155517578e+01 -3.350042970851063728e-04 1.096437772503122687e-04 -6.760815449524670839e-05 -4.089090216439217329e-04
3.990000000000000000e+02 9.726675033569335938e+00 -1.421727561950683594e+01 9.310679888585582376e-05 3.358608228154480457e-04 1.286902843276038766e-04 -3.510857932269573212e-04
4.000000000000000000e+02 1.659088706970214844e+01 -1.263379764556884766e+01 1.302442251471802592e-04 4.207654637866653502e-05 5.169623182155191898e-05 2.432109431538265198e-05
4.010000000000000000e+02 9.938238143920898438e+00 -1.288669395446777344e+01 3.816348908003419638e-04 4.594224446918815374e-04 2.523172006476670504e-04 7.769670628476887941e-05
4.020000000000000000e+02 6.764093399047851562e+00 -1.390869903564453125e+01 1.446282403776422143e-04 -3.663719689939171076e-05 3.239731449866667390e-05 5.266704247333109379e-04
4.030000000000000000e+02 3.756368160247802734e+00 -1.209555339813232422e+01 -5.928800674155354500e-04 -5.389066063798964024e-04 -3.395360254216939211e-04 5.161759327165782452e-04
4.040000000000000000e+02 2.012663269042968750e+01 -1.097563457489013672e+01 -1.358000008622184396e-04 -4.867674579145386815e-05 -5.534302181331440806e-05 -1.770340604707598686e-04
4.050000000000000000e+02 1.864310455322265625e+01 -1.116396331787109375e+01 4.089381945959758013e-06 1.306990889133885503e-04 4.043653825647197664e-05 7.365312922047451138e-05
4.060000000000000000e+02 1.682331466674804688e+01 -1.098766422271728516e+01 3.964059869758784771e-04 -1.090847308660158888e-05 1.156492580776102841e-04 3.489671144052408636e-05
4.070000000000000000e+02 1.663805770874023438e+01 -1.178960323333740234e+01 -3.296344948466867208e-04 -1.139676678576506674e-04 -1.330806408077478409e-04 -1.453050208510830998e-04
4.080000000000000000e+02 1.778950309753417969e+01 -1.189758872985839844e+01 8.022652764338999987e-05 1.468272239435464144e-04 6.811612547608092427e-05 7.912903674878180027e-05
4.090000000000000000e+02 6.731350898742675781e+00 -1.049707221984863281e+01 -5.651321262121200562e-04 -1.402589550707489252e-04 -2.116173272952437401e-04 -6.448262865887954831e-05
4.100000000000000000e+02 9.488313674926757812e+00 -1.173983764648437500e+01 8.312775171361863613e-04 1.225855667144060135e-04 2.861589018721133471e-04 1.665364979999139905e-04
4.110000000000000000e+02 5.423131465911865234e+00 -1.141453647613525391e+01 -7.674320368096232414e-04 -2.406503481324762106e-04 -3.024247125722467899e-04 1.639744587009772658e-04
4.120000000000000000e+02 3.396752834320068359e+00 -1.029823398590087891e+01 2.806389529723674059e-04 -3.601736971177160740e-04 -2.386042615398764610e-05 1.645001320866867900e-04
4.130000000000000000e+02 1.905375671386718750e+01 -9.492568016052246094e+00 2.256672887597233057e-04 -3.310974250325671164e-07 6.760085670975968242e-05 2.415635572106111795e-05
4.140000000000000000e+02 1.789973640441894531e+01 -9.816616058349609375e+00 -2.550291246734559536e-04 1.104580042010638863e-05 -7.319499127333983779e-05 2.694323029572842643e-06
4.150000000000000000e+02 1.460391712188720703e+01 -8.581521034240722656e+00 -1.020228228298947215e-05 1.084614268620498478e-04 2.947774373751599342e-05 7.957156640259199776e-07
4.160000000000000000e+02 1.453066539764404297e+01 -1.068577766418457031e+01 -1.889715058496221900e-04 -2.667359076440334320e-04 -1.367122313240543008e-04 1.835194998420774937e-04
4.170000000000000000e+02 1.733583831787109375e+01 -9.581261634826660156e+00 3.219470090698450804e-04 -5.077411628917616326e-07 9.643178782425820827e-05 -7.553418981842696667e-05
4.180000000000000000e+02 7.621903419494628906e+00 -9.518365859985351562e+00 1.174099634226877242e-05 -1.715772959869354963e-04 -4.795088898390531540e-05 -1.515727053629234433e-04
4.190000000000000000e+02 8.775481224060058594e+00 -1.015175914764404297e+01 6.536466389661654830e-05 -3.409112105146050453e-04 -8.266395889222621918e-05 -6.663399835815653205e-05
4.200000000000000000e+02 3.244410276412963867e+00 -9.345376968383789062e+00 -4.165745631325989962e-04 -2.806373813655227423e-04 -2.091635833494365215e-04 -2.857308209058828652e-05
4.210000000000000000e+02 1.665720748901367188e+01 -7.134979724884033203e+00 -1.075149921234697104e-04 -1.363776973448693752e-04 -7.316780829569324851e-05 -9.773115152711397968e-07
4.220000000000000000e+02 1.467281055450439453e+01 -6.300630569458007812e+00 -1.885250239865854383e-04 -9.112855332205072045e-05 -8.389606955461204052e-05 -1.519702527730260044e-05
4.230000000000000000e+02 1.273919868469238281e+01 -5.676174163818359375e+00 -2.981751167681068182e-04 -6.726571155013516545e-05 -1.096322448574937880e-04 4.706400432041846216e-05
4.240000000000000000e+02 1.372773075103759766e+01 -6.397556304931640625e+00 -2.209018857683986425e-04 -6.645776011282578111e-05 -8.620789594715461135e-05 6.392334398697130382e-06
4.250000000000000000e+02 1.329789066314697266e+01 -6.851013183593750000e+00 3.773067728616297245e-04 -5.171000520931556821e-05 9.767903247848153114e-05 -1.919106289278715849e-04
4.260000000000000000e+02 1.533767509460449219e+01 -8.258639335632324219e+00 -8.611221346654929221e-06 -1.739490980980917811e-04 -5.476809747051447630e-05 -3.735355130629613996e-05
4.270000000000000000e+02 1.603534889221191406e+01 -7.748074054718017578e+00 6.661690713372081518e-05 2.018674567807465792e-04 8.054530917434021831e-05 1.592824628460220993e-05
4.280000000000000000e+02 1.222367095947265625e+01 -8.148169517517089844e+00 -1.308824430452659726e-04 3.382021895959042013e-05 -2.911866977228783071e-05 -5.084574149805121124e-05
4.290000000000000000e+02 1.183931064605712891e+01 -7.408760070800781250e+00 -3.421591827645897865e-04 -1.027370308293029666e-04 -1.334688568022102118e-04 3.149000694975256920e-04
4.300000000000000000e+02 7.530863761901855469e+00 -7.515937328338623047e+00 -9.602004138287156820e-05 -1.218718971358612180e-04 -6.536758155561983585e-05 2.937524695880711079e-04
4.310000000000000000e+02 1.775135612487792969e+01 -7.048398017883300781e+00 -1.490626309532672167e-04 -6.681723607471212745e-05 -6.476396083598956466e-05 5.657451765728183091e-06
4.320000000000000000e+02 6.575174331665039062e+00 -5.867442131042480469e+00 -1.099978690035641193e-04 -7.957185152918100357e-05 -5.687091470463201404e-05 2.351215516682714224e-04
4.330000000000000000e+02 1.000610351562500000e+01 -6.382413864135742188e+00 -8.694743883097544312e-05 1.880144845927134156e-04 3.032011227332986891e-05 -2.690618857741355896e-04
4.340000000000000000e+02 6.073661327362060547e+00 -7.258380889892578125e+00 -6.950703391339629889e-05 -1.545686973258852959e-04 -6.722271791659295559e-05 3.020301228389143944e-04
4.350000000000000000e+02 1.518696117401123047e+01 -5.754254817962646484e+00 1.545695849927142262e-04 8.499657997163012624e-05 7.186985021689906716e-05 3.110292527708224952e-05
4.360000000000000000e+02 8.915286064147949219e+00 -3.826379776000976562e+00 -2.231513935839757323e-04 -7.808044028934091330e-05 -9.036954725161194801e-05 -6.563361966982483864e-05
4.370000000000000000e+02 6.579615116119384766e+00 -3.630959272384643555e+00 2.040815161308273673e-04 1.116839630412869155e-04 9.472964302403852344e-05 1.193102980323601514e-05
4.380000000000000000e+02 4.359724521636962891e+00 -1.836564779281616211e+00 -8.494774374412372708e-05 -1.964080438483506441e-04 -8.440673991572111845e-05 1.133235418819822371e-04
4.390000000000000000e+02 3.660376548767089844e+00 -1.792749881744384766e+00 -2.146347105735912919e-05 1.406145747750997543e-04 3.574532820493914187e-05 -5.335760215530171990e-05
4.400000000000000000e+02 6.696152210235595703e+00 -2.780753850936889648e+00 -1.643972209421917796e-04 -9.856043470790609717e-05 -7.888730033300817013e-05 -1.280715332541149110e-05
4.410000000000000000e+02 3.845186233520507812e+00 -3.696470260620117188e+01 5.557901458814740181e-04 -7.012697169557213783e-04 -4.364387132227420807e-05 1.179239246994256973e-03
4.420000000000000000e+02 1.612693786621093750e+01 -3.766698837280273438e+01 5.470514297485351562e-03 1.390211516991257668e-03 2.058217767626047134e-03 -2.486051525920629501e-03
4.430000000000000000e+02 2.752250862121582031e+01 -3.835892105102539062e+01 -2.645969216246157885e-04 1.044052653014659882e-03 2.338367194170132279e-04 -5.065929610282182693e-03
4.440000000000000000e+02 3.221755218505859375e+01 -3.483762359619140625e+01 -1.490607298910617828e-02 -4.634550306946039200e-03 -5.862187128514051437e-03 -3.653579391539096832e-03
4.450000000000000000e+02 5.449396896362304688e+01 -3.492526245117187500e+01 -2.545530349016189575e-02 1.124562025070190430e-01 2.610027045011520386e-02 -2.610741555690765381e-02
4.460000000000000000e+02 5.369691085815429688e+01 -3.385840988159179688e+01 2.460128860548138618e-03 1.403771042823791504e-01 4.285117238759994507e-02 -1.759782806038856506e-02
4.470000000000000000e+02 7.316703033447265625e+01 -3.562039566040039062e+01 -6.421696860343217850e-03 -1.564566395245492458e-03 -2.395879011601209641e-03 2.200921531766653061e-03
4.480000000000000000e+02 7.647869110107421875e+01 -3.472171783447265625e+01 2.402276033535599709e-03 4.864476504735648632e-04 8.666171343065798283e-04 1.344874734058976173e-03
4.490000000000000000e+02 7.383718109130859375e+01 -3.407738494873046875e+01 3.943503834307193756e-03 -8.922480628825724125e-05 1.156283775344491005e-03 -1.277368050068616867e-03
4.500000000000000000e+02 7.926042938232421875e+01 -3.489941787719726562e+01 2.466030418872833252e-03 -4.606818547472357750e-04 6.016045226715505123e-04 5.128743941895663738e-04
4.510000000000000000e+02 1.744818687438964844e+00 -3.787483596801757812e+01 -1.987003342946991324e-04 -6.654534954577684402e-04 -2.592461532913148403e-04 5.407138960435986519e-04
4.520000000000000000e+02 3.082983589172363281e+01 -3.811432266235351562e+01 -5.386753007769584656e-03 3.948643279727548361e-04 -1.497566583566367626e-03 3.936963039450347424e-04
4.530000000000000000e+02 6.455723571777343750e+01 -3.624276733398437500e+01 6.514393608085811138e-04 2.065637614578008652e-03 8.151230867952108383e-04 -1.557984738610684872e-03
4.540000000000000000e+02 6.686668395996093750e+01 -4.098221969604492188e+01 7.019646931439638138e-03 2.161934273317456245e-03 2.754474291577935219e-03 -7.821320905350148678e-04
4.550000000000000000e+02 7.900735473632812500e+01 -3.767760467529296875e+01 9.281912352889776230e-04 -1.579671166837215424e-03 -1.954439649125561118e-04 1.043950091116130352e-03
4.560000000000000000e+02 2.967502593994140625e+00 -3.875915527343750000e+01 7.084081298671662807e-04 1.345632714219391346e-03 6.162122590467333794e-04 1.205590204335749149e-03
4.570000000000000000e+02 4.213632202148437500e+01 -3.793423843383789062e+01 1.635695109143853188e-03 5.456474423408508301e-02 1.686013117432594299e-02 1.567120291292667389e-02
4.580000000000000000e+02 4.240027618408203125e+01 -4.096450042724609375e+01 -1.153150107711553574e-02 5.016903579235076904e-02 1.159126032143831253e-02 2.089590067043900490e-03
4.590000000000000000e+02 5.044623947143554688e+01 -3.905022811889648438e+01 -4.652697965502738953e-02 1.074112802743911743e-01 1.826529018580913544e-02 3.330857492983341217e-03
4.600000000000000000e+02 4.676234817504882812e+01 -4.057424545288085938e+01 -2.437470480799674988e-02 1.028240770101547241e-01 2.353481203317642212e-02 5.805445369333028793e-03
4.610000000000000000e+02 7.564901733398437500e+01 -3.326479339599609375e+01 3.770745359361171722e-03 -5.260166362859308720e-04 9.734185878187417984e-04 -5.344512755982577801e-04
4.620000000000000000e+02 7.346382141113281250e+01 -3.224858856201171875e+01 -3.490890841931104660e-03 3.376969252713024616e-04 -9.459581924602389336e-04 -2.332700183615088463e-03
4.630000000000000000e+02 7.928463745117187500e+01 -3.348621368408203125e+01 -2.727637765929102898e-03 -9.561706247041001916e-05 -8.469764143228530884e-04 -9.309549204772338271e-05
4.640000000000000000e+02 7.497390747070312500e+01 -3.201070785522460938e+01 9.855462703853845596e-04 8.695204160176217556e-04 5.565200117416679859e-04 -3.150594886392354965e-03
4.650000000000000000e+02 4.906978988647460938e+01 -2.469680976867675781e+01 2.204617559909820557e-01 6.517378687858581543e-01 2.616598904132843018e-01 -2.318852841854095459e-01
4.660000000000000000e+02 4.860239791870117188e+01 -2.413659095764160156e+01 2.094356566667556763e-01 4.906808733940124512e-01 2.100349664688110352e-01 -3.933973312377929688e-01
4.670000000000000000e+02 4.868724441528320312e+01 -2.308495140075683594e+01 9.309080243110656738e-02 1.909627020359039307e-01 8.521605283021926880e-02 -6.569505929946899414e-01
4.680000000000000000e+02 4.634759140014648438e+01 -2.265771675109863281e+01 1.037354350090026855e+00 -1.193766668438911438e-01 2.753933072090148926e-01 1.393179446458816528e-01
4.690000000000000000e+02 5.432302856445312500e+01 -2.952036857604980469e+01 3.443337976932525635e-02 1.169326677918434143e-01 4.540981352329254150e-02 -9.369030594825744629e-02
4.700000000000000000e+02 5.493515777587890625e+01 -2.984929847717285156e+01 1.497479993849992752e-02 6.936789304018020630e-02 2.530280873179435730e-02 -6.298948079347610474e-02
4.710000000000000000e+02 5.301712799072265625e+01 -2.877193069458007812e+01 2.674898505210876465e-02 1.574954688549041748e-01 5.527333542704582214e-02 -1.040771454572677612e-01
4.720000000000000000e+02 5.152584075927734375e+01 -2.810049438476562500e+01 2.106899954378604889e-02 2.372927516698837280e-01 7.750852406024932861e-02 -1.107108145952224731e-01
4.730000000000000000e+02 4.493341445922851562e+01 -2.293271827697753906e+01 2.996756732463836670e-01 -5.104146003723144531e-01 -6.322167068719863892e-02 -3.313524127006530762e-01
4.740000000000000000e+02 4.268035888671875000e+01 -2.374489593505859375e+01 4.063380509614944458e-02 -2.569517791271209717e-01 -6.489539146423339844e-02 -1.254521459341049194e-01
4.750000000000000000e+02 1.280920600891113281e+01 -3.038967132568359375e+01 -3.899526782333850861e-04 -1.185829169116914272e-03 -4.727345658466219902e-04 -9.180535562336444855e-04
4.760000000000000000e+02 9.892201423645019531e+00 -1.845896720886230469e+01 1.352292136289179325e-03 3.658639616332948208e-04 5.154468235559761524e-04 -6.616606260649859905e-04
4.770000000000000000e+02 2.242545700073242188e+01 -1.376194858551025391e+01 -3.692783502629026771e-05 5.303465877659618855e-05 4.832047125091776252e-06 6.379499245667830110e-05
4.780000000000000000e+02 2.075297355651855469e+01 -1.223379135131835938e+01 -2.602517815830651671e-05 -3.822285216301679611e-04 -1.224761072080582380e-04 4.194783832645043731e-05
4.790000000000000000e+02 2.043619346618652344e+01 -1.017671108245849609e+01 -1.776846038410440087e-04 -2.395198134763631970e-05 -6.049097282811999321e-05 -1.320891169598326087e-04
4.800000000000000000e+02 2.112045097351074219e+01 -1.137298583984375000e+01 -1.772070208971854299e-05 -2.371089067310094833e-04 -7.644887955393642187e-05 -5.952132778475061059e-05
4.810000000000000000e+02 2.004030609130859375e+01 -9.625424385070800781e+00 2.272279380122199655e-04 9.044091711984947324e-06 7.088160782586783171e-05 6.682928506052121520e-05
4.820000000000000000e+02 1.872430419921875000e+01 -8.028711318969726562e+00 -2.104356681229546666e-04 -5.877243893337436020e-06 -6.489387305919080973e-05 -7.457570518454303965e-06
4.830000000000000000e+02 1.675901222229003906e+01 -6.091234207153320312e+00 -9.563698404235765338e-05 -9.592830610927194357e-05 -5.746958777308464050e-05 -3.501006358419544995e-05
4.840000000000000000e+02 1.460700130462646484e+01 -4.372460365295410156e+00 -1.221821876242756844e-04 -9.713019244372844696e-05 -6.579371256520971656e-05 -2.925073204096406698e-05
4.850000000000000000e+02 1.222780704498291016e+01 -2.965837001800537109e+00 -7.334561814786866307e-05 -1.736550038913264871e-04 -7.410018588416278362e-05 -6.028894858900457621e-05
4.860000000000000000e+02 9.993023872375488281e+00 -2.115814685821533203e+00 9.879149729385972023e-05 1.250304048880934715e-04 6.714656774420291185e-05 6.196909089339897037e-05
4.870000000000000000e+02 8.426521301269531250e+00 -1.949694156646728516e+00 1.311716332565993071e-04 9.044280159287154675e-05 6.648433191003277898e-05 2.865689930331427604e-05
4.880000000000000000e+02 7.624329566955566406e+00 -1.934641122817993164e+00 -1.390775578329339623e-04 -9.768217569217085838e-05 -7.102792005753144622e-05 -1.389220597047824413e-05
4.890000000000000000e+02 6.812862873077392578e+00 -1.927001118659973145e+00 1.358945737592875957e-04 7.591876783408224583e-05 6.354400102281942964e-05 5.390971182350767776e-06
4.900000000000000000e+02 5.136062622070312500e+00 -1.930197358131408691e+00 1.355155691271647811e-04 8.853001781972125173e-05 6.721367390127852559e-05 -2.757075162662658840e-05
4.910000000000000000e+02 2.903577804565429688e+00 -1.899982213973999023e+00 8.365987014258280396e-06 -6.810322520323097706e-05 -1.792117291188333184e-05 -2.066599108729860745e-06
4.920000000000000000e+02 5.359882712364196777e-01 -1.504958057403564453e+01 -2.628373447805643082e-03 3.748061863007023931e-05 -7.772678509354591370e-04 -1.485598186263814569e-04
4.930000000000000000e+02 7.938581848144531250e+01 -3.206014251708984375e+01 2.836064202710986137e-03 -3.457971033640205860e-04 7.470801356248557568e-04 -2.020514366449788213e-04
4.940000000000000000e+02 7.884081268310546875e+01 -2.933432197570800781e+01 -5.653121042996644974e-04 -9.701832896098494530e-04 -4.606486181728541851e-04 3.774619544856250286e-04
4.950000000000000000e+02 7.807997894287109375e+01 -2.930760383605957031e+01 2.547520562075078487e-04 1.039930386468768120e-03 3.884047328028827906e-04 -7.909283885965123773e-05
4.960000000000000000e+02 7.655762481689453125e+01 -2.935652542114257812e+01 1.360985683277249336e-03 3.325644356664270163e-04 5.080650444142520428e-04 -4.169780295342206955e-04
4.970000000000000000e+02 7.352938079833984375e+01 -2.918890762329101562e+01 -1.064603799022734165e-03 1.931707956828176975e-03 2.601312298793345690e-04 -4.651364361052401364e-05
4.980000000000000000e+02 7.290203094482421875e+01 -2.920654487609863281e+01 -6.350777694024145603e-04 -2.384987426921725273e-03 -9.060195880010724068e-04 -6.708736182190477848e-04
4.990000000000000000e+02 6.430500793457031250e+01 -3.467024612426757812e+01 -1.537157595157623291e-02 1.141382032074034214e-03 -4.269057884812355042e-03 -7.383608608506619930e-04
5.000000000000000000e+02 4.960319519042968750e+01 -2.418303489685058594e+01 1.859493255615234375e-01 2.986735701560974121e-01 1.453868597745895386e-01 -4.117526710033416748e-01
5.010000000000000000e+02 4.915237045288085938e+01 -2.365483283996582031e+01 3.840745389461517334e-01 6.461024284362792969e-01 3.090530931949615479e-01 -2.145916521549224854e-01
5.020000000000000000e+02 7.261746215820312500e+01 -3.031794929504394531e+01 -5.956193897873163223e-03 1.078029090422205627e-04 -1.754517317749559879e-03 -7.337264833040535450e-05
5.030000000000000000e+02 7.423948669433593750e+01 -2.926973915100097656e+01 -1.179620667244307697e-04 -1.062925090081989765e-03 -3.542661725077778101e-04 8.424459374509751797e-04
5.040000000000000000e+02 5.514618682861328125e+01 -3.095717620849609375e+01 2.902146056294441223e-02 9.181960672140121460e-02 3.625231981277465820e-02 -9.374979883432388306e-02
5.050000000000000000e+02 1.715852355957031250e+01 -7.594750881195068359e+00 1.634060608921572566e-04 1.005821904982440174e-04 7.919647759990766644e-05 -4.087776324013248086e-05
5.060000000000000000e+02 1.624285125732421875e+01 -5.634800434112548828e+00 1.111573656089603901e-04 8.798855560598894954e-05 5.974377563688904047e-05 4.035853635286912322e-05
5.070000000000000000e+02 1.403528308868408203e+01 -3.990878105163574219e+00 1.274334354093298316e-04 1.093534156098030508e-04 7.103605457814410329e-05 2.028044400503858924e-05
5.080000000000000000e+02 1.514054489135742188e+01 -6.729802131652832031e+00 2.063527645077556372e-04 6.971177208470180631e-05 8.281936607090756297e-05 3.980016481364145875e-05
5.090000000000000000e+02 1.568596172332763672e+01 -6.192190647125244141e+00 -1.424059446435421705e-04 -8.918521052692085505e-05 -6.947734800633043051e-05 -4.628734677680768073e-05
5.100000000000000000e+02 1.767613983154296875e+01 -8.038393974304199219e+00 -2.115543902618810534e-04 -4.470240310183726251e-05 -7.687704055570065975e-05 3.791338531300425529e-05
5.110000000000000000e+02 1.817185974121093750e+01 -8.482559204101562500e+00 2.511148341000080109e-04 6.230246071936562657e-06 7.720352004980668426e-05 -3.092654151259921491e-05
5.120000000000000000e+02 1.617374610900878906e+01 -6.656405925750732422e+00 1.098180437111295760e-04 1.137807994382455945e-04 6.707965076202526689e-05 4.094114046893082559e-05
5.130000000000000000e+02 1.316217327117919922e+01 -5.103363990783691406e+00 2.229874662589281797e-04 8.819278446026146412e-05 9.335407958133146167e-05 -3.915906199836172163e-05
5.140000000000000000e+02 1.413993167877197266e+01 -4.926017761230468750e+00 1.638215908315032721e-04 9.218737977789714932e-05 7.680268754484131932e-05 1.086964766727760434e-05
5.150000000000000000e+02 1.304216289520263672e+01 -4.193027496337890625e+00 1.412741548847407103e-04 1.376739091938361526e-04 8.368441922357305884e-05 -2.640626189531758428e-05
5.160000000000000000e+02 1.863194084167480469e+01 -8.951276779174804688e+00 -2.543414593674242496e-04 2.925551416410598904e-05 -6.752578337909653783e-05 -3.792014922510134056e-06
5.170000000000000000e+02 1.880299568176269531e+01 -1.187061691284179688e+01 7.583209662698209286e-05 -6.526525976369157434e-05 3.170049922118778341e-06 3.843348531518131495e-05
5.180000000000000000e+02 1.950915527343750000e+01 -9.968653678894042969e+00 -2.919481776189059019e-04 -1.259630039385228883e-06 -8.796234033070504665e-05 -9.502628381596878171e-05
5.190000000000000000e+02 2.041148948669433594e+01 -1.158873939514160156e+01 6.348122406052425504e-05 2.788821002468466759e-04 1.027089965646155179e-04 1.593780616531148553e-04
5.200000000000000000e+02 4.707777786254882812e+01 -2.372181510925292969e+01 8.729493618011474609e-02 9.218178987503051758e-01 3.027338683605194092e-01 7.274250388145446777e-01
5.210000000000000000e+02 4.763220596313476562e+01 -2.407323646545410156e+01 -1.168860718607902527e-01 1.745036244392395020e+00 4.884450435638427734e-01 2.510659694671630859e-01
5.220000000000000000e+02 4.507484436035156250e+01 -2.352354621887207031e+01 5.156747698783874512e-01 -4.463316798210144043e-01 2.080291695892810822e-02 4.900817200541496277e-02
5.230000000000000000e+02 4.334178161621093750e+01 -2.420605659484863281e+01 1.886181384325027466e-01 -3.008676171302795410e-01 -3.367483988404273987e-02 -9.896082431077957153e-02
5.240000000000000000e+02 4.454633712768554688e+01 -2.381324577331542969e+01 3.848122656345367432e-01 -3.637062609195709229e-01 6.331803277134895325e-03 -1.290248781442642212e-01
5.250000000000000000e+02 4.750946807861328125e+01 -2.503610229492187500e+01 -1.284311413764953613e-01 9.021407961845397949e-01 2.321128994226455688e-01 1.116392761468887329e-01
5.260000000000000000e+02 7.722592926025390625e+01 -3.031818199157714844e+01 1.537664677016437054e-03 8.677243604324758053e-04 7.216167286969721317e-04 9.144733194261789322e-04
5.270000000000000000e+02 7.480689239501953125e+01 -3.016634559631347656e+01 -8.268111268989741802e-04 -1.238187425769865513e-03 -6.194995949044823647e-04 6.689308793283998966e-04
5.280000000000000000e+02 7.326441192626953125e+01 -2.982512283325195312e+01 1.652754261158406734e-03 6.193108274601399899e-04 6.816195091232657433e-04 -3.197978367097675800e-05
5.290000000000000000e+02 7.398747253417968750e+01 -3.009493255615234375e+01 6.647854461334645748e-04 8.069401956163346767e-04 4.415176808834075928e-04 -6.372603820636868477e-04
5.300000000000000000e+02 7.642269134521484375e+01 -3.037571334838867188e+01 -2.267706906422972679e-03 -1.181903062388300896e-04 -7.157691870816051960e-04 4.501489165704697371e-04
5.310000000000000000e+02 5.386473846435546875e+01 -3.030678558349609375e+01 3.994678612798452377e-03 1.023701578378677368e-01 3.190945088863372803e-02 -6.935868412256240845e-02
5.320000000000000000e+02 4.271880090236663818e-01 -2.185904502868652344e+00 2.268721436848863959e-04 2.861168468371033669e-05 7.664514851057901978e-05 4.969660585629753768e-05
5.330000000000000000e+02 1.483554601669311523e+00 -3.345763206481933594e+00 8.014826744329184294e-05 8.630070078652352095e-05 4.993468974134884775e-05 8.847139542922377586e-05
5.340000000000000000e+02 9.056743621826171875e+00 -2.907559156417846680e+00 1.613019412616267800e-04 1.052060324582271278e-04 7.995239138836041093e-05 6.583233334822580218e-05
5.350000000000000000e+02 7.507316112518310547e+00 -2.804828643798828125e+00 1.756002602633088827e-04 9.035156108438968658e-05 7.978554640430957079e-05 1.014646022667875513e-05
5.360000000000000000e+02 2.365195035934448242e+00 -3.012219667434692383e+00 2.020751708187162876e-05 -5.800669532618485391e-05 -1.133975365519290790e-05 5.753196091973222792e-06
5.370000000000000000e+02 3.894434213638305664e+00 -2.323724985122680664e+00 -3.819899211521260440e-05 1.281692238990217447e-04 2.699107062653638422e-05 -7.064929377520456910e-05
5.380000000000000000e+02 5.862117767333984375e+00 -2.775768041610717773e+00 1.717469131108373404e-04 7.375024870270863175e-05 7.364914927165955305e-05 8.127967703330796212e-06
5.390000000000000000e+02 4.995866775512695312e+00 -2.783338785171508789e+00 -2.202645264333114028e-04 -3.909984116035047919e-06 -6.725235289195552468e-05 1.841075572883710265e-05
5.400000000000000000e+02 4.171317577362060547e+00 -2.894695281982421875e+00 1.927329722093418241e-04 -9.389615297550335526e-05 2.965104795293882489e-05 5.954290372756076977e-06
5.410000000000000000e+02 9.797813415527343750e+00 -3.001229286193847656e+00 -1.340094750048592687e-04 -1.147233633673749864e-04 -7.461984932888299227e-05 -7.423530769301578403e-05
5.420000000000000000e+02 5.030326080322265625e+01 -2.690719413757324219e+01 7.241898775100708008e-02 3.571718633174896240e-01 1.288772523403167725e-01 -1.254378557205200195e-01
5.430000000000000000e+02 4.926729202270507812e+01 -2.702179145812988281e+01 3.455433249473571777e-02 4.030455052852630615e-01 1.312799453735351562e-01 -1.177775561809539795e-01
5.440000000000000000e+02 4.976939010620117188e+01 -2.751908111572265625e+01 -3.464254364371299744e-02 3.242043852806091309e-01 8.686855435371398926e-02 -1.468625664710998535e-01
5.450000000000000000e+02 4.204794692993164062e+01 -2.416694068908691406e+01 -5.367336794734001160e-03 -3.397326469421386719e-01 -1.035299971699714661e-01 -1.277905795723199844e-02
5.460000000000000000e+02 2.173429489135742188e+01 -1.346915054321289062e+01 -1.573518820805475116e-04 1.638308276596944779e-05 -4.229064143146388233e-05 1.499202539889665786e-06
5.470000000000000000e+02 9.090788841247558594e+00 -1.688956832885742188e+01 9.334583883173763752e-04 1.429347466910257936e-04 3.229179419577121735e-04 -2.996262046508491039e-04
5.480000000000000000e+02 8.736183166503906250e+00 -2.087359619140625000e+01 1.671423553489148617e-03 1.254203030839562416e-03 8.776879985816776752e-04 -1.039147144183516502e-03
5.490000000000000000e+02 1.675005149841308594e+01 -1.347052001953125000e+01 2.801262417051475495e-05 7.079875795170664787e-04 2.208000660175457597e-04 -1.677080581430345774e-04
5.500000000000000000e+02 1.261428070068359375e+01 -1.513402366638183594e+01 -4.121832607779651880e-04 -4.169241001363843679e-04 -2.487322199158370495e-04 5.352600710466504097e-04
5.510000000000000000e+02 1.908692741394042969e+01 -1.261088466644287109e+01 -7.738878775853663683e-05 -2.650684327818453312e-04 -1.027371690724976361e-04 -8.034679194679483771e-05
5.520000000000000000e+02 2.137083053588867188e+01 -1.388931369781494141e+01 1.025307428790256381e-04 -1.023691584123298526e-04 4.847453993761519087e-08 7.480576186935650185e-06
5.530000000000000000e+02 7.915850830078125000e+01 -3.628178024291992188e+01 -2.083256840705871582e-03 -8.944536093622446060e-04 -8.933130884543061256e-04 -7.323985482798889279e-05
5.540000000000000000e+02 3.942325830459594727e+00 -6.032689094543457031e+00 -3.139623440802097321e-04 -1.478430349379777908e-04 -1.385416107950732112e-04 4.107785644009709358e-04
5.550000000000000000e+02 2.268406391143798828e+00 -1.443581771850585938e+01 -9.374317014589905739e-04 -4.346478963270783424e-04 -4.116238851565867662e-04 5.828241046401672065e-05
5.560000000000000000e+02 7.679102325439453125e+01 -3.185344314575195312e+01 8.625996997579932213e-04 1.203642459586262703e-03 6.198726478032767773e-04 1.657312037423253059e-03
5.570000000000000000e+02 5.011674118041992188e+01 -2.937461853027343750e+01 -7.009617239236831665e-02 2.344072461128234863e-01 4.929332062602043152e-02 -9.304213523864746094e-02
5.580000000000000000e+02 5.648223876953125000e+01 -3.517603302001953125e+01 8.312260732054710388e-03 9.066492319107055664e-02 2.969315461814403534e-02 -3.572062030434608459e-02
5.590000000000000000e+02 1.325081729888916016e+01 -6.007534980773925781e+00 2.485066652297973633e-04 6.602256326004862785e-05 9.435877291252836585e-05 -1.515693475084844977e-05
5.600000000000000000e+02 1.263675975799560547e+01 -4.758680343627929688e+00 -1.829823158914223313e-04 -1.361135509796440601e-04 -9.572876297170296311e-05 7.263801671797409654e-05
5.610000000000000000e+02 1.188497066497802734e+01 -3.551250219345092773e+00 4.137468567932955921e-05 2.061242266790941358e-04 7.424967770930379629e-05 1.030049406836042181e-05
5.620000000000000000e+02 1.716969299316406250e+01 -8.616962432861328125e+00 2.194970584241673350e-04 8.009136945474892855e-05 8.987652836367487907e-05 -8.247456571552902460e-05
5.630000000000000000e+02 5.272097396850585938e+01 -2.958261680603027344e+01 3.112693689763545990e-02 1.464713364839553833e-01 5.327948182821273804e-02 -8.686621487140655518e-02
5.640000000000000000e+02 1.847798919677734375e+01 -9.808320999145507812e+00 -1.008456747513264418e-04 4.908764094579964876e-05 -1.552741014165803790e-05 6.916304846527054906e-05
5.650000000000000000e+02 1.999752044677734375e+01 -1.246202087402343750e+01 1.127924479078501463e-04 4.999992088414728642e-04 1.838375028455629945e-04 7.777241989970207214e-05
5.660000000000000000e+02 7.751830291748046875e+01 -3.110293388366699219e+01 -8.976431563496589661e-04 -8.519334951415657997e-04 -5.248730303719639778e-04 -1.219737925566732883e-03
5.670000000000000000e+02 1.160991382598876953e+01 -4.112756252288818359e+00 -3.192211443092674017e-05 -2.048445312539115548e-04 -7.102999370545148849e-05 6.506478530354797840e-05
5.680000000000000000e+02 1.858168792724609375e+01 -1.045598030090332031e+01 -2.630303970363456756e-05 -9.788567695068195462e-05 -3.725661372300237417e-05 -8.927333692554384470e-05
5.690000000000000000e+02 4.901903533935546875e+01 -2.932751274108886719e+01 -3.571855649352073669e-02 3.064734339714050293e-01 8.122646063566207886e-02 -3.610613569617271423e-02
5.700000000000000000e+02 7.386531829833984375e+01 -3.093136405944824219e+01 -2.798941219225525856e-03 -2.140526659786701202e-03 -1.481840386986732483e-03 5.200173472985625267e-04
5.710000000000000000e+02 7.297678375244140625e+01 -3.125063705444335938e+01 4.384605679661035538e-03 1.942939939908683300e-03 1.898263697512447834e-03 1.240962999872863293e-03
5.720000000000000000e+02 4.637604141235351562e+01 -2.354951477050781250e+01 8.365679979324340820e-01 1.559963673353195190e-01 2.977693080902099609e-01 5.325973629951477051e-01
5.730000000000000000e+02 5.749547004699707031e+00 -3.619780063629150391e+00 -1.948951830854639411e-04 -8.757154137128964067e-05 -8.474001515423879027e-05 -4.295710823498666286e-05
5.740000000000000000e+02 2.861379384994506836e+00 -3.910497426986694336e+00 -6.521419709315523505e-05 -1.278410782106220722e-04 -5.791658259113319218e-05 -1.430539396096719429e-05
5.750000000000000000e+02 7.243049144744873047e+00 -4.555511474609375000e+00 1.564185949973762035e-04 1.375227584503591061e-04 8.818240894470363855e-05 8.144903404172509909e-05
5.760000000000000000e+02 1.657513809204101562e+01 -8.228178024291992188e+00 -1.724463945720344782e-04 -1.419558684574440122e-04 -9.432067599846050143e-05 7.405251380987465382e-05
5.770000000000000000e+02 1.775773239135742188e+01 -1.114821052551269531e+01 -1.861397759057581425e-04 -7.739880675217136741e-05 -7.906157406978309155e-05 -1.184078937512822449e-04
5.780000000000000000e+02 1.073605251312255859e+01 -1.354366683959960938e+01 -3.606375539675354958e-04 -4.611094773281365633e-04 -2.465241122990846634e-04 2.082969294860959053e-04
5.790000000000000000e+02 4.609475326538085938e+01 -2.427399826049804688e+01 1.766682416200637817e-01 2.764552831649780273e-01 1.359370499849319458e-01 4.617319405078887939e-01
5.800000000000000000e+02 4.693976593017578125e+01 -2.544996070861816406e+01 3.344901651144027710e-02 4.608281254768371582e-01 1.482831388711929321e-01 2.419246584177017212e-01
5.810000000000000000e+02 4.751553726196289062e+01 -2.651626014709472656e+01 -3.942616656422615051e-02 5.746651291847229004e-01 1.605716943740844727e-01 -3.160314634442329407e-03
5.820000000000000000e+02 4.786680221557617188e+01 -2.695052719116210938e+01 -4.106817767024040222e-02 4.667703509330749512e-01 1.277106553316116333e-01 -4.637775197625160217e-02
5.830000000000000000e+02 1.053428840637207031e+01 -3.137924194335937500e+00 8.711084228707477450e-05 1.327122590737417340e-04 6.594692968064919114e-05 7.211464253487065434e-05
5.840000000000000000e+02 5.199770736694335938e+01 -2.945484733581542969e+01 1.073557510972023010e-02 1.675653606653213501e-01 5.349027737975120544e-02 -1.076548323035240173e-01
5.850000000000000000e+02 8.485047340393066406e+00 -2.424962806701660156e+01 7.948745042085647583e-04 1.450902200303971767e-04 2.819894289132207632e-04 2.479386166669428349e-04
5.860000000000000000e+02 7.954887390136718750e+01 -3.069038391113281250e+01 -2.677169395610690117e-03 -9.143193165073171258e-05 -8.305804221890866756e-04 4.699167620856314898e-04
5.870000000000000000e+02 6.382896423339843750e+00 -1.622767639160156250e+01 -1.058877678588032722e-04 5.553259397856891155e-04 1.348314544884487987e-04 -1.378720480715855956e-04
5.880000000000000000e+02 4.472636699676513672e+00 -5.345779418945312500e+00 3.971816622652113438e-04 1.153224438894540071e-04 1.537512289360165596e-04 -2.039632963715121150e-04
5.890000000000000000e+02 3.521385908126831055e+00 -5.306478023529052734e+00 -2.269128890475258231e-04 -9.667190170148387551e-05 -9.707544086268171668e-05 -1.468827304051956162e-05
5.900000000000000000e+02 5.526751041412353516e+00 -1.451387596130371094e+01 9.000410209409892559e-04 1.445850648451596498e-05 2.743498480413109064e-04 -3.844023449346423149e-04
5.910000000000000000e+02 3.938924312591552734e+00 -2.160989761352539062e+01 2.596498001366853714e-03 -5.535979289561510086e-04 6.128700333647429943e-04 -1.147644434240646660e-04
5.920000000000000000e+02 5.854574680328369141e+00 -2.194210433959960938e+01 -2.461973344907164574e-03 -3.391505451872944832e-04 -8.403371903114020824e-04 6.091950926929712296e-04
5.930000000000000000e+02 1.706122016906738281e+01 -1.024952602386474609e+01 -3.523660707287490368e-04 1.054628319252515212e-05 -1.025459350785240531e-04 4.815690044779330492e-05
5.940000000000000000e+02 1.595038414001464844e+01 -1.062904357910156250e+01 -4.653946089092642069e-04 -4.307805284042842686e-05 -1.525417901575565338e-04 1.875705929705873132e-04
5.950000000000000000e+02 1.885280370712280273e+00 -4.549337387084960938e+00 -7.033489964669570327e-05 -4.683371662395074964e-05 -3.515058415359817445e-05 -8.821338269626721740e-05
5.960000000000000000e+02 4.394335174560546875e+01 -2.640512466430664062e+01 -9.897618554532527924e-03 -1.040353775024414062e-01 -3.417989984154701233e-02 1.110491901636123657e-01
5.970000000000000000e+02 7.754451751708984375e+01 -3.619985961914062500e+01 2.592745237052440643e-03 -9.504068293608725071e-04 4.927014815621078014e-04 9.788619354367256165e-04
5.980000000000000000e+02 6.625460052490234375e+01 -3.829214859008789062e+01 5.478191189467906952e-03 9.179593995213508606e-03 4.397335462272167206e-03 8.520671166479587555e-03
5.990000000000000000e+02 4.493501281738281250e+01 -2.544019317626953125e+01 6.294251978397369385e-02 1.451365184038877487e-03 1.931816525757312775e-02 1.493647396564483643e-01
6.000000000000000000e+02 4.559830856323242188e+01 -2.407858467102050781e+01 5.745287537574768066e-01 -7.174231857061386108e-02 1.508359313011169434e-01 4.257493913173675537e-01
6.010000000000000000e+02 1.443636989593505859e+01 -7.872316837310791016e+00 1.069799691322259605e-04 -2.176667112507857382e-05 2.556398794695269316e-05 3.290959284640848637e-05
6.020000000000000000e+02 1.559368801116943359e+01 -7.203292369842529297e+00 -1.361215545330196619e-04 -1.046615216182544827e-04 -7.223492139019072056e-05 -8.101365529000759125e-05
6.030000000000000000e+02 1.419122600555419922e+01 -5.876201152801513672e+00 1.797644945327192545e-04 8.784123201621696353e-05 8.028171578189358115e-05 1.583282210049219429e-05
6.040000000000000000e+02 1.416021728515625000e+01 -6.862312316894531250e+00 2.321618376299738884e-04 8.519176481058821082e-05 9.520608000457286835e-05 -1.355792210233630612e-05
6.050000000000000000e+02 1.368399906158447266e+01 -5.473017215728759766e+00 -2.048867463599890471e-04 -7.823004125384613872e-05 -8.493503992212936282e-05 -2.941885895779705606e-06
6.060000000000000000e+02 1.816409683227539062e+01 -9.345191955566406250e+00 3.008291241712868214e-04 -4.950741276843473315e-05 7.539651414845138788e-05 -3.665785334305837750e-05
6.070000000000000000e+02 1.780549812316894531e+01 -1.043700695037841797e+01 2.110661298502236605e-04 2.982508340210188180e-05 7.226736488519236445e-05 5.108982441015541553e-05
6.080000000000000000e+02 6.463927745819091797e+00 -4.485154151916503906e+00 -2.861084649339318275e-04 -1.222865539602935314e-04 -1.225185114890336990e-04 3.696018757182173431e-05
6.090000000000000000e+02 3.698816061019897461e+00 -4.388337135314941406e+00 3.169379488099366426e-04 1.573087793076410890e-04 1.422740169800817966e-04 1.766602872521616518e-05
6.100000000000000000e+02 4.726789474487304688e+00 -4.506762027740478516e+00 -2.973092778120189905e-04 -8.659507147967815399e-05 -1.151713076978921890e-04 -4.075519245816394687e-05
6.110000000000000000e+02 8.003737449645996094e+00 -4.662957191467285156e+00 -2.704475773498415947e-04 -1.757963036652654409e-04 -1.338731672149151564e-04 1.021488787955604494e-04
6.120000000000000000e+02 8.788192749023437500e+00 -4.795699596405029297e+00 2.761465148068964481e-04 4.332209573476575315e-05 9.584057988831773400e-05 7.811317482264712453e-05
6.130000000000000000e+02 7.751098632812500000e+01 -3.262820434570312500e+01 -1.135823666118085384e-03 -7.262476137839257717e-04 -5.586213665083050728e-04 -2.175176981836557388e-03
6.140000000000000000e+02 1.618843078613281250e+01 -8.916018486022949219e+00 2.321250067325308919e-04 1.107930074795149267e-04 1.028754049912095070e-04 -2.072262286674231291e-04
6.150000000000000000e+02 7.590274810791015625e+01 -3.222467422485351562e+01 -5.252126138657331467e-03 3.031576634384691715e-04 -1.484690583311021328e-03 1.978594111278653145e-03
6.160000000000000000e+02 4.650273895263671875e+01 -2.485731887817382812e+01 1.280080974102020264e-01 5.257533192634582520e-01 1.961284130811691284e-01 2.450533062219619751e-01
6.170000000000000000e+02 1.942419815063476562e+01 -1.110599327087402344e+01 9.849520574789494276e-05 -7.633288623765110970e-05 6.648696853517321870e-06 5.722936475649476051e-05
6.180000000000000000e+02 1.123839569091796875e+01 -4.549211502075195312e+00 1.068564961315132678e-04 1.306548219872638583e-04 7.125339470803737640e-05 -3.858948912238702178e-05
6.190000000000000000e+02 4.837381362915039062e+01 -2.723909759521484375e+01 -4.173094779253005981e-02 4.038012921810150146e-01 1.086211055517196655e-01 2.841457165777683258e-02
6.200000000000000000e+02 4.788149261474609375e+01 -2.892595100402832031e+01 -6.182961910963058472e-02 2.728781700134277344e-01 6.331456452608108521e-02 4.123772308230400085e-02
6.210000000000000000e+02 4.790553283691406250e+01 -2.566008758544921875e+01 2.230478823184967041e-02 7.143970131874084473e-01 2.210105359554290771e-01 -7.499139010906219482e-02
6.220000000000000000e+02 4.807160568237304688e+01 -2.634644126892089844e+01 -8.301562815904617310e-02 4.576953947544097900e-01 1.124039292335510254e-01 -2.893367223441600800e-02
6.230000000000000000e+02 1.171512222290039062e+01 -4.979003429412841797e+00 -1.252259971806779504e-04 -1.922103692777454853e-04 -9.523091284791007638e-05 9.373606008011847734e-05
6.240000000000000000e+02 1.411623954772949219e+01 -9.699967384338378906e+00 2.449987732688896358e-05 7.720283610979095101e-05 3.051081330340821296e-05 -1.047851110342890024e-04
6.250000000000000000e+02 5.159386157989501953e+00 -7.949903964996337891e+00 2.616835990920662880e-04 2.616598503664135933e-04 1.570030290167778730e-04 -2.909791946876794100e-04
6.260000000000000000e+02 7.243402004241943359e+00 -1.497441101074218750e+01 -1.511525770183652639e-04 1.603328273631632328e-04 2.754073875621543266e-06 -4.181046970188617706e-04
6.270000000000000000e+02 4.505305099487304688e+01 -2.640430831909179688e+01 1.137351170182228088e-01 8.603697270154953003e-02 5.993162840604782104e-02 1.798686981201171875e-01
6.280000000000000000e+02 5.540524959564208984e+00 -1.774468994140625000e+01 3.958846500609070063e-04 1.302274526096880436e-03 5.094477673992514610e-04 -9.821034036576747894e-04
6.290000000000000000e+02 3.347139835357666016e+00 -1.815614318847656250e+01 7.374461856670677662e-04 6.143436767160892487e-04 4.055369645357131958e-04 3.576452218112535775e-05
6.300000000000000000e+02 9.858726501464843750e+00 -1.097956562042236328e+01 -4.014700243715196848e-04 -4.304845933802425861e-04 -2.495863882359117270e-04 8.742861973587423563e-05
6.310000000000000000e+02 7.783103179931640625e+01 -3.487869262695312500e+01 -2.656238852068781853e-03 -8.098871912807226181e-04 -1.039837836287915707e-03 6.543458312080474570e-06
6.320000000000000000e+02 2.144077777862548828e+00 -9.289950370788574219e+00 6.674688775092363358e-04 -8.980669008451513946e-06 1.975464547285810113e-04 4.717709452961571515e-05
6.330000000000000000e+02 8.520805239677429199e-01 -7.802504539489746094e+00 5.319080082699656487e-04 1.385384894092567265e-05 1.637285604374483228e-04 7.722010195720940828e-05
6.340000000000000000e+02 1.221846294403076172e+01 -5.353895187377929688e+00 2.409606968285515904e-04 1.333120453637093306e-04 1.122818212024867535e-04 -1.245271851075813174e-04
6.350000000000000000e+02 4.696560668945312500e+01 -2.685297584533691406e+01 -8.228782564401626587e-02 3.978395760059356689e-01 9.466551989316940308e-02 1.344633549451828003e-01
6.360000000000000000e+02 1.769667434692382812e+01 -8.990843772888183594e+00 -2.890043251682072878e-04 -8.060108484642114490e-06 -8.911933400668203831e-05 6.383573781931772828e-05
6.370000000000000000e+02 1.676535034179687500e+01 -9.257637023925781250e+00 -2.851376484613865614e-04 -7.403713243547827005e-05 -1.077524357242509723e-04 1.622173294890671968e-04
6.380000000000000000e+02 1.584382915496826172e+01 -9.508063316345214844e+00 -2.493699139449745417e-04 -1.573105691932141781e-04 -1.220041376654990017e-04 2.293257421115413308e-04
6.390000000000000000e+02 1.106135654449462891e+01 -3.984477758407592773e+00 -1.942003473232034594e-05 1.624537253519520164e-04 4.291010918677784503e-05 1.442765369574772194e-05
6.400000000000000000e+02 1.462522983551025391e+01 -7.259033679962158203e+00 -2.929870970547199249e-04 -6.290472083492204547e-05 -1.067675402737222612e-04 -8.856975910020992160e-05
6.410000000000000000e+02 1.080871677398681641e+01 -4.989805221557617188e+00 -8.093817450571805239e-05 -2.168149221688508987e-04 -8.932592754717916250e-05 6.292223588388878852e-06
6.420000000000000000e+02 4.505056381225585938e+01 -2.404657936096191406e+01 3.304372131824493408e-01 -2.113789916038513184e-01 3.571746870875358582e-02 6.908661127090454102e-02
6.430000000000000000e+02 1.486269092559814453e+01 -9.324421882629394531e+00 -4.952550807502120733e-05 -1.791540562408044934e-04 -6.860386929474771023e-05 -1.655353298701811582e-05
6.440000000000000000e+02 1.638971328735351562e+01 -9.923079490661621094e+00 3.723489644471555948e-04 5.508487447514198720e-05 1.282301527680829167e-04 -1.945960393641144037e-04
6.450000000000000000e+02 4.888983726501464844e+00 -3.629499435424804688e+00 2.642733743414282799e-04 2.695505281735677272e-05 8.736853487789630890e-05 7.035082671791315079e-05
6.460000000000000000e+02 5.981282234191894531e+00 -5.171540737152099609e+00 2.934337244369089603e-04 -9.862435035756789148e-06 8.507138409186154604e-05 -2.610821393318474293e-04
6.470000000000000000e+02 1.287478256225585938e+01 -6.520627021789550781e+00 -1.317332062171772122e-04 -1.660720590734854341e-04 -8.934157813200727105e-05 1.411804405506700277e-04
6.480000000000000000e+02 7.468688011169433594e+00 -5.338243007659912109e+00 1.103381000575609505e-04 1.129563243011943996e-04 6.698832294205203652e-05 -2.889877068810164928e-04
6.490000000000000000e+02 7.380006313323974609e+00 -3.677925109863281250e+00 -1.828052481869235635e-04 -1.227663742611184716e-04 -9.167149255517870188e-05 -7.638273928023409098e-06
6.500000000000000000e+02 4.578382873535156250e+01 -2.529798126220703125e+01 2.302756309509277344e-01 1.642849445343017578e-01 1.183681711554527283e-01 2.696375846862792969e-01
6.510000000000000000e+02 1.231232261657714844e+01 -9.027448654174804688e+00 3.834628441836684942e-04 -1.385575887979939580e-04 7.347157952608540654e-05 -2.522864451748318970e-05
6.520000000000000000e+02 1.236218357086181641e+01 -9.946450233459472656e+00 -5.599198630079627037e-04 2.006775466725230217e-04 -1.077726919902488589e-04 2.399245204287581146e-05
6.530000000000000000e+02 4.716047286987304688e+00 -1.891037940979003906e+01 3.616324684116989374e-04 -1.479540951550006866e-04 6.410351488739252090e-05 -7.901874050730839372e-05
6.540000000000000000e+02 9.080577850341796875e+00 -1.251863670349121094e+01 -5.924344295635819435e-04 -4.157482762821018696e-04 -3.024548059329390526e-04 -3.483468026388436556e-04
6.550000000000000000e+02 1.128699111938476562e+01 -1.055624389648437500e+01 -5.563803715631365776e-04 -3.125085495412349701e-04 -2.606666821520775557e-04 2.613480028230696917e-04
6.560000000000000000e+02 6.655951023101806641e+00 -8.090661048889160156e+00 1.529413857497274876e-04 1.137166109401732683e-04 7.999740046216174960e-05 -3.016426926478743553e-04
6.570000000000000000e+02 4.535385131835937500e+01 -2.759822654724121094e+01 -4.818246886134147644e-02 1.391599029302597046e-01 2.729322761297225952e-02 1.510695815086364746e-01
6.580000000000000000e+02 5.239749908447265625e+00 -9.236709594726562500e+00 1.443141081836074591e-04 5.528617766685783863e-04 2.091527567245066166e-04 -2.989660133607685566e-04
6.590000000000000000e+02 4.672100448608398438e+01 -2.608524894714355469e+01 6.951180100440979004e-02 4.826880991458892822e-01 1.656599640846252441e-01 1.187041699886322021e-01
6.600000000000000000e+02 1.076519584655761719e+01 -9.920116424560546875e+00 -7.409942918457090855e-05 8.320291090058162808e-05 2.731045242398977280e-06 1.271840155823156238e-04
6.610000000000000000e+02 4.880652618408203125e+01 -2.770175170898437500e+01 -7.978983968496322632e-02 3.519676923751831055e-01 8.165335655212402344e-02 -3.761187568306922913e-02
6.620000000000000000e+02 1.360829544067382812e+01 -7.285355091094970703e+00 -1.409266405971720815e-04 1.363513729302212596e-05 -3.818745244643650949e-05 1.129733136622235179e-04
6.630000000000000000e+02 1.374578666687011719e+01 -7.974782466888427734e+00 -5.898092422285117209e-05 9.538553968013729900e-06 -1.483271080360282212e-05 -6.540628965012729168e-05
6.640000000000000000e+02 8.879611968994140625e+00 -5.778927803039550781e+00 -1.975090272026136518e-04 1.345455239061266184e-04 -1.888905171654187143e-05 -1.939997164299711585e-04
6.650000000000000000e+02 1.039086151123046875e+01 -3.951239347457885742e+00 -7.898688636487349868e-05 -1.374937128275632858e-04 -6.494417903013527393e-05 -5.293163849273696542e-05
6.660000000000000000e+02 1.387526035308837891e+01 -8.812817573547363281e+00 6.116850272519513965e-05 -6.189271516632288694e-05 -2.172635049646487460e-07 1.085811381926760077e-04
6.670000000000000000e+02 7.056118965148925781e+00 -6.690284729003906250e+00 5.246868749964050949e-05 1.473705488024279475e-04 5.995177343720570207e-05 -2.472788619343191385e-04
6.680000000000000000e+02 1.070099449157714844e+01 -6.017704963684082031e+00 -7.625507714692503214e-05 -1.645682932576164603e-04 -7.224700675578787923e-05 1.668591285124421120e-04
6.690000000000000000e+02 1.245193290710449219e+01 -6.954617977142333984e+00 1.613993372302502394e-04 2.144089812645688653e-04 1.127424984588287771e-04 -3.404839953873306513e-04
6.700000000000000000e+02 1.300439834594726562e+01 -7.336873054504394531e+00 -5.797031335532665253e-04 6.986557855270802975e-05 -1.529512665001675487e-04 6.054812547517940402e-05
6.710000000000000000e+02 1.148573875427246094e+01 -8.135720252990722656e+00 4.287234914954751730e-04 -2.321807005500886589e-05 1.216516247950494289e-04 -1.678835251368582249e-04
6.720000000000000000e+02 8.926000595092773438e+00 -1.111972999572753906e+01 -2.850440796464681625e-04 4.769121296703815460e-04 5.756042082794010639e-05 -3.444679532549344003e-05
6.730000000000000000e+02 7.753313541412353516e+00 -1.041398048400878906e+01 1.658996334299445152e-04 2.728286781348288059e-04 1.316184934694319963e-04 1.430804841220378876e-04
6.740000000000000000e+02 9.839967727661132812e+00 -1.002870082855224609e+01 2.695702132768929005e-04 1.681089925114065409e-04 1.313037646468728781e-04 -2.116346877301111817e-05
6.750000000000000000e+02 9.875237464904785156e+00 -9.086872100830078125e+00 -4.315499390941113234e-04 -1.508379937149584293e-04 -1.747163769323378801e-04 -1.974936894839629531e-04
6.760000000000000000e+02 2.084361314773559570e+00 -1.856256484985351562e+01 -1.129311742261052132e-03 -3.775116347242146730e-04 -4.520470392890274525e-04 -4.399422032292932272e-04
6.770000000000000000e+02 7.159614562988281250e-01 -1.897910308837890625e+01 1.685816911049187183e-03 1.589025487191975117e-04 5.534158553928136826e-04 4.703262238763272762e-04
6.780000000000000000e+02 9.584891319274902344e+00 -4.742328643798828125e+00 -1.326856145169585943e-04 -9.151064296020194888e-05 -6.725887942593544722e-05 -1.042534713633358479e-04
6.790000000000000000e+02 9.219541549682617188e+00 -6.685902118682861328e+00 1.039866110659204423e-04 -1.866631646407768130e-04 -2.480296461726538837e-05 2.808671270031481981e-04
6.800000000000000000e+02 1.121022129058837891e+01 -6.727957248687744141e+00 1.984671835089102387e-04 1.750393421389162540e-04 1.120519591495394707e-04 -2.674415300134569407e-04
6.810000000000000000e+02 1.297462272644042969e+01 -8.061100959777832031e+00 3.036782727576792240e-04 -9.677102207206189632e-05 6.207217666087672114e-05 8.661425817990675569e-05
6.820000000000000000e+02 9.872292518615722656e+00 -8.298654556274414062e+00 2.956889220513403416e-04 -2.313106233486905694e-04 1.931349288497585803e-05 1.953437458723783493e-04
6.830000000000000000e+02 1.041783905029296875e+01 -7.204191207885742188e+00 1.697568804956972599e-04 -2.681807964108884335e-04 -2.952717295556794852e-05 3.233659954275935888e-04
6.840000000000000000e+02 7.233792781829833984e+00 -8.813051223754882812e+00 -4.184964345768094063e-04 9.258465070161037147e-06 -1.227713801199570298e-04 3.608368278946727514e-04
6.850000000000000000e+02 1.070414257049560547e+01 -9.046800613403320312e+00 2.496248052921146154e-04 6.965869397390633821e-05 9.578504977980628610e-05 7.924692181404680014e-05
6.860000000000000000e+02 9.580099105834960938e+00 -7.518248081207275391e+00 -1.590892788954079151e-04 2.474214707035571337e-04 2.649965790624264628e-05 -2.238214656244963408e-04
6.870000000000000000e+02 8.384896278381347656e+00 -7.050815105438232422e+00 4.925990288029424846e-05 1.169664465123787522e-04 4.986790372640825808e-05 -2.563977031968533993e-04
6.880000000000000000e+02 9.692132949829101562e+00 -5.576356410980224609e+00 1.300492149312049150e-04 -8.880074165062978864e-05 1.237454034708207473e-05 1.485559914726763964e-04
6.890000000000000000e+02 1.150596714019775391e+01 -9.021890640258789062e+00 -3.867115010507404804e-04 7.515770266763865948e-05 -9.346613660454750061e-05 1.356174761895090342e-04
6.900000000000000000e+02 9.218412399291992188e+00 -8.689572334289550781e+00 2.014458150370046496e-04 2.144726895494386554e-04 1.247755571966990829e-04 -7.509460556320846081e-05
6.910000000000000000e+02 5.354525375366210938e+01 -4.086882019042968750e+01 -2.835179306566715240e-02 1.163673922419548035e-01 2.640468068420886993e-02 -6.369595066644251347e-04
6.920000000000000000e+02 2.117666244506835938e+01 -1.289481258392333984e+01 1.096659689210355282e-04 1.162434564321301877e-04 6.777282396797090769e-05 -1.453924487577751279e-04
6.930000000000000000e+02 7.084553527832031250e+01 -2.929092979431152344e+01 1.668381504714488983e-03 1.296305214054882526e-03 8.894060156308114529e-04 3.609577659517526627e-03
6.940000000000000000e+02 2.401527404785156250e+00 -3.491684722900390625e+01 8.463801350444555283e-04 6.817455869168043137e-04 4.584377165883779526e-04 1.027582795359194279e-03
6.950000000000000000e+02 4.810784530639648438e+01 -2.353646659851074219e+01 7.666307687759399414e-02 1.625346899032592773e+00 5.106030106544494629e-01 -5.858079195022583008e-01
6.960000000000000000e+02 3.613868236541748047e+00 -3.145000648498535156e+01 -2.443760400637984276e-03 -3.130419354420155287e-04 -8.270406979136168957e-04 5.002358229830861092e-04
6.970000000000000000e+02 2.049987411499023438e+01 -1.325169277191162109e+01 -2.324662491446360946e-04 -4.328907525632530451e-04 -1.996070932364091277e-04 1.811430120142176747e-04
6.980000000000000000e+02 4.730211639404296875e+01 -2.593752670288085938e+01 -5.212676897644996643e-02 5.408909916877746582e-01 1.466292589902877808e-01 1.781907379627227783e-01
6.990000000000000000e+02 3.111321449279785156e+00 -1.316070938110351562e+01 5.774819874204695225e-04 1.582663244334980845e-04 2.207244833698496222e-04 -6.723960395902395248e-04
7.000000000000000000e+02 3.517453765869140625e+01 -3.574728775024414062e+01 -4.397127311676740646e-03 -1.398835331201553345e-02 -5.515644326806068420e-03 -3.501456463709473610e-03
7.010000000000000000e+02 3.508995771408081055e+00 -3.265675067901611328e+00 -4.459660340216942132e-05 2.228509838460013270e-04 5.347631667973473668e-05 -2.942139326478354633e-05
7.020000000000000000e+02 1.929478454589843750e+01 -1.047318458557128906e+01 3.538581950124353170e-05 1.243396545760333538e-04 4.791764149558730423e-05 3.120791006949730217e-05
7.030000000000000000e+02 5.411125946044921875e+01 -3.154093551635742188e+01 1.846208050847053528e-02 1.119714379310607910e-01 3.913005441427230835e-02 -7.360275089740753174e-02
7.040000000000000000e+02 5.113761520385742188e+01 -3.060795402526855469e+01 -3.357033431529998779e-02 1.592367887496948242e-01 3.769993409514427185e-02 -7.513068616390228271e-02
7.050000000000000000e+02 6.229180908203125000e+01 -3.864611053466796875e+01 1.339176553301513195e-03 1.210466679185628891e-02 4.033152945339679718e-03 -1.789843663573265076e-02
7.060000000000000000e+02 6.329985046386718750e+01 -3.643914031982421875e+01 9.299209341406822205e-04 6.482914905063807964e-04 4.734637332148849964e-04 1.330387894995510578e-03
7.070000000000000000e+02 7.447570037841796875e+01 -3.293313598632812500e+01 -3.734930651262402534e-03 2.388066786807030439e-04 -1.048837206326425076e-03 3.589592175558209419e-03
7.080000000000000000e+02 4.597517395019531250e+01 -2.621129798889160156e+01 -8.764638565480709076e-03 2.498790323734283447e-01 7.233431935310363770e-02 2.009482681751251221e-01
7.090000000000000000e+02 4.323159217834472656e+00 -2.048673629760742188e+01 -2.397061325609683990e-03 -9.259600483346730471e-05 -7.468971889466047287e-04 5.210814415477216244e-04
7.100000000000000000e+02 4.689434051513671875e+01 -2.820717048645019531e+01 -8.013799786567687988e-02 3.077926635742187500e-01 6.829640269279479980e-02 8.685742318630218506e-02
7.110000000000000000e+02 4.413778686523437500e+01 -3.253916168212890625e+01 -3.269434347748756409e-02 6.538128107786178589e-02 9.806082583963871002e-03 7.619868218898773193e-02
7.120000000000000000e+02 5.009374237060546875e+01 -3.100857162475585938e+01 -5.155364051461219788e-03 2.395430952310562134e-01 7.031631469726562500e-02 -1.821190863847732544e-02
7.130000000000000000e+02 7.422209167480468750e+01 -3.160085296630859375e+01 2.346064895391464233e-03 -1.547718187794089317e-03 2.395040064584463835e-04 1.920826849527657032e-03
7.140000000000000000e+02 1.088399887084960938e+01 -1.131644248962402344e+01 4.884002264589071274e-04 5.031198961660265923e-04 2.974560484290122986e-04 -1.758783328114077449e-04
7.150000000000000000e+02 5.169433975219726562e+01 -3.155203247070312500e+01 1.863825134932994843e-02 1.822035759687423706e-01 6.025254726409912109e-02 -6.062388792634010315e-02
7.160000000000000000e+02 5.229825496673583984e+00 -5.762592315673828125e+00 -3.631387953646481037e-04 -9.616336683393456042e-06 -1.118265427066944540e-04 3.167576214764267206e-04
7.170000000000000000e+02 7.460674285888671875e+01 -3.094873046875000000e+01 -8.490954060107469559e-04 2.443672623485326767e-03 4.783731419593095779e-04 -1.299761002883315086e-03
7.180000000000000000e+02 1.555465316772460938e+01 -8.934786796569824219e+00 -1.267641346203163266e-05 1.226682070409879088e-04 3.299753734609112144e-05 4.427983731147833169e-05
7.190000000000000000e+02 5.180433750152587891e+00 -3.141275024414062500e+01 2.647230634465813637e-03 3.544884093571454287e-04 9.005157044157385826e-04 -6.871057848911732435e-05
7.200000000000000000e+02 6.817480564117431641e+00 -9.536069869995117188e+00 5.922034615650773048e-04 7.926043326733633876e-05 2.014391648117452860e-04 -7.806046050973236561e-05
7.210000000000000000e+02 1.034229564666748047e+01 -5.370605945587158203e+00 -4.173735578660853207e-05 1.160730898845940828e-04 2.230071913800202310e-05 -1.346009230474010110e-04
7.220000000000000000e+02 1.237151432037353516e+01 -6.312796592712402344e+00 3.339562681503593922e-04 5.114162195241078734e-05 1.155293721240013838e-04 4.817843000637367368e-05
7.230000000000000000e+02 1.502939701080322266e+01 -7.666304588317871094e+00 1.069776626536622643e-04 8.660131425131112337e-05 5.807369234389625490e-05 9.001669968711212277e-05
7.240000000000000000e+02 5.080665969848632812e+01 -2.626640510559082031e+01 1.108546704053878784e-01 1.741933375597000122e-01 8.551439642906188965e-02 -2.192072570323944092e-01
7.250000000000000000e+02 5.011647796630859375e+01 -2.469339561462402344e+01 3.160801231861114502e-01 4.047800600528717041e-01 2.162580639123916626e-01 -2.027802914381027222e-01
7.260000000000000000e+02 5.185569000244140625e+01 -2.619235610961914062e+01 1.422207951545715332e-01 9.913942962884902954e-02 7.240806519985198975e-02 -1.999616622924804688e-01
7.270000000000000000e+02 5.069478225708007812e+01 -2.519303321838378906e+01 1.709269136190414429e-01 1.589326858520507812e-01 9.895788133144378662e-02 -2.806842923164367676e-01
7.280000000000000000e+02 4.960458755493164062e+01 -2.522920608520507812e+01 1.172928288578987122e-01 3.518426418304443359e-01 1.407406479120254517e-01 -2.938236594200134277e-01
7.290000000000000000e+02 5.140967178344726562e+01 -2.678485679626464844e+01 1.406259387731552124e-01 2.666367888450622559e-01 1.221788227558135986e-01 -1.130404174327850342e-01
7.300000000000000000e+02 5.127462387084960938e+01 -2.569281196594238281e+01 2.207538038492202759e-01 2.570097744464874268e-01 1.433290839195251465e-01 -1.367795020341873169e-01
7.310000000000000000e+02 5.020487594604492188e+01 -2.574771499633789062e+01 1.652102470397949219e-01 4.012300670146942139e-01 1.699320971965789795e-01 -1.616550236940383911e-01
7.320000000000000000e+02 4.811936950683593750e+01 -2.252837562561035156e+01 7.092056274414062500e-01 2.358691215515136719e+00 9.203690290451049805e-01 7.851360365748405457e-03
7.330000000000000000e+02 4.770676422119140625e+01 -2.208853149414062500e+01 5.603192329406738281e+00 5.161323070526123047e+00 3.229354619979858398e+00 1.435629725456237793e+00
7.340000000000000000e+02 4.853006744384765625e+01 -2.199507141113281250e+01 4.189311027526855469e+00 8.857268095016479492e-01 1.522511363029479980e+00 3.590252399444580078e-01
7.350000000000000000e+02 5.418467712402343750e+01 -2.675794792175292969e+01 -3.430620729923248291e-01 -8.381788432598114014e-02 -1.280639916658401489e-01 1.064687222242355347e-01
7.360000000000000000e+02 5.456955337524414062e+01 -2.612589263916015625e+01 -3.676088154315948486e-01 1.072162613272666931e-01 -7.811776548624038696e-02 1.127537563443183899e-01
7.370000000000000000e+02 5.518339538574218750e+01 -2.649136924743652344e+01 -3.627735674381256104e-01 5.497984960675239563e-02 -9.233811497688293457e-02 7.507133763283491135e-03
7.380000000000000000e+02 5.334555435180664062e+01 -2.538969421386718750e+01 -3.318553566932678223e-01 1.981488801538944244e-02 -9.361213445663452148e-02 2.533369958400726318e-01
7.390000000000000000e+02 5.395669937133789062e+01 -2.575911521911621094e+01 -4.125516712665557861e-01 -3.629149403423070908e-03 -1.248542442917823792e-01 1.155632510781288147e-01
7.400000000000000000e+02 5.292053985595703125e+01 -2.599767112731933594e+01 -4.163308739662170410e-01 -1.662001758813858032e-01 -1.747593134641647339e-01 1.912934184074401855e-01
7.410000000000000000e+02 5.481858825683593750e+01 -2.713546562194824219e+01 -2.235278189182281494e-01 3.774387761950492859e-02 -5.573518201708793640e-02 9.893743693828582764e-02
7.420000000000000000e+02 5.355175399780273438e+01 -2.637913131713867188e+01 -3.589671552181243896e-01 -2.816931903362274170e-02 -1.161409392952919006e-01 2.264260500669479370e-01
7.430000000000000000e+02 5.176664733886718750e+01 -2.509146690368652344e+01 -4.647486507892608643e-01 -3.130780160427093506e-01 -2.333479970693588257e-01 2.504386603832244873e-01
7.440000000000000000e+02 5.223461151123046875e+01 -2.451787567138671875e+01 -2.215090841054916382e-01 -7.857456803321838379e-02 -9.002509713172912598e-02 3.243086636066436768e-01
7.450000000000000000e+02 5.277155685424804688e+01 -2.497589111328125000e+01 -4.283372759819030762e-01 -1.046112179756164551e-01 -1.598845422267913818e-01 2.009209841489791870e-01
7.460000000000000000e+02 5.169968795776367188e+01 -2.405720520019531250e+01 -3.478083312511444092e-01 -2.223360538482666016e-01 -1.710433065891265869e-01 2.266921997070312500e-01
7.470000000000000000e+02 5.116734695434570312e+01 -2.359377861022949219e+01 3.247901052236557007e-02 -2.410394251346588135e-01 -6.256812810897827148e-02 3.457188904285430908e-01
7.480000000000000000e+02 5.065549468994140625e+01 -2.412955093383789062e+01 -4.639493823051452637e-01 -3.914584517478942871e-01 -2.566223442554473877e-01 1.817530691623687744e-01
7.490000000000000000e+02 5.232553482055664062e+01 -2.556839370727539062e+01 -3.248516023159027100e-01 -1.107309311628341675e-01 -1.306747645139694214e-01 3.336130082607269287e-01
7.500000000000000000e+02 5.120978164672851562e+01 -2.461188697814941406e+01 -2.535099685192108154e-01 -1.875750571489334106e-01 -1.323255002498626709e-01 4.281601011753082275e-01
7.510000000000000000e+02 5.004724121093750000e+01 -2.352146530151367188e+01 9.331635385751724243e-02 -2.027435749769210815e-01 -3.282816335558891296e-02 3.768071830272674561e-01
7.520000000000000000e+02 5.061816024780273438e+01 -2.304763221740722656e+01 3.996837511658668518e-02 -3.238062262535095215e-01 -8.515135198831558228e-02 2.802577018737792969e-01
7.530000000000000000e+02 4.916860961914062500e+01 -2.223340988159179688e+01 8.443995714187622070e-01 -1.216652631759643555e+00 -1.116759181022644043e-01 -2.025646716356277466e-01
7.540000000000000000e+02 5.017156219482421875e+01 -2.240060615539550781e+01 4.093962013721466064e-01 -7.027761340141296387e-01 -8.801398426294326782e-02 4.387831389904022217e-01
7.550000000000000000e+02 4.980888748168945312e+01 -2.178894042968750000e+01 4.886136353015899658e-01 -4.691948592662811279e-01 5.825628060847520828e-03 6.266922354698181152e-01
7.560000000000000000e+02 4.964117431640625000e+01 -2.242177963256835938e+01 2.292425632476806641e-01 -1.488323211669921875e-01 2.412307448685169220e-02 3.950343728065490723e-01
7.570000000000000000e+02 4.944709396362304688e+01 -2.184678459167480469e+01 1.025288939476013184e+00 -1.353397369384765625e+00 -9.843254834413528442e-02 4.370596110820770264e-01
7.580000000000000000e+02 4.939397048950195312e+01 -2.287700653076171875e+01 2.598302662372589111e-01 -3.289985358715057373e-01 -2.075048163533210754e-02 -2.041667103767395020e-01
7.590000000000000000e+02 5.710048675537109375e+01 -2.769168281555175781e+01 1.163363177329301834e-02 -3.559540584683418274e-02 -7.188532035797834396e-03 -1.971091376617550850e-03
7.600000000000000000e+02 5.669181442260742188e+01 -2.729174995422363281e+01 -1.876474916934967041e-01 -1.630870066583156586e-02 -6.118685752153396606e-02 -7.993196696043014526e-02
7.610000000000000000e+02 5.590773773193359375e+01 -2.688815689086914062e+01 -2.665609717369079590e-01 8.382608741521835327e-02 -5.482046678662300110e-02 -8.306146482937037945e-04
7.620000000000000000e+02 5.555743408203125000e+01 -2.754048156738281250e+01 -1.436538547277450562e-01 -1.780424080789089203e-02 -4.843742772936820984e-02 -5.203660475672222674e-05
7.630000000000000000e+02 5.635045623779296875e+01 -2.794849014282226562e+01 -3.281757980585098267e-02 3.357861563563346863e-02 2.283116191392764449e-04 -1.270438428036868572e-03
7.640000000000000000e+02 5.636447525024414062e+01 -2.618375396728515625e+01 -3.953793048858642578e-01 8.704391866922378540e-02 -9.250061959028244019e-02 -7.961194962263107300e-02
7.650000000000000000e+02 5.559657669067382812e+01 -2.584543228149414062e+01 -4.249729514122009277e-01 1.728882938623428345e-01 -7.562539726495742798e-02 2.618518471717834473e-02
7.660000000000000000e+02 5.273465347290039062e+01 -2.398578643798828125e+01 -3.487192094326019287e-01 -3.895952180027961731e-02 -1.163036227226257324e-01 2.314571291208267212e-01
7.670000000000000000e+02 5.139606475830078125e+01 -2.190882682800292969e+01 1.758234649896621704e-01 -2.310631722211837769e-01 -1.657190918922424316e-02 5.407757759094238281e-01
7.680000000000000000e+02 5.169706726074218750e+01 -2.312309265136718750e+01 -1.002969220280647278e-01 -1.952835321426391602e-01 -8.867413550615310669e-02 3.177201747894287109e-01
7.690000000000000000e+02 5.755460739135742188e+01 -2.078090286254882812e+01 2.366565316915512085e-01 4.814648032188415527e-01 2.154363989830017090e-01 4.677476286888122559e-01
7.700000000000000000e+02 5.745426940917968750e+01 -2.016707611083984375e+01 5.474117994308471680e-01 4.889700412750244141e-01 3.109145462512969971e-01 5.338290929794311523e-01
7.710000000000000000e+02 5.971299743652343750e+01 -2.034836006164550781e+01 1.511433720588684082e-01 4.644814431667327881e-01 1.846874505281448364e-01 3.392266631126403809e-01
7.720000000000000000e+02 6.303080368041992188e+01 -2.149271774291992188e+01 -8.007522225379943848e-01 -1.131613627076148987e-01 -2.741740643978118896e-01 -4.879520535469055176e-01
7.730000000000000000e+02 6.196688079833984375e+01 -2.143202972412109375e+01 -5.370211601257324219e-01 -1.891213841736316681e-02 -1.667799800634384155e-01 -2.134577035903930664e-01
7.740000000000000000e+02 6.419364166259765625e+01 -2.262368583679199219e+01 -1.313371539115905762e+00 -6.205977499485015869e-02 -4.126293957233428955e-01 -4.841548204421997070e-01
7.750000000000000000e+02 6.780508422851562500e+01 -2.021430587768554688e+01 -7.157644033432006836e-01 -3.554953932762145996e-01 -3.213779330253601074e-01 -3.847488462924957275e-01
7.760000000000000000e+02 7.014875793457031250e+01 -2.214071273803710938e+01 -5.866033434867858887e-01 -5.790881067514419556e-02 -1.933536380529403687e-01 1.232125610113143921e-01
7.770000000000000000e+02 7.109752655029296875e+01 -2.323948287963867188e+01 -7.359035313129425049e-02 -3.065767465159296989e-03 -2.299683541059494019e-02 4.784977436065673828e-02
7.780000000000000000e+02 7.287233734130859375e+01 -2.523498535156250000e+01 -1.127827819436788559e-02 -5.382189061492681503e-03 -4.998140037059783936e-03 -6.202187389135360718e-03
7.790000000000000000e+02 7.362131500244140625e+01 -2.531893348693847656e+01 -1.333192456513643265e-02 -8.245691657066345215e-03 -6.473284680396318436e-03 -6.777457892894744873e-03
7.800000000000000000e+02 7.435524749755859375e+01 -2.544281387329101562e+01 -1.339055038988590240e-02 -5.948215723037719727e-03 -5.801629740744829178e-03 -1.929465448483824730e-03
7.810000000000000000e+02 7.721193695068359375e+01 -2.542295455932617188e+01 -2.790596336126327515e-03 -5.985666997730731964e-03 -2.632878953590989113e-03 7.801527623087167740e-03
7.820000000000000000e+02 7.824986267089843750e+01 -1.657518196105957031e+01 -1.449926570057868958e-02 -2.922415733337402344e-01 -9.202225506305694580e-02 -1.538615524768829346e-01
7.830000000000000000e+02 7.813661956787109375e+01 -9.698616981506347656e+00 8.270177990198135376e-03 -8.101118206977844238e-01 -2.405524998903274536e-01 -1.712998449802398682e-01
7.840000000000000000e+02 7.809242248535156250e+01 -2.773396015167236328e+00 1.325097400695085526e-02 -1.237080097198486328e+00 -3.671487569808959961e-01 -1.332956254482269287e-01
7.850000000000000000e+02 7.808676147460937500e+01 4.204105377197265625e+00 1.967199333012104034e-02 -1.440090179443359375e+00 -4.261254668235778809e-01 -7.164783310145139694e-03
7.860000000000000000e+02 7.810924530029296875e+01 1.393845272064208984e+01 -3.153982805088162422e-03 -1.399396896362304688e+00 -4.207652807235717773e-01 6.277745589613914490e-03
7.870000000000000000e+02 7.812785339355468750e+01 2.083269882202148438e+01 6.550153251737356186e-03 -1.400362253189086914e+00 -4.181436300277709961e-01 1.363336388021707535e-02
7.880000000000000000e+02 7.676584625244140625e+01 2.754042816162109375e+01 4.625367745757102966e-02 -7.433688640594482422e-01 -2.091345638036727905e-01 1.692734509706497192e-01
7.890000000000000000e+02 7.796115875244140625e+01 3.322575759887695312e+01 -4.545086994767189026e-03 -8.651315569877624512e-01 -2.609030008316040039e-01 1.737201660871505737e-01
7.900000000000000000e+02 7.746724700927734375e+01 3.808103179931640625e+01 -5.641748197376728058e-03 -5.368072986602783203e-01 -1.627347022294998169e-01 1.560102999210357666e-01
7.910000000000000000e+02 7.930847167968750000e+01 3.611081314086914062e+01 -2.884325571358203888e-03 -9.082179665565490723e-01 -2.733306884765625000e-01 5.742867663502693176e-02
7.920000000000000000e+02 7.179235076904296875e+01 4.136707687377929688e+01 -2.096702009439468384e-01 1.858599334955215454e-01 -7.143081165850162506e-03 2.716612629592418671e-02
7.930000000000000000e+02 6.774796295166015625e+01 3.746201324462890625e+01 -1.622281074523925781e-01 5.324348807334899902e-01 1.110620349645614624e-01 -8.978851139545440674e-02
7.940000000000000000e+02 6.479988861083984375e+01 3.420789337158203125e+01 3.160738945007324219e-01 4.146137833595275879e-01 2.192063033580780029e-01 -3.394281566143035889e-01
7.950000000000000000e+02 6.683615112304687500e+01 3.202152633666992188e+01 4.340854585170745850e-01 7.982873320579528809e-01 3.697118461132049561e-01 -5.718681812286376953e-01
7.960000000000000000e+02 6.771373748779296875e+01 3.090450286865234375e+01 5.158782601356506348e-01 1.161499738693237305e+00 5.032134056091308594e-01 -7.145549058914184570e-01
7.970000000000000000e+02 6.719557189941406250e+01 3.388572692871093750e+01 1.348384618759155273e-01 7.154781222343444824e-01 2.550949752330780029e-01 -3.125158548355102539e-01
7.980000000000000000e+02 7.933353424072265625e+01 3.061580276489257812e+01 4.760969895869493484e-03 -1.445078969001770020e+00 -4.320954084396362305e-01 6.633580476045608521e-02
7.990000000000000000e+02 7.183036041259765625e+01 -2.430450820922851562e+01 -3.233023360371589661e-02 1.617353968322277069e-02 -4.847007803618907928e-03 3.872473025694489479e-03
8.000000000000000000e+02 7.833410644531250000e+01 -1.933088302612304688e+01 -2.724023722112178802e-02 -1.190048754215240479e-01 -4.387353360652923584e-02 -9.735698252916336060e-02
8.010000000000000000e+02 6.243622589111328125e+01 3.700424957275390625e+01 5.030778422951698303e-02 1.929624974727630615e-01 7.298108190298080444e-02 -1.753966361284255981e-01
8.020000000000000000e+02 6.214798355102539062e+01 3.516609573364257812e+01 1.236412748694419861e-01 1.213332917541265488e-02 4.073238000273704529e-02 -7.559987157583236694e-02
8.030000000000000000e+02 6.539995574951171875e+01 3.675950241088867188e+01 -4.661209881305694580e-02 4.723984599113464355e-01 1.277359127998352051e-01 -1.832520663738250732e-01
8.040000000000000000e+02 5.609130096435546875e+01 3.582352066040039062e+01 -3.129635751247406006e-02 7.269609719514846802e-03 -7.208024617284536362e-03 -4.164560232311487198e-03
8.050000000000000000e+02 5.768938446044921875e+01 3.610824203491210938e+01 -3.084709867835044861e-02 8.911515469662845135e-04 -8.986784145236015320e-03 -1.409400347620248795e-02
8.060000000000000000e+02 5.693500137329101562e+01 3.772478485107421875e+01 1.873184344731271267e-03 1.079611387103796005e-02 3.800789359956979752e-03 -6.482476368546485901e-03
8.070000000000000000e+02 6.096042633056640625e+01 3.566126632690429688e+01 2.791628241539001465e-02 2.288380824029445648e-02 1.524002663791179657e-02 -5.914300680160522461e-02
8.080000000000000000e+02 5.292423248291015625e+01 3.711235809326171875e+01 -5.864964798092842102e-03 -5.279395263642072678e-04 -1.917871297337114811e-03 7.212326861917972565e-03
8.090000000000000000e+02 5.010669326782226562e+01 3.805332946777343750e+01 2.330691087990999222e-03 1.042341813445091248e-03 1.011909916996955872e-03 6.011581514030694962e-03
8.100000000000000000e+02 5.001791381835937500e+01 3.145308303833007812e+01 -4.189933650195598602e-03 -1.687057316303253174e-03 -1.763097359798848629e-03 -1.218658639118075371e-03
8.110000000000000000e+02 5.222356414794921875e+01 3.317282867431640625e+01 -9.246250614523887634e-03 -4.231237340718507767e-03 -4.043246153742074966e-03 -1.962619135156273842e-03
8.120000000000000000e+02 5.323608016967773438e+01 3.413864135742187500e+01 -9.053139016032218933e-03 -4.538610519375652075e-04 -2.852099947631359100e-03 -5.406252108514308929e-03
8.130000000000000000e+02 4.235036849975585938e+01 3.854874420166015625e+01 1.160524785518646240e-03 -5.715278675779700279e-04 1.766990608302876353e-04 7.394423591904342175e-04
8.140000000000000000e+02 4.240484237670898438e+01 4.117340469360351562e+01 1.844464335590600967e-03 -1.079091685824096203e-03 2.296117891091853380e-04 6.726792198605835438e-04
8.150000000000000000e+02 4.614762115478515625e+01 2.860292625427246094e+01 -1.661260961554944515e-03 -1.819952449295669794e-04 -5.529768532142043114e-04 -1.669636840233579278e-04
8.160000000000000000e+02 4.452780914306640625e+01 2.305223464965820312e+01 2.993834787048399448e-04 -7.560214726254343987e-05 6.713439506711438298e-05 -2.231086982646957040e-04
8.170000000000000000e+02 4.276248931884765625e+01 1.762143135070800781e+01 2.159073046641424298e-04 1.315388726652599871e-05 6.871835648780688643e-05 -3.899973671650514007e-05
8.180000000000000000e+02 4.398556518554687500e+01 2.172620773315429688e+01 -3.634019813034683466e-04 -8.050198084674775600e-05 -1.331711973762139678e-04 5.143707312527112663e-05
8.190000000000000000e+02 3.752597045898437500e+01 4.082860946655273438e+01 7.258926634676754475e-04 -4.980291705578565598e-04 6.835904059698805213e-05 -3.580907650757580996e-05
8.200000000000000000e+02 3.650859832763671875e+01 3.158511924743652344e+01 4.758385330205783248e-05 2.120541175827383995e-04 7.789138908265158534e-05 3.593389701563864946e-04
8.210000000000000000e+02 3.794936752319335938e+01 2.246044540405273438e+01 8.300518675241619349e-05 3.028402716154232621e-05 3.398676562937907875e-05 -7.864761573728173971e-05
8.220000000000000000e+02 3.993644714355468750e+01 1.826725006103515625e+01 2.306850074091926217e-04 -2.585583752079401165e-05 6.144875078462064266e-05 -6.382299761753529310e-05
8.230000000000000000e+02 4.048494338989257812e+01 8.658730506896972656e+00 1.376344735035672784e-04 -4.954371433996129781e-06 3.980403198511339724e-05 4.639439430320635438e-05
8.240000000000000000e+02 4.089673995971679688e+01 4.178793430328369141e+00 8.796796464594081044e-05 1.360505302727688104e-05 3.047190512006636709e-05 4.695539610111154616e-05
8.250000000000000000e+02 3.993077087402343750e+01 -3.075852155685424805e+00 -4.471044667297974229e-05 -1.164504465123172849e-05 -1.690664794296026230e-05 -5.940923983871471137e-06
8.260000000000000000e+02 3.541798019409179688e+01 -1.293935108184814453e+01 1.894450360850896686e-05 2.547973963373806328e-06 6.447743089665891603e-06 4.021010227006627247e-06
8.270000000000000000e+02 3.543497085571289062e+01 -1.795447921752929688e+01 -8.691361585988488514e-07 -1.167361915577203035e-06 -6.109494279371574521e-07 -2.191661451433901675e-06
8.280000000000000000e+02 3.680482864379882812e+01 -1.696106529235839844e+01 -3.966009444411611184e-06 -3.656353783298982307e-06 -2.286708877363707870e-06 -2.087227130687097088e-06
8.290000000000000000e+02 3.798304367065429688e+01 -1.820165061950683594e+01 -1.786971438377804589e-06 4.268331394996494055e-07 -4.080414726104208967e-07 8.189921345547190867e-07
8.300000000000000000e+02 4.183336639404296875e+01 -1.748761177062988281e+01 -8.458549928036518395e-06 -6.009088338032597676e-06 -4.340291525295469910e-06 -3.546368816387257539e-06
8.310000000000000000e+02 4.465045928955078125e+01 -1.916859626770019531e+01 -3.744055447896244004e-06 -2.037158537859795615e-06 -1.734364218464179430e-06 -3.175193114657304250e-06
8.320000000000000000e+02 4.615165328979492188e+01 -1.878300285339355469e+01 -4.023341261927271262e-06 -1.536792638034967240e-06 -1.668040226832090411e-06 -3.828156422969186679e-06
8.330000000000000000e+02 4.985150527954101562e+01 -1.802185058593750000e+01 7.576411462650867179e-06 -1.201639634018647484e-06 1.912431571327033453e-06 3.918776656064437702e-06
8.340000000000000000e+02 5.277288818359375000e+01 -1.735230064392089844e+01 4.035404344904236495e-06 9.781560947885736823e-06 4.145089405938051641e-06 -2.380226987952482887e-06
8.350000000000000000e+02 5.204724121093750000e+01 -1.754943656921386719e+01 -4.818206889467546716e-06 -3.842696060019079596e-06 -2.598270839371252805e-06 5.363882792153162882e-06
8.360000000000000000e+02 5.433536148071289062e+01 -1.696081542968750000e+01 -2.459583129166276194e-06 6.492015927506145090e-06 1.209729930451430846e-06 -4.574584977490303572e-07
8.370000000000000000e+02 5.353637313842773438e+01 -1.707143592834472656e+01 -1.231046553584747016e-05 -6.783208391425432637e-06 -5.728102223656605929e-06 3.158647245982137974e-07
8.380000000000000000e+02 3.248246765136718750e+01 4.067922592163085938e+01 4.342208267189562321e-04 -2.841867681127041578e-04 4.501021976466290653e-05 2.547493204474449158e-04
8.390000000000000000e+02 2.750721168518066406e+01 4.083892440795898438e+01 1.348002260783687234e-04 -1.775300916051492095e-04 -1.281896311411401257e-05 -5.533322473638691008e-05
8.400000000000000000e+02 2.708721923828125000e+01 3.078082847595214844e+01 1.237255637533962727e-04 -1.312669701292179525e-05 3.317966184113174677e-05 2.250946272397413850e-04
8.410000000000000000e+02 3.194943046569824219e+01 2.505478096008300781e+01 9.683280950412154198e-05 1.311342566623352468e-05 3.298386945971287787e-05 1.304134930251166224e-04
8.420000000000000000e+02 3.063263511657714844e+01 2.006743240356445312e+01 1.526636478956788778e-04 -7.044257472443860024e-06 4.368581721791997552e-05 2.985604260175023228e-05
8.430000000000000000e+02 3.476462554931640625e+01 8.388367652893066406e+00 -9.071436215890571475e-05 1.831418921938166022e-05 -2.172005224565509707e-05 -5.453415724332444370e-05
8.440000000000000000e+02 3.295413208007812500e+01 3.783710241317749023e+00 1.604950557521078736e-05 -1.602316115167923272e-05 7.903707022194339515e-09 2.488103746145498008e-05
8.450000000000000000e+02 2.617337799072265625e+01 -4.447529792785644531e+00 8.458535376121290028e-06 -5.847553893545409665e-06 7.832943538232939318e-07 7.323844783968525007e-06
8.460000000000000000e+02 2.541852378845214844e+01 -1.152197074890136719e+01 -2.856430683095823042e-06 -3.256532409068313427e-06 -1.833888973123976029e-06 -4.563720267469761893e-06
8.470000000000000000e+02 2.574594116210937500e+01 -1.219004917144775391e+01 7.152763373596826568e-06 3.621409405241138302e-06 3.232251856388757005e-06 1.043278075485432055e-06
8.480000000000000000e+02 2.923423004150390625e+01 -1.695639991760253906e+01 9.010400390252470970e-06 5.673037776432465762e-06 4.405031177157070488e-06 4.898018232779577374e-06
8.490000000000000000e+02 2.752780914306640625e+01 -1.655561828613281250e+01 -4.464734956854954362e-06 -3.251741873100399971e-06 -2.314943003511871211e-06 -6.239509730221470818e-06
8.500000000000000000e+02 1.775675201416015625e+01 4.057799911499023438e+01 5.189794319448992610e-05 -7.142970571294426918e-05 -5.859528300788952038e-06 -3.691943129524588585e-05
8.510000000000000000e+02 2.265770721435546875e+01 4.080707550048828125e+01 8.926814189180731773e-05 -9.017509000841528177e-05 -2.720845770909363637e-07 7.706393080297857523e-05
8.520000000000000000e+02 2.338123703002929688e+01 2.048333168029785156e+01 -2.158693241653963923e-04 1.514854557171929628e-05 -6.021623266860842705e-05 -3.550620021997019649e-05
8.530000000000000000e+02 2.586874198913574219e+01 1.614336395263671875e+01 -2.210264647146686912e-04 2.511708953534252942e-05 -5.877281000721268356e-05 4.369473117549205199e-06
8.540000000000000000e+02 2.109383773803710938e+01 7.868290424346923828e+00 -1.218891993630677462e-04 2.265998955408576876e-05 -2.976876385218929499e-05 2.683858838281594217e-06
8.550000000000000000e+02 2.296385955810546875e+01 4.050671458244323730e-01 1.573583358549512923e-05 1.278381205338519067e-06 5.104264346300624311e-06 -2.752332875388674438e-05
8.560000000000000000e+02 1.924742698669433594e+01 -3.282720327377319336e+00 2.843722541001625359e-06 -1.440709525013517123e-06 4.209039161651162431e-07 -1.569310188642702997e-05
8.570000000000000000e+02 2.097481536865234375e+01 -4.980492115020751953e+00 8.937849088397342712e-06 1.049431716637627687e-06 2.996184093717602082e-06 4.604781224770704284e-06
8.580000000000000000e+02 2.151394844055175781e+01 -5.582896232604980469e+00 1.872539030500774970e-07 3.950923201045952737e-06 1.241453105649270583e-06 -8.573053492000326514e-06
8.590000000000000000e+02 2.201916122436523438e+01 -6.208849906921386719e+00 8.687462468515150249e-06 -9.075068874153657816e-07 2.333986685698619112e-06 9.188972285301133525e-07
8.600000000000000000e+02 2.388853836059570312e+01 -8.815140724182128906e+00 2.802044036798179150e-06 -2.840168917828123085e-06 -1.143744920995004577e-08 -3.672879984151222743e-06
8.610000000000000000e+02 1.885531425476074219e+01 3.680907058715820312e+01 8.789357707428280264e-06 -4.490240098675712943e-05 -1.083391362044494599e-05 8.832461753627285361e-05
8.620000000000000000e+02 1.636222076416015625e+01 2.862307357788085938e+01 -4.111174712306819856e-05 7.241573712235549465e-06 -1.016105125017929822e-05 4.145280036027543247e-05
8.630000000000000000e+02 1.680236625671386719e+01 6.976902961730957031e+00 4.611792974174022675e-05 -2.586514165159314871e-05 6.075836154195712879e-06 -1.445629550289595500e-05
8.640000000000000000e+02 1.391599082946777344e+01 3.280811905860900879e-01 1.830338806030340493e-05 -1.798839002731256187e-05 9.449932036886821152e-08 -1.368412358715431765e-05
8.650000000000000000e+02 1.564424133300781250e+01 1.974402219057083130e-01 -8.959916158346459270e-06 1.852518107625655830e-05 2.869579247999354266e-06 9.504762601864058524e-06
8.660000000000000000e+02 1.734905624389648438e+01 -1.779269337654113770e+00 5.238724497758084908e-06 1.433197576261591166e-05 5.871209850738523528e-06 9.905103070195764303e-06
8.670000000000000000e+02 1.281375217437744141e+01 4.068258285522460938e+01 4.165319478488527238e-05 -4.804967102245427668e-05 -1.918943098644376732e-06 3.540920079103671014e-05
8.680000000000000000e+02 8.916254997253417969e+00 3.815970611572265625e+01 2.865488568204455078e-05 2.250114221169496886e-06 9.271499948226846755e-06 4.312784585636109114e-05
8.690000000000000000e+02 9.169709205627441406e+00 3.116928672790527344e+01 7.777204154990613461e-05 -2.927805871877353638e-05 1.454819539503660053e-05 -1.497141056461259723e-06
8.700000000000000000e+02 8.271099090576171875e+00 2.780698966979980469e+01 -3.430863944231532514e-05 -2.096530079143121839e-05 -1.658218207012396306e-05 5.039481766289100051e-05
8.710000000000000000e+02 8.818633079528808594e+00 1.914767837524414062e+01 9.856747965386603028e-06 2.443953599140513688e-05 1.028888527798699215e-05 1.416996474290499464e-05
8.720000000000000000e+02 6.328213691711425781e+00 1.092270469665527344e+01 9.646199032431468368e-06 1.675004205026198179e-05 7.918872142909094691e-06 3.078588633798062801e-05
8.730000000000000000e+02 6.187711238861083984e+00 1.882714986801147461e+00 1.053712821885710582e-05 4.437976258486742154e-06 4.492531388677889481e-06 4.768415351463772822e-07
8.740000000000000000e+02 1.162538719177246094e+01 1.402849674224853516e+00 -8.272231752926018089e-06 2.167130151065066457e-05 4.019721018266864121e-06 -9.300821375290979631e-07
8.750000000000000000e+02 1.082476329803466797e+01 1.823653817176818848e+00 1.908358535729348660e-05 -1.175758916360791773e-05 2.197798721681465395e-06 -1.796610945348220412e-06
8.760000000000000000e+02 2.024891614913940430e+00 4.163932037353515625e+01 1.735212390485685319e-05 -3.104475763393566012e-05 -4.107789663976291195e-06 5.981533831800334156e-06
8.770000000000000000e+02 4.379759788513183594e+00 3.789459228515625000e+01 2.634592874528607354e-06 -5.059317845734767616e-05 -1.438757590221939608e-05 -1.306443209614371881e-05
8.780000000000000000e+02 2.612041711807250977e+00 3.540186309814453125e+01 -1.591455475136172026e-05 -4.463344885152764618e-05 -1.816440089896786958e-05 -2.819195515257888474e-06
8.790000000000000000e+02 2.097876310348510742e+00 2.841936874389648438e+01 4.741601151181384921e-05 -1.714727659418713301e-05 9.080620657186955214e-06 -2.930074288087780587e-06
8.800000000000000000e+02 1.966488361358642578e+00 2.276389884948730469e+01 3.318234666949138045e-05 1.520986302239180077e-06 1.041099949361523613e-05 -7.014196398813510314e-06
8.810000000000000000e+02 1.811928868293762207e+00 1.714180183410644531e+01 2.526097159716300666e-05 7.106556950020603836e-06 9.710258382256142795e-06 -3.390947540538036264e-06
8.820000000000000000e+02 4.790597259998321533e-01 6.346988677978515625e+00 -2.268047683173790574e-05 2.562447207310469821e-06 -6.035409114701906219e-06 4.730434739030897617e-06
8.830000000000000000e+02 1.673732280731201172e+00 1.157825565338134766e+01 2.512699575163424015e-05 5.991803391225403175e-06 9.335640243079978973e-06 -1.067669131771253888e-06
8.840000000000000000e+02 4.643640995025634766e+00 2.654935598373413086e+00 -8.082320164248812944e-06 -7.081118837959365919e-06 -4.549031928036129102e-06 -3.024594889211584814e-06
8.850000000000000000e+02 3.157134628295898438e+01 -1.770582389831542969e+01 3.262927066316478886e-06 6.502663381979800761e-06 2.929677066276781261e-06 3.136617579002631828e-06
8.860000000000000000e+02 4.068542480468750000e+01 -2.043217658996582031e+01 -1.306817921431502327e-06 -4.193979293631855398e-06 -1.650239141781639773e-06 -2.800165020744316280e-06
8.870000000000000000e+02 4.032932662963867188e+01 -2.046645355224609375e+01 6.218069756869226694e-06 9.437523544875148218e-07 2.148546627722680569e-06 -2.127121661033015698e-06
8.880000000000000000e+02 5.775822830200195312e+01 -1.632304382324218750e+01 1.228686778631526977e-05 -1.198835980176227167e-05 8.955243657737810281e-08 -3.977104370278539136e-06
8.890000000000000000e+02 5.849058914184570312e+01 -1.577688789367675781e+01 -2.629188020364381373e-05 -1.400856217514956370e-05 -1.209013225889066234e-05 -2.627990215842146426e-05
8.900000000000000000e+02 5.910187530517578125e+01 -1.544298076629638672e+01 1.350856109638698399e-06 -1.670963138167280704e-05 -4.607632490660762414e-06 -3.388054437891696580e-06
8.910000000000000000e+02 5.166487503051757812e+01 -1.255057907104492188e+01 -4.578777588903903961e-05 -1.963541535587864928e-06 -1.432539465895388275e-05 -8.633418246972723864e-07
8.920000000000000000e+02 5.091364669799804688e+01 -9.984513282775878906e+00 -5.310150663717649877e-05 -1.328236635345092509e-06 -1.632892235647886992e-05 -6.282580670813331380e-06
8.930000000000000000e+02 4.577922439575195312e+01 -2.772063493728637695e+00 -6.695964111713692546e-05 -1.964369403140153736e-05 -2.598100036266259849e-05 -3.201728759449906647e-05
8.940000000000000000e+02 3.905517196655273438e+01 -9.515499472618103027e-01 -5.915802103118039668e-05 -7.844058927730657160e-06 -2.010062416957225651e-05 9.230902833223808557e-06
8.950000000000000000e+02 4.796714782714843750e+01 -4.983689308166503906e+00 6.629946437897160649e-05 9.276151104131713510e-06 2.267268428113311529e-05 2.061143641185481101e-05
8.960000000000000000e+02 4.771943283081054688e+01 -8.485397100448608398e-01 9.342059638584032655e-05 1.015424913930473849e-05 3.107245356659404933e-05 2.532582948333583772e-05
8.970000000000000000e+02 4.643841552734375000e+01 -1.179755568504333496e+00 -8.456874638795852661e-05 -1.448053080821409822e-05 -2.971478352264966816e-05 -3.302802724647335708e-05
8.980000000000000000e+02 4.452693939208984375e+01 5.294787406921386719e+00 -1.518318022135645151e-04 -7.736398401902988553e-06 -4.787046054843813181e-05 -5.138823325978592038e-05
8.990000000000000000e+02 4.238180160522460938e+01 1.050112724304199219e+01 -1.743646571412682533e-04 3.429050411796197295e-05 -4.202224226901307702e-05 -1.486464861955028027e-05
9.000000000000000000e+02 4.222736740112304688e+01 1.193348693847656250e+01 1.752351090544834733e-04 2.106005740643013269e-05 5.888855230296030641e-05 -2.108487933583091944e-06
9.010000000000000000e+02 4.222974014282226562e+01 1.336768436431884766e+01 -1.742118038237094879e-04 2.838582258846145123e-05 -4.374779382487758994e-05 1.352294566459022462e-05
9.020000000000000000e+02 4.138785934448242188e+01 1.792214584350585938e+01 -2.747377438936382532e-04 4.001622983196284622e-06 -8.122083818307146430e-05 1.010399864753708243e-05
9.030000000000000000e+02 3.807094955444335938e+01 1.706463432312011719e+01 2.002600522246211767e-04 -1.283963047171710059e-05 5.622612661682069302e-05 -7.274441304616630077e-05
9.040000000000000000e+02 4.324143981933593750e+01 2.361186027526855469e+01 -5.808370769955217838e-04 -7.060686766635626554e-05 -1.954331819433718920e-04 -3.173297955072484910e-05
9.050000000000000000e+02 4.657292938232421875e+01 2.677367019653320312e+01 -1.027334248647093773e-03 -4.982415703125298023e-04 -4.576727515086531639e-04 -5.116354077472351491e-05
9.060000000000000000e+02 4.819624710083007812e+01 2.907518959045410156e+01 -1.726486720144748688e-03 -9.343464625999331474e-04 -7.982499664649367332e-04 -3.472569223958998919e-04
9.070000000000000000e+02 4.906143569946289062e+01 3.023593330383300781e+01 -1.072306302376091480e-03 -6.616845494136214256e-04 -5.201972671784460545e-04 -1.709973090328276157e-03
9.080000000000000000e+02 4.444111633300781250e+01 3.198033714294433594e+01 -1.891518011689186096e-03 4.784385673701763153e-04 -4.239238332957029343e-04 -3.115698200417682528e-05
9.090000000000000000e+02 6.848221588134765625e+01 2.971242523193359375e+01 4.977845251560211182e-01 1.774443507194519043e+00 6.816684007644653320e-01 -7.789260149002075195e-01
9.100000000000000000e+02 6.904846954345703125e+01 2.840209007263183594e+01 2.947660684585571289e-01 2.160108327865600586e+00 7.364623546600341797e-01 -6.508540511131286621e-01
9.110000000000000000e+02 6.990328216552734375e+01 2.277919006347656250e+01 4.219150170683860779e-02 2.447323083877563477e+00 7.468543648719787598e-01 -4.188469424843788147e-02
9.120000000000000000e+02 6.999728393554687500e+01 1.855483627319335938e+01 -3.326861653476953506e-03 2.343538045883178711e+00 7.020633220672607422e-01 -5.147919524461030960e-03
9.130000000000000000e+02 6.980239105224609375e+01 1.286887931823730469e+01 -1.096180919557809830e-02 2.142349243164062500e+00 6.394162178039550781e-01 1.176327690482139587e-01
9.140000000000000000e+02 7.104595184326171875e+01 1.282014656066894531e+01 -7.310539484024047852e-02 1.733193635940551758e+00 4.980264604091644287e-01 -8.850201964378356934e-02
9.150000000000000000e+02 7.100463867187500000e+01 1.147207260131835938e+01 -1.685716062784194946e-01 1.809310913085937500e+00 4.922218024730682373e-01 -5.458093062043190002e-02
9.160000000000000000e+02 7.023057556152343750e+01 5.959437370300292969e+00 4.574232548475265503e-02 2.665675640106201172e+00 8.134254217147827148e-01 -6.796761602163314819e-02
9.170000000000000000e+02 7.935484313964843750e+01 4.228400707244873047e+00 5.074505228549242020e-03 -2.072325468063354492e+00 -6.201753020286560059e-01 1.697365194559097290e-03
9.180000000000000000e+02 7.015486145019531250e+01 7.385004997253417969e+00 8.225952833890914917e-02 2.673274993896484375e+00 8.266603350639343262e-01 -2.004270851612091064e-01
9.190000000000000000e+02 6.992877960205078125e+01 2.634510993957519531e-01 1.450735032558441162e-01 2.557095527648925781e+00 8.106507062911987305e-01 4.162874221801757812e-01
9.200000000000000000e+02 7.935893249511718750e+01 -2.731212615966796875e+00 3.855492221191525459e-03 -1.734825611114501953e+00 -5.192910432815551758e-01 -4.395516216754913330e-02
9.210000000000000000e+02 6.963596343994140625e+01 -1.146726369857788086e+00 1.538269966840744019e-01 2.200162887573242188e+00 7.061969637870788574e-01 4.940951764583587646e-01
9.220000000000000000e+02 6.759661865234375000e+01 -6.546907901763916016e+00 2.607911527156829834e-01 1.354793787002563477e+00 4.846754968166351318e-01 5.611416697502136230e-01
9.230000000000000000e+02 6.692031860351562500e+01 -1.550654697418212891e+01 3.082859218120574951e-01 1.696130633354187012e-01 1.433697044849395752e-01 8.437006920576095581e-02
9.240000000000000000e+02 7.941435241699218750e+01 -1.660534477233886719e+01 1.963997929124161601e-04 -3.267160952091217041e-01 -9.795591235160827637e-02 -5.458207800984382629e-02
9.250000000000000000e+02 6.555904388427734375e+01 -1.019493389129638672e+01 4.116081595420837402e-01 1.068457245826721191e+00 4.440196156501770020e-01 6.360834836959838867e-01
9.260000000000000000e+02 6.476835632324218750e+01 -1.323419857025146484e+01 4.546641707420349121e-01 7.505822181701660156e-01 3.615739047527313232e-01 5.538998842239379883e-01
9.270000000000000000e+02 6.437285614013671875e+01 -1.407140064239501953e+01 4.940349757671356201e-01 6.357944607734680176e-01 3.389488160610198975e-01 5.884579420089721680e-01
9.280000000000000000e+02 6.815426635742187500e+01 -2.135633850097656250e+01 -1.586638569831848145e+00 -1.887705773115158081e-01 -5.326227545738220215e-01 -1.301666647195816040e-01
9.290000000000000000e+02 6.606775665283203125e+01 -1.503448009490966797e+01 4.178484380245208740e-01 2.947806119918823242e-01 2.137887179851531982e-01 2.465094625949859619e-01
9.300000000000000000e+02 6.392415237426757812e+01 -1.480995750427246094e+01 5.491409897804260254e-01 6.009901165962219238e-01 3.450393378734588623e-01 6.120840311050415039e-01
9.310000000000000000e+02 6.070697021484375000e+01 -1.870650863647460938e+01 7.351145744323730469e-01 6.637182831764221191e-01 4.196498692035675049e-01 5.154055356979370117e-01
9.320000000000000000e+02 5.284584808349609375e+01 -2.185562515258789062e+01 1.341235786676406860e-01 5.470702797174453735e-02 5.664918199181556702e-02 3.024059236049652100e-01
9.330000000000000000e+02 7.937477111816406250e+01 -9.675847053527832031e+00 -4.071932562510482967e-05 -1.066051840782165527e+00 -3.198277652263641357e-01 -5.929727107286453247e-02
9.340000000000000000e+02 6.692199707031250000e+01 -7.778059959411621094e+00 2.885538935661315918e-01 1.256458997726440430e+00 4.635038971900939941e-01 5.773623585700988770e-01
9.350000000000000000e+02 7.937274932861328125e+01 9.796808242797851562e+00 -3.313921624794602394e-03 -2.011200428009033203e+00 -6.043543219566345215e-01 1.920785941183567047e-02
9.360000000000000000e+02 7.135774993896484375e+01 2.028638458251953125e+01 2.016106992959976196e-02 1.701729416847229004e+00 5.165671706199645996e-01 -1.036794669926166534e-02
9.370000000000000000e+02 7.936534881591796875e+01 1.674188041687011719e+01 -2.434370107948780060e-03 -1.974010705947875977e+00 -5.929335355758666992e-01 1.902794232591986656e-03
9.380000000000000000e+02 6.986317443847656250e+01 2.419204711914062500e+01 6.681212782859802246e-02 2.522329092025756836e+00 7.767423987388610840e-01 -1.655820459127426147e-01
9.390000000000000000e+02 7.936991119384765625e+01 2.366789817810058594e+01 6.397356279194355011e-03 -1.930345177650451660e+00 -5.771843791007995605e-01 1.968938857316970825e-02
9.400000000000000000e+02 3.534506988525390625e+01 2.901729965209960938e+01 -5.492380587384104729e-04 6.026973642292432487e-05 -1.466905086999759078e-04 2.001079701585695148e-04
9.410000000000000000e+02 3.217353439331054688e+01 2.731080436706542969e+01 -4.118466749787330627e-04 6.242011295398697257e-05 -1.048279737005941570e-04 5.519901242223568261e-05
9.420000000000000000e+02 1.744242095947265625e+01 3.226179122924804688e+01 -4.679572157328948379e-05 -1.136130231316201389e-05 -1.744710607454180717e-05 5.396091000875458121e-05
9.430000000000000000e+02 7.586143493652343750e+00 3.217977523803710938e+01 -8.102827996481209993e-05 -1.338241872872458771e-05 -2.832320933521259576e-05 1.534515467938035727e-05
9.440000000000000000e+02 8.205203056335449219e+00 2.598859214782714844e+01 -3.629408638516906649e-06 -1.647535100346431136e-05 -6.031427801644895226e-06 2.426623359497170895e-05
9.450000000000000000e+02 1.524800395965576172e+01 2.570923423767089844e+01 -3.888736682711169124e-05 2.607731403259094805e-05 -3.843016202154103667e-06 3.398992339498363435e-05
9.460000000000000000e+02 2.562756347656250000e+01 2.223175430297851562e+01 -2.705248189158737659e-04 3.130832192255184054e-05 -7.176494546001777053e-05 1.290924683416960761e-05
9.470000000000000000e+02 3.068017005920410156e+01 2.302355003356933594e+01 -3.190792995155788958e-05 1.090337718778755516e-05 -6.301365829131100327e-06 2.503113646525889635e-04
9.480000000000000000e+02 3.954097747802734375e+01 2.675038528442382812e+01 -7.695865351706743240e-04 1.185645087389275432e-04 -1.953065948328003287e-04 -2.332194999326020479e-04
9.490000000000000000e+02 2.258650779724121094e+00 3.122552871704101562e+01 4.803340925718657672e-05 -2.997346382471732795e-05 5.417983629740774632e-06 7.062060831231065094e-06
9.500000000000000000e+02 6.813245296478271484e+00 1.866278457641601562e+01 1.204008640343090519e-05 2.412561116216238588e-05 1.084970881493063644e-05 7.727762749709654599e-06
9.510000000000000000e+02 1.315200614929199219e+01 1.709493446350097656e+01 -6.900459266034886241e-05 6.665529326710384339e-06 -1.870171945483889431e-05 1.802253791538532823e-05
9.520000000000000000e+02 2.511247444152832031e+01 2.012299728393554688e+01 1.408202515449374914e-04 -2.276550276292255148e-06 4.156310751568526030e-05 4.073629679623991251e-05
9.530000000000000000e+02 3.008901214599609375e+01 1.843590164184570312e+01 -2.608883951324969530e-04 9.324643542640842497e-06 -7.546912092948332429e-05 -7.860317055019550025e-06
9.540000000000000000e+02 8.152881622314453125e+00 9.560077667236328125e+00 4.504770004132296890e-06 -7.618602012371411547e-06 -9.341496252091019414e-07 -4.301081935409456491e-05
9.550000000000000000e+02 1.517562007904052734e+01 8.611304283142089844e+00 -4.112101669306866825e-05 4.251133941579610109e-05 4.170966292349476134e-07 2.297961327712982893e-05
9.560000000000000000e+02 2.187890243530273438e+01 7.275143623352050781e+00 4.917338810628280044e-05 -2.022678745561279356e-05 8.683980013302061707e-06 -2.209011654485948384e-05
9.570000000000000000e+02 3.350471496582031250e+01 7.451056480407714844e+00 -6.100562586652813479e-06 -2.595525620563421398e-05 -9.616745956009253860e-06 5.372326268116012216e-05
9.580000000000000000e+02 3.786442565917968750e+01 1.289659881591796875e+01 8.497691305819898844e-05 -2.318705992365721613e-05 1.853695721365511417e-05 6.521799514302983880e-05
9.590000000000000000e+02 1.781659841537475586e+00 1.575016975402832031e+01 -2.518465407774783671e-05 -8.014180252757796552e-07 -7.795821147738024592e-06 4.036268364870920777e-06
9.600000000000000000e+02 1.523641300201416016e+01 1.259652495384216309e+00 -1.856127710198052227e-05 1.849791806307621300e-05 -1.900758483941444865e-08 8.486368642479646951e-06
9.610000000000000000e+02 2.037740707397460938e+01 1.588599681854248047e+00 3.105610812781378627e-05 -6.361703526636119932e-06 7.408321835100650787e-06 -2.727620994846802205e-05
9.620000000000000000e+02 3.230253219604492188e+01 4.564850330352783203e+00 -1.569603227835614234e-05 1.662802969804033637e-05 2.795992486426257528e-07 -2.829536606441251934e-05
9.630000000000000000e+02 4.650376510620117188e+01 1.641590833663940430e+00 1.157158039859496057e-04 1.474366490583634004e-05 3.913784166797995567e-05 3.443247987888753414e-05
9.640000000000000000e+02 4.031072235107421875e+01 5.522719860076904297e+00 -9.796606173040345311e-05 3.154943897243356332e-06 -2.844333539542276412e-05 -4.381924372864887118e-05
9.650000000000000000e+02 2.671106529235839844e+01 -5.174323081970214844e+00 -1.464868091716198251e-06 6.977883231229498051e-07 -2.301239305779745337e-07 -6.332373686745995656e-06
9.660000000000000000e+02 2.761652374267578125e+01 -1.243614482879638672e+01 9.918370778905227780e-06 -6.037277557879860979e-07 2.794392912619514391e-06 2.357025778110255487e-06
9.670000000000000000e+02 3.632329940795898438e+01 -1.326772785186767578e+01 -1.556212191644590348e-05 -5.116220563650131226e-06 -6.203502834978280589e-06 -5.622006028715986758e-06
9.680000000000000000e+02 4.659331512451171875e+01 -8.039999008178710938e+00 4.601521141012199223e-05 1.391494879499077797e-05 1.797904769773595035e-05 2.217180372099392116e-05
9.690000000000000000e+02 4.631753158569335938e+01 -1.053865432739257812e+01 -3.622534859459847212e-05 -1.316355428571114317e-05 -1.481667095504235476e-05 -2.192009560531005263e-05
9.700000000000000000e+02 5.915944290161132812e+01 -1.966451263427734375e+01 5.972699522972106934e-01 5.566506385803222656e-01 3.461761772632598877e-01 5.540233850479125977e-01
9.710000000000000000e+02 6.680756378173828125e+01 -2.162004661560058594e+01 -1.883105278015136719e+00 -3.234626650810241699e-01 -6.619703769683837891e-01 -5.811881422996520996e-01
9.720000000000000000e+02 7.506466674804687500e+01 -2.548117637634277344e+01 -7.367726415395736694e-03 -4.574008751660585403e-03 -3.582520643249154091e-03 -3.551755100488662720e-03
9.730000000000000000e+02 7.577175140380859375e+01 -2.549142456054687500e+01 -7.219118066132068634e-03 -6.651145406067371368e-03 -4.161078948527574539e-03 3.650677856057882309e-03
9.740000000000000000e+02 7.770927429199218750e+01 -2.456517601013183594e+01 -9.211068041622638702e-03 -7.955300621688365936e-03 -5.149910692125558853e-03 2.424566308036446571e-03
9.750000000000000000e+02 7.862612152099609375e+01 -2.527001190185546875e+01 -3.130676923319697380e-03 1.998102292418479919e-03 -3.397724067326635122e-04 8.484260179102420807e-03
9.760000000000000000e+02 7.930082702636718750e+01 -2.505903816223144531e+01 1.645120326429605484e-03 1.078077498823404312e-02 3.727768780663609505e-03 5.381921771913766861e-03
9.770000000000000000e+02 7.792584228515625000e+01 -2.536865997314453125e+01 -2.511535072699189186e-03 1.272636698558926582e-03 -3.716695064213126898e-04 7.914142683148384094e-03
9.780000000000000000e+02 7.795828247070312500e+01 4.163965606689453125e+01 -8.858195692300796509e-02 -5.409685373306274414e-01 -1.888651549816131592e-01 2.469721995294094086e-02
9.790000000000000000e+02 7.518955993652343750e+01 3.751744461059570312e+01 -8.134301006793975830e-02 -2.331046015024185181e-01 -9.433428198099136353e-02 1.353861540555953979e-01
9.800000000000000000e+02 7.905451202392578125e+01 3.875917816162109375e+01 -6.521787960082292557e-03 -6.702110171318054199e-01 -2.030198425054550171e-01 6.494151055812835693e-02
9.810000000000000000e+02 7.932511138916015625e+01 3.475136947631835938e+01 -6.751569453626871109e-03 -1.033885717391967773e+00 -3.121912181377410889e-01 6.679610162973403931e-02
9.820000000000000000e+02 7.932870483398437500e+01 3.337725830078125000e+01 6.971775088459253311e-03 -1.172672152519226074e+00 -3.497101068496704102e-01 6.824620068073272705e-02
9.830000000000000000e+02 7.795034027099609375e+01 3.457631301879882812e+01 -2.906475448980927467e-03 -7.963799834251403809e-01 -2.397859245538711548e-01 1.669167876243591309e-01
9.840000000000000000e+02 7.934146881103515625e+01 2.922820472717285156e+01 2.268775460834149271e-05 -1.577086091041564941e+00 -4.731190204620361328e-01 6.086312234401702881e-02
9.850000000000000000e+02 7.935057830810546875e+01 2.783859062194824219e+01 6.728956941515207291e-03 -1.697136521339416504e+00 -5.071222782135009766e-01 5.414578691124916077e-02
9.860000000000000000e+02 7.935977935791015625e+01 2.644814872741699219e+01 3.927312791347503662e-03 -1.798806905746459961e+00 -5.384638905525207520e-01 4.234616085886955261e-02
9.870000000000000000e+02 7.805426788330078125e+01 2.771231651306152344e+01 1.750352606177330017e-02 -1.209132313728332520e+00 -3.574886322021484375e-01 1.304668635129928589e-01
9.880000000000000000e+02 7.936774444580078125e+01 2.228378868103027344e+01 -3.544525534380227327e-04 -1.959688067436218262e+00 -5.880127549171447754e-01 1.241642795503139496e-02
9.890000000000000000e+02 7.936869812011718750e+01 2.090163612365722656e+01 4.345638211816549301e-03 -1.975612282752990723e+00 -5.913800001144409180e-01 8.370627649128437042e-03
9.900000000000000000e+02 7.937083435058593750e+01 1.951842498779296875e+01 -8.064029389061033726e-04 -1.981226801872253418e+00 -5.946099758148193359e-01 4.126652609556913376e-03
9.910000000000000000e+02 7.936212921142578125e+01 1.535076522827148438e+01 6.007385090924799442e-04 -1.969860315322875977e+00 -5.907778739929199219e-01 4.106516949832439423e-03
9.920000000000000000e+02 7.936507415771484375e+01 1.396378898620605469e+01 -2.540444023907184601e-03 -1.969318032264709473e+00 -5.915575027465820312e-01 6.037689279764890671e-03
9.930000000000000000e+02 7.936907196044921875e+01 1.257716274261474609e+01 -1.612712279893457890e-03 -1.975152730941772461e+00 -5.930296182632446289e-01 1.068234257400035858e-02
9.940000000000000000e+02 7.937208557128906250e+01 8.404702186584472656e+00 2.002147724851965904e-03 -2.039844036102294922e+00 -6.113526225090026855e-01 2.065789327025413513e-02
9.950000000000000000e+02 7.937023162841796875e+01 7.014028549194335938e+00 1.790618989616632462e-03 -2.064456462860107422e+00 -6.187998056411743164e-01 1.642024330794811249e-02
9.960000000000000000e+02 7.813316345214843750e+01 6.997063636779785156e+00 1.168848201632499695e-02 -1.455396652221679688e+00 -4.331124722957611084e-01 3.131305798888206482e-02
9.970000000000000000e+02 7.934798431396484375e+01 2.834637403488159180e+00 4.247047007083892822e-03 -2.046821117401123047e+00 -6.127722263336181641e-01 -8.245243690907955170e-03
9.980000000000000000e+02 7.934655761718750000e+01 1.441584348678588867e+00 5.010995082557201385e-03 -2.000164985656738281e+00 -5.985462069511413574e-01 -1.779385656118392944e-02
9.990000000000000000e+02 7.934914398193359375e+01 4.955862462520599365e-02 5.341621581465005875e-03 -1.931674599647521973e+00 -5.778998732566833496e-01 -2.853258326649665833e-02
1.000000000000000000e+03 7.806923675537109375e+01 6.362795829772949219e-03 2.010907046496868134e-02 -1.347651004791259766e+00 -3.982625901699066162e-01 -9.325848519802093506e-02
1.001000000000000000e+03 7.936299896240234375e+01 -4.120072364807128906e+00 1.505773747339844704e-03 -1.614672183990478516e+00 -4.839499294757843018e-01 -4.919949546456336975e-02
1.002000000000000000e+03 7.936690521240234375e+01 -5.507909774780273438e+00 2.312254160642623901e-03 -1.484782338142395020e+00 -4.447410106658935547e-01 -5.270090326666831970e-02
1.003000000000000000e+03 7.936919403076171875e+01 -6.895849227905273438e+00 2.046688023256137967e-04 -1.349307179450988770e+00 -4.047307372093200684e-01 -5.474686622619628906e-02
1.004000000000000000e+03 7.811579132080078125e+01 -6.919064998626708984e+00 6.304359994828701019e-03 -9.978923797607421875e-01 -2.974764108657836914e-01 -1.622319817543029785e-01
1.005000000000000000e+03 7.937838745117187500e+01 -1.106584072113037109e+01 3.131697885692119598e-03 -9.183809161186218262e-01 -2.745747864246368408e-01 -6.181591004133224487e-02
1.006000000000000000e+03 7.938368225097656250e+01 -1.245349407196044922e+01 -1.362373819574713707e-03 -7.668855786323547363e-01 -2.304743826389312744e-01 -6.299824267625808716e-02
1.007000000000000000e+03 7.939100646972656250e+01 -1.383842658996582031e+01 2.019778825342655182e-03 -6.151056289672851562e-01 -1.839257478713989258e-01 -6.278982758522033691e-02
1.008000000000000000e+03 7.817964172363281250e+01 -1.384031772613525391e+01 -2.756084315478801727e-03 -4.992716610431671143e-01 -1.506083309650421143e-01 -1.779582500457763672e-01
1.009000000000000000e+03 7.942797851562500000e+01 -1.799130058288574219e+01 -6.499021779745817184e-03 -2.020071297883987427e-01 -6.255184859037399292e-02 -4.615874961018562317e-02
1.010000000000000000e+03 7.944279479980468750e+01 -1.938029861450195312e+01 -3.317439695820212364e-03 -1.021178737282752991e-01 -3.163059428334236145e-02 -3.352863714098930359e-02
1.011000000000000000e+03 7.704183959960937500e+01 -2.459298896789550781e+01 -1.711472496390342712e-02 -4.994435235857963562e-03 -6.632748059928417206e-03 -1.630818820558488369e-03
1.012000000000000000e+03 4.972954273223876953e+00 4.035445785522460938e+01 -3.600772470235824585e-05 -7.451661804225295782e-05 -3.315730282338336110e-05 1.159104431280866265e-05
1.013000000000000000e+03 4.711636352539062500e+01 4.116545867919921875e+01 4.500787239521741867e-03 -1.806078245863318443e-03 8.084127330221235752e-04 6.627206457778811455e-04
1.014000000000000000e+03 6.732836151123046875e+01 3.936480712890625000e+01 -1.986185908317565918e-01 4.641698598861694336e-01 7.966538518667221069e-02 -6.423532962799072266e-02
1.015000000000000000e+03 3.666469752788543701e-01 2.158500671386718750e+00 1.470095776312518865e-05 6.000471785228000954e-06 6.210428637132281438e-06 -1.731500901769322809e-06
1.016000000000000000e+03 2.504167795181274414e+00 2.820525884628295898e+00 1.644454823690466583e-05 4.916033049084944651e-06 6.408174613170558587e-06 -8.643733963253907859e-06
1.017000000000000000e+03 2.331266164779663086e+00 4.765742301940917969e+00 1.815940959204453975e-05 4.198023361823288724e-06 6.707230113534023985e-06 -8.617413186584599316e-06
1.018000000000000000e+03 5.146153569221496582e-01 9.135951042175292969e+00 -2.385844345553778112e-05 3.192986696376465261e-06 -6.199637027748394758e-06 3.314080231575644575e-06
1.019000000000000000e+03 5.525730848312377930e-01 1.192867755889892578e+01 -2.113309164997190237e-05 4.072962838108651340e-06 -5.118038643558975309e-06 3.853371254081139341e-06
1.020000000000000000e+03 5.945734977722167969e-01 1.613988113403320312e+01 2.025762478297110647e-05 7.832067240087781101e-06 8.426907697867136449e-06 -5.202334705245448276e-06
1.021000000000000000e+03 6.053769588470458984e-01 1.754767227172851562e+01 -2.154922003683168441e-05 8.653761369714629836e-07 -6.205153567861998454e-06 6.876447059767087922e-06
1.022000000000000000e+03 6.425550580024719238e-01 2.177921867370605469e+01 2.864226189558394253e-05 2.938315219580545090e-06 9.474172657064627856e-06 -8.612351848569232970e-06
1.023000000000000000e+03 6.566581130027770996e-01 2.319290351867675781e+01 -3.263472899561747909e-05 -8.967147550720255822e-06 -1.248056378244655207e-05 1.232127942785155028e-05
1.024000000000000000e+03 6.690882444381713867e-01 2.460603713989257812e+01 3.643122909124940634e-05 -2.046265763055998832e-06 1.031548890750855207e-05 -1.079592220776248723e-05
1.025000000000000000e+03 7.027339935302734375e-01 2.885009574890136719e+01 -4.392999107949435711e-05 -1.976661405933555216e-05 -1.910898208734579384e-05 1.277040701097575948e-05
1.026000000000000000e+03 7.257427573204040527e-01 3.026381111145019531e+01 4.114052717341110110e-05 -1.976892417587805539e-05 6.411480626411503181e-06 -6.131732334324624389e-06
1.027000000000000000e+03 2.163516044616699219e+00 2.982391166687011719e+01 -4.849812830798327923e-05 -1.568065999890677631e-05 -1.925363721966277808e-05 9.047808816831093282e-06
1.028000000000000000e+03 7.565427422523498535e-01 3.167685317993164062e+01 -3.453166209510527551e-05 -2.328307346033398062e-05 -1.734442048473283648e-05 5.397035693022189662e-06
1.029000000000000000e+03 8.695873022079467773e-01 3.589527130126953125e+01 8.325570888700895011e-06 -2.477309863024856895e-05 -4.934257958666421473e-06 -1.612068444956094027e-06
1.030000000000000000e+03 2.859543323516845703e+00 3.809963226318359375e+01 -2.264944669150281698e-05 -3.794345684582367539e-05 -1.817787051550112665e-05 1.793675255612470210e-05
1.031000000000000000e+03 1.041620135307312012e+00 3.869083404541015625e+01 3.017154449480585754e-05 -2.558619598858058453e-05 1.375604369968641549e-06 -1.069039444701047614e-05
1.032000000000000000e+03 1.335239887237548828e+00 4.008331680297851562e+01 -3.479413499007932842e-05 -2.615042285469826311e-05 -1.828336644393857569e-05 4.752679615194210783e-06
1.033000000000000000e+03 9.984816551208496094e+00 2.019209623336791992e+00 -1.130907730839680880e-05 5.165658421901753172e-06 -1.843025756897986867e-06 -1.570420317875687033e-05
1.034000000000000000e+03 9.169890403747558594e+00 1.965455055236816406e+00 1.032278760249027982e-05 4.319951585785020143e-06 4.392822120280470699e-06 7.606825874972855672e-06
1.035000000000000000e+03 8.407571792602539062e+00 1.929808378219604492e+00 -9.320691560787963681e-07 -1.740069592415238731e-06 -8.016415904421592131e-07 -1.058252018992789090e-05
1.036000000000000000e+03 7.660053730010986328e+00 1.907315373420715332e+00 8.825859367789234966e-06 3.379869212949415669e-06 3.661718665171065368e-06 3.636912197180208750e-06
1.037000000000000000e+03 6.920202732086181641e+00 1.892929077148437500e+00 -3.872533397952793166e-06 -2.784436446745530702e-06 -1.997090976146864705e-06 -5.325406164047308266e-06
1.038000000000000000e+03 4.734222888946533203e+00 1.879341483116149902e+00 9.177446372632402927e-06 7.615713911945931613e-06 5.037948085373500362e-06 -1.573400595589191653e-06
1.039000000000000000e+03 4.004913806915283203e+00 1.894138813018798828e+00 -5.403975137596717104e-06 -8.424788575212005526e-06 -4.148629159317351878e-06 1.379181298943876754e-06
1.040000000000000000e+03 3.276672601699829102e+00 1.914207339286804199e+00 8.382087798963766545e-06 8.863380571710877120e-06 5.173640147404512390e-06 -5.508209596882807091e-06
1.041000000000000000e+03 1.827618479728698730e+00 1.968717932701110840e+00 8.274882929981686175e-06 6.883149580971803516e-06 4.547409844235517085e-06 -1.379459490635781549e-06
1.042000000000000000e+03 1.098155379295349121e+00 2.050374269485473633e+00 3.849412522072270804e-08 -9.233081073034554720e-06 -2.758376012934604660e-06 -1.305105797655414790e-06
1.043000000000000000e+03 1.317346286773681641e+01 6.899430155754089355e-01 -7.597031981276813895e-06 2.397990829194895923e-05 4.914862529403762892e-06 4.162573532084934413e-06
1.044000000000000000e+03 1.635210037231445312e+01 -2.300803661346435547e-01 1.767665526131168008e-05 -1.084702580556040630e-05 2.048888745775911957e-06 -1.742762469802983105e-05
1.045000000000000000e+03 1.602124977111816406e+01 -8.588342666625976562e-01 -1.881662257119387505e-07 1.889372470031958073e-05 5.611667347693582997e-06 9.407213838130701333e-06
1.046000000000000000e+03 1.799354743957519531e+01 -2.263205528259277344e+00 6.901379947521490976e-06 -5.168153620616067201e-06 5.199678980716271326e-07 -1.828797758207656443e-05
1.047000000000000000e+03 1.982966613769531250e+01 -3.840291261672973633e+00 1.033284024742897600e-05 4.790874299942515790e-06 4.537114364211447537e-06 6.746889539499534294e-06
1.048000000000000000e+03 2.251581192016601562e+01 -6.840242862701416016e+00 8.111176725833502132e-07 5.799362952529918402e-06 1.983144329642527737e-06 -5.604986199614359066e-06
1.049000000000000000e+03 2.300598144531250000e+01 -7.479435443878173828e+00 5.288005922921001911e-06 -2.633209305713535286e-06 7.964388828440860379e-07 -9.319795708506717347e-07
1.050000000000000000e+03 2.346440124511718750e+01 -8.139190673828125000e+00 1.866966158559080213e-06 5.126246833242475986e-06 2.097963943015201949e-06 -1.745243025652598590e-06
1.051000000000000000e+03 2.430423736572265625e+01 -9.492869377136230469e+00 3.726816430571489036e-06 5.817773399030556902e-06 2.863376948880613782e-06 4.163176754445885308e-07
1.052000000000000000e+03 2.471412658691406250e+01 -1.017328071594238281e+01 -9.410084658156847581e-07 -3.487179810690577142e-06 -1.328456505689246114e-06 -4.286883722670609131e-06
1.053000000000000000e+03 2.508607673645019531e+01 -1.085079288482666016e+01 5.538195637200260535e-06 4.439929853106150404e-06 2.993437647091923282e-06 2.502062670828308910e-06
1.054000000000000000e+03 2.666584396362304688e+01 -1.235910987854003906e+01 9.023414349940139800e-06 6.800720484534394927e-07 2.911045839937287383e-06 1.421990532435302157e-06
1.055000000000000000e+03 2.607411956787109375e+01 -1.285492134094238281e+01 -7.982630449987482280e-06 -9.561822480463888496e-07 -2.681643763935426250e-06 -2.982472096846322529e-06
1.056000000000000000e+03 2.674880599975585938e+01 -1.416542243957519531e+01 -1.103159047488588840e-05 2.216084340034285560e-06 -2.644651658556540497e-06 -6.918271992617519572e-06
1.057000000000000000e+03 2.710234260559082031e+01 -1.479991531372070312e+01 9.703112482384312898e-06 2.042092773990589194e-06 3.523561645124573261e-06 6.156140898383455351e-06
1.058000000000000000e+03 2.741720199584960938e+01 -1.537883663177490234e+01 -1.130805139837320894e-05 -3.859901909208929283e-08 -3.403994924155995250e-06 -2.150940645151422359e-06
1.059000000000000000e+03 3.001186180114746094e+01 -1.602826118469238281e+01 -1.007122500595869496e-05 -4.938789516018005088e-06 -4.503004220168804750e-06 -3.207386043868609704e-06
1.060000000000000000e+03 3.035028457641601562e+01 -1.739698982238769531e+01 -3.062413043153355829e-06 -6.252077582757920027e-06 -2.794347210510750301e-06 -4.105461357539752498e-06
1.061000000000000000e+03 3.674291992187500000e+01 -1.801696395874023438e+01 2.044078655671910383e-06 -9.252857466890418436e-07 3.356378499574930174e-07 1.368462790196645074e-06
1.062000000000000000e+03 4.243846130371093750e+01 -1.979146766662597656e+01 4.735297352453926578e-06 1.507970182501594536e-06 1.872980305961391423e-06 3.024978923349408433e-06
1.063000000000000000e+03 4.593859100341796875e+01 -1.810720443725585938e+01 6.157252755656372756e-06 3.399857178010279313e-06 2.867132934625260532e-06 4.627559974323958158e-06
1.064000000000000000e+03 4.540187454223632812e+01 -1.896388435363769531e+01 3.612366526795085520e-06 1.797196659936162177e-06 1.622868921913322993e-06 3.572740752133540809e-06
1.065000000000000000e+03 4.764233398437500000e+01 -1.847848892211914062e+01 -3.492267069304944016e-06 -1.421945171387051232e-06 -1.474263626732863486e-06 -4.279910626792116091e-06
1.066000000000000000e+03 4.838623428344726562e+01 -1.832567977905273438e+01 3.519288611641968600e-06 1.289500687562394887e-06 1.442636857973411679e-06 5.049639185017440468e-06
1.067000000000000000e+03 4.912346267700195312e+01 -1.817316818237304688e+01 -5.663077899953350425e-06 -2.496184094979980728e-07 -1.773808889993233606e-06 -5.171886641619494185e-06
1.068000000000000000e+03 5.058149337768554688e+01 -1.786442565917968750e+01 -9.005165338749065995e-06 1.498590108894859441e-06 -2.251972546218894422e-06 -8.393756161240162328e-07
1.069000000000000000e+03 5.131533050537109375e+01 -1.770416831970214844e+01 8.028008778637740761e-06 -2.079253818010329269e-07 2.346024984944961034e-06 -2.460408268234459683e-06
1.070000000000000000e+03 5.306284332275390625e+01 -1.600727653503417969e+01 2.289140502398367971e-05 8.988043191493488848e-06 9.563834282744210213e-06 1.297633957619837020e-06
1.071000000000000000e+03 5.473611450195312500e+01 -1.601101684570312500e+01 2.971596404677256942e-05 1.511577738710911945e-05 1.344952215731609613e-05 1.935856198542751372e-05
1.072000000000000000e+03 5.625132751464843750e+01 -1.654991340637207031e+01 -5.887290171813219786e-06 -2.640095954120624810e-05 -9.686475095804780722e-06 -1.339538084721425548e-05
1.073000000000000000e+03 5.711890411376953125e+01 -1.648641014099121094e+01 3.079630550928413868e-05 3.892831227858550847e-05 2.091738497256301343e-05 1.888873339339625090e-05
1.074000000000000000e+03 5.838987350463867188e+01 -1.602209472656250000e+01 -2.251140358566772193e-05 6.713386028422974050e-06 -4.739405085274484009e-06 -4.700459612649865448e-06
1.075000000000000000e+03 5.129920578002929688e+01 -1.129321002960205078e+01 4.749016443383879960e-05 6.027099743732833304e-07 1.442786197003442794e-05 4.626005647878628224e-06
1.076000000000000000e+03 4.887587738037109375e+01 -7.551427364349365234e+00 5.810832954011857510e-05 5.836458967678481713e-06 1.918343696161173284e-05 1.518674434919375926e-05
1.077000000000000000e+03 5.050374603271484375e+01 -8.670953750610351562e+00 5.714479266316629946e-05 1.650597596380976029e-06 1.763861655490472913e-05 8.292980965052265674e-06
1.078000000000000000e+03 4.965509033203125000e+01 -6.040914058685302734e+00 6.608336843783035874e-05 3.293024292361224070e-06 2.081291677313856781e-05 1.224411425937432796e-05
1.079000000000000000e+03 5.008861541748046875e+01 -7.353825092315673828e+00 -6.194588058860972524e-05 -1.967141088243806735e-06 -1.917390545713715255e-05 -1.017182421492179856e-05
1.080000000000000000e+03 4.874822616577148438e+01 -3.416462898254394531e+00 7.709889177931472659e-05 5.722485639125807211e-06 2.484641299815848470e-05 1.714491918392013758e-05
1.081000000000000000e+03 4.825751495361328125e+01 -2.120981693267822266e+00 -8.395789336645975709e-05 -5.214345947024412453e-06 -2.675167161214631051e-05 -2.125272476405370981e-05
1.082000000000000000e+03 4.586955642700195312e+01 2.874437093734741211e+00 -1.279885182157158852e-04 -1.040002916852245107e-05 -4.151656321482732892e-05 -4.222955249133519828e-05
1.083000000000000000e+03 4.462332916259765625e+01 2.512030363082885742e+00 1.056459586834535003e-04 2.241041511297225952e-05 3.841691068373620510e-05 4.378366429591551423e-05
1.084000000000000000e+03 4.520534133911132812e+01 4.087713718414306641e+00 1.431768760085105896e-04 2.020208557951264083e-05 4.901368811260908842e-05 4.411375994095578790e-05
1.085000000000000000e+03 4.327330780029296875e+01 7.802788257598876953e+00 -1.671835343586280942e-04 6.801060862926533446e-06 -4.811473991139791906e-05 -4.643154898076318204e-05
1.086000000000000000e+03 4.274751663208007812e+01 9.120832443237304688e+00 1.772857212927192450e-04 1.327767222392139956e-05 5.716901796404272318e-05 2.814492108882404864e-05
1.087000000000000000e+03 4.231594085693359375e+01 1.479423236846923828e+01 1.783741172403097153e-04 2.572020275692921132e-05 6.122829654486849904e-05 -1.560529926791787148e-05
1.088000000000000000e+03 4.247911453247070312e+01 1.621682548522949219e+01 -1.934407046064734459e-04 2.181165837100706995e-05 -5.148871423443779349e-05 2.339947241125628352e-05
1.089000000000000000e+03 4.311942291259765625e+01 1.900457191467285156e+01 -2.602442982606589794e-04 -6.607247541978722438e-06 -8.005546987988054752e-05 4.242849536240100861e-05
1.090000000000000000e+03 4.352344512939453125e+01 2.037333297729492188e+01 2.686504740267992020e-04 -1.358522058581002057e-05 7.651957275811582804e-05 -9.833585500018671155e-05
1.091000000000000000e+03 4.515774536132812500e+01 2.433299064636230469e+01 -5.767404218204319477e-04 -2.323143853573128581e-04 -2.427164436085149646e-04 2.933547148131765425e-05
1.092000000000000000e+03 4.584682083129882812e+01 2.556967544555664062e+01 3.578322648536413908e-04 -1.761865278240293264e-04 5.449372110888361931e-05 -4.533536557573825121e-04
1.093000000000000000e+03 4.735601425170898438e+01 2.793695068359375000e+01 1.291573717026039958e-04 -3.837785916402935982e-04 -7.638636452611535788e-05 -9.391163475811481476e-04
1.094000000000000000e+03 4.769351196289062500e+01 3.106291198730468750e+01 -3.439892316237092018e-03 -6.121416663518175483e-05 -1.050331979058682919e-03 -3.784770669881254435e-04
1.095000000000000000e+03 6.343852233886718750e+01 3.484846496582031250e+01 2.740089595317840576e-01 2.415144741535186768e-01 1.546570211648941040e-01 -1.864192038774490356e-01
1.096000000000000000e+03 6.972031402587890625e+01 2.561706924438476562e+01 1.071887388825416565e-01 2.541710376739501953e+00 7.946697473526000977e-01 -3.197088837623596191e-01
1.097000000000000000e+03 6.997103118896484375e+01 1.711120986938476562e+01 1.182842813432216644e-02 2.356203556060791016e+00 7.104096412658691406e-01 5.223432090133428574e-03
1.098000000000000000e+03 6.994992828369140625e+01 1.568348598480224609e+01 4.283674992620944977e-03 2.400895118713378906e+00 7.215536832809448242e-01 2.369308844208717346e-02
1.099000000000000000e+03 6.991455078125000000e+01 1.426497268676757812e+01 5.560637265443801880e-02 2.446769475936889648e+00 7.507127523422241211e-01 9.022845327854156494e-02
1.100000000000000000e+03 6.971347808837890625e+01 1.149909210205078125e+01 -1.042748391628265381e-01 1.857417583465576172e+00 5.259428620338439941e-01 -2.114561013877391815e-02
1.101000000000000000e+03 6.997071838378906250e+01 8.777931213378906250e+00 4.616154730319976807e-02 2.360420465469360352e+00 7.219746112823486328e-01 -2.764647006988525391e-01
1.102000000000000000e+03 7.019388580322265625e+01 3.105000972747802734e+00 3.783966600894927979e-02 2.692548990249633789e+00 8.191166520118713379e-01 5.665664747357368469e-02
1.103000000000000000e+03 7.125672149658203125e+01 3.030709981918334961e+00 1.069098338484764099e-01 2.030407667160034180e+00 6.411952376365661621e-01 9.420889616012573242e-02
1.104000000000000000e+03 7.011939239501953125e+01 1.682177782058715820e+00 1.092949956655502319e-01 2.789234161376953125e+00 8.695587515830993652e-01 2.268263697624206543e-01
1.105000000000000000e+03 7.083026885986328125e+01 -1.377938985824584961e+00 1.244633421301841736e-01 1.694998502731323242e+00 5.458385944366455078e-01 1.896449476480484009e-01
1.106000000000000000e+03 6.927602386474609375e+01 -2.553864717483520508e+00 1.764000207185745239e-01 1.946892738342285156e+00 6.369878053665161133e-01 5.162593722343444824e-01
1.107000000000000000e+03 6.881368255615234375e+01 -3.934634447097778320e+00 2.112198472023010254e-01 1.751680970191955566e+00 5.888702869415283203e-01 5.363402366638183594e-01
1.108000000000000000e+03 6.823967742919921875e+01 -5.267099380493164062e+00 2.451667338609695435e-01 1.549260377883911133e+00 5.383281111717224121e-01 5.555845499038696289e-01
1.109000000000000000e+03 6.777315521240234375e+01 -8.371892929077148438e+00 2.599315345287322998e-01 1.071665406227111816e+00 3.994790911674499512e-01 4.297473132610321045e-01
1.110000000000000000e+03 6.548159027099609375e+01 -1.215895938873291016e+01 4.597457647323608398e-01 7.938259243965148926e-01 3.760714828968048096e-01 5.070862174034118652e-01
1.111000000000000000e+03 6.470053863525390625e+01 -1.150113391876220703e+01 6.079549193382263184e-01 1.020356178283691406e+00 4.884933531284332275e-01 7.068172693252563477e-01
1.112000000000000000e+03 6.420425415039062500e+01 -1.607699203491210938e+01 5.911597013473510742e-01 3.335663676261901855e-01 2.774178087711334229e-01 4.658117890357971191e-01
1.113000000000000000e+03 6.347401046752929688e+01 -1.552028465270996094e+01 6.466291546821594238e-01 5.978634953498840332e-01 3.733477890491485596e-01 6.356565952301025391e-01
1.114000000000000000e+03 6.302491760253906250e+01 -1.622231864929199219e+01 8.147616386413574219e-01 5.618878006935119629e-01 4.129948318004608154e-01 6.785130500793457031e-01
1.115000000000000000e+03 6.257257080078125000e+01 -1.692045211791992188e+01 9.495407938957214355e-01 4.950955808162689209e-01 4.333909153938293457e-01 5.075862407684326172e-01
1.116000000000000000e+03 6.209721755981445312e+01 -1.761403083801269531e+01 7.964518070220947266e-01 5.798873305320739746e-01 4.129017293453216553e-01 4.369377493858337402e-01
1.117000000000000000e+03 5.829982376098632812e+01 -1.999517631530761719e+01 4.837302863597869873e-01 5.630136132240295410e-01 3.140231668949127197e-01 5.339438319206237793e-01
1.118000000000000000e+03 5.994517135620117188e+01 -1.917154693603515625e+01 7.191657423973083496e-01 6.494845151901245117e-01 4.105950891971588135e-01 5.595972537994384766e-01
1.119000000000000000e+03 5.668133163452148438e+01 -2.038296127319335938e+01 5.498938560485839844e-01 3.989664316177368164e-01 2.846580743789672852e-01 5.142032504081726074e-01
1.120000000000000000e+03 5.591021347045898438e+01 -2.061737823486328125e+01 4.674493968486785889e-01 3.148451745510101318e-01 2.346883714199066162e-01 4.421751797199249268e-01
1.121000000000000000e+03 5.595911407470703125e+01 -2.519362831115722656e+01 -5.133360028266906738e-01 2.250346243381500244e-01 -8.649041503667831421e-02 1.707560033537447453e-03
1.122000000000000000e+03 5.273052978515625000e+01 -2.307509040832519531e+01 -1.746653318405151367e-01 -1.429523993283510208e-02 -5.668817088007926941e-02 2.723151445388793945e-01
1.123000000000000000e+03 5.325054550170898438e+01 -2.442809867858886719e+01 -2.315777540206909180e-01 4.375365749001502991e-02 -5.634722858667373657e-02 2.626356184482574463e-01
1.124000000000000000e+03 5.374973297119140625e+01 -2.395082092285156250e+01 -3.708301484584808350e-01 1.219976693391799927e-01 -7.464974373579025269e-02 2.020651847124099731e-01
1.125000000000000000e+03 5.077240753173828125e+01 -2.215690040588378906e+01 9.661154448986053467e-02 -2.845471799373626709e-01 -5.638068541884422302e-02 4.644840955734252930e-01
1.126000000000000000e+03 5.037943649291992188e+01 -2.164832687377929688e+01 3.589918911457061768e-01 -6.015426516532897949e-01 -7.276522368192672729e-02 7.320193648338317871e-01
1.127000000000000000e+03 5.121620178222656250e+01 -2.266039466857910156e+01 1.485946625471115112e-01 -2.912516295909881592e-01 -4.279708862304687500e-02 4.562644362449645996e-01
1.128000000000000000e+03 5.379623413085937500e+01 -2.483731269836425781e+01 -4.351565241813659668e-01 6.227899342775344849e-02 -1.118632629513740540e-01 1.459133476018905640e-01
1.129000000000000000e+03 5.393604660034179688e+01 -2.308242225646972656e+01 -2.215293049812316895e-01 1.884081065654754639e-01 -9.936355985701084137e-03 3.106862604618072510e-01
1.130000000000000000e+03 5.864002227783203125e+01 -2.236895561218261719e+01 -6.001269221305847168e-01 3.707548081874847412e-01 -6.881163269281387329e-02 1.327974647283554077e-01
1.131000000000000000e+03 7.981618499755859375e+01 -2.494112586975097656e+01 2.635113894939422607e-03 1.849253103137016296e-02 6.338293664157390594e-03 1.634652726352214813e-03
1.132000000000000000e+03 4.112368011474609375e+01 -2.024453544616699219e+01 4.776456080435309559e-06 9.938295306710642762e-07 1.731085603751125745e-06 3.284447529949829914e-06
1.133000000000000000e+03 4.176866531372070312e+01 -2.001639366149902344e+01 -5.815959411847870797e-06 -5.293530875860597007e-07 -1.903593783936230466e-06 -3.002324092449271120e-06
1.134000000000000000e+03 2.640756607055664062e+01 -1.351438808441162109e+01 1.166959100373787805e-05 -9.516932095721131191e-07 3.215369360987097025e-06 2.576638053142232820e-06
1.135000000000000000e+03 7.380897521972656250e+01 -2.446098518371582031e+01 -3.798959776759147644e-02 -8.781258948147296906e-03 -1.403125654906034470e-02 5.791048533865250647e-05
1.136000000000000000e+03 3.909672927856445312e+01 -1.817988967895507812e+01 9.247301022696774453e-06 3.299198851891560480e-06 3.763950189750175923e-06 1.978675527425366454e-06
1.137000000000000000e+03 4.315177536010742188e+01 -1.957883834838867188e+01 -4.523671123024541885e-06 -1.675014118518447503e-06 -1.859605504250794183e-06 -2.541464937166892923e-06
1.138000000000000000e+03 4.220593261718750000e+01 -1.904620552062988281e+01 -6.836348347860621288e-06 -2.409783064649673179e-06 -2.773839469227823429e-06 -2.737835757216089405e-06
1.139000000000000000e+03 3.954845428466796875e+01 -1.921847152709960938e+01 -8.294133294839411974e-06 -3.234792757211835124e-06 -3.458677838352741674e-06 -3.538479177223052830e-06
1.140000000000000000e+03 5.221206665039062500e+01 -2.355340766906738281e+01 -3.444643691182136536e-02 -9.521476179361343384e-02 -3.889835625886917114e-02 3.227315545082092285e-01
1.141000000000000000e+03 5.201122665405273438e+01 -2.131759452819824219e+01 2.283437997102737427e-01 2.811483107507228851e-02 7.693758606910705566e-02 2.658503949642181396e-01
1.142000000000000000e+03 5.281566619873046875e+01 -2.121317100524902344e+01 1.838840991258621216e-01 6.992356479167938232e-02 7.614229619503021240e-02 3.770000338554382324e-01
1.143000000000000000e+03 5.436081314086914062e+01 -2.520584297180175781e+01 -3.499788641929626465e-01 1.411588490009307861e-01 -6.264600902795791626e-02 1.728453189134597778e-01
1.144000000000000000e+03 5.368259429931640625e+01 -2.175609779357910156e+01 8.925379067659378052e-02 1.627938896417617798e-01 7.561430335044860840e-02 3.640832304954528809e-01
1.145000000000000000e+03 5.495131301879882812e+01 -2.554038047790527344e+01 -4.574656486511230469e-01 1.381072551012039185e-01 -9.580752253532409668e-02 5.174259096384048462e-02
1.146000000000000000e+03 5.476316833496093750e+01 -2.475146865844726562e+01 -4.578794836997985840e-01 1.807423084974288940e-01 -8.314115554094314575e-02 1.221889778971672058e-01
1.147000000000000000e+03 5.792293930053710938e+01 -2.218797492980957031e+01 -2.897102832794189453e-01 4.266973733901977539e-01 4.109613224864006042e-02 2.608422935009002686e-01
1.148000000000000000e+03 5.512762832641601562e+01 -2.080031013488769531e+01 4.214455783367156982e-01 2.685738503932952881e-01 2.070058286190032959e-01 3.603384196758270264e-01
1.149000000000000000e+03 5.507730102539062500e+01 -2.270214843750000000e+01 -8.420342206954956055e-02 2.889635562896728516e-01 6.142804399132728577e-02 2.947626411914825439e-01
1.150000000000000000e+03 5.118176651000976562e+01 -2.145645141601562500e+01 -1.816792488098144531e-01 -3.557240962982177734e-02 -6.517549604177474976e-02 5.747458934783935547e-01
1.151000000000000000e+03 5.223676681518554688e+01 -2.270119285583496094e+01 5.592371523380279541e-02 -6.041751056909561157e-02 -1.348138204775750637e-03 4.055868089199066162e-01
1.152000000000000000e+03 7.649111938476562500e+01 -2.547210502624511719e+01 -4.954414907842874527e-03 -2.876991406083106995e-03 -2.349421847611665726e-03 2.290155738592147827e-03
1.153000000000000000e+03 7.491222381591796875e+01 -2.392527580261230469e+01 -5.484259501099586487e-02 -4.863558337092399597e-03 -1.791184581816196442e-02 -1.450431905686855316e-02
1.154000000000000000e+03 7.621335601806640625e+01 -2.397620201110839844e+01 -4.367585480213165283e-02 -3.673314349725842476e-03 -1.420475076884031296e-02 -1.182709913700819016e-02
1.155000000000000000e+03 7.429061889648437500e+01 -2.403662872314453125e+01 -6.926507502794265747e-02 -3.923393320292234421e-03 -2.195654064416885376e-02 3.007477789651602507e-04
1.156000000000000000e+03 7.635620117187500000e+01 -2.469479179382324219e+01 -2.212798967957496643e-02 -9.415538050234317780e-03 -9.463058784604072571e-03 7.572806207463145256e-04
1.157000000000000000e+03 5.520811080932617188e+01 -1.680834388732910156e+01 -2.702588608372025192e-05 4.698060365626588464e-06 -6.698347988276509568e-06 -8.829723810777068138e-06
1.158000000000000000e+03 5.376163482666015625e+01 -1.524109268188476562e+01 -1.463149328628787771e-05 -1.716288352326955646e-05 -9.538312951917760074e-06 -1.045911358232842758e-05
1.159000000000000000e+03 5.167792892456054688e+01 -1.373409938812255859e+01 3.026159538421779871e-05 -7.836578333808574826e-06 6.727505478920647874e-06 -9.115546163229737431e-06
1.160000000000000000e+03 5.100456619262695312e+01 -1.688475036621093750e+01 -1.601027543074451387e-05 1.945762505783932284e-06 -4.219354195811320096e-06 4.754253495775628835e-06
1.161000000000000000e+03 8.811438560485839844e+00 3.780584335327148438e+00 9.351010703539941460e-06 1.097710992326028645e-05 6.098436188040068373e-06 5.194261575525160879e-06
1.162000000000000000e+03 3.871860027313232422e+00 3.524847030639648438e+00 -4.455679118109401315e-06 -9.862284969130996615e-06 -4.295389317121589556e-06 -3.035958116015535779e-07
1.163000000000000000e+03 5.460787773132324219e+00 1.876293301582336426e+00 -6.527480763907078654e-06 -5.404489911597920582e-06 -3.579591066227294505e-06 -2.323288072147988714e-06
1.164000000000000000e+03 8.269953727722167969e+00 2.778181314468383789e+00 8.743247235543094575e-06 7.996029125934001058e-06 5.021782726544188336e-06 4.316426839068299159e-06
1.165000000000000000e+03 6.047127723693847656e+00 2.661060810089111328e+00 -8.889225682651158422e-06 -4.250616257195360959e-06 -3.941952400055015460e-06 -4.329618150222813711e-06
1.166000000000000000e+03 7.512974739074707031e+00 2.719061613082885742e+00 -4.327565420680912212e-06 -4.794962933374335989e-06 -2.736758460741839372e-06 -7.365700639638816938e-06
1.167000000000000000e+03 5.343823909759521484e+00 2.645130157470703125e+00 1.311564301431644708e-05 6.190625299495877698e-06 5.791880539618432522e-06 8.068552119766536634e-07
1.168000000000000000e+03 1.646401524543762207e+00 3.697791099548339844e+00 3.569078398868441582e-05 4.776859441335545853e-06 1.214029362017754465e-05 -1.223992967425147071e-06
1.169000000000000000e+03 1.502119660377502441e+00 7.499180793762207031e+00 -2.621914609335362911e-05 3.692339760164031759e-06 -6.758041763532673940e-06 2.073238647426478565e-07
1.170000000000000000e+03 1.178904294967651367e+00 3.117507219314575195e+00 1.196460971186752431e-06 1.302758931842618040e-07 3.980210578902187990e-07 2.103093493133201264e-06
1.171000000000000000e+03 2.552969694137573242e+00 1.935720086097717285e+00 -9.860162208497058600e-06 -6.151633897388819605e-06 -4.803538558917352930e-06 3.392136932234279811e-06
1.172000000000000000e+03 1.830986499786376953e+00 2.855896711349487305e+00 -1.949018587765749544e-05 -1.187958353909834841e-08 -5.850619800185086206e-06 -1.570752715451817494e-06
1.173000000000000000e+03 2.632260704040527344e+01 -1.171642494201660156e+01 -4.692031779995886609e-06 -1.132659917857381515e-06 -1.747407509355980437e-06 -3.560471895980299450e-06
1.174000000000000000e+03 2.702005195617675781e+01 -1.298445034027099609e+01 -8.742686077312100679e-06 8.477017559016530868e-07 -2.368495188420638442e-06 -4.659347268898272887e-06
1.175000000000000000e+03 2.739472961425781250e+01 -1.358440208435058594e+01 1.146345766755985096e-05 -5.150546940058120526e-07 3.284520971646998078e-06 4.677491688198642805e-06
1.176000000000000000e+03 2.597924995422363281e+01 -1.106254482269287109e+01 6.489777206297731027e-06 1.940515630849404261e-06 2.529087851144140586e-06 1.350677962363988627e-06
1.177000000000000000e+03 2.822301864624023438e+01 -1.464553070068359375e+01 1.662295835558325052e-05 3.210752907989444793e-08 4.996519692213041708e-06 6.015045073581859469e-06
1.178000000000000000e+03 7.828641510009765625e+01 -2.447945594787597656e+01 -1.162379281595349312e-03 1.530239824205636978e-03 1.103581817005760968e-04 6.032346282154321671e-03
1.179000000000000000e+03 7.946861267089843750e+01 -2.077510070800781250e+01 -6.948410999029874802e-03 -3.347075730562210083e-02 -1.212575007230043411e-02 -2.006223052740097046e-02
1.180000000000000000e+03 7.964021301269531250e+01 -2.353344726562500000e+01 -3.952505532652139664e-03 2.230344153940677643e-02 5.505280569195747375e-03 -3.932395775336772203e-04
1.181000000000000000e+03 5.026165390014648438e+01 -1.711021041870117188e+01 1.575950773258227855e-05 -2.631542656672536395e-06 3.938389909308170900e-06 1.971223127839039080e-06
1.182000000000000000e+03 4.954804992675781250e+01 -1.729702758789062500e+01 -1.263680860574822873e-05 -1.412830101799045224e-07 -3.833427399513311684e-06 -6.163255875435424969e-06
1.183000000000000000e+03 5.175228118896484375e+01 -1.674705314636230469e+01 6.094865966588258743e-06 5.392163984652142972e-06 3.446108848947915249e-06 -1.139585401688236743e-05
1.184000000000000000e+03 4.884340667724609375e+01 -1.747176170349121094e+01 7.503025244659511372e-06 3.446139771767775528e-06 3.284749482190818526e-06 7.277803888428024948e-06
1.185000000000000000e+03 5.435629272460937500e+01 -2.094771766662597656e+01 3.439481556415557861e-01 1.783257424831390381e-01 1.566821783781051636e-01 3.691377341747283936e-01
1.186000000000000000e+03 5.358683013916015625e+01 -2.109100723266601562e+01 3.196763992309570312e-01 1.555750221014022827e-01 1.425754278898239136e-01 2.763698399066925049e-01
1.187000000000000000e+03 5.206229019165039062e+01 -2.184189987182617188e+01 6.201158277690410614e-03 2.224284596741199493e-02 8.533201180398464203e-03 4.285660088062286377e-01
1.188000000000000000e+03 4.689809417724609375e+01 -1.862866973876953125e+01 3.695116902235895395e-06 1.382985715281392913e-06 1.523430796623870265e-06 4.138255462748929858e-06
1.189000000000000000e+03 4.667177200317382812e+01 -1.794747352600097656e+01 -6.152541118353838101e-06 -3.426845751164364628e-06 -2.873815901693888009e-06 -4.010651082353433594e-06
1.190000000000000000e+03 4.812594604492187500e+01 -1.764364624023437500e+01 -4.922910648019751534e-06 -4.457563591131474823e-06 -2.814142362694838084e-06 -5.335542937245918438e-06
1.191000000000000000e+03 4.739948272705078125e+01 -1.780060577392578125e+01 5.247534318186808378e-06 4.032928700326010585e-06 2.784138814604375511e-06 4.335516678111162037e-06
1.192000000000000000e+03 4.426615524291992188e+01 -1.777985763549804688e+01 -6.409313300537178293e-06 -5.904780664423014969e-06 -3.694228098538587801e-06 -4.286158855393296108e-06
1.193000000000000000e+03 4.519546890258789062e+01 -1.828746032714843750e+01 -5.249643436400219798e-06 -3.987400759797310457e-06 -2.771113258859259076e-06 -4.370204806036781520e-06
1.194000000000000000e+03 4.390075302124023438e+01 -1.937469291687011719e+01 4.052805707033257931e-06 2.070122263830853626e-06 1.836878482208703645e-06 2.851976205420214683e-06
1.195000000000000000e+03 4.369740676879882812e+01 -1.867167472839355469e+01 -5.689613772119628266e-06 -3.509125235723331571e-06 -2.759621565928682685e-06 -3.174655830662231892e-06
1.196000000000000000e+03 4.294895935058593750e+01 -1.885741233825683594e+01 6.127114829723723233e-06 3.081101112911710516e-06 2.762464873740100302e-06 2.809987108776113018e-06
1.197000000000000000e+03 4.120835876464843750e+01 -1.848710632324218750e+01 -8.435185918642673641e-06 -3.614490196923725307e-06 -3.614902880144654773e-06 -2.394520606685546227e-06
1.198000000000000000e+03 2.562513160705566406e+01 -1.039876937866210938e+01 -1.110073981180903502e-06 -1.643071186663291883e-06 -8.259435730906261597e-07 -3.822322014457313344e-06
1.199000000000000000e+03 2.483775329589843750e+01 -9.034680366516113281e+00 2.718633822951233014e-06 -3.103878498222911730e-06 -1.155733926339053141e-07 -2.840196657416527160e-06
1.200000000000000000e+03 2.441691398620605469e+01 -8.351066589355468750e+00 1.578478872943378519e-06 4.652001280192052945e-06 1.869144057309313212e-06 -1.554620666865957901e-06
1.201000000000000000e+03 2.397632598876953125e+01 -7.670550823211669922e+00 5.789890110463602468e-06 -3.122658199572470039e-06 8.001695732673397288e-07 -1.216776695400767494e-06
1.202000000000000000e+03 2.250535583496093750e+01 -5.687291622161865234e+00 -2.699759704682946904e-07 5.196006895857863128e-06 1.477809291827725247e-06 -8.048628842516336590e-06
1.203000000000000000e+03 2.142153549194335938e+01 -4.435728549957275391e+00 1.178196498585748486e-06 4.178105882601812482e-06 1.606890691618900746e-06 -1.220489866682328284e-05
1.204000000000000000e+03 2.301424980163574219e+01 -6.333281040191650391e+00 8.366171641682740301e-06 -3.507662086121854372e-06 1.457552912143000867e-06 1.614269990568573121e-06
1.205000000000000000e+03 1.492840003967285156e+01 5.993984341621398926e-01 2.119965029123704880e-05 -1.458468977943994105e-05 1.984488335438072681e-06 -1.497876291978172958e-05
1.206000000000000000e+03 1.240065860748291016e+01 1.035375237464904785e+00 2.017707083723507822e-05 -1.845843144110403955e-05 5.155916937837901060e-07 -9.083712939172983170e-06
1.207000000000000000e+03 1.462317848205566406e+01 -5.800452083349227905e-02 -3.357094783495995216e-06 2.231087273685261607e-05 5.686133135895943269e-06 6.925838533788919449e-06
1.208000000000000000e+03 1.532376575469970703e+01 -4.528301060199737549e-01 1.500585130997933447e-05 -1.412011442880611867e-05 2.657210416145971976e-07 -1.645252450543921441e-05
1.209000000000000000e+03 2.040464782714843750e+01 -4.405288219451904297e+00 1.392594185745110735e-06 2.707761041165213101e-06 1.230106590810464695e-06 -1.301611519011203200e-05
1.210000000000000000e+03 1.863426971435546875e+01 -2.756271123886108398e+00 7.015136361587792635e-06 9.224068890034686774e-06 4.871761575486743823e-06 9.859571946435607970e-06
1.211000000000000000e+03 2.025356292724609375e+01 -3.262613534927368164e+00 2.664819703568355180e-06 1.964617240446386859e-06 1.388831037729687523e-06 -1.551101377117447555e-05
1.212000000000000000e+03 2.068354034423828125e+01 -2.676217079162597656e+00 6.087409474275773391e-06 -3.792719383000076050e-07 1.712441303425293881e-06 1.184702432510675862e-05
1.213000000000000000e+03 2.197719955444335938e+01 -5.054257392883300781e+00 9.530860552331432700e-06 -1.800305540200497489e-06 2.319166469533229247e-06 4.417898708197753876e-06
1.214000000000000000e+03 1.837245941162109375e+01 -1.656102061271667480e+00 1.969557160919066519e-06 8.733289178053382784e-06 3.210853947166469879e-06 1.246342890226515010e-05
1.215000000000000000e+03 1.771662330627441406e+01 -1.162648916244506836e+00 1.184957000077702105e-05 -6.266329364734701812e-06 1.674972054388490506e-06 -1.899010567285586149e-05
1.216000000000000000e+03 1.669747543334960938e+01 -1.302166819572448730e+00 1.028967290039872751e-05 -1.043803786160424352e-05 -4.450966173408232862e-08 -1.797647382772993296e-05
1.217000000000000000e+03 1.964783096313476562e+01 -2.705572605133056641e+00 6.768639195797732100e-06 4.136613370064878836e-06 3.271575906182988547e-06 1.045383942255284637e-05
1.218000000000000000e+03 6.318940353393554688e+01 -1.748513412475585938e+01 5.858646631240844727e-01 3.167267739772796631e-01 2.707774341106414795e-01 3.349220752716064453e-01
1.219000000000000000e+03 6.434746551513671875e+01 -1.736804771423339844e+01 4.017412662506103516e-01 1.378328502178192139e-01 1.618722379207611084e-01 1.989364922046661377e-01
1.220000000000000000e+03 6.472827148437500000e+01 -1.534746170043945312e+01 5.411490201950073242e-01 3.910507857799530029e-01 2.796599268913269043e-01 4.425777196884155273e-01
1.221000000000000000e+03 6.369810867309570312e+01 -1.678403091430664062e+01 6.803905963897705078e-01 2.883178591728210449e-01 2.906125485897064209e-01 3.554310500621795654e-01
1.222000000000000000e+03 6.523735809326171875e+01 -1.453850269317626953e+01 4.448463916778564453e-01 4.853304028511047363e-01 2.790530323982238770e-01 4.264302551746368408e-01
1.223000000000000000e+03 6.096128845214843750e+01 -2.362333679199218750e+01 -1.693543791770935059e+00 -4.448953270912170410e-01 -6.415317058563232422e-01 -7.420457601547241211e-01
1.224000000000000000e+03 5.529372024536132812e+01 -2.147292900085449219e+01 1.562439501285552979e-01 2.923341989517211914e-01 1.345734447240829468e-01 3.885645568370819092e-01
1.225000000000000000e+03 5.778604507446289062e+01 -2.341263198852539062e+01 -6.702031493186950684e-01 3.291051089763641357e-01 -1.023294106125831604e-01 2.357043884694576263e-02
1.226000000000000000e+03 5.448819732666015625e+01 -2.160658645629882812e+01 1.688334643840789795e-01 2.280871123075485229e-01 1.190761774778366089e-01 3.118803501129150391e-01
1.227000000000000000e+03 5.525936126708984375e+01 -2.502933502197265625e+01 -4.219216108322143555e-01 2.162316590547561646e-01 -6.170698255300521851e-02 1.134963557124137878e-01
1.228000000000000000e+03 1.198272800445556641e+01 2.123642206192016602e+00 2.410331762803252786e-05 -2.225620846729725599e-05 5.541327823266328778e-07 -1.163117121905088425e-05
1.229000000000000000e+03 1.345823860168457031e+01 1.345495820045471191e+00 2.386584856139961630e-05 -1.670170968282036483e-05 2.149241481674835086e-06 -1.192167019326006994e-05
1.230000000000000000e+03 1.420160865783691406e+01 9.798176288604736328e-01 -1.280982178286649287e-05 2.149706051568500698e-05 2.606171619845554233e-06 6.671172286587534472e-06
1.231000000000000000e+03 9.046492576599121094e+00 2.881647586822509766e+00 -3.797521230808342807e-06 -6.244419182621641085e-06 -3.012582055816892534e-06 -1.210837035614531487e-05
1.232000000000000000e+03 6.115763854980468750e+01 -1.939127349853515625e+01 3.210875093936920166e-01 4.598463177680969238e-01 2.342801392078399658e-01 1.768080294132232666e-01
1.233000000000000000e+03 6.290877151489257812e+01 -2.284782218933105469e+01 -1.667655706405639648e+00 -1.161232739686965942e-01 -5.351336598396301270e-01 -4.599145352840423584e-01
1.234000000000000000e+03 6.147290039062500000e+01 -1.822282218933105469e+01 8.399930000305175781e-01 6.445711255073547363e-01 4.453692436218261719e-01 3.909017145633697510e-01
1.235000000000000000e+03 5.916761398315429688e+01 -2.091662406921386719e+01 -6.373506039381027222e-02 3.849009871482849121e-01 9.634978324174880981e-02 3.379826545715332031e-01
1.236000000000000000e+03 6.168217086791992188e+01 -2.261394309997558594e+01 -1.560128569602966309e+00 -3.688780665397644043e-01 -5.787020325660705566e-01 -4.216295778751373291e-01
1.237000000000000000e+03 6.408937072753906250e+01 -2.008490943908691406e+01 -4.093428552150726318e-01 -7.543895393610000610e-02 -1.454345434904098511e-01 -2.347270101308822632e-01
1.238000000000000000e+03 5.178702926635742188e+01 -2.230209350585937500e+01 -4.512981511652469635e-03 -1.337406784296035767e-01 -4.147610068321228027e-02 3.724519908428192139e-01
1.239000000000000000e+03 6.574529266357421875e+01 -1.365821838378906250e+01 4.283690750598907471e-01 5.523996353149414062e-01 2.942306101322174072e-01 3.784242272377014160e-01
1.240000000000000000e+03 5.716401290893554688e+01 -2.658258628845214844e+01 -2.924120426177978516e-01 2.658274210989475250e-02 -7.974879443645477295e-02 -1.038667112588882446e-01
1.241000000000000000e+03 5.872137832641601562e+01 -2.523367881774902344e+01 -6.861136555671691895e-01 -2.124025374650955200e-01 -2.695548534393310547e-01 -3.845313489437103271e-01
1.242000000000000000e+03 5.987177658081054688e+01 -2.442210388183593750e+01 -1.040630936622619629e+00 -3.651934564113616943e-01 -4.217472970485687256e-01 -6.423663496971130371e-01
1.243000000000000000e+03 3.284103012084960938e+01 -1.786718750000000000e+01 -9.231995932168501895e-07 -5.833861450810218230e-06 -2.027118398473248817e-06 -3.029086656169965863e-06
1.244000000000000000e+03 4.021751785278320312e+01 -1.985538101196289062e+01 1.073727844413951971e-06 3.386989192222245038e-06 1.338215156465594191e-06 7.251519946294138208e-06
1.245000000000000000e+03 4.078109741210937500e+01 -1.950806045532226562e+01 -8.414568583248183131e-06 -5.883528046979336068e-07 -2.700876393646467477e-06 -4.086215085408184677e-06
1.246000000000000000e+03 3.557689285278320312e+01 -1.688793945312500000e+01 5.621902801067335531e-06 2.897058038797695190e-06 2.555688297434244305e-06 4.663777417590608820e-06
1.247000000000000000e+03 2.872049713134765625e+01 -1.510816574096679688e+01 -1.327408153883880004e-05 -2.447903170832432806e-06 -4.716595412901369855e-06 -6.515378117910586298e-06
1.248000000000000000e+03 3.413194274902343750e+01 -1.792216491699218750e+01 2.241283937109983526e-06 3.852554982586298138e-06 1.828151653171516955e-06 2.816846745190559886e-06
1.249000000000000000e+03 3.091753959655761719e+01 -1.640263748168945312e+01 7.076023393892683089e-06 5.094825610285624862e-06 3.651254701253492385e-06 3.030399966519325972e-06
1.250000000000000000e+03 2.793283081054687500e+01 -1.584220981597900391e+01 1.543776124890428036e-05 -1.954364961420651525e-06 4.045018613396678120e-06 5.211712505115428939e-06
1.251000000000000000e+03 2.851339912414550781e+01 -1.637399482727050781e+01 -1.447683916921960190e-05 -4.810167865798575804e-06 -5.786102065030718222e-06 -6.442284302465850487e-06
1.252000000000000000e+03 3.198740768432617188e+01 -1.666445350646972656e+01 -3.463617076704395004e-06 -5.273419446893967688e-06 -2.621110979816876352e-06 -3.539722683854051866e-06
1.253000000000000000e+03 5.491514205932617188e+01 3.956436157226562500e+01 1.268312614411115646e-02 1.143941748887300491e-02 7.236763369292020798e-03 4.923400003463029861e-03
1.254000000000000000e+03 5.940908432006835938e+01 3.617251968383789062e+01 -1.156319119036197662e-02 2.978694625198841095e-02 5.467126145958900452e-03 -2.658490464091300964e-02
1.255000000000000000e+03 6.215540313720703125e+01 3.947389984130859375e+01 -5.813417583703994751e-02 2.569323778152465820e-01 5.963945761322975159e-02 -1.051603183150291443e-01
1.256000000000000000e+03 7.866295623779296875e+01 4.009074401855468750e+01 1.655795238912105560e-02 -5.756677389144897461e-01 -1.677329391241073608e-01 7.810720801353454590e-02
1.257000000000000000e+03 7.787274169921875000e+01 3.707783126831054688e+01 -2.522409521043300629e-02 -6.451038122177124023e-01 -2.010983824729919434e-01 1.306501626968383789e-01
1.258000000000000000e+03 7.797924041748046875e+01 3.049067687988281250e+01 4.814967047423124313e-03 -1.042239546775817871e+00 -3.112273812294006348e-01 1.715716868638992310e-01
1.259000000000000000e+03 7.809412384033203125e+01 2.632311248779296875e+01 2.291209809482097626e-02 -1.280059218406677246e+00 -3.771441280841827393e-01 1.080351695418357849e-01
1.260000000000000000e+03 7.924735260009765625e+01 3.745018005371093750e+01 9.444481693208217621e-03 -7.843411564826965332e-01 -2.324690073728561401e-01 6.670038402080535889e-02
1.261000000000000000e+03 7.648385620117187500e+01 3.907542419433593750e+01 -4.740085825324058533e-02 -4.693197011947631836e-01 -1.550161689519882202e-01 1.154258325695991516e-01
1.262000000000000000e+03 7.813811492919921875e+01 8.386359214782714844e+00 1.446197275072336197e-03 -1.442749619483947754e+00 -4.323910176753997803e-01 3.775481507182121277e-02
1.263000000000000000e+03 7.810779571533203125e+01 1.532452964782714844e+01 -6.743685808032751083e-03 -1.395055770874023438e+00 -4.205398261547088623e-01 -6.441093864850699902e-04
1.264000000000000000e+03 7.692224884033203125e+01 2.210733985900878906e+01 2.047215774655342102e-02 -8.471590280532836914e-01 -2.480060607194900513e-01 3.185969218611717224e-02
1.265000000000000000e+03 7.932962036132812500e+01 3.199904441833496094e+01 -5.180813837796449661e-03 -1.310327768325805664e+00 -3.946525752544403076e-01 6.507492065429687500e-02
1.266000000000000000e+03 7.796262359619140625e+01 3.186684417724609375e+01 1.899258233606815338e-03 -9.486982822418212891e-01 -2.840397059917449951e-01 1.798540353775024414e-01
1.267000000000000000e+03 7.936826324462890625e+01 2.505688095092773438e+01 5.155378021299839020e-03 -1.876851439476013184e+00 -5.615088343620300293e-01 3.241093829274177551e-02
1.268000000000000000e+03 7.812665557861328125e+01 2.493585395812988281e+01 2.494383417069911957e-02 -1.340727806091308594e+00 -3.947352170944213867e-01 7.321839779615402222e-02
1.269000000000000000e+03 7.813683319091796875e+01 1.946998977661132812e+01 7.261405698955059052e-03 -1.410131692886352539e+00 -4.208610653877258301e-01 6.188612896949052811e-03
1.270000000000000000e+03 7.937083435058593750e+01 1.813288497924804688e+01 2.612417098134756088e-03 -1.979392409324645996e+00 -5.930339694023132324e-01 2.343715168535709381e-03
1.271000000000000000e+03 7.812074279785156250e+01 1.671634483337402344e+01 9.467694908380508423e-04 -1.404433727264404297e+00 -4.210460782051086426e-01 -2.779335249215364456e-03
1.272000000000000000e+03 7.472608184814453125e+01 8.370642662048339844e+00 -7.394855376332998276e-03 1.842857152223587036e-01 5.306725949048995972e-02 5.082948878407478333e-02
1.273000000000000000e+03 7.937236022949218750e+01 1.118886280059814453e+01 -1.456275000236928463e-03 -1.988923430442810059e+00 -5.971139073371887207e-01 1.396837085485458374e-02
1.274000000000000000e+03 7.813624572753906250e+01 9.778630256652832031e+00 -5.640641320496797562e-03 -1.430501341819763184e+00 -4.308426082134246826e-01 3.571411594748497009e-02
1.275000000000000000e+03 7.811999511718750000e+01 1.255693912506103516e+01 -9.228008799254894257e-03 -1.404234647750854492e+00 -4.240387976169586182e-01 1.051395945250988007e-02
1.276000000000000000e+03 7.936421203613281250e+01 5.622120857238769531e+00 3.342087147757411003e-03 -2.076892137527465820e+00 -6.220650076866149902e-01 1.071320194751024246e-02
1.277000000000000000e+03 7.811315155029296875e+01 5.603717803955078125e+00 1.484242361038923264e-02 -1.455552220344543457e+00 -4.322129189968109131e-01 1.297575421631336212e-02
1.278000000000000000e+03 7.807086944580078125e+01 2.803862333297729492e+00 2.303937822580337524e-02 -1.420814394950866699e+00 -4.193325340747833252e-01 -3.413366526365280151e-02
1.279000000000000000e+03 7.935466766357421875e+01 -1.340952754020690918e+00 2.990176202729344368e-03 -1.841876983642578125e+00 -5.516660213470458984e-01 -3.707243874669075012e-02
1.280000000000000000e+03 7.808149719238281250e+01 -1.385325312614440918e+00 1.785523258149623871e-02 -1.299043893814086914e+00 -3.843566179275512695e-01 -1.155383661389350891e-01
1.281000000000000000e+03 7.810401153564453125e+01 -4.155820369720458984e+00 1.075379177927970886e-02 -1.164927363395690918e+00 -3.462520837783813477e-01 -1.466346830129623413e-01
1.282000000000000000e+03 7.937207031250000000e+01 -8.284788131713867188e+00 2.697196323424577713e-03 -1.209910273551940918e+00 -3.621639311313629150e-01 -5.713282153010368347e-02
1.283000000000000000e+03 7.812499237060546875e+01 -8.306027412414550781e+00 3.721320768818259239e-03 -9.056007862091064453e-01 -2.705638408660888672e-01 -1.652960032224655151e-01
1.284000000000000000e+03 7.815038299560546875e+01 -1.108662986755371094e+01 4.037198610603809357e-03 -7.088668346405029297e-01 -2.114488780498504639e-01 -1.763291060924530029e-01
1.285000000000000000e+03 7.697579956054687500e+01 -1.383186817169189453e+01 -4.402635968290269375e-04 -3.817634880542755127e-01 -1.146611198782920837e-01 -2.596676349639892578e-01
1.286000000000000000e+03 7.940194702148437500e+01 -1.522114658355712891e+01 -3.907138481736183167e-03 -4.664846360683441162e-01 -1.411175280809402466e-01 -5.975130945444107056e-02
1.287000000000000000e+03 7.820943450927734375e+01 -1.520708751678466797e+01 -3.042933531105518341e-03 -3.944984972476959229e-01 -1.192624345421791077e-01 -1.708934754133224487e-01
1.288000000000000000e+03 7.783570861816406250e+01 -2.390842437744140625e+01 -1.767699606716632843e-02 -9.763583540916442871e-03 -8.232173509895801544e-03 -5.211601033806800842e-03
1.289000000000000000e+03 7.891536712646484375e+01 -2.339602851867675781e+01 -3.680028952658176422e-03 5.855810362845659256e-03 6.527344230562448502e-04 -1.530562876723706722e-04
1.290000000000000000e+03 7.954548645019531250e+01 -2.215884399414062500e+01 -9.233623859472572803e-04 6.049407180398702621e-03 1.537813455797731876e-03 -9.206349030137062073e-03
1.291000000000000000e+03 5.034194946289062500e+01 -1.457396984100341797e+01 3.345340155647136271e-05 -7.833041308913379908e-06 7.686107892368454486e-06 -1.032984982884954661e-06
1.292000000000000000e+03 4.099231719970703125e+01 1.186128807067871094e+01 -1.865569211076945066e-04 3.751046824618242681e-05 -4.471393913263455033e-05 -6.504068551294039935e-06
1.293000000000000000e+03 4.166139602661132812e+01 8.903597831726074219e+00 -1.534941839054226875e-04 3.305689460830762982e-05 -3.613118678913451731e-05 -3.239572833990678191e-05
1.294000000000000000e+03 4.088991928100585938e+01 1.491972160339355469e+01 -2.095320523949339986e-04 5.644015345751540735e-06 -6.116640724940225482e-05 9.625828170101158321e-06
1.295000000000000000e+03 5.227715682983398438e+01 -1.524947643280029297e+01 -1.467092079110443592e-05 -8.069652039921493270e-07 -4.643366082746069878e-06 -1.452096148568671197e-05
1.296000000000000000e+03 5.284749221801757812e+01 -1.428843688964843750e+01 8.200691809179261327e-06 1.402585166943026707e-05 6.667963134532328695e-06 1.262145542568759993e-05
1.297000000000000000e+03 4.960371780395507812e+01 3.585224151611328125e+01 -6.079091224819421768e-03 1.277200412005186081e-03 -1.440567313693463802e-03 3.817427670583128929e-03
1.298000000000000000e+03 4.853744506835937500e+01 3.249148941040039062e+01 -2.036156365647912025e-03 4.534260951913893223e-04 -4.748190694954246283e-04 -5.610926891677081585e-04
1.299000000000000000e+03 4.386769866943359375e+01 6.526446342468261719e+00 1.627641468076035380e-04 2.027488699241075665e-05 5.491171032190322876e-05 4.380671452963724732e-05
1.300000000000000000e+03 4.748358917236328125e+01 -3.700577497482299805e+00 -7.176366489147767425e-05 -9.823175787460058928e-06 -2.447605220368131995e-05 -2.423501973680686206e-05
1.301000000000000000e+03 4.712313842773437500e+01 3.995929062366485596e-01 -1.029416307574138045e-04 -7.632263077539391816e-06 -3.317216760478913784e-05 -3.142455170745961368e-05
1.302000000000000000e+03 5.928071975708007812e+01 3.912694168090820312e+01 7.483548833988606930e-04 8.291562646627426147e-02 2.509919367730617523e-02 -2.573360130190849304e-02
1.303000000000000000e+03 4.085472869873046875e+01 1.339093399047851562e+01 1.955933112185448408e-04 2.958576033051940612e-06 5.956556560704484582e-05 -1.119268654292682186e-05
1.304000000000000000e+03 4.534009552001953125e+01 2.745059585571289062e+01 2.402448444627225399e-05 -1.757965947035700083e-04 -4.553163307718932629e-05 -5.824495456181466579e-04
1.305000000000000000e+03 5.116905975341796875e+01 3.237096786499023438e+01 -2.439446514472365379e-03 -3.769675386138260365e-04 -8.449242450296878815e-04 -4.258457571268081665e-03
1.306000000000000000e+03 4.694308090209960938e+01 2.977782249450683594e+01 -6.400473066605627537e-04 -1.313126267632469535e-04 -2.314079756615683436e-04 -1.012125401757657528e-03
1.307000000000000000e+03 4.879688262939453125e+01 -1.139491844177246094e+01 4.512703526415862143e-05 5.809426056657684967e-06 1.528093889646697789e-05 1.291358785238116980e-05
1.308000000000000000e+03 4.920999526977539062e+01 -4.725506782531738281e+00 -7.072990410961210728e-05 -2.838426553353201598e-06 -2.207050056313164532e-05 -1.461064130126032978e-05
1.309000000000000000e+03 4.175225830078125000e+01 1.937148666381835938e+01 2.547882613725960255e-04 -3.116713196504861116e-05 6.708633736707270145e-05 -7.602210826007649302e-05
1.310000000000000000e+03 4.341570281982421875e+01 2.128208160400390625e+00 -8.712511771591380239e-05 -1.425244045094586909e-05 -3.041326635866425931e-05 -4.561972673400305212e-05
1.311000000000000000e+03 4.843241500854492188e+01 -6.270617961883544922e+00 -6.255915650399401784e-05 -6.015556209604255855e-06 -2.057241545116994530e-05 -1.748880458762869239e-05
1.312000000000000000e+03 4.586122131347656250e+01 5.859762430191040039e-02 8.886921568773686886e-05 1.953326318471226841e-05 3.252074384363368154e-05 3.713444675668142736e-05
1.313000000000000000e+03 4.697627639770507812e+01 -2.429908990859985352e+00 7.690132770221680403e-05 1.516421070846263319e-05 2.761966243269853294e-05 2.816300911945290864e-05
1.314000000000000000e+03 4.967989349365234375e+01 -1.009472084045410156e+01 4.983150211046449840e-05 3.524311296132509597e-06 1.600674295332282782e-05 1.044702094077365473e-05
1.315000000000000000e+03 4.467074203491210938e+01 -3.034735620021820068e-01 -7.535218173870816827e-05 -2.194648914155550301e-05 -2.918960308306850493e-05 -4.031129719805903733e-05
1.316000000000000000e+03 4.217703628540039062e+01 2.080252838134765625e+01 -3.783372812904417515e-04 -2.131380097125656903e-05 -1.198953250423073769e-04 2.875229938581469469e-06
1.317000000000000000e+03 5.024480056762695312e+01 -1.252085685729980469e+01 4.455720772966742516e-05 3.793258656514808536e-06 1.450513991585467011e-05 7.034920599835459143e-06
1.318000000000000000e+03 4.849495697021484375e+01 -1.021783828735351562e+01 -4.714472743216902018e-05 -5.869412689207820222e-06 -1.590424290043301880e-05 -1.462931504647713155e-05
1.319000000000000000e+03 4.458541107177734375e+01 2.623450660705566406e+01 -9.795658988878130913e-04 -1.460094645153731108e-04 -3.376726235728710890e-04 -1.220460544573143125e-04
1.320000000000000000e+03 4.388090515136718750e+01 2.495708465576171875e+01 2.305252564838156104e-04 -1.097445856430567801e-04 3.623420343501493335e-05 -3.234335745219141245e-04
1.321000000000000000e+03 4.273163986206054688e+01 6.208311080932617188e+00 -1.316134730586782098e-04 5.261227215669350699e-06 -3.790567643591202796e-05 -4.188714592601172626e-05
1.322000000000000000e+03 4.334876251220703125e+01 4.942982196807861328e+00 1.238041586475446820e-04 1.712376979412510991e-05 4.227837780490517616e-05 4.285130853531882167e-05
1.323000000000000000e+03 4.216138458251953125e+01 7.527283191680908203e+00 1.424294750904664397e-04 7.536229531979188323e-06 4.498970884014852345e-05 3.645086690085008740e-05
1.324000000000000000e+03 4.405752944946289062e+01 9.167795777320861816e-01 7.942706724861636758e-05 2.688686981855425984e-05 3.189418202964589000e-05 4.484525925363413990e-05
1.325000000000000000e+03 6.346229934692382812e+01 3.597599411010742188e+01 8.748475462198257446e-02 3.085972368717193604e-01 1.188246011734008789e-01 -2.285626977682113647e-01
1.326000000000000000e+03 6.978816986083984375e+01 1.014105701446533203e+01 -3.174223750829696655e-02 1.992174506187438965e+00 5.881296992301940918e-01 -1.976630091667175293e-01
1.327000000000000000e+03 7.068914794921875000e+01 3.367447662353515625e+01 -5.623993650078773499e-02 6.581330895423889160e-01 1.805679500102996826e-01 4.509738460183143616e-02
1.328000000000000000e+03 7.693599700927734375e+01 9.779201507568359375e+00 -1.928957365453243256e-02 -8.540986776351928711e-01 -2.620164752006530762e-01 4.434012249112129211e-02
1.329000000000000000e+03 7.131465148925781250e+01 4.481821060180664062e+00 5.097252875566482544e-02 2.038853406906127930e+00 6.269478201866149902e-01 9.509054943919181824e-03
1.330000000000000000e+03 7.113885498046875000e+01 1.566096115112304688e+01 3.750522062182426453e-02 1.811154603958129883e+00 5.545979738235473633e-01 3.622100874781608582e-02
1.331000000000000000e+03 6.589134216308593750e+01 3.312082290649414062e+01 3.766655325889587402e-01 5.971986651420593262e-01 2.921592593193054199e-01 -4.534825384616851807e-01
1.332000000000000000e+03 7.098593139648437500e+01 2.436754608154296875e+01 1.318347901105880737e-01 1.884426355361938477e+00 6.048783659934997559e-01 -1.281988173723220825e-01
1.333000000000000000e+03 6.944696044921875000e+01 2.702579116821289062e+01 1.780774295330047607e-01 2.380996227264404297e+00 7.677220702171325684e-01 -4.778710007667541504e-01
1.334000000000000000e+03 7.005428314208984375e+01 2.876504325866699219e+01 2.927596867084503174e-01 1.602868795394897461e+00 5.686885714530944824e-01 -3.195480704307556152e-01
1.335000000000000000e+03 6.622569274902343750e+01 -8.961977958679199219e+00 3.362776637077331543e-01 1.153613448143005371e+00 4.469673335552215576e-01 5.914190411567687988e-01
1.336000000000000000e+03 6.627253723144531250e+01 3.522739028930664062e+01 6.098069995641708374e-02 5.679038763046264648e-01 1.886653751134872437e-01 -2.404285371303558350e-01
1.337000000000000000e+03 6.880122375488281250e+01 3.140863418579101562e+01 2.142284065485000610e-01 1.204395294189453125e+00 4.255871176719665527e-01 -3.579801619052886963e-01
1.338000000000000000e+03 6.802943420410156250e+01 3.263331604003906250e+01 1.794817000627517700e-01 9.260585904121398926e-01 3.316620886325836182e-01 -3.697513043880462646e-01
1.339000000000000000e+03 6.697628784179687500e+01 -9.365753173828125000e+00 3.073818981647491455e-01 1.042897462844848633e+00 4.050838053226470947e-01 4.983361661434173584e-01
1.340000000000000000e+03 7.060963439941406250e+01 -2.944842338562011719e+00 1.210039928555488586e-01 1.458242058753967285e+00 4.737738072872161865e-01 2.090471088886260986e-01
1.341000000000000000e+03 7.048163604736328125e+01 2.734115600585937500e+01 2.263153642416000366e-01 1.745214462280273438e+00 5.914589166641235352e-01 -2.445380985736846924e-01
1.342000000000000000e+03 7.079461669921875000e+01 2.587038230895996094e+01 1.705202907323837280e-01 1.794027686119079590e+00 5.893644094467163086e-01 -1.657446771860122681e-01
1.343000000000000000e+03 6.648532104492187500e+01 -1.034732627868652344e+01 4.082412421703338623e-01 9.376393556594848633e-01 4.037641584873199463e-01 5.179636478424072266e-01
1.344000000000000000e+03 6.711313629150390625e+01 -1.188067817687988281e+01 3.678067624568939209e-01 6.546359658241271973e-01 3.067328333854675293e-01 2.801309227943420410e-01
1.345000000000000000e+03 7.102065277099609375e+01 1.096804738044738770e-01 1.758254170417785645e-01 1.866810560226440430e+00 6.127908229827880859e-01 1.456506997346878052e-01
1.346000000000000000e+03 7.138360595703125000e+01 5.983543395996093750e+00 1.044283434748649597e-01 1.912804245948791504e+00 6.051697731018066406e-01 -6.026926264166831970e-02
1.347000000000000000e+03 7.021701812744140625e+01 4.527901172637939453e+00 7.681620772927999496e-03 2.579556465148925781e+00 7.761714458465576172e-01 -1.374584739096462727e-03
1.348000000000000000e+03 6.860033416748046875e+01 -7.200497627258300781e+00 1.922447830438613892e-01 1.168416023254394531e+00 4.081982374191284180e-01 3.697283864021301270e-01
1.349000000000000000e+03 7.107510375976562500e+01 8.855817794799804688e+00 1.078915968537330627e-02 1.848818778991699219e+00 5.578823685646057129e-01 -2.216291613876819611e-02
1.350000000000000000e+03 7.100582885742187500e+01 1.016373825073242188e+01 -1.203872859477996826e-01 1.805556416511535645e+00 5.055507421493530273e-01 -1.593514718115329742e-02
1.351000000000000000e+03 6.937709045410156250e+01 -5.902246475219726562e+00 1.591557562351226807e-01 1.234058856964111328e+00 4.179643988609313965e-01 2.989375591278076172e-01
1.352000000000000000e+03 6.994844055175781250e+01 2.140668106079101562e+01 -1.587270386517047882e-02 2.373960018157958984e+00 7.074261903762817383e-01 -1.685550995171070099e-02
1.353000000000000000e+03 7.098909759521484375e+01 2.293487358093261719e+01 1.028862744569778442e-01 1.906468391418457031e+00 6.028063893318176270e-01 -9.531680494546890259e-02
1.354000000000000000e+03 7.686984252929687500e+01 4.210931301116943359e+00 4.426967725157737732e-02 -8.574250936508178711e-01 -2.439466267824172974e-01 -1.041953824460506439e-02
1.355000000000000000e+03 7.233268737792968750e+01 1.706752395629882812e+01 2.423628419637680054e-02 1.264498233795166016e+00 3.866203725337982178e-01 1.226409804075956345e-02
1.356000000000000000e+03 7.000355529785156250e+01 2.000813293457031250e+01 1.329255942255258560e-02 2.351380109786987305e+00 7.094017863273620605e-01 -1.335705257952213287e-02
1.357000000000000000e+03 7.116896057128906250e+01 2.170962333679199219e+01 6.037264596670866013e-03 1.776928067207336426e+00 5.348895788192749023e-01 -4.043235629796981812e-02
1.358000000000000000e+03 7.118334960937500000e+01 1.712257957458496094e+01 1.320455409586429596e-02 1.794393181800842285e+00 5.422793030738830566e-01 1.448076777160167694e-02
1.359000000000000000e+03 9.278578162193298340e-01 3.729462051391601562e+01 -1.683019036136101931e-05 -3.324873978272080421e-05 -1.502367831562878564e-05 8.007465112314093858e-06
1.360000000000000000e+03 8.297569751739501953e-01 3.449366378784179688e+01 -1.105142837332095951e-05 -2.897158628911711276e-05 -1.200690439873142168e-05 -2.765831823126063682e-06
1.361000000000000000e+03 7.935897111892700195e-01 3.308752441406250000e+01 2.380434125370811671e-05 -2.945379492302890867e-05 -1.694836214483075310e-06 3.034968358406331390e-06
1.362000000000000000e+03 6.887382268905639648e-01 2.743814086914062500e+01 4.339999577496200800e-05 -9.615193448553327471e-06 1.013543987937737256e-05 -1.084463474398944527e-05
1.363000000000000000e+03 6.793984770774841309e-01 2.602340698242187500e+01 -4.044835441163741052e-05 -1.469952439947519451e-05 -1.654436346143484116e-05 1.431736836821073666e-05
1.364000000000000000e+03 3.420740604400634766e+00 2.662062263488769531e+01 4.666037784772925079e-05 -1.284031441173283383e-05 1.014601912174839526e-05 -2.953601779154269025e-06
1.365000000000000000e+03 3.385346651077270508e+00 2.520376777648925781e+01 -4.302698653191328049e-05 -1.507875640527345240e-05 -1.743172288115601987e-05 1.820858778955880553e-05
1.366000000000000000e+03 2.378699541091918945e+00 3.262253189086914062e+01 -4.302789238863624632e-05 -1.741197229421231896e-05 -1.813195922295562923e-05 -2.856716264432179742e-06
1.367000000000000000e+03 3.447632074356079102e+00 3.920790863037109375e+01 3.229094727430492640e-05 -2.077501267194747925e-05 3.454780198808293790e-06 -2.289950134581886232e-05
1.368000000000000000e+03 6.285532712936401367e-01 2.036714172363281250e+01 -2.595378828118555248e-05 -3.279642214693012647e-06 -8.770029126026201993e-06 9.467003110330551863e-06
1.369000000000000000e+03 6.163280606269836426e-01 1.895752716064453125e+01 2.317608232260681689e-05 6.295957973634358495e-06 8.841611816023942083e-06 -6.725599632773082703e-06
1.370000000000000000e+03 5.826433897018432617e-01 1.473554229736328125e+01 -2.005208625632803887e-05 3.324272711324738339e-06 -5.018343927076784894e-06 5.004456852475414053e-06
1.371000000000000000e+03 5.686717629432678223e-01 1.333159542083740234e+01 2.003604640776757151e-05 7.949843165988568217e-06 8.395766599278431386e-06 -4.306551090849097818e-06
1.372000000000000000e+03 4.946075081825256348e-01 7.744302749633789062e+00 2.452201260894071311e-05 4.191757398075424135e-06 8.614130820205900818e-06 -4.280686880520079285e-06
1.373000000000000000e+03 4.791454970836639404e-01 4.908132076263427734e+00 1.848616557253990322e-05 3.418060032345238142e-06 6.571267476829234511e-06 -5.736227194574894384e-06
1.374000000000000000e+03 4.556398391723632812e+00 3.456132650375366211e+00 1.230744874192168936e-05 9.196545761369634420e-06 6.451198260037926957e-06 2.881791260733734816e-06
1.375000000000000000e+03 1.624482512474060059e+00 1.020900440216064453e+01 -2.622581087052822113e-05 2.670584308361867443e-06 -7.066567832225700840e-06 -6.908890668455569539e-07
1.376000000000000000e+03 5.340014696121215820e-01 1.053100013732910156e+01 2.237273656646721065e-05 6.811334515077760443e-06 8.755221642786636949e-06 -4.062326297571416944e-06
1.377000000000000000e+03 1.716144323348999023e+00 1.296669483184814453e+01 -2.492495696060359478e-05 1.857339270827651490e-06 -6.920285159139893949e-06 1.262955038328072987e-06
1.378000000000000000e+03 1.877368450164794922e+00 1.994363784790039062e+01 2.822719943651463836e-05 5.226506800681818277e-06 1.003611214400734752e-05 -5.375351065595168620e-06
1.379000000000000000e+03 1.842569708824157715e+00 1.854140472412109375e+01 -2.689970460778567940e-05 -4.672230716096237302e-06 -9.471580597164575011e-06 8.219642040785402060e-06
1.380000000000000000e+03 2.004896163940429688e+00 2.417732048034667969e+01 -3.714866033988073468e-05 -1.406076080456841737e-05 -1.536282616143580526e-05 1.569066625961568207e-05
1.381000000000000000e+03 6.548275756835937500e+01 -2.214171409606933594e+01 -1.470551729202270508e+00 -2.944382727146148682e-01 -5.294969677925109863e-01 -6.532602906227111816e-01
1.382000000000000000e+03 6.196422576904296875e+01 -1.890134239196777344e+01 3.677851557731628418e-01 4.222631752490997314e-01 2.370145022869110107e-01 2.202358692884445190e-01
1.383000000000000000e+03 6.092543029785156250e+01 -2.119618225097656250e+01 -5.508481860160827637e-01 -7.440853863954544067e-03 -1.674867123365402222e-01 9.822935797274112701e-03
1.384000000000000000e+03 5.835820388793945312e+01 -2.075005149841308594e+01 2.042326480150222778e-01 5.360217094421386719e-01 2.220763117074966431e-01 4.378335773944854736e-01
1.385000000000000000e+03 6.326034164428710938e+01 -1.877846336364746094e+01 1.607260107994079590e-01 1.525642871856689453e-01 9.398708492517471313e-02 4.569985345005989075e-02
1.386000000000000000e+03 5.816130447387695312e+01 -2.431162071228027344e+01 -7.554959058761596680e-01 1.483287662267684937e-01 -1.821501404047012329e-01 -1.385286003351211548e-01
1.387000000000000000e+03 7.038990783691406250e+01 -2.027723503112792969e+01 -5.437195301055908203e-01 1.407965738326311111e-02 -1.588919609785079956e-01 -2.918345928192138672e-01
1.388000000000000000e+03 7.106900787353515625e+01 -2.134929466247558594e+01 -5.550735592842102051e-01 1.032030656933784485e-01 -1.355611532926559448e-01 -1.244696527719497681e-01
1.389000000000000000e+03 7.151290893554687500e+01 -2.516761398315429688e+01 -5.884264130145311356e-03 2.485390007495880127e-02 5.690890830010175705e-03 -4.691389854997396469e-03
1.390000000000000000e+03 4.147887802124023438e+01 -1.925639343261718750e+01 7.324763373617315665e-06 1.839673245740414131e-06 2.749331088125472888e-06 2.871772267099004239e-06
1.391000000000000000e+03 5.428716278076171875e+01 -2.436164474487304688e+01 -2.835467755794525146e-01 1.554699838161468506e-01 -3.842303901910781860e-02 1.967954784631729126e-01
1.392000000000000000e+03 7.439225006103515625e+01 -2.469005012512207031e+01 -2.501533180475234985e-02 -9.638613089919090271e-03 -1.039618346840143204e-02 -6.683776620775461197e-03
1.393000000000000000e+03 7.567485809326171875e+01 -2.471296310424804688e+01 -2.699156478047370911e-02 -4.257952794432640076e-03 -9.374855086207389832e-03 -5.298107396811246872e-03
1.394000000000000000e+03 5.327458953857421875e+01 -2.347292327880859375e+01 -9.782701730728149414e-02 7.195367664098739624e-02 -7.762002293020486832e-03 2.958670556545257568e-01
1.395000000000000000e+03 5.422610092163085938e+01 -2.355323219299316406e+01 -1.984029263257980347e-01 1.530517488718032837e-01 -1.360535155981779099e-02 2.127322703599929810e-01
1.396000000000000000e+03 7.557867431640625000e+01 -2.393981170654296875e+01 -4.790044575929641724e-02 -9.929538704454898834e-03 -1.734899543225765228e-02 -3.924969118088483810e-03
1.397000000000000000e+03 5.689685440063476562e+01 -2.101152420043945312e+01 1.746933758258819580e-01 4.327208995819091797e-01 1.822242885828018188e-01 4.311366975307464600e-01
1.398000000000000000e+03 7.501473236083984375e+01 -2.470628166198730469e+01 -3.073818795382976532e-02 -7.646637503057718277e-03 -1.151544693857431412e-02 2.302134176716208458e-03
1.399000000000000000e+03 7.676417541503906250e+01 -2.381775283813476562e+01 -3.678524866700172424e-02 -1.131087448447942734e-02 -1.442883722484111786e-02 -1.035224180668592453e-02
1.400000000000000000e+03 7.271083068847656250e+01 -2.312251472473144531e+01 -1.204994693398475647e-01 6.716570816934108734e-03 -3.413486853241920471e-02 2.727861702442169189e-02
1.401000000000000000e+03 5.240668869018554688e+01 -1.652368545532226562e+01 -1.104754392144968733e-05 -8.261275979748461396e-06 -5.792645879409974441e-06 6.388865131157217547e-06
1.402000000000000000e+03 5.181805038452148438e+01 -1.600932693481445312e+01 1.425982009095605463e-05 -4.458708644961006939e-06 2.940333388323779218e-06 1.324364347965456545e-05
1.403000000000000000e+03 5.211820125579833984e+00 3.455744981765747070e+00 -1.473743213864509016e-05 -4.292339326639194041e-06 -5.708931439585285261e-06 -5.943534233665559441e-06
1.404000000000000000e+03 2.404634237289428711e+00 3.734699964523315430e+00 -1.894553315651137382e-05 -4.654742951970547438e-06 -7.080082468746695668e-06 1.049221918947296217e-05
1.405000000000000000e+03 3.211353540420532227e+00 2.764315605163574219e+00 -7.281367743416922167e-06 -8.089720722637139261e-06 -4.611326403392013162e-06 4.634442120732273906e-06
1.406000000000000000e+03 3.929606676101684570e+00 2.700801134109497070e+00 8.058807907218579203e-06 9.355460861115716398e-06 5.224280812399229035e-06 -2.828807282639900222e-06
1.407000000000000000e+03 6.404435634613037109e+00 4.340812683105468750e+00 1.442537995899328962e-05 6.451268745877314359e-06 6.262994702410651371e-06 -1.101614884646551218e-06
1.408000000000000000e+03 8.071166992187500000e+00 3.625460147857666016e+00 -5.929589860897976905e-06 -6.806039436924038455e-06 -3.820689016720280051e-06 -8.494193934893701226e-06
1.409000000000000000e+03 5.884859085083007812e+00 3.474874258041381836e+00 1.530174267827533185e-05 5.156266070116544142e-06 6.137402579042827711e-06 -5.149491357769875322e-07
1.410000000000000000e+03 7.330931186676025391e+00 3.537151336669921875e+00 1.064155003405176103e-05 7.719511813775170594e-06 5.508318736247019842e-06 8.765193797444226220e-07
1.411000000000000000e+03 6.770151615142822266e+00 2.685026645660400391e+00 1.098130451282486320e-05 5.584436166827799752e-06 4.969722340320004150e-06 9.034236541083373595e-07
1.412000000000000000e+03 6.595912933349609375e+00 3.497889280319213867e+00 -9.366271115140989423e-06 -4.577397703542374074e-06 -4.183100827503949404e-06 -4.509076006797840819e-06
1.413000000000000000e+03 9.881760597229003906e+00 3.049757719039916992e+00 1.066390996129484847e-05 1.253537448064889759e-05 6.959784968785243109e-06 1.095219886337872595e-05
1.414000000000000000e+03 5.109652709960937500e+01 -1.563049316406250000e+01 -4.480674760998226702e-06 1.979919034056365490e-06 -7.502267749259772245e-07 -1.311307187279453501e-05
1.415000000000000000e+03 2.821960258483886719e+01 -1.187765121459960938e+01 -6.674462383671198040e-06 1.181544689643487800e-06 -1.647875365051731933e-06 -2.791961833281675354e-06
1.416000000000000000e+03 2.538256454467773438e+01 -8.572872161865234375e+00 1.774889824446290731e-06 2.915303639383637346e-06 1.407057993674243335e-06 -1.247747150046052411e-06
1.417000000000000000e+03 2.779789161682128906e+01 -1.414533901214599609e+01 -1.078752484318101779e-05 9.613139582143048756e-07 -2.947863322333432734e-06 -6.205910267453873530e-06
1.418000000000000000e+03 2.725623321533203125e+01 -1.184711170196533203e+01 -6.060564373910892755e-06 5.445544388749112841e-07 -1.654802986195136327e-06 -3.181551846864749677e-06
1.419000000000000000e+03 2.690282440185546875e+01 -1.122884654998779297e+01 7.933243068691808730e-06 -3.644117043677397305e-07 2.270649474667152390e-06 7.672820743209740613e-07
1.420000000000000000e+03 2.799899101257324219e+01 -1.298653984069824219e+01 -9.071830390894319862e-06 1.312571498601755593e-06 -2.327777792743290775e-06 -5.773807060904800892e-06
1.421000000000000000e+03 7.877587127685546875e+01 -2.414707946777343750e+01 -7.776265032589435577e-03 7.117009721696376801e-03 -1.977766951313242316e-04 3.775775432586669922e-03
1.422000000000000000e+03 7.696037292480468750e+01 -2.178711700439453125e+01 -5.348921567201614380e-02 -2.982641942799091339e-02 -2.499468997120857239e-02 -6.275628507137298584e-02
1.423000000000000000e+03 7.722896575927734375e+01 -1.921540641784667969e+01 -4.930014163255691528e-02 -1.120010092854499817e-01 -4.839034751057624817e-02 -1.511086225509643555e-01
1.424000000000000000e+03 2.887396812438964844e+01 -1.394217300415039062e+01 -1.427674851584015414e-05 -3.317448999951011501e-07 -4.382548013381892815e-06 -7.486266440537292510e-06
1.425000000000000000e+03 4.991864395141601562e+01 -1.636011123657226562e+01 -2.389507244515698403e-05 4.785528290085494518e-06 -5.732863428420387208e-06 -4.992595222574891523e-06
1.426000000000000000e+03 5.033675003051757812e+01 -1.359150409698486328e+01 -3.968014789279550314e-05 3.701916739373700693e-06 -1.079346930055180565e-05 -5.354115273803472519e-06
1.427000000000000000e+03 5.467942810058593750e+01 -2.391260337829589844e+01 -3.946299254894256592e-01 2.063983082771301270e-01 -5.646948143839836121e-02 1.931218206882476807e-01
1.428000000000000000e+03 5.739105987548828125e+01 -2.267373466491699219e+01 -4.435324668884277344e-01 4.069872200489044189e-01 -1.096357125788927078e-02 2.728476822376251221e-01
1.429000000000000000e+03 4.645997619628906250e+01 -1.724822235107421875e+01 9.635706192057114094e-06 3.883544195559807122e-06 4.055775207234546542e-06 4.671308488468639553e-06
1.430000000000000000e+03 4.444524765014648438e+01 -1.847988891601562500e+01 5.207299182075075805e-06 3.993566679127980024e-06 2.760259803835651837e-06 3.765650035347789526e-06
1.431000000000000000e+03 4.922431945800781250e+01 -1.655501365661621094e+01 1.663948023633565754e-05 1.630246742934104986e-06 5.480918389366706833e-06 1.114358838094631210e-05
1.432000000000000000e+03 4.717203140258789062e+01 -1.712439346313476562e+01 -7.726555850240401924e-06 -5.414374300016788766e-06 -3.942279363400302827e-06 -2.730294681896339171e-06
1.433000000000000000e+03 4.352333068847656250e+01 -1.795212364196777344e+01 7.186351467680651695e-06 5.391766080720117316e-06 3.773435309994965792e-06 3.423510634092963301e-06
1.434000000000000000e+03 4.500541305541992188e+01 -1.759260177612304688e+01 6.732361725880764425e-06 6.091029717936180532e-06 3.847017524094553664e-06 5.364470325730508193e-06
1.435000000000000000e+03 5.687337875366210938e+01 -2.540609359741210938e+01 -5.353491902351379395e-01 1.460210382938385010e-01 -1.167984455823898315e-01 -9.918555617332458496e-02
1.436000000000000000e+03 5.629835510253906250e+01 -2.210604476928710938e+01 -1.143879070878028870e-01 4.149177670478820801e-01 9.015896171331405640e-02 3.748263418674468994e-01
1.437000000000000000e+03 4.009165954589843750e+01 -1.788252830505371094e+01 -7.482118235202506185e-06 -5.632103693642420694e-06 -3.934266715077683330e-06 -2.041210336756194010e-06
1.438000000000000000e+03 4.199908447265625000e+01 -1.828382492065429688e+01 8.212097782234195620e-06 4.106962933292379603e-06 3.695718305607442744e-06 2.807315695463330485e-06
1.439000000000000000e+03 2.524389266967773438e+01 -9.720810890197753906e+00 3.932882918888935819e-06 3.518714265737798996e-06 2.235479087175917812e-06 1.679934058529397589e-07
1.440000000000000000e+03 2.495427322387695312e+01 -7.882432937622070312e+00 5.718858119507785887e-06 -3.400125706320977770e-06 6.956196898499911185e-07 -1.005524950414837804e-06
1.441000000000000000e+03 2.579102516174316406e+01 -9.259283065795898438e+00 2.113837126671569422e-06 -1.864116256911074743e-06 7.491627229683217593e-08 -2.568075387898716144e-06
1.442000000000000000e+03 3.062791633605957031e+01 -1.511509418487548828e+01 1.346127555734710768e-05 3.859594016830669716e-06 5.196260644879657775e-06 8.502610739924421068e-07
1.443000000000000000e+03 2.299700927734375000e+01 -5.164235115051269531e+00 9.542519364913459867e-06 -4.381367489258991554e-06 1.548345494484237861e-06 4.788817477674456313e-06
1.444000000000000000e+03 2.350726699829101562e+01 -6.995234489440917969e+00 6.456839969359862152e-07 5.343700649973470718e-06 1.796815354282443877e-06 -4.924880613543791696e-06
1.445000000000000000e+03 2.352008247375488281e+01 -5.827193737030029297e+00 -5.922998411733715329e-07 5.196277015784289688e-06 1.381193101224198472e-06 -7.337523584283189848e-06
1.446000000000000000e+03 1.703389930725097656e+01 1.069611668586730957e+00 2.731662243604660034e-05 -1.055924531101481989e-05 5.027212864661123604e-06 -1.785320819180924445e-05
1.447000000000000000e+03 1.450054264068603516e+01 1.642565608024597168e+00 2.717308416322339326e-05 -1.421532215317711234e-05 3.887328603013884276e-06 -1.258155589312082157e-05
1.448000000000000000e+03 1.704490852355957031e+01 -6.852841377258300781e-01 -3.250231657148106024e-06 1.412954316037939861e-05 3.263793360019917600e-06 1.142602468462428078e-05
1.449000000000000000e+03 1.669035720825195312e+01 4.123631119728088379e-01 -1.352821800537640229e-05 1.498135134170297533e-05 4.359399667919205967e-07 1.199616872327169403e-05
1.450000000000000000e+03 1.271194362640380859e+01 1.710466146469116211e+00 -1.647965109441429377e-05 2.464641147525981069e-05 2.450027750455774367e-06 5.385051281336927786e-06
1.451000000000000000e+03 1.901878738403320312e+01 -2.169057607650756836e+00 7.630593245266936719e-06 -1.674614850344369188e-06 1.786793632163607981e-06 -1.831269946706015617e-05
1.452000000000000000e+03 2.084355735778808594e+01 -3.837984323501586914e+00 9.210133612214121968e-06 -2.758602057895132020e-08 2.754764182100188918e-06 8.069464456639252603e-06
1.453000000000000000e+03 2.129040527343750000e+01 -3.267312049865722656e+00 2.342638254049234092e-06 3.818161985691403970e-06 1.848240117396926507e-06 -1.515774783911183476e-05
1.454000000000000000e+03 2.188143348693847656e+01 -3.882893800735473633e+00 8.743527359911240637e-06 -3.057158664887538180e-06 1.705910563032375649e-06 8.491203516314271837e-06
1.455000000000000000e+03 1.875795555114746094e+01 -1.036960482597351074e+00 1.281819731957511976e-05 -3.214275920981890522e-06 2.881176214941660874e-06 -2.019763996941037476e-05
1.456000000000000000e+03 1.808700561523437500e+01 -5.336030125617980957e-01 -6.495149591501103714e-06 9.668392522144131362e-06 9.519728223494894337e-07 1.442207576474174857e-05
1.457000000000000000e+03 6.550789642333984375e+01 -1.595031929016113281e+01 4.153697490692138672e-01 2.271932363510131836e-01 1.927688866853713989e-01 2.565166354179382324e-01
1.458000000000000000e+03 6.487123870849609375e+01 -1.667372322082519531e+01 4.747240841388702393e-01 1.453849226236343384e-01 1.860326975584030151e-01 2.184619307518005371e-01
1.459000000000000000e+03 6.636260986328125000e+01 -1.953211402893066406e+01 -4.162452220916748047e-01 -2.608766555786132812e-01 -2.031365633010864258e-01 -2.549346983432769775e-01
1.460000000000000000e+03 6.263692092895507812e+01 -1.818843078613281250e+01 6.154443025588989258e-01 3.337357044219970703e-01 2.847540080547332764e-01 2.222965359687805176e-01
1.461000000000000000e+03 6.511646270751953125e+01 -1.867365646362304688e+01 9.146763011813163757e-03 -1.244310885667800903e-01 -3.458529710769653320e-02 -1.046371981501579285e-01
1.462000000000000000e+03 5.615019226074218750e+01 -2.131945228576660156e+01 1.929088234901428223e-01 3.840378820896148682e-01 1.730840057134628296e-01 3.863475918769836426e-01
1.463000000000000000e+03 5.704851531982421875e+01 -2.455489921569824219e+01 -6.331593394279479980e-01 2.285321056842803955e-01 -1.213881671428680420e-01 -6.004746258258819580e-02
1.464000000000000000e+03 5.816030120849609375e+01 -2.148843574523925781e+01 -2.306481599807739258e-01 4.246652722358703613e-01 5.820513889193534851e-02 2.920783460140228271e-01
1.465000000000000000e+03 4.573603057861328125e+01 -1.740709495544433594e+01 -8.066206646617501974e-06 -5.356782367016421631e-06 -4.026896931463852525e-06 -5.841478923684917390e-06
1.466000000000000000e+03 5.566270828247070312e+01 -2.320798301696777344e+01 -3.815819323062896729e-01 3.425819873809814453e-01 -1.169998291879892349e-02 2.473589479923248291e-01
1.467000000000000000e+03 5.531475830078125000e+01 -2.453250503540039062e+01 -4.263848960399627686e-01 2.416852563619613647e-01 -5.540989339351654053e-02 9.036683291196823120e-02
1.468000000000000000e+03 5.291624069213867188e+01 -2.250459671020507812e+01 -4.093312844634056091e-02 5.560908839106559753e-02 4.402788821607828140e-03 3.616608977317810059e-01
1.469000000000000000e+03 2.654599952697753906e+01 -1.058984756469726562e+01 -2.290164047735743225e-06 4.949556320354986383e-10 -6.869007620480260812e-07 -3.298701358289690688e-06
1.470000000000000000e+03 1.304641056060791016e+01 2.365492105484008789e+00 2.776674045890104026e-05 -1.583439370733685791e-05 3.579703843570314348e-06 -1.196056837216019630e-05
1.471000000000000000e+03 1.376405143737792969e+01 2.009030342102050781e+00 -2.146299266314599663e-05 2.019076964643318206e-05 -3.816667515366134467e-07 5.685433279722929001e-06
1.472000000000000000e+03 1.238975143432617188e+01 2.725270986557006836e+00 -1.994027297769207507e-05 2.450057036185171455e-05 1.368089669995242730e-06 1.253015034308191389e-05
1.473000000000000000e+03 1.128137111663818359e+01 2.662549018859863281e+00 -1.180457456939620897e-05 2.658518678799737245e-05 4.434183665580349043e-06 7.603823632962303236e-06
1.474000000000000000e+03 2.450185394287109375e+01 -7.192775249481201172e+00 1.776922005092274048e-07 4.234676453052088618e-06 1.323710648648557253e-06 -3.900053343386389315e-06
1.475000000000000000e+03 2.245160675048828125e+01 -4.516675472259521484e+00 1.546329144730407279e-07 4.910579264105763286e-06 1.519563738838769495e-06 -1.113325652113417163e-05
1.476000000000000000e+03 1.596791172027587891e+01 8.504752516746520996e-01 2.431143548164982349e-05 -1.204067757498705760e-05 3.681227326524094678e-06 -1.612629057490266860e-05
1.477000000000000000e+03 2.005946350097656250e+01 -2.108566284179687500e+00 6.765350462956121191e-06 8.731549314688891172e-07 2.291551481903297827e-06 -1.830302971939090639e-05
1.478000000000000000e+03 6.044493865966796875e+01 -1.984494781494140625e+01 2.341956645250320435e-01 3.908711373805999756e-01 1.875200420618057251e-01 3.126930892467498779e-01
1.479000000000000000e+03 6.062545013427734375e+01 -2.217968750000000000e+01 -7.346927523612976074e-01 1.415675412863492966e-02 -2.161608040332794189e-01 -5.898354202508926392e-02
1.480000000000000000e+03 6.414884185791015625e+01 -2.132312202453613281e+01 -1.124416351318359375e+00 -4.558684676885604858e-02 -3.510009646415710449e-01 -4.757646322250366211e-01
1.481000000000000000e+03 1.193585205078125000e+01 3.263245820999145508e+00 4.200344392302213237e-06 -2.353932904952671379e-05 -5.801695351692615077e-06 -2.696213414310477674e-05
1.482000000000000000e+03 5.934941101074218750e+01 -2.258062744140625000e+01 -6.659478545188903809e-01 2.002872526645660400e-01 -1.396981775760650635e-01 2.341972663998603821e-02
1.483000000000000000e+03 5.892519378662109375e+01 -2.165000152587890625e+01 -2.267193645238876343e-01 4.536609947681427002e-01 6.808248907327651978e-02 2.977676093578338623e-01
1.484000000000000000e+03 6.659761047363281250e+01 -1.412232685089111328e+01 3.605904579162597656e-01 3.790474534034729004e-01 2.218913733959197998e-01 2.328232228755950928e-01
1.485000000000000000e+03 7.109789276123046875e+01 1.422278213500976562e+01 4.419733583927154541e-02 1.717499136924743652e+00 5.285089612007141113e-01 -1.640142407268285751e-03
1.486000000000000000e+03 6.213779067993164062e+01 -2.037210845947265625e+01 -3.420513868331909180e-01 1.239182725548744202e-01 -6.543993204832077026e-02 -1.496605277061462402e-01
1.487000000000000000e+03 3.314746093750000000e+01 -1.680163955688476562e+01 3.628856120485579595e-06 4.768868620885768905e-06 2.519317376936669461e-06 4.455224825505865738e-06
1.488000000000000000e+03 3.233575439453125000e+01 -1.567436695098876953e+01 5.917915586906019598e-06 5.068966402177466080e-06 3.296064505775575526e-06 3.593059091144823469e-06
1.489000000000000000e+03 2.938730049133300781e+01 -1.435442161560058594e+01 1.743144821375608444e-05 1.422967557118681725e-06 5.656324901792686433e-06 4.753819666802883148e-06
1.490000000000000000e+03 3.435176849365234375e+01 -1.684692001342773438e+01 -2.200332801294280216e-06 -4.055105364386690781e-06 -1.876631472441658843e-06 -5.583723577728960663e-06
1.491000000000000000e+03 3.141167831420898438e+01 -1.543850612640380859e+01 -7.473619007214438170e-06 -4.889296178589574993e-06 -3.708874601215939038e-06 -2.355662672925973311e-06
1.492000000000000000e+03 4.465275192260742188e+01 -3.125061988830566406e+00 5.479711762745864689e-05 2.864325688278768212e-05 2.503211180737707764e-05 3.300455500721000135e-05
1.493000000000000000e+03 4.516036224365234375e+01 -4.373576641082763672e+00 -5.207207141211256385e-05 -2.227350523753557354e-05 -2.230367135780397803e-05 -2.815412699419539422e-05
1.494000000000000000e+03 4.629200744628906250e+01 -4.027309894561767578e+00 6.228894926607608795e-05 1.915136090246960521e-05 2.443209450575523078e-05 2.846948154910933226e-05
1.495000000000000000e+03 4.121499633789062500e+01 1.246345996856689453e+00 -3.484831177047453821e-05 -2.650229544087778777e-05 -1.840518234530463815e-05 -5.046730075264349580e-05
1.496000000000000000e+03 4.525215530395507812e+01 1.290788173675537109e+00 -9.810832852963358164e-05 -1.609220089449081570e-05 -3.426015973673202097e-05 -4.212513522361405194e-05
1.497000000000000000e+03 5.001185607910156250e+01 -1.134344959259033203e+01 -4.606305810739286244e-05 -2.486198127371608280e-06 -1.456477639294462278e-05 -7.803827429597731680e-06
1.498000000000000000e+03 4.248678982257843018e-01 3.494266271591186523e+00 -1.652908213145565242e-05 -1.515733742962765973e-06 -5.413444796431576833e-06 4.735296897706575692e-06
1.499000000000000000e+03 4.929270935058593750e+01 -8.828222274780273438e+00 -5.404734838521108031e-05 -3.902696334989741445e-06 -1.738501305226236582e-05 -1.255196275451453403e-05
1.500000000000000000e+03 4.678683090209960938e+01 -5.288167953491210938e+00 -5.911281914450228214e-05 -1.354646610707277432e-05 -2.179778493882622570e-05 -2.435261558275669813e-05
1.501000000000000000e+03 4.616408157348632812e+01 3.168323898315429688e+01 -1.306252786889672279e-03 4.697904514614492655e-04 -2.509386977180838585e-04 5.885079008294269443e-05
1.502000000000000000e+03 4.398362731933593750e+01 3.723278284072875977e+00 -1.172076590592041612e-04 -1.016602436720859259e-05 -3.821210702881217003e-05 -4.594817073666490614e-05
1.503000000000000000e+03 4.725941085815429688e+01 -6.540458202362060547e+00 5.611700908048078418e-05 1.246113970410078764e-05 2.057344318018294871e-05 2.181567106163129210e-05
1.504000000000000000e+03 3.688921737670898438e+01 -1.581467342376708984e+01 8.857032298692502081e-06 4.718672698800219223e-06 4.072711362823611125e-06 2.976534233312122524e-06
1.505000000000000000e+03 3.442242431640625000e+01 -1.470221424102783203e+01 5.453487574413884431e-06 -6.716551524732494727e-06 -3.789191680425574305e-07 -8.827918463794048876e-06
1.506000000000000000e+03 7.692078399658203125e+01 1.117411899566650391e+01 -2.403501607477664948e-02 -8.522555232048034668e-01 -2.628871500492095947e-01 2.250331081449985504e-02
1.507000000000000000e+03 6.533950805664062500e+01 -2.101279258728027344e+01 -1.107745051383972168e+00 -1.328915357589721680e-01 -3.721909523010253906e-01 -3.473681211471557617e-01
1.508000000000000000e+03 4.771150588989257812e+01 -7.781229972839355469e+00 -5.287663589115254581e-05 -8.399901162192691118e-06 -1.838296157075092196e-05 -1.854597576311789453e-05
1.509000000000000000e+03 7.339686584472656250e+01 3.149267578125000000e+01 3.006077930331230164e-02 2.608021199703216553e-01 8.725887537002563477e-02 2.176841646432876587e-01
1.510000000000000000e+03 7.657604980468750000e+01 3.035577392578125000e+01 2.756021544337272644e-02 -6.207857728004455566e-01 -1.779676675796508789e-01 2.337472736835479736e-01
1.511000000000000000e+03 7.837178039550781250e+01 -2.077040481567382812e+01 -2.040698565542697906e-02 -5.807658657431602478e-02 -2.354507148265838623e-02 -5.832110345363616943e-02
1.512000000000000000e+03 7.665320587158203125e+01 3.705856323242187500e+01 -2.831415459513664246e-02 -5.103128552436828613e-01 -1.615881025791168213e-01 1.978224664926528931e-01
1.513000000000000000e+03 7.801300811767578125e+01 2.910290336608886719e+01 1.842490397393703461e-02 -1.129861831665039062e+00 -3.334310948848724365e-01 1.565167456865310669e-01
1.514000000000000000e+03 7.686289978027343750e+01 2.615681076049804688e+01 4.842752963304519653e-02 -7.954858541488647461e-01 -2.241174876689910889e-01 1.296764314174652100e-01
1.515000000000000000e+03 7.702280426025390625e+01 -1.518166255950927734e+01 -1.605131477117538452e-02 -3.138075470924377441e-01 -9.895766526460647583e-02 -2.483586072921752930e-01
1.516000000000000000e+03 7.829462432861328125e+01 -1.794626426696777344e+01 -1.409052219241857529e-02 -1.999722719192504883e-01 -6.421883404254913330e-02 -1.295292228460311890e-01
1.517000000000000000e+03 7.580317687988281250e+01 -1.110761737823486328e+01 2.416989207267761230e-02 -3.293510079383850098e-01 -9.155433624982833862e-02 -2.857654690742492676e-01
1.518000000000000000e+03 7.683515930175781250e+01 -2.063634991645812988e-02 4.943164438009262085e-02 -8.138616681098937988e-01 -2.293290197849273682e-01 -1.288077533245086670e-01
1.519000000000000000e+03 7.247971343994140625e+01 5.806783199310302734e+00 1.046101003885269165e-01 1.358792304992675781e+00 4.390207231044769287e-01 -6.790306069888174534e-04
1.520000000000000000e+03 7.689306640625000000e+01 1.395113563537597656e+01 -1.603150740265846252e-02 -8.331298828125000000e-01 -2.547484040260314941e-01 -2.138358075171709061e-03
1.521000000000000000e+03 7.475595855712890625e+01 1.945592498779296875e+01 1.116504520177841187e-02 1.057993173599243164e-01 3.508931025862693787e-02 2.165999449789524078e-02
1.522000000000000000e+03 7.689909362792968750e+01 1.534460258483886719e+01 -1.667690463364124298e-03 -8.510332703590393066e-01 -2.558102905750274658e-01 -4.329791758209466934e-03
1.523000000000000000e+03 7.572604370117187500e+01 -2.230798530578613281e+01 -8.890631794929504395e-02 -1.010478753596544266e-02 -2.970333211123943329e-02 -5.034164711833000183e-02
1.524000000000000000e+03 7.422758483886718750e+01 2.693562126159667969e+01 1.404136121273040771e-01 1.905900388956069946e-01 9.930109232664108276e-02 1.286754459142684937e-01
1.525000000000000000e+03 7.812657928466796875e+01 2.219363784790039062e+01 1.221361476927995682e-02 -1.390713810920715332e+00 -4.135500788688659668e-01 2.617760002613067627e-02
1.526000000000000000e+03 7.693193054199218750e+01 2.077634048461914062e+01 1.834222488105297089e-02 -8.571614623069763184e-01 -2.516457736492156982e-01 2.158778905868530273e-02
1.527000000000000000e+03 7.690545654296875000e+01 1.256483554840087891e+01 -1.656335778534412384e-02 -8.426411747932434082e-01 -2.577613592147827148e-01 1.689496636390686035e-02
1.528000000000000000e+03 7.691202545166015625e+01 5.619760990142822266e+00 3.156895563006401062e-02 -8.681268692016601562e-01 -2.509673833847045898e-01 1.751052401959896088e-02
1.529000000000000000e+03 7.806427001953125000e+01 1.403142213821411133e+00 2.498362213373184204e-02 -1.390185475349426270e+00 -4.095605611801147461e-01 -6.713457405567169189e-02
1.530000000000000000e+03 7.811052703857421875e+01 -5.537244796752929688e+00 6.148987449705600739e-03 -1.085792899131774902e+00 -3.238931894302368164e-01 -1.551814079284667969e-01
1.531000000000000000e+03 7.687463378906250000e+01 -6.928868770599365234e+00 1.007746439427137375e-02 -6.589356064796447754e-01 -1.946574449539184570e-01 -2.235535681247711182e-01
1.532000000000000000e+03 7.816201019287109375e+01 -1.246831893920898438e+01 5.136012099683284760e-03 -6.049351096153259277e-01 -1.799397170543670654e-01 -1.801345497369766235e-01
1.533000000000000000e+03 7.780242156982421875e+01 -2.256735420227050781e+01 -3.178451955318450928e-02 -2.323873899877071381e-02 -1.650697737932205200e-02 -2.956656739115715027e-02
1.534000000000000000e+03 7.648913574218750000e+01 3.580309295654296875e+01 -3.259785473346710205e-02 -4.918514192104339600e-01 -1.573347896337509155e-01 1.794749051332473755e-01
1.535000000000000000e+03 7.792137908935546875e+01 3.587862014770507812e+01 -1.679257489740848541e-02 -7.076780796051025391e-01 -2.173411995172500610e-01 1.713210642337799072e-01
1.536000000000000000e+03 7.666534423828125000e+01 2.894237709045410156e+01 4.165594652295112610e-02 -6.809478998184204102e-01 -1.917875856161117554e-01 2.017342150211334229e-01
1.537000000000000000e+03 7.694404602050781250e+01 2.344499969482421875e+01 4.614159464836120605e-02 -8.589526414871215820e-01 -2.438433170318603516e-01 5.229524150490760803e-02
1.538000000000000000e+03 7.684338378906250000e+01 2.797490119934082031e+00 5.701857060194015503e-02 -8.418670296669006348e-01 -2.354545444250106812e-01 -5.132501572370529175e-02
1.539000000000000000e+03 7.686743164062500000e+01 -4.175527572631835938e+00 2.254880405962467194e-02 -7.395752072334289551e-01 -2.151079177856445312e-01 -2.014861851930618286e-01
1.540000000000000000e+03 7.709945678710937500e+01 -1.652802848815917969e+01 -2.307757735252380371e-02 -2.443537563085556030e-01 -8.022940158843994141e-02 -2.314394861459732056e-01
1.541000000000000000e+03 7.717964935302734375e+01 -1.786800575256347656e+01 -4.701835289597511292e-02 -1.717243641614913940e-01 -6.562281399965286255e-02 -1.952314525842666626e-01
1.542000000000000000e+03 7.695223999023437500e+01 -1.110036373138427734e+01 1.507348939776420593e-02 -5.127959847450256348e-01 -1.493167430162429810e-01 -2.500626742839813232e-01
1.543000000000000000e+03 7.695393371582031250e+01 8.392063140869140625e+00 7.360523566603660583e-03 -8.771291971206665039e-01 -2.609305977821350098e-01 5.109506100416183472e-02
1.544000000000000000e+03 7.692431640625000000e+01 1.673597145080566406e+01 -3.694518469274044037e-03 -8.589515686035156250e-01 -2.587938308715820312e-01 -1.573642250150442123e-03
1.545000000000000000e+03 7.813405609130859375e+01 2.355854225158691406e+01 1.909623295068740845e-02 -1.372594356536865234e+00 -4.060494303703308105e-01 4.820859804749488831e-02
1.546000000000000000e+03 7.302154541015625000e+01 2.652488899230957031e+01 1.839687973260879517e-01 7.098113894462585449e-01 2.681340575218200684e-01 4.860119894146919250e-02
1.547000000000000000e+03 7.813717651367187500e+01 1.810074424743652344e+01 1.704224036075174809e-03 -1.414210915565490723e+00 -4.237520098686218262e-01 -2.108324260916560888e-04
1.548000000000000000e+03 7.460239410400390625e+01 1.686692810058593750e+01 1.479410100728273392e-02 2.079140692949295044e-01 6.681244820356369019e-02 -2.199717424809932709e-02
1.549000000000000000e+03 7.465798187255859375e+01 1.821579170227050781e+01 3.011110238730907440e-02 1.386235505342483521e-01 5.062039569020271301e-02 -3.717347513884305954e-03
1.550000000000000000e+03 7.813108062744140625e+01 1.117151165008544922e+01 -1.159998681396245956e-02 -1.414758920669555664e+00 -4.279076457023620605e-01 2.717448584735393524e-02
1.551000000000000000e+03 7.573808288574218750e+01 1.119080924987792969e+01 -3.029120527207851410e-02 -2.934562861919403076e-01 -9.712424129247665405e-02 3.016257844865322113e-02
1.552000000000000000e+03 7.239547729492187500e+01 4.392971038818359375e+00 1.076336428523063660e-01 1.419945359230041504e+00 4.582737088203430176e-01 -5.889166495762765408e-04
1.553000000000000000e+03 7.683058929443359375e+01 1.384151816368103027e+00 5.336882919073104858e-02 -8.249626159667968750e-01 -2.314781248569488525e-01 -8.952842652797698975e-02
1.554000000000000000e+03 7.196196746826171875e+01 -3.001745700836181641e+00 9.390799701213836670e-02 1.011368036270141602e+00 3.315827846527099609e-01 9.207420982420444489e-03
1.555000000000000000e+03 7.686717224121093750e+01 -5.550408363342285156e+00 1.633705385029315948e-02 -6.987638473510742188e-01 -2.047280520200729370e-01 -2.165136486291885376e-01
1.556000000000000000e+03 7.695927429199218750e+01 -1.247465515136718750e+01 6.059574428945779800e-03 -4.495680630207061768e-01 -1.330525428056716919e-01 -2.575506567955017090e-01
1.557000000000000000e+03 7.655070495605468750e+01 3.311470413208007812e+01 -7.388510275632143021e-03 -5.301537513732910156e-01 -1.612626761198043823e-01 2.438602447509765625e-01
1.558000000000000000e+03 6.853843688964843750e+01 -9.186128616333007812e+00 2.281500846147537231e-01 8.716136217117309570e-01 3.299291133880615234e-01 2.794665992259979248e-01
1.559000000000000000e+03 6.955148315429687500e+01 -7.990155696868896484e+00 1.649623960256576538e-01 8.858229517936706543e-01 3.152355849742889404e-01 1.774038374423980713e-01
1.560000000000000000e+03 7.566494750976562500e+01 2.810734748840332031e+00 8.598975837230682373e-02 -2.864919900894165039e-01 -6.015067175030708313e-02 -4.696582257747650146e-02
1.561000000000000000e+03 7.203367614746093750e+01 2.276805305480957031e+01 1.027515158057212830e-01 1.360236525535583496e+00 4.388964176177978516e-01 -4.633983969688415527e-02
1.562000000000000000e+03 7.125981140136718750e+01 1.863608932495117188e+01 1.201604679226875305e-02 1.734610199928283691e+00 5.239878892898559570e-01 4.164628218859434128e-03
1.563000000000000000e+03 7.243023681640625000e+01 1.857954788208007812e+01 1.371460035443305969e-02 1.239779114723205566e+00 3.760481178760528564e-01 7.262958213686943054e-03
1.564000000000000000e+03 7.343145751953125000e+01 1.553761959075927734e+01 6.837983615696430206e-03 7.388177514076232910e-01 2.236967086791992188e-01 -2.526931650936603546e-02
1.565000000000000000e+03 6.791416931152343750e+01 -1.235723018646240234e+01 3.180689811706542969e-01 5.107922554016113281e-01 2.486583739519119263e-01 1.747322529554367065e-01
1.566000000000000000e+03 2.501564264297485352e+00 3.401530075073242188e+01 3.624159580795094371e-05 -2.933216455858200788e-05 2.072829829558031633e-06 1.491773309680866078e-05
1.567000000000000000e+03 4.511290073394775391e+00 3.640459060668945312e+01 1.362784701086638961e-06 -6.930618837941437960e-05 -2.038302045548334718e-05 2.257693495266721584e-06
1.568000000000000000e+03 2.060597658157348633e+00 2.701515769958496094e+01 -4.491492654778994620e-05 -1.591603358974680305e-05 -1.824928767746314406e-05 1.560140481160487980e-05
1.569000000000000000e+03 3.729174137115478516e+00 3.075059509277343750e+01 -6.044105975888669491e-05 -8.147815606207586825e-06 -2.057666279142722487e-05 6.169985226733842865e-06
1.570000000000000000e+03 5.907236099243164062e+00 3.292905807495117188e+01 7.647073653060942888e-05 -3.887870843755081296e-05 1.127760788222076371e-05 2.800978654704522341e-05
1.571000000000000000e+03 2.034384727478027344e+00 2.559864425659179688e+01 4.007403913419693708e-05 -5.857157702848780900e-06 1.026506470225285739e-05 -7.498263130401028320e-06
1.572000000000000000e+03 3.471506357192993164e+00 2.801051521301269531e+01 -5.349937055143527687e-05 -1.249225806532194838e-05 -1.979748776648193598e-05 1.603044074727222323e-05
1.573000000000000000e+03 3.567263841629028320e+00 2.938408088684082031e+01 5.766007961938157678e-05 -2.839435910573229194e-05 8.779716154094785452e-06 4.438863470568321645e-06
1.574000000000000000e+03 2.723017454147338867e+00 3.678385543823242188e+01 1.391283331031445414e-05 -1.740105471981223673e-05 -1.046466422849334776e-06 -1.238243294210406020e-05
1.575000000000000000e+03 4.199013233184814453e+00 3.350403976440429688e+01 -5.170660733710974455e-05 -2.217604924226179719e-05 -2.216479697381146252e-05 -1.008507024380378425e-05
1.576000000000000000e+03 3.953328132629394531e+00 3.211672210693359375e+01 6.233892781892791390e-05 -3.860730794258415699e-05 7.119485417206306010e-06 1.746432099025696516e-05
1.577000000000000000e+03 5.489771366119384766e+00 3.155122947692871094e+01 -7.687325705774128437e-05 -3.658646164694800973e-06 -2.415956987533718348e-05 5.172167220734991133e-06
1.578000000000000000e+03 1.920792222023010254e+00 2.134976387023925781e+01 -3.092048063990660012e-05 -9.299878001911565661e-06 -1.206610704684862867e-05 1.224510833708336577e-05
1.579000000000000000e+03 3.341446876525878906e+00 2.377832031250000000e+01 3.767770613194443285e-05 -1.016180704027647153e-06 1.099845758290030062e-05 -5.197890004637883976e-06
1.580000000000000000e+03 3.184049606323242188e+00 2.094785499572753906e+01 3.159442712785676122e-05 4.518315108725801110e-06 1.083382267097476870e-05 -3.040051979041891173e-06
1.581000000000000000e+03 3.940545320510864258e+00 9.587725639343261719e+00 -3.731015385710634291e-05 3.656357193904113956e-06 -1.009613879432436079e-05 -4.881561835645698011e-06
1.582000000000000000e+03 4.433856010437011719e+00 2.057141113281250000e+01 -3.684872353915125132e-05 -1.396553761878749356e-05 -1.524427898402791470e-05 1.291129774472210556e-05
1.583000000000000000e+03 1.568470716476440430e+00 8.848345756530761719e+00 2.618439066282007843e-05 3.899705006915610284e-06 9.025228791870176792e-06 -1.169128722722234670e-06
1.584000000000000000e+03 1.438462615013122559e+00 6.158453941345214844e+00 2.775044049485586584e-05 6.859882546450535301e-07 8.530928425898309797e-06 -2.443644234517705627e-06
1.585000000000000000e+03 2.827258348464965820e+00 1.124229526519775391e+01 -3.011693297594320029e-05 1.189918862110062037e-06 -8.678103768033906817e-06 -2.632941232150187716e-06
1.586000000000000000e+03 1.751044631004333496e+00 1.436059665679931641e+01 2.450055944791529328e-05 6.753934485459467396e-06 9.376348316436633468e-06 -1.593216097717231605e-06
1.587000000000000000e+03 2.965051651000976562e+00 1.540995883941650391e+01 2.801638402161188424e-05 7.029785592749249190e-06 1.051385061145992950e-05 2.211319952039048076e-06
1.588000000000000000e+03 2.682703256607055664e+00 8.531316757202148438e+00 -2.691457848413847387e-05 2.680098077689763159e-06 -7.270343758136732504e-06 -2.829272034432506189e-06
1.589000000000000000e+03 2.765711307525634766e+00 9.883238792419433594e+00 2.774088170554023236e-05 4.064486347488127649e-06 9.541610779706388712e-06 5.002297029932378791e-07
1.590000000000000000e+03 3.010147571563720703e+00 1.678395271301269531e+01 -2.977677104354370385e-05 -6.618818588322028518e-06 -1.091867670766077936e-05 3.589755124266957864e-06
1.591000000000000000e+03 2.877464294433593750e+00 1.262926483154296875e+01 2.829511868185363710e-05 5.090052582090720534e-06 1.001555119728436694e-05 2.108431999658932909e-06
1.592000000000000000e+03 2.921298265457153320e+00 1.402680969238281250e+01 -2.993243288074154407e-05 -1.024979383146273904e-06 -9.287223292631097138e-06 -1.155777681560721248e-06
1.593000000000000000e+03 3.271248817443847656e+00 2.236095237731933594e+01 -3.570736589608713984e-05 -1.506788703409256414e-05 -1.523257651570020244e-05 1.530460940557532012e-05
1.594000000000000000e+03 4.208301544189453125e+00 1.648395347595214844e+01 2.819605288095772266e-05 1.092337788577424362e-05 1.173582950286800042e-05 6.825326636317186058e-06
1.595000000000000000e+03 6.933734130859375000e+01 3.315956115722656250e+01 1.954134739935398102e-02 8.731635808944702148e-01 2.678114771842956543e-01 -1.277008801698684692e-01
1.596000000000000000e+03 4.325427246093750000e+01 2.693812751770019531e+01 -9.797554412216413766e-07 -3.936660505132749677e-05 -1.210390837513841689e-05 -3.664696123450994492e-04
1.597000000000000000e+03 6.637397766113281250e+01 -1.273245811462402344e+01 3.785782456398010254e-01 6.009513139724731445e-01 2.938588559627532959e-01 3.524188399314880371e-01
1.598000000000000000e+03 6.721379089355468750e+01 -1.325022792816162109e+01 3.378810286521911621e-01 4.540484547615051270e-01 2.375788539648056030e-01 1.978095024824142456e-01
1.599000000000000000e+03 4.108704757690429688e+01 2.636394882202148438e+01 2.446125654387287796e-05 4.018843901576474309e-05 1.939490903168916702e-05 -1.496855984441936016e-04
1.600000000000000000e+03 3.840003204345703125e+01 1.867189407348632812e+01 -3.100328613072633743e-04 -1.516423617431428283e-05 -9.755913197295740247e-05 -7.247127086884574965e-06
1.601000000000000000e+03 4.032635879516601562e+01 1.978068733215332031e+01 -3.550133551470935345e-04 -4.379264282761141658e-06 -1.078177810995839536e-04 -1.810053254303056747e-05
1.602000000000000000e+03 7.564879608154296875e+01 -4.178271293640136719e+00 4.121619090437889099e-02 -3.196694254875183105e-01 -8.353596925735473633e-02 -2.154139727354049683e-01
1.603000000000000000e+03 7.565032196044921875e+01 -2.810106039047241211e+00 4.561858624219894409e-02 -3.161444664001464844e-01 -8.115776628255844116e-02 -1.973932534456253052e-01
1.604000000000000000e+03 7.229331207275390625e+01 1.560667610168457031e+01 2.914994955062866211e-02 1.233183741569519043e+00 3.787001073360443115e-01 -6.101917941123247147e-03
1.605000000000000000e+03 7.011960601806640625e+01 -4.491046905517578125e+00 1.376871019601821899e-01 1.315505981445312500e+00 4.359579384326934814e-01 2.374704033136367798e-01
1.606000000000000000e+03 7.129975128173828125e+01 -5.302086353302001953e+00 8.819268643856048584e-02 9.211452603340148926e-01 3.028013706207275391e-01 3.687787801027297974e-02
1.607000000000000000e+03 4.267296218872070312e+01 2.221747398376464844e+01 2.583031309768557549e-04 -6.699174264213070273e-05 5.739341941080056131e-05 -1.715688704280182719e-04
1.608000000000000000e+03 4.079134368896484375e+01 2.126810073852539062e+01 2.359512000111863017e-04 -5.636414425680413842e-05 5.387611599871888757e-05 -1.113466569222509861e-04
1.609000000000000000e+03 7.045928955078125000e+01 -6.658902645111083984e+00 1.102920994162559509e-01 9.361782670021057129e-01 3.139411211013793945e-01 1.122246310114860535e-01
1.610000000000000000e+03 7.226688385009765625e+01 -4.360879898071289062e+00 8.065153658390045166e-02 7.864689826965332031e-01 2.601361572742462158e-01 -3.706873953342437744e-02
1.611000000000000000e+03 4.153871536254882812e+01 5.875876426696777344e+00 1.117213832912966609e-04 9.539486200083047152e-06 3.637826011981815100e-05 4.335391349741257727e-05
1.612000000000000000e+03 7.472912597656250000e+01 2.330467414855957031e+01 1.112519353628158569e-01 1.380287259817123413e-01 7.478419691324234009e-02 3.217524290084838867e-02
1.613000000000000000e+03 7.579785919189453125e+01 2.333912086486816406e+01 8.146777004003524780e-02 -3.460921347141265869e-01 -7.938730716705322266e-02 5.604404583573341370e-02
1.614000000000000000e+03 7.214082336425781250e+01 1.818048954010009766e-02 1.658153384923934937e-01 1.271037578582763672e+00 4.310558736324310303e-01 1.801931299269199371e-02
1.615000000000000000e+03 6.948988342285156250e+01 3.012965393066406250e+01 2.891411781311035156e-01 1.394665837287902832e+00 5.051420927047729492e-01 -3.228588700294494629e-01
1.616000000000000000e+03 4.253858947753906250e+01 2.561936759948730469e+01 -8.839564980007708073e-04 2.080001468129921705e-05 -2.589469368103891611e-04 -1.047008336172439158e-04
1.617000000000000000e+03 4.098258209228515625e+01 7.239054203033447266e+00 -1.233460643561556935e-04 1.743668144627008587e-05 -3.177281178068369627e-05 -4.031139178550802171e-05
1.618000000000000000e+03 4.213598632812500000e+01 4.576600074768066406e+00 -1.067630437319166958e-04 -1.213180667036795057e-07 -3.206530891475267708e-05 -4.263603841536678374e-05
1.619000000000000000e+03 7.189126586914062500e+01 2.616104125976562500e+01 1.901118010282516479e-01 1.215787291526794434e+00 4.217697381973266602e-01 -5.183020234107971191e-02
1.620000000000000000e+03 4.679403686523437500e+01 3.324675369262695312e+01 -3.473311895504593849e-03 7.704870076850056648e-04 -8.108475012704730034e-04 2.674013667274266481e-04
1.621000000000000000e+03 5.098815536499023438e+01 3.373913955688476562e+01 -5.865888670086860657e-03 2.051347255473956466e-04 -1.698226202279329300e-03 -3.148537653032690287e-04
1.622000000000000000e+03 4.777978515625000000e+01 3.503462219238281250e+01 -2.687130356207489967e-03 2.181317657232284546e-03 -1.517437776783481240e-04 2.459038281813263893e-03
1.623000000000000000e+03 7.129012298583984375e+01 -1.959309005737304688e+01 -4.112769663333892822e-01 4.457589238882064819e-02 -1.100103184580802917e-01 -3.066366016864776611e-01
1.624000000000000000e+03 6.936985778808593750e+01 -2.098627662658691406e+01 -9.194799065589904785e-01 -6.545758247375488281e-02 -2.954812347888946533e-01 -1.334305852651596069e-01
1.625000000000000000e+03 3.961074447631835938e+01 1.670449256896972656e+01 -2.693544665817171335e-04 3.343416210555005819e-06 -7.980331429280340672e-05 8.055664693529251963e-06
1.626000000000000000e+03 4.108801651000976562e+01 1.643730354309082031e+01 2.199150912929326296e-04 -6.765319540136260912e-06 6.394492811523377895e-05 -2.825686169671826065e-05
1.627000000000000000e+03 4.132672500610351562e+01 2.273871994018554688e+01 -5.398495122790336609e-04 1.561360841151326895e-05 -1.572707697050645947e-04 -4.332482421887107193e-05
1.628000000000000000e+03 7.331202697753906250e+01 -2.379953384399414062e+01 -8.633930981159210205e-02 -5.171023309230804443e-03 -2.745309844613075256e-02 -2.092681679641827941e-04
1.629000000000000000e+03 7.127954101562500000e+01 7.476548194885253906e+00 9.580054134130477905e-02 1.842829823493957520e+00 5.815891027450561523e-01 -4.750786721706390381e-02
1.630000000000000000e+03 7.232759094238281250e+01 7.804787635803222656e+00 4.996817931532859802e-02 1.323697924613952637e+00 4.120998382568359375e-01 1.211280748248100281e-02
1.631000000000000000e+03 7.116512298583984375e+01 1.576594710350036621e+00 1.849036812782287598e-01 1.958680868148803711e+00 6.430753469467163086e-01 1.249186620116233826e-01
1.632000000000000000e+03 3.935203933715820312e+01 1.333272457122802734e+01 -2.079976547975093126e-04 2.833135113178286701e-05 -5.389989019022323191e-05 -2.551480611145962030e-05
1.633000000000000000e+03 3.968812179565429688e+01 1.168660926818847656e+01 1.733620010782033205e-04 -2.143749406968709081e-05 4.557735155685804784e-05 4.228943726047873497e-05
1.634000000000000000e+03 4.126382064819335938e+01 1.035310268402099609e+01 1.725222537061199546e-04 -4.342218289821175858e-06 5.045401121606118977e-05 2.478909664205275476e-05
1.635000000000000000e+03 5.920912170410156250e+01 -2.374206924438476562e+01 -1.030080795288085938e+00 5.581175163388252258e-02 -2.922807335853576660e-01 -2.710429430007934570e-01
1.636000000000000000e+03 6.005882263183593750e+01 -2.303560829162597656e+01 -1.067839860916137695e+00 4.305787384510040283e-02 -3.074345886707305908e-01 -1.196717098355293274e-01
1.637000000000000000e+03 4.568521881103515625e+01 3.036852073669433594e+01 -2.366277156397700310e-03 2.514575317036360502e-04 -6.344458670355379581e-04 -2.256485167890787125e-04
1.638000000000000000e+03 7.335553741455078125e+01 1.430557012557983398e+00 1.532335132360458374e-01 7.742092013359069824e-01 2.782328128814697266e-01 -3.507111966609954834e-02
1.639000000000000000e+03 7.225082397460937500e+01 1.276431274414062500e+01 -8.175576478242874146e-02 1.265002965927124023e+00 3.549741506576538086e-01 -3.525797650218009949e-02
1.640000000000000000e+03 7.226815795898437500e+01 1.416931438446044922e+01 -1.546841952949762344e-02 1.249977588653564453e+00 3.703527450561523438e-01 -4.798151552677154541e-02
1.641000000000000000e+03 7.064978790283203125e+01 3.056277847290039062e+01 1.587285548448562622e-01 1.065739750862121582e+00 3.673405051231384277e-01 -6.856340169906616211e-02
1.642000000000000000e+03 7.157294464111328125e+01 2.768776702880859375e+01 2.279416322708129883e-01 1.181522965431213379e+00 4.228393733501434326e-01 -6.687220185995101929e-02
1.643000000000000000e+03 7.513877105712890625e+01 3.018991088867187500e+01 5.399067327380180359e-02 -1.778757870197296143e-01 -3.716553375124931335e-02 2.453445494174957275e-01
1.644000000000000000e+03 5.973297500610351562e+01 -2.186798667907714844e+01 -6.274888515472412109e-01 2.253448665142059326e-01 -1.206431984901428223e-01 6.172133982181549072e-02
1.645000000000000000e+03 5.170393753051757812e+01 3.530782699584960938e+01 -1.121270097792148590e-02 2.081325510516762733e-03 -2.739412710070610046e-03 3.028803330380469561e-04
1.646000000000000000e+03 3.795813369750976562e+01 -1.702785682678222656e+01 7.046934570098528638e-06 3.787711420955020003e-06 3.250393774578697048e-06 -3.188496577877231175e-08
1.647000000000000000e+03 3.898622894287109375e+01 -1.701157760620117188e+01 -8.834889740683138371e-06 -3.137123258056817576e-06 -3.591603672248311341e-06 -5.742101052419457119e-07
1.648000000000000000e+03 3.572593307495117188e+01 -1.568435955047607422e+01 -7.231883046188158914e-06 -4.629285285773221403e-06 -3.558350499588414095e-06 -4.599121893988922238e-06
1.649000000000000000e+03 5.062104415893554688e+01 -1.614534759521484375e+01 2.990008033521007746e-05 -9.945018064172472805e-06 5.986518772260751575e-06 1.023352069751126692e-06
1.650000000000000000e+03 5.136233901977539062e+01 -1.477680778503417969e+01 -1.301517204410629347e-05 4.298053681850433350e-06 -2.615135372252552770e-06 1.556072493258398026e-05
1.651000000000000000e+03 5.817568588256835938e+01 4.125835418701171875e+01 1.556432154029607773e-02 5.518550053238868713e-02 2.122494764626026154e-02 -6.605423055589199066e-03
1.652000000000000000e+03 7.489483642578125000e+01 4.043139266967773438e+01 -1.310928165912628174e-01 -2.006257176399230957e-01 -9.951556473970413208e-02 3.309255838394165039e-02
1.653000000000000000e+03 7.396267700195312500e+01 -2.323487663269042969e+01 -9.299822896718978882e-02 -8.772272267378866673e-04 -2.816263586282730103e-02 -1.895597390830516815e-02
1.654000000000000000e+03 6.986457824707031250e+01 -1.918900299072265625e+01 -4.488385021686553955e-01 -6.068931519985198975e-02 -1.528583467006683350e-01 -3.740105628967285156e-01
1.655000000000000000e+03 6.811615753173828125e+01 3.585031890869140625e+01 -1.008017882704734802e-01 6.127949357032775879e-01 1.535979509353637695e-01 -1.083303168416023254e-01
1.656000000000000000e+03 5.459920883178710938e+01 -2.315162086486816406e+01 -2.951294779777526855e-01 2.450127005577087402e-01 -1.503503229469060898e-02 2.520831227302551270e-01
1.657000000000000000e+03 5.539236450195312500e+01 -2.214625930786132812e+01 -8.577165007591247559e-02 3.331438004970550537e-01 7.421164214611053467e-02 3.065794706344604492e-01
1.658000000000000000e+03 5.608091354370117188e+01 -2.453534507751464844e+01 -4.913342893123626709e-01 2.797717154026031494e-01 -6.346876919269561768e-02 8.554344624280929565e-02
1.659000000000000000e+03 7.499250030517578125e+01 -2.007393264770507812e+01 -1.677916198968887329e-01 -1.924313046038150787e-02 -5.611042678356170654e-02 -1.829072386026382446e-01
1.660000000000000000e+03 7.625531005859375000e+01 -2.335039710998535156e+01 -4.934638738632202148e-02 -1.093271002173423767e-02 -1.808372884988784790e-02 -2.187149599194526672e-02
1.661000000000000000e+03 5.506202697753906250e+01 -2.354679870605468750e+01 -2.680400609970092773e-01 2.825173139572143555e-01 4.343174863606691360e-03 1.862970590591430664e-01
1.662000000000000000e+03 9.211652755737304688e+00 4.937408924102783203e+00 4.613033524947240949e-06 1.458857605030061677e-05 5.760482963523827493e-06 9.905430488288402557e-06
1.663000000000000000e+03 8.521022796630859375e+00 4.668417930603027344e+00 -8.607863492215983570e-06 -8.104699190880637616e-06 -5.013768713979516178e-06 -1.134159629145869985e-05
1.664000000000000000e+03 7.827864170074462891e+00 4.485411167144775391e+00 9.991952538257464767e-06 9.988989404519088566e-06 5.994282673782436177e-06 2.115968754878849722e-06
1.665000000000000000e+03 5.694788455963134766e+00 4.331173896789550781e+00 -1.570008498674724251e-05 -3.040524006792111322e-06 -5.622182470688130707e-06 -2.374428277107654139e-06
1.666000000000000000e+03 5.031404018402099609e+00 4.314991950988769531e+00 2.352055889787152410e-05 4.261106823832960799e-06 8.334499398188199848e-06 2.430832182653830387e-06
1.667000000000000000e+03 3.365634918212890625e+00 5.598016262054443359e+00 1.160310512204887345e-05 -8.655981105221144389e-07 3.221252200091839768e-06 -1.361059275950537995e-05
1.668000000000000000e+03 4.734505176544189453e+00 5.261064052581787109e+00 -2.656801552802789956e-05 -2.637681973283179104e-06 -8.761709068494383246e-06 -2.092778458973043598e-06
1.669000000000000000e+03 3.149199724197387695e+00 3.646410942077636719e+00 8.627119314041920006e-06 1.013714518194319680e-05 5.629279257846064866e-06 -9.300072633777745068e-06
1.670000000000000000e+03 1.428958892822265625e+00 4.804708003997802734e+00 -2.741540993156377226e-05 -1.119073658628622070e-06 -8.560345122532453388e-06 -6.865083719276299234e-07
1.671000000000000000e+03 2.847678565979003906e+01 -1.078708362579345703e+01 -7.449965323758078739e-06 3.749192273971857503e-06 -1.110232005885336548e-06 -1.086812289941008203e-06
1.672000000000000000e+03 5.379578018188476562e+01 -2.244464111328125000e+01 4.275817424058914185e-03 1.526077985763549805e-01 4.706508293747901917e-02 2.850514352321624756e-01
1.673000000000000000e+03 7.557069396972656250e+01 -2.314618301391601562e+01 -8.265443891286849976e-02 -2.171799307689070702e-03 -2.544787153601646423e-02 -3.019953332841396332e-02
1.674000000000000000e+03 2.919030761718750000e+01 -1.183059978485107422e+01 -5.254521511233178899e-06 3.786628667512559332e-06 -4.403678417475020979e-07 -2.561551127655548044e-06
1.675000000000000000e+03 2.841538047790527344e+01 -1.349104595184326172e+01 1.365642037853831425e-05 -1.025445499180932529e-06 3.789292577494052239e-06 6.057721748220501468e-06
1.676000000000000000e+03 2.858363151550292969e+01 -1.239193248748779297e+01 1.045727003656793386e-05 -1.981346940738148987e-06 2.542776883274200372e-06 3.803276058533811010e-06
1.677000000000000000e+03 7.830372619628906250e+01 -2.347354888916015625e+01 -6.910617463290691376e-03 -7.063616532832384109e-03 -4.192270338535308838e-03 -3.784145694226026535e-03
1.678000000000000000e+03 7.860387420654296875e+01 -2.217632865905761719e+01 -1.759346574544906616e-02 -1.746499910950660706e-02 -1.051753945648670197e-02 -2.609065547585487366e-02
1.679000000000000000e+03 7.725162506103515625e+01 -2.328399276733398438e+01 -3.161094337701797485e-02 -1.248609740287065506e-02 -1.322911214083433151e-02 -2.107092365622520447e-02
1.680000000000000000e+03 4.277081680297851562e+01 -1.811339187622070312e+01 -7.792857104504946619e-06 -4.423412974574603140e-06 -3.664880978249129839e-06 -2.916509401984512806e-06
1.681000000000000000e+03 5.462586593627929688e+01 -2.222519493103027344e+01 -6.498407572507858276e-02 2.528806626796722412e-01 5.636897683143615723e-02 3.232062458992004395e-01
1.682000000000000000e+03 4.820975112915039062e+01 -1.606389808654785156e+01 5.659062026097672060e-06 1.173446344182593748e-05 5.218057594902347773e-06 1.124898881244007498e-05
1.683000000000000000e+03 4.854975891113281250e+01 -1.676593589782714844e+01 -7.306746738322544843e-06 -7.800021194270811975e-06 -4.532030288828536868e-06 -9.953180779120884836e-06
1.684000000000000000e+03 4.959783935546875000e+01 -1.554473876953125000e+01 3.133111022179946303e-05 -6.634864803345408291e-06 7.408873443637276068e-06 9.209268682752735913e-06
1.685000000000000000e+03 2.943146514892578125e+01 -1.325627040863037109e+01 1.763446016411762685e-05 -1.049506181516335346e-06 4.975485808245139197e-06 7.142958111217012629e-06
1.686000000000000000e+03 4.481877136230468750e+01 -1.687952232360839844e+01 -6.510260391223710030e-06 -9.423171832168009132e-06 -4.780029485118575394e-06 -7.427296623063739389e-06
1.687000000000000000e+03 4.411146545410156250e+01 -1.707138633728027344e+01 6.981954811635660008e-06 8.214271474571432918e-06 4.558868113235803321e-06 3.797113777181948535e-06
1.688000000000000000e+03 6.888667297363281250e+01 -1.975899696350097656e+01 -6.515912413597106934e-01 -1.869755238294601440e-01 -2.515700161457061768e-01 -4.247266054153442383e-01
1.689000000000000000e+03 1.588714790344238281e+01 2.609260797500610352e+00 -3.510634996928274632e-05 1.804773819458205253e-05 -5.117582986713387072e-06 7.751154043944552541e-06
1.690000000000000000e+03 2.593842506408691406e+01 -8.104581832885742188e+00 5.172980763745727018e-06 -2.496699153198278509e-06 8.028845286389696412e-07 -1.029876102620619349e-06
1.691000000000000000e+03 2.403272247314453125e+01 -5.318546295166015625e+00 9.306755600846372545e-06 -5.540453457797411829e-06 1.129890620177320670e-06 4.746907052322058007e-06
1.692000000000000000e+03 2.402271842956542969e+01 -6.505538940429687500e+00 8.108891051961109042e-06 -4.326930138631723821e-06 1.134588273998815566e-06 1.671372729106224142e-06
1.693000000000000000e+03 2.454741859436035156e+01 -6.010753154754638672e+00 -8.467561656289035454e-07 4.286898729333188385e-06 1.032042860060755629e-06 -6.248749741644132882e-06
1.694000000000000000e+03 1.739813804626464844e+01 -5.003410577774047852e-02 1.923661875480320305e-05 -8.144252205966040492e-06 3.327710373923764564e-06 -1.895506466098595411e-05
1.695000000000000000e+03 1.738433837890625000e+01 1.742751240730285645e+00 -2.928556023107375950e-05 1.462930504203541204e-05 -4.396876647660974413e-06 1.432961926184361801e-05
1.696000000000000000e+03 6.603340911865234375e+01 -1.739428901672363281e+01 2.063917219638824463e-01 -5.493235588073730469e-02 4.543780907988548279e-02 -2.298246510326862335e-02
1.697000000000000000e+03 6.381544876098632812e+01 -1.806929016113281250e+01 4.471183419227600098e-01 1.106211543083190918e-01 1.673218458890914917e-01 1.151193305850028992e-01
1.698000000000000000e+03 4.338413238525390625e+01 -1.721202087402343750e+01 -9.476017112319823354e-06 -5.602913006441667676e-06 -4.523678853729506955e-06 -3.215446895410423167e-06
1.699000000000000000e+03 5.720257186889648438e+01 -2.201609992980957031e+01 -2.079727053642272949e-01 4.122728109359741211e-01 6.129002571105957031e-02 2.756056487560272217e-01
1.700000000000000000e+03 2.220163345336914062e+01 -2.111639976501464844e+00 5.031849923398112878e-06 4.096917564311297610e-06 2.738630200838088058e-06 -1.816934127418790013e-05
1.701000000000000000e+03 2.234912300109863281e+01 -3.324932098388671875e+00 1.711287382022419479e-06 4.732436082122148946e-06 1.933117118824156933e-06 -1.441784479538910091e-05
1.702000000000000000e+03 1.941610145568847656e+01 -1.561810135841369629e+00 3.065886176045751199e-07 4.203800926916301250e-06 1.353116886093630455e-06 1.425966638635145500e-05
1.703000000000000000e+03 1.914990615844726562e+01 -4.024645984172821045e-01 -8.648070433991961181e-06 5.638503353111445904e-06 -9.028701697388896719e-07 1.727832750475499779e-05
1.704000000000000000e+03 2.617886543273925781e+01 -9.933096885681152344e+00 4.666308541345642880e-06 8.390111361222807318e-07 1.651595994189847261e-06 5.421867967925209086e-07
1.705000000000000000e+03 6.512909698486328125e+01 -1.753452301025390625e+01 3.097791969776153564e-01 2.528379112482070923e-02 1.005188971757888794e-01 1.064323410391807556e-01
1.706000000000000000e+03 5.597040939331054688e+01 -2.387001037597656250e+01 -4.506436586380004883e-01 3.009055554866790771e-01 -4.492143541574478149e-02 1.021727398037910461e-01
1.707000000000000000e+03 4.700786972045898438e+01 -1.644682121276855469e+01 1.071245878847548738e-05 5.523866093426477164e-06 4.870897555520059541e-06 1.463427793169103097e-06
1.708000000000000000e+03 4.628865814208984375e+01 -1.649546623229980469e+01 -1.231690293934661895e-05 -4.921074832964222878e-06 -5.171393240743782371e-06 -5.130983936396660283e-06
1.709000000000000000e+03 5.869862365722656250e+01 -2.306478118896484375e+01 -6.979261040687561035e-01 2.681038379669189453e-01 -1.289466917514801025e-01 9.454902261495590210e-02
1.710000000000000000e+03 2.749305915832519531e+01 -1.072851753234863281e+01 -4.279488166503142565e-06 1.873506676020042505e-06 -7.217943789328273851e-07 -2.591957127151545137e-06
1.711000000000000000e+03 2.712403869628906250e+01 -1.010530948638916016e+01 5.968842287984443828e-06 -1.832884777286380995e-06 1.240787241840735078e-06 8.492707479490491096e-07
1.712000000000000000e+03 4.262944412231445312e+01 -1.734234237670898438e+01 9.835983291850425303e-06 5.492136097018374130e-06 4.598435680236434564e-06 4.289464868634240702e-06
1.713000000000000000e+03 1.335491752624511719e+01 3.038226604461669922e+00 -3.091206599492579699e-05 1.752174648572690785e-05 -4.017096216557547450e-06 1.775908913259627298e-06
1.714000000000000000e+03 3.184597778320312500e+01 -1.452445316314697266e+01 1.112498921429505572e-05 4.304666617827024311e-06 4.628896476788213477e-06 3.606440088788076537e-07
1.715000000000000000e+03 2.674637413024902344e+01 -9.457478523254394531e+00 1.169029928860254586e-06 -8.859714739628543612e-08 3.241298145439941436e-07 -2.657091727087390609e-06
1.716000000000000000e+03 5.649795150756835938e+01 -2.291062164306640625e+01 -3.677662611007690430e-01 3.744883537292480469e-01 2.016627695411443710e-03 1.797149777412414551e-01
1.717000000000000000e+03 1.072690773010253906e+01 3.460167407989501953e+00 5.343367774912621826e-06 -1.802061524358578026e-05 -3.803174195127212442e-06 -1.668965705903246999e-05
1.718000000000000000e+03 2.550130653381347656e+01 -7.408163547515869141e+00 1.162265164111886406e-07 2.689182338144746609e-06 8.416226364715839736e-07 -2.991684141306905076e-06
1.719000000000000000e+03 2.349502944946289062e+01 -4.639180183410644531e+00 -5.155357030162122101e-07 5.123792107042390853e-06 1.382476966682588682e-06 -1.015842190099647269e-05
1.720000000000000000e+03 1.629688453674316406e+01 1.513188362121582031e+00 -2.410324304946698248e-05 1.629926191526465118e-05 -2.341194203836494125e-06 1.081188838725211099e-05
1.721000000000000000e+03 1.555393505096435547e+01 1.928422331809997559e+00 3.146526432828977704e-05 -1.323854939982993528e-05 5.468014023790601641e-06 -1.317372516496106982e-05
1.722000000000000000e+03 1.846250343322753906e+01 1.111596524715423584e-01 2.056481389445252717e-05 -5.870591849088668823e-06 4.408266704558627680e-06 -2.103827137034386396e-05
1.723000000000000000e+03 1.775690650939941406e+01 6.018559932708740234e-01 -1.742538916005287319e-05 1.175340003101155162e-05 -1.701596715975028928e-06 1.522022012068191543e-05
1.724000000000000000e+03 2.174366760253906250e+01 -2.692642927169799805e+00 5.761107331636594608e-06 -3.688427796078030951e-06 6.218038492988853250e-07 1.266659455723129213e-05
1.725000000000000000e+03 2.112030792236328125e+01 -2.083828449249267578e+00 5.990983481751754880e-06 2.870616299333050847e-06 2.658479843375971541e-06 -1.845607766881585121e-05
1.726000000000000000e+03 6.263173675537109375e+01 -1.954438018798828125e+01 1.723719239234924316e-01 1.416676342487335205e-01 9.421186894178390503e-02 -2.694430388510227203e-02
1.727000000000000000e+03 6.305352401733398438e+01 -2.034421920776367188e+01 -4.485287964344024658e-01 1.038254350423812866e-01 -1.034110039472579956e-01 -1.708460897207260132e-01
1.728000000000000000e+03 5.997023391723632812e+01 -2.107506370544433594e+01 -2.275022864341735840e-01 4.273307323455810547e-01 5.994853749871253967e-02 2.466979920864105225e-01
1.729000000000000000e+03 6.120196533203125000e+01 -2.021210098266601562e+01 9.254374355077743530e-02 2.818460762500762939e-01 1.123169437050819397e-01 1.129209250211715698e-01
1.730000000000000000e+03 1.481372833251953125e+01 2.317926406860351562e+00 -2.778996349661611021e-05 1.816930125642102212e-05 -2.886198899432201870e-06 5.979706656944472343e-06
1.731000000000000000e+03 1.031715488433837891e+01 4.410304546356201172e+00 -1.285167968489986379e-06 1.998526749957818538e-05 5.610029802483040839e-06 1.186538429465144873e-05
1.732000000000000000e+03 9.556789398193359375e+00 4.025379657745361328e+00 -5.094265816296683624e-06 -1.071748556569218636e-05 -4.743525551020866260e-06 -1.578498631715774536e-05
1.733000000000000000e+03 6.821714782714843750e+01 -1.473255920410156250e+01 2.448761016130447388e-01 1.835545599460601807e-01 1.285292059183120728e-01 -3.037664853036403656e-02
1.734000000000000000e+03 2.948483657836914062e+01 -1.230532550811767578e+01 1.161994532594690099e-05 -5.936296474828850478e-06 1.705094746284885332e-06 4.129068656766321510e-06
1.735000000000000000e+03 7.342613983154296875e+01 -2.069075012207031250e+01 -2.728057801723480225e-01 3.385063260793685913e-02 -7.168654352426528931e-02 -1.648036390542984009e-01
1.736000000000000000e+03 7.260005187988281250e+01 -1.753356170654296875e+01 -1.578627228736877441e-01 -1.419805642217397690e-02 -5.161823332309722900e-02 -3.618896305561065674e-01
1.737000000000000000e+03 1.263304710388183594e+01 3.359183073043823242e+00 3.493314579827710986e-05 -5.727883944928180426e-06 8.761578101257327944e-06 2.873897301469696686e-06
1.738000000000000000e+03 1.156280899047851562e+01 4.055427551269531250e+00 -4.817130047740647569e-06 2.650424175953958184e-05 6.506133104267064482e-06 1.396375773765612394e-05
1.739000000000000000e+03 2.995914268493652344e+01 -1.358924484252929688e+01 -1.824209721235092729e-05 -3.078202936990237504e-08 -5.481863809109199792e-06 -5.981832146062515676e-06
1.740000000000000000e+03 3.337911987304687500e+01 -1.577166557312011719e+01 -1.852526906986895483e-06 -5.866862011316698045e-06 -2.315816573172924109e-06 -5.306113052938599139e-06
1.741000000000000000e+03 3.116114807128906250e+01 -1.421543884277343750e+01 -1.420624812453752384e-05 -2.993032467202283442e-06 -5.159784450370352715e-06 1.145597749996341008e-07
1.742000000000000000e+03 2.930742454528808594e+01 -1.557801246643066406e+01 1.355347922071814537e-05 4.870351858698995784e-06 5.527149369299877435e-06 2.899250375776318833e-06
1.743000000000000000e+03 2.996538162231445312e+01 -1.474716377258300781e+01 -1.454866014682920650e-05 -3.260089670220622793e-06 -5.342625172488624230e-06 -2.806111297104507685e-06
1.744000000000000000e+03 4.524419403076171875e+01 -1.532992720603942871e+00 7.118375651771202683e-05 2.584377034509088844e-05 2.910825787694193423e-05 3.705977724166586995e-05
1.745000000000000000e+03 4.039200592041015625e+01 -1.876593971252441406e+01 8.707738743396475911e-06 2.701109224290121347e-06 3.422654344831244089e-06 1.466418098061694764e-06
1.746000000000000000e+03 4.237354278564453125e+01 3.604158401489257812e+01 4.363364714663475752e-04 -1.771458773873746395e-04 7.775718404445797205e-05 1.666081603616476059e-03
1.747000000000000000e+03 4.280380630493164062e+01 3.033253097534179688e+01 -1.301021198742091656e-03 1.797365548554807901e-04 -3.363853902556002140e-04 -2.091362694045528769e-04
1.748000000000000000e+03 3.452746582031250000e+01 -1.569389057159423828e+01 3.140591161354677752e-06 6.000449502607807517e-06 2.742312062764540315e-06 6.734063845215132460e-06
1.749000000000000000e+03 3.348632431030273438e+01 -1.484744262695312500e+01 2.730055939537123777e-06 6.356661742756841704e-06 2.726015281950822100e-06 6.574131930392468348e-06
1.750000000000000000e+03 4.306412506103515625e+01 -2.238393545150756836e+00 4.592810364556498826e-05 3.555649527697823942e-05 2.444538040435872972e-05 3.391031350474804640e-05
1.751000000000000000e+03 4.565567779541015625e+01 -5.620481491088867188e+00 4.939103746437467635e-05 2.102964754158165306e-05 2.112620677507948130e-05 2.593587123556062579e-05
1.752000000000000000e+03 6.616839599609375000e+01 -1.844556999206542969e+01 -7.006945461034774780e-02 -1.490125209093093872e-01 -6.572459638118743896e-02 -1.318213790655136108e-01
1.753000000000000000e+03 4.276549911499023438e+01 3.339372873306274414e+00 9.610132838133722544e-05 1.758473445079289377e-05 3.410581848584115505e-05 4.693027585744857788e-05
1.754000000000000000e+03 4.226169967651367188e+01 1.712324023246765137e+00 6.582140485988929868e-05 2.274525650136638433e-05 2.656999822647776455e-05 5.203583714319393039e-05
1.755000000000000000e+03 7.342137908935546875e+01 1.270103168487548828e+01 -6.321053206920623779e-02 7.572037577629089355e-01 2.081979662179946899e-01 -2.877961099147796631e-02
1.756000000000000000e+03 7.223012542724609375e+01 1.140260219573974609e+01 -1.189398914575576782e-01 1.301899671554565430e+00 3.548879325389862061e-01 -2.211664617061614990e-02
1.757000000000000000e+03 7.721677398681640625e+01 -2.059617805480957031e+01 -6.209241226315498352e-02 -5.939343199133872986e-02 -3.644575551152229309e-02 -9.892767667770385742e-02
1.758000000000000000e+03 4.401780319213867188e+01 2.824650764465332031e+01 -1.424019224941730499e-03 7.491227006539702415e-05 -4.047320981044322252e-04 -1.317546120844781399e-04
1.759000000000000000e+03 4.293855285644531250e+01 5.200127363204956055e-01 -6.332070915959775448e-05 -2.532676262489985675e-05 -2.659424171724822372e-05 -4.508860001806169748e-05
1.760000000000000000e+03 4.900384902954101562e+01 -1.251597690582275391e+01 -4.462461583898402750e-05 -3.170197487634140998e-06 -1.433844408893492073e-05 -1.309513299929676577e-05
1.761000000000000000e+03 7.233003234863281250e+01 2.951260089874267578e+00 1.358519941568374634e-01 1.391385436058044434e+00 4.581712186336517334e-01 3.034990280866622925e-02
1.762000000000000000e+03 7.695000457763671875e+01 7.011620044708251953e+00 2.496683411300182343e-02 -8.823121786117553711e-01 -2.572036087512969971e-01 3.442790731787681580e-02
1.763000000000000000e+03 7.448883056640625000e+01 1.395382404327392578e+00 1.262838542461395264e-01 2.390603572130203247e-01 1.096032634377479553e-01 -7.664798200130462646e-02
1.764000000000000000e+03 7.685769653320312500e+01 -2.799717903137207031e+00 3.174603730440139771e-02 -7.663555145263671875e-01 -2.203828394412994385e-01 -1.826157122850418091e-01
1.765000000000000000e+03 7.562165069580078125e+01 -5.552078247070312500e+00 2.735391072928905487e-02 -3.275382816791534424e-01 -9.005530923604965210e-02 -2.335657030344009399e-01
1.766000000000000000e+03 7.693060302734375000e+01 -9.713514328002929688e+00 1.236852444708347321e-02 -5.656518936157226562e-01 -1.659850031137466431e-01 -2.408273816108703613e-01
1.767000000000000000e+03 7.577806091308593750e+01 -1.246364974975585938e+01 1.774366013705730438e-02 -3.013281822204589844e-01 -8.507535606622695923e-02 -3.025546967983245850e-01
1.768000000000000000e+03 7.582030487060546875e+01 8.403903007507324219e+00 7.954106666147708893e-03 -3.190517723560333252e-01 -9.332929551601409912e-02 5.256003886461257935e-02
1.769000000000000000e+03 7.342074584960937500e+01 1.411151123046875000e+01 -2.976538985967636108e-02 7.378006577491760254e-01 2.124105840921401978e-01 -2.507687732577323914e-02
1.770000000000000000e+03 7.218357086181640625e+01 1.009332275390625000e+01 -8.957015722990036011e-02 1.391365289688110352e+00 3.905385434627532959e-01 1.911832951009273529e-02
1.771000000000000000e+03 7.571971130371093750e+01 1.399567699432373047e+01 -2.102320268750190735e-02 -3.010980188846588135e-01 -9.663636982440948486e-02 -5.085999611765146255e-03
1.772000000000000000e+03 7.572711944580078125e+01 1.259601879119873047e+01 -3.589287772774696350e-02 -2.888908684253692627e-01 -9.743512421846389771e-02 5.246388260275125504e-03
1.773000000000000000e+03 7.456455993652343750e+01 9.748995780944824219e+00 -4.105284437537193298e-02 2.557265460491180420e-01 6.440211087465286255e-02 4.012796655297279358e-02
1.774000000000000000e+03 7.453125000000000000e+01 2.841124057769775391e+00 1.227559745311737061e-01 2.411089688539505005e-01 1.091594845056533813e-01 -3.697613254189491272e-02
1.775000000000000000e+03 7.582332611083984375e+01 7.056169033050537109e+00 4.272755607962608337e-02 -3.330495059490203857e-01 -8.709657937288284302e-02 4.558406770229339600e-02
1.776000000000000000e+03 7.342246246337890625e+01 2.886166572570800781e+00 1.449577510356903076e-01 8.057302832603454590e-01 2.852064073085784912e-01 -1.335050072520971298e-02
1.777000000000000000e+03 7.386685180664062500e+01 7.763698577880859375e+00 2.763472311198711395e-02 5.966727137565612793e-01 1.872922331094741821e-01 3.779152035713195801e-02
1.778000000000000000e+03 7.570160675048828125e+01 4.245693206787109375e+00 7.828401774168014526e-02 -2.952520847320556641e-01 -6.509042531251907349e-02 -1.147797703742980957e-02
1.779000000000000000e+03 7.694863891601562500e+01 1.810168457031250000e+01 7.652846165001392365e-03 -8.683161735534667969e-01 -2.581990063190460205e-01 -3.054923610761761665e-03
1.780000000000000000e+03 7.572801208496093750e+01 1.539861583709716797e+01 -7.383867632597684860e-03 -3.056364655494689941e-01 -9.390609711408615112e-02 -1.681055501103401184e-02
1.781000000000000000e+03 7.576477813720703125e+01 2.071882820129394531e+01 3.412863984704017639e-02 -3.350940346717834473e-01 -9.028961509466171265e-02 1.772256568074226379e-02
1.782000000000000000e+03 7.695262145996093750e+01 1.944518089294433594e+01 1.498129777610301971e-02 -8.720450401306152344e-01 -2.571191191673278809e-01 6.367671303451061249e-03
1.783000000000000000e+03 7.684656524658203125e+01 -1.415207862854003906e+00 3.648924827575683594e-02 -7.915154695510864258e-01 -2.265078723430633545e-01 -1.598462909460067749e-01
1.784000000000000000e+03 7.313005065917968750e+01 -5.221837997436523438e+00 6.285254657268524170e-02 4.126826524734497070e-01 1.426605582237243652e-01 -1.358700543642044067e-01
1.785000000000000000e+03 7.323957824707031250e+01 -1.462869167327880859e+00 1.207069531083106995e-01 6.487785577774047852e-01 2.308456599712371826e-01 -9.244185686111450195e-02
1.786000000000000000e+03 7.328859710693359375e+01 -2.581718564033508301e-02 1.477530747652053833e-01 7.321749329566955566e-01 2.639783918857574463e-01 -6.395293772220611572e-02
1.787000000000000000e+03 7.445786285400390625e+01 -2.813048124313354492e+00 5.904883518815040588e-02 1.181004121899604797e-01 5.314477533102035522e-02 -1.830330491065979004e-01
1.788000000000000000e+03 7.693461608886718750e+01 2.479139328002929688e+01 5.662481486797332764e-02 -8.372659087181091309e-01 -2.341923266649246216e-01 9.845302999019622803e-02
1.789000000000000000e+03 7.572558593750000000e+01 2.202151870727539062e+01 2.428311295807361603e-02 -3.342057764530181885e-01 -9.297679364681243896e-02 2.769876085221767426e-02
1.790000000000000000e+03 7.689972686767578125e+01 -8.318356513977050781e+00 1.361390762031078339e-02 -6.164797544479370117e-01 -1.808597445487976074e-01 -2.338126748800277710e-01
1.791000000000000000e+03 7.563169097900390625e+01 -6.940445423126220703e+00 2.128059975802898407e-02 -3.281639814376831055e-01 -9.206502139568328857e-02 -2.500716745853424072e-01
1.792000000000000000e+03 7.215621948242187500e+01 2.450576782226562500e+01 1.398589015007019043e-01 1.191703200340270996e+00 3.994686305522918701e-01 -2.857992425560951233e-02
1.793000000000000000e+03 7.385704040527343750e+01 2.370971107482910156e+01 1.312792301177978516e-01 4.958208203315734863e-01 1.881300061941146851e-01 1.152521837502717972e-02
1.794000000000000000e+03 7.474712371826171875e+01 -1.110153293609619141e+01 3.903510794043540955e-02 -1.758829057216644287e-01 -4.105433821678161621e-02 -2.935124337673187256e-01
1.795000000000000000e+03 7.577008819580078125e+01 -9.735249519348144531e+00 2.393886633217334747e-02 -3.439993560314178467e-01 -9.601814299821853638e-02 -2.714729011058807373e-01
1.796000000000000000e+03 7.596726226806640625e+01 -1.648257064819335938e+01 -4.820346459746360779e-02 -1.814411580562591553e-01 -6.889338791370391846e-02 -2.851626276969909668e-01
1.797000000000000000e+03 7.609778594970703125e+01 -1.776729965209960938e+01 -6.920108199119567871e-02 -1.369607895612716675e-01 -6.184855848550796509e-02 -2.513353824615478516e-01
1.798000000000000000e+03 7.581790161132812500e+01 -1.516046333312988281e+01 -1.715614832937717438e-02 -2.285535335540771484e-01 -7.371290028095245361e-02 -3.082115650177001953e-01
1.799000000000000000e+03 7.575293731689453125e+01 -1.381143283843994141e+01 -3.582848701626062393e-03 -2.681144177913665771e-01 -8.150918036699295044e-02 -3.080047070980072021e-01
1.800000000000000000e+03 7.652760314941406250e+01 3.175763893127441406e+01 -1.197292818687856197e-03 -5.747048854827880859e-01 -1.727706491947174072e-01 2.443439066410064697e-01
1.801000000000000000e+03 7.531451416015625000e+01 2.871759414672851562e+01 7.996797561645507812e-02 -2.339347302913665771e-01 -4.619002714753150940e-02 2.143970727920532227e-01
1.802000000000000000e+03 7.136855316162109375e+01 3.239859771728515625e+01 6.898216437548398972e-03 6.889032125473022461e-01 2.087404280900955200e-01 8.373410254716873169e-02
1.803000000000000000e+03 7.654049682617187500e+01 3.446673202514648438e+01 -2.967445552349090576e-02 -4.732131958007812500e-01 -1.508662998676300049e-01 2.215067446231842041e-01
1.804000000000000000e+03 7.614316558837890625e+01 -1.904118156433105469e+01 -9.870014339685440063e-02 -8.549867570400238037e-02 -5.525964871048927307e-02 -1.976381391286849976e-01
1.805000000000000000e+03 7.476589202880859375e+01 -2.303172492980957031e+01 -9.820543229579925537e-02 -3.488773945719003677e-03 -3.050826117396354675e-02 -1.592341437935829163e-02
1.806000000000000000e+03 7.402394104003906250e+01 3.384544372558593750e+01 -5.891540646553039551e-02 4.086600989103317261e-02 -5.414819344878196716e-03 2.437222301959991455e-01
1.807000000000000000e+03 4.812845993041992188e+01 -9.009995460510253906e+00 4.971966700395569205e-05 7.904291123850271106e-06 1.728718780213966966e-05 1.695205173746217042e-05
1.808000000000000000e+03 4.766862869262695312e+01 -1.147095680236816406e+01 -4.176586662651970983e-05 -8.276510016003157943e-06 -1.501271253800950944e-05 -1.710993456072174013e-05
1.809000000000000000e+03 3.994287109375000000e+01 -1.690097808837890625e+01 9.952964319381862879e-06 5.325422080204589292e-06 4.583515874401200563e-06 2.663401801328291185e-06
1.810000000000000000e+03 3.806145477294921875e+01 -1.476598930358886719e+01 1.407219860993791372e-05 5.089874775876523927e-06 5.748621788370655850e-06 3.425317117944359779e-06
1.811000000000000000e+03 7.457502746582031250e+01 1.546661949157714844e+01 -3.585256403312087059e-03 2.106247991323471069e-01 6.211186200380325317e-02 -1.578421890735626221e-02
1.812000000000000000e+03 4.737599563598632812e+01 -1.036418437957763672e+01 4.279069253243505955e-05 1.011780750559410080e-05 1.587255064805503935e-05 1.882705510070081800e-05
1.813000000000000000e+03 4.585970878601074219e+00 2.198024368286132812e+01 3.442901288508437574e-05 5.096424956718692556e-06 1.185763085231883451e-05 -1.198132935087414808e-07
1.814000000000000000e+03 3.108438968658447266e+00 1.955260467529296875e+01 -3.276762799941934645e-05 -1.006368529488099739e-05 -1.284939389734063298e-05 1.028370206768158823e-05
1.815000000000000000e+03 4.699921131134033203e+00 2.341002845764160156e+01 -4.001652996521443129e-05 -1.891604551929049194e-05 -1.767977300914935768e-05 2.014046367548871785e-05
1.816000000000000000e+03 4.762247562408447266e+00 2.627109718322753906e+01 -5.334102388587780297e-05 -1.134465856011956930e-05 -1.940570473379921168e-05 1.914355016197077930e-05
1.817000000000000000e+03 5.134733200073242188e+00 3.025275611877441406e+01 7.544014806626364589e-05 -4.308055213186889887e-05 9.707878234621603042e-06 8.409850124735385180e-06
1.818000000000000000e+03 3.054477930068969727e+00 1.816633033752441406e+01 2.867790863092523068e-05 7.617505161761073396e-06 1.088862427423009649e-05 -1.411094558534387033e-06
1.819000000000000000e+03 4.329631328582763672e+00 1.919319343566894531e+01 3.070622551604174078e-05 8.399512807955034077e-06 1.173172131530009210e-05 -1.196619450638536364e-06
1.820000000000000000e+03 4.265632629394531250e+00 1.783940887451171875e+01 -3.102771734120324254e-05 -1.443185556126991287e-05 -1.363787214359035715e-05 5.356608198781032115e-06
1.821000000000000000e+03 4.002040863037109375e+00 1.095382881164550781e+01 3.417109110159799457e-05 3.834090421150904149e-06 1.140155472967308015e-05 4.737843482871539891e-06
1.822000000000000000e+03 6.133250713348388672e+00 2.307873153686523438e+01 3.785013541346415877e-05 2.730047526711132377e-06 1.217405497300205752e-05 -1.272880467695358675e-06
1.823000000000000000e+03 4.735579490661621094e+00 2.485203552246093750e+01 4.461621574591845274e-05 -8.750217602937482297e-06 1.075979980669217184e-05 -3.620536972448462620e-06
1.824000000000000000e+03 4.030718326568603516e+00 1.234675025939941406e+01 -3.567263047443702817e-05 4.700748661434772657e-07 -1.056076598615618423e-05 -5.621253876597620547e-06
1.825000000000000000e+03 4.077544689178466797e+00 1.374521636962890625e+01 3.345734512549825013e-05 4.085251021024305373e-06 1.126277857110835612e-05 8.232947948272340000e-06
1.826000000000000000e+03 4.142649173736572266e+00 1.512057590484619141e+01 -3.372368155396543443e-05 -6.121116712165530771e-06 -1.195343884319299832e-05 -5.214777047513052821e-06
1.827000000000000000e+03 4.926353931427001953e+00 2.895876693725585938e+01 -6.641319487243890762e-05 -5.058790065959328786e-06 -2.144159589079208672e-05 1.786934262781869620e-05
1.828000000000000000e+03 6.481482982635498047e+00 3.617544555664062500e+01 2.818138636939693242e-05 7.318802090594545007e-06 1.065005653799744323e-05 4.686828833655454218e-05
1.829000000000000000e+03 4.403571128845214844e+00 3.492733383178710938e+01 3.891328378813341260e-05 -1.546892963233403862e-05 7.033305791992461309e-06 2.987907464557792991e-05
1.830000000000000000e+03 2.557223796844482422e+00 7.205482006072998047e+00 2.787475750665180385e-05 -7.450848897860851139e-07 8.138901648635510355e-06 -1.489979240432148799e-06
1.831000000000000000e+03 6.944652557373046875e+00 3.084667968750000000e+01 8.280750625999644399e-05 -4.218077447148971260e-05 1.218802026414778084e-05 6.359273356792982668e-06
1.832000000000000000e+03 2.405473470687866211e+00 5.943961620330810547e+00 -2.461760777805466205e-05 4.579354026645887643e-06 -6.011476216372102499e-06 1.845173187575710472e-06
1.833000000000000000e+03 5.492584228515625000e+00 5.213671684265136719e+00 1.874742520158179104e-05 6.416440101020270959e-06 7.549159818154294044e-06 -5.816036150463332888e-07
1.834000000000000000e+03 3.506118392944335938e+01 -1.402140998840332031e+01 -1.324846380157396197e-05 -3.872527940984582528e-06 -5.136297659191768616e-06 -4.426192390383221209e-06
1.835000000000000000e+03 7.182235717773437500e+01 -9.310260772705078125e+00 9.564555436372756958e-02 3.988906443119049072e-01 1.483608633279800415e-01 -1.166023463010787964e-01
1.836000000000000000e+03 7.316548156738281250e+01 2.220384597778320312e+01 6.334152817726135254e-02 8.344452977180480957e-01 2.693360447883605957e-01 -9.797819890081882477e-03
1.837000000000000000e+03 7.445905303955078125e+01 -4.153343200683593750e+00 5.426492914557456970e-02 8.139016479253768921e-02 4.069652780890464783e-02 -1.952395737171173096e-01
1.838000000000000000e+03 7.002867889404296875e+01 3.188897895812988281e+01 9.063263237476348877e-02 9.646306037902832031e-01 3.165789842605590820e-01 -9.301634877920150757e-02
1.839000000000000000e+03 3.932491683959960938e+01 1.504654216766357422e+01 2.210848615504801273e-04 -9.979600690712686628e-06 6.333157944027334452e-05 -2.146008046111091971e-05
1.840000000000000000e+03 6.758329772949218750e+01 -1.098656272888183594e+01 3.249259293079376221e-01 7.359551787376403809e-01 3.182643353939056396e-01 3.095379173755645752e-01
1.841000000000000000e+03 7.224617004394531250e+01 1.491436958312988281e+00 1.788101941347122192e-01 1.346935868263244629e+00 4.577238261699676514e-01 3.445770964026451111e-02
1.842000000000000000e+03 7.202956390380859375e+01 -1.467998147010803223e+00 1.350476741790771484e-01 1.176997661590576172e+00 3.936136066913604736e-01 1.888873241841793060e-02
1.843000000000000000e+03 4.056509780883789062e+01 2.479406547546386719e+01 -7.442022324539721012e-04 1.086262273020111024e-04 -1.906727993628010154e-04 -6.904337351443246007e-05
1.844000000000000000e+03 6.946279907226562500e+01 -1.195251178741455078e+01 2.145404815673828125e-01 4.190815091133117676e-01 1.900865882635116577e-01 9.184576338157057762e-04
1.845000000000000000e+03 7.032691192626953125e+01 -8.985667228698730469e+00 1.423690021038055420e-01 6.661040782928466797e-01 2.425419390201568604e-01 5.578899011015892029e-02
1.846000000000000000e+03 7.333152008056640625e+01 -4.098151683807373047e+00 6.291978061199188232e-02 4.387307465076446533e-01 1.504951566457748413e-01 -1.428622603416442871e-01
1.847000000000000000e+03 3.925734710693359375e+01 8.365488052368164062e+00 -1.130027158069424331e-04 1.372812039335258305e-05 -2.978237716888543218e-05 -4.501001603784970939e-05
1.848000000000000000e+03 7.132542419433593750e+01 -8.350768089294433594e+00 1.098533123731613159e-01 5.913845896720886230e-01 2.103713750839233398e-01 -4.367737472057342529e-02
1.849000000000000000e+03 7.147802734375000000e+01 -7.268812179565429688e+00 9.292418509721755981e-02 6.387192606925964355e-01 2.194930315017700195e-01 -3.151818364858627319e-02
1.850000000000000000e+03 7.304028320312500000e+01 6.849194049835205078e+00 8.682321012020111084e-02 1.036780595779418945e+00 3.370811343193054199e-01 2.870795130729675293e-02
1.851000000000000000e+03 7.348013305664062500e+01 4.326609134674072266e+00 1.146397143602371216e-01 7.751095890998840332e-01 2.669247984886169434e-01 -3.191470867022871971e-03
1.852000000000000000e+03 3.937083053588867188e+01 2.180438041687011719e+01 -4.595631035044789314e-04 2.726792263274546713e-05 -1.296885602641850710e-04 -4.640060069505125284e-05
1.853000000000000000e+03 7.580467987060546875e+01 2.461483001708984375e+01 8.644933998584747314e-02 -3.615255653858184814e-01 -8.252286911010742188e-02 8.836144208908081055e-02
1.854000000000000000e+03 7.340629577636718750e+01 -2.234356689453125000e+01 -2.329283803701400757e-01 3.967132419347763062e-02 -5.797711759805679321e-02 -1.610777713358402252e-02
1.855000000000000000e+03 4.191122817993164062e+01 2.420185279846191406e+01 1.663005241425707936e-04 -5.755371239501982927e-05 3.262404061388224363e-05 -2.103872247971594334e-04
1.856000000000000000e+03 4.553034973144531250e+01 3.592672348022460938e+01 -8.515563677065074444e-04 5.683875642716884613e-04 -8.495062502333894372e-05 2.280444838106632233e-03
1.857000000000000000e+03 6.654799652099609375e+01 -1.128123378753662109e+01 4.406317770481109619e-01 8.259402513504028320e-01 3.799716234207153320e-01 4.424413740634918213e-01
1.858000000000000000e+03 7.210821533203125000e+01 8.898265838623046875e+00 -9.478501975536346436e-03 1.429753065109252930e+00 4.260823428630828857e-01 3.222415968775749207e-02
1.859000000000000000e+03 7.116699981689453125e+01 2.915525436401367188e+01 2.130266427993774414e-01 1.123994469642639160e+00 4.011063277721405029e-01 -5.547070130705833435e-02
1.860000000000000000e+03 7.476035308837890625e+01 2.436863517761230469e+01 1.062270998954772949e-01 6.757396459579467773e-02 5.214032158255577087e-02 6.478640437126159668e-02
1.861000000000000000e+03 7.448534393310546875e+01 2.553527641296386719e+01 1.088568493723869324e-01 1.211037635803222656e-01 6.898818165063858032e-02 7.702957093715667725e-02
1.862000000000000000e+03 3.797548294067382812e+01 -1.589444351196289062e+01 -8.962736501416657120e-06 -4.840394922211999074e-06 -4.140939381613861769e-06 -1.704772444099944551e-06
1.863000000000000000e+03 3.742782211303710938e+01 -1.235872745513916016e+01 -2.090565430989954621e-05 -5.636118203256046399e-06 -7.962532436067704111e-06 -7.070047558954684064e-06
1.864000000000000000e+03 7.372741699218750000e+01 2.992419815063476562e+01 8.909574151039123535e-02 2.356641292572021484e-01 9.742795675992965698e-02 2.049264758825302124e-01
1.865000000000000000e+03 3.835913085937500000e+01 1.134918880462646484e+01 -1.132128672907128930e-04 3.014180038007907569e-06 -3.305960490251891315e-05 -6.185299571370705962e-05
1.866000000000000000e+03 6.075061798095703125e+01 3.785280990600585938e+01 3.847712650895118713e-03 1.186886057257652283e-01 3.676089644432067871e-02 -1.040686890482902527e-01
1.867000000000000000e+03 7.269186401367187500e+01 2.028141975402832031e+01 3.988656774163246155e-02 1.114320755004882812e+00 3.462621867656707764e-01 -1.927448436617851257e-02
1.868000000000000000e+03 6.728311157226562500e+01 4.144894790649414062e+01 -2.305909246206283569e-01 4.521510004997253418e-01 6.646802276372909546e-02 -2.586742304265499115e-02
1.869000000000000000e+03 4.613312911987304688e+01 -6.843174934387207031e+00 -4.849066317547112703e-05 -1.569487722008489072e-05 -1.925566175486892462e-05 -2.309293995494954288e-05
1.870000000000000000e+03 4.595362091064453125e+01 -9.450249671936035156e+00 3.775284858420491219e-05 1.498998517490690574e-05 1.582285040058195591e-05 2.321296415175311267e-05
1.871000000000000000e+03 3.976300430297851562e+01 6.924708366394042969e+00 1.063390736817382276e-04 -2.213972578601897112e-07 3.183530134265311062e-05 5.272903945297002792e-05
1.872000000000000000e+03 6.257334518432617188e+01 4.144703292846679688e+01 -8.852476626634597778e-02 2.884965538978576660e-01 5.999153852462768555e-02 -3.787330165505409241e-02
1.873000000000000000e+03 5.158832168579101562e+01 4.092615890502929688e+01 1.169004943221807480e-02 -5.494234501384198666e-04 3.342187963426113129e-03 2.893655095249414444e-03
1.874000000000000000e+03 7.511293029785156250e+01 3.312363052368164062e+01 -2.240213565528392792e-02 -1.780456453561782837e-01 -6.013433262705802917e-02 2.604832947254180908e-01
1.875000000000000000e+03 3.882667922973632812e+01 2.025901222229003906e+01 1.877172326203435659e-04 -2.208728619734756649e-05 4.968898429069668055e-05 -7.519279461121186614e-05
1.876000000000000000e+03 4.251625823974609375e+01 3.180044746398925781e+01 -1.290290383622050285e-03 5.696762818843126297e-04 -2.161842421628534794e-04 7.398823508992791176e-04
1.877000000000000000e+03 4.492852020263671875e+01 2.934749794006347656e+01 -5.613788962364196777e-04 6.137757281976519153e-06 -1.665723393671214581e-04 -6.654912722297012806e-04
1.878000000000000000e+03 7.328646087646484375e+01 3.838743591308593750e+01 -1.671586781740188599e-01 1.013419404625892639e-01 -1.974502019584178925e-02 1.158243417739868164e-01
1.879000000000000000e+03 7.331263732910156250e+01 3.531612014770507812e+01 -1.129115298390388489e-01 1.417802572250366211e-01 8.660618215799331665e-03 1.984289884567260742e-01
1.880000000000000000e+03 5.683138656616210938e+01 -2.369786453247070312e+01 -5.516427159309387207e-01 3.281721770763397217e-01 -6.704115122556686401e-02 1.196484714746475220e-01
1.881000000000000000e+03 6.902163982391357422e+00 5.223818778991699219e+00 1.501604401710210368e-05 8.043591151363216341e-06 6.917890459590125829e-06 -2.074595158774172887e-06
1.882000000000000000e+03 3.154331922531127930e+00 4.584969043731689453e+00 -7.332086624955991283e-06 -4.326022462919354439e-06 -3.497432771837338805e-06 8.826151315588504076e-06
1.883000000000000000e+03 7.578073501586914062e+00 7.040503501892089844e+00 1.310219704464543611e-05 9.681693882157560438e-06 6.835167368990369141e-06 1.621384399186354131e-05
1.884000000000000000e+03 5.368120670318603516e+00 6.060891628265380859e+00 -3.276358256698586047e-05 4.595432073983829468e-06 -8.450445420749019831e-06 -1.131504541262984276e-05
1.885000000000000000e+03 2.771253395080566406e+01 -9.610482215881347656e+00 -2.664292821918934351e-07 2.020152123805019073e-06 5.261168212200573180e-07 -2.793573457893216982e-06
1.886000000000000000e+03 7.121639251708984375e+00 4.378410339355468750e+00 -1.092093134502647445e-05 -5.230428541835863143e-06 -4.845408057008171454e-06 -4.925776011077687144e-06
1.887000000000000000e+03 8.212065696716308594e+00 5.526745319366455078e+00 9.172225873044226319e-06 1.192420040752040222e-05 6.328927611320978031e-06 7.264788564498303458e-06
1.888000000000000000e+03 4.451333522796630859e+00 4.248436450958251953e+00 -1.230259204021422192e-05 -1.012924349197419360e-05 -6.729550932504935190e-06 -1.236940988746937364e-05
1.889000000000000000e+03 5.036672592163085938e+01 -1.543430995941162109e+01 -3.123578062513843179e-05 1.063627769326558337e-05 -6.179851425258675590e-06 2.536158035582047887e-06
1.890000000000000000e+03 2.897525596618652344e+01 -1.285983848571777344e+01 -1.056502424034988508e-05 1.585729819453263190e-06 -2.693788246688200161e-06 -7.347543032665271312e-06
1.891000000000000000e+03 3.003507423400878906e+01 -1.200349712371826172e+01 8.108429028652608395e-06 8.418151992373168468e-06 4.957974397257203236e-06 9.436473192181438208e-06
1.892000000000000000e+03 4.777149200439453125e+01 -1.542835807800292969e+01 -7.179534350143512711e-06 -7.860576261009555310e-06 -4.512033228820655495e-06 -1.262825571757275611e-05
1.893000000000000000e+03 4.553223419189453125e+01 -1.667215919494628906e+01 1.110147240979131311e-05 5.998278538754675537e-06 5.129925284563796595e-06 7.417993856506654993e-06
1.894000000000000000e+03 4.886760330200195312e+01 -1.576954269409179688e+01 -1.627105302759446204e-05 -6.671011306025320664e-06 -6.882619345560669899e-06 -1.659443296375684440e-05
1.895000000000000000e+03 4.911037826538085938e+01 -1.358826923370361328e+01 4.300671935197897255e-05 -5.262770628178259358e-07 1.274413261853624135e-05 1.372658334730658680e-05
1.896000000000000000e+03 3.167358589172363281e+01 -1.332727718353271484e+01 1.910800347104668617e-05 1.211907829201663844e-06 6.095973276387667283e-06 -2.859390406229067594e-06
1.897000000000000000e+03 1.699174880981445312e+01 2.880097866058349609e+00 -4.151029497734270990e-05 1.824609717004932463e-05 -6.979259069339605048e-06 1.156663802248658612e-05
1.898000000000000000e+03 6.408999633789062500e+01 -1.891720581054687500e+01 5.688164755702018738e-02 4.801536351442337036e-02 3.146910294890403748e-02 4.760094452649354935e-03
1.899000000000000000e+03 6.746345520019531250e+01 -1.914094543457031250e+01 -3.846921920776367188e-01 -2.655335068702697754e-01 -1.950677037239074707e-01 -2.964103519916534424e-01
1.900000000000000000e+03 2.635221290588378906e+01 -8.789731025695800781e+00 2.280861963299685158e-06 5.985317557133384980e-07 8.638181157039070968e-07 -6.160533985166694038e-07
1.901000000000000000e+03 2.507977676391601562e+01 -5.506830215454101562e+00 8.998012162919621915e-06 -5.599393261945806444e-06 1.019585738504247274e-06 4.413568149175262079e-06
1.902000000000000000e+03 2.293386840820312500e+01 -3.974786281585693359e+00 8.741543751966673881e-06 -5.428462827694602311e-06 9.939242318068863824e-07 8.684452041052281857e-06
1.903000000000000000e+03 2.266655540466308594e+01 -1.519273281097412109e+00 4.848080266128818039e-07 -6.102412044128868729e-06 -1.685281176833086647e-06 1.790801252354867756e-05
1.904000000000000000e+03 1.982230377197265625e+01 -9.396973252296447754e-01 1.271084784093545750e-05 -8.688902539688569959e-07 3.552587259036954492e-06 -2.110606510541401803e-05
1.905000000000000000e+03 1.954853820800781250e+01 2.470018267631530762e-01 2.098010554618667811e-05 -3.823171482508769259e-06 5.147080173628637567e-06 -2.325408968317788094e-05
1.906000000000000000e+03 2.650714302062988281e+01 -7.624587535858154297e+00 3.343684227274934528e-07 5.325721303961472586e-07 2.600821744636050425e-07 -2.083926574414363131e-06
1.907000000000000000e+03 4.398287200927734375e+01 -1.637834548950195312e+01 -1.058782436302863061e-05 -5.328427050699247047e-06 -4.774875378643628210e-06 -5.714859412364603486e-07
1.908000000000000000e+03 4.253662109375000000e+01 -1.653037261962890625e+01 -1.042363601300166920e-05 -6.591933924937620759e-06 -5.104671345179667696e-06 -6.603307156183291227e-06
1.909000000000000000e+03 4.666886901855468750e+01 -1.537960624694824219e+01 7.014280527073424309e-06 -1.474075816076947376e-05 -2.317943426533020101e-06 -1.004456589726032689e-05
1.910000000000000000e+03 6.632827758789062500e+01 -1.644839096069335938e+01 3.281522691249847412e-01 4.807488620281219482e-02 1.128681525588035583e-01 7.181872427463531494e-02
1.911000000000000000e+03 4.527970504760742188e+01 -1.588318443298339844e+01 -1.482246898376615718e-05 -6.002348982292460278e-06 -6.247445526241790503e-06 -1.002842236630385742e-05
1.912000000000000000e+03 4.172016525268554688e+01 -1.664213562011718750e+01 9.094142114918213338e-06 7.484055913664633408e-06 4.973459454049589112e-06 5.124331892147893086e-06
1.913000000000000000e+03 4.329609680175781250e+01 -1.643989181518554688e+01 1.436283673683647066e-05 3.853638645523460582e-06 5.464942660182714462e-06 5.726932158722775057e-06
1.914000000000000000e+03 4.330056381225585938e+01 -1.563204193115234375e+01 -1.873804831120651215e-05 -3.627338855949346907e-06 -6.709616172884125262e-06 -1.230824909725924954e-05
1.915000000000000000e+03 2.503756904602050781e+01 -6.708900451660156250e+00 7.871502020861953497e-06 -4.410953806655015796e-06 1.038164327837876044e-06 1.471662699259468354e-06
1.916000000000000000e+03 2.558319473266601562e+01 -6.214961051940917969e+00 -1.027653297569486313e-06 2.825179763021878898e-06 5.392579396357177757e-07 -5.136301751917926595e-06
1.917000000000000000e+03 4.607233047485351562e+01 -1.575570297241210938e+01 1.666508615016937256e-05 2.853772912203567103e-06 5.855657946085557342e-06 6.674543783447006717e-06
1.918000000000000000e+03 2.732798004150390625e+01 -8.971515655517578125e+00 3.024610577995190397e-06 -2.119025111824157648e-06 2.716756455356517108e-07 1.633766970599026536e-07
1.919000000000000000e+03 2.455112457275390625e+01 -4.802115917205810547e+00 -9.723041785036912188e-07 4.413227543409448117e-06 1.032277054946462158e-06 -8.928731404012069106e-06
1.920000000000000000e+03 1.663553619384765625e+01 2.189389228820800781e+00 3.568880856619216502e-05 -1.340937978966394439e-05 6.683828814857406542e-06 -1.502785926277283579e-05
1.921000000000000000e+03 2.342165565490722656e+01 -3.426083564758300781e+00 8.904855235414288472e-07 5.104074261907953769e-06 1.798367861738370266e-06 -1.356469238089630380e-05
1.922000000000000000e+03 1.884451675415039062e+01 7.715358138084411621e-01 -2.026317815762013197e-05 8.504007382725831121e-06 -3.527751005094614811e-06 1.894959132187068462e-05
1.923000000000000000e+03 2.090793609619140625e+01 -8.816650509834289551e-01 1.194577362184645608e-05 1.157247879746137187e-06 3.930906586901983246e-06 -2.198832044086884707e-05
1.924000000000000000e+03 2.047986602783203125e+01 -1.500209927558898926e+00 -2.129538216877335799e-07 8.383169358694431139e-08 -3.873663700915130903e-08 1.600360883458051831e-05
1.925000000000000000e+03 2.809247589111328125e+01 -1.021716308593750000e+01 8.285307558253407478e-06 -4.666168024414218962e-06 1.085741928363859188e-06 1.195177219415199943e-06
1.926000000000000000e+03 3.053677940368652344e+01 -1.390171813964843750e+01 2.061728446278721094e-05 4.932713295602297876e-07 6.333166766125941649e-06 1.289193619413708802e-06
1.927000000000000000e+03 1.407847976684570312e+01 2.688391923904418945e+00 3.232129165553487837e-05 -1.296586196986027062e-05 5.806628450955031440e-06 -9.222388143825810403e-06
1.928000000000000000e+03 1.238951683044433594e+01 4.661778926849365234e+00 6.945322638785000890e-06 -2.894487624871544540e-05 -6.599866082979133353e-06 -2.264789145556278527e-05
1.929000000000000000e+03 2.605940246582031250e+01 -6.923125267028808594e+00 7.444146831403486431e-06 -3.476118081380263902e-06 1.190408738693804480e-06 1.113781422645843122e-06
1.930000000000000000e+03 7.400647735595703125e+01 -1.974440383911132812e+01 -2.134658396244049072e-01 8.611625991761684418e-03 -6.145626679062843323e-02 -2.321879863739013672e-01
1.931000000000000000e+03 1.440570068359375000e+01 3.388210058212280273e+00 -3.534734423737972975e-05 1.703077759884763509e-05 -5.494970537256449461e-06 2.377212695137131959e-06
1.932000000000000000e+03 2.399832344055175781e+01 -4.107183933258056641e+00 8.784707461018115282e-06 -6.729509550496004522e-06 6.165594186313683167e-07 8.488143976137507707e-06
1.933000000000000000e+03 1.774711227416992188e+01 2.431211709976196289e+00 3.956779983127489686e-05 -1.368636185361538082e-05 7.764430847601033747e-06 -1.852912646427284926e-05
1.934000000000000000e+03 9.919251441955566406e+00 5.323058605194091797e+00 1.176347382170206401e-06 -1.419509953848319128e-05 -3.905625362676801160e-06 -1.658819201111327857e-05
1.935000000000000000e+03 1.514481544494628906e+01 3.007339239120483398e+00 3.720406675711274147e-05 -1.387165775668108836e-05 6.999723154876846820e-06 -8.795386747806333005e-06
1.936000000000000000e+03 4.787063217163085938e+01 -1.252112770080566406e+01 4.219414768158458173e-05 5.336197318683844060e-06 1.425910340913105756e-05 1.526614869362674654e-05
1.937000000000000000e+03 4.795601654052734375e+01 -1.352165603637695312e+01 -3.873734385706484318e-05 1.100558506550441962e-06 -1.129103475250303745e-05 -1.036549019772792235e-05
1.938000000000000000e+03 3.071462631225585938e+01 -1.197167682647705078e+01 -1.679517481534276158e-05 -4.586006980389356613e-06 -6.414354629669105634e-06 -1.169138886325526983e-05
1.939000000000000000e+03 3.261960601806640625e+01 -1.476994800567626953e+01 -4.576613264362094924e-06 -5.966766366327647120e-06 -3.163013843732187524e-06 -3.526731006786576472e-06
1.940000000000000000e+03 3.228731918334960938e+01 -1.367962646484375000e+01 -1.080226866179145873e-05 -3.419640734136919491e-06 -4.266572886990616098e-06 4.576408230150263989e-07
1.941000000000000000e+03 1.290793800354003906e+01 4.060282230377197266e+00 -3.827623004326596856e-05 2.379475881753023714e-05 -4.344441549619659781e-06 4.590624484990257770e-06
1.942000000000000000e+03 6.736444091796875000e+01 -1.455861091613769531e+01 3.256367444992065430e-01 2.580794692039489746e-01 1.751148551702499390e-01 1.025365218520164490e-01
1.943000000000000000e+03 4.099228286743164062e+01 -1.765949630737304688e+01 8.836785127641633153e-06 5.569010227191029117e-06 4.321738742874003947e-06 2.476756208125152625e-06
1.944000000000000000e+03 7.444645690917968750e+01 -1.445660471916198730e+00 9.007194638252258301e-02 1.594012528657913208e-01 7.484196126461029053e-02 -1.579486429691314697e-01
1.945000000000000000e+03 7.564344024658203125e+01 1.381819367408752441e+00 9.452416747808456421e-02 -2.965941131114959717e-01 -6.062098219990730286e-02 -9.317979961633682251e-02
1.946000000000000000e+03 7.575846862792968750e+01 1.678926658630371094e+01 1.365996245294809341e-02 -3.445185422897338867e-01 -9.925757348537445068e-02 -6.621048785746097565e-03
1.947000000000000000e+03 3.896408462524414062e+01 -1.591803264617919922e+01 1.164932200481416658e-05 5.649709692079341039e-06 5.189709554542787373e-06 1.498027813795488328e-06
1.948000000000000000e+03 8.854671478271484375e+00 5.809069633483886719e+00 -4.701621492131380364e-06 -1.115254781325347722e-05 -4.756250746140722185e-06 -1.587213228049222380e-05
1.949000000000000000e+03 4.357385635375976562e+01 -3.461136102676391602e+00 -4.490983701543882489e-05 -2.897592275985516608e-05 -2.216572829638607800e-05 -2.893378768931142986e-05
1.950000000000000000e+03 6.716415405273437500e+01 -1.810785484313964844e+01 -4.741214215755462646e-02 -1.824587285518646240e-01 -6.896126270294189453e-02 -2.033375650644302368e-01
1.951000000000000000e+03 4.412616729736328125e+01 -1.892857193946838379e+00 -5.875938586541451514e-05 -2.821553243848029524e-05 -2.609247530926950276e-05 -3.605484380386769772e-05
1.952000000000000000e+03 4.203115081787109375e+01 -2.553083658218383789e+00 -4.082918167114257812e-05 -2.922830208262894303e-05 -2.101724385283887386e-05 -2.363851308473385870e-05
1.953000000000000000e+03 4.152448272705078125e+01 -1.403799772262573242e+00 3.623859811341390014e-05 3.613239096011966467e-05 2.171129563066642731e-05 2.574299287516623735e-05
1.954000000000000000e+03 4.191701507568359375e+01 1.052665337920188904e-01 4.008826726931147277e-05 3.879706127918325365e-05 2.366559783695265651e-05 4.389975583762861788e-05
1.955000000000000000e+03 4.355949401855468750e+01 -6.783276200294494629e-01 5.943828364252112806e-05 3.366437886143103242e-05 2.793079875118564814e-05 4.191691186861135066e-05
1.956000000000000000e+03 3.611846542358398438e+01 5.742475986480712891e+00 -6.227663106983527541e-05 1.315608102459009388e-07 -1.864352088887244463e-05 -4.036561949760653079e-05
1.957000000000000000e+03 3.961376953125000000e+01 3.727251768112182617e+00 -8.154663373716175556e-05 -9.304245395469479263e-06 -2.725526428548619151e-05 -4.764518234878778458e-05
1.958000000000000000e+03 7.445485687255859375e+01 2.193204307556152344e+01 3.253883123397827148e-02 2.537667751312255859e-01 8.589167892932891846e-02 2.173030935227870941e-02
1.959000000000000000e+03 6.689357757568359375e+01 -1.711097335815429688e+01 1.264828592538833618e-01 -5.375479161739349365e-02 2.181842178106307983e-02 -9.436877071857452393e-02
1.960000000000000000e+03 6.784063720703125000e+01 -1.578018569946289062e+01 2.095818221569061279e-01 6.383700668811798096e-02 8.202564716339111328e-02 -7.053026556968688965e-02
1.961000000000000000e+03 3.426345062255859375e+01 -1.386353206634521484e+01 -1.772967607394093648e-06 1.088417320715961978e-05 2.733361725404392928e-06 1.286216502194292843e-05
1.962000000000000000e+03 3.598866653442382812e+01 -1.443565654754638672e+01 1.422279547114158049e-05 3.785218041230109520e-06 5.402403985499404371e-06 5.544309260585578158e-06
1.963000000000000000e+03 6.855433654785156250e+01 -1.126774692535400391e+01 2.708183825016021729e-01 6.029301285743713379e-01 2.621245384216308594e-01 1.594232022762298584e-01
1.964000000000000000e+03 3.725774765014648438e+01 -1.348938846588134766e+01 1.715497819532174617e-05 4.927050667902221903e-06 6.624608886340865865e-06 6.411201411538058892e-06
1.965000000000000000e+03 7.399310302734375000e+01 2.841217994689941406e+01 1.288200169801712036e-01 2.272704094648361206e-01 1.068271249532699585e-01 1.707138121128082275e-01
1.966000000000000000e+03 7.497478485107421875e+01 3.172349548339843750e+01 7.033213507384061813e-03 -1.497970223426818848e-01 -4.282914102077484131e-02 2.626393437385559082e-01
1.967000000000000000e+03 7.123451232910156250e+01 -1.697863960266113281e+01 -1.135388463735580444e-01 -9.618165902793407440e-03 -3.694710135459899902e-02 -3.725975155830383301e-01
1.968000000000000000e+03 7.510492706298828125e+01 -1.769871139526367188e+01 -1.057356819510459900e-01 -9.618083387613296509e-02 -6.057495623826980591e-02 -2.842215299606323242e-01
1.969000000000000000e+03 7.463925170898437500e+01 -1.238829803466796875e+01 3.151869773864746094e-02 -1.700702309608459473e-01 -4.156546294689178467e-02 -3.126398324966430664e-01
1.970000000000000000e+03 7.569758605957031250e+01 -8.342214584350585938e+00 2.079996839165687561e-02 -3.349630534648895264e-01 -9.424892067909240723e-02 -2.587599456310272217e-01
1.971000000000000000e+03 7.466620635986328125e+01 -9.797204971313476562e+00 3.883664309978485107e-02 -1.393788456916809082e-01 -3.016266040503978729e-02 -2.673344314098358154e-01
1.972000000000000000e+03 7.458098602294921875e+01 2.058459663391113281e+01 5.333042144775390625e-02 2.168231010437011719e-01 8.104605227708816528e-02 1.245336979627609253e-02
1.973000000000000000e+03 7.564239501953125000e+01 -1.432115912437438965e+00 6.265471130609512329e-02 -3.110817074775695801e-01 -7.452809810638427734e-02 -1.742411106824874878e-01
1.974000000000000000e+03 7.433547210693359375e+01 -5.530198574066162109e+00 4.415994510054588318e-02 6.582035869359970093e-02 3.299409151077270508e-02 -2.092975229024887085e-01
1.975000000000000000e+03 7.579501342773437500e+01 1.813434791564941406e+01 1.564336824230849743e-03 -3.489823043346405029e-01 -1.042253971099853516e-01 8.910874836146831512e-03
1.976000000000000000e+03 7.457162475585937500e+01 1.264264678955078125e+01 -5.383136495947837830e-02 2.386059165000915527e-01 5.543236434459686279e-02 -1.469525741413235664e-03
1.977000000000000000e+03 7.575406646728515625e+01 5.673843383789062500e+00 4.697559401392936707e-02 -3.244795501232147217e-01 -8.325118571519851685e-02 2.268996462225914001e-02
1.978000000000000000e+03 7.445812225341796875e+01 -3.835295140743255615e-02 1.179916486144065857e-01 2.025396674871444702e-01 9.615939855575561523e-02 -1.155605316162109375e-01
1.979000000000000000e+03 7.576136779785156250e+01 9.782096862792968750e+00 -3.759370371699333191e-02 -3.158972561359405518e-01 -1.060472875833511353e-01 3.711008280515670776e-02
1.980000000000000000e+03 7.457456207275390625e+01 1.122377777099609375e+01 -4.984678700566291809e-02 2.532605230808258057e-01 6.102412566542625427e-02 1.912206411361694336e-02
1.981000000000000000e+03 7.457587432861328125e+01 4.293276309967041016e+00 9.984843432903289795e-02 2.484656423330307007e-01 1.044942215085029602e-01 2.869811607524752617e-03
1.982000000000000000e+03 7.581732177734375000e+01 1.944168281555175781e+01 2.497441321611404419e-02 -3.404712080955505371e-01 -9.464903920888900757e-02 2.879717620089650154e-03
1.983000000000000000e+03 7.566706848144531250e+01 2.591580772399902344e+01 7.731338590383529663e-02 -3.346810936927795410e-01 -7.721030712127685547e-02 1.208608150482177734e-01
1.984000000000000000e+03 7.456769561767578125e+01 1.405305194854736328e+01 -2.723143808543682098e-02 2.296261489391326904e-01 6.071841344237327576e-02 -2.266071923077106476e-02
1.985000000000000000e+03 7.474549865722656250e+01 7.147585391998291016e+00 6.341971457004547119e-02 1.841771900653839111e-01 7.427906990051269531e-02 5.046435445547103882e-02
1.986000000000000000e+03 7.459555816650390625e+01 5.782243728637695312e+00 6.773669272661209106e-02 2.484987676143646240e-01 9.487063437700271606e-02 2.495635300874710083e-02
1.987000000000000000e+03 7.279793548583984375e+01 -1.853740310668945312e+01 -2.322202026844024658e-01 6.754246074706315994e-03 -6.763978302478790283e-02 -3.209264874458312988e-01
1.988000000000000000e+03 7.548849487304687500e+01 2.728754806518554688e+01 8.900330215692520142e-02 -2.888128459453582764e-01 -5.994286760687828064e-02 1.619950383901596069e-01
1.989000000000000000e+03 4.155479812622070312e+01 2.917484045028686523e+00 -7.958531205076724291e-05 -2.900424306062632240e-06 -2.474572102073580027e-05 -4.833427738049067557e-05
1.990000000000000000e+03 4.035947036743164062e+01 2.411808967590332031e+00 3.908336657332256436e-05 1.369692836306057870e-05 1.583408811711706221e-05 6.657821359112858772e-05
1.991000000000000000e+03 7.434782409667968750e+01 -6.971397399902343750e+00 3.286052867770195007e-02 1.096288487315177917e-02 1.314702443778514862e-02 -2.226825207471847534e-01
1.992000000000000000e+03 7.194931793212890625e+01 3.101648330688476562e+01 8.229331672191619873e-02 6.749600768089294434e-01 2.271760255098342896e-01 1.076486408710479736e-01
1.993000000000000000e+03 7.517478179931640625e+01 3.438261795043945312e+01 -5.614619702100753784e-02 -2.189247757196426392e-01 -8.252128958702087402e-02 2.356953024864196777e-01
1.994000000000000000e+03 7.199231719970703125e+01 3.436331939697265625e+01 -9.658031910657882690e-02 4.216319024562835693e-01 9.751547873020172119e-02 1.376729458570480347e-01
1.995000000000000000e+03 7.445520782470703125e+01 -1.375732040405273438e+01 1.130987424403429031e-02 -1.434057652950286865e-01 -3.962876647710800171e-02 -3.378335833549499512e-01
1.996000000000000000e+03 7.488920593261718750e+01 -1.651766586303710938e+01 -6.219820305705070496e-02 -1.255060136318206787e-01 -5.631126463413238525e-02 -3.262303471565246582e-01
1.997000000000000000e+03 4.660622406005859375e+01 -1.158026695251464844e+01 3.578896576073020697e-05 1.293413788516772911e-05 1.461693045712308958e-05 2.129827407770790160e-05
1.998000000000000000e+03 4.701572036743164062e+01 -9.215970039367675781e+00 -4.465334859560243785e-05 -1.064538082573562860e-05 -1.658961809880565852e-05 -2.012246659433003515e-05
1.999000000000000000e+03 4.826089382171630859e+00 2.764015007019042969e+01 5.709085235139355063e-05 -2.157802191504742950e-05 1.065384913090383634e-05 2.302260099895647727e-06
2.000000000000000000e+03 6.401510238647460938e+00 2.973593139648437500e+01 -8.147623884724453092e-05 5.648675141856074333e-06 -2.274827056680805981e-05 2.395138653810136020e-05
2.001000000000000000e+03 7.345954132080078125e+01 1.696767616271972656e+01 1.620990037918090820e-02 7.281922698020935059e-01 2.233206629753112793e-01 -6.239339243620634079e-03
2.002000000000000000e+03 7.655021667480468750e+01 -2.266566467285156250e+01 -6.849756091833114624e-02 -1.282863505184650421e-02 -2.439785934984683990e-02 -3.805798292160034180e-02
2.003000000000000000e+03 6.072749614715576172e+00 2.459175872802734375e+01 -5.173603494768030941e-05 -1.105012142943451181e-05 -1.883584627648815513e-05 2.358421807002741843e-05
2.004000000000000000e+03 7.513715362548828125e+01 -1.887532806396484375e+01 -1.284781247377395630e-01 -6.204947456717491150e-02 -5.715828016400337219e-02 -2.463385909795761108e-01
2.005000000000000000e+03 5.557707309722900391e+00 1.887204360961914062e+01 -2.944295374618377537e-05 -2.191108433180488646e-05 -1.540621087769977748e-05 1.218530724145239219e-05
2.006000000000000000e+03 5.509231567382812500e+00 1.754745292663574219e+01 2.260981636936776340e-05 1.877799331850837916e-05 1.241634254256496206e-05 9.310335371992550790e-06
2.007000000000000000e+03 6.198460578918457031e+00 2.733833312988281250e+01 -6.913349352544173598e-05 -7.580444162158528343e-06 -2.301418135175481439e-05 1.844799044192768633e-05
2.008000000000000000e+03 5.197900295257568359e+00 1.074995422363281250e+01 -4.710525900009088218e-05 1.915104576255544089e-06 -1.355704625893849880e-05 -1.351566061202902347e-05
2.009000000000000000e+03 5.135850906372070312e+00 1.215036201477050781e+01 3.993115387856960297e-05 4.328585845314592007e-08 1.199233247461961582e-05 1.628049722057767212e-05
2.010000000000000000e+03 6.289431571960449219e+00 3.445747756958007812e+01 -5.751684147980995476e-05 -3.526010914356447756e-05 -2.783308445941656828e-05 -2.074459189316257834e-05
2.011000000000000000e+03 5.940557479858398438e+00 2.158795928955078125e+01 -4.210327097098343074e-05 -2.098982804454863071e-05 -1.892792897706385702e-05 1.670264464337378740e-05
2.012000000000000000e+03 5.310247421264648438e+00 1.486028957366943359e+01 3.205874963896349072e-05 8.433753464487381279e-06 1.214775056723738089e-05 1.641234848648309708e-05
2.013000000000000000e+03 6.247533798217773438e+00 2.861779212951660156e+01 6.996835872996598482e-05 -3.884876423398964107e-05 9.335877621197141707e-06 1.730192707327660173e-05
2.014000000000000000e+03 7.413053894042968750e+01 -2.155608749389648438e+01 -2.028142809867858887e-01 3.023331612348556519e-02 -5.177428945899009705e-02 -1.091936081647872925e-01
2.015000000000000000e+03 3.842732191085815430e+00 8.178881645202636719e+00 3.096356158494018018e-05 -3.648336246442340780e-07 9.179618245980236679e-06 -3.430139940974186175e-06
2.016000000000000000e+03 6.797178649902343750e+01 -1.383758449554443359e+01 2.777393460273742676e-01 3.065294921398162842e-01 1.752806603908538818e-01 6.537122279405593872e-02
2.017000000000000000e+03 3.667636871337890625e+00 6.785513877868652344e+00 -2.255601611977908760e-05 4.413697297422913834e-06 -5.442695965029997751e-06 4.806964625458931550e-06
2.018000000000000000e+03 4.631697654724121094e+00 6.298660278320312500e+00 1.855551636253949255e-05 -3.025448336302360985e-07 5.475891612150007859e-06 -7.705805728619452566e-06
2.019000000000000000e+03 4.184778213500976562e+01 2.769168090820312500e+01 -1.111939200200140476e-03 2.293302095495164394e-04 -2.647826913744211197e-04 1.224439183715730906e-04
2.020000000000000000e+03 4.681199264526367188e+01 -1.255233955383300781e+01 -3.570389890228398144e-05 -9.831200259213801473e-06 -1.366052947560092434e-05 -2.039510036411229521e-05
2.021000000000000000e+03 6.932495880126953125e+01 -1.007909202575683594e+01 2.148997634649276733e-01 6.621651649475097656e-01 2.631194591522216797e-01 1.296569555997848511e-01
2.022000000000000000e+03 7.220188140869140625e+01 -7.898812294006347656e+00 7.107646763324737549e-02 4.265719056129455566e-01 1.492945104837417603e-01 -1.254207938909530640e-01
2.023000000000000000e+03 3.674351882934570312e+01 1.911793899536132812e+01 1.837941672420129180e-04 -7.984995136212091893e-06 5.274275463307276368e-05 -5.812395829707384109e-05
2.024000000000000000e+03 4.406532669067382812e+01 -4.711412429809570312e+00 4.204735523671843112e-05 2.825868432410061359e-05 2.109181150444783270e-05 2.723749094002414495e-05
2.025000000000000000e+03 7.324588775634765625e+01 -2.846861362457275391e+00 7.554255425930023193e-02 5.358787178993225098e-01 1.834263801574707031e-01 -1.248653382062911987e-01
2.026000000000000000e+03 3.907110214233398438e+01 5.155304431915283203e+00 9.049456275533884764e-05 4.384760359243955463e-06 2.846379720722325146e-05 5.649646118399687111e-05
2.027000000000000000e+03 7.235869598388671875e+01 -6.239010810852050781e+00 6.528015434741973877e-02 5.123389363288879395e-01 1.732857227325439453e-01 -9.252073615789413452e-02
2.028000000000000000e+03 7.106447601318359375e+01 -1.175209236145019531e+01 1.376629322767257690e-01 2.660414576530456543e-01 1.211113110184669495e-01 -1.462605893611907959e-01
2.029000000000000000e+03 6.982477569580078125e+01 3.600656509399414062e+01 -1.558459252119064331e-01 5.518702864646911621e-01 1.188073083758354187e-01 1.852816436439752579e-03
2.030000000000000000e+03 7.004028320312500000e+01 3.483562088012695312e+01 -1.006683185696601868e-01 6.357772350311279297e-01 1.605326831340789795e-01 1.074839662760496140e-02
2.031000000000000000e+03 7.239418029785156250e+01 2.955382347106933594e+01 1.452841162681579590e-01 6.776479482650756836e-01 2.468796074390411377e-01 1.007279977202415466e-01
2.032000000000000000e+03 3.862044525146484375e+01 2.395970535278320312e+01 -5.762174841947853565e-04 7.660550181753933430e-05 -1.498835918027907610e-04 -8.813368185656145215e-05
2.033000000000000000e+03 3.996884536743164062e+01 2.330156898498535156e+01 1.745184272294864058e-04 -5.053151107858866453e-05 3.719607411767356098e-05 -1.147639850387349725e-04
2.034000000000000000e+03 3.911730957031250000e+01 2.862943649291992188e+01 -3.308198938611894846e-04 2.102402504533529282e-04 -3.617389666032977402e-05 2.606206398922950029e-04
2.035000000000000000e+03 3.616522979736328125e+01 8.969485282897949219e+00 9.760571265360340476e-05 -2.156993105018045753e-05 2.281073466292582452e-05 3.498197474982589483e-05
2.036000000000000000e+03 7.332292175292968750e+01 2.492776107788085938e+01 1.357951909303665161e-01 6.576847434043884277e-01 2.380439788103103638e-01 1.776391267776489258e-02
2.037000000000000000e+03 3.704766845703125000e+01 -1.464375114440917969e+01 -1.105434876080835238e-05 -5.118000444781500846e-06 -4.851704943575896323e-06 -4.598532996169524267e-06
2.038000000000000000e+03 3.655863189697265625e+01 -1.218512535095214844e+01 1.938557215908076614e-05 7.293899670912651345e-06 8.003841685422230512e-06 9.336601578979752958e-06
2.039000000000000000e+03 7.072227478027343750e+01 3.924376296997070312e+01 -2.245053648948669434e-01 3.249893784523010254e-01 3.014520369470119476e-02 5.857771635055541992e-02
2.040000000000000000e+03 4.503602600097656250e+01 -7.171905517578125000e+00 3.981096961069852114e-05 2.045060864475090057e-05 1.807847365853376687e-05 2.352542651351541281e-05
2.041000000000000000e+03 7.332566833496093750e+01 -1.566008567810058594e+01 -4.009142890572547913e-02 -6.226691603660583496e-02 -3.070750460028648376e-02 -3.573820590972900391e-01
2.042000000000000000e+03 3.879707336425781250e+01 9.840051651000976562e+00 1.157054357463493943e-04 -5.342038548405980691e-06 3.310901956865563989e-05 5.292607238516211510e-05
2.043000000000000000e+03 3.853255462646484375e+01 6.574493885040283203e+00 -9.685222903499379754e-05 9.341028999187983572e-06 -2.625335946504492313e-05 -4.621086191036738455e-05
2.044000000000000000e+03 7.279672241210937500e+01 3.301517105102539062e+01 -3.170143067836761475e-02 3.136525154113769531e-01 8.458533138036727905e-02 1.939410269260406494e-01
2.045000000000000000e+03 4.005600357055664062e+01 1.013927459716796875e+01 -1.489479909650981426e-04 2.700403820199426264e-05 -3.658318382804282010e-05 -4.117098433198407292e-05
2.046000000000000000e+03 4.475105667114257812e+01 3.374839019775390625e+01 -1.555694499984383583e-03 8.689708192832767963e-04 -2.060170954791828990e-04 1.276065711863338947e-03
2.047000000000000000e+03 4.227527236938476562e+01 3.367065811157226562e+01 -8.761698263697326183e-04 3.569145628716796637e-04 -1.557765790494158864e-04 8.123227744363248348e-04
2.048000000000000000e+03 3.724106597900390625e+01 2.084164237976074219e+01 -3.671466547530144453e-04 9.239863175025675446e-06 -1.073720341082662344e-04 5.053282620792742819e-06
2.049000000000000000e+03 3.616318130493164062e+01 1.596018981933593750e+01 1.925133838085457683e-04 -1.354355026705889031e-05 5.369095015339553356e-05 -1.547996907902415842e-05
2.050000000000000000e+03 6.213897228240966797e+00 5.194078445434570312e+00 -1.943868846865370870e-05 -2.316286781933740713e-06 -6.526492597913602367e-06 -3.098135948675917462e-06
2.051000000000000000e+03 5.915414333343505859e+00 6.888679027557373047e+00 -3.515524440445005894e-05 3.395610747247701511e-06 -9.527891052130144089e-06 1.024925586534664035e-05
2.052000000000000000e+03 6.702647686004638672e+00 6.033989906311035156e+00 -1.718194835120812058e-05 -6.482766366389114410e-06 -7.099414233380230144e-06 -5.598476491286419332e-07
2.053000000000000000e+03 2.954281425476074219e+01 -1.076334095001220703e+01 -1.384223651257343590e-05 4.574655577016528696e-06 -2.780274371616542339e-06 1.843575660132046323e-06
2.054000000000000000e+03 2.990511703491210938e+01 -1.134719753265380859e+01 4.356940735306125134e-06 -1.071777387551264837e-05 -1.908249942061956972e-06 -6.507009402412222698e-06
2.055000000000000000e+03 7.566560745239257812e+00 5.333116054534912109e+00 -1.086145039153052494e-05 -7.784038643876556307e-06 -5.593646619672654197e-06 -7.740743967588059604e-06
2.056000000000000000e+03 7.902785778045654297e+00 6.322963237762451172e+00 -1.072719896910712123e-05 -1.001919827103847638e-05 -6.223919172043679282e-06 -1.548752152302768081e-05
2.057000000000000000e+03 4.693766784667968750e+01 -1.423763561248779297e+01 -3.939909220207482576e-05 4.940229700878262520e-06 -1.033765875035896897e-05 -2.589469113445375115e-05
2.058000000000000000e+03 4.929714584350585938e+01 -1.461166286468505859e+01 -3.618426126195117831e-05 1.878899752227880526e-06 -1.029160830512410030e-05 -1.275224622077075765e-05
2.059000000000000000e+03 2.709258842468261719e+01 -7.131884098052978516e+00 6.978849796723807231e-06 -1.750300043568131514e-06 1.568564925946702715e-06 9.930789701684261672e-07
2.060000000000000000e+03 2.987359619140625000e+01 -1.261808395385742188e+01 -1.605905890755821019e-05 -4.868876999353233259e-07 -4.963783794664777815e-06 -1.022453216137364507e-05
2.061000000000000000e+03 3.104590225219726562e+01 -1.302939414978027344e+01 -2.287511415488552302e-05 1.262796558876289055e-06 -6.483695415226975456e-06 -2.269945980515331030e-06
2.062000000000000000e+03 4.722570800781250000e+01 -1.487718391418457031e+01 1.285143389395670965e-05 4.088427886017598212e-06 5.081958533992292359e-06 2.181852323701605201e-05
2.063000000000000000e+03 4.720526123046875000e+01 -1.587188243865966797e+01 -3.682780970848398283e-06 9.590442459739279002e-06 1.772298446667264216e-06 1.174136741610709578e-05
2.064000000000000000e+03 4.843080520629882812e+01 -1.495033168792724609e+01 1.022539890982443467e-05 1.447687191102886572e-05 7.410681064357049763e-06 1.823215825424995273e-05
2.065000000000000000e+03 4.691883468627929688e+01 -1.344038486480712891e+01 3.882375676766969264e-05 3.044370259885909036e-06 1.256043833564035594e-05 2.376956399530172348e-05
2.066000000000000000e+03 1.737405586242675781e+01 3.580191850662231445e+00 4.961001468473114073e-05 -1.883672848634887487e-05 9.231986950908321887e-06 -1.513159713795175776e-05
2.067000000000000000e+03 4.516948699951171875e+01 -1.505383872985839844e+01 2.732935899985022843e-05 -2.658090124896261841e-06 7.401380571536719799e-06 2.026048241532407701e-05
2.068000000000000000e+03 4.161975860595703125e+01 -1.490424823760986328e+01 7.952432497404515743e-06 1.299500127061037347e-05 6.284230039454996586e-06 6.748080522811505944e-06
2.069000000000000000e+03 1.812238121032714844e+01 1.270038366317749023e+00 2.975896677526179701e-05 -9.413390216650441289e-06 6.103672603785526007e-06 -2.061540544673334807e-05
2.070000000000000000e+03 2.562116622924804688e+01 -4.987779140472412109e+00 -1.278476474908529781e-06 2.961829750347533263e-06 5.050059712630172726e-07 -7.665852535865269601e-06
2.071000000000000000e+03 2.507672691345214844e+01 -4.271232604980468750e+00 8.730813533475156873e-06 -6.765737452951725572e-06 5.895227559449267574e-07 7.905886377557180822e-06
2.072000000000000000e+03 2.663164138793945312e+01 -6.423514366149902344e+00 -1.124370214711234439e-06 4.745530759464600123e-07 -1.949451586824579863e-07 -3.986844149039825425e-06
2.073000000000000000e+03 2.692863845825195312e+01 -8.308466911315917969e+00 4.397283646540017799e-06 -8.944376190811453853e-07 1.050853825290687382e-06 -1.210399773299286608e-06
2.074000000000000000e+03 4.249666595458984375e+01 -1.568663406372070312e+01 1.086997417587554082e-05 9.772922567208297551e-06 6.192869022925151512e-06 1.066773074853699654e-05
2.075000000000000000e+03 1.923602867126464844e+01 1.446229100227355957e+00 3.120624387520365417e-05 -8.108698239084333181e-06 6.929263690835796297e-06 -2.403836697340011597e-05
2.076000000000000000e+03 2.134616279602050781e+01 -2.508419752120971680e-01 -9.120362847170326859e-06 -1.833522105698648375e-06 -3.286165565441478975e-06 2.188084908993914723e-05
2.077000000000000000e+03 2.282193946838378906e+01 -2.760226488113403320e+00 5.832956503581954166e-06 -6.143488008092390373e-06 -9.315938598319917219e-08 1.306269587075803429e-05
2.078000000000000000e+03 2.752332878112792969e+01 -7.818205833435058594e+00 4.188869127119687619e-07 -2.184571258112555370e-06 -5.297053462527401280e-07 -1.391680939377692994e-06
2.079000000000000000e+03 8.491296768188476562e+00 6.616962909698486328e+00 2.116627683790284209e-06 1.400179007760016248e-05 4.835525487578706816e-06 1.316302041232120246e-05
2.080000000000000000e+03 2.156318473815917969e+01 -1.484296202659606934e+00 -1.720764970514210290e-07 -3.410282715776702389e-06 -1.074707711268274579e-06 1.726202935969922692e-05
2.081000000000000000e+03 4.608428955078125000e+01 -1.430622100830078125e+01 3.780328188440762460e-05 -6.481177024397766218e-06 9.396631867275573313e-06 2.229161145805846900e-05
2.082000000000000000e+03 4.601474380493164062e+01 -1.506333923339843750e+01 -3.480400118860416114e-05 1.371411872241878882e-05 -6.326964467007201165e-06 -1.220363355969311669e-05
2.083000000000000000e+03 2.907920265197753906e+01 -1.025926113128662109e+01 1.353870084130903706e-05 -7.558648121630540118e-06 1.794015702216711361e-06 2.295438662258675322e-06
2.084000000000000000e+03 2.868339347839355469e+01 -9.710244178771972656e+00 -2.287271172463078983e-06 4.216673005430493504e-06 5.788205612589081284e-07 -3.471340733085526153e-06
2.085000000000000000e+03 4.456201934814453125e+01 -1.405591678619384766e+01 2.542212678235955536e-05 -2.432505607430357486e-05 3.291211214673239738e-07 1.394538344356988091e-06
2.086000000000000000e+03 4.406932449340820312e+01 -1.570176696777343750e+01 2.217911242041736841e-05 -7.611402907059527934e-06 4.370312581158941612e-06 2.956985326818539761e-06
2.087000000000000000e+03 3.042429542541503906e+01 -1.280668067932128906e+01 2.307178147020749748e-05 -9.623103096600971185e-07 6.632841632381314412e-06 7.920828466012608260e-06
2.088000000000000000e+03 4.165474700927734375e+01 -1.576781654357910156e+01 -7.749342330498620868e-06 -1.015417365124449134e-05 -5.371054612623993307e-06 -5.908733783144271001e-06
2.089000000000000000e+03 2.830786705017089844e+01 -9.115690231323242188e+00 3.746906486412626691e-06 -4.885234829998807982e-06 -3.414984917071706150e-07 7.449014560734212864e-07
2.090000000000000000e+03 2.792572021484375000e+01 -8.481287002563476562e+00 3.746798256543115713e-06 1.566777655170881189e-06 1.594072728039463982e-06 -1.240577375938300975e-06
2.091000000000000000e+03 2.614055824279785156e+01 -5.705295085906982422e+00 8.633017387182917446e-06 -4.666570475819753483e-06 1.189934209833154455e-06 3.975753770646406338e-06
2.092000000000000000e+03 1.475660610198974609e+01 4.107985019683837891e+00 4.143475234741345048e-05 -1.440815594833111390e-05 8.107978828775230795e-06 -3.556407364158076234e-06
2.093000000000000000e+03 1.849839973449707031e+01 1.952803373336791992e+00 -3.334160646772943437e-05 1.251296362170251086e-05 -6.248592399060726166e-06 1.885642450361046940e-05
2.094000000000000000e+03 2.450816535949707031e+01 -3.561556339263916016e+00 -1.110193981190832346e-08 4.571178124024299905e-06 1.368022822134662420e-06 -1.221854745381278917e-05
2.095000000000000000e+03 2.391577148437500000e+01 -2.865529775619506836e+00 6.280765319388592616e-06 -7.708345947321504354e-06 -4.282742906980274711e-07 1.296498794545186684e-05
2.096000000000000000e+03 1.995664405822753906e+01 9.104344844818115234e-01 -2.153138848370872438e-05 5.001473709853598848e-06 -4.958974386681802571e-06 2.266883711854461581e-05
2.097000000000000000e+03 2.201514625549316406e+01 -8.729398846626281738e-01 1.047055047820322216e-05 2.675908262972370721e-06 3.943937372241634876e-06 -2.240191497548948973e-05
2.098000000000000000e+03 1.399686431884765625e+01 4.489703655242919922e+00 -4.117328717256896198e-05 1.349391368421493098e-05 -8.303811227960977703e-06 -3.341003321111202240e-06
2.099000000000000000e+03 1.366404247283935547e+01 3.743113040924072266e+00 3.676265259855426848e-05 -1.203220836032414809e-05 7.419133453367976472e-06 -6.039684649294940755e-06
2.100000000000000000e+03 6.522014617919921875e+01 -1.984840774536132812e+01 -4.998492002487182617e-01 -1.684732437133789062e-01 -2.004967331886291504e-01 -2.059103846549987793e-01
2.101000000000000000e+03 1.624590492248535156e+01 3.302725076675415039e+00 4.368296504253521562e-05 -1.682998299656901509e-05 8.055894795688800514e-06 -1.111674282583408058e-05
2.102000000000000000e+03 3.282406234741210938e+01 -1.296062850952148438e+01 1.631790291867218912e-05 -2.385291054451954551e-06 4.179783445579232648e-06 -4.512119176069973037e-06
2.103000000000000000e+03 6.847203063964843750e+01 -1.868015289306640625e+01 -2.604830563068389893e-01 -2.056629806756973267e-01 -1.398438215255737305e-01 -3.413975536823272705e-01
2.104000000000000000e+03 7.485546112060546875e+01 -2.210805702209472656e+01 -1.573238819837570190e-01 1.472746953368186951e-02 -4.277892410755157471e-02 -6.009761616587638855e-02
2.105000000000000000e+03 7.593430328369140625e+01 -2.138162231445312500e+01 -1.169991046190261841e-01 -1.963781751692295074e-02 -4.099107533693313599e-02 -9.962372481822967529e-02
2.106000000000000000e+03 7.341552734375000000e+01 1.130105686187744141e+01 -9.131997078657150269e-02 7.737511992454528809e-01 2.047293633222579956e-01 1.561388652771711349e-02
2.107000000000000000e+03 1.111570835113525391e+01 4.936171054840087891e+00 6.396101525751873851e-06 -1.897479160106740892e-05 -3.773606977119925432e-06 -1.663854891376104206e-05
2.108000000000000000e+03 7.266581726074218750e+01 -1.988264465332031250e+01 -3.176240921020507812e-01 4.795788601040840149e-02 -8.089985698461532593e-02 -2.546785175800323486e-01
2.109000000000000000e+03 7.038727569580078125e+01 -1.270521450042724609e+01 1.657528579235076904e-01 2.579007744789123535e-01 1.270960867404937744e-01 -1.323866546154022217e-01
2.110000000000000000e+03 9.514084815979003906e+00 6.200294017791748047e+00 -4.202903255645651370e-06 1.676969441177789122e-05 3.770037210415466689e-06 1.230716770805884153e-05
2.111000000000000000e+03 6.774804687500000000e+01 -1.673205566406250000e+01 1.337156146764755249e-01 -4.938241839408874512e-02 2.529996074736118317e-02 -1.448461264371871948e-01
2.112000000000000000e+03 4.251848220825195312e+01 -3.757525920867919922e+00 3.952173938159830868e-05 3.045582343474961817e-05 2.099326775351073593e-05 2.725933518377132714e-05
2.113000000000000000e+03 4.454896163940429688e+01 -5.961606979370117188e+00 -4.099867146578617394e-05 -2.254165883641690016e-05 -1.906209945445880294e-05 -2.346138717257417738e-05
2.114000000000000000e+03 2.023609733581542969e+01 -3.043164610862731934e-01 -9.495031918049789965e-06 1.740656671245233156e-06 -2.326312369405059144e-06 1.976638668566010892e-05
2.115000000000000000e+03 1.319801330566406250e+01 4.827826976776123047e+00 3.887478305841796100e-05 1.573111148900352418e-06 1.213436826219549403e-05 6.155347364256158471e-06
2.116000000000000000e+03 1.198122692108154297e+01 5.553980350494384766e+00 -1.532535497972276062e-05 2.693341593840159476e-05 3.482418605926795863e-06 1.372266433463664725e-05
2.117000000000000000e+03 6.941228485107421875e+01 -1.815336036682128906e+01 -2.265837192535400391e-01 -1.158119589090347290e-01 -1.027187034487724304e-01 -3.891867995262145996e-01
2.118000000000000000e+03 7.031952667236328125e+01 -1.758007431030273438e+01 -1.650200486183166504e-01 -3.362168744206428528e-02 -5.959251895546913147e-02 -3.719276189804077148e-01
2.119000000000000000e+03 4.098260116577148438e+01 -3.126204311847686768e-01 -2.606694033602252603e-05 -3.418056439841166139e-05 -1.807425178412813693e-05 -2.241791480628307909e-05
2.120000000000000000e+03 7.608161926269531250e+01 -2.028030395507812500e+01 -1.015660241246223450e-01 -4.807459563016891479e-02 -4.489218443632125854e-02 -1.470629721879959106e-01
2.121000000000000000e+03 4.252089691162109375e+01 -1.050727963447570801e+00 -4.616288060788065195e-05 -3.396671672817319632e-05 -2.403887992841191590e-05 -3.500463208183646202e-05
2.122000000000000000e+03 7.336032104492187500e+01 9.873702049255371094e+00 -4.399322345852851868e-02 8.044366836547851562e-01 2.281330376863479614e-01 4.387802630662918091e-02
2.123000000000000000e+03 7.305727386474609375e+01 8.614406585693359375e+00 -1.349744107574224472e-02 9.484618902206420898e-01 2.804893553256988525e-01 5.078735947608947754e-02
2.124000000000000000e+03 4.078513717651367188e+01 -1.584144687652587891e+01 9.311822395829949528e-06 8.547924153390340507e-06 5.357923782867146656e-06 3.820691290457034484e-06
2.125000000000000000e+03 3.989553833007812500e+01 -1.488554668426513672e+01 1.191415412904461846e-05 8.164967766788322479e-06 6.023736659699352458e-06 1.578829142090398818e-06
2.126000000000000000e+03 4.033706665039062500e+01 7.149927020072937012e-01 -7.278223961293406319e-07 3.319326788187026978e-05 9.739634151628706604e-06 3.003938581969123334e-05
2.127000000000000000e+03 3.819506072998046875e+01 -1.362714767456054688e+01 -1.614722168596927077e-05 -5.487192083819536492e-06 -6.490324267360847443e-06 -4.020171672891592607e-06
2.128000000000000000e+03 8.244291305541992188e+00 2.991397285461425781e+01 -6.188435509102419019e-05 -1.841097218857612461e-05 -2.408859836577903479e-05 4.290762808523140848e-05
2.129000000000000000e+03 1.058943843841552734e+01 2.989012908935546875e+01 -4.698361954069696367e-05 -3.259576624259352684e-05 -2.387381573498714715e-05 4.829315366805531085e-05
2.130000000000000000e+03 7.454384613037109375e+01 -1.520128154754638672e+01 -2.787925302982330322e-02 -1.325711458921432495e-01 -4.813512042164802551e-02 -3.383634090423583984e-01
2.131000000000000000e+03 7.068293762207031250e+01 -1.603085327148437500e+01 -5.728421267122030258e-03 1.513232290744781494e-02 2.821170492097735405e-03 -3.257092535495758057e-01
2.132000000000000000e+03 7.019111633300781250e+01 -1.092028999328613281e+01 1.741678267717361450e-01 4.527326524257659912e-01 1.880701482295989990e-01 -2.647610008716583252e-02
2.133000000000000000e+03 6.875272369384765625e+01 -1.302204227447509766e+01 2.516955435276031494e-01 3.648036718368530273e-01 1.849497556686401367e-01 2.369824983179569244e-02
2.134000000000000000e+03 7.307817840576171875e+01 -1.072779560089111328e+01 7.696114480495452881e-02 9.382373839616775513e-02 5.123546347022056580e-02 -2.427326589822769165e-01
2.135000000000000000e+03 7.451594543457031250e+01 -8.417522430419921875e+00 3.357491642236709595e-02 -8.442240208387374878e-02 -1.525424700230360031e-02 -2.466583847999572754e-01
2.136000000000000000e+03 7.242601776123046875e+01 -1.008961105346679688e+01 8.605931699275970459e-02 2.118072658777236938e-01 8.935997635126113892e-02 -1.963587552309036255e-01
2.137000000000000000e+03 7.378933715820312500e+01 1.978892517089843750e+01 3.131278231739997864e-02 5.601516962051391602e-01 1.774393469095230103e-01 -1.330907922238111496e-02
2.138000000000000000e+03 7.563853454589843750e+01 -3.398521244525909424e-02 8.006975799798965454e-02 -3.021406829357147217e-01 -6.662128120660781860e-02 -1.389703750610351562e-01
2.139000000000000000e+03 4.344028091430664062e+01 -6.297078132629394531e+00 3.221676161047071218e-05 2.714237598411273211e-05 1.780774255166761577e-05 2.216454777226317674e-05
2.140000000000000000e+03 7.315756988525390625e+01 -1.333874893188476562e+01 4.018070921301841736e-02 -3.129269927740097046e-02 2.666403539478778839e-03 -3.181837797164916992e-01
2.141000000000000000e+03 3.825696563720703125e+01 3.437691688537597656e+00 1.040826900862157345e-04 4.763322522194357589e-06 3.265380291850306094e-05 3.027837192348670214e-05
2.142000000000000000e+03 7.314337921142578125e+01 -7.278625011444091797e+00 4.767573624849319458e-02 2.503171861171722412e-01 8.939787000417709351e-02 -1.737207472324371338e-01
2.143000000000000000e+03 8.079688072204589844e+00 2.160923576354980469e+01 9.516927093500271440e-06 -1.139120286097750068e-06 2.513341996746021323e-06 1.783248080755583942e-05
2.144000000000000000e+03 7.371932506561279297e+00 2.453284835815429688e+01 3.470699084573425353e-05 -9.815141311264596879e-06 7.467554496543016285e-06 9.151690392172895372e-06
2.145000000000000000e+03 6.052688121795654297e+00 2.599195289611816406e+01 5.817218698211945593e-05 -2.167768616345711052e-05 1.094835079129552469e-05 1.735456294227333274e-06
2.146000000000000000e+03 7.245532989501953125e+01 -1.444885158538818359e+01 2.180607430636882782e-02 -1.130487886257469654e-03 6.202675867825746536e-03 -3.315420150756835938e-01
2.147000000000000000e+03 6.661805152893066406e+00 1.592265415191650391e+01 2.978021257149521261e-05 1.336119294137461111e-05 1.294242156291147694e-05 2.149226202163845301e-05
2.148000000000000000e+03 6.720242023468017578e+00 1.991478347778320312e+01 -2.206249337177723646e-05 -3.189912968082353473e-05 -1.618848546058870852e-05 1.837393574533052742e-05
2.149000000000000000e+03 5.646944046020507812e+00 2.021273994445800781e+01 3.109526733169332147e-05 7.100140010152244940e-06 1.145862188423052430e-05 -3.257107209719833918e-06
2.150000000000000000e+03 7.078346252441406250e+01 -1.857545661926269531e+01 -3.022837638854980469e-01 -1.075617969036102295e-02 -9.391198307275772095e-02 -3.831944167613983154e-01
2.151000000000000000e+03 7.209554290771484375e+01 -1.898253440856933594e+01 -2.876414060592651367e-01 1.877587847411632538e-02 -8.065965771675109863e-02 -3.286301493644714355e-01
2.152000000000000000e+03 6.473327636718750000e+00 1.458256721496582031e+01 -3.884010948240756989e-05 -1.038708523992681876e-05 -1.476815850764978677e-05 -1.500402959209168330e-05
2.153000000000000000e+03 5.198138236999511719e+00 1.351376342773437500e+01 -4.113953764317557216e-05 -2.573409574324614368e-06 -1.311388405156321824e-05 -1.531057569081895053e-05
2.154000000000000000e+03 7.346710205078125000e+00 1.298543453216552734e+01 -3.970094257965683937e-05 -7.684939191676676273e-06 -1.421576507709687576e-05 -1.426342714694328606e-05
2.155000000000000000e+03 5.422694206237792969e+00 1.621317863464355469e+01 -3.291698885732330382e-05 -1.559335214551538229e-05 -1.455310211895266548e-05 -8.332246579811908305e-06
2.156000000000000000e+03 5.142754077911376953e+00 9.355891227722167969e+00 4.807899313163943589e-05 -6.301133907982148230e-06 1.253335813089506701e-05 4.224101303407223895e-06
2.157000000000000000e+03 6.922999382019042969e+00 9.888653755187988281e+00 4.726378392660990357e-06 -2.034039243881125003e-05 -4.684204213845077902e-06 -3.351827763253822923e-05
2.158000000000000000e+03 6.286911487579345703e+00 1.329212570190429688e+01 3.335401197546161711e-05 6.941021183592965826e-06 1.208850972034269944e-05 2.267066156491637230e-05
2.159000000000000000e+03 9.223112106323242188e+00 2.659665679931640625e+01 1.157005863205995411e-05 -1.381628680974245071e-05 -6.738683850926463492e-07 -7.323006343540328089e-07
2.160000000000000000e+03 7.352732181549072266e+00 2.891996002197265625e+01 3.094997373409569263e-05 -2.187403515563346446e-05 2.722782255659694783e-06 -1.617372072360012680e-05
2.161000000000000000e+03 4.485534667968750000e+01 -1.286573886871337891e+01 -1.429979693057248369e-05 -2.269499600515700877e-05 -1.109843742597149685e-05 -2.129927997884806246e-05
2.162000000000000000e+03 4.551729202270507812e+01 -8.330275535583496094e+00 -3.888107312377542257e-05 -1.547804276924580336e-05 -1.630773476790636778e-05 -2.222488546976819634e-05
2.163000000000000000e+03 4.426835632324218750e+01 -1.487276268005371094e+01 -2.045196561084594578e-05 -1.298846115105334320e-07 -6.174554982862900943e-06 -1.292160959565080702e-05
2.164000000000000000e+03 3.946040344238281250e+01 1.651399731636047363e+00 4.449017433216795325e-05 -3.521394773997599259e-06 1.229063400387531146e-05 -3.804848165600560606e-05
2.165000000000000000e+03 4.229568481445312500e+01 -6.614921569824218750e+00 -3.223901876481249928e-05 -2.575633698143064976e-05 -1.739860636007506400e-05 -2.367702290939632803e-05
2.166000000000000000e+03 4.085638809204101562e+01 -1.676774597167968750e+01 -7.976305823831353337e-06 -7.305801318580051884e-06 -4.584631824400275946e-06 -3.090516884185490198e-06
2.167000000000000000e+03 3.770917510986328125e+01 1.544778728485107422e+01 -2.189426450058817863e-04 -2.326219509996008128e-05 -7.266145257744938135e-05 3.985349030699580908e-05
2.168000000000000000e+03 3.587679672241210938e+01 1.342927265167236328e+01 1.391064142808318138e-04 -9.807469905354082584e-05 1.230951329489471391e-05 1.242662692675366998e-04
2.169000000000000000e+03 3.648447799682617188e+01 1.744540977478027344e+01 -2.930550836026668549e-04 4.391104994283523411e-06 -8.659919694764539599e-05 -2.224671698058955371e-05
2.170000000000000000e+03 7.099689483642578125e+01 -1.001461315155029297e+01 1.339812129735946655e-01 4.343737065792083740e-01 1.705064773559570312e-01 -6.711501628160476685e-02
2.171000000000000000e+03 7.261319732666015625e+01 -8.740348815917968750e+00 7.654109597206115723e-02 2.951781451702117920e-01 1.115157753229141235e-01 -1.742767244577407837e-01
2.172000000000000000e+03 3.800605010986328125e+01 8.005780220031738281e+00 9.840293932938948274e-05 -9.575747753842733800e-06 2.664815656316932291e-05 4.973259638063609600e-05
2.173000000000000000e+03 3.463922882080078125e+01 -1.248216152191162109e+01 -1.891419924504589289e-05 3.439403599259094335e-06 -4.642438852897612378e-06 -9.933382898452691734e-07
2.174000000000000000e+03 3.331202697753906250e+01 -1.345863151550292969e+01 -1.144708130595972762e-05 4.223913492751307786e-06 -2.166950253013055772e-06 4.652574261854169890e-06
2.175000000000000000e+03 6.969385528564453125e+01 -1.371122455596923828e+01 1.868251115083694458e-01 2.068279683589935303e-01 1.180959194898605347e-01 -1.185081079602241516e-01
2.176000000000000000e+03 3.927965927124023438e+01 2.531838607788085938e+01 1.154101191787049174e-04 -4.850535333389416337e-05 2.007143120863474905e-05 -1.334727676294278353e-05
2.177000000000000000e+03 3.517625808715820312e+01 2.405052757263183594e+01 3.929799640900455415e-05 1.016454407363198698e-04 4.228303077979944646e-05 -2.503238647477701306e-05
2.178000000000000000e+03 3.782770156860351562e+01 4.813968181610107422e+00 -9.190293349092826247e-05 4.746720151160843670e-06 -2.614686309243552387e-05 -3.791241033468395472e-05
2.179000000000000000e+03 4.123679733276367188e+01 3.066914176940917969e+01 -5.445652641355991364e-04 6.016873521730303764e-04 1.713661549729295075e-05 4.225823795422911644e-04
2.180000000000000000e+03 3.750156784057617188e+01 9.447079658508300781e+00 -9.828308975556865335e-05 3.383388275324250571e-06 -2.846991083060856909e-05 -3.824541272479109466e-05
2.181000000000000000e+03 3.585969924926757812e+01 2.171419525146484375e+01 -4.669125246437033638e-06 6.626355025218799710e-05 1.847832754720002413e-05 -7.919867493910714984e-05
2.182000000000000000e+03 3.467949295043945312e+01 2.087980461120605469e+01 1.340263552265241742e-04 -7.921552605694159865e-05 1.644324765948113054e-05 1.307225611526519060e-04
2.183000000000000000e+03 4.298278808593750000e+01 -5.014110088348388672e+00 -3.573564754333347082e-05 -2.723071702348534018e-05 -1.888991027954034507e-05 -2.407119427516590804e-05
2.184000000000000000e+03 3.651384735107421875e+01 1.223757457733154297e+01 -1.029302948154509068e-04 1.901724135677795857e-05 -2.517391658329870552e-05 -7.335733243962749839e-05
2.185000000000000000e+03 3.702459716796875000e+01 1.087633895874023438e+01 8.133560186251997948e-05 4.799199473382032011e-07 2.454465720802545547e-05 3.766633381019346416e-05
2.186000000000000000e+03 5.974740028381347656e+00 7.817211151123046875e+00 3.188723712810315192e-05 -4.433557933225529268e-06 8.236102985392790288e-06 -1.398139738739700988e-05
2.187000000000000000e+03 6.047319412231445312e+00 6.039237499237060547e+00 2.794479951262474060e-05 1.553642505314201117e-06 8.849532605381682515e-06 -6.945776931388536468e-06
2.188000000000000000e+03 2.885399055480957031e+01 -1.131954097747802734e+01 1.058747602655785158e-05 -3.038610429939581081e-06 2.264659769934951328e-06 -1.356466100332909264e-06
2.189000000000000000e+03 6.569193363189697266e+00 6.772878170013427734e+00 1.625029108254238963e-05 1.080954007193213329e-05 8.117949619190767407e-06 -1.076883290807018057e-05
2.190000000000000000e+03 2.958879280090332031e+01 -9.777762413024902344e+00 -4.074548087373841554e-06 3.744327386812074110e-06 -9.906621301070117624e-08 -7.170413482526782900e-06
2.191000000000000000e+03 3.076769065856933594e+01 -1.109817314147949219e+01 1.736927515594288707e-05 7.699831257923506200e-06 7.520731742260977626e-06 1.061439343175152317e-05
2.192000000000000000e+03 7.315956115722656250e+00 6.124661445617675781e+00 1.128565872932085767e-05 1.247139334736857563e-05 7.127115623006829992e-06 4.246515345585066825e-06
2.193000000000000000e+03 4.776569747924804688e+01 -1.435086536407470703e+01 2.320288331247866154e-05 -1.474848795623984188e-05 2.536318561396910809e-06 -1.037350830301875249e-05
2.194000000000000000e+03 4.599473190307617188e+01 -1.349695301055908203e+01 -3.590634514694102108e-05 -4.082051418663468212e-06 -1.199651887873187661e-05 -2.499030051694717258e-05
2.195000000000000000e+03 8.656664848327636719e+00 7.764250755310058594e+00 -1.411403718520887196e-05 1.794624768081121147e-05 1.149663034993864130e-06 1.655394225963391364e-05
2.196000000000000000e+03 2.065986061096191406e+01 3.441623747348785400e-01 2.023250817728694528e-05 -1.859268877524300478e-06 5.511971721716690809e-06 -2.529366611270233989e-05
2.197000000000000000e+03 4.377880477905273438e+01 -1.191382884979248047e+01 -2.889261850214097649e-05 -8.193551366275642067e-06 -1.112585050577763468e-05 -2.764067721727769822e-05
2.198000000000000000e+03 1.779150199890136719e+01 4.283276081085205078e+00 -6.125307118054479361e-05 2.352820229134522378e-05 -1.131746012106304988e-05 1.411777338944375515e-05
2.199000000000000000e+03 4.532201385498046875e+01 -1.074217414855957031e+01 2.861111715901643038e-05 1.810017965908627957e-05 1.401338886353187263e-05 2.588920142443384975e-05
2.200000000000000000e+03 2.561127090454101562e+01 -3.720551967620849609e+00 -7.143357834138441831e-07 3.132716301479376853e-06 7.255141554196598008e-07 -1.059231271938188002e-05
2.201000000000000000e+03 2.879945564270019531e+01 -6.815667629241943359e+00 -1.207045329465472605e-06 -5.927801339566940442e-06 -2.140453943866305053e-06 -3.265142140662646852e-06
2.202000000000000000e+03 3.150033187866210938e+01 -1.207886600494384766e+01 2.864169255190063268e-05 -2.227699042123276740e-06 7.924198143882676959e-06 6.383295840350911021e-06
2.203000000000000000e+03 2.330084991455078125e+01 -2.184715032577514648e+00 3.928689693566411734e-06 4.731458375317743048e-06 2.598044375190511346e-06 -1.762899046298116446e-05
2.204000000000000000e+03 2.314383506774902344e+01 -9.099968671798706055e-01 8.632334356661885977e-06 3.653156909422250465e-06 3.685647470774711110e-06 -2.224932723038364202e-05
2.205000000000000000e+03 1.663380432128906250e+01 4.005651473999023438e+00 -5.310191045282408595e-05 2.253545062558259815e-05 -9.169937584374565631e-06 8.032770892896223813e-06
2.206000000000000000e+03 1.550364303588867188e+01 3.709822177886962891e+00 -4.390100730233825743e-05 1.975496707018464804e-05 -7.243811523949261755e-06 3.762190544875920750e-06
2.207000000000000000e+03 2.770009994506835938e+01 -6.621924877166748047e+00 -9.688180853117955849e-07 -2.283010189785272814e-06 -9.755484597917529754e-07 -3.280324108345666900e-06
2.208000000000000000e+03 4.076283645629882812e+01 -1.491432571411132812e+01 -8.156386684277094901e-06 -1.054527183441678062e-05 -5.610497737507103011e-06 -2.677689735719468445e-06
2.209000000000000000e+03 1.888963508605957031e+01 2.648196220397949219e+00 4.232316496199928224e-05 -1.331133989879162982e-05 8.703546882316004485e-06 -2.321289321116637439e-05
2.210000000000000000e+03 2.855108261108398438e+01 -7.995252609252929688e+00 2.991843643940228503e-07 -5.642240012093679979e-06 -1.602916654519503936e-06 -1.183697918349935208e-06
2.211000000000000000e+03 2.892127799987792969e+01 -8.642056465148925781e+00 3.717039362527430058e-06 4.598963187163462862e-06 2.494800810382002965e-06 -2.449082785460632294e-07
2.212000000000000000e+03 2.442020034790039062e+01 -2.287108898162841797e+00 2.402652626187773421e-06 4.623717813956318423e-06 2.107911086568492465e-06 -1.652201535762287676e-05
2.213000000000000000e+03 2.248025512695312500e+01 -2.445448338985443115e-01 -7.805304448993410915e-06 -4.926138444716343656e-06 -3.819433004537131637e-06 2.314271114300936460e-05
2.214000000000000000e+03 6.854306793212890625e+01 -1.627895927429199219e+01 9.768237918615341187e-02 -1.436799205839633942e-02 2.499431744217872620e-02 -2.033925056457519531e-01
2.215000000000000000e+03 1.813017272949218750e+01 3.129900932312011719e+00 -4.732115849037654698e-05 1.758865801093634218e-05 -8.919750143832061440e-06 1.710289507173001766e-05
2.216000000000000000e+03 2.502712249755859375e+01 -2.997199296951293945e+00 7.052768523863051087e-06 -8.028721822483930737e-06 -2.927859839019220090e-07 1.217416502186097205e-05
2.217000000000000000e+03 1.590127754211425781e+01 4.421203136444091797e+00 4.815439024241641164e-05 -1.991328099393285811e-05 8.472333320241887122e-06 -7.104872565832920372e-06
2.218000000000000000e+03 1.440031623840332031e+01 5.269080162048339844e+00 4.297434134059585631e-05 -1.813146991480607539e-05 7.452861609635874629e-06 -1.152249183178355452e-06
2.219000000000000000e+03 3.997488784790039062e+01 -1.387233924865722656e+01 -1.196573339257156476e-05 -8.181561497622169554e-06 -6.044188467058120295e-06 1.207377131606790499e-08
2.220000000000000000e+03 3.988920211791992188e+01 -1.589507961273193359e+01 -9.693593710835557431e-06 -6.685376320092473179e-06 -4.913691100227879360e-06 -1.403762212248693686e-06
2.221000000000000000e+03 4.394578552246093750e+01 -7.526593685150146484e+00 -3.220685539417900145e-05 -1.957948734343517572e-05 -1.553590300318319350e-05 -2.014761594182346016e-05
2.222000000000000000e+03 2.081437492370605469e+01 2.283265829086303711e+00 -3.635796747403219342e-05 6.419214059860678390e-06 -8.981625796877779067e-06 2.810967816913034767e-05
2.223000000000000000e+03 3.900590133666992188e+01 -1.483703136444091797e+01 -1.290450018132105470e-05 -6.094639047660166398e-06 -5.699741905118571594e-06 -1.225333335241884924e-06
2.224000000000000000e+03 1.020471000671386719e+01 6.700709819793701172e+00 8.523133146809414029e-06 -1.586934195074718446e-05 -2.203862777605536394e-06 -1.545406121294945478e-05
2.225000000000000000e+03 1.357767677307128906e+01 5.710303306579589844e+00 -4.508370693656615913e-05 2.033511191257275641e-05 -7.424578143400140107e-06 -2.219829639216186479e-06
2.226000000000000000e+03 4.146754074096679688e+01 -4.002475738525390625e+00 -4.229749902151525021e-05 -2.123339982063043863e-05 -1.905927092593628913e-05 -1.837076524680014700e-05
2.227000000000000000e+03 7.355773162841796875e+01 -1.212577438354492188e+01 5.242176726460456848e-02 -3.772181645035743713e-02 4.409986082464456558e-03 -3.001143336296081543e-01
2.228000000000000000e+03 4.099381256103515625e+01 -2.829840183258056641e+00 4.099070793017745018e-05 2.341012259421404451e-05 1.932024861162062734e-05 1.727089147607330233e-05
2.229000000000000000e+03 4.114751815795898438e+00 5.007555484771728516e+00 9.487336683378089219e-06 8.084922228590585291e-06 5.271677764540072531e-06 7.480480235244613141e-06
2.230000000000000000e+03 7.602794170379638672e+00 2.306441879272460938e+01 -3.123530041193589568e-05 -2.096868047374300659e-05 -1.566119317431002855e-05 1.310076004301663488e-05
2.231000000000000000e+03 7.071579933166503906e+00 2.094676971435546875e+01 1.360247188131324947e-05 6.455310540331993252e-06 6.017334726493572816e-06 5.237124696577666327e-06
2.232000000000000000e+03 4.447905731201171875e+01 -8.659131050109863281e+00 3.125533476122654974e-05 1.870672167569864541e-05 1.498861729487543926e-05 2.468754792062100023e-05
2.233000000000000000e+03 3.832383346557617188e+01 -1.247864913940429688e+01 2.090232374030165374e-05 6.473930170614039525e-06 8.212876309698913246e-06 4.403306320455158129e-06
2.234000000000000000e+03 3.651070785522460938e+01 -1.016724491119384766e+01 1.313442862738156691e-05 1.045383851305814460e-05 7.076479960232973099e-06 1.289989177166717127e-05
2.235000000000000000e+03 3.895922851562500000e+01 7.830238938331604004e-01 -6.197051698109135032e-05 9.928684448823332787e-06 -1.561254975968040526e-05 4.710405482910573483e-05
2.236000000000000000e+03 4.005844879150390625e+01 -6.930231451988220215e-01 3.395451494725421071e-05 2.568769014033023268e-05 1.789266207197215408e-05 6.762789780623279512e-06
2.237000000000000000e+03 3.173826217651367188e+01 -1.104340744018554688e+01 -2.051873343589249998e-05 -6.358990049193380401e-06 -8.063317181949969381e-06 -1.324646382272476330e-05
2.238000000000000000e+03 1.066549205780029297e+01 5.824126720428466797e+00 -1.006266938929911703e-05 2.020361716859042645e-05 3.042283879040041938e-06 1.180232447950402275e-05
2.239000000000000000e+03 7.154276275634765625e+01 -1.530172920227050781e+01 1.019640453159809113e-02 1.461047120392322540e-02 7.442062720656394958e-03 -3.273101150989532471e-01
2.240000000000000000e+03 7.910935878753662109e+00 1.555943870544433594e+01 -4.289442586014047265e-05 -1.496153709013015032e-05 -1.735678779368754476e-05 -1.354398409603163600e-05
2.241000000000000000e+03 7.003387451171875000e+01 -1.522471523284912109e+01 8.208860456943511963e-02 6.632669270038604736e-02 4.452458769083023071e-02 -2.516545653343200684e-01
2.242000000000000000e+03 3.211171340942382812e+01 1.948989295959472656e+01 -2.941435668617486954e-04 3.593238716348423623e-06 -8.716509910300374031e-05 1.603899181645829231e-05
2.243000000000000000e+03 3.502413940429687500e+01 1.928684806823730469e+01 -3.177950275130569935e-04 1.742897256917785853e-05 -9.010981739265844226e-05 -1.227282336913049221e-04
2.244000000000000000e+03 7.372260284423828125e+01 -1.008587169647216797e+01 6.237934157252311707e-02 5.186591763049364090e-03 2.026977948844432831e-02 -2.509753406047821045e-01
2.245000000000000000e+03 7.349855041503906250e+01 5.736808776855468750e+00 8.068922162055969238e-02 7.700985074043273926e-01 2.552363276481628418e-01 1.395899150520563126e-02
2.246000000000000000e+03 4.495040130615234375e+01 -9.718675613403320312e+00 -2.995554496010299772e-05 -1.796229480532929301e-05 -1.437535138393286616e-05 -2.530859819671604782e-05
2.247000000000000000e+03 4.162223434448242188e+01 -1.336712646484375000e+01 1.201055420096963644e-05 8.880702807800844312e-06 6.267377102631144226e-06 1.912098696266184561e-06
2.248000000000000000e+03 7.425950622558593750e+01 -1.770277976989746094e+01 -1.220668777823448181e-01 -6.869664043188095093e-02 -5.722905322909355164e-02 -3.104766607284545898e-01
2.249000000000000000e+03 7.393323516845703125e+01 -1.679473686218261719e+01 -9.765339642763137817e-02 -7.189217209815979004e-02 -5.086367204785346985e-02 -3.434099853038787842e-01
2.250000000000000000e+03 7.348229217529296875e+01 -1.753646087646484375e+01 -1.353281289339065552e-01 -4.295692965388298035e-02 -5.348551645874977112e-02 -3.369149863719940186e-01
2.251000000000000000e+03 3.674278259277343750e+01 7.573011875152587891e+00 -9.085179772228002548e-05 1.293746026931330562e-05 -2.337430305487941951e-05 -4.535593689070083201e-05
2.252000000000000000e+03 7.265113830566406250e+01 -2.150172996520996094e+01 -3.379342257976531982e-01 7.725758850574493408e-02 -7.820298522710800171e-02 -1.181063354015350342e-01
2.253000000000000000e+03 7.258005523681640625e+01 -1.159656715393066406e+01 8.050889521837234497e-02 1.021862849593162537e-01 5.480855703353881836e-02 -2.439489364624023438e-01
2.254000000000000000e+03 7.173983764648437500e+01 -1.087185478210449219e+01 1.116231977939605713e-01 2.671750187873840332e-01 1.136394590139389038e-01 -1.655870527029037476e-01
2.255000000000000000e+03 6.834575176239013672e+00 1.729224586486816406e+01 -2.972217771457508206e-05 -2.870106800401117653e-05 -1.752697244228329509e-05 -9.970744940801523626e-06
2.256000000000000000e+03 8.591513633728027344e+00 2.032058334350585938e+01 -1.126880579249700531e-05 -3.539168392308056355e-05 -1.399814664182486013e-05 4.862668902205768973e-06
2.257000000000000000e+03 8.206727981567382812e+00 1.691615295410156250e+01 2.740994750638492405e-05 1.954475919774267823e-05 1.408641219313722104e-05 2.850136115739587694e-05
2.258000000000000000e+03 6.268003940582275391e+00 8.920982360839843750e+00 -3.496399949654005468e-05 1.025465735438046977e-05 -7.412802915496286005e-06 6.463709269155515358e-06
2.259000000000000000e+03 6.137662410736083984e+00 1.206798076629638672e+01 -3.527853186824359000e-05 -5.299371423461707309e-06 -1.217337103298632428e-05 -2.860161839635111392e-05
2.260000000000000000e+03 8.639531135559082031e+00 2.475893974304199219e+01 -1.789034649846144021e-05 -1.818091368477325886e-05 -1.082137805497040972e-05 1.416635132045485079e-05
2.261000000000000000e+03 3.460976028442382812e+01 1.277028942108154297e+01 2.741735988820437342e-05 -9.760368811839725822e-06 5.297097231959924102e-06 -1.645766751607879996e-04
2.262000000000000000e+03 3.731150817871093750e+01 6.186032295227050781e+00 8.389766298932954669e-05 -7.430956429743673652e-06 2.294001205882523209e-05 5.264673745841719210e-05
2.263000000000000000e+03 4.190477752685546875e+01 -5.249901294708251953e+00 4.051512951264157891e-05 2.374683572270441800e-05 1.927859011630062014e-05 2.496438901289366186e-05
2.264000000000000000e+03 6.983722686767578125e+01 -1.664520263671875000e+01 -2.698442526161670685e-02 -3.028469718992710114e-02 -1.718073710799217224e-02 -3.233622908592224121e-01
2.265000000000000000e+03 3.697031402587890625e+01 3.289239406585693359e+00 -7.116767665138468146e-05 -1.781732316885609180e-05 -2.669550121936481446e-05 -2.518061046430375427e-05
2.266000000000000000e+03 7.346289062500000000e+01 -8.469685554504394531e+00 4.693774506449699402e-02 1.077326461672782898e-01 4.640111699700355530e-02 -2.105005085468292236e-01
2.267000000000000000e+03 6.809912109375000000e+01 -1.768361854553222656e+01 -6.890331208705902100e-02 -1.367930173873901367e-01 -6.170890107750892639e-02 -2.644597589969635010e-01
2.268000000000000000e+03 3.459103393554687500e+01 2.240798568725585938e+01 -4.555625782813876867e-04 7.599795208079740405e-05 -1.138693914981558919e-04 -1.248313310497906059e-05
2.269000000000000000e+03 3.497617721557617188e+01 5.198109626770019531e+00 3.270172965130768716e-05 -2.216397888332721777e-06 9.145599506155122072e-06 3.842873047688044608e-05
2.270000000000000000e+03 3.714817810058593750e+01 2.195685386657714844e+00 8.197296847356483340e-05 1.888331280497368425e-05 3.025688602065201849e-05 3.204130189260467887e-05
2.271000000000000000e+03 3.831120300292968750e+01 2.158984422683715820e+00 -1.259042765013873577e-04 1.025575329549610615e-05 -3.469455987215042114e-05 4.436591552803292871e-06
2.272000000000000000e+03 6.919860839843750000e+01 -1.478155994415283203e+01 1.715734750032424927e-01 1.269870400428771973e-01 8.956815302371978760e-02 -1.406685858964920044e-01
2.273000000000000000e+03 1.195222377777099609e+01 3.131447410583496094e+01 6.018400017637759447e-05 -1.407763011229690164e-05 1.383191101922420785e-05 2.432123437756672502e-06
2.274000000000000000e+03 9.787001609802246094e+00 2.057383155822753906e+01 8.588092896388843656e-06 2.276379382237792015e-05 9.405565833731088787e-06 2.362584928050637245e-05
2.275000000000000000e+03 9.922372817993164062e+00 2.524085044860839844e+01 -4.514974989433540031e-06 -8.041942237468902022e-06 -3.767075213545467705e-06 2.528236473153810948e-05
2.276000000000000000e+03 3.716586685180664062e+01 2.761295127868652344e+01 -2.076608507195487618e-04 1.793975243344902992e-04 -8.478998097416479141e-06 7.870914851082488894e-05
2.277000000000000000e+03 4.104721069335937500e+01 2.892035484313964844e+01 -8.283614297397434711e-04 6.372830830514431000e-05 -2.293899306096136570e-04 -6.660122744506224990e-05
2.278000000000000000e+03 9.395908355712890625e+00 2.874800109863281250e+01 3.811760689131915569e-05 -1.289941155846463516e-05 7.565458872704766691e-06 -9.253190910385455936e-06
2.279000000000000000e+03 7.488038635253906250e+01 3.584031295776367188e+01 -8.347425609827041626e-02 -1.432384252548217773e-01 -6.801380217075347900e-02 2.023087888956069946e-01
2.280000000000000000e+03 4.640221405029296875e+01 3.847298812866210938e+01 2.581526990979909897e-03 -1.056866254657506943e-03 4.573982441797852516e-04 2.920662518590688705e-03
2.281000000000000000e+03 3.442145156860351562e+01 1.489489459991455078e+01 1.581077376613393426e-04 -7.821405233698897064e-06 4.508589699980802834e-05 -5.708240132662467659e-05
2.282000000000000000e+03 3.702002716064453125e+01 1.412482452392578125e+01 6.253507308429107070e-05 1.598273411218542606e-05 2.355534343223553151e-05 -1.186716326628811657e-04
2.283000000000000000e+03 2.832991981506347656e+01 -6.091753482818603516e+00 7.508057933591771871e-06 3.113238165042275796e-07 2.345814436921500601e-06 3.719412688951706514e-06
2.284000000000000000e+03 3.008915519714355469e+01 -9.501416206359863281e+00 -1.383434482704615220e-05 -6.532956831506453454e-06 -6.110190497565781698e-06 -5.558591055887518451e-06
2.285000000000000000e+03 9.098376274108886719e+00 7.019384860992431641e+00 3.419718723307596520e-06 -1.343291387456702068e-05 -3.003958681802032515e-06 -1.743650500429794192e-05
2.286000000000000000e+03 2.926263999938964844e+01 -9.243645668029785156e+00 2.972584752569673583e-06 -6.905264854140114039e-06 -1.179804030471132137e-06 7.544732625319738872e-07
2.287000000000000000e+03 4.526424026489257812e+01 -1.429891777038574219e+01 -3.738955638254992664e-05 9.926635357260238379e-06 -8.238876944233197719e-06 -2.568127638369332999e-05
2.288000000000000000e+03 4.581806945800781250e+01 -1.265606784820556641e+01 2.950956150016281754e-05 1.553408947074785829e-05 1.351309492747532204e-05 2.382549791946075857e-05
2.289000000000000000e+03 9.231163024902343750e+00 8.296108245849609375e+00 1.188390615425305441e-05 -1.231699843629030511e-05 -1.299278125088676461e-07 -1.919740316225215793e-05
2.290000000000000000e+03 8.579048156738281250e+00 1.014289855957031250e+01 -3.307284714537672698e-05 -4.259419256413821131e-06 -1.119968055718345568e-05 6.004228907841024920e-06
2.291000000000000000e+03 4.247245025634765625e+01 -1.483918666839599609e+01 -6.935815690667368472e-06 -1.588645682204514742e-05 -6.846681571914814413e-06 -1.072470513463485986e-05
2.292000000000000000e+03 3.910622024536132812e+01 -1.373610877990722656e+01 1.739066647132858634e-05 5.685978976543992758e-06 6.922993179614422843e-06 2.270136974402703345e-06
2.293000000000000000e+03 4.559680175781250000e+01 -1.173368453979492188e+01 -2.774441418296191841e-05 -1.778650403139181435e-05 -1.365927528240717947e-05 -2.448433588142506778e-05
2.294000000000000000e+03 4.400257873535156250e+01 -1.335037612915039062e+01 -1.350237926089903340e-05 3.182738873874768615e-05 5.497503025253536180e-06 6.333288638415979221e-06
2.295000000000000000e+03 3.162027359008789062e+01 -1.008283710479736328e+01 1.407975832989905030e-05 6.400292477337643504e-06 6.144015515019418672e-06 1.902168696688022465e-05
2.296000000000000000e+03 4.335524368286132812e+01 -1.474270629882812500e+01 1.444037388864671811e-05 1.437751416233368218e-05 8.645366506243590266e-06 1.869664629339240491e-05
2.297000000000000000e+03 4.320736694335937500e+01 -1.382917881011962891e+01 -3.227495881219510920e-06 -2.304233203176409006e-05 -7.880948942329268903e-06 -1.109502863982925192e-05
2.298000000000000000e+03 3.223126602172851562e+01 -1.243663883209228516e+01 -1.880090349004603922e-05 7.749245582999719772e-07 -5.407793651102110744e-06 4.968654593540122733e-06
2.299000000000000000e+03 3.291881561279296875e+01 -1.178497219085693359e+01 8.446399988315533847e-06 -7.695364843129937071e-07 2.303059090991155244e-06 -1.649551631999202073e-05
2.300000000000000000e+03 4.517719650268554688e+01 -1.363444042205810547e+01 2.135721115337219089e-05 1.318521117354976013e-05 1.036272715282393619e-05 2.475720611982978880e-05
2.301000000000000000e+03 2.814449310302734375e+01 -7.320331573486328125e+00 6.545852556882891804e-06 8.343386639353411738e-07 2.214057303717709146e-06 1.116396560973953456e-06
2.302000000000000000e+03 1.754170227050781250e+01 5.411028861999511719e+00 -6.965381908230483532e-05 2.837489591911435127e-05 -1.238367622136138380e-05 1.053326559485867620e-05
2.303000000000000000e+03 1.964059638977050781e+01 2.134709835052490234e+00 -3.578765972633846104e-05 9.652576409280300140e-06 -7.840524631319567561e-06 2.379509896854870021e-05
2.304000000000000000e+03 1.853948593139648438e+01 3.836219549179077148e+00 5.396950291469693184e-05 -1.919327405630610883e-05 1.043286829371936619e-05 -2.089145345962606370e-05
2.305000000000000000e+03 2.673555564880371094e+01 -3.884992361068725586e+00 -1.177855210698908195e-06 1.155914787887013517e-06 -6.582120626319465373e-09 -8.949486982601229101e-06
2.306000000000000000e+03 2.615681076049804688e+01 -3.148201942443847656e+00 7.680604539928026497e-06 -7.340507181652355939e-06 1.020291620079660788e-07 1.115441864385502413e-05
2.307000000000000000e+03 2.896823310852050781e+01 -5.548772811889648438e+00 6.391815787765153800e-08 -7.454060323652811348e-06 -2.217042720076278783e-06 -5.864780177944339812e-06
2.308000000000000000e+03 2.379090118408203125e+01 -1.592147231101989746e+00 1.471507516725978348e-06 -8.026524483284447342e-06 -1.966505124073592015e-06 1.814672214095480740e-05
2.309000000000000000e+03 2.364145660400390625e+01 -2.776382565498352051e-01 -5.505256012838799506e-06 -7.292403552128234878e-06 -3.839297733065905049e-06 2.382688035140745342e-05
2.310000000000000000e+03 2.987226867675781250e+01 -8.879122734069824219e+00 9.151540325547102839e-06 6.758559720765333623e-06 4.773030013893730938e-06 5.114212399348616600e-06
2.311000000000000000e+03 2.921683120727539062e+01 -7.526794433593750000e+00 6.906117505423026159e-06 5.289872660796390846e-06 3.658796913441619836e-06 2.517859229556052014e-06
2.312000000000000000e+03 2.109691047668457031e+01 1.008886098861694336e+00 -2.134041278623044491e-05 1.381702645630866755e-06 -5.987612894386984408e-06 2.580172258603852242e-05
2.313000000000000000e+03 1.706488800048828125e+01 4.709169864654541016e+00 5.588080603047274053e-05 -2.392443457210902125e-05 9.586910891812294722e-06 -1.206849719892488793e-05
2.314000000000000000e+03 1.516006660461425781e+01 4.839748382568359375e+00 -5.006545688956975937e-05 2.264601971546653658e-05 -8.225832061725668609e-06 1.836021283452282660e-06
2.315000000000000000e+03 2.202740669250488281e+01 2.396584987640380859e+00 -3.493404801702126861e-05 3.646201321316766553e-06 -9.386353667650837451e-06 3.193654629285447299e-05
2.316000000000000000e+03 2.179792404174804688e+01 3.967670798301696777e-01 1.847280873334966600e-05 -4.441047352088389744e-08 5.528519523068098351e-06 -2.661612779775168747e-05
2.317000000000000000e+03 8.109178543090820312e+00 7.343936920166015625e+00 -1.464316596866410691e-06 -1.083843017113395035e-05 -3.690823859869851731e-06 -1.675661405897699296e-05
2.318000000000000000e+03 2.430103683471679688e+01 -9.761778116226196289e-01 6.291330919339088723e-06 3.930085767933633178e-06 3.066425051656551659e-06 -2.161378870368935168e-05
2.319000000000000000e+03 2.556015586853027344e+01 -2.411967992782592773e+00 4.582117583140643546e-07 3.577929874154506251e-06 1.210842469845374580e-06 -1.471948326070560142e-05
2.320000000000000000e+03 1.494001674652099609e+01 6.037681102752685547e+00 -5.302828867570497096e-05 2.744084849837236106e-05 -7.676232598896604031e-06 5.750220680056372657e-06
2.321000000000000000e+03 4.040953826904296875e+01 -4.204483985900878906e+00 4.450287815416231751e-05 1.486916244175517932e-05 1.781161154212895781e-05 1.406739556841785088e-05
2.322000000000000000e+03 4.051535034179687500e+01 -1.719983100891113281e+00 -4.014564547105692327e-05 -2.111512367264367640e-05 -1.837823037931229919e-05 -7.893852853158023208e-06
2.323000000000000000e+03 1.424966526031494141e+01 6.558008193969726562e+00 3.997115709353238344e-05 -2.450036299705971032e-05 4.641238319891272113e-06 -8.357632395927794278e-06
2.324000000000000000e+03 3.570931625366210938e+01 -1.190932273864746094e+01 -1.455975416320143268e-05 -1.031239025905961171e-05 -7.461643235728843138e-06 -1.480566993450338487e-06
2.325000000000000000e+03 3.412465667724609375e+01 -1.183466625213623047e+01 1.150074422184843570e-05 -7.595071110699791461e-06 1.171701796920388006e-06 -1.187117845802276861e-06
2.326000000000000000e+03 2.722094154357910156e+01 -5.902569293975830078e+00 8.104209882731083781e-06 -2.536552074161591008e-06 1.670297365308215376e-06 3.437613258938654326e-06
2.327000000000000000e+03 2.006271743774414062e+01 2.837608814239501953e+00 4.315592013881541789e-05 -1.192038689623586833e-05 9.370660336571745574e-06 -2.749033956206403673e-05
2.328000000000000000e+03 4.341939163208007812e+01 -1.259466934204101562e+01 2.423274600005242974e-05 -2.106257124978583306e-05 9.510524705547140911e-07 3.023925728484755382e-06
2.329000000000000000e+03 3.945307159423828125e+01 -1.982104539871215820e+00 4.811070175492204726e-05 1.172752126876730472e-05 1.795146636140998453e-05 5.077069090475561097e-06
2.330000000000000000e+03 7.167150878906250000e+01 -1.799272918701171875e+01 -2.184680849313735962e-01 5.408322904258966446e-03 -6.391792744398117065e-02 -3.641198575496673584e-01
2.331000000000000000e+03 7.223436737060546875e+01 -1.637255287170410156e+01 -7.657653838396072388e-02 -1.160611491650342941e-02 -2.645479515194892883e-02 -3.620411753654479980e-01
2.332000000000000000e+03 6.932122802734375000e+01 -1.576658153533935547e+01 1.007584556937217712e-01 3.300726413726806641e-02 4.012971371412277222e-02 -2.187220454216003418e-01
2.333000000000000000e+03 1.282893085479736328e+01 6.324410915374755859e+00 2.484103606548160315e-05 -2.171948290197178721e-05 9.364663924316118937e-07 -7.295505383808631450e-06
2.334000000000000000e+03 3.960643768310546875e+01 1.976723670959472656e-01 -1.968908145499881357e-05 -1.202963449031813070e-05 -9.515614692645613104e-06 -2.826576519510126673e-06
2.335000000000000000e+03 4.082580947875976562e+01 -5.382521629333496094e+00 -4.523292591329663992e-05 -1.429090389137854800e-05 -1.785714812285732478e-05 -1.311338110099313781e-05
2.336000000000000000e+03 6.898239135742187500e+01 -1.719148063659667969e+01 -3.102250024676322937e-02 -7.503737509250640869e-02 -3.181796148419380188e-02 -2.892796695232391357e-01
2.337000000000000000e+03 7.137837219238281250e+01 -1.351737213134765625e+01 1.005879119038581848e-01 1.055645495653152466e-01 6.184573844075202942e-02 -2.505448162555694580e-01
2.338000000000000000e+03 1.144565677642822266e+01 6.429673194885253906e+00 1.518674071121495217e-05 -2.033540476986672729e-05 -1.544599399494472891e-06 -1.489022452005883679e-05
2.339000000000000000e+03 7.202388763427734375e+01 -1.256131267547607422e+01 9.317975491285324097e-02 1.188337877392768860e-01 6.360406428575515747e-02 -2.485231161117553711e-01
2.340000000000000000e+03 4.285216522216796875e+01 -7.937001705169677734e+00 1.875541602203156799e-05 2.339867933187633753e-05 1.264622824237449095e-05 2.414671507722232491e-05
2.341000000000000000e+03 4.217219543457031250e+01 -1.170671749114990234e+01 2.459182360325939953e-05 1.324821005255216733e-05 1.135201000579399988e-05 1.882780634332448244e-05
2.342000000000000000e+03 1.042781162261962891e+01 2.739409446716308594e+01 -2.240098183392547071e-05 -2.387514723523054272e-05 -1.388283908454468474e-05 4.119689037906937301e-05
2.343000000000000000e+03 3.486733245849609375e+01 -1.163428020477294922e+01 2.006657632591668516e-05 7.954681677802000195e-06 8.406377673964016140e-06 -6.514572419291653205e-07
2.344000000000000000e+03 7.628407955169677734e+00 1.424507904052734375e+01 3.436248880461789668e-05 9.528837836114689708e-06 1.316739781032083556e-05 2.055641562037635595e-05
2.345000000000000000e+03 9.846875190734863281e+00 1.782538795471191406e+01 3.725675560417585075e-05 1.956660526047926396e-05 1.704700844129547477e-05 4.497840563999488950e-05
2.346000000000000000e+03 8.620124816894531250e+00 1.809339714050292969e+01 -4.807082586921751499e-05 -1.708960553514771163e-05 -1.954812978510744870e-05 -1.395779054291779175e-05
2.347000000000000000e+03 1.110045242309570312e+01 8.864469528198242188e+00 -2.699473225220572203e-05 2.026852780545596033e-05 -2.017861561398603953e-06 7.586214451293926686e-06
2.348000000000000000e+03 3.661467361450195312e+01 4.484253406524658203e+00 6.635452155023813248e-05 3.162980874549248256e-06 2.085525011352729052e-05 3.946960714529268444e-05
2.349000000000000000e+03 3.527432250976562500e+01 1.169404029846191406e+01 4.917577825835905969e-05 7.105234089976875111e-06 1.688430347712710500e-05 4.588235606206580997e-05
2.350000000000000000e+03 6.658929443359375000e+01 -2.061798095703125000e+01 -9.813889861106872559e-01 -3.547466099262237549e-01 -4.008406698703765869e-01 -2.675779759883880615e-01
2.351000000000000000e+03 3.566891098022460938e+01 1.037103652954101562e+01 -1.034614397212862968e-04 -4.972989245288772509e-06 -3.253032991779036820e-05 -1.729836003505624831e-05
2.352000000000000000e+03 3.549868392944335938e+01 7.037529468536376953e+00 5.780833453172817826e-05 -1.184886878036195412e-05 1.378783872496569529e-05 5.652975596603937447e-05
2.353000000000000000e+03 3.367381668090820312e+01 2.469972419738769531e+01 -4.439498879946768284e-04 4.220290429657325149e-05 -1.205240914714522660e-04 6.418953853426501155e-05
2.354000000000000000e+03 3.823223876953125000e+01 2.614529991149902344e+01 -6.002446752972900867e-04 1.926746917888522148e-04 -1.222709979629144073e-04 -1.718294879538007081e-05
2.355000000000000000e+03 4.110358428955078125e+01 -6.675870895385742188e+00 4.301920125726610422e-05 1.639542097109369934e-05 1.782438630471006036e-05 1.485514894739026204e-05
2.356000000000000000e+03 7.028075218200683594e+00 1.176884937286376953e+01 2.589916402939707041e-05 2.196911736973561347e-06 8.428822184214368463e-06 9.208516530634369701e-06
2.357000000000000000e+03 3.592676544189453125e+01 2.581077766418457031e+01 -4.322315508034080267e-04 -8.486252227157820016e-06 -1.322153402725234628e-04 7.243336585815995932e-05
2.358000000000000000e+03 3.587476730346679688e+01 3.023364543914794922e+00 4.199138129479251802e-05 2.074276562780141830e-05 1.882024480437394232e-05 3.945590287912636995e-05
2.359000000000000000e+03 3.806207656860351562e+01 1.059533953666687012e+00 1.084237374016083777e-04 -2.808568387990817428e-05 2.410141678410582244e-05 -2.800397487590089440e-05
2.360000000000000000e+03 3.936074829101562500e+01 -4.408067703247070312e+00 -4.141831232118420303e-05 -9.233789569407235831e-06 -1.519563011243008077e-05 -7.414778792735887691e-06
2.361000000000000000e+03 9.917066574096679688e+00 1.919568252563476562e+01 -3.594235386117361486e-05 -3.518490484566427767e-05 -2.133817724825348705e-05 -1.725786023598629981e-05
2.362000000000000000e+03 8.787790298461914062e+00 3.576599884033203125e+01 -6.415900861611589789e-05 -4.542890383163467050e-05 -3.287637446192093194e-05 -2.674308234418276697e-05
2.363000000000000000e+03 1.020082855224609375e+01 3.275890731811523438e+01 -7.588210428366437554e-05 -2.815867992467246950e-05 -3.121223562629893422e-05 3.232374001527205110e-05
2.364000000000000000e+03 3.915647125244140625e+01 3.100020790100097656e+01 -7.583151455037295818e-04 9.772005432751029730e-05 -1.981785171665251255e-04 2.274093858432024717e-04
2.365000000000000000e+03 9.229505538940429688e+00 9.628676414489746094e+00 1.999298001464921981e-05 -3.449328232818515971e-06 4.963095761922886595e-06 -1.462771615479141474e-05
2.366000000000000000e+03 7.973040580749511719e+00 1.137135028839111328e+01 -4.721767254523001611e-05 -3.324280726246797713e-07 -1.426502967660780996e-05 -1.448469447495881468e-05
2.367000000000000000e+03 3.345724868774414062e+01 1.918561363220214844e+01 8.863384573487564921e-05 3.578335235943086445e-05 3.732516051968559623e-05 9.664082608651369810e-05
2.368000000000000000e+03 3.465961837768554688e+01 1.624703216552734375e+01 -2.601930173113942146e-04 -9.360226613353006542e-06 -8.086597517831251025e-05 -4.986341082258149981e-05
2.369000000000000000e+03 9.448490142822265625e+00 2.197343254089355469e+01 -2.161635347874835134e-05 -2.489213693479541689e-05 -1.395254730596207082e-05 1.419300861016381532e-05
2.370000000000000000e+03 1.128322792053222656e+01 2.590537643432617188e+01 3.495360715533024631e-06 -1.996206447074655443e-05 -4.940010967402486131e-06 1.210022946906974539e-05
2.371000000000000000e+03 3.071048164367675781e+01 -9.388624191284179688e+00 1.927492849063128233e-05 4.434698439581552520e-06 7.112887942639645189e-06 1.516273550805635750e-05
2.372000000000000000e+03 3.052923202514648438e+01 -8.623159408569335938e+00 -8.217493814299814403e-06 -1.223378967551980168e-05 -6.135385319794295356e-06 -1.328062717220745981e-05
2.373000000000000000e+03 2.957363510131835938e+01 -8.220400810241699219e+00 -1.651716502237832174e-06 -1.017064732877770439e-05 -3.546709194779396057e-06 -3.795221346081234515e-06
2.374000000000000000e+03 4.094612884521484375e+01 -1.317057418823242188e+01 -1.521345257060602307e-05 -2.568126774349366315e-06 -5.334473826223984361e-06 -3.207882627975777723e-06
2.375000000000000000e+03 4.238831710815429688e+01 -1.403190708160400391e+01 6.384475909726461396e-06 1.857285133155528456e-05 7.487198672606609762e-06 8.589893695898354053e-06
2.376000000000000000e+03 2.992587661743164062e+01 -7.088306427001953125e+00 -2.334334340048371814e-06 -1.263640388060593978e-05 -4.491221261559985578e-06 -4.152206656726775691e-06
2.377000000000000000e+03 9.732897758483886719e+00 7.535168647766113281e+00 -1.475199223932577297e-05 1.759253427735529840e-05 8.521626568835927173e-07 1.213654923049034551e-05
2.378000000000000000e+03 8.694419860839843750e+00 8.962279319763183594e+00 -2.107488217006903142e-05 1.317120495514245704e-05 -2.371103164477972314e-06 2.618052894831635058e-05
2.379000000000000000e+03 7.085405349731445312e+00 6.817355155944824219e+00 -7.936419933685101569e-06 -1.435303056496195495e-05 -6.686835149594116956e-06 -1.608374259376432747e-05
2.380000000000000000e+03 6.706264019012451172e+00 7.393988609313964844e+00 -1.102296755561837927e-05 1.023095319396816194e-05 -2.376044534457832924e-07 1.690469980530906469e-05
2.381000000000000000e+03 2.226736831665039062e+01 1.064615845680236816e+00 -1.949606485140975565e-05 -1.882670403574593365e-06 -6.413620212697423995e-06 2.831473284459207207e-05
2.382000000000000000e+03 2.155070686340332031e+01 1.692518353462219238e+00 2.942077298939693719e-05 -4.659168553189374506e-06 7.428481239912798628e-06 -3.012488923559430987e-05
2.383000000000000000e+03 2.276319313049316406e+01 1.756268858909606934e+00 2.600299376354087144e-05 -3.284878630438470282e-06 6.815434517193352804e-06 -3.256395211792550981e-05
2.384000000000000000e+03 2.730920600891113281e+01 -3.300547599792480469e+00 8.250090104411356151e-06 -6.136991032690275460e-06 6.339298010971106123e-07 9.768491509021259844e-06
2.385000000000000000e+03 2.671864509582519531e+01 -2.554491996765136719e+00 -1.273527459488832392e-06 2.255840399811859243e-06 2.946939332559850300e-07 -1.283753408642951399e-05
2.386000000000000000e+03 1.898232269287109375e+01 4.551553726196289062e+00 -6.621731154154986143e-05 2.044219763774890453e-05 -1.373253326164558530e-05 2.055019285762682557e-05
2.387000000000000000e+03 2.416833686828613281e+01 3.820751905441284180e-01 1.178939419332891703e-05 2.156260507035767660e-06 4.183696546533610672e-06 -2.777046756818890572e-05
2.388000000000000000e+03 3.026608657836914062e+01 -7.868556022644042969e+00 8.195033842639531940e-06 1.219544174091424793e-05 6.117142675066133961e-06 8.586094736529048532e-06
2.389000000000000000e+03 2.788384628295898438e+01 -4.044105529785156250e+00 -1.232482304658333305e-06 -1.999130518015590496e-06 -9.694838354334933683e-07 -6.175671387609327212e-06
2.390000000000000000e+03 1.930133438110351562e+01 3.355476140975952148e+00 -5.080528717371635139e-05 1.500624239270109683e-05 -1.073971361620351672e-05 2.298819890711456537e-05
2.391000000000000000e+03 1.974087142944335938e+01 4.075232505798339844e+00 5.536514072446152568e-05 -1.760722989274654537e-05 1.132737270381767303e-05 -2.555023274908307940e-05
2.392000000000000000e+03 1.557063865661621094e+01 6.765411376953125000e+00 4.765618359670042992e-05 -2.820428562699817121e-05 5.835568572365446016e-06 -1.492798128310823813e-05
2.393000000000000000e+03 2.494207572937011719e+01 -1.687009572982788086e+00 3.245901325499289669e-06 -8.934754987421911210e-06 -1.706656121314154007e-06 1.765734486980363727e-05
2.394000000000000000e+03 2.484001731872558594e+01 -3.347271680831909180e-01 -2.215546373918186873e-06 -8.941105988924391568e-06 -3.346995754327508621e-06 2.391413909208495170e-05
2.395000000000000000e+03 3.346671295166015625e+01 -1.239273071289062500e+01 -1.328207326878327876e-05 4.644542968890164047e-06 -2.591259089967934415e-06 7.630739673913922161e-06
2.396000000000000000e+03 4.441863250732421875e+01 -1.096101570129394531e+01 -2.175814188376534730e-05 -2.024329296546056867e-05 -1.260043063666671515e-05 -2.653656156326178461e-05
2.397000000000000000e+03 2.611455154418945312e+01 -1.805808544158935547e+00 5.575745035457657650e-06 -8.841519047564361244e-06 -9.797321354199084453e-07 1.659995177760720253e-05
2.398000000000000000e+03 1.685080909729003906e+01 5.838050365447998047e+00 5.523126674233935773e-05 -2.654022500792052597e-05 8.607312338426709175e-06 -9.823300388234201819e-06
2.399000000000000000e+03 1.564187812805175781e+01 5.570978164672851562e+00 4.898219776805490255e-05 -2.392987698840443045e-05 7.515695870097260922e-06 -7.835868927941191941e-06
2.400000000000000000e+03 4.160024261474609375e+01 -1.408863067626953125e+01 -7.441962679877178743e-06 -1.422008153895149007e-05 -6.498612947325455025e-06 -5.388929366745287552e-06
2.401000000000000000e+03 2.127423095703125000e+01 2.995877265930175781e+00 4.275069295545108616e-05 -1.097947824746370316e-05 9.531365321890916675e-06 -3.150996781187132001e-05
2.402000000000000000e+03 3.885078048706054688e+01 -3.322819471359252930e+00 4.441859709913842380e-05 8.062516826612409204e-06 1.574433372297789901e-05 1.017694194160867482e-05
2.403000000000000000e+03 3.979201889038085938e+01 -5.468025207519531250e+00 4.237751636537723243e-05 1.314697510679252446e-05 1.665734816924668849e-05 1.425621758244233206e-05
2.404000000000000000e+03 2.948209381103515625e+01 -6.309409618377685547e+00 7.441918114636791870e-06 3.474303639450226910e-06 3.274866458014003001e-06 5.328823135641869158e-06
2.405000000000000000e+03 2.782516098022460938e+01 -5.356950283050537109e+00 -1.351204332422639709e-06 -2.718232281040400267e-06 -1.220830995407595765e-06 -5.280975528876297176e-06
2.406000000000000000e+03 4.351698684692382812e+01 -9.052911758422851562e+00 -1.424102265445981175e-05 -2.485354707459919155e-05 -1.172837073681876063e-05 -2.340281207580119371e-05
2.407000000000000000e+03 3.592330169677734375e+01 -1.088101482391357422e+01 9.058743671630509198e-06 1.292281012865714729e-05 6.594466412934707478e-06 4.391362836031476036e-06
2.408000000000000000e+03 7.067523956298828125e+01 -1.441207885742187500e+01 8.793059736490249634e-02 9.002248197793960571e-02 5.338592454791069031e-02 -2.543977797031402588e-01
2.409000000000000000e+03 3.927206802368164062e+01 -1.258580780029296875e+01 -1.777546276571229100e-05 -8.318045729538425803e-06 -7.828052730474155396e-06 -2.330315055587561801e-06
2.410000000000000000e+03 3.833820724487304688e+01 -2.214530944824218750e+00 -5.205065099289640784e-05 -3.367822955624433234e-06 -1.662554132053628564e-05 -3.568736929082660936e-06
2.411000000000000000e+03 7.821701526641845703e+00 1.030511188507080078e+01 3.707318319357000291e-05 9.596315976523328573e-06 1.400084966007852927e-05 2.793715248117223382e-05
2.412000000000000000e+03 7.693865776062011719e+00 7.988820075988769531e+00 -2.024827335844747722e-05 1.861256896518170834e-05 -4.907114998786710203e-07 7.236933470267103985e-06
2.413000000000000000e+03 1.360306262969970703e+01 7.167816162109375000e+00 -3.671650483738631010e-05 2.625752313178963959e-05 -3.137693965982180089e-06 6.606979695789050311e-06
2.414000000000000000e+03 4.000602340698242188e+01 -6.532207012176513672e+00 -4.082680243300274014e-05 -1.614556458662264049e-05 -1.709171010588761419e-05 -1.969785080291330814e-05
2.415000000000000000e+03 4.194654083251953125e+01 -8.608462333679199219e+00 1.754112417984288186e-05 -1.851219531090464443e-05 -2.913213847932638600e-07 -2.614446657389635220e-06
2.416000000000000000e+03 4.004096984863281250e+01 -1.034805583953857422e+01 2.631615825521294028e-05 7.536666089436039329e-06 1.015584712149575353e-05 1.324128561464021914e-06
2.417000000000000000e+03 4.221922683715820312e+01 -1.333156967163085938e+01 -2.726493903537630104e-06 -1.812947084545157850e-05 -6.256789220060454682e-06 -1.044802957039792091e-05
2.418000000000000000e+03 4.403509902954101562e+01 -1.003035640716552734e+01 1.781378341547679156e-05 2.418160329398233443e-05 1.259861619473667815e-05 2.497662353562191129e-05
2.419000000000000000e+03 3.717084121704101562e+01 1.224669814109802246e+00 -8.777521725278347731e-05 2.265555167468846776e-06 -2.565289833000861108e-05 9.278551260649692267e-06
2.420000000000000000e+03 3.790557479858398438e+01 -1.073813796043395996e+00 7.091147563187405467e-05 -2.029383665558270877e-07 2.121256147802341729e-05 5.242200131760910153e-06
2.421000000000000000e+03 1.300413227081298828e+01 7.883976936340332031e+00 2.002683504542801529e-05 -2.200422204623464495e-05 -5.932161570854077581e-07 -9.030754881678149104e-06
2.422000000000000000e+03 9.437397003173828125e+00 1.212869262695312500e+01 -4.781936513609252870e-05 -7.704211952841433231e-07 -1.457693542761262506e-05 -1.304688885284122080e-05
2.423000000000000000e+03 1.040042877197265625e+01 8.161498069763183594e+00 1.309036633756477386e-05 -1.481326580687891692e-05 -5.168698749002942350e-07 -1.180860454041976482e-05
2.424000000000000000e+03 1.092544460296630859e+01 7.302984237670898438e+00 -2.047835914709139615e-05 2.114374728989787400e-05 1.996162666273448849e-07 9.486701856076251715e-06
2.425000000000000000e+03 3.075417137145996094e+01 -1.022235488891601562e+01 -1.748136492096818984e-05 -8.321315362991299480e-06 -7.740803994238376617e-06 -1.353663810732541606e-05
2.426000000000000000e+03 4.281580734252929688e+01 -1.305222797393798828e+01 1.197499614136177115e-06 1.711246659397147596e-05 5.492990112543338910e-06 1.349514514004113153e-05
2.427000000000000000e+03 9.543957710266113281e+00 1.646176528930664062e+01 -6.038490028004162014e-05 -1.437358696421142668e-05 -2.242754635517485440e-05 -1.992529905692208558e-05
2.428000000000000000e+03 3.669258880615234375e+01 -1.116612339019775391e+01 -1.967112621059641242e-05 -9.061726814252324402e-06 -8.619856089353561401e-06 -1.530206100142095238e-05
2.429000000000000000e+03 3.328639984130859375e+01 -9.184567451477050781e+00 2.790835969790350646e-05 5.391537342802621424e-06 9.989968930312898010e-06 -4.497542704484658316e-06
2.430000000000000000e+03 3.548538589477539062e+01 4.085773468017578125e+00 -4.042097134515643120e-05 -1.269253698410466313e-05 -1.593405249877832830e-05 -2.850500641216058284e-05
2.431000000000000000e+03 3.423874664306640625e+01 9.917346000671386719e+00 1.266310719074681401e-04 -1.872487337095662951e-05 3.237185956095345318e-05 1.764475382515229285e-05
2.432000000000000000e+03 1.216000461578369141e+01 1.778477859497070312e+01 5.705235525965690613e-05 1.152006007032468915e-06 1.746130874380469322e-05 1.711112417979165912e-05
2.433000000000000000e+03 1.120261383056640625e+01 1.926174545288085938e+01 1.332996635028393939e-05 3.781494888244196773e-05 1.534347393317148089e-05 5.215071359998546541e-05
2.434000000000000000e+03 1.184794330596923828e+01 9.568763732910156250e+00 1.965260889846831560e-05 -2.424587182758841664e-05 -1.377978719574457500e-06 -1.748068098095245659e-05
2.435000000000000000e+03 8.950746536254882812e+00 1.103180217742919922e+01 3.489315349725075066e-05 -8.107696203296654858e-07 1.022471496980870143e-05 8.691943548910785466e-06
2.436000000000000000e+03 3.616820144653320312e+01 2.032739877700805664e+00 -3.522645420162007213e-05 -3.896424823324196041e-05 -2.225721073045860976e-05 -3.694396218634210527e-05
2.437000000000000000e+03 3.783411407470703125e+01 2.604180574417114258e-02 -9.562451305100694299e-05 1.519289526186184958e-05 -2.412948379060253501e-05 2.083934305119328201e-05
2.438000000000000000e+03 3.432595062255859375e+01 6.328628540039062500e+00 -2.279673026350792497e-05 -1.611179754945624154e-06 -7.322373221541056409e-06 -3.662571907625533640e-05
2.439000000000000000e+03 8.387251853942871094e+00 1.259412670135498047e+01 3.599782940000295639e-05 5.459490239445585757e-06 1.243719634658191353e-05 1.653024446568451822e-05
2.440000000000000000e+03 3.238676452636718750e+01 2.180329132080078125e+01 -5.577337287832051516e-05 1.332803731202147901e-05 -1.273360066988971084e-05 2.617895661387592554e-04
2.441000000000000000e+03 3.311447906494140625e+01 2.049740028381347656e+01 -1.608834572834894061e-04 4.368911322671920061e-05 -3.515830030664801598e-05 -2.157961571356281638e-04
2.442000000000000000e+03 1.046988010406494141e+01 2.380000686645507812e+01 -1.495197284384630620e-05 -2.512213541194796562e-05 -1.202223211294040084e-05 1.473785323469201103e-05
2.443000000000000000e+03 1.277242469787597656e+01 2.670807266235351562e+01 -2.379894795012660325e-05 -9.359279829368460923e-06 -9.947468242899049073e-06 3.215363176423124969e-05
2.444000000000000000e+03 1.180161666870117188e+01 2.837934112548828125e+01 2.467783633619546890e-05 -1.041885570884915069e-05 4.277694188203895465e-06 8.579889254178851843e-06
2.445000000000000000e+03 3.328296279907226562e+01 2.293252182006835938e+01 1.018039329210296273e-04 3.813791772699914873e-05 4.198255555820651352e-05 -7.351844396907836199e-05
2.446000000000000000e+03 1.090761375427246094e+01 2.229420280456542969e+01 4.000764874945161864e-06 1.518645058240508661e-05 5.756164682679809630e-06 2.066835440928116441e-05
2.447000000000000000e+03 9.036801338195800781e+00 2.338498687744140625e+01 1.047300975187681615e-05 1.934057991093141027e-06 3.722120482052559964e-06 1.226567474077455699e-05
2.448000000000000000e+03 3.120336341857910156e+01 -8.426486968994140625e+00 1.449751471227500588e-05 1.292361594096291810e-05 8.226339559769257903e-06 1.748971953929867595e-05
2.449000000000000000e+03 2.729293060302734375e+01 -4.619917392730712891e+00 7.938313501654192805e-06 -3.505103222778416239e-06 1.329962969975895248e-06 6.445930466725258157e-06
2.450000000000000000e+03 4.323107147216796875e+01 -1.042114925384521484e+01 7.571742912659829017e-07 -2.361310907872393727e-05 -6.856780601083301008e-06 -1.054910626407945529e-05
2.451000000000000000e+03 2.347590255737304688e+01 1.081694841384887695e+00 -1.590534702700097114e-05 -4.698664724855916575e-06 -6.181203389132861048e-06 3.015342008438892663e-05
2.452000000000000000e+03 2.473202896118164062e+01 1.071177959442138672e+00 -1.059569513017777354e-05 -7.604051461385097355e-06 -5.459924068418331444e-06 3.142834611935541034e-05
2.453000000000000000e+03 3.098271369934082031e+01 -7.595933914184570312e+00 -1.000134216155856848e-05 -1.777899524313397706e-05 -8.334101039508823305e-06 -1.404333852406125516e-05
2.454000000000000000e+03 1.166512584686279297e+01 7.977476119995117188e+00 1.877932663774117827e-05 -2.026005677180364728e-05 -4.442192107489972841e-07 -1.124333357438445091e-05
2.455000000000000000e+03 2.843636322021484375e+01 -4.793477058410644531e+00 5.903534201934235170e-06 1.110759058065013960e-06 2.104287887050304562e-06 5.328999122866662219e-06
2.456000000000000000e+03 7.185105323791503906e+00 7.722159385681152344e+00 -3.392542566871270537e-05 5.334172215043508913e-07 -1.001760301733156666e-05 -1.857794813986402005e-05
2.457000000000000000e+03 2.541395950317382812e+01 3.315037786960601807e-01 6.651904186583124101e-06 2.493930651326081716e-06 2.743750428635394201e-06 -2.692208727239631116e-05
2.458000000000000000e+03 3.068862915039062500e+01 -6.677634716033935547e+00 1.100112422136589885e-05 1.543333928566426039e-05 7.930339052109047771e-06 1.067249286279547960e-05
2.459000000000000000e+03 2.790085792541503906e+01 -2.695941686630249023e+00 -3.481683052086737007e-06 7.903132654973887838e-07 -8.074109132394369226e-07 -1.024336870614206418e-05
2.460000000000000000e+03 2.730364990234375000e+01 -1.941735863685607910e+00 7.758657375234179199e-06 -8.773279660090338439e-06 -3.043866456664545694e-07 1.560195596539415419e-05
2.461000000000000000e+03 1.946438217163085938e+01 5.281725406646728516e+00 6.829838093835860491e-05 -2.217296059825457633e-05 1.383762719342485070e-05 -2.100478741340339184e-05
2.462000000000000000e+03 1.874303054809570312e+01 5.709417819976806641e+00 -7.995279884198680520e-05 2.395454976067412645e-05 -1.679947308730334044e-05 1.538749347673729062e-05
2.463000000000000000e+03 1.825125122070312500e+01 4.989402770996093750e+00 6.437009142246097326e-05 -2.511711863917298615e-05 1.177589183498639613e-05 -1.781416904123034328e-05
2.464000000000000000e+03 1.106791400909423828e+01 1.788460350036621094e+01 -3.028659739356953651e-05 -4.254613668308593333e-05 -2.184982076869346201e-05 -4.017189348815008998e-05
2.465000000000000000e+03 2.548959541320800781e+01 -1.064434766769409180e+00 3.269237367931054905e-06 3.520164682413451374e-06 2.036820660578086972e-06 -2.031813892244827002e-05
2.466000000000000000e+03 3.271572113037109375e+01 -1.100782012939453125e+01 2.371139271417632699e-05 5.156587121746269986e-06 8.660394087200984359e-06 1.263534795725718141e-05
2.467000000000000000e+03 4.267194747924804688e+01 -9.574298858642578125e+00 -8.230223102145828307e-06 2.712147943384479731e-05 5.667377081408631057e-06 7.235569682961795479e-06
2.468000000000000000e+03 2.021764945983886719e+01 4.810525417327880859e+00 -6.786217272747308016e-05 1.700493339740205556e-05 -1.525717107142554596e-05 2.405590566922910511e-05
2.469000000000000000e+03 2.669617652893066406e+01 -1.181499004364013672e+00 -3.339594343287899392e-07 2.919395001299562864e-06 7.756306104056420736e-07 -1.866177808551583439e-05
2.470000000000000000e+03 1.804749679565429688e+01 6.116844654083251953e+00 6.900503649376332760e-05 -2.877682891266886145e-05 1.206846263812622055e-05 -1.240108576894272119e-05
2.471000000000000000e+03 4.315048980712890625e+01 -1.152766799926757812e+01 2.405804116278886795e-05 -1.616139161342289299e-05 2.368994955759262666e-06 2.198063521063886583e-05
2.472000000000000000e+03 1.049412918090820312e+01 9.739268302917480469e+00 1.670991514401976019e-05 -1.076325133908540010e-05 1.783999209692410659e-06 -6.093790034356061369e-06
2.473000000000000000e+03 1.222961139678955078e+01 7.128769874572753906e+00 -2.800340189423877746e-05 2.504337135178502649e-05 -8.880091968421766069e-07 7.740713044768199325e-06
2.474000000000000000e+03 3.779263305664062500e+01 -3.621443033218383789e+00 -3.800496779149398208e-05 -8.149112545652315021e-06 -1.384622464684071019e-05 -1.084593077393947169e-05
2.475000000000000000e+03 1.792534637451171875e+01 7.186450481414794922e+00 6.898230640217661858e-05 -3.179990380886010826e-05 1.115472059609601274e-05 -4.452313078218139708e-06
2.476000000000000000e+03 1.496507930755615234e+01 7.306086063385009766e+00 -5.158206840860657394e-05 3.256329728174023330e-05 -5.705631338059902191e-06 1.442136635887436569e-05
2.477000000000000000e+03 2.959057807922363281e+01 -5.001227378845214844e+00 -7.581118666166730691e-07 9.201172360917553306e-06 2.532918188080657274e-06 3.810660473391180858e-06
2.478000000000000000e+03 9.913765907287597656e+00 1.335173511505126953e+01 3.040388219233136624e-05 1.321637500950600952e-05 1.308607716055121273e-05 2.068198045890312642e-05
2.479000000000000000e+03 4.096350860595703125e+01 -7.885550498962402344e+00 -5.107955075800418854e-05 8.783754310570657253e-06 -1.268873893423005939e-05 -6.490073246823158115e-06
2.480000000000000000e+03 3.668671417236328125e+01 -1.298366069793701172e+00 -4.424119833856821060e-05 -1.097421227314043790e-05 -1.656462336541153491e-05 -2.111490539391525090e-05
2.481000000000000000e+03 3.750311279296875000e+01 -1.123258686065673828e+01 2.880766442103777081e-05 4.270803401595912874e-06 9.923540346790105104e-06 7.427946457028156146e-06
2.482000000000000000e+03 3.913815689086914062e+01 -6.445184707641601562e+00 4.032914148410782218e-05 2.012108961935155094e-05 1.813506969483569264e-05 2.992849658767227083e-05
2.483000000000000000e+03 1.569522476196289062e+01 7.971482753753662109e+00 4.241767237544991076e-05 -3.459833533270284534e-05 2.345801476622000337e-06 -2.327924994460772723e-05
2.484000000000000000e+03 1.437864971160888672e+01 7.934951782226562500e+00 2.955999298137612641e-05 -3.078442023252137005e-05 -3.673281980809406377e-07 -1.017156046145828441e-05
2.485000000000000000e+03 3.268224334716796875e+01 1.148105239868164062e+01 1.486139226472005248e-04 -3.342572017572820187e-05 3.455646219663321972e-05 3.555944567779079080e-05
2.486000000000000000e+03 4.254789352416992188e+01 -1.097005748748779297e+01 -1.838772550399880856e-05 1.384841471008257940e-05 -1.361793124488031026e-06 -6.054726327420212328e-06
2.487000000000000000e+03 3.901792526245117188e+01 -7.291738033294677734e+00 -4.449761036084964871e-05 -7.494966212107101455e-06 -1.559777228976599872e-05 -2.032803786278236657e-05
2.488000000000000000e+03 1.321597290039062500e+01 9.421319007873535156e+00 1.244278973899781704e-05 -1.314728433499112725e-05 -2.113483361654289183e-07 -1.403748501616064459e-05
2.489000000000000000e+03 4.068875503540039062e+01 -1.005681324005126953e+01 5.266511834634002298e-06 -1.345937016594689339e-05 -2.457857362969662063e-06 7.237002819238114171e-07
2.490000000000000000e+03 3.353656005859375000e+01 2.967682123184204102e+00 -1.598183735040947795e-05 -1.843339191509585362e-06 -5.347553269530180842e-06 -1.905907447508070618e-05
2.491000000000000000e+03 9.132254600524902344e+00 1.512462425231933594e+01 3.699619992403313518e-05 1.232390241057146341e-05 1.479603088228031993e-05 2.036654041148722172e-05
2.492000000000000000e+03 3.931771469116210938e+01 -1.141824054718017578e+01 2.241467336716596037e-05 1.068782603397266939e-05 9.930749911291059107e-06 2.730478740886610467e-07
2.493000000000000000e+03 3.356535339355468750e+01 -1.122371959686279297e+01 -1.292585329792927951e-05 -6.433810540329432115e-06 -5.807899015053408220e-06 2.296083721375907771e-06
2.494000000000000000e+03 3.226239776611328125e+01 1.310157203674316406e+01 -1.412926649209111929e-04 2.511707498342730105e-05 -3.485267734504304826e-05 -1.276797556784003973e-04
2.495000000000000000e+03 3.836122512817382812e+01 -4.692936420440673828e+00 3.418692722334526479e-05 9.931643035088200122e-06 1.323557171417633072e-05 1.544871156511362642e-05
2.496000000000000000e+03 3.499388122558593750e+01 -1.056379508972167969e+01 -1.701175460766535252e-05 -1.248861099156783894e-05 -8.850110134517308325e-06 -1.434090904695040081e-06
2.497000000000000000e+03 3.096694374084472656e+01 2.156874847412109375e+01 -3.660669608507305384e-04 7.855045259930193424e-05 -8.625494956504553556e-05 -1.286992774112150073e-04
2.498000000000000000e+03 3.488564300537109375e+01 1.768058586120605469e+01 1.664437731960788369e-04 9.097294650928233750e-07 5.020605021854862571e-05 4.687826003646478057e-05
2.499000000000000000e+03 3.325672912597656250e+01 5.464735984802246094e+00 1.274996975553222001e-05 -1.994650665437802672e-05 -2.158961024179006927e-06 3.102067057625390589e-05
2.500000000000000000e+03 3.391025543212890625e+01 4.533886432647705078e+00 -2.103814586007501930e-05 -1.401519966748310253e-06 -6.731899702572263777e-06 -2.280065018567256629e-05
2.501000000000000000e+03 1.351990222930908203e+01 2.495601081848144531e+01 8.876570063875988126e-06 -4.183411510894075036e-05 -9.887264241115190089e-06 1.928254459926392883e-05
2.502000000000000000e+03 1.444258403778076172e+01 2.762973785400390625e+01 2.029280221904627979e-05 -2.910641342168673873e-05 -2.644083679115283303e-06 2.935429074568673968e-05
2.503000000000000000e+03 4.933802795410156250e+01 3.410052871704101562e+01 -6.698808632791042328e-03 7.859478355385363102e-04 -1.773858326487243176e-03 -9.141643531620502472e-04
2.504000000000000000e+03 1.131519412994384766e+01 3.477547073364257812e+01 1.049431375577114522e-04 -3.740453757927753031e-05 2.026157926593441516e-05 2.004300404223613441e-05
2.505000000000000000e+03 1.336856842041015625e+01 2.954694747924804688e+01 -3.029153049283195287e-05 -3.536976146278902888e-05 -1.969838740478735417e-05 4.149174492340534925e-05
2.506000000000000000e+03 1.245998668670654297e+01 2.264817619323730469e+01 -1.369525125483050942e-05 -4.226163582643494010e-05 -1.678706576058175415e-05 4.670596354117151350e-06
2.507000000000000000e+03 3.426259613037109375e+01 2.672745513916015625e+01 4.950703441863879561e-05 1.115182531066238880e-04 4.830758552998304367e-05 4.407829328556545079e-05
2.508000000000000000e+03 3.201043319702148438e+01 2.325346183776855469e+01 -3.267458523623645306e-04 6.959868915146216750e-05 -7.714414823567494750e-05 -1.621379778953269124e-04
2.509000000000000000e+03 1.118689727783203125e+01 2.075756072998046875e+01 -2.218076406279578805e-05 -4.543961404124274850e-05 -2.028611379500944167e-05 5.031475325267820153e-07
2.510000000000000000e+03 6.201270580291748047e+00 3.815581893920898438e+01 2.269188735226634890e-05 -5.855263225384987891e-05 -1.075822365237399936e-05 9.149232937488704920e-06
2.511000000000000000e+03 5.457468414306640625e+01 3.521694564819335938e+01 -2.135541662573814392e-02 -5.442430730909109116e-03 -8.039354346692562103e-03 5.995576502755284309e-04
2.512000000000000000e+03 7.013409423828125000e+01 3.744068527221679688e+01 -1.838948577642440796e-01 4.435696303844451904e-01 7.790243625640869141e-02 3.245446085929870605e-02
2.513000000000000000e+03 7.211286163330078125e+01 3.667328262329101562e+01 -1.625817865133285522e-01 2.706081569194793701e-01 3.240790963172912598e-02 1.337033659219741821e-01
2.514000000000000000e+03 3.169571304321289062e+01 1.801023292541503906e+01 1.381584879709407687e-04 1.705798786133527756e-05 4.656494638766162097e-05 3.138480678899213672e-05
2.515000000000000000e+03 3.311092376708984375e+01 1.636587333679199219e+01 1.181373299914412200e-04 2.797527486109174788e-05 4.383378109196200967e-05 5.363375748856924474e-05
2.516000000000000000e+03 3.138889503479003906e+01 -9.241009712219238281e+00 -7.977156201377511024e-06 -1.272090776183176786e-05 -6.209419098013313487e-06 -2.049049544439185411e-05
2.517000000000000000e+03 3.172536468505859375e+01 -7.435257434844970703e+00 2.632816540426574647e-05 1.060022441379260272e-05 1.107851676351856440e-05 1.106281160900834948e-05
2.518000000000000000e+03 3.504244995117187500e+01 -9.375066757202148438e+00 2.303329165442846715e-05 7.946368896227795631e-06 9.293898074247408658e-06 -6.387683129105425905e-07
2.519000000000000000e+03 3.188203430175781250e+01 -8.284623146057128906e+00 -1.522251750429859385e-05 -1.555240487505216151e-05 -9.232477168552577496e-06 -1.120831529988208786e-05
2.520000000000000000e+03 2.402365303039550781e+01 1.789002895355224609e+00 2.103447877743747085e-05 -1.843652739808021579e-06 5.757247890869621187e-06 -3.498203295748680830e-05
2.521000000000000000e+03 2.253312683105468750e+01 3.124619245529174805e+00 4.006384915555827320e-05 -1.035951390804257244e-05 8.911300938052590936e-06 -3.530607864377088845e-05
2.522000000000000000e+03 4.185733795166015625e+01 -1.278020095825195312e+01 -1.219992464029928669e-05 1.209078527608653530e-05 -3.274174531497919816e-08 1.326381607213988900e-05
2.523000000000000000e+03 4.280223464965820312e+01 -1.204668426513671875e+01 -2.116118230333086103e-05 1.264596630790038034e-05 -2.554564844103879295e-06 -1.946303200384136289e-05
2.524000000000000000e+03 2.602675628662109375e+01 1.020278930664062500e+00 -3.603330696932971478e-06 -9.572406270308420062e-06 -3.952721272071357816e-06 3.105494397459551692e-05
2.525000000000000000e+03 2.328950309753417969e+01 2.476029872894287109e+00 -3.194091550540179014e-05 1.273809402846382000e-06 -9.200130989484023303e-06 3.569061300368048251e-05
2.526000000000000000e+03 3.018507003784179688e+01 -5.791418552398681641e+00 6.307790044957073405e-06 -1.168687595054507256e-05 -1.613725657989562023e-06 -8.929243449529167265e-06
2.527000000000000000e+03 2.848691558837890625e+01 -3.452325582504272461e+00 9.060168849828187376e-06 -3.690564881253521889e-06 1.610881326996604912e-06 6.846354608569527045e-06
2.528000000000000000e+03 3.153919219970703125e+01 -6.470358848571777344e+00 -2.463109194650314748e-05 -1.606326986802741885e-05 -1.220830836246022955e-05 -6.780707280995557085e-06
2.529000000000000000e+03 2.176536178588867188e+01 3.729688405990600586e+00 -5.343884186004288495e-05 1.083050392480799928e-05 -1.278250056202523410e-05 3.290293170721270144e-05
2.530000000000000000e+03 2.099178504943847656e+01 4.290495872497558594e+00 5.680882168235257268e-05 -1.778108526195865124e-05 1.170832092611817643e-05 -2.890478390327189118e-05
2.531000000000000000e+03 3.301589202880859375e+01 -1.008094787597656250e+01 -2.678280361578799784e-05 -2.927253035522880964e-06 -8.913017154554836452e-06 -2.569186563050607219e-06
2.532000000000000000e+03 2.051040077209472656e+01 3.554856538772583008e+00 -5.252963819657452404e-05 1.225939831783762202e-05 -1.208107187267160043e-05 2.795193722704425454e-05
2.533000000000000000e+03 1.998223686218261719e+01 6.048868656158447266e+00 -8.702593186171725392e-05 2.033486998698208481e-05 -2.000731910811737180e-05 1.469328799430513754e-05
2.534000000000000000e+03 2.851908874511718750e+01 -2.079300403594970703e+00 1.164063087344402447e-05 -8.142772458086255938e-06 1.049357592819433194e-06 1.324196182395098731e-05
2.535000000000000000e+03 2.606879615783691406e+01 -4.213784635066986084e-01 1.435111471437267028e-06 -9.602335012459661812e-06 -2.450166903145145625e-06 2.353067065996583551e-05
2.536000000000000000e+03 2.668050384521484375e+01 2.344601154327392578e-01 2.211567334597930312e-06 2.313830464117927477e-06 1.357619339614757337e-06 -2.609226430649869144e-05
2.537000000000000000e+03 2.905358314514160156e+01 -4.220057487487792969e+00 5.819840254162045312e-08 -6.812467290728818625e-06 -2.026280526479240507e-06 -1.569692813063738868e-06
2.538000000000000000e+03 2.730813217163085938e+01 -5.458730459213256836e-01 5.448803676699753851e-06 -1.010454070637933910e-05 -1.396721131641243119e-06 2.378966200922150165e-05
2.539000000000000000e+03 2.017075347900390625e+01 8.148580551147460938e+00 8.241561590693891048e-05 -1.092428465199191123e-05 2.144740028597880155e-05 5.101660281070508063e-05
2.540000000000000000e+03 1.242451572418212891e+01 8.683072090148925781e+00 -2.827765638357959688e-05 2.204028896812815219e-05 -1.871210315584903583e-06 1.415582300978712738e-05
2.541000000000000000e+03 3.019079399108886719e+01 -4.469046592712402344e+00 3.232755261706188321e-06 -2.060870610876008868e-05 -5.212785254116170108e-06 4.662603259930619970e-06
2.542000000000000000e+03 1.596379756927490234e+01 9.097845077514648438e+00 -7.564036422991193831e-06 -3.596756141632795334e-05 -1.305947898799786344e-05 -3.650444341474212706e-05
2.543000000000000000e+03 1.625130271911621094e+01 7.454689025878906250e+00 -6.038113133399747312e-05 2.864097950805444270e-05 -9.522045729681849480e-06 2.274788494105450809e-05
2.544000000000000000e+03 9.790764808654785156e+00 1.048180961608886719e+01 -3.642969750217162073e-05 4.922992957290261984e-06 -9.452011909161228687e-06 5.200517534831305966e-06
2.545000000000000000e+03 9.838243484497070312e+00 8.956287384033203125e+00 -2.198795846197754145e-05 1.208969024446560070e-05 -2.969480419778847136e-06 1.115363647841149941e-05
2.546000000000000000e+03 3.610255050659179688e+01 -5.384160995483398438e+00 2.003384724957868457e-05 3.613360604504123330e-05 1.685023562458809465e-05 2.942215178336482495e-05
2.547000000000000000e+03 3.690409469604492188e+01 3.939823210239410400e-01 5.221819810685701668e-05 -2.152888555428944528e-05 9.206793947669211775e-06 -4.153313057031482458e-05
2.548000000000000000e+03 4.139346694946289062e+01 -1.168481826782226562e+01 -2.179822331527248025e-05 -1.460998737456975505e-05 -1.092246293410426006e-05 -5.799764039693400264e-06
2.549000000000000000e+03 3.248725128173828125e+01 6.290194988250732422e+00 3.243591436330461875e-06 2.017639417317695916e-05 7.025995728326961398e-06 -5.064802098786458373e-05
2.550000000000000000e+03 3.838544845581054688e+01 -1.133694362640380859e+01 -2.266261617478448898e-05 -8.373690434382297099e-06 -9.310891982750035822e-06 -1.027448320201074239e-06
2.551000000000000000e+03 3.744332504272460938e+01 -5.000301361083984375e+00 -2.303774272149894387e-05 -1.168246308225207031e-05 -1.041606174112530425e-05 -1.249748311238363385e-05
2.552000000000000000e+03 1.145829105377197266e+01 1.688732147216796875e+01 -6.201831274665892124e-05 1.784678352123592049e-05 -1.325145785813219845e-05 4.721288860309869051e-05
2.553000000000000000e+03 1.380811977386474609e+01 8.657716751098632812e+00 -2.895113721024245024e-05 2.497103014320600778e-05 -1.194031938211992383e-06 7.432905931636923924e-06
2.554000000000000000e+03 3.721842956542968750e+01 -2.496143579483032227e+00 4.349405935499817133e-05 6.722646503476426005e-06 1.506501121184555814e-05 1.880279160104691982e-05
2.555000000000000000e+03 3.678559112548828125e+01 -4.009328365325927734e+00 2.554692218836862594e-05 1.291386251978110522e-05 1.153823541244491935e-05 1.837474701460450888e-05
2.556000000000000000e+03 4.128231430053710938e+01 -9.428509712219238281e+00 -1.316191355726914480e-05 1.093549872166477144e-05 -6.679244393126282375e-07 3.448316476806212449e-07
2.557000000000000000e+03 3.445649337768554688e+01 3.579085588455200195e+00 2.398740798525977880e-05 2.945085270766867325e-06 8.079748113232199103e-06 3.010654472745954990e-05
2.558000000000000000e+03 3.531081390380859375e+01 1.729667425155639648e+00 2.174006476707290858e-05 3.066359568038024008e-05 1.572109795233700424e-05 5.383023744798265398e-05
2.559000000000000000e+03 3.406660079956054688e+01 2.155626535415649414e+00 1.511284699518000707e-05 1.080500965144892689e-06 4.858004558627726510e-06 3.005027429026085883e-05
2.560000000000000000e+03 4.013207244873046875e+01 -9.600285530090332031e+00 -3.665982876555062830e-05 6.698297511320561171e-06 -8.988458830572199076e-06 9.340077440356253646e-07
2.561000000000000000e+03 3.890076446533203125e+01 -5.626564979553222656e+00 -2.928429239545948803e-05 -1.161760792456334457e-05 -1.227056964125949889e-05 -1.963916110980790108e-05
2.562000000000000000e+03 3.926884460449218750e+01 -1.034320354461669922e+01 -3.104734423686750233e-05 -5.909818810323486105e-06 -1.108714968722779304e-05 -1.096798030175705208e-07
2.563000000000000000e+03 3.277201080322265625e+01 9.767547607421875000e+00 -1.604274148121476173e-04 -1.181472498501534574e-06 -4.848266689805313945e-05 2.820263944158796221e-06
2.564000000000000000e+03 3.395960235595703125e+01 -1.035529136657714844e+01 1.876570968306623399e-05 9.786515875020995736e-06 8.565667485527228564e-06 2.800958327497937717e-06
2.565000000000000000e+03 3.160256385803222656e+01 1.467872047424316406e+01 7.863373321015387774e-05 -6.738526735716732219e-06 2.156856317014899105e-05 1.048683479893952608e-04
2.566000000000000000e+03 3.141915702819824219e+01 9.798825263977050781e+00 8.493942732457071543e-05 1.732051168801262975e-05 3.067798388656228781e-05 1.705762588244397193e-05
2.567000000000000000e+03 1.521602058410644531e+01 3.088212394714355469e+01 4.126765634282492101e-05 -1.813429662433918566e-05 6.940007551747839898e-06 3.199420825694687665e-05
2.568000000000000000e+03 1.356666374206542969e+01 3.306932067871093750e+01 -5.080467599327675998e-05 -5.517590034287422895e-05 -3.179417399223893881e-05 4.945980617776513100e-05
2.569000000000000000e+03 3.460481262207031250e+01 -7.470255374908447266e+00 3.520722020766697824e-05 1.446194687559909653e-06 1.099602468457305804e-05 5.434071681520435959e-07
2.570000000000000000e+03 3.822248077392578125e+01 -6.999011993408203125e+00 3.317212758702225983e-05 1.215404972754186019e-05 1.359785255772294477e-05 1.198056361317867413e-05
2.571000000000000000e+03 1.074861907958984375e+01 1.591665458679199219e+01 4.417709715198725462e-05 5.887917268410092220e-06 1.501950464444234967e-05 1.151514425146160647e-05
2.572000000000000000e+03 3.073106193542480469e+01 2.880104064941406250e+00 -1.112782138079637662e-05 2.194274566136300564e-05 3.244477511543664150e-06 -3.064500924665480852e-05
2.573000000000000000e+03 3.551747131347656250e+01 -1.658386349678039551e+00 3.105760697508230805e-05 1.417922430846374482e-05 1.357104974886169657e-05 2.518067230994347483e-05
2.574000000000000000e+03 1.194995880126953125e+01 2.432161331176757812e+01 -1.242659618583275005e-05 9.710193808132316917e-06 -8.149208383656514343e-07 2.858853622456081212e-05
2.575000000000000000e+03 1.410564231872558594e+01 2.315687942504882812e+01 -3.439076317590661347e-05 4.018003164674155414e-05 1.736779950078926049e-06 3.772645868593826890e-05
2.576000000000000000e+03 2.994839477539062500e+01 2.485190010070800781e+01 -1.992579782381653786e-04 4.328593058744445443e-05 -4.679161429521627724e-05 -1.180562103400006890e-04
2.577000000000000000e+03 2.667989730834960938e+01 1.718404054641723633e+00 4.401239948492730036e-06 6.994831664997036569e-07 1.530216877654311247e-06 -3.267459396738559008e-05
2.578000000000000000e+03 2.899053382873535156e+01 2.069695472717285156e+01 -2.495881344657391310e-04 4.301485660107573494e-06 -7.358599395956844091e-05 1.497168909736501519e-06
2.579000000000000000e+03 3.140766334533691406e+01 1.636925506591796875e+01 -2.250459365313872695e-04 -1.308712580794235691e-05 -7.143992115743458271e-05 -8.213363616960123181e-05
2.580000000000000000e+03 3.311950683593750000e+01 1.499153995513916016e+01 -1.425611990271136165e-04 -3.525986176100559533e-05 -5.334632078302092850e-05 -9.806757589103654027e-05
2.581000000000000000e+03 2.965464019775390625e+01 2.218610191345214844e+01 6.091585601097904146e-05 2.397750722593627870e-05 2.546800897107459605e-05 8.117094694171100855e-06
2.582000000000000000e+03 3.284169769287109375e+01 2.992151451110839844e+01 1.170675823232159019e-04 6.738691445207223296e-05 5.533634976018220186e-05 2.452468906994909048e-04
2.583000000000000000e+03 8.170895576477050781e+00 4.098932647705078125e+01 1.476743091188836843e-05 -2.690856308618094772e-05 -3.642339834186714143e-06 -1.035681361827300861e-05
2.584000000000000000e+03 2.970965576171875000e+01 -3.644174814224243164e+00 1.044137843564385548e-05 -7.254934075717756059e-07 2.914765445893863216e-06 1.876707869996607769e-06
2.585000000000000000e+03 2.229598045349121094e+01 4.495037555694580078e+00 5.821380182169377804e-05 -1.896612411655951291e-05 1.177430385723710060e-05 -3.237816781620495021e-05
2.586000000000000000e+03 2.073261260986328125e+01 5.579271316528320312e+00 6.769294122932478786e-05 -2.172712083847727627e-05 1.378974502586061135e-05 -2.220630994997918606e-05
2.587000000000000000e+03 3.249681854248046875e+01 -7.392262458801269531e+00 -2.472595588187687099e-05 -1.199703910970129073e-05 -1.101689849747344851e-05 -2.565108616181532852e-06
2.588000000000000000e+03 3.201340484619140625e+01 -9.047513008117675781e+00 6.551384558406425640e-06 1.659924600971862674e-05 6.945188943063840270e-06 1.433968009223463014e-05
2.589000000000000000e+03 2.732762145996093750e+01 8.920355439186096191e-01 2.710793580718018347e-07 -8.724198778509162366e-06 -2.535935891501139849e-06 3.314496279926970601e-05
2.590000000000000000e+03 2.460782814025878906e+01 2.531581878662109375e+00 -2.671502625162247568e-05 -2.445013933538575657e-06 -8.748012078285682946e-06 3.986522278864867985e-05
2.591000000000000000e+03 3.482096099853515625e+01 -8.312788009643554688e+00 -2.493182728358078748e-05 -4.324300789448898286e-06 -8.776838512858375907e-06 1.787832673016964691e-07
2.592000000000000000e+03 2.533746719360351562e+01 1.794018030166625977e+00 1.298172173846978694e-05 1.810941512303543277e-07 3.948845005652401596e-06 -3.578991527319885790e-05
2.593000000000000000e+03 3.241015243530273438e+01 -6.476244926452636719e+00 2.857750769180711359e-05 1.321217405347852036e-05 1.253690425073727965e-05 7.124368949007475749e-06
2.594000000000000000e+03 1.261391448974609375e+01 1.017521953582763672e+01 -2.139811658707913011e-05 1.607789272384252399e-05 -1.596067022546776570e-06 3.160510823363438249e-05
2.595000000000000000e+03 2.637361907958984375e+01 5.306267261505126953e+00 6.947583460714668036e-05 -4.368778547814144986e-07 2.071168637485243380e-05 -4.786145291291177273e-05
2.596000000000000000e+03 2.384429931640625000e+01 3.226962089538574219e+00 3.709085649461485445e-05 -1.017240720102563500e-05 8.075534424278885126e-06 -3.975295840064063668e-05
2.597000000000000000e+03 3.152407455444335938e+01 -5.454023838043212891e+00 3.518496669130399823e-05 1.006649108603596687e-05 1.357543715130304918e-05 8.152879672707058489e-06
2.598000000000000000e+03 3.072066879272460938e+01 -5.148036956787109375e+00 -1.788836925697978586e-05 -5.409150162449805066e-06 -6.989255780354142189e-06 3.189406697856611572e-06
2.599000000000000000e+03 1.127974224090576172e+01 1.060238838195800781e+01 -3.325640136608853936e-05 2.774065251287538558e-05 -1.654724428590270691e-06 1.043160864355741069e-05
2.600000000000000000e+03 1.048344707489013672e+01 1.151549816131591797e+01 3.920192830264568329e-05 -8.403378160437569022e-06 9.239564860763493925e-06 7.580122655781451613e-06
2.601000000000000000e+03 1.111451721191406250e+01 1.279838180541992188e+01 -4.711890869657509029e-05 -1.486167730035958812e-05 -1.859417534433305264e-05 -1.796802825992926955e-05
2.602000000000000000e+03 3.416521072387695312e+01 -3.606822013854980469e+00 -2.376157499384135008e-05 -2.156523441954050213e-05 -1.359804264211561531e-05 2.763563998087192886e-06
2.603000000000000000e+03 3.273522567749023438e+01 2.277104616165161133e+00 9.889577086141798645e-06 -1.509641333541367203e-05 -1.562050897518929560e-06 2.428017251077108085e-05
2.604000000000000000e+03 1.925411605834960938e+01 6.464883804321289062e+00 7.397646550089120865e-05 -2.039898026851005852e-05 1.607324520591646433e-05 -9.225153007719200104e-06
2.605000000000000000e+03 2.910813522338867188e+01 -2.850678920745849609e+00 -6.147641215648036450e-06 -1.352760023110022303e-06 -2.250120360258733854e-06 -6.024592494213720784e-06
2.606000000000000000e+03 1.571358966827392578e+01 9.921533584594726562e+00 9.303936167270876467e-06 3.858789204969070852e-05 1.436754882888635620e-05 3.446117261773906648e-05
2.607000000000000000e+03 3.260268402099609375e+01 -9.020440101623535156e+00 -1.981301829800941050e-05 -1.249427077709697187e-05 -9.692186722531914711e-06 4.602445642376551405e-06
2.608000000000000000e+03 4.064056015014648438e+01 -1.203669357299804688e+01 -2.551071929701720364e-06 1.106529907701769844e-05 2.554268121457425877e-06 6.174434474814916030e-07
2.609000000000000000e+03 1.402942848205566406e+01 1.027719783782958984e+01 -3.659759386209771037e-05 9.548015441396273673e-06 -8.114873708109371364e-06 9.831065881371614523e-07
2.610000000000000000e+03 1.823250961303710938e+01 7.886699199676513672e+00 -8.904139394871890545e-05 -1.798626527715896373e-07 -2.676637814147397876e-05 -1.818950840970501304e-05
2.611000000000000000e+03 1.747088241577148438e+01 7.644937515258789062e+00 -3.973231650888919830e-05 3.054153785342350602e-05 -2.757233914962853305e-06 2.472750566084869206e-05
2.612000000000000000e+03 1.751609611511230469e+01 8.993627548217773438e+00 -8.612459350842982531e-05 -7.474366725546133239e-07 -2.606160887808073312e-05 -2.675547193575766869e-06
2.613000000000000000e+03 3.840903091430664062e+01 -1.022570514678955078e+01 2.940634658443741500e-05 7.749334145046304911e-06 1.114670430979458615e-05 4.370439000922488049e-06
2.614000000000000000e+03 3.964934921264648438e+01 -8.469352722167968750e+00 -5.127272743266075850e-05 1.012909342534840107e-05 -1.234309002029476687e-05 -8.767942745180334896e-06
2.615000000000000000e+03 4.024001312255859375e+01 -1.123842811584472656e+01 -1.202708517666906118e-05 -1.381224683427717537e-05 -7.751799785182811320e-06 1.442554889763414394e-06
2.616000000000000000e+03 3.461951065063476562e+01 -6.782424449920654297e+00 -3.936573557439260185e-05 -6.887039489811286330e-07 -1.201633222080999985e-05 7.479421242351236288e-07
2.617000000000000000e+03 3.768670272827148438e+01 -5.847932815551757812e+00 3.244043546146713197e-05 2.412088178971316665e-05 1.696839535725302994e-05 1.739417348289862275e-05
2.618000000000000000e+03 1.031536674499511719e+01 1.463878440856933594e+01 -4.494773384067229927e-05 -2.168141691072378308e-05 -1.998874540731776506e-05 -6.429152108466951177e-06
2.619000000000000000e+03 3.991914367675781250e+01 -7.544138431549072266e+00 5.468308518175035715e-05 3.566433974810934160e-07 1.651191814744379371e-05 2.472943378961645067e-05
2.620000000000000000e+03 2.205820274353027344e+01 5.866307258605957031e+00 7.486485992558300495e-05 -2.761306132015306503e-05 1.417553994542686269e-05 -1.839007200032938272e-05
2.621000000000000000e+03 3.615645599365234375e+01 -2.861273527145385742e+00 -2.631790812301915139e-05 -1.768610127328429371e-05 -1.320120281889103353e-05 -1.761922067089471966e-05
2.622000000000000000e+03 3.161013221740722656e+01 6.922367572784423828e+00 -7.482869114028289914e-05 -9.382149073644541204e-06 -2.526325260987505317e-05 6.181094067869707942e-05
2.623000000000000000e+03 3.240761947631835938e+01 8.205053329467773438e+00 1.097286803997121751e-04 -9.264393156627193093e-06 3.013928653672337532e-05 -4.207855818094685674e-05
2.624000000000000000e+03 3.455051040649414062e+01 1.385441303253173828e+00 -2.680193574633449316e-05 -9.192745892505627126e-06 -1.079840421880362555e-05 -3.749163079191930592e-05
2.625000000000000000e+03 3.411066055297851562e+01 -9.332669258117675781e+00 -2.035270881606265903e-05 -9.278867764805909246e-06 -8.889473065210040659e-06 3.785190756389056332e-06
2.626000000000000000e+03 3.938434219360351562e+01 -9.383340835571289062e+00 4.250153506291098893e-05 -3.192934627804788761e-06 1.179258015326922759e-05 4.956149041390744969e-06
2.627000000000000000e+03 1.635931968688964844e+01 8.561510086059570312e+00 -6.886619667056947947e-05 3.499668673612177372e-05 -1.016085479932371527e-05 2.345977736695203930e-05
2.628000000000000000e+03 3.675606155395507812e+01 -8.371171951293945312e+00 -1.718221028568223119e-05 4.727708528662333265e-06 -3.736350436156499200e-06 -8.826386874716263264e-07
2.629000000000000000e+03 3.405652236938476562e+01 1.152269172668457031e+01 -1.888281549327075481e-04 9.168026736006140709e-06 -5.389803845901042223e-05 2.731402855715714395e-05
2.630000000000000000e+03 3.085346412658691406e+01 1.255860519409179688e+01 2.391639281995594501e-05 9.542661246086936444e-06 1.003771649266127497e-05 6.263372779358178377e-05
2.631000000000000000e+03 3.157737922668457031e+01 5.267209053039550781e+00 -1.179684022645233199e-05 -2.850553028110880405e-05 -1.209071160701569170e-05 5.188262002775445580e-05
2.632000000000000000e+03 1.460638046264648438e+01 2.128453636169433594e+01 1.063054151018150151e-05 -6.214444147190079093e-05 -1.545416853332426399e-05 -1.501587348684552126e-06
2.633000000000000000e+03 1.812078475952148438e+01 2.255915069580078125e+01 -1.592096305103041232e-05 -7.329451182158663869e-05 -2.676464100659359246e-05 -8.253306077676825225e-06
2.634000000000000000e+03 2.941260147094726562e+01 2.804069519042968750e+00 -1.615299152035731822e-05 2.309116644028108567e-05 2.081452066704514436e-06 -4.723188612842932343e-05
2.635000000000000000e+03 3.011017417907714844e+01 1.394965744018554688e+01 -1.014505596685921773e-05 -2.037656122411135584e-05 -9.156485248240642250e-06 -8.857616921886801720e-05
2.636000000000000000e+03 3.480432128906250000e+01 5.830566287040710449e-01 6.265247793635353446e-05 1.361634531349409372e-05 2.288064752065110952e-05 5.048267485108226538e-05
2.637000000000000000e+03 3.246059036254882812e+01 -1.480958819389343262e+00 2.065288754238281399e-05 -7.440007266268366948e-06 3.963863946410128847e-06 3.906789061147719622e-05
2.638000000000000000e+03 1.406398010253906250e+01 1.837455368041992188e+01 4.156149589107371867e-05 -4.811196049558930099e-06 1.102508940675761551e-05 2.786223194561898708e-05
2.639000000000000000e+03 1.268580245971679688e+01 1.914524078369140625e+01 -6.873248639749363065e-05 -3.054890839848667383e-05 -2.978441807499621063e-05 -2.363784915360156447e-05
2.640000000000000000e+03 2.522623634338378906e+01 3.323890686035156250e+00 3.402860966161824763e-05 -9.083359145733993500e-06 7.483575245714746416e-06 -4.963203537045046687e-05
2.641000000000000000e+03 1.232653617858886719e+01 1.620599555969238281e+01 4.268786506145261228e-05 -2.107659565808717161e-05 6.483381639554863796e-06 -2.961055179184768349e-05
2.642000000000000000e+03 2.843636512756347656e+01 1.901185607910156250e+01 1.067542834789492190e-04 1.769342634361237288e-05 3.733431367436423898e-05 4.267053554940503091e-06
2.643000000000000000e+03 1.282651996612548828e+01 2.086804199218750000e+01 6.063288765290053561e-06 3.699729495565406978e-05 1.291817534365691245e-05 4.055018143844790757e-05
2.644000000000000000e+03 2.736723327636718750e+01 2.152572059631347656e+01 9.222912194672971964e-05 3.229603680665604770e-05 3.735754580702632666e-05 4.726425686385482550e-06
2.645000000000000000e+03 1.250559711456298828e+01 3.738279342651367188e+01 -7.081837975420057774e-05 -6.419657438527792692e-05 -4.050448478665202856e-05 -1.484822314523626119e-05
2.646000000000000000e+03 3.974558258056640625e+01 3.340153884887695312e+01 -1.273179950658231974e-04 2.479453687556087971e-04 3.618821210693567991e-05 9.481044253334403038e-04
2.647000000000000000e+03 3.757527160644531250e+01 3.403675460815429688e+01 -2.824628900270909071e-04 -1.881693460745736957e-04 -1.411896664649248123e-04 5.385953118093311787e-04
2.648000000000000000e+03 1.857537460327148438e+01 2.957723426818847656e+01 3.232692324672825634e-05 -8.302016794914379716e-05 -1.520797377452254295e-05 1.402755060553317890e-05
2.649000000000000000e+03 2.963385200500488281e+01 1.669375801086425781e+01 1.339626614935696125e-04 2.494962700438918546e-06 4.093728784937411547e-05 -5.386668362916680053e-06
2.650000000000000000e+03 3.098281860351562500e+01 -3.554322004318237305e+00 -4.872663339483551681e-06 -2.128516462107654661e-05 -7.847348570066969842e-06 4.129390617890749127e-06
2.651000000000000000e+03 1.671700668334960938e+01 9.205323219299316406e+00 5.689610770787112415e-05 7.728785021754447371e-06 1.938746754603926092e-05 1.774336305970791727e-05
2.652000000000000000e+03 2.795592308044433594e+01 9.752508997917175293e-02 -3.352759676999994554e-06 2.740355057540000416e-06 -1.837213403632631525e-07 -2.813250102917663753e-05
2.653000000000000000e+03 1.319669055938720703e+01 1.092464637756347656e+01 2.263972965010907501e-05 1.477137902838876471e-05 1.122333287639776245e-05 7.151843419705983251e-06
2.654000000000000000e+03 3.327932739257812500e+01 -4.637380123138427734e+00 -2.756373942247591913e-05 -2.345024040550924838e-05 -1.530419467599131167e-05 -7.246511813718825579e-06
2.655000000000000000e+03 2.598759651184082031e+01 2.553408384323120117e+00 -9.956551366485655308e-06 -1.071118822437711060e-05 -6.200321877258829772e-06 4.115541742066852748e-05
2.656000000000000000e+03 2.307030487060546875e+01 3.883971691131591797e+00 -5.241097096586599946e-05 1.022808919515227899e-05 -1.265486480406252667e-05 3.766414374695159495e-05
2.657000000000000000e+03 2.554635810852050781e+01 9.879455566406250000e+00 1.125101989600807428e-04 -2.528262257328606211e-06 3.299457966932095587e-05 -1.373027316731167957e-05
2.658000000000000000e+03 2.052015876770019531e+01 6.886535644531250000e+00 8.718042226973921061e-05 -2.447202496114186943e-05 1.881251955637708306e-05 -8.810945473669562489e-06
2.659000000000000000e+03 3.034938049316406250e+01 -2.994449138641357422e+00 -7.531399660365423188e-06 4.579813776217633858e-06 -8.854757993503881153e-07 2.500216567113966448e-07
2.660000000000000000e+03 3.239691162109375000e+01 -5.528487682342529297e+00 -2.601612504804506898e-05 -1.965504634426906705e-05 -1.370135123579530045e-05 -9.922078788804356009e-06
2.661000000000000000e+03 3.164521026611328125e+01 -3.716759681701660156e+00 3.416025356273166835e-05 1.279782100027659908e-05 1.408742173225618899e-05 1.463411808799719438e-05
2.662000000000000000e+03 3.516214752197265625e+01 -3.304989814758300781e+00 1.367091408610576764e-05 2.172457061533350497e-05 1.061864531948231161e-05 1.420287844666745514e-05
2.663000000000000000e+03 2.151169967651367188e+01 5.057698249816894531e+00 -7.058893243083730340e-05 1.651992351980879903e-05 -1.622070340090431273e-05 2.625942033773753792e-05
2.664000000000000000e+03 3.600651550292968750e+01 -9.087741851806640625e+00 -2.789378868328640237e-06 -1.246115516551071778e-05 -4.575160346576012671e-06 -5.922957370785297826e-06
2.665000000000000000e+03 1.468725872039794922e+01 9.436300277709960938e+00 1.748439717630390078e-05 -3.857580304611474276e-05 -6.327421488094842061e-06 -8.400113983952905983e-06
2.666000000000000000e+03 2.127637290954589844e+01 6.402712345123291016e+00 -8.187934872694313526e-05 1.569718551763799042e-05 -1.985464768949896097e-05 1.733295175654347986e-05
2.667000000000000000e+03 3.218341064453125000e+01 -2.783377647399902344e+00 5.453243647934868932e-05 -4.253404767950996757e-06 1.508370951341930777e-05 1.350441380054689944e-05
2.668000000000000000e+03 2.792066001892089844e+01 -1.315452814102172852e+00 -4.620048912329366431e-06 3.126677938780630939e-06 -4.480112352212017868e-07 -1.751515628711786121e-05
2.669000000000000000e+03 2.441990661621093750e+01 4.011895179748535156e+00 -5.813954339828342199e-05 1.360835176456021145e-05 -1.335935758106643334e-05 4.072000592714175582e-05
2.670000000000000000e+03 3.331965637207031250e+01 -8.298810958862304688e+00 -2.791294537018984556e-05 -7.550346253992756829e-06 -1.063898707798216492e-05 5.110505753691541031e-06
2.671000000000000000e+03 3.511066818237304688e+01 -7.240612030029296875e+00 1.138379957410506904e-05 -1.300286658079130575e-05 -4.857199655816657469e-07 2.822758688125759363e-06
2.672000000000000000e+03 3.693085479736328125e+01 -5.561264991760253906e+00 -1.045349472406087443e-05 -2.795635373331606388e-05 -1.152295408246573061e-05 -1.206447996082715690e-05
2.673000000000000000e+03 1.851553344726562500e+01 8.800706863403320312e+00 6.648622365901246667e-05 3.348257223478867672e-06 2.095034324156586081e-05 1.308529681409709156e-05
2.674000000000000000e+03 3.746717453002929688e+01 -1.006518840789794922e+01 -3.024518082384020090e-05 -8.900988177629187703e-06 -1.174385124613763765e-05 -3.766525878745596856e-06
2.675000000000000000e+03 1.941549682617187500e+01 8.486124992370605469e+00 -6.100346217863261700e-05 -1.697560946922749281e-05 -2.339372258575167507e-05 -6.665824457741109654e-06
2.676000000000000000e+03 2.975789260864257812e+01 -2.224074363708496094e+00 1.492019964643986896e-05 -7.317612016777275130e-06 2.280776243424043059e-06 8.240744136855937541e-06
2.677000000000000000e+03 3.878800201416015625e+01 -8.199734687805175781e+00 4.612061457009986043e-05 -3.265372470195870847e-06 1.285657253902172670e-05 1.406222418154357001e-05
2.678000000000000000e+03 2.857738113403320312e+01 -6.765932440757751465e-01 1.237573360413080081e-05 -1.200805854750797153e-05 1.103024942494812422e-07 2.412385038041975349e-05
2.679000000000000000e+03 2.920508956909179688e+01 9.526218414306640625e+00 5.069253893452696502e-05 8.195407644961960614e-06 1.766638524713926017e-05 -1.893239414130221121e-06
2.680000000000000000e+03 2.364477348327636719e+01 4.682344913482666016e+00 5.080000482848845422e-05 -1.710557990008965135e-05 1.010832693282281980e-05 -3.669596844702027738e-05
2.681000000000000000e+03 3.068976974487304688e+01 7.388162136077880859e+00 8.268010424217209220e-05 -1.394519313180353492e-05 2.062047315121162683e-05 -2.751479951257351786e-05
2.682000000000000000e+03 1.152267169952392578e+01 1.417645263671875000e+01 2.426522587484214455e-05 2.774845779640600085e-05 1.560410419187974185e-05 2.447283623041585088e-05
2.683000000000000000e+03 1.180730438232421875e+01 1.534898471832275391e+01 -5.233593765296973288e-05 -2.568261334090493619e-05 -2.340556602575816214e-05 5.539075118576874956e-06
2.684000000000000000e+03 3.147025680541992188e+01 3.697596788406372070e+00 1.008215895126340911e-05 -3.134199505439028144e-05 -6.377951194735942408e-06 3.374897642061114311e-05
2.685000000000000000e+03 2.588088417053222656e+01 4.212428569793701172e+00 -5.477623562910594046e-05 1.535504168259649305e-07 -1.638680623727850616e-05 5.764496745541691780e-05
2.686000000000000000e+03 3.321673583984375000e+01 -6.522033691406250000e+00 -3.159522748319432139e-05 -1.276128477911697701e-05 -1.330695340584497899e-05 -5.381345090427203104e-06
2.687000000000000000e+03 3.397108459472656250e+01 -7.467056751251220703e+00 -3.715853745234198868e-05 -3.370459808138548397e-06 -1.215869906445732340e-05 3.211313696738216095e-06
2.688000000000000000e+03 3.500811767578125000e+01 -4.486651420593261719e-01 -4.150901804678142071e-05 -2.404267434030771255e-05 -1.966550735232885927e-05 -2.443926496198400855e-05
2.689000000000000000e+03 3.236484909057617188e+01 -3.681720018386840820e+00 -4.150754466536454856e-05 -9.647585102356970310e-06 -1.534653893031645566e-05 -5.357999725674744695e-06
2.690000000000000000e+03 3.749837493896484375e+01 -6.671146869659423828e+00 -2.506646887923125178e-05 -1.586542020959313959e-05 -1.227956636284943670e-05 -2.608607246656902134e-06
2.691000000000000000e+03 3.796749114990234375e+01 -7.903048992156982422e+00 -3.598299372242763638e-05 -1.348235514342377428e-06 -1.119936860050074756e-05 -4.608286872098688036e-06
2.692000000000000000e+03 1.286291408538818359e+01 1.391740417480468750e+01 -4.924016320728696883e-05 -3.321958502056077123e-05 -2.473792483215220273e-05 -3.042154457943979651e-05
2.693000000000000000e+03 3.077301979064941406e+01 4.357243537902832031e+00 6.726468200213275850e-06 1.960599183803424239e-05 7.899738193373195827e-06 -4.118553624721243978e-05
2.694000000000000000e+03 2.998305892944335938e+01 6.682697534561157227e-01 1.386136409564642236e-05 -1.484005588281434029e-05 -2.936076270998455584e-07 3.172983269905671477e-05
2.695000000000000000e+03 1.716978263854980469e+01 2.647834014892578125e+01 1.434566911484580487e-05 -7.154495688155293465e-05 -1.715978578431531787e-05 1.774926749931182712e-05
2.696000000000000000e+03 2.678002548217773438e+01 1.961264801025390625e+01 -2.403620310360565782e-04 8.693939889781177044e-06 -6.950042734388262033e-05 1.568328298162668943e-05
2.697000000000000000e+03 2.793477821350097656e+01 1.730728721618652344e+01 -2.223447372671216726e-04 5.587934083450818434e-06 -6.502703763544559479e-05 5.077720288682030514e-06
2.698000000000000000e+03 3.532642745971679688e+01 3.572494125366210938e+01 4.933954332955181599e-04 -6.204164674272760749e-05 1.294061366934329271e-04 3.290260792709887028e-04
2.699000000000000000e+03 3.382968521118164062e+01 3.273785781860351562e+01 -3.133589343633502722e-04 -8.716686716070398688e-05 -1.201577397296205163e-04 2.729138068389147520e-04
2.700000000000000000e+03 2.829681015014648438e+01 2.354808425903320312e+01 -2.437647635815665126e-04 2.496339948265813291e-05 -6.564040813827887177e-05 9.366837184643372893e-05
2.701000000000000000e+03 1.585393333435058594e+01 2.381289291381835938e+01 1.325908669969066978e-05 -6.904679321451112628e-05 -1.673631231824401766e-05 1.362834063911577687e-05
2.702000000000000000e+03 1.929338264465332031e+01 2.713676834106445312e+01 -2.216425491496920586e-05 5.030211468692868948e-05 8.441357749688904732e-06 9.708244760986417532e-05
2.703000000000000000e+03 3.076228523254394531e+01 3.365287017822265625e+01 2.479715039953589439e-04 -6.164144724607467651e-05 5.589901411440223455e-05 2.958506811410188675e-04
2.704000000000000000e+03 2.724945449829101562e+01 3.406627655029296875e+01 -6.545759242726489902e-05 -9.913605754263699055e-05 -4.937809353577904403e-05 2.712138666538521647e-05
2.705000000000000000e+03 3.086047554016113281e+01 -4.337772846221923828e+00 2.065719127131160349e-05 2.069332003884483129e-05 1.240515302924904972e-05 -9.510299605608452111e-06
2.706000000000000000e+03 3.162181091308593750e+01 -4.519536495208740234e+00 -2.858593143173493445e-05 -1.758815051289275289e-05 -1.385222458338830620e-05 -2.771436584225739352e-06
2.707000000000000000e+03 2.917827224731445312e+01 -1.447213768959045410e+00 -1.195873210235731676e-05 3.319102688692510128e-06 -2.591888915048912168e-06 -1.327117479377193376e-05
2.708000000000000000e+03 1.676597404479980469e+01 1.001389598846435547e+01 -6.533730629598721862e-05 -2.207250145147554576e-05 -2.622294050524942577e-05 -2.930461778305470943e-05
2.709000000000000000e+03 1.371116256713867188e+01 1.205506515502929688e+01 -4.895894016954116523e-05 -1.829863140301313251e-05 -2.017727274505887181e-05 -1.500183952884981409e-05
2.710000000000000000e+03 1.772788047790527344e+01 9.932030677795410156e+00 7.548579014837741852e-05 1.136711489380104467e-06 2.298674917255993932e-05 1.675429120950866491e-05
2.711000000000000000e+03 3.324363327026367188e+01 -5.593792438507080078e+00 3.570031913113780320e-05 1.355922358925454319e-05 1.477786372561240569e-05 1.285094276681775227e-05
2.712000000000000000e+03 3.408005523681640625e+01 -5.725857734680175781e+00 -3.772893978748470545e-05 -1.365089246974093840e-05 -1.541394885862246156e-05 -9.586621672497130930e-06
2.713000000000000000e+03 2.737240409851074219e+01 2.385447740554809570e+00 -4.061432150592736434e-07 -5.727845291403355077e-06 -1.840196546254446730e-06 4.386815635371021926e-05
2.714000000000000000e+03 2.758587074279785156e+01 3.897604227066040039e+00 5.429613520391285419e-05 -1.564829653943888843e-05 1.159435214503901079e-05 3.600434865802526474e-05
2.715000000000000000e+03 1.472262001037597656e+01 1.132291030883789062e+01 1.943236929946579039e-05 5.354836048354627565e-06 7.436161467921920121e-06 2.739767660386860371e-05
2.716000000000000000e+03 3.854062652587890625e+01 -9.177350044250488281e+00 -3.828618719126097858e-05 -2.680306749880401185e-07 -1.156626603915356100e-05 -7.261536211444763467e-06
2.717000000000000000e+03 1.224770069122314453e+01 1.111991310119628906e+01 -2.942238825198728591e-05 -2.874918754969257861e-05 -1.745147164911031723e-05 -3.028875289601273835e-05
2.718000000000000000e+03 1.568119907379150391e+01 1.091517257690429688e+01 -5.629412771668285131e-05 -2.178881550207734108e-05 -2.342488369322381914e-05 -4.659055775846354663e-05
2.719000000000000000e+03 2.143188476562500000e+01 9.137176513671875000e+00 9.920901356963440776e-05 -1.260423346138850320e-06 2.938457691925577819e-05 1.638511821511201560e-05
2.720000000000000000e+03 2.258876037597656250e+01 6.697411060333251953e+00 -1.147195944213308394e-04 3.574508082238025963e-05 -2.369235517107881606e-05 2.505701559130102396e-06
2.721000000000000000e+03 3.100880241394042969e+01 -2.365045547485351562e+00 2.545130337239243090e-05 -6.859652330604149029e-06 5.577495358011219651e-06 1.238939057657262310e-05
2.722000000000000000e+03 3.551336288452148438e+01 -8.047659873962402344e+00 -1.373631448586820625e-06 1.395393064740346745e-05 3.774089918806566857e-06 5.104333922645309940e-06
2.723000000000000000e+03 3.761661148071289062e+01 -8.922215461730957031e+00 3.713741534738801420e-05 4.749800837089424022e-07 1.128371877712197602e-05 6.259987912926590070e-06
2.724000000000000000e+03 2.020253372192382812e+01 9.127745628356933594e+00 -3.524844578350894153e-05 -2.222962575615383685e-05 -1.724342291709035635e-05 -5.279092874843627214e-05
2.725000000000000000e+03 2.800584602355957031e+01 1.535336256027221680e+00 -2.784072194117470644e-06 7.847827419027453288e-07 -5.997868015583662782e-07 -4.154410271439701319e-05
2.726000000000000000e+03 2.863586235046386719e+01 7.483799457550048828e-01 9.171718375000637025e-06 -1.311756204813718796e-05 -1.183753170153067913e-06 3.774181095650419593e-05
2.727000000000000000e+03 3.580923080444335938e+01 -4.404889583587646484e+00 -1.315060399065259844e-05 -1.422304922016337514e-05 -8.212095963244792074e-06 -1.215196789416950196e-05
2.728000000000000000e+03 1.290521812438964844e+01 1.527747440338134766e+01 -2.751423380686901510e-06 3.725031274370849133e-05 1.034966680890647694e-05 3.444988760747946799e-05
2.729000000000000000e+03 3.491019439697265625e+01 -6.053676128387451172e+00 3.456267950241453946e-05 3.703428319568047300e-06 1.147983221017057076e-05 1.102959140553139150e-05
2.730000000000000000e+03 3.396083831787109375e+01 -6.610543727874755859e+00 4.428722604643553495e-05 3.927830675820587203e-06 1.446451733499998227e-05 6.258948360482463613e-06
2.731000000000000000e+03 2.498253440856933594e+01 4.815933227539062500e+00 8.725115912966430187e-05 -3.988731259596534073e-05 1.420915396010968834e-05 -4.120023004361428320e-05
2.732000000000000000e+03 2.988916206359863281e+01 -7.915063500404357910e-01 2.214680171164218336e-05 -1.231637997989309952e-05 2.949126610474195331e-06 2.049010254268068820e-05
2.733000000000000000e+03 3.721684265136718750e+01 -7.501720905303955078e+00 2.563639645813964307e-05 8.205763606383698061e-07 7.937091140775009990e-06 3.198379317836952396e-06
2.734000000000000000e+03 3.557410812377929688e+01 -6.715714931488037109e+00 -2.314009543624706566e-05 1.811302718124352396e-05 -1.508120476501062512e-06 -7.929973435238935053e-06
2.735000000000000000e+03 3.424658966064453125e+01 -4.721915245056152344e+00 3.248716893722303212e-05 2.193832551711238921e-05 1.632764906389638782e-05 1.199108010041527450e-05
2.736000000000000000e+03 3.564977264404296875e+01 8.072977662086486816e-01 -1.859440089901909232e-05 -4.297490886528976262e-05 -1.847079329309053719e-05 -5.873874397366307676e-05
2.737000000000000000e+03 1.970405578613281250e+01 1.008943843841552734e+01 -6.248776480788365006e-05 2.257318737974856049e-05 -1.197437359223840758e-05 3.839845885522663593e-05
2.738000000000000000e+03 2.430346488952636719e+01 5.502923488616943359e+00 -3.857405681628733873e-05 1.539230106573086232e-05 -6.954526270419592038e-06 3.884290345013141632e-05
2.739000000000000000e+03 3.308943176269531250e+01 -2.626096606254577637e-01 -6.352377567964140326e-06 -4.087980778422206640e-05 -1.416965551470639184e-05 -2.608752993182861246e-06
2.740000000000000000e+03 3.454448699951171875e+01 -2.128619194030761719e+00 -2.587344454241247149e-07 -1.935705586220137775e-05 -5.884737220185343176e-06 -1.220983540406450629e-05
2.741000000000000000e+03 3.300973510742187500e+01 -2.736088991165161133e+00 -4.772829925059340894e-05 -4.138797521591186523e-06 -1.556012830405961722e-05 1.776667522790376097e-05
2.742000000000000000e+03 2.965142822265625000e+01 1.190076541900634766e+01 -3.218607889721170068e-05 -2.856417449947912246e-05 -1.822507510951254517e-05 -2.310978197783697397e-05
2.743000000000000000e+03 3.121186828613281250e+01 8.512243270874023438e+00 -1.127185241784900427e-04 -1.547855208627879620e-05 -3.845912215183489025e-05 -7.605571227031759918e-06
2.744000000000000000e+03 3.078526687622070312e+01 5.883653163909912109e+00 4.365416316431947052e-05 7.919435347503167577e-07 1.333383170276647434e-05 -5.825387052027508616e-05
2.745000000000000000e+03 2.287169647216796875e+01 5.311707973480224609e+00 -7.749420910840854049e-05 1.889375016617123038e-05 -1.758013786457013339e-05 3.354260843480005860e-05
2.746000000000000000e+03 1.241599559783935547e+01 1.242209625244140625e+01 3.508422378217801452e-05 1.985146991501096636e-05 1.648070792725775391e-05 3.760565232369117439e-05
2.747000000000000000e+03 3.023378562927246094e+01 9.711598396301269531e+00 -8.037087536649778485e-05 -3.989020478911697865e-05 -3.607832331908866763e-05 -1.590528336237184703e-05
2.748000000000000000e+03 3.014127922058105469e+01 8.674386978149414062e+00 7.168916636146605015e-05 1.221044658450409770e-05 2.516988570278044790e-05 2.405249870207626373e-05
2.749000000000000000e+03 3.203799057006835938e+01 1.523050665855407715e+00 -6.238348760234657675e-06 1.337882713414728642e-05 2.142143557648523711e-06 -1.923771378642413765e-05
2.750000000000000000e+03 3.137566757202148438e+01 2.197589635848999023e+00 1.234834780916571617e-05 -2.554161983425728977e-05 -3.957981789426412433e-06 2.481880801497027278e-05
2.751000000000000000e+03 3.008238792419433594e+01 3.532743930816650391e+00 -1.292851948164752685e-06 -3.884968100464902818e-05 -1.204276031785411760e-05 4.317831917433068156e-05
2.752000000000000000e+03 1.535077095031738281e+01 1.955926132202148438e+01 -6.250933074625208974e-05 3.469269722700119019e-05 -8.344990419573150575e-06 3.639132773969322443e-05
2.753000000000000000e+03 2.895978736877441406e+01 1.288529014587402344e+01 -6.139124889159575105e-05 -9.982574738387484103e-06 -2.141214645234867930e-05 5.264884384814649820e-05
2.754000000000000000e+03 2.889896774291992188e+01 1.503928565979003906e+01 -2.001235261559486389e-04 3.254535477026365697e-05 -5.027345105190761387e-05 5.398611756390891969e-05
2.755000000000000000e+03 1.635977554321289062e+01 2.199688529968261719e+01 -5.077679452369920909e-05 6.068698348826728761e-05 2.973056325572542846e-06 4.853971404372714460e-05
2.756000000000000000e+03 2.164029502868652344e+01 2.760164260864257812e+01 -6.379306432791054249e-05 -7.047923281788825989e-05 -4.028168768854811788e-05 -2.077357021335046738e-05
2.757000000000000000e+03 2.471907424926757812e+01 1.824004554748535156e+01 -2.352171723032370210e-04 2.250930447189603001e-05 -6.381236016750335693e-05 -1.110185803554486483e-05
2.758000000000000000e+03 2.966146278381347656e+01 2.744658660888671875e+01 6.360068073263391852e-05 3.814149386016651988e-05 3.052265310543589294e-05 2.138439886039122939e-04
2.759000000000000000e+03 3.948313140869140625e+01 3.552663040161132812e+01 2.423846162855625153e-04 -1.236996758962050080e-04 3.560548066161572933e-05 5.612624809145927429e-04
2.760000000000000000e+03 1.692827796936035156e+01 2.035842132568359375e+01 1.310577408730750903e-05 -5.563919330597855151e-05 -1.276002603844972327e-05 -1.973915277631022036e-05
2.761000000000000000e+03 2.113305854797363281e+01 3.033160591125488281e+01 1.058144243870628998e-05 2.660076825122814626e-05 1.115466329792980105e-05 1.354584237560629845e-04
2.762000000000000000e+03 3.317324066162109375e+01 -1.998698353767395020e+00 2.417008909105788916e-05 -4.001482466264860705e-06 6.050582214811583981e-06 -3.874373214785009623e-05
2.763000000000000000e+03 3.146322631835937500e+01 -3.043835639953613281e+00 -2.769312413875013590e-05 -2.289510803166194819e-06 -8.994790732685942203e-06 -1.588981467648409307e-05
2.764000000000000000e+03 3.241908645629882812e+01 -4.593589305877685547e+00 3.615241075749509037e-05 1.367237291560741141e-05 1.494743537477916107e-05 1.078158129530493170e-05
2.765000000000000000e+03 3.378815841674804688e+01 -2.608706474304199219e+00 2.180848605348728597e-05 4.846769115829374641e-06 7.996576641744468361e-06 7.817014193278737366e-06
2.766000000000000000e+03 1.556404495239257812e+01 1.306087589263916016e+01 -4.473286389838904142e-05 -4.066616020281799138e-05 -2.561970723036210984e-05 -1.808697015803772956e-05
2.767000000000000000e+03 3.286119461059570312e+01 -9.185938239097595215e-01 1.393307866237591952e-05 2.997566662088502198e-05 1.317262376687722281e-05 4.797367182618472725e-06
2.768000000000000000e+03 2.404984283447265625e+01 1.485235881805419922e+01 -2.086897875415161252e-04 3.268006912549026310e-05 -5.280291952658444643e-05 -1.259008422493934631e-05
2.769000000000000000e+03 2.670690727233886719e+01 3.342719793319702148e+00 -4.858406441599072423e-07 2.089440386043861508e-06 4.810798941434768494e-07 -4.220013579470105469e-05
2.770000000000000000e+03 3.067284202575683594e+01 -1.126807630062103271e-01 -1.755867742758709937e-05 2.626100467750802636e-06 -4.479772997001418844e-06 -2.215874155808705837e-05
2.771000000000000000e+03 1.627495765686035156e+01 1.814948463439941406e+01 3.305903737782500684e-05 -3.894119436154142022e-05 -1.764647777235950343e-06 -4.638470272766426206e-06
2.772000000000000000e+03 3.139895820617675781e+01 6.814352273941040039e-01 2.289201347593916580e-06 -2.004605266847647727e-05 -5.327055532688973472e-06 2.042095911747310311e-05
2.773000000000000000e+03 3.046839714050292969e+01 -1.587379217147827148e+00 -2.067998138954862952e-05 5.728236374125117436e-07 -6.032147211953997612e-06 -8.111374881991650909e-06
2.774000000000000000e+03 2.832731437683105469e+01 5.054960727691650391e+00 1.263168815057724714e-05 6.997737727942876518e-06 5.888827672606566921e-06 3.266498970333486795e-05
2.775000000000000000e+03 2.352870941162109375e+01 6.226846218109130859e+00 8.470662578474730253e-05 -2.552534533606376499e-05 1.775438431650400162e-05 -3.447368362685665488e-05
2.776000000000000000e+03 2.277705192565917969e+01 7.647637367248535156e+00 9.675030014477670193e-05 -1.340324979537399486e-05 2.500411574146710336e-05 2.559212953201495111e-05
2.777000000000000000e+03 1.871479415893554688e+01 9.791042327880859375e+00 -1.008529288810677826e-04 1.002840963337803259e-05 -2.724735531955957413e-05 -1.143507961387513205e-05
2.778000000000000000e+03 3.610074996948242188e+01 -7.554858207702636719e+00 2.470642903062980622e-05 -1.950157275132369250e-05 1.561456997478671838e-06 5.487408543558558449e-06
2.779000000000000000e+03 1.886891937255859375e+01 1.067285919189453125e+01 1.012340435408987105e-04 -3.230806396459229290e-05 2.067779496428556740e-05 2.653622323123272508e-05
2.780000000000000000e+03 3.371498870849609375e+01 -1.351019740104675293e+00 -4.069991700816899538e-05 -2.353955778744420968e-06 -1.291616172238718718e-05 1.750611954776104540e-05
2.781000000000000000e+03 2.527846527099609375e+01 7.111388206481933594e+00 1.034239176078699529e-04 -1.211414291901746765e-05 2.739293267950415611e-05 6.661585302936146036e-06
2.782000000000000000e+03 3.394593429565429688e+01 -5.085789561271667480e-01 3.981910776928998530e-05 3.324378485558554530e-05 2.191886778746265918e-05 1.934758438437711447e-05
2.783000000000000000e+03 3.224155807495117188e+01 1.344063133001327515e-01 3.236734482925385237e-05 1.310001061938237399e-05 1.364020681648980826e-05 -1.204512227559462190e-05
2.784000000000000000e+03 2.884562873840332031e+01 3.463664531707763672e+00 2.323041371710132807e-05 -2.974997005367185920e-05 -1.955866764546954073e-06 5.842181053594686091e-05
2.785000000000000000e+03 2.926951599121093750e+01 -1.849711127579212189e-02 -1.218768466060282663e-05 5.776611942565068603e-06 -1.923321860886062495e-06 -2.695990770007483661e-05
2.786000000000000000e+03 2.813640785217285156e+01 1.193168163299560547e+01 4.855576116824522614e-05 7.170330263761570677e-06 1.671782774792518467e-05 -5.395638436311855912e-05
2.787000000000000000e+03 3.129070281982421875e+01 1.117607021331787109e+01 -1.011540734907612205e-04 -2.530946585466153920e-05 -3.793906216742470860e-05 -3.848311826004646719e-05
2.788000000000000000e+03 2.870548248291015625e+01 2.159237623214721680e+00 1.386456915497547016e-05 -1.923235322465188801e-05 -1.610335289115027990e-06 5.274201248539611697e-05
2.789000000000000000e+03 2.895937538146972656e+01 1.038169956207275391e+01 -5.464280184241943061e-05 -3.963229028158821166e-05 -2.828252945619169623e-05 2.171166852349415421e-05
2.790000000000000000e+03 2.982879829406738281e+01 7.761221885681152344e+00 -7.512686715926975012e-05 -1.700303255347535014e-05 -2.763896918622776866e-05 -1.298500865232199430e-05
2.791000000000000000e+03 1.619086456298828125e+01 1.409144020080566406e+01 6.302873225649818778e-05 -3.680252848425880075e-05 7.867860404076054692e-06 3.298017190900282003e-06
2.792000000000000000e+03 1.678323554992675781e+01 1.095898914337158203e+01 4.644372529583051801e-05 1.835658076743129641e-05 1.944009272847324610e-05 4.542621900327503681e-05
2.793000000000000000e+03 2.996926116943359375e+01 4.973490715026855469e+00 -4.462964716367423534e-05 -1.462460386392194778e-05 -1.777627585397567600e-05 4.854812868870794773e-05
2.794000000000000000e+03 2.796650886535644531e+01 1.363466739654541016e+01 1.008070175885222852e-04 -1.721943954180460423e-05 2.507627323211636394e-05 -7.281035505002364516e-05
2.795000000000000000e+03 2.737287902832031250e+01 1.568171596527099609e+01 1.398166059516370296e-04 -2.284438960487022996e-05 3.509166344883851707e-05 -1.406540468451566994e-05
2.796000000000000000e+03 2.631188583374023438e+01 1.782697486877441406e+01 1.371583493892103434e-04 -2.875038489946746267e-06 4.028499097330495715e-05 1.059545866155531257e-05
2.797000000000000000e+03 1.772455978393554688e+01 2.443558502197265625e+01 -3.271565219620242715e-05 5.704259092453867197e-05 7.298082437046105042e-06 6.498039147118106484e-05
2.798000000000000000e+03 2.637739372253417969e+01 2.466762351989746094e+01 1.519973011454567313e-04 -5.246971795713761821e-06 4.402509875944815576e-05 9.848160698311403394e-05
2.799000000000000000e+03 1.403388786315917969e+01 1.600338363647460938e+01 3.077587098232470453e-05 -2.438536284898873419e-05 1.917152758323936723e-06 1.408043681294657290e-05
2.800000000000000000e+03 1.907979202270507812e+01 1.969602203369140625e+01 4.731841545435599983e-05 -4.482067015487700701e-05 7.493237603739544284e-07 -5.035102003603242338e-05
2.801000000000000000e+03 1.560428524017333984e+01 3.520946884155273438e+01 1.032809741445817053e-04 -2.231749203929211944e-05 2.428904372209217399e-05 2.346298606425989419e-05
2.802000000000000000e+03 3.320201492309570312e+01 -3.664808750152587891e+00 3.469047442195005715e-05 1.146794056694488972e-05 1.384752522426424548e-05 -2.598704213596647605e-06
2.803000000000000000e+03 2.279293441772460938e+01 8.884810447692871094e+00 -1.190395196317695081e-04 -3.029899062312324531e-06 -3.662082599475979805e-05 -1.608024103916250169e-05
2.804000000000000000e+03 3.125983047485351562e+01 -1.001118183135986328e+00 3.502844629110768437e-05 4.092254584975307807e-06 1.173621058114804327e-05 1.938243622134905308e-05
2.805000000000000000e+03 3.208334350585937500e+01 -7.172310948371887207e-01 -4.467536200536414981e-05 -2.918409700214397162e-05 -2.215783752035349607e-05 5.672128509104368277e-07
2.806000000000000000e+03 3.003004455566406250e+01 2.117766618728637695e+00 1.277159844903508201e-05 -2.714297988859470934e-05 -4.311414613766828552e-06 3.769421527977101505e-05
2.807000000000000000e+03 2.693000602722167969e+01 6.241682052612304688e+00 -2.757018592092208564e-05 -1.053296091413358226e-05 -1.143094414146617055e-05 8.727836393518373370e-05
2.808000000000000000e+03 2.854619407653808594e+01 4.220108509063720703e+00 -5.615035479422658682e-05 -1.541820529382675886e-05 -2.147056875401176512e-05 -2.492403655196540058e-05
2.809000000000000000e+03 2.933221626281738281e+01 1.413284540176391602e+00 -1.200479346152860671e-05 1.039072412822861224e-05 -4.842207204092119355e-07 -3.796156306634657085e-05
2.810000000000000000e+03 2.167973899841308594e+01 1.060591983795166016e+01 -1.420291664544492960e-04 7.250477665365906432e-06 -4.043360604555346072e-05 -1.688837437541224062e-05
2.811000000000000000e+03 2.525085449218750000e+01 5.802063465118408203e+00 -1.220901031047105789e-04 1.636998240428511053e-05 -3.171603384544141591e-05 8.970983458311820868e-07
2.812000000000000000e+03 2.041029167175292969e+01 1.110949993133544922e+01 8.818518108455464244e-05 -1.662371715838162345e-07 2.640568163769785315e-05 1.515957683295710012e-05
2.813000000000000000e+03 1.679675674438476562e+01 1.199364852905273438e+01 -5.575284740189090371e-05 -3.735440986929461360e-05 -2.793217754515353590e-05 -4.746080594486556947e-05
2.814000000000000000e+03 1.426375293731689453e+01 1.351427459716796875e+01 3.174265293637290597e-05 2.521198621252551675e-05 1.708639138087164611e-05 2.336787838430609554e-05
2.815000000000000000e+03 1.707851791381835938e+01 1.696465301513671875e+01 -7.085179095156490803e-05 2.969596062030177563e-05 -1.234674891747999936e-05 2.319921804883051664e-05
2.816000000000000000e+03 1.560925006866455078e+01 1.193249988555908203e+01 1.330195118498522788e-05 3.624551754910498857e-05 1.486424116592388600e-05 2.834228325809817761e-05
2.817000000000000000e+03 1.784993934631347656e+01 1.089086914062500000e+01 -1.006796956062316895e-04 8.156164881256700028e-07 -2.995922295667696744e-05 -3.392185681150294840e-05
2.818000000000000000e+03 1.604351043701171875e+01 1.602378654479980469e+01 5.261486876406706870e-05 -2.566538933024276048e-05 8.084844012046232820e-06 2.001776738325133920e-05
2.819000000000000000e+03 1.503245258331298828e+01 1.491999340057373047e+01 -8.289344987133517861e-05 1.657943721511401236e-05 -1.989420525205787271e-05 -1.727040483956443495e-07
2.820000000000000000e+03 1.763085365295410156e+01 1.895586585998535156e+01 -5.299906115396879613e-05 3.294711495982483029e-05 -6.015583494445309043e-06 7.048525003483518958e-05
2.821000000000000000e+03 2.918045425415039062e+01 5.662267684936523438e+00 3.477726204437203705e-05 -1.589771636645309627e-05 5.663863248628331348e-06 -3.992824349552392960e-05
2.822000000000000000e+03 1.799060249328613281e+01 1.193549442291259766e+01 6.167904939502477646e-05 1.203232113766716793e-05 2.211341052316129208e-05 5.833013347000814974e-05
2.823000000000000000e+03 2.739399909973144531e+01 4.884274482727050781e+00 -1.050651917466893792e-04 4.835225354327121750e-06 -3.006898987223394215e-05 8.054867976170498878e-06
2.824000000000000000e+03 2.938254165649414062e+01 4.118618965148925781e+00 3.991280755144543946e-05 2.574350946815684438e-05 1.969689401448704302e-05 -3.919750088243745267e-05
2.825000000000000000e+03 2.836259078979492188e+01 9.059810638427734375e+00 -8.840261784825997893e-07 -3.185658670190605335e-06 -1.220905460286303423e-06 -7.207403541542589664e-06
2.826000000000000000e+03 2.843231964111328125e+01 6.423165798187255859e+00 -5.287398380460217595e-05 3.447027893344056793e-06 -1.482808693253900856e-05 4.049376730108633637e-05
2.827000000000000000e+03 2.397094154357910156e+01 7.372418403625488281e+00 -1.149188028648495674e-04 -1.886517338789417408e-06 -3.504159758449532092e-05 1.347567103948676959e-05
2.828000000000000000e+03 2.412450599670410156e+01 8.696900367736816406e+00 1.060500799212604761e-04 -5.013112968299537897e-06 3.031109008588828146e-05 -5.979919478704687208e-06
2.829000000000000000e+03 2.541561698913574219e+01 1.454707527160644531e+01 1.445093803340569139e-04 -2.988961932715028524e-05 3.438592830207198858e-05 -4.094772521057166159e-06
2.830000000000000000e+03 2.618236160278320312e+01 1.269778251647949219e+01 1.292274100705981255e-04 -2.329913149878848344e-05 3.177848338964395225e-05 -3.489170558168552816e-05
2.831000000000000000e+03 2.438242530822753906e+01 1.649400329589843750e+01 1.461580686736851931e-04 -2.076637792924884707e-05 3.761750849662348628e-05 2.849167140084318817e-05
2.832000000000000000e+03 1.972135353088378906e+01 2.489538383483886719e+01 -4.856624582316726446e-05 -7.018580072326585650e-05 -3.562561323633417487e-05 -1.943060851772315800e-05
2.833000000000000000e+03 1.843534660339355469e+01 2.094885635375976562e+01 -5.319459160091355443e-05 7.137430657166987658e-05 5.453914127429015934e-06 7.591393659822642803e-05
2.834000000000000000e+03 2.459677696228027344e+01 1.151706027984619141e+01 1.260476274183019996e-04 -2.071603739750571549e-05 3.159947664244100451e-05 -3.951595772377913818e-06
2.835000000000000000e+03 2.753715515136718750e+01 7.030840396881103516e+00 5.461569162434898317e-05 6.093018328101607040e-06 1.821261321310885251e-05 -3.259243385400623083e-05
2.836000000000000000e+03 2.776100730895996094e+01 5.686282634735107422e+00 6.655302422586828470e-05 -2.579637657618150115e-05 1.222699484060285613e-05 -7.014653238002210855e-05
2.837000000000000000e+03 2.207201576232910156e+01 1.207336616516113281e+01 1.242761500179767609e-04 -2.003023109864443541e-05 3.127377931377850473e-05 2.549324744904879481e-05
2.838000000000000000e+03 2.789874839782714844e+01 9.929187774658203125e+00 4.390361209516413510e-05 2.507931640138849616e-05 2.069487891276367009e-05 -1.513104052719427273e-05
2.839000000000000000e+03 2.866832733154296875e+01 1.127160263061523438e+01 -5.195591256779152900e-06 2.205126293119974434e-05 5.056701411376707256e-06 -1.234813316841609776e-05
2.840000000000000000e+03 1.949221992492675781e+01 1.281373405456542969e+01 6.848847260698676109e-05 1.334525768470484763e-05 2.455011963320430368e-05 5.559284909395501018e-05
2.841000000000000000e+03 1.921157646179199219e+01 1.164758110046386719e+01 -1.058223133441060781e-04 -1.008009121505892836e-06 -3.204909444320946932e-05 -3.944235504604876041e-05
2.842000000000000000e+03 2.780339431762695312e+01 1.098748111724853516e+01 -1.072036902769468725e-04 -3.447891504038125277e-05 -4.250478014000691473e-05 3.167194881825707853e-05
2.843000000000000000e+03 2.664837074279785156e+01 8.412927627563476562e+00 8.600899309385567904e-05 1.619934664631728083e-05 3.066250064875930548e-05 5.543243787542451173e-06
2.844000000000000000e+03 1.808530807495117188e+01 1.313498401641845703e+01 -7.866696978453546762e-05 -2.787109769997186959e-05 -3.196141915395855904e-05 -5.470699761644937098e-05
2.845000000000000000e+03 1.707966804504394531e+01 1.504416656494140625e+01 -1.039777998812496662e-04 2.337534351681824774e-05 -2.418073745502624661e-05 -1.911568506329786032e-05
2.846000000000000000e+03 1.977783203125000000e+01 1.834690475463867188e+01 -9.496847269474528730e-06 3.329327955725602806e-05 7.138930413930211216e-06 9.109108214033767581e-05
2.847000000000000000e+03 2.143198776245117188e+01 1.865308189392089844e+01 -1.588948362041264772e-04 2.612141997815342620e-06 -4.688480839831754565e-05 -5.861013414687477052e-05
2.848000000000000000e+03 2.674631118774414062e+01 1.415596580505371094e+01 -2.003085974138230085e-04 3.200320134055800736e-05 -5.049161700299009681e-05 3.346359517308883369e-05
2.849000000000000000e+03 2.290599441528320312e+01 1.674375534057617188e+01 -2.042811538558453321e-04 2.619850965857040137e-05 -5.342479562386870384e-05 -3.516123979352414608e-05
2.850000000000000000e+03 2.302182197570800781e+01 1.030756759643554688e+01 1.127903597080148757e-04 -1.179466653411509469e-05 3.029870640602894127e-05 1.501837505202274770e-05
2.851000000000000000e+03 2.538691711425781250e+01 8.516207695007324219e+00 -1.319366565439850092e-04 -3.645575816335622221e-06 -4.067466943524777889e-05 -1.166441734312684275e-06
2.852000000000000000e+03 2.373961257934570312e+01 2.265664291381835938e+01 1.112264071707613766e-04 4.335484391049249098e-06 3.466856651357375085e-05 1.096477863029576838e-04
2.853000000000000000e+03 2.156508827209472656e+01 2.067454719543457031e+01 9.273386967834085226e-05 1.077746946975821629e-05 3.105340147158131003e-05 9.819635306484997272e-05
2.854000000000000000e+03 1.830465507507324219e+01 1.771166419982910156e+01 -1.867069840955082327e-05 -2.601552114356309175e-05 -1.340586550213629380e-05 -3.205506436643190682e-05
2.855000000000000000e+03 2.692246246337890625e+01 2.757339668273925781e+01 -2.409647713648155332e-04 5.508493813977111131e-06 -7.063688099151477218e-05 6.410056812455877662e-06
2.856000000000000000e+03 2.407481956481933594e+01 2.507317161560058594e+01 -1.876789465313777328e-04 -1.484890981373609975e-05 -6.075835699448361993e-05 -3.396021202206611633e-05
2.857000000000000000e+03 1.989890670776367188e+01 2.096101570129394531e+01 -1.345922064501792192e-04 -2.697636045922990888e-05 -4.847057061851955950e-05 -1.454546054446836933e-05
2.858000000000000000e+03 2.310739517211914062e+01 1.852885627746582031e+01 1.284261816181242466e-04 -6.857570497231790796e-06 3.647058110800571740e-05 6.549571116920560598e-05
2.859000000000000000e+03 2.180209732055664062e+01 2.283733367919921875e+01 -1.470108691137284040e-04 -2.346596011193469167e-05 -5.114304804010316730e-05 -4.388121669762767851e-05
2.860000000000000000e+03 8.253756523132324219e+00 3.379877471923828125e+01 9.017192496685311198e-05 -3.717923755175434053e-05 1.589780549693387002e-05 2.949718145828228444e-05
2.861000000000000000e+03 2.240555381774902344e+01 1.354832553863525391e+01 -1.813961134757846594e-04 2.585291440482251346e-05 -4.666296081268228590e-05 -2.781443618005141616e-05
2.862000000000000000e+03 2.080309104919433594e+01 1.243703269958496094e+01 -1.401711924700066447e-04 5.647205853165360168e-06 -4.035719393868930638e-05 -3.024104262294713408e-05
2.863000000000000000e+03 2.893795585632324219e+01 7.883008003234863281e+00 4.233419167576357722e-05 3.195281897205859423e-05 2.228610355814453214e-05 4.917726255371235311e-05
2.864000000000000000e+03 2.786827850341796875e+01 8.106051445007324219e+00 -6.361171836033463478e-05 -4.168806844973005354e-05 -3.158993422403000295e-05 4.254555676652671536e-07
2.865000000000000000e+03 2.686088752746582031e+01 1.106955242156982422e+01 1.100562440115027130e-04 1.453971094633743633e-07 3.306049256934784353e-05 -3.609365012380294502e-05
2.866000000000000000e+03 2.675851440429687500e+01 9.747448921203613281e+00 -1.222331047756597400e-04 -2.120293174812104553e-05 -4.303081004763953388e-05 1.713901110633742064e-05
2.867000000000000000e+03 2.144606971740722656e+01 1.685112380981445312e+01 1.013208675431087613e-04 -7.478355200873920694e-06 2.815275365719571710e-05 8.806806727079674602e-05
2.868000000000000000e+03 2.110196685791015625e+01 1.380227184295654297e+01 1.136943174060434103e-04 -1.322463049291400239e-05 3.014090543729253113e-05 5.901874828850850463e-05
2.869000000000000000e+03 1.836064529418945312e+01 1.438257980346679688e+01 7.536250632256269455e-05 -2.836024577845819294e-06 2.175794543290976435e-05 7.033349538687616587e-05
2.870000000000000000e+03 2.003212928771972656e+01 1.677899360656738281e+01 -9.567541565047577024e-05 -1.459912527934648097e-05 -3.308236045995727181e-05 -6.932123505976051092e-05
2.871000000000000000e+03 1.976388168334960938e+01 1.405644226074218750e+01 -1.262105361092835665e-04 4.293317203973856522e-07 -3.773436037590727210e-05 -6.207402475411072373e-05
2.872000000000000000e+03 2.334531593322753906e+01 1.177203464508056641e+01 -1.651417551329359412e-04 1.981832065212074667e-05 -4.359702870715409517e-05 -1.149302624980919063e-05
2.873000000000000000e+03 2.431117630004882812e+01 1.007244014739990234e+01 -1.447776594432070851e-04 4.645470653485972434e-06 -4.203965727356262505e-05 8.575768788432469591e-07
2.874000000000000000e+03 2.268332862854003906e+01 1.509125328063964844e+01 1.396078732796013355e-04 -2.669434070412535220e-05 3.387406104593537748e-05 4.633274875232018530e-05
2.875000000000000000e+03 2.420465850830078125e+01 2.776591300964355469e+01 6.447164196288213134e-05 2.713048525038175285e-05 2.748063889157492667e-05 1.604569843038916588e-04
2.876000000000000000e+03 1.877073860168457031e+01 1.656248283386230469e+01 -3.321369376863003708e-06 2.733618021011352539e-05 7.204443136288318783e-06 6.635446334257721901e-05
2.877000000000000000e+03 1.993037986755371094e+01 2.282954406738281250e+01 2.610399860714096576e-05 4.792624531546607614e-05 2.220907299488317221e-05 9.190336277242749929e-05
2.878000000000000000e+03 2.183923530578613281e+01 2.512548065185546875e+01 3.996853047283366323e-05 4.283599628251977265e-05 2.484135802660603076e-05 1.316585985478013754e-04
2.879000000000000000e+03 2.370062255859375000e+01 1.328783416748046875e+01 1.391133700963109732e-04 -2.984450475196354091e-05 3.278065560152754188e-05 1.586650796525646001e-05
2.880000000000000000e+03 2.577970695495605469e+01 1.127277565002441406e+01 -1.566790451761335135e-04 6.900675089127616957e-06 -4.493350934353657067e-05 2.397142634436022490e-05
2.881000000000000000e+03 2.132946586608886719e+01 1.525362396240234375e+01 -1.643091673031449318e-04 1.577437615196686238e-05 -4.456043825484812260e-05 -6.032102101016789675e-05
2.882000000000000000e+03 2.497492790222167969e+01 1.301481914520263672e+01 -1.846629311330616474e-04 2.717301504162605852e-05 -4.724697282654233277e-05 8.649894880363717675e-06
2.883000000000000000e+03 2.403250122070312500e+01 3.074491691589355469e+01 -8.147730841301381588e-05 -6.588877295143902302e-05 -4.420982440933585167e-05 9.000021350402676035e-07
2.884000000000000000e+03 3.181934738159179688e+01 3.706457901000976562e+01 -1.951232843566685915e-05 -1.983114198083058000e-04 -6.534712156280875206e-05 1.032196523738093674e-04
2.885000000000000000e+03 2.363139152526855469e+01 3.396796798706054688e+01 8.833252650219947100e-05 -2.704144571907818317e-05 1.838732532633002847e-05 1.715607650112360716e-04
2.886000000000000000e+03 3.829440307617187500e+01 3.784523391723632812e+01 3.940305905416607857e-04 -4.237851535435765982e-04 -8.926370355766266584e-06 7.984984549693763256e-04
2.887000000000000000e+03 2.024702453613281250e+01 3.336618423461914062e+01 4.062259904458187521e-05 -9.836613025981932878e-05 -1.732306009216699749e-05 -5.640548351948382333e-06
2.888000000000000000e+03 3.007184219360351562e+01 3.050147438049316406e+01 -2.680075413081794977e-04 -6.848116754554212093e-06 -8.245669596362859011e-05 6.300256791291758418e-05
2.889000000000000000e+03 2.309981918334960938e+01 3.737417602539062500e+01 5.104682713863439858e-05 -1.183117346954531968e-04 -2.017947190324775875e-05 -1.977080864890012890e-05
2.890000000000000000e+03 2.742630004882812500e+01 3.745780563354492188e+01 2.120818535331636667e-04 -9.391451021656394005e-05 3.545020445017144084e-05 1.983731344807893038e-04
2.891000000000000000e+03 5.888621520996093750e+01 -1.572368431091308594e+01 7.965014447108842432e-06 -9.405480341229122132e-06 -4.321398137108189985e-07 6.298427706497022882e-06
2.892000000000000000e+03 5.774200439453125000e+01 -2.590343475341796875e+01 -4.863542914390563965e-01 -4.194047302007675171e-02 -1.584884226322174072e-01 -2.084462344646453857e-01
2.893000000000000000e+03 5.780942916870117188e+01 -1.596321296691894531e+01 -1.001569853542605415e-05 1.508445984654827043e-05 1.520628302387194708e-06 1.281620643567293882e-05
2.894000000000000000e+03 7.218686676025390625e+01 -2.528448867797851562e+01 -8.649259805679321289e-03 4.535483021754771471e-04 -2.458713250234723091e-03 -7.886854931712150574e-03
2.895000000000000000e+03 5.778459930419921875e+01 -2.675882911682128906e+01 -2.388354539871215820e-01 -1.898194998502731323e-01 -1.285964846611022949e-01 -2.190614491701126099e-01
2.896000000000000000e+03 7.261713409423828125e+01 -2.408778572082519531e+01 -4.676969349384307861e-02 -3.190683666616678238e-03 -1.498811319470405579e-02 3.174110548570752144e-03
2.897000000000000000e+03 7.191422271728515625e+01 -2.058662605285644531e+01 -3.920525610446929932e-01 5.424264073371887207e-02 -1.013429760932922363e-01 -2.013103067874908447e-01
2.898000000000000000e+03 5.740368270874023438e+01 -2.137170600891113281e+01 6.699309498071670532e-02 4.828845560550689697e-01 1.649633049964904785e-01 4.318040013313293457e-01
2.899000000000000000e+03 6.437142181396484375e+01 3.841082763671875000e+01 -9.820321947336196899e-02 3.850292861461639404e-01 8.604781329631805420e-02 -1.331759691238403320e-01
2.900000000000000000e+03 6.865321350097656250e+01 3.444901657104492188e+01 -2.985668927431106567e-02 7.256769537925720215e-01 2.087460905313491821e-01 -1.379858553409576416e-01
2.901000000000000000e+03 7.110485076904296875e+01 3.548033142089843750e+01 -1.327951699495315552e-01 4.730090200901031494e-01 1.020641550421714783e-01 9.384889900684356689e-02
2.902000000000000000e+03 7.189064025878906250e+01 -2.238035011291503906e+01 -3.283202946186065674e-01 4.652960970997810364e-02 -8.453720062971115112e-02 4.201236367225646973e-02
2.903000000000000000e+03 6.751542663574218750e+01 -1.002595615386962891e+01 3.158744573593139648e-01 8.414698243141174316e-01 3.472032845020294189e-01 3.546963930130004883e-01
2.904000000000000000e+03 2.785853958129882812e+01 -1.132166862487792969e+01 9.537517144053708762e-06 -2.135675913450540975e-06 2.220552460130420513e-06 1.815924832726523164e-07
2.905000000000000000e+03 4.786899185180664062e+01 -1.697324562072753906e+01 4.584006546792807057e-06 8.495339898217935115e-06 3.923803888028487563e-06 5.582238827628316358e-06
2.906000000000000000e+03 5.524721527099609375e+01 -2.401753997802734375e+01 -4.056470394134521484e-01 2.910677492618560791e-01 -3.437378630042076111e-02 1.824334859848022461e-01
2.907000000000000000e+03 7.494674682617187500e+01 -2.118295097351074219e+01 -1.620063930749893188e-01 -1.121820183470845222e-03 -4.893846437335014343e-02 -1.254754960536956787e-01
2.908000000000000000e+03 4.761566543579101562e+01 -1.634914588928222656e+01 -2.852667876140912995e-06 -1.130666532844770700e-05 -4.247800006851321086e-06 -6.706249223498161882e-06
2.909000000000000000e+03 7.273844909667968750e+01 2.805238533020019531e+01 1.780148148536682129e-01 6.875916123390197754e-01 2.596819102764129639e-01 7.833817601203918457e-02
2.910000000000000000e+03 7.324258422851562500e+01 -1.922835540771484375e+01 -2.437103688716888428e-01 7.093749009072780609e-03 -7.098498940467834473e-02 -2.765181362628936768e-01
2.911000000000000000e+03 3.351561355590820312e+01 -1.406393337249755859e+01 3.845748324238229543e-06 -9.419386515219230205e-06 -1.672091570981137920e-06 -8.356118996744044125e-06
2.912000000000000000e+03 7.353934478759765625e+01 1.838868904113769531e+01 3.302609175443649292e-02 7.348203659057617188e-01 2.303539365530014038e-01 -2.219239436089992523e-02
2.913000000000000000e+03 7.424304199218750000e+01 -1.869607734680175781e+01 -1.615414619445800781e-01 -3.940163180232048035e-02 -6.028292700648307800e-02 -2.776138186454772949e-01
2.914000000000000000e+03 7.347209930419921875e+01 -1.848095703125000000e+01 -1.894792020320892334e-01 -9.488143026828765869e-03 -5.969020351767539978e-02 -3.145202398300170898e-01
2.915000000000000000e+03 4.434902954101562500e+01 3.047838973999023438e+01 -1.277650240808725357e-03 5.027562147006392479e-04 -2.324681991012766957e-04 2.988688356708735228e-04
2.916000000000000000e+03 4.080115127563476562e+01 -1.401423740386962891e+01 9.525301720714196563e-06 1.095251627702964470e-05 6.143345672171562910e-06 3.266145085945026949e-06
2.917000000000000000e+03 4.458572387695312500e+01 -1.615163612365722656e+01 -9.471561668306094361e-08 1.586074540682602674e-05 4.729809006676077843e-06 7.043679033813532442e-06
2.918000000000000000e+03 3.864934206008911133e+00 4.331892490386962891e+00 -2.703794734770781361e-07 1.170176165032899007e-05 3.429414618949522264e-06 -4.116252966923639178e-06
2.919000000000000000e+03 3.399967956542968750e+01 -1.306198215484619141e+01 1.437006085325265303e-05 -9.442946065973956138e-06 1.478134208809933625e-06 -6.724622380716027692e-06
2.920000000000000000e+03 3.288260269165039062e+01 -1.399895191192626953e+01 9.684982614999171346e-06 3.934842879971256480e-06 4.085947693965863436e-06 1.609769128663174342e-06
2.921000000000000000e+03 7.382595825195312500e+01 -1.105819416046142578e+01 4.940247908234596252e-02 -5.141203105449676514e-02 -6.028657080605626106e-04 -2.837664484977722168e-01
2.922000000000000000e+03 3.574966430664062500e+01 1.461440944671630859e+01 -2.718882169574499130e-04 4.209501639707013965e-05 -6.893795944051817060e-05 -2.635303462739102542e-05
2.923000000000000000e+03 4.462691116333007812e+01 -1.192549133300781250e+01 2.234322164440527558e-05 2.172352833440527320e-05 1.322002481174422428e-05 2.953161856567021459e-05
2.924000000000000000e+03 4.257345962524414062e+01 2.888839721679687500e+01 -5.110855563543736935e-04 3.346458543092012405e-04 -5.293191497912630439e-05 -2.638714613567572087e-05
2.925000000000000000e+03 3.730494308471679688e+01 2.480159187316894531e+01 -5.402245369623415172e-05 1.143340487033128738e-04 1.809347850212361664e-05 1.591964974068105221e-05
2.926000000000000000e+03 3.656976318359375000e+01 2.325646972656250000e+01 -3.905442717950791121e-04 -7.495302725146757439e-06 -1.194118740386329591e-04 -1.232379509019665420e-05
2.927000000000000000e+03 7.315776062011718750e+01 -9.380643844604492188e+00 6.018871814012527466e-02 1.218484863638877869e-01 5.461116135120391846e-02 -2.259440869092941284e-01
2.928000000000000000e+03 1.634965705871582031e+01 5.133239746093750000e+00 -5.815104668727144599e-05 2.619022779981605709e-05 -9.588246030034497380e-06 7.113955234672175720e-06
2.929000000000000000e+03 3.003716468811035156e+01 -1.014504623413085938e+01 2.535865860409103334e-05 5.138102551427436993e-06 9.149028301180806011e-06 7.104759333742549643e-06
2.930000000000000000e+03 4.366461944580078125e+01 -1.116868782043457031e+01 1.205761509481817484e-05 2.169147592212539166e-05 1.012472694128518924e-05 1.819169847294688225e-05
2.931000000000000000e+03 4.235098648071289062e+01 -1.241429615020751953e+01 -1.073334897228050977e-05 -9.481996130489278585e-06 -6.064603439881466329e-06 -1.703058296698145568e-05
2.932000000000000000e+03 4.125431442260742188e+01 -1.244323253631591797e+01 3.383805233170278370e-05 -1.440725463908165693e-05 5.829239398735808209e-06 5.933038504934984303e-09
2.933000000000000000e+03 4.017162322998046875e+01 -1.284599399566650391e+01 1.269550193683244288e-05 5.902833436266519129e-06 5.579500339081278071e-06 3.311408136141835712e-06
2.934000000000000000e+03 5.132094860076904297e+00 6.888110637664794922e+00 4.899706982541829348e-05 -5.960047474218299612e-06 1.291110675083473325e-05 1.043995052896207199e-05
2.935000000000000000e+03 1.619479370117187500e+01 6.284742355346679688e+00 -5.919331306358799338e-05 2.844040682248305529e-05 -9.225872418028302491e-06 1.136832361225970089e-05
2.936000000000000000e+03 4.111616516113281250e+01 -1.082203483581542969e+01 8.761901881371159106e-06 1.642062125029042363e-05 7.554757303296355531e-06 1.815343324551577098e-07
2.937000000000000000e+03 8.162127494812011719e+00 8.438681602478027344e+00 2.176388807129114866e-05 -2.026165748247876763e-05 4.506695461259369040e-07 -2.779712303890846670e-05
2.938000000000000000e+03 3.365950012207031250e+01 1.377660179138183594e+01 -3.171338539686985314e-05 -1.158081522589782253e-05 -1.298826009588083252e-05 1.448341063223779202e-04
2.939000000000000000e+03 4.191528320312500000e+01 -1.024559974670410156e+01 8.969388545665424317e-06 -1.711120603431481868e-05 -2.442545337544288486e-06 5.706546289729885757e-06
2.940000000000000000e+03 7.584038257598876953e+00 9.082150459289550781e+00 -3.405003735679201782e-05 3.036211819562595338e-05 -1.106375862036657054e-06 3.427881165407598019e-05
2.941000000000000000e+03 7.129264354705810547e+00 8.437764167785644531e+00 5.027133374824188650e-05 -1.838960815803147852e-05 9.564518222759943455e-06 -1.884183120637317188e-06
2.942000000000000000e+03 3.258605957031250000e+01 -8.243748664855957031e+00 2.690257315407507122e-05 8.708754648978356272e-06 1.068339861376443878e-05 1.485878783569205552e-06
2.943000000000000000e+03 3.232042312622070312e+01 -9.687191963195800781e+00 2.008289447985589504e-05 -7.444205039064399898e-06 3.791606786762713455e-06 -1.016593432723311707e-05
2.944000000000000000e+03 4.969353199005126953e+00 7.988599777221679688e+00 -4.586527938954532146e-05 8.148020242515485734e-06 -1.131517819885630161e-05 -5.234653599472949281e-06
2.945000000000000000e+03 7.212876319885253906e+00 2.580429649353027344e+01 -5.464027708512730896e-05 -6.168594609334832057e-06 -1.824266109906602651e-05 2.697664967854507267e-05
2.946000000000000000e+03 3.328643035888671875e+01 1.779711723327636719e+01 -2.438228548271581531e-04 -2.604506516945548356e-05 -8.096038072835654020e-05 -9.614507143851369619e-05
2.947000000000000000e+03 3.407060623168945312e+01 -8.358233451843261719e+00 3.252587703173048794e-05 2.579306510597234592e-06 1.053155483532464132e-05 -4.787181296705966815e-06
2.948000000000000000e+03 1.739081954956054688e+01 6.528461933135986328e+00 -7.032400026218965650e-05 3.173094592057168484e-05 -1.157791575678857043e-05 7.939640454424079508e-06
2.949000000000000000e+03 7.433187961578369141e+00 2.687975120544433594e+01 5.383955431170761585e-05 -1.417690054950071499e-05 1.189879640151048079e-05 -1.013815290207276121e-05
2.950000000000000000e+03 1.510625934600830078e+01 1.714232063293457031e+01 -7.231333438539877534e-05 2.024421155510935932e-05 -1.562073521199636161e-05 3.344356173329288140e-06
2.951000000000000000e+03 4.051166152954101562e+01 -8.828646659851074219e+00 3.923433905583806336e-05 -1.057216559274820611e-05 8.598652129876427352e-06 -9.897005384118529037e-07
2.952000000000000000e+03 1.697658157348632812e+01 8.156193733215332031e+00 5.517757017514668405e-05 -2.290954034833703190e-05 9.680408766143955290e-06 -2.273164682264905423e-05
2.953000000000000000e+03 3.682027816772460938e+01 -6.362143516540527344e+00 1.402105681336252019e-05 2.353507625230122358e-05 1.126684037444647402e-05 4.746651484310859814e-06
2.954000000000000000e+03 7.624204158782958984e+00 1.998393630981445312e+01 -1.997248909901827574e-05 3.229915091651491821e-05 3.697998408824787475e-06 2.271205858050961979e-06
2.955000000000000000e+03 3.325779342651367188e+01 -7.421827793121337891e+00 3.421525616431608796e-05 6.217111604200908914e-06 1.212971073982771486e-05 1.353505695078638382e-06
2.956000000000000000e+03 3.841173553466796875e+01 -6.153797626495361328e+00 -2.133171983587089926e-05 -1.639566653466317803e-05 -1.131821591116022319e-05 -6.960049176996108145e-06
2.957000000000000000e+03 7.885757923126220703e+00 1.886924934387207031e+01 1.434672776667866856e-05 -3.932400795747525990e-05 -7.493184057238977402e-06 2.244417191832326353e-05
2.958000000000000000e+03 1.855864715576171875e+01 6.845148086547851562e+00 -8.680375322001054883e-05 2.145918733731377870e-05 -1.960336885531432927e-05 8.361275831703096628e-06
2.959000000000000000e+03 3.006278228759765625e+01 1.080731010437011719e+01 2.853783735190518200e-05 3.013489913428202271e-05 1.760182021826040000e-05 6.150944045657524839e-06
2.960000000000000000e+03 8.767179489135742188e+00 1.383578681945800781e+01 -4.551820529741235077e-05 -1.214106123370584100e-05 -1.729777977743651718e-05 -1.259514647244941443e-05
2.961000000000000000e+03 3.657659912109375000e+01 -6.999650001525878906e+00 -2.109435081365518272e-05 1.104845796362496912e-05 -3.013767809534328990e-06 4.720652214018628001e-06
2.962000000000000000e+03 3.520874786376953125e+01 -5.112978458404541016e+00 -1.521991089248331264e-05 -2.497201785445213318e-05 -1.205757871503010392e-05 -1.080140646081417799e-05
2.963000000000000000e+03 3.615683746337890625e+01 -6.308121681213378906e+00 4.433748017618199810e-06 -3.683292379719205201e-05 -9.719753506942652166e-06 -8.732367859920486808e-06
2.964000000000000000e+03 1.676881027221679688e+01 1.311640739440917969e+01 -1.966551462828647345e-05 7.126268610591068864e-05 1.547915053379256278e-05 6.002152804285287857e-05
2.965000000000000000e+03 1.999951934814453125e+01 1.535873699188232422e+01 7.946142432047054172e-05 -1.246843339686165564e-06 2.346437577216420323e-05 8.450886525679379702e-05
2.966000000000000000e+03 3.640885925292968750e+01 1.131030917167663574e+00 5.819925718242302537e-06 5.171897282707504928e-05 1.726166919979732484e-05 5.085604425403289497e-05
2.967000000000000000e+03 1.877533912658691406e+01 1.550066280364990234e+01 -1.134036938310600817e-04 3.654878810266382061e-06 -3.292464316473342478e-05 -5.847553256899118423e-05
2.968000000000000000e+03 2.726189804077148438e+01 1.234403228759765625e+01 -1.551063178339973092e-04 3.238267936467309482e-06 -4.556041676551103592e-05 5.300712291500531137e-05
2.969000000000000000e+03 2.917624473571777344e+01 8.738159179687500000e+00 -8.744834485696628690e-05 -1.536409399705007672e-05 -3.084373020101338625e-05 -4.595468999468721449e-05
2.970000000000000000e+03 2.997594833374023438e+01 6.467187881469726562e+00 -6.225785909919068217e-05 8.194438123609870672e-07 -1.843152494984678924e-05 5.338240589480847120e-05
2.971000000000000000e+03 3.491906738281250000e+01 2.642492055892944336e+00 -2.497263085388112813e-05 -1.945135409187059850e-05 -1.332719511992763728e-05 -3.065219061682000756e-05
2.972000000000000000e+03 1.783462905883789062e+01 1.600819206237792969e+01 4.269155760994181037e-05 -2.018699888139963150e-05 6.751366981916362420e-06 2.019367275352124125e-05
2.973000000000000000e+03 1.974825096130371094e+01 7.274766921997070312e+00 -9.679074719315394759e-05 1.483505729993339628e-05 -2.458670678606722504e-05 -1.147237071563722566e-05
2.974000000000000000e+03 3.612443542480468750e+01 -1.714460551738739014e-01 2.432364635751582682e-05 1.816217081795912236e-05 1.274574515264248475e-05 4.917741171084344387e-05
2.975000000000000000e+03 2.920885276794433594e+01 7.090907096862792969e+00 1.325256016571074724e-05 -1.759339465934317559e-05 -1.302250666412874125e-06 -4.204488141112960875e-05
2.976000000000000000e+03 3.211728668212890625e+01 2.995371818542480469e+00 -1.554338632558938116e-05 1.349572539766086265e-05 -6.142983579593419563e-07 -1.976439125428441912e-05
2.977000000000000000e+03 3.882633972167968750e+01 -3.311041742563247681e-02 7.598457887070253491e-05 1.940431729963165708e-06 2.337750447622966021e-05 -1.401298504788428545e-05
2.978000000000000000e+03 3.401598358154296875e+01 8.659603595733642578e-01 -2.208674959547352046e-05 -7.292550435522571206e-06 -8.813790373096708208e-06 1.333333602815400809e-05
2.979000000000000000e+03 2.650352287292480469e+01 7.159992218017578125e+00 -9.670978761278092861e-05 -1.404702743457164615e-05 -3.322704651509411633e-05 -2.952990507765207440e-05
2.980000000000000000e+03 1.900040054321289062e+01 7.626739025115966797e+00 6.910085357958450913e-05 7.599741707053908613e-07 2.095824856951367110e-05 5.125861207488924265e-06
2.981000000000000000e+03 3.335233306884765625e+01 1.566810727119445801e+00 1.823490833885443863e-06 4.017372816633724142e-07 6.675684289803029969e-07 -1.759017686708830297e-05
2.982000000000000000e+03 3.275458145141601562e+01 9.038670659065246582e-01 -9.670085091784130782e-06 -1.145881014963379130e-05 -6.338668299576966092e-06 2.742385913734324276e-05
2.983000000000000000e+03 3.351969146728515625e+01 2.973596453666687012e-01 4.849738161283312365e-06 -7.802360414643771946e-06 -8.857866760081378743e-07 -2.517351458664052188e-05
2.984000000000000000e+03 3.177333068847656250e+01 -1.911520004272460938e+00 -3.839847704512067139e-05 2.119905047948122956e-06 -1.088357203116174787e-05 -2.389025758020579815e-05
2.985000000000000000e+03 3.068383598327636719e+01 1.409053683280944824e+00 -8.361803338630124927e-06 1.156863254436757416e-05 9.620488299333374016e-07 -2.319148734386544675e-05
2.986000000000000000e+03 2.811051368713378906e+01 2.963658332824707031e+00 -2.286174640175886452e-05 3.515423713906784542e-06 -5.803896783618256450e-06 -5.470428004628047347e-05
2.987000000000000000e+03 7.733950042724609375e+01 -2.693638038635253906e+01 1.862368173897266388e-02 -1.441880594938993454e-03 5.154540296643972397e-03 4.225843120366334915e-03
2.988000000000000000e+03 7.808976745605468750e+01 -2.689747047424316406e+01 1.203783601522445679e-02 1.484795589931309223e-03 4.056789446622133255e-03 4.190566018223762512e-03
2.989000000000000000e+03 7.946337890625000000e+01 -2.608721351623535156e+01 -1.516799326054751873e-03 7.890942506492137909e-03 1.912242965772747993e-03 5.472502671182155609e-03
2.990000000000000000e+03 7.731392669677734375e+01 -2.619355583190917969e+01 6.750694941729307175e-03 3.533334820531308651e-04 2.131208544597029686e-03 6.882720626890659332e-03
2.991000000000000000e+03 7.658641815185546875e+01 -2.697609710693359375e+01 2.338326349854469299e-02 8.747147512622177601e-04 7.277393247932195663e-03 2.751627936959266663e-03
2.992000000000000000e+03 7.882611083984375000e+01 -2.686320304870605469e+01 5.061298608779907227e-03 1.102331225411035120e-04 1.551459543406963348e-03 3.473235061392188072e-03
2.993000000000000000e+03 7.988860321044921875e+01 -2.624045753479003906e+01 -2.532746409997344017e-03 -2.558008069172501564e-03 -1.527226297184824944e-03 3.556667652446776628e-04
2.994000000000000000e+03 7.656615447998046875e+01 -2.623495864868164062e+01 9.238909929990768433e-03 -3.626714460551738739e-03 1.683658803813159466e-03 6.062763277441263199e-03
2.995000000000000000e+03 7.805887603759765625e+01 -2.615296745300292969e+01 5.052173975855112076e-03 -7.681705174036324024e-04 1.285201054997742176e-03 8.334905840456485748e-03
2.996000000000000000e+03 7.878989410400390625e+01 -2.611702537536621094e+01 3.865902312099933624e-03 3.601557342335581779e-03 2.240237779915332794e-03 7.605093531310558319e-03
2.997000000000000000e+03 7.950491333007812500e+01 -2.683506774902343750e+01 2.970208646729588509e-03 2.882504835724830627e-03 1.755814068019390106e-03 -3.594997688196599483e-04
2.998000000000000000e+03 7.435298156738281250e+01 -2.623328590393066406e+01 9.448041208088397980e-03 -3.687037853524088860e-03 1.728301052935421467e-03 -2.968437969684600830e-03
2.999000000000000000e+03 7.434702301025390625e+01 -2.697327041625976562e+01 2.842861227691173553e-02 -1.810960820876061916e-03 7.985295727849006653e-03 -1.272764755412936211e-03
3.000000000000000000e+03 7.360214233398437500e+01 -2.696339035034179688e+01 2.434228360652923584e-02 1.313206157647073269e-04 7.342081516981124878e-03 -3.379040164873003960e-03
3.001000000000000000e+03 7.509201812744140625e+01 -2.698283576965332031e+01 2.958938106894493103e-02 1.852763234637677670e-04 8.932396769523620605e-03 -1.738244827720336616e-05
3.002000000000000000e+03 7.582418823242187500e+01 -2.625184822082519531e+01 1.010511536151170731e-02 -1.404459588229656219e-03 2.610196592286229134e-03 1.697844592854380608e-03
3.003000000000000000e+03 7.583707427978515625e+01 -2.699207496643066406e+01 2.683412842452526093e-02 -1.855653245002031326e-03 7.493542507290840149e-03 2.077067038044333458e-03
3.004000000000000000e+03 7.361753082275390625e+01 -2.622352600097656250e+01 9.102838113903999329e-03 -3.098580986261367798e-03 1.801277045160531998e-03 -5.222624633461236954e-03
3.005000000000000000e+03 7.508855438232421875e+01 -2.624273109436035156e+01 8.016721345484256744e-03 -3.118149004876613617e-03 1.469571609050035477e-03 1.686660689301788807e-03
3.006000000000000000e+03 7.157109069824218750e+01 -2.632641410827636719e+01 7.027177605777978897e-03 1.246860250830650330e-02 5.848734173923730850e-03 -3.636728040874004364e-03
3.007000000000000000e+03 7.196121978759765625e+01 -2.690628433227539062e+01 -1.104785042116418481e-05 -9.414748637937009335e-04 -2.857568033505231142e-04 -7.422972936183214188e-03
3.008000000000000000e+03 7.278822326660156250e+01 -2.694778633117675781e+01 1.611648127436637878e-02 -7.125039701350033283e-04 4.621193278580904007e-03 -4.055215045809745789e-03
3.009000000000000000e+03 7.288609313964843750e+01 -2.621121215820312500e+01 7.670195307582616806e-03 -3.888503182679414749e-03 1.134507590904831886e-03 -1.188850495964288712e-02
3.010000000000000000e+03 7.221461486816406250e+01 -2.617616653442382812e+01 1.146225817501544952e-02 -7.166260038502514362e-04 3.223689505830407143e-03 -1.091714296489953995e-02
3.011000000000000000e+03 7.174316406250000000e+01 -2.767622184753417969e+01 -1.504190498962998390e-03 -3.859606804326176643e-03 -1.609139144420623779e-03 1.353098312392830849e-03
3.012000000000000000e+03 7.290261077880859375e+01 -2.808098602294921875e+01 -1.353829051367938519e-03 -3.407826443435624242e-05 -4.163722041994333267e-04 1.972327299881726503e-04
3.013000000000000000e+03 7.162282562255859375e+01 -2.841186141967773438e+01 2.453464549034833908e-03 8.988673216663300991e-04 1.005699508823454380e-03 -5.562636069953441620e-04
3.014000000000000000e+03 7.285732269287109375e+01 -2.857239532470703125e+01 7.190626929514110088e-04 1.660319278016686440e-03 7.138145738281309605e-04 9.084554039873182774e-04
3.015000000000000000e+03 7.282831573486328125e+01 -2.759895896911621094e+01 1.795289921574294567e-03 2.653602277860045433e-03 1.334667671471834183e-03 -1.529970322735607624e-03
3.016000000000000000e+03 7.119623565673828125e+01 -2.820100975036621094e+01 9.704232215881347656e-04 3.820078680291771889e-03 1.437150640413165092e-03 -1.839970587752759457e-03
3.017000000000000000e+03 7.222229003906250000e+01 -2.849229240417480469e+01 5.119550623930990696e-04 -2.200358547270298004e-03 -5.065210280008614063e-04 4.823603376280516386e-05
3.018000000000000000e+03 7.236045074462890625e+01 -2.788129997253417969e+01 -1.569245825521647930e-03 1.459212362533435225e-04 -4.269973724149167538e-04 1.969845499843358994e-03
3.019000000000000000e+03 7.898888397216796875e+01 -2.760950279235839844e+01 1.055971253663301468e-03 -2.287061215611174703e-05 3.099302120972424746e-04 -3.518272424116730690e-04
3.020000000000000000e+03 7.791374206542968750e+01 -2.760621070861816406e+01 1.516655553132295609e-03 1.289231120608747005e-03 8.417660137638449669e-04 6.523380870930850506e-04
3.021000000000000000e+03 7.662735748291015625e+01 -2.860783195495605469e+01 -1.591252279467880726e-03 -1.087456825189292431e-03 -8.036126964725553989e-04 6.174743757583200932e-04
3.022000000000000000e+03 7.936871337890625000e+01 -2.833490943908691406e+01 -3.270019777119159698e-03 6.797609239583835006e-05 -9.606131352484226227e-04 2.992291410919278860e-04
3.023000000000000000e+03 7.877022552490234375e+01 -2.845338821411132812e+01 2.077125245705246925e-03 6.688269786536693573e-04 8.237856673076748848e-04 1.197364326799288392e-04
3.024000000000000000e+03 7.735025787353515625e+01 -2.800172805786132812e+01 -2.500858157873153687e-03 -7.161968387663364410e-04 -9.651164873503148556e-04 9.271560120396316051e-04
3.025000000000000000e+03 7.730879211425781250e+01 -2.756325721740722656e+01 1.123676891438663006e-03 -1.404700218699872494e-03 -8.430700108874589205e-05 -2.913464231824036688e-05
3.026000000000000000e+03 7.740731048583984375e+01 -2.851380729675292969e+01 1.204164582304656506e-03 1.278622541576623917e-03 7.448361720889806747e-04 -6.390493363142013550e-04
3.027000000000000000e+03 7.659568023681640625e+01 -2.762480163574218750e+01 -2.207067591371014714e-04 1.065897173248231411e-03 2.535571111366152763e-04 6.508202641271054745e-04
3.028000000000000000e+03 7.660980987548828125e+01 -2.810980606079101562e+01 1.132937264628708363e-03 1.221792539581656456e-03 7.064189412631094456e-04 -1.025108154863119125e-03
3.029000000000000000e+03 7.813754272460937500e+01 -2.849098777770996094e+01 5.685157957486808300e-04 -1.873688073828816414e-03 -3.915517008863389492e-04 1.004661680781282485e-05
3.030000000000000000e+03 7.842007446289062500e+01 -2.793042945861816406e+01 -2.386206295341253281e-03 -9.939208393916487694e-04 -1.014038105495274067e-03 -6.219176575541496277e-04
3.031000000000000000e+03 7.964272308349609375e+01 -2.773777580261230469e+01 1.055228131008334458e-05 2.480707480572164059e-04 7.758690480841323733e-05 -1.317359274253249168e-04
3.032000000000000000e+03 4.454376983642578125e+01 -2.153533744812011719e+01 -6.533765196800231934e-01 -2.910270690917968750e-01 -2.833210825920104980e-01 -4.071391224861145020e-01
3.033000000000000000e+03 4.525796890258789062e+01 -2.133341026306152344e+01 -1.128947734832763672e+00 -1.884309351444244385e-01 -3.952136039733886719e-01 -6.256203055381774902e-01
3.034000000000000000e+03 4.405188369750976562e+01 -2.244241142272949219e+01 -7.893303036689758301e-02 -3.266914486885070801e-01 -1.216873452067375183e-01 -3.638190031051635742e-01
3.035000000000000000e+03 4.615114593505859375e+01 -2.184869003295898438e+01 4.303923547267913818e-01 -9.425138831138610840e-01 -1.536364704370498657e-01 -4.893974661827087402e-01
3.036000000000000000e+03 4.545270156860351562e+01 -2.204736137390136719e+01 -4.315712023526430130e-03 -7.696043848991394043e-01 -2.321760207414627075e-01 -7.371257543563842773e-01
3.037000000000000000e+03 4.475288772583007812e+01 -2.224522018432617188e+01 -9.564565122127532959e-02 -3.911522030830383301e-01 -1.460393518209457397e-01 -3.828382492065429688e-01
3.038000000000000000e+03 4.597079086303710938e+01 -2.113067054748535156e+01 -1.917004466056823730e+00 -1.094999194145202637e+00 -9.036011099815368652e-01 -1.167740941047668457e+00
3.039000000000000000e+03 4.382838821411132812e+01 -2.173659515380859375e+01 -3.669289350509643555e-01 -1.187262758612632751e-01 -1.456965655088424683e-01 -2.234453111886978149e-01
3.040000000000000000e+03 5.033853912353515625e+01 -2.022522163391113281e+01 1.560524404048919678e-01 3.911940157413482666e-01 1.641739457845687866e-01 -6.165187060832977295e-02
3.041000000000000000e+03 5.106142425537109375e+01 -2.010481452941894531e+01 2.384622395038604736e-01 -1.081172227859497070e-01 3.910350799560546875e-02 2.416819483041763306e-01
3.042000000000000000e+03 5.001500701904296875e+01 -2.126924705505371094e+01 1.335238218307495117e-01 -4.865206480026245117e-01 -1.058990508317947388e-01 7.500002980232238770e-01
3.043000000000000000e+03 5.192002487182617188e+01 -2.069961738586425781e+01 2.255699038505554199e-01 -1.829607971012592316e-02 6.218215078115463257e-02 3.451610207557678223e-01
3.044000000000000000e+03 5.181696319580078125e+01 -1.996597862243652344e+01 4.814556539058685303e-01 1.156705245375633240e-01 1.791378557682037354e-01 1.456791907548904419e-01
3.045000000000000000e+03 5.108997344970703125e+01 -2.085257148742675781e+01 1.103912815451622009e-01 6.466592848300933838e-02 5.251716077327728271e-02 2.843695282936096191e-01
3.046000000000000000e+03 4.977315902709960938e+01 -2.098537445068359375e+01 -3.442541658878326416e-01 -7.183987498283386230e-01 -3.187958896160125732e-01 1.066754937171936035e+00
3.047000000000000000e+03 5.038103485107421875e+01 -2.086993408203125000e+01 -7.234463095664978027e-01 -1.769518554210662842e-01 -2.701194584369659424e-01 9.423356056213378906e-01
3.048000000000000000e+03 4.963174438476562500e+01 -2.042351913452148438e+01 -1.120831608772277832e+00 -8.437626957893371582e-01 -5.893782973289489746e-01 8.704697489738464355e-01
3.049000000000000000e+03 5.405023574829101562e+01 -1.952743339538574219e+01 8.519859313964843750e-01 4.090654104948043823e-02 2.678677439689636230e-01 2.553040683269500732e-01
3.050000000000000000e+03 5.331044006347656250e+01 -1.967299842834472656e+01 7.365819215774536133e-01 9.744928032159805298e-02 2.502093613147735596e-01 1.931063234806060791e-01
3.051000000000000000e+03 5.271442794799804688e+01 -2.054370307922363281e+01 4.167860746383666992e-01 1.257108747959136963e-01 1.627490818500518799e-01 2.131114006042480469e-01
3.052000000000000000e+03 5.495590972900390625e+01 -2.010264968872070312e+01 6.909133195877075195e-01 1.733796447515487671e-01 2.592878937721252441e-01 3.788768053054809570e-01
3.053000000000000000e+03 5.478977203369140625e+01 -1.938115119934082031e+01 1.007095217704772949e+00 1.335864216089248657e-01 3.422044813632965088e-01 2.937656342983245850e-01
3.054000000000000000e+03 5.420899581909179688e+01 -2.025038337707519531e+01 6.177465915679931641e-01 1.642821133136749268e-01 2.346086204051971436e-01 2.950086593627929688e-01
3.055000000000000000e+03 5.257042312622070312e+01 -1.981785011291503906e+01 6.120143532752990723e-01 -7.029835600405931473e-03 1.814953535795211792e-01 2.101823687553405762e-01
3.056000000000000000e+03 5.346182250976562500e+01 -2.039739990234375000e+01 4.990098476409912109e-01 6.812892109155654907e-02 1.701416373252868652e-01 3.067693710327148438e-01
3.057000000000000000e+03 5.553008651733398438e+01 -1.920907402038574219e+01 1.143283724784851074e+00 1.293411552906036377e-01 3.817874789237976074e-01 3.908606469631195068e-01
3.058000000000000000e+03 5.725695419311523438e+01 -1.950564956665039062e+01 9.958480596542358398e-01 4.492667317390441895e-01 4.335344433784484863e-01 6.506796479225158691e-01
3.059000000000000000e+03 5.571527862548828125e+01 -1.992561912536621094e+01 7.928749322891235352e-01 2.677894532680511475e-01 3.181993067264556885e-01 4.161631166934967041e-01
3.060000000000000000e+03 5.802567672729492188e+01 -1.928994750976562500e+01 1.032057166099548340e+00 5.781178474426269531e-01 4.830525219440460205e-01 6.990593075752258301e-01
3.061000000000000000e+03 5.701029205322265625e+01 -1.880601882934570312e+01 1.497369647026062012e+00 1.824078112840652466e-01 5.039332509040832520e-01 5.742030739784240723e-01
3.062000000000000000e+03 5.627075195312500000e+01 -1.900946998596191406e+01 1.282007098197937012e+00 2.106245011091232300e-01 4.477894902229309082e-01 4.623243212699890137e-01
3.063000000000000000e+03 5.774827575683593750e+01 -1.859877204895019531e+01 1.817696094512939453e+00 4.805832803249359131e-01 6.894838213920593262e-01 7.503772974014282227e-01
3.064000000000000000e+03 5.648667907714843750e+01 -1.971755790710449219e+01 9.047143459320068359e-01 2.655945420265197754e-01 3.510926663875579834e-01 5.108006000518798828e-01
3.065000000000000000e+03 5.914070129394531250e+01 -1.790256118774414062e+01 1.717271685600280762e+00 7.128922343254089355e-01 7.290492057800292969e-01 1.062700748443603516e+00
3.066000000000000000e+03 5.952583312988281250e+01 -1.853448677062988281e+01 1.273356318473815918e+00 6.065877079963684082e-01 5.639832019805908203e-01 8.351539969444274902e-01
3.067000000000000000e+03 6.026574707031250000e+01 -1.809379196166992188e+01 1.225953221321105957e+00 9.236829876899719238e-01 6.448908448219299316e-01 8.952248692512512207e-01
3.068000000000000000e+03 5.878223419189453125e+01 -1.896722793579101562e+01 1.158451318740844727e+00 6.460418701171875000e-01 5.413479804992675781e-01 6.656381487846374512e-01
3.069000000000000000e+03 6.099867248535156250e+01 -1.764663124084472656e+01 1.085133075714111328e+00 1.011001944541931152e+00 6.288405060768127441e-01 6.731771230697631836e-01
3.070000000000000000e+03 6.048994827270507812e+01 -1.708762741088867188e+01 1.899674296379089355e+00 1.335985541343688965e+00 9.706979393959045410e-01 1.315024137496948242e+00
3.071000000000000000e+03 5.845867919921875000e+01 -1.829862213134765625e+01 1.847209095954895020e+00 6.444444060325622559e-01 7.474960684776306152e-01 1.000413775444030762e+00
3.072000000000000000e+03 5.981904220581054688e+01 -1.749854469299316406e+01 1.765607118606567383e+00 7.629049420356750488e-01 7.585536241531372070e-01 1.160686850547790527e+00
3.073000000000000000e+03 6.389270019531250000e+01 -1.315513706207275391e+01 5.163781642913818359e-01 8.086942434310913086e-01 3.975217342376708984e-01 6.945643424987792969e-01
3.074000000000000000e+03 6.362155151367187500e+01 -1.258993911743164062e+01 5.555385351181030273e-01 7.697792053222656250e-01 3.975953459739685059e-01 6.957364678382873535e-01
3.075000000000000000e+03 6.364220046997070312e+01 -1.379344177246093750e+01 4.571374654769897461e-01 7.844272255897521973e-01 3.724693953990936279e-01 6.602212786674499512e-01
3.076000000000000000e+03 6.329390716552734375e+01 -1.445079326629638672e+01 5.415772199630737305e-01 7.787278890609741211e-01 3.960915207862854004e-01 7.394370436668395996e-01
3.077000000000000000e+03 6.296297836303710938e+01 -1.507676315307617188e+01 6.541168689727783203e-01 7.737483978271484375e-01 4.283595979213714600e-01 7.117372155189514160e-01
3.078000000000000000e+03 6.250194549560546875e+01 -1.563844871520996094e+01 6.901218891143798828e-01 8.799791336059570312e-01 4.710303246974945068e-01 7.968557476997375488e-01
3.079000000000000000e+03 6.201707839965820312e+01 -1.631484985351562500e+01 1.023060083389282227e+00 9.620554447174072266e-01 5.955346822738647461e-01 8.964837789535522461e-01
3.080000000000000000e+03 6.148456954956054688e+01 -1.575653648376464844e+01 6.473585367202758789e-01 1.426530599594116211e+00 6.221666932106018066e-01 9.900538921356201172e-01
3.081000000000000000e+03 6.157407379150390625e+01 -1.705956077575683594e+01 1.247010827064514160e+00 8.521598577499389648e-01 6.297512054443359375e-01 7.087107300758361816e-01
3.082000000000000000e+03 6.322280120849609375e+01 -1.338076305389404297e+01 5.165039300918579102e-01 7.466157078742980957e-01 3.789359033107757568e-01 6.778669953346252441e-01
3.083000000000000000e+03 6.233250427246093750e+01 -1.494980430603027344e+01 6.285059452056884766e-01 1.036674737930297852e+00 4.995542168617248535e-01 7.879184484481811523e-01
3.084000000000000000e+03 6.185053634643554688e+01 -1.498038387298583984e+01 5.906329154968261719e-01 1.300128698348999023e+00 5.672284960746765137e-01 8.112025260925292969e-01
3.085000000000000000e+03 6.265357208251953125e+01 -1.377886962890625000e+01 4.135182201862335205e-01 9.012523889541625977e-01 3.944311738014221191e-01 6.429873704910278320e-01
3.086000000000000000e+03 6.103660202026367188e+01 -1.651272010803222656e+01 1.336815357208251953e+00 1.716219067573547363e+00 9.159103035926818848e-01 1.244907140731811523e+00
3.087000000000000000e+03 6.219382095336914062e+01 -1.432803440093994141e+01 4.131820797920227051e-01 1.142419695854187012e+00 4.666805267333984375e-01 7.190453410148620605e-01
3.088000000000000000e+03 6.283056640625000000e+01 -1.454834175109863281e+01 5.889943838119506836e-01 8.385750651359558105e-01 4.282708168029785156e-01 7.634801864624023438e-01
3.089000000000000000e+03 6.100513076782226562e+01 -1.542561531066894531e+01 -3.214710659449337982e-06 -2.219318957941140980e-06 -1.630208885217143688e-06 -7.447551979566924274e-07
3.090000000000000000e+03 5.980083084106445312e+01 -1.543185615539550781e+01 7.372248091996880248e-06 1.496640379627933726e-05 6.701595793856540695e-06 4.985297891835216433e-06
3.091000000000000000e+03 6.019709777832031250e+01 -1.577101421356201172e+01 -8.512860404152888805e-06 2.285118227973725880e-07 -2.485304548827116378e-06 -1.296187519983504899e-06
3.092000000000000000e+03 6.056436157226562500e+01 -1.607985115051269531e+01 1.851837055255600717e-06 1.165431967820040882e-06 9.051806841853249352e-07 -9.153889095614431426e-07
3.093000000000000000e+03 6.142192840576171875e+01 -1.476541900634765625e+01 5.323800451151328161e-06 1.614524080650880933e-06 2.081497314065927640e-06 1.934458850882947445e-06
3.094000000000000000e+03 6.213092422485351562e+01 -1.359696483612060547e+01 3.028273567906580865e-06 2.978798363528767368e-07 9.978459729609312490e-07 6.727144636897719465e-07
3.095000000000000000e+03 6.144266128540039062e+01 -1.412735176086425781e+01 7.812330977685633115e-07 7.044076966167267528e-08 2.555021580974425888e-07 9.574218893249053508e-07
3.096000000000000000e+03 6.036208724975585938e+01 -1.491959762573242188e+01 -5.346963121155567933e-07 6.496699825220275670e-06 1.788601025509706233e-06 -9.375744411954656243e-07
3.097000000000000000e+03 6.065115356445312500e+01 -1.523142147064208984e+01 8.581080692238174379e-06 7.657573632968706079e-07 2.804051291604992002e-06 -2.071896915367688052e-06
3.098000000000000000e+03 6.182951354980468750e+01 -1.412581539154052734e+01 -6.326372385956346989e-06 -3.827230727893038420e-07 -2.012728600675472990e-06 -1.801691951186512597e-06
3.099000000000000000e+03 6.099356460571289062e+01 -1.469548988342285156e+01 -4.605514277500333264e-06 -7.862107850087340921e-06 -3.740286501852096990e-06 -1.035511445479642134e-07
3.100000000000000000e+03 5.861434173583984375e+01 -1.637038230895996094e+01 7.544711024820571765e-06 -1.640967639104928821e-06 1.771123038452060428e-06 5.356495762498525437e-07
3.101000000000000000e+03 5.907415390014648438e+01 -1.671718597412109375e+01 -7.519186510762665421e-06 -1.015337875287514180e-05 -5.301769306242931634e-06 -3.604724270189763047e-06
3.102000000000000000e+03 5.928987884521484375e+01 -1.589454174041748047e+01 -9.751682227943092585e-06 -9.535771823721006513e-06 -5.786236215499229729e-06 1.073209546120779123e-06
3.103000000000000000e+03 5.789558410644531250e+01 -1.685814666748046875e+01 -1.552489152345515322e-06 9.224784207617631182e-07 -1.890032308438094333e-07 -2.890388259402243420e-06
3.104000000000000000e+03 5.817584609985351562e+01 -1.755254173278808594e+01 5.122097945786663331e-07 7.010660283413017169e-06 2.256861080240923911e-06 -3.957351964345434681e-06
3.105000000000000000e+03 6.003462982177734375e+01 -1.659701728820800781e+01 -2.402530981271411292e-06 -1.172601429288988584e-07 -7.559373216281528585e-07 1.126612460211617872e-06
3.106000000000000000e+03 5.967214584350585938e+01 -1.625088500976562500e+01 4.667307166528189555e-06 5.094042080600047484e-06 2.928404683189000934e-06 2.263454462081426755e-06
3.107000000000000000e+03 5.885440826416015625e+01 -1.725676536560058594e+01 3.681592033899505623e-06 -1.198542850033845752e-05 -2.491151008143788204e-06 7.062629379106510896e-07
3.108000000000000000e+03 5.944448852539062500e+01 -1.698521423339843750e+01 4.511765382630983368e-06 8.919452739064581692e-06 4.029365300084464252e-06 4.280290795577457175e-06
3.109000000000000000e+03 5.587814712524414062e+01 -1.781697273254394531e+01 2.172516542486846447e-05 1.490477734478190541e-05 1.098898337659193203e-05 -1.263684225705219433e-06
3.110000000000000000e+03 5.585419845581054688e+01 -1.838780212402343750e+01 -6.310345384008542169e-07 2.072537063213530928e-05 6.028300958860199898e-06 -4.838148015551269054e-06
3.111000000000000000e+03 5.528112792968750000e+01 -1.847929763793945312e+01 -8.367939017261960544e-07 -8.976253411674406379e-06 -2.943914296338334680e-06 8.993068149720784277e-06
3.112000000000000000e+03 5.635134124755859375e+01 -1.824832153320312500e+01 6.217700956767657772e-06 -1.428077212040079758e-05 -2.418921440039412118e-06 -2.017156248257379048e-06
3.113000000000000000e+03 5.686418914794921875e+01 -1.803310203552246094e+01 6.458888492488767952e-06 -5.477972422340826597e-07 1.773327426235482562e-06 3.052490228583337739e-06
3.114000000000000000e+03 5.634397506713867188e+01 -1.740873908996582031e+01 -2.222438160970341414e-05 -1.198315567307872698e-05 -1.026226073008729145e-05 1.556201641506049782e-05
3.115000000000000000e+03 5.748024749755859375e+01 -1.785220718383789062e+01 -3.541935939210816287e-06 -7.005779707469628192e-07 -1.272754161618649960e-06 5.586413863056804985e-06
3.116000000000000000e+03 5.711166381835937500e+01 -1.718612289428710938e+01 -6.000682787998812273e-06 1.179804166895337403e-05 1.739207732498471159e-06 -4.759624516736948863e-06
3.117000000000000000e+03 5.518711853027343750e+01 -1.773766326904296875e+01 1.012180837278719991e-05 -9.414628948434256017e-06 2.121540347843620111e-07 -1.023781896947184578e-05
3.118000000000000000e+03 5.241899490356445312e+01 -1.905364608764648438e+01 -1.185806581815995742e-06 7.457711490133078769e-06 1.881571392914338503e-06 -2.259312168462201953e-06
3.119000000000000000e+03 5.315275955200195312e+01 -1.891308021545410156e+01 2.136343226766257430e-07 -7.884438673499971628e-06 -2.301241465829662047e-06 2.016411599470302463e-06
3.120000000000000000e+03 5.388480377197265625e+01 -1.876910972595214844e+01 -2.190162376791704446e-06 7.537983492511557415e-06 1.604346380190690979e-06 -1.475088311053696088e-06
3.121000000000000000e+03 5.372604370117187500e+01 -1.804615974426269531e+01 8.976548997452482581e-06 3.251076350352377631e-06 3.668287718028295785e-06 -2.840932438630261458e-06
3.122000000000000000e+03 5.461503982543945312e+01 -1.862159919738769531e+01 6.374393251462606713e-06 -3.411230864003300667e-06 8.889486480256891809e-07 -3.618834853114094585e-06
3.123000000000000000e+03 5.444890213012695312e+01 -1.790010070800781250e+01 -9.839777703746221960e-06 2.494987825230055023e-07 -2.877083716157358140e-06 2.453537035762565210e-06
3.124000000000000000e+03 5.227499008178710938e+01 -1.832779121398925781e+01 1.295173433391028084e-06 5.176453328203933779e-07 5.438456014417170081e-07 -5.842360195629225927e-08
3.125000000000000000e+03 5.300137710571289062e+01 -1.818867683410644531e+01 -4.487086698645725846e-06 -2.237200533272698522e-06 -2.017286305999732576e-06 -1.160388933385547716e-06
3.126000000000000000e+03 5.021003341674804688e+01 -1.947287559509277344e+01 5.634013291455630679e-07 -8.183519639715086669e-06 -2.286035396537045017e-06 2.142120365533628501e-06
3.127000000000000000e+03 5.094702148437500000e+01 -1.933323669433593750e+01 -1.630101223781821318e-06 8.087681635515764356e-06 1.937273964358610101e-06 -1.708081754259183072e-06
3.128000000000000000e+03 4.947301483154296875e+01 -1.961274909973144531e+01 -1.093497530746390112e-06 7.435529369104187936e-06 1.902609483295236714e-06 -2.496912429705844261e-06
3.129000000000000000e+03 5.168397521972656250e+01 -1.919383239746093750e+01 -1.449032680511663784e-07 -7.506328984163701534e-06 -2.295369540661340579e-06 1.536447257421968970e-06
3.130000000000000000e+03 5.154356384277343750e+01 -1.846726989746093750e+01 -3.802379751505213790e-06 2.996841431013308465e-06 -2.416615245692810277e-07 3.665063843527605059e-07
3.131000000000000000e+03 4.933204269409179688e+01 -1.888629341125488281e+01 3.068518253712682053e-06 -3.545461368048563600e-06 -1.430829001947131474e-07 3.690720632221200503e-06
3.132000000000000000e+03 5.080642700195312500e+01 -1.860671043395996094e+01 4.176748916506767273e-06 -4.497288955462863669e-06 -9.616198326511948835e-08 1.318399426963878796e-06
3.133000000000000000e+03 5.006925201416015625e+01 -1.874638557434082031e+01 -4.513239218795206398e-06 4.349505616119131446e-06 -4.912014262004049669e-08 -2.615322046040091664e-06
3.134000000000000000e+03 4.725450897216796875e+01 -2.004898452758789062e+01 3.174671689976094058e-07 -3.782941575991571881e-06 -1.039642370415094774e-06 1.838494426920078695e-06
3.135000000000000000e+03 4.709337997436523438e+01 -1.932653617858886719e+01 -2.277558678542845882e-06 1.052028096637513954e-06 -3.676591404655482620e-07 -3.129533070023171604e-06
3.136000000000000000e+03 4.651494979858398438e+01 -2.019693183898925781e+01 -8.425942041867529042e-07 2.816359028656734154e-06 5.921294246036268305e-07 -1.691244960966287181e-06
3.137000000000000000e+03 4.799435043334960938e+01 -1.990183448791503906e+01 -7.608547889503824990e-07 4.867276402364950627e-06 1.231926376021874603e-06 -2.213071411460987292e-06
3.138000000000000000e+03 4.873443222045898438e+01 -1.975547790527343750e+01 2.918710038102290127e-07 -6.172277153382310644e-06 -1.764121748237812426e-06 2.388700295341550373e-06
3.139000000000000000e+03 4.858935928344726562e+01 -1.902983856201171875e+01 -2.706460236368002370e-06 2.491945451765786856e-06 -6.435444532826295472e-08 -3.842012574750697240e-06
3.140000000000000000e+03 4.634579849243164062e+01 -1.947607994079589844e+01 2.268491698487196118e-06 -5.633356181533599738e-07 5.115468297844927292e-07 2.862529072444885969e-06
3.141000000000000000e+03 4.784125137329101562e+01 -1.917778968811035156e+01 1.950693558683269657e-06 -1.677991690485214349e-06 8.181060451306620962e-08 3.575783921405673027e-06
3.142000000000000000e+03 4.432126998901367188e+01 -2.078344535827636719e+01 5.266480229693115689e-07 -9.603455737305921502e-07 -1.301092709127260605e-07 8.899536396711482666e-07
3.143000000000000000e+03 4.505051040649414062e+01 -2.057725715637207031e+01 -8.252524139606975950e-07 1.286527094634948298e-06 1.383823899914204958e-07 -1.186563622468383983e-06
3.144000000000000000e+03 4.359247589111328125e+01 -2.099166297912597656e+01 -1.051473191182594746e-06 3.918937068192462903e-07 -1.978738595198592520e-07 -1.077526576409582049e-06
3.145000000000000000e+03 4.411215209960937500e+01 -2.007356262207031250e+01 -2.439029003653558902e-06 -6.739745117556594778e-07 -9.339010489384236280e-07 -1.996225591938127764e-06
3.146000000000000000e+03 4.578023910522460938e+01 -2.037289810180664062e+01 3.597077125050418545e-07 -1.928240408233250491e-06 -4.705598541931976797e-07 1.375047531837481074e-06
3.147000000000000000e+03 4.559988403320312500e+01 -1.965488052368164062e+01 -2.087881966872373596e-06 -5.462693408730956435e-09 -6.280034199335204903e-07 -2.576697625045198947e-06
3.148000000000000000e+03 4.336897659301757812e+01 -2.028584671020507812e+01 2.791968427118263207e-06 9.829417422224651091e-07 1.132473016696167178e-06 1.993554178625345230e-06
3.149000000000000000e+03 4.485577392578125000e+01 -1.986330604553222656e+01 2.190676241298206151e-06 2.440104083234473364e-07 7.304060432034020778e-07 2.211863375123357400e-06
3.150000000000000000e+03 4.105918121337890625e+01 -2.103385925292968750e+01 -2.020466354224481620e-06 3.831305548374075443e-06 5.432517014014592860e-07 -4.578762116125290049e-07
3.151000000000000000e+03 4.198300170898437500e+01 -2.076494598388671875e+01 4.887426712230080739e-06 5.981711410640855320e-07 1.645679390094301198e-06 3.872109118674416095e-06
3.152000000000000000e+03 4.264957046508789062e+01 -2.053101348876953125e+01 -2.543597474868874997e-06 -1.395136450810241513e-06 -1.181620177703734953e-06 -2.451378804835258052e-06
3.153000000000000000e+03 4.200543975830078125e+01 -2.154659652709960938e+01 -2.020769898081198335e-06 -3.150588099742890336e-06 -1.551407422084594145e-06 -2.207410489063477144e-06
3.154000000000000000e+03 4.281084060668945312e+01 -2.126075172424316406e+01 5.206940727475739550e-07 6.764776117051951587e-07 3.591514996514888480e-07 9.575943522577290423e-07
3.155000000000000000e+03 4.143973159790039062e+01 -2.146877861022949219e+01 5.918215720157604665e-06 1.911450453917495906e-06 2.348899897697265260e-06 2.663195800778339617e-06
3.156000000000000000e+03 4.140149307250976562e+01 -2.091440773010253906e+01 -6.825951459177304059e-06 3.966299289004382445e-07 -1.928796336869709194e-06 -2.175200052079162560e-06
3.157000000000000000e+03 4.100804138183593750e+01 -2.131018257141113281e+01 6.869977653423120501e-08 2.772566631392692216e-06 8.523799692738975864e-07 3.337639213896181900e-07
3.158000000000000000e+03 4.183971786499023438e+01 -2.302727508544921875e+01 1.454140804708003998e-02 -7.389220595359802246e-02 -1.780523918569087982e-02 -1.629650220274925232e-02
3.159000000000000000e+03 4.219042205810546875e+01 -2.229762840270996094e+01 -4.072432219982147217e-02 -6.866948306560516357e-02 -3.281814232468605042e-02 -3.665805608034133911e-02
3.160000000000000000e+03 4.326124572753906250e+01 -2.270085716247558594e+01 -3.997853398323059082e-02 -1.983070969581604004e-01 -7.148569077253341675e-02 -2.122120708227157593e-01
3.161000000000000000e+03 4.302730941772460938e+01 -2.199828910827636719e+01 -1.445091515779495239e-01 -8.047148585319519043e-02 -6.749419122934341431e-02 -1.455499380826950073e-01
3.162000000000000000e+03 4.243085479736328125e+01 -2.299776458740234375e+01 8.521192357875406742e-04 -2.044045478105545044e-01 -6.106572970747947693e-02 -1.045463606715202332e-01
3.163000000000000000e+03 1.605741500854492188e+01 -3.611289262771606445e+00 6.210504216141998768e-05 9.634444722905755043e-05 4.753484608954750001e-05 5.839082587044686079e-05
3.164000000000000000e+03 1.562254238128662109e+01 -4.210125446319580078e+00 -7.962735980981960893e-05 -9.815024532144889235e-05 -5.333327862899750471e-05 -4.855713996221311390e-05
3.165000000000000000e+03 1.505074691772460938e+01 -3.785051584243774414e+00 8.288976096082478762e-05 1.088020071620121598e-04 5.750753189204260707e-05 4.176777656539343297e-05
3.166000000000000000e+03 1.676181221008300781e+01 -5.065579891204833984e+00 -7.910770364105701447e-05 -9.550544200465083122e-05 -5.238394442130811512e-05 -4.923710730508901179e-05
3.167000000000000000e+03 1.619318008422851562e+01 -4.636556148529052734e+00 8.268188685178756714e-05 9.642129589337855577e-05 5.373095336835831404e-05 4.770165833178907633e-05
3.168000000000000000e+03 1.723610115051269531e+01 -4.496263980865478516e+00 6.185803067637607455e-05 8.300095214508473873e-05 4.345769411884248257e-05 5.301042256178334355e-05
3.169000000000000000e+03 1.546591091156005859e+01 -3.171455383300781250e+00 -5.449294985737651587e-05 -1.031076244544237852e-04 -4.728017302113585174e-05 -6.143980863271281123e-05
3.170000000000000000e+03 1.664776039123535156e+01 -4.052479743957519531e+00 -5.686114309355616570e-05 -8.744587103137746453e-05 -4.329210423748008907e-05 -6.091707473387941718e-05
3.171000000000000000e+03 1.831977081298828125e+01 -5.492505550384521484e+00 6.373956421157345176e-05 6.452312663896009326e-05 3.847880725516006351e-05 4.245027230354025960e-05
3.172000000000000000e+03 1.780974006652832031e+01 -6.028855800628662109e+00 -9.093461994780227542e-05 -8.335550955962389708e-05 -5.228703957982361317e-05 -3.442378874751739204e-05
3.173000000000000000e+03 1.730055999755859375e+01 -5.529824733734130859e+00 7.875892333686351776e-05 9.784339636098593473e-05 5.298069663695059717e-05 4.037517646793276072e-05
3.174000000000000000e+03 1.831691551208496094e+01 -6.530111789703369141e+00 1.182665291707962751e-04 6.558356835739687085e-05 5.515502925845794380e-05 2.695040711842011660e-05
3.175000000000000000e+03 1.882190132141113281e+01 -7.033396244049072266e+00 -1.469222770538181067e-04 -3.956436921725980937e-05 -5.594599497271701694e-05 -3.660479706013575196e-05
3.176000000000000000e+03 1.936644935607910156e+01 -6.531159877777099609e+00 9.680625953478738666e-05 5.276692172628827393e-05 4.487195474212057889e-05 5.412223254097625613e-05
3.177000000000000000e+03 1.779333305358886719e+01 -4.976417064666748047e+00 -5.498668542713858187e-05 -7.110838487278670073e-05 -3.782852218137122691e-05 -5.214427073951810598e-05
3.178000000000000000e+03 1.884420585632324219e+01 -6.010818481445312500e+00 -7.441211346304044127e-05 -5.114937448524869978e-05 -3.766844383790157735e-05 -4.756802445626817644e-05
3.179000000000000000e+03 2.031454658508300781e+01 -7.659852027893066406e+00 1.399175525875762105e-04 6.442095036618411541e-05 6.130155088612809777e-05 8.238197915488854051e-05
3.180000000000000000e+03 2.077073287963867188e+01 -8.240385055541992188e+00 -1.492395967943593860e-04 -7.163205009419471025e-05 -6.626149843214079738e-05 -9.665916877565905452e-05
3.181000000000000000e+03 1.929654693603515625e+01 -7.565644741058349609e+00 1.592914923094213009e-04 3.816632670350372791e-05 5.923734715906903148e-05 4.240870839566923678e-05
3.182000000000000000e+03 2.062350273132324219e+01 -9.254287719726562500e+00 -1.497828197898343205e-04 -6.818422843934968114e-05 -6.539011519635096192e-05 -9.120803588302806020e-05
3.183000000000000000e+03 2.018299865722656250e+01 -8.690117835998535156e+00 1.661936257733032107e-04 4.655768861994147301e-05 6.382539868354797363e-05 7.096500485204160213e-05
3.184000000000000000e+03 1.974063491821289062e+01 -8.127175331115722656e+00 -1.664608571445569396e-04 -3.437083069002255797e-05 -6.024950562277808785e-05 -5.588069689110852778e-05
3.185000000000000000e+03 2.122505760192871094e+01 -8.822144508361816406e+00 1.440527703380212188e-04 8.014185732463374734e-05 6.725839193677529693e-05 9.791659977054223418e-05
3.186000000000000000e+03 1.985663604736328125e+01 -7.080731868743896484e+00 -1.172065676655620337e-04 -5.483263157657347620e-05 -5.161175795365124941e-05 -6.854587991256266832e-05
3.187000000000000000e+03 2.203341293334960938e+01 -1.005728912353515625e+01 7.593415648443624377e-05 7.275730604305863380e-05 4.460744094103574753e-05 6.420957652153447270e-05
3.188000000000000000e+03 2.140859222412109375e+01 -1.045394611358642578e+01 -5.013990448787808418e-05 -1.381463080178946257e-04 -5.648586375173181295e-05 -8.991128561319783330e-05
3.189000000000000000e+03 2.103163337707519531e+01 -9.842617988586425781e+00 1.031079955282621086e-04 9.918503928929567337e-05 6.068791117286309600e-05 1.101859015761874616e-04
3.190000000000000000e+03 2.178438568115234375e+01 -1.106581783294677734e+01 4.507046469370834529e-05 1.287176855839788914e-04 5.213644544710405171e-05 4.046269532409496605e-05
3.191000000000000000e+03 2.215780448913574219e+01 -1.167914867401123047e+01 -5.285674706101417542e-05 -9.376883826917037368e-05 -4.398767487145960331e-05 -5.896715720155043527e-07
3.192000000000000000e+03 2.280443191528320312e+01 -1.131808185577392578e+01 3.629340062616392970e-05 3.561539779184386134e-05 2.157263952540233731e-05 1.591355157870566472e-06
3.193000000000000000e+03 2.164555168151855469e+01 -9.428166389465332031e+00 -1.136763239628635347e-04 -7.730749348411336541e-05 -5.729514668928459287e-05 -9.151636186288669705e-05
3.194000000000000000e+03 2.242011070251464844e+01 -1.068695640563964844e+01 -3.608971746871247888e-05 -4.934991375193931162e-05 -2.563188900239765644e-05 -3.747499431483447552e-05
3.195000000000000000e+03 2.317674064636230469e+01 -1.199929141998291016e+01 -4.440881821210496128e-05 -2.728376784943975508e-06 -1.414115831721574068e-05 -2.060470023934612982e-06
3.196000000000000000e+03 2.284523010253906250e+01 -1.300796508789062500e+01 -8.533397340215742588e-05 2.580742329882923514e-05 -1.785796666808892041e-05 1.403514670528238639e-05
3.197000000000000000e+03 2.406083297729492188e+01 -1.497063064575195312e+01 2.548342490626964718e-05 -1.465143031964544207e-05 3.249598194088321179e-06 -1.347765555692603812e-05
3.198000000000000000e+03 2.462505912780761719e+01 -1.485978507995605469e+01 -7.587664731545373797e-05 7.964360520418267697e-06 -2.037368540186434984e-05 1.937671368068549782e-05
3.199000000000000000e+03 2.389264106750488281e+01 -1.346117115020751953e+01 -1.339555456070229411e-05 -2.290189877385273576e-05 -1.088923636416438967e-05 -4.099290890735574067e-06
3.200000000000000000e+03 2.353559875488281250e+01 -1.273112678527832031e+01 3.141590423183515668e-05 5.574248007178539410e-06 1.109704589907778427e-05 1.569292544445488602e-05
3.201000000000000000e+03 2.488323020935058594e+01 -1.545215702056884766e+01 3.628351623774506152e-05 5.109025551064405590e-06 1.241776226379442960e-05 6.470587265994254267e-08
3.202000000000000000e+03 2.424729537963867188e+01 -1.417472362518310547e+01 4.643802822101861238e-05 2.524439150874968618e-05 2.150472573703154922e-05 -3.034496148757170886e-05
3.203000000000000000e+03 2.350594520568847656e+01 -1.435108280181884766e+01 -8.090186747722327709e-05 -9.983724157791584730e-05 -5.422173126135021448e-05 2.277924431837163866e-05
3.204000000000000000e+03 2.317678260803222656e+01 -1.368776988983154297e+01 9.795642108656466007e-05 2.172781933040823787e-05 3.590527194319292903e-05 3.064643897232599556e-05
3.205000000000000000e+03 2.251189041137695312e+01 -1.232635593414306641e+01 4.632473064702935517e-05 4.355909186415374279e-05 2.696514638955704868e-05 -3.078057852690108120e-05
3.206000000000000000e+03 2.456154632568359375e+01 -1.316923522949218750e+01 7.544562322436831892e-06 4.548432571027660742e-06 3.627898422564612702e-06 3.502258095977595076e-06
3.207000000000000000e+03 2.482023620605468750e+01 -1.197365283966064453e+01 6.174976078909821808e-06 4.790600087289931253e-06 3.289672804385190830e-06 2.776417204586323351e-06
3.208000000000000000e+03 2.650333786010742188e+01 -1.565426826477050781e+01 1.366084461551508866e-06 6.428378128475742415e-06 2.338338845220278017e-06 -2.243761940690092160e-07
3.209000000000000000e+03 2.385268974304199219e+01 -1.163848972320556641e+01 6.219221631909022108e-06 3.954217845603125170e-06 3.052031843253644183e-06 2.536724423407576978e-06
3.210000000000000000e+03 2.484836769104003906e+01 -1.395820903778076172e+01 -8.816988156468141824e-06 -8.894061238606809638e-07 -2.911918272729963064e-06 -6.224021490197628736e-06
3.211000000000000000e+03 2.532261657714843750e+01 -1.399315357208251953e+01 -8.634794539830181748e-06 -6.946429948584409431e-06 -4.674367573898052797e-06 4.550033281702781096e-06
3.212000000000000000e+03 2.568108749389648438e+01 -1.559443092346191406e+01 -1.686992436589207500e-05 -6.855431820440571755e-06 -7.117606855899794027e-06 -8.233088010456413031e-06
3.213000000000000000e+03 2.449533462524414062e+01 -1.126426315307617188e+01 -2.017013002841849811e-06 -6.193502031237585470e-07 -7.909089845270500518e-07 -4.374424861453007907e-06
3.214000000000000000e+03 2.516623687744140625e+01 -1.270689773559570312e+01 -4.799963789992034435e-06 -5.629452971334103495e-06 -3.128825028397841379e-06 -4.779607479576952755e-06
3.215000000000000000e+03 2.556309509277343750e+01 -1.336782169342041016e+01 1.121400600823108107e-05 7.294519036804558709e-06 5.552557468035956845e-06 1.282125140278367326e-06
3.216000000000000000e+03 2.595065307617187500e+01 -1.390986061096191406e+01 -1.629055805096868426e-05 2.428868697279540356e-07 -4.814301519218133762e-06 -2.700668119359761477e-06
3.217000000000000000e+03 2.620536613464355469e+01 -1.446394062042236328e+01 1.599848292244132608e-05 -1.007861374091589823e-05 1.775960527083952911e-06 -1.046160377882188186e-06
3.218000000000000000e+03 2.637091255187988281e+01 -1.507584285736083984e+01 -1.147437706094933674e-05 8.326121132995467633e-06 -9.444767670174769592e-07 -2.098953018503380008e-06
3.219000000000000000e+03 2.638264656066894531e+01 -1.612632179260253906e+01 1.363222054351354018e-05 6.358501195791177452e-06 5.997216703690355644e-06 6.802335065003717318e-06
3.220000000000000000e+03 2.419656753540039062e+01 -1.239193534851074219e+01 -6.235344244487350807e-06 -8.452478255094320048e-07 -2.124177626683376729e-06 -4.696985342889092863e-06
3.221000000000000000e+03 2.512793922424316406e+01 -1.461182594299316406e+01 9.038433745445217937e-06 1.377229818899650127e-05 6.843220035079866648e-06 3.473927790764719248e-06
3.222000000000000000e+03 2.566095924377441406e+01 -1.495156669616699219e+01 5.941675681242486462e-06 -1.249716387974331155e-05 -1.966646323126042262e-06 -1.577111788719776087e-06
3.223000000000000000e+03 2.577541732788085938e+01 -1.432993030548095703e+01 3.252622946092742495e-06 4.963183073414256796e-06 2.464741783114732243e-06 -1.893495891636121087e-06
3.224000000000000000e+03 2.269077491760253906e+01 -9.641036033630371094e+00 2.483670584751962451e-07 1.768739366525551304e-06 6.051319019206857774e-07 -3.021018756044213660e-06
3.225000000000000000e+03 2.348543930053710938e+01 -1.093805503845214844e+01 -3.107147449554759078e-06 -2.329578450144254020e-07 -1.002031581265327986e-06 -4.098292720300378278e-06
3.226000000000000000e+03 2.229273414611816406e+01 -8.991255760192871094e+00 1.418211354575760197e-06 4.015832928416784853e-06 1.630213319003814831e-06 -2.366533863096265122e-06
3.227000000000000000e+03 2.308835411071777344e+01 -1.029005146026611328e+01 4.013023499283008277e-06 3.773526486838818528e-06 2.335965064048650675e-06 -2.113897146216459078e-08
3.228000000000000000e+03 2.413209533691406250e+01 -1.057697391510009766e+01 4.059064394823508337e-06 4.517381057667080313e-06 2.572933681221911684e-06 1.790643295862537343e-07
3.229000000000000000e+03 2.290665245056152344e+01 -8.576805114746093750e+00 5.537448487302754074e-06 1.222088826580147725e-06 2.027861228270921856e-06 -2.146244924006168731e-06
3.230000000000000000e+03 2.331559562683105469e+01 -9.244379997253417969e+00 1.526796040707267821e-06 3.736014377864194103e-06 1.578843125571438577e-06 -1.992937768591218628e-06
3.231000000000000000e+03 2.372407913208007812e+01 -9.911190032958984375e+00 7.295723207789706066e-07 -1.753041800611754297e-07 1.662804436364240246e-07 -3.125151806671055965e-06
3.232000000000000000e+03 2.091797065734863281e+01 -7.169854164123535156e+00 8.100617378659080714e-06 6.259407655306858942e-06 4.308007646613987163e-06 -5.295698102258938889e-08
3.233000000000000000e+03 2.044657707214355469e+01 -6.570147991180419922e+00 -2.159607674911967479e-06 1.933420435307198204e-06 -6.785620598748209886e-08 -9.459300599701236933e-06
3.234000000000000000e+03 2.138868331909179688e+01 -7.768980979919433594e+00 -4.464485527932993136e-07 2.876049393307766877e-06 7.288801953109214082e-07 -6.085670065658632666e-06
3.235000000000000000e+03 2.185866355895996094e+01 -8.367236137390136719e+00 4.937891390000004321e-06 3.375620053702732548e-06 2.494053433110821061e-06 -1.560393684485461563e-06
3.236000000000000000e+03 2.246022033691406250e+01 -7.935092449188232422e+00 -1.494229451282080845e-07 4.608005383488489315e-06 1.337574758508708328e-06 -5.094562311569461599e-06
3.237000000000000000e+03 2.100666618347167969e+01 -6.085235118865966797e+00 1.278250692848814651e-05 4.679093763115815818e-06 5.238480298430658877e-06 2.023665956585318781e-06
3.238000000000000000e+03 2.149188232421875000e+01 -6.702531337738037109e+00 -2.029857569141313434e-06 2.923430429291329347e-06 2.680719148884236347e-07 -8.434282790403813124e-06
3.239000000000000000e+03 2.197641754150390625e+01 -7.319247722625732422e+00 8.191898814402520657e-06 2.217782821389846504e-06 3.122904445262975059e-06 1.171019192724997993e-07
3.240000000000000000e+03 1.885587120056152344e+01 -4.930348396301269531e+00 1.456211339245783165e-05 1.323416199738858268e-05 8.338882253156043589e-06 4.003172762168105692e-06
3.241000000000000000e+03 1.831238174438476562e+01 -4.393686294555664062e+00 -2.206819317507324740e-06 -4.446549155545653775e-06 -1.996010496441158466e-06 -1.692712976364418864e-05
3.242000000000000000e+03 1.939846801757812500e+01 -5.466702461242675781e+00 -2.306816668351530097e-06 -1.718145540507975966e-06 -1.207488708132586908e-06 -1.362055718345800415e-05
3.243000000000000000e+03 1.994004440307617188e+01 -6.002428531646728516e+00 1.260523276869207621e-05 9.256900739273987710e-06 6.558640052389819175e-06 2.329898052266798913e-06
3.244000000000000000e+03 2.048459243774414062e+01 -5.500192165374755859e+00 -1.929621930685243569e-06 2.375554231548449025e-06 1.337797215228420100e-07 -1.243446968146599829e-05
3.245000000000000000e+03 1.880515289306640625e+01 -3.840278863906860352e+00 1.586896723893005401e-05 1.129763313656440005e-05 8.149980203597806394e-06 7.109079433575971052e-06
3.246000000000000000e+03 1.936590194702148438e+01 -4.393997669219970703e+00 -1.875082716651377268e-06 -1.741103119456965942e-06 -1.084855739463819191e-06 -1.579970376042183489e-05
3.247000000000000000e+03 1.992575645446777344e+01 -4.947409152984619141e+00 1.350891216134186834e-05 7.468371677532559261e-06 6.293185379036003724e-06 4.920471383229596540e-06
3.248000000000000000e+03 1.695117187500000000e+01 -2.380243301391601562e+00 3.204864469807944261e-06 -1.031910051096929237e-05 -2.134270971509977244e-06 -1.999518281081691384e-05
3.249000000000000000e+03 1.651630020141601562e+01 -2.979079723358154297e+00 1.676503234193660319e-05 2.118263910233508795e-05 1.138430161518044770e-05 7.212991022242931649e-06
3.250000000000000000e+03 1.590384101867675781e+01 -2.523920059204101562e+00 1.804986368370009586e-06 -1.373149552819086239e-05 -3.577952611522050574e-06 -2.037180092884227633e-05
3.251000000000000000e+03 1.712716102600097656e+01 -3.436568260192871094e+00 -8.293444864193588728e-08 -1.036914818541845307e-05 -3.135624865535646677e-06 -1.917511508509051055e-05
3.252000000000000000e+03 1.758174324035644531e+01 -2.852491855621337891e+00 1.354266805719817057e-05 1.571805842104367912e-05 8.778218216320965439e-06 8.888011507224291563e-06
3.253000000000000000e+03 1.773609352111816406e+01 -3.896142244338989258e+00 1.709694333840161562e-05 1.745931876939721406e-05 1.036687899613752961e-05 6.508686055894941092e-06
3.254000000000000000e+03 1.821038436889648438e+01 -3.326825857162475586e+00 9.815819339564768597e-07 -4.344118679000530392e-06 -1.008760932563745882e-06 -1.890045314212329686e-05
3.255000000000000000e+03 1.631900405883789062e+01 -1.910323858261108398e+00 1.236151274497387931e-05 1.962144233402796090e-05 9.594887160346843302e-06 9.496239727013744414e-06
3.256000000000000000e+03 1.460399055480957031e+01 -1.730789542198181152e+00 4.761704531119903550e-06 -1.854806578194256872e-05 -4.135908511671004817e-06 -1.896547291835304350e-05
3.257000000000000000e+03 1.394003677368164062e+01 -1.356149435043334961e+00 1.383200287818908691e-05 2.559753556852228940e-05 1.182886171591235325e-05 6.840075911895837635e-06
3.258000000000000000e+03 1.327490711212158203e+01 -9.841976165771484375e-01 7.655159606656525284e-06 -1.937073284352663904e-05 -3.514671561788418330e-06 -1.669987250352278352e-05
3.259000000000000000e+03 1.429506587982177734e+01 -7.068015336990356445e-01 1.073163093678886071e-05 -1.812200207496061921e-05 -2.217111614299938083e-06 -1.722719025565311313e-05
3.260000000000000000e+03 1.497913169860839844e+01 -1.092790365219116211e+00 7.962837116792798042e-06 2.312602555321063846e-05 9.326658982899971306e-06 8.337960025528445840e-06
3.261000000000000000e+03 1.526644039154052734e+01 -2.107936620712280273e+00 1.635007356526330113e-05 2.462915290379896760e-05 1.229376812261762097e-05 8.069375326158478856e-06
3.262000000000000000e+03 1.566169452667236328e+01 -1.481285929679870605e+00 7.569523859274340793e-06 -1.347384204564150423e-05 -1.771295501384884119e-06 -1.961338239198084921e-05
3.263000000000000000e+03 1.360982322692871094e+01 -3.235010504722595215e-01 4.338116013968829066e-06 2.502488678146619350e-05 8.808900929579976946e-06 6.619421583309303969e-06
3.264000000000000000e+03 1.136861705780029297e+01 6.672526597976684570e-01 1.521093599876621738e-05 -1.811926813388708979e-05 -8.724994700060051400e-07 -7.792590622557327151e-06
3.265000000000000000e+03 1.043688488006591797e+01 2.462611943483352661e-01 1.206273282150505111e-05 -1.965947012649849057e-05 -2.279021146023296751e-06 -8.565765710955020040e-06
3.266000000000000000e+03 1.187135696411132812e+01 -3.428127467632293701e-01 9.721119567984715104e-06 -1.934084502863697708e-05 -2.885917410822003148e-06 -1.175434499600669369e-05
3.267000000000000000e+03 1.258574008941650391e+01 -6.459255814552307129e-01 1.104260172724025324e-05 2.456916990922763944e-05 1.068353139999089763e-05 4.435274604475125670e-06
3.268000000000000000e+03 1.288842964172363281e+01 2.964896708726882935e-02 1.443459041183814406e-05 -1.866609636635985225e-05 -1.269451900043350179e-06 -1.289614829147467390e-05
3.269000000000000000e+03 1.060655117034912109e+01 9.770575761795043945e-01 -2.380942760282778181e-06 1.983961556106805801e-05 5.237601726548746228e-06 -7.480350205923969042e-08
3.270000000000000000e+03 1.212970542907714844e+01 3.511690795421600342e-01 9.416449984200880863e-07 2.412717367406003177e-05 7.520645340264309198e-06 2.389468818364548497e-06
3.271000000000000000e+03 1.115460968017578125e+01 -4.513646289706230164e-02 8.731036359677091241e-06 2.290371594426687807e-05 9.490425327385310084e-06 2.311599473614478484e-06
3.272000000000000000e+03 9.852642059326171875e+00 1.127630591392517090e+00 2.017414590227417648e-05 -1.220091326104011387e-05 2.391969928794424050e-06 2.665645524757564999e-06
3.273000000000000000e+03 8.934872627258300781e+00 3.838182985782623291e-01 9.631615284888539463e-06 -1.280994729313533753e-05 -9.534996365800907370e-07 2.798106208956596674e-07
3.274000000000000000e+03 8.173450469970703125e+00 3.805501461029052734e-01 2.565112936281366274e-06 5.875665920029859990e-06 2.532233565943897702e-06 -2.469995024512172677e-06
3.275000000000000000e+03 7.412311553955078125e+00 3.753647208213806152e-01 6.653598575212527066e-06 -5.828897542414779309e-07 1.821212663344340399e-06 1.470821189286652952e-06
3.276000000000000000e+03 6.650998592376708984e+00 3.733136355876922607e-01 4.755080169616121566e-07 -2.316668314961134456e-06 -5.523480695046600886e-07 -2.248795908599277027e-06
3.277000000000000000e+03 5.128288269042968750e+00 3.666210770606994629e-01 -9.231228546013880987e-07 -4.635008281184127554e-06 -1.667439391894731671e-06 -2.104010036418912932e-06
3.278000000000000000e+03 4.367394924163818359e+00 3.671234846115112305e-01 3.511403065203921869e-06 4.412856469571124762e-06 2.377277951381984167e-06 1.058226644090609625e-06
3.279000000000000000e+03 2.846046209335327148e+00 3.605891168117523193e-01 2.334856844754540361e-06 1.594292257323104423e-06 1.178744696517242119e-06 -4.856822783949610312e-07
3.280000000000000000e+03 2.087270975112915039e+00 3.584179878234863281e-01 -7.103982966327748727e-07 3.626265083767066244e-07 -1.043315407400768891e-07 1.306112721977115143e-06
3.281000000000000000e+03 2.412721395492553711e+00 1.098417997360229492e+00 4.852759957429952919e-06 7.456799835381389130e-07 1.679532033449504524e-06 -2.470595291015342809e-06
3.282000000000000000e+03 1.340976357460021973e+00 3.674286305904388428e-01 2.961166245540880482e-08 -2.717018105613533407e-06 -8.062219194471254013e-07 -3.076690290981787257e-06
3.283000000000000000e+03 1.683374881744384766e+00 1.107428669929504395e+00 -3.202068910468369722e-06 -4.487420994792046258e-07 -1.095243305826443247e-06 2.209604645031504333e-06
3.284000000000000000e+03 6.602545380592346191e-01 3.962357640266418457e-01 1.215823886013822630e-05 9.318628144683316350e-06 6.443060101446462795e-06 1.118995805882150307e-05
3.285000000000000000e+03 3.572900295257568359e-01 9.584811329841613770e-01 -1.392857666360214353e-05 -8.246707693615462631e-06 -6.652585398114752024e-06 -5.472285010910127312e-06
3.286000000000000000e+03 3.154548645019531250e+00 1.100589156150817871e+00 -3.421513383727869950e-06 -1.714722884571528994e-06 -1.540870812277717050e-06 1.471488872084592003e-06
3.287000000000000000e+03 3.606354475021362305e+00 3.667278885841369629e-01 -1.041915197674825322e-06 -3.231464461350697093e-06 -1.282013840864237864e-06 -6.334908562166674528e-07
3.288000000000000000e+03 5.385946273803710938e+00 1.106621026992797852e+00 7.768332579871639609e-06 2.405917939540813677e-06 3.052275133086368442e-06 4.967194513483264018e-07
3.289000000000000000e+03 5.889441967010498047e+00 3.716917037963867188e-01 5.179247182240942493e-06 3.997736712335608900e-06 2.753095259322435595e-06 1.624827064006240107e-06
3.290000000000000000e+03 7.619125843048095703e+00 1.115364670753479004e+00 -2.094874616886954755e-06 2.246865051347413100e-06 4.559709410045797995e-08 -5.969678113615373150e-06
3.291000000000000000e+03 8.363317489624023438e+00 1.120550155639648438e+00 1.144315228884806857e-05 -4.339928182162111625e-06 2.130967232005787082e-06 4.923234882880933583e-06
3.292000000000000000e+03 9.107789993286132812e+00 1.123818278312683105e+00 -2.652965804372797720e-06 9.699321708467323333e-06 2.113906703016255051e-06 -1.097720723919337615e-05
3.293000000000000000e+03 9.696672439575195312e+00 3.876306116580963135e-01 5.705287094315281138e-06 2.075249358313158154e-05 7.937333975860383362e-06 -5.655437007590080611e-07
3.294000000000000000e+03 6.874760627746582031e+00 1.113313674926757812e+00 9.367166967422235757e-06 2.750334715528879315e-07 2.892659949793596752e-06 1.854054630712198559e-06
3.295000000000000000e+03 6.130152225494384766e+00 1.111691713333129883e+00 -3.424301212362479419e-06 -1.382674213346035685e-06 -1.442092639081238303e-06 -3.038799377463874407e-06
3.296000000000000000e+03 4.642001152038574219e+00 1.107123494148254395e+00 -3.207423333151382394e-06 -2.751361080299830064e-06 -1.787635369510098826e-06 -1.217247245222097263e-06
3.297000000000000000e+03 3.897908926010131836e+00 1.106727957725524902e+00 5.205459274293389171e-06 3.007206487382063642e-06 2.463799773977370933e-06 -1.257431563317368273e-06
3.298000000000000000e+03 1.019601225852966309e+00 1.136235833168029785e+00 -4.716976491181412712e-06 6.823320745752425864e-06 6.319033332147228066e-07 -2.992826694026007317e-06
3.299000000000000000e+03 1.356510353088378906e+01 -2.044676303863525391e+00 4.916870238957926631e-05 1.400910550728440285e-04 5.677792432834394276e-05 6.597676838282495737e-05
3.300000000000000000e+03 1.321007442474365234e+01 -2.694024085998535156e+00 -5.683142444468103349e-05 -1.428225514246150851e-04 -5.989618875901214778e-05 -4.745598562294617295e-05
3.301000000000000000e+03 1.258673477172851562e+01 -2.342205762863159180e+00 6.412121729226782918e-05 1.544692058814689517e-04 6.557712913490831852e-05 6.165211379993706942e-05
3.302000000000000000e+03 1.420777034759521484e+01 -2.407426834106445312e+00 -4.816527143702842295e-05 -1.287893101107329130e-04 -5.308637628331780434e-05 -6.291479803621768951e-05
3.303000000000000000e+03 1.383262920379638672e+01 -3.045426130294799805e+00 7.010757690295577049e-05 1.308577047893777490e-04 6.028958159731701016e-05 3.883778845192864537e-05
3.304000000000000000e+03 1.445424365997314453e+01 -3.396085023880004883e+00 -7.641510455869138241e-05 -1.175359211629256606e-04 -5.818530917167663574e-05 -4.131714376853778958e-05
3.305000000000000000e+03 1.484949779510498047e+01 -2.769434452056884766e+00 5.654925553244538605e-05 1.148835217463783920e-04 5.142983354744501412e-05 5.920141484239138663e-05
3.306000000000000000e+03 1.292164993286132812e+01 -1.681509137153625488e+00 -4.804102354682981968e-05 -1.405749353580176830e-04 -5.658478767145425081e-05 -7.047728286124765873e-05
3.307000000000000000e+03 7.433924102783203125e+01 -2.812477111816406250e+01 -5.667948280461132526e-04 -1.250800094567239285e-03 -5.452784826047718525e-04 9.212004370056092739e-04
3.308000000000000000e+03 7.509891510009765625e+01 -2.813425064086914062e+01 5.731343408115208149e-04 1.060064416378736496e-03 4.899596096947789192e-04 -1.069508492946624756e-03
3.309000000000000000e+03 7.585762023925781250e+01 -2.814273452758789062e+01 -2.763034717645496130e-04 -1.002595294266939163e-03 -3.836696560028940439e-04 1.094936509616672993e-03
3.310000000000000000e+03 7.434243011474609375e+01 -2.763040924072265625e+01 4.445409867912530899e-04 1.088236575014889240e-03 4.598332452587783337e-04 -4.275266837794333696e-04
3.311000000000000000e+03 7.584872436523437500e+01 -2.764876174926757812e+01 2.030558098340407014e-04 -1.670360070420429111e-04 1.080594392988132313e-05 -6.114623975008726120e-04
3.312000000000000000e+03 7.433468627929687500e+01 -2.861659622192382812e+01 5.503353895619511604e-04 1.726541551761329174e-03 6.830630591139197350e-04 -1.068754005245864391e-03
3.313000000000000000e+03 7.358879852294921875e+01 -2.761993026733398438e+01 -3.813875664491206408e-04 -1.866614911705255508e-03 -6.744007114320993423e-04 6.945653003640472889e-04
3.314000000000000000e+03 7.356816101074218750e+01 -2.860633087158203125e+01 -3.397663822397589684e-04 -1.746602589264512062e-03 -6.259107030928134918e-04 5.800808139611035585e-06
3.315000000000000000e+03 7.357871246337890625e+01 -2.811377334594726562e+01 1.309524173848330975e-03 8.799382485449314117e-04 6.568387034349143505e-04 -7.858304306864738464e-04
3.316000000000000000e+03 7.586600494384765625e+01 -2.863568687438964844e+01 1.267615938559174538e-03 1.346133416518568993e-03 7.841248298063874245e-04 -1.175046782009303570e-03
3.317000000000000000e+03 7.510072326660156250e+01 -2.862630081176757812e+01 -8.114983793348073959e-04 -1.582844299264252186e-03 -7.183027919381856918e-04 1.374278450384736061e-03
3.318000000000000000e+03 7.509568023681640625e+01 -2.763993263244628906e+01 -5.916151621931931004e-06 -5.179738509468734264e-04 -1.571669999975711107e-04 4.244591400492936373e-04
3.319000000000000000e+03 1.114702796936035156e+01 -1.674520134925842285e+00 1.159619278041645885e-04 1.197214078274555504e-04 7.070499850669875741e-05 8.934570359997451305e-05
3.320000000000000000e+03 1.155607700347900391e+01 -1.043098807334899902e+00 -5.843578765052370727e-05 -1.229821646120399237e-04 -5.442538531497120857e-05 -6.418802513508126140e-05
3.321000000000000000e+03 1.007052421569824219e+01 -1.379528045654296875e+00 -1.244957238668575883e-04 -5.807959314552135766e-05 -5.477259401232004166e-05 -5.069718463346362114e-05
3.322000000000000000e+03 1.091052532196044922e+01 -7.195191383361816406e-01 4.892418292001821101e-05 1.217247918248176575e-04 5.119469278724864125e-05 6.262884562602266669e-05
3.323000000000000000e+03 1.189208316802978516e+01 -2.005299091339111328e+00 -6.336950900731608272e-05 -1.299744035350158811e-04 -5.800317012472078204e-05 -7.892334542702883482e-05
3.324000000000000000e+03 1.224500656127929688e+01 -1.350578069686889648e+00 5.111920472700148821e-05 1.228137989528477192e-04 5.217990110395476222e-05 6.967491208342835307e-05
3.325000000000000000e+03 1.012131404876708984e+01 -8.739756941795349121e-01 1.891204738058149815e-04 6.800529081374406815e-05 7.713773084105923772e-05 1.161948530352674425e-04
3.326000000000000000e+03 1.027311420440673828e+01 -4.096257984638214111e-01 -4.919540879200212657e-05 -9.151012636721134186e-05 -4.221166091156192124e-05 -5.311963104759342968e-05
3.327000000000000000e+03 1.058933448791503906e+01 -1.247088074684143066e+00 -1.354339474346488714e-04 -9.290776506531983614e-05 -6.850251520518213511e-05 -1.119057706091552973e-04
3.328000000000000000e+03 8.909210205078125000e+00 -3.212539851665496826e-01 1.550674351165071130e-04 -4.017867104266770184e-05 3.446662594797089696e-05 -4.368535155663266778e-05
3.329000000000000000e+03 9.317807197570800781e+00 -1.205478549003601074e+00 1.026279351208359003e-04 1.213588620885275304e-04 6.719603698002174497e-05 1.213142677443102002e-04
3.330000000000000000e+03 9.460213661193847656e+00 -6.912539601325988770e-01 -2.494854270480573177e-04 3.782848580158315599e-05 -6.349708564812317491e-05 -1.105041519622318447e-04
3.331000000000000000e+03 8.266005516052246094e+00 -6.800254583358764648e-01 -2.349730057176202536e-04 -9.130388934863731265e-05 -9.788306488189846277e-05 2.492437306500505656e-05
3.332000000000000000e+03 7.622209548950195312e+00 -4.054784178733825684e-01 1.371150283375754952e-04 8.029500168049708009e-05 6.522300827782601118e-05 8.322442590724676847e-05
3.333000000000000000e+03 6.825774669647216797e+00 -3.814763724803924561e-01 -4.074274329468607903e-05 -5.571950532612390816e-05 -2.893867531383875757e-05 -3.544529317878186703e-05
3.334000000000000000e+03 6.001619815826416016e+00 -3.739211261272430420e-01 5.096714448882266879e-05 5.928436803515069187e-05 3.307545557618141174e-05 3.479444785625673831e-05
3.335000000000000000e+03 5.174842834472656250e+00 -3.715220093727111816e-01 -4.134790287935175002e-05 -7.782706234138458967e-05 -3.575249138521030545e-05 -3.165818998240865767e-05
3.336000000000000000e+03 4.347759723663330078e+00 -3.725122809410095215e-01 3.616085814428515732e-05 1.155578574980609119e-04 4.551561505650170147e-05 4.798069130629301071e-05
3.337000000000000000e+03 3.520621299743652344e+00 -3.760701715946197510e-01 -5.238024823484010994e-05 -1.479257625760510564e-04 -6.009180287946946919e-05 -8.036737563088536263e-05
3.338000000000000000e+03 2.694509983062744141e+00 -3.805325925350189209e-01 7.974039908731356263e-05 1.455382589483633637e-04 6.758359813829883933e-05 1.018918701447546482e-04
3.339000000000000000e+03 1.143715500831604004e+00 -3.599454164505004883e-01 8.360682113561779261e-05 4.628794340533204377e-05 3.896842827089130878e-05 3.445545007707551122e-05
3.340000000000000000e+03 4.021799862384796143e-01 -5.506002306938171387e-01 -1.016608712234301493e-05 -1.410677759849932045e-05 -7.281859325303230435e-06 -7.361747520917560905e-06
3.341000000000000000e+03 7.210693359375000000e-01 -1.099945425987243652e+00 -2.682535559870302677e-04 5.134599177836207673e-06 -7.893568545114248991e-05 -4.269581040716730058e-05
3.342000000000000000e+03 8.506304740905761719e+00 -1.218084216117858887e+00 -1.117490410251775756e-05 -2.209693484473973513e-04 -6.964327621972188354e-05 -4.913259181194007397e-05
3.343000000000000000e+03 7.803927898406982422e+00 -1.221213579177856445e+00 1.986511633731424809e-04 1.446842215955257416e-04 1.030006169457919896e-04 -4.853236532653681934e-05
3.344000000000000000e+03 7.101232528686523438e+00 -1.145478367805480957e+00 -1.908805861603468657e-04 -5.873418194823898375e-05 -7.488443225156515837e-05 -5.013512782170437276e-05
3.345000000000000000e+03 6.317089557647705078e+00 -1.121476411819458008e+00 1.087998825823888183e-04 7.356062997132539749e-05 5.470815085573121905e-05 5.253578638075850904e-05
3.346000000000000000e+03 5.505225658416748047e+00 -1.113921165466308594e+00 -9.332289482699707150e-05 -7.866210216889157891e-05 -5.159549982636235654e-05 -1.804016392270568758e-05
3.347000000000000000e+03 4.690740108489990234e+00 -1.111521959304809570e+00 5.766329559264704585e-05 1.212986680911853909e-04 5.368858910514973104e-05 8.356336365977767855e-06
3.348000000000000000e+03 3.875948190689086914e+00 -1.112512230873107910e+00 -2.545127972553018481e-05 -1.560482778586447239e-04 -5.444986891234293580e-05 -3.114885112154297531e-05
3.349000000000000000e+03 3.061101198196411133e+00 -1.116070151329040527e+00 4.112261740374378860e-05 1.530536101199686527e-04 5.825287007610313594e-05 7.702273433096706867e-05
3.350000000000000000e+03 2.247281074523925781e+00 -1.120532631874084473e+00 -1.065737378667108715e-04 -1.071038714144378901e-04 -6.410328205674886703e-05 -1.218928591697476804e-04
3.351000000000000000e+03 1.882497906684875488e+00 -3.807797729969024658e-01 -8.778560732025653124e-05 -9.731057798489928246e-05 -5.552885704673826694e-05 -9.454456449020653963e-05
3.352000000000000000e+03 9.580569267272949219e+00 -2.457754313945770264e-01 1.092190650524571538e-04 8.039624663069844246e-05 5.688459350494667888e-05 -3.279017619206570089e-06
3.353000000000000000e+03 1.447560310363769531e+00 -1.120779752731323242e+00 1.844010694185271859e-04 4.394039569888263941e-05 6.850244244560599327e-05 1.336539426119998097e-04
