# el_label, x, y, sXX, sYY, sZZ, sXY
1.000000000000000000e+00 7.268644714355468750e+01 -1.366364860534667969e+01 -1.448790431022644043e-01 -3.515815019607543945e+00 -1.098208308219909668e+00 -2.144631624221801758e+00
2.000000000000000000e+00 7.249313354492187500e+01 -1.371104335784912109e+01 2.221575975418090820e+00 1.524981975555419922e+00 1.123967409133911133e+00 1.215835571289062500e+00
3.000000000000000000e+00 7.229981231689453125e+01 -1.375843906402587891e+01 6.373035311698913574e-01 -4.465859830379486084e-01 5.721526592969894409e-02 3.071483075618743896e-01
4.000000000000000000e+00 7.210649871826171875e+01 -1.380583381652832031e+01 3.031041240319609642e-03 3.867542147636413574e-01 1.169355809688568115e-01 2.857434451580047607e-01
5.000000000000000000e+00 7.270584106445312500e+01 -1.371874141693115234e+01 1.378915977478027344e+01 -1.224079132080078125e+00 3.769524335861206055e+00 5.250319480895996094e+00
6.000000000000000000e+00 7.252544403076171875e+01 -1.380286502838134766e+01 5.759816169738769531e+00 1.226133465766906738e+00 2.095784902572631836e+00 2.651380777359008789e+00
7.000000000000000000e+00 7.234505462646484375e+01 -1.388698768615722656e+01 4.918846607208251953e+00 1.844404458999633789e+00 2.028975248336791992e+00 3.208079338073730469e+00
8.000000000000000000e+00 7.216466522216796875e+01 -1.397111034393310547e+01 3.601788043975830078e+00 8.526053428649902344e-01 1.336318016052246094e+00 2.187744855880737305e+00
9.000000000000000000e+00 7.273558044433593750e+01 -1.376900482177734375e+01 1.652604675292968750e+01 6.465072631835937500e+00 6.897335529327392578e+00 1.253594779968261719e+01
1.000000000000000000e+01 7.257501983642578125e+01 -1.388663768768310547e+01 1.026700019836425781e+01 4.132499694824218750e+00 4.319849967956542969e+00 7.399715423583984375e+00
1.100000000000000000e+01 7.241445922851562500e+01 -1.400426959991455078e+01 6.977988243103027344e+00 3.895765304565429688e+00 3.262125968933105469e+00 5.471130371093750000e+00
1.200000000000000000e+01 7.225389862060546875e+01 -1.412190151214599609e+01 5.689665317535400391e+00 3.629136085510253906e+00 2.795640468597412109e+00 5.104147434234619141e+00
1.300000000000000000e+01 7.277453613281250000e+01 -1.381251621246337891e+01 1.608663940429687500e+01 1.594667816162109375e+01 9.609994888305664062e+00 1.712590599060058594e+01
1.400000000000000000e+01 7.263994598388671875e+01 -1.395915603637695312e+01 1.045744800567626953e+01 9.902199745178222656e+00 6.107894420623779297e+00 1.119742298126220703e+01
1.500000000000000000e+01 7.250536346435546875e+01 -1.410579586029052734e+01 8.096421241760253906e+00 8.258310317993164062e+00 4.906419277191162109e+00 8.653044700622558594e+00
1.600000000000000000e+01 7.237077331542968750e+01 -1.425243663787841797e+01 6.224551200866699219e+00 6.806077003479003906e+00 3.909188508987426758e+00 7.224584102630615234e+00
1.700000000000000000e+01 7.282122802734375000e+01 -1.384761047363281250e+01 1.278125762939453125e+01 2.583895683288574219e+01 1.158606433868408203e+01 1.878648757934570312e+01
1.800000000000000000e+01 7.271775817871093750e+01 -1.401764678955078125e+01 9.358946800231933594e+00 1.734204292297363281e+01 8.010296821594238281e+00 1.315822982788085938e+01
1.900000000000000000e+01 7.261429595947265625e+01 -1.418768310546875000e+01 6.991082668304443359e+00 1.354519844055175781e+01 6.160884380340576172e+00 1.052439975738525391e+01
2.000000000000000000e+01 7.251083374023437500e+01 -1.435771942138671875e+01 5.791950225830078125e+00 1.196168899536132812e+01 5.326091766357421875e+00 8.915792465209960938e+00
2.100000000000000000e+01 7.287384796142578125e+01 -1.387294483184814453e+01 9.702159881591796875e+00 3.547939682006835938e+01 1.355446720123291016e+01 1.726220703125000000e+01
2.200000000000000000e+01 7.280546569824218750e+01 -1.405987071990966797e+01 6.836750030517578125e+00 2.447088241577148438e+01 9.392289161682128906e+00 1.307741069793701172e+01
2.300000000000000000e+01 7.273708343505859375e+01 -1.424679565429687500e+01 5.529908657073974609e+00 1.988384056091308594e+01 7.624124526977539062e+00 1.060498714447021484e+01
2.400000000000000000e+01 7.266870117187500000e+01 -1.443372154235839844e+01 4.309154510498046875e+00 1.676360702514648438e+01 6.321828365325927734e+00 9.255259513854980469e+00
2.500000000000000000e+01 7.293039703369140625e+01 -1.388754940032958984e+01 6.859269618988037109e+00 4.296957397460937500e+01 1.494865322113037109e+01 1.339335441589355469e+01
2.600000000000000000e+01 7.289971160888671875e+01 -1.408421134948730469e+01 5.205464839935302734e+00 3.106071281433105469e+01 1.087985324859619141e+01 1.087680912017822266e+01
2.700000000000000000e+01 7.286903381347656250e+01 -1.428087234497070312e+01 3.494062185287475586e+00 2.538129425048828125e+01 8.662607192993164062e+00 9.194364547729492188e+00
2.800000000000000000e+01 7.283834838867187500e+01 -1.447753429412841797e+01 3.055062294006347656e+00 2.194178009033203125e+01 7.499052524566650391e+00 7.703106880187988281e+00
2.900000000000000000e+01 7.298870849609375000e+01 -1.389086532592773438e+01 6.419178962707519531e+00 4.816739273071289062e+01 1.637597274780273438e+01 7.935459613800048828e+00
3.000000000000000000e+01 7.299689483642578125e+01 -1.408973693847656250e+01 4.030434131622314453e+00 3.577589797973632812e+01 1.194189929962158203e+01 7.335048198699951172e+00
3.100000000000000000e+01 7.300508880615234375e+01 -1.428860950469970703e+01 2.756319046020507812e+00 2.986118888854980469e+01 9.785252571105957031e+00 6.365552902221679688e+00
3.200000000000000000e+01 7.301328277587890625e+01 -1.448748207092285156e+01 1.609800219535827637e+00 2.617920494079589844e+01 8.336701393127441406e+00 5.337054729461669922e+00
3.300000000000000000e+01 7.304654693603515625e+01 -1.388276576995849609e+01 7.598948001861572266e+00 5.032169342041015625e+01 1.737619209289550781e+01 2.211675405502319336e+00
3.400000000000000000e+01 7.309329986572265625e+01 -1.407623767852783203e+01 4.774142742156982422e+00 3.872697448730468750e+01 1.305033588409423828e+01 3.026611566543579102e+00
3.500000000000000000e+01 7.314005279541015625e+01 -1.426971054077148438e+01 2.850245475769042969e+00 3.246498870849609375e+01 1.059457015991210938e+01 2.882461309432983398e+00
3.600000000000000000e+01 7.318680572509765625e+01 -1.446318340301513672e+01 1.649236083030700684e+00 2.880324745178222656e+01 9.135745048522949219e+00 2.508797168731689453e+00
3.700000000000000000e+01 7.310170745849609375e+01 -1.386356067657470703e+01 1.128344345092773438e+01 5.015073776245117188e+01 1.843025398254394531e+01 -2.825587272644042969e+00
3.800000000000000000e+01 7.318522644042968750e+01 -1.404422950744628906e+01 6.476441383361816406e+00 3.945835876464843750e+01 1.378044033050537109e+01 -1.082465410232543945e+00
3.900000000000000000e+01 7.326875305175781250e+01 -1.422489929199218750e+01 4.757573604583740234e+00 3.345116043090820312e+01 1.146262073516845703e+01 -7.593212723731994629e-01
4.000000000000000000e+01 7.335227203369140625e+01 -1.440556812286376953e+01 2.941235303878784180e+00 2.948849105834960938e+01 9.728918075561523438e+00 -3.650431931018829346e-01
4.100000000000000000e+01 7.315206909179687500e+01 -1.383398437500000000e+01 1.548736190795898438e+01 4.792351913452148438e+01 1.902326393127441406e+01 -6.413568973541259766e+00
4.200000000000000000e+01 7.326916503906250000e+01 -1.399493694305419922e+01 1.017303848266601562e+01 3.860385894775390625e+01 1.463306999206542969e+01 -4.276168346405029297e+00
4.300000000000000000e+01 7.338626098632812500e+01 -1.415588951110839844e+01 7.006972312927246094e+00 3.286813735961914062e+01 1.196253299713134766e+01 -3.780495643615722656e+00
4.400000000000000000e+01 7.350335693359375000e+01 -1.431684207916259766e+01 6.104873657226562500e+00 2.880662727355957031e+01 1.047345066070556641e+01 -3.218755960464477539e+00
4.500000000000000000e+01 7.319570922851562500e+01 -1.379516983032226562e+01 2.080478668212890625e+01 4.513606262207031250e+01 1.978225517272949219e+01 -7.902739048004150391e+00
4.600000000000000000e+01 7.334190368652343750e+01 -1.393024635314941406e+01 1.388400745391845703e+01 3.630474853515625000e+01 1.505662631988525391e+01 -6.433192729949951172e+00
4.700000000000000000e+01 7.348809051513671875e+01 -1.406532287597656250e+01 1.077999973297119141e+01 3.126185417175292969e+01 1.261255645751953125e+01 -5.272765636444091797e+00
4.800000000000000000e+01 7.363427734375000000e+01 -1.420039939880371094e+01 8.406037330627441406e+00 2.762071609497070312e+01 1.080802631378173828e+01 -5.416634082794189453e+00
4.900000000000000000e+01 7.323095703125000000e+01 -1.374860286712646484e+01 2.539835739135742188e+01 4.170041656494140625e+01 2.012963294982910156e+01 -7.828503131866455078e+00
5.000000000000000000e+01 7.340065002441406250e+01 -1.385263347625732422e+01 1.796000099182128906e+01 3.398623275756835938e+01 1.558386993408203125e+01 -6.624723911285400391e+00
5.100000000000000000e+01 7.357033538818359375e+01 -1.395666503906250000e+01 1.428293514251708984e+01 2.878802871704101562e+01 1.292128944396972656e+01 -5.978062629699707031e+00
5.200000000000000000e+01 7.374002838134765625e+01 -1.406069564819335938e+01 1.140286159515380859e+01 2.610342979431152344e+01 1.125188732147216797e+01 -5.149755001068115234e+00
5.300000000000000000e+01 7.325646209716796875e+01 -1.369606304168701172e+01 2.883259010314941406e+01 3.923800659179687500e+01 2.042117881774902344e+01 -6.327520847320556641e+00
5.400000000000000000e+01 7.344316101074218750e+01 -1.376506805419921875e+01 2.160019111633300781e+01 3.145927429199218750e+01 1.591784000396728516e+01 -5.415783882141113281e+00
5.500000000000000000e+01 7.362985992431640625e+01 -1.383407306671142578e+01 1.698335838317871094e+01 2.700294303894042969e+01 1.319589042663574219e+01 -5.078153610229492188e+00
5.600000000000000000e+01 7.381655883789062500e+01 -1.390307807922363281e+01 1.464955329895019531e+01 2.350361061096191406e+01 1.144594860076904297e+01 -4.260663509368896484e+00
5.700000000000000000e+01 7.327126312255859375e+01 -1.363956356048583984e+01 3.113759231567382812e+01 3.791517639160156250e+01 2.071583175659179688e+01 -3.590577363967895508e+00
5.800000000000000000e+01 7.346781921386718750e+01 -1.367090129852294922e+01 2.374924087524414062e+01 2.959127616882324219e+01 1.600215530395507812e+01 -3.472433567047119141e+00
5.900000000000000000e+01 7.366437530517578125e+01 -1.370223903656005859e+01 1.925458335876464844e+01 2.581917190551757812e+01 1.352212619781494141e+01 -2.696216344833374023e+00
6.000000000000000000e+01 7.386093902587890625e+01 -1.373357772827148438e+01 1.606210517883300781e+01 2.202869606018066406e+01 1.142724037170410156e+01 -3.097863674163818359e+00
6.100000000000000000e+01 7.327477264404296875e+01 -1.358126449584960938e+01 3.174214172363281250e+01 3.733514022827148438e+01 2.072318458557128906e+01 -5.995712876319885254e-01
6.200000000000000000e+01 7.347367095947265625e+01 -1.357373619079589844e+01 2.428198051452636719e+01 2.946203994750976562e+01 1.612320709228515625e+01 -7.263872027397155762e-01
6.300000000000000000e+01 7.367256927490234375e+01 -1.356620883941650391e+01 2.015196228027343750e+01 2.478736495971679688e+01 1.348179817199707031e+01 -4.175575375556945801e-01
6.400000000000000000e+01 7.387146759033203125e+01 -1.355868053436279297e+01 1.701040458679199219e+01 2.282596015930175781e+01 1.195090961456298828e+01 -5.818186998367309570e-01
6.500000000000000000e+01 7.326686096191406250e+01 -1.352339744567871094e+01 3.061997413635253906e+01 3.778488540649414062e+01 2.052145767211914062e+01 2.155251741409301758e+00
6.600000000000000000e+01 7.346049499511718750e+01 -1.347729206085205078e+01 2.336621475219726562e+01 3.065140914916992188e+01 1.620528602600097656e+01 1.998096108436584473e+00
6.700000000000000000e+01 7.365411376953125000e+01 -1.343118572235107422e+01 1.917761611938476562e+01 2.518733024597167969e+01 1.330948448181152344e+01 1.525100827217102051e+00
6.800000000000000000e+01 7.384774780273437500e+01 -1.338508033752441406e+01 1.654854202270507812e+01 2.336789321899414062e+01 1.197493076324462891e+01 1.748023986816406250e+00
6.900000000000000000e+01 7.324784088134765625e+01 -1.346817684173583984e+01 2.834063339233398438e+01 4.034273529052734375e+01 2.060501098632812500e+01 4.111743450164794922e+00
7.000000000000000000e+01 7.342878723144531250e+01 -1.338525772094726562e+01 2.089087677001953125e+01 3.171381950378417969e+01 1.578140926361083984e+01 4.147273540496826172e+00
7.100000000000000000e+01 7.360973358154296875e+01 -1.330233860015869141e+01 1.691115188598632812e+01 2.805725669860839844e+01 1.349052238464355469e+01 2.909052848815917969e+00
7.200000000000000000e+01 7.379067993164062500e+01 -1.321941852569580078e+01 1.368485832214355469e+01 2.315823936462402344e+01 1.105292892456054688e+01 3.055900096893310547e+00
7.300000000000000000e+01 7.321842956542968750e+01 -1.341771602630615234e+01 2.424635314941406250e+01 4.299486541748046875e+01 2.017236518859863281e+01 5.470670223236083984e+00
7.400000000000000000e+01 7.337977600097656250e+01 -1.330115604400634766e+01 1.774799537658691406e+01 3.426404571533203125e+01 1.560361289978027344e+01 4.328300952911376953e+00
7.500000000000000000e+01 7.354111480712890625e+01 -1.318459606170654297e+01 1.353111839294433594e+01 2.993274116516113281e+01 1.303915786743164062e+01 4.139223098754882812e+00
7.600000000000000000e+01 7.370246124267578125e+01 -1.306803703308105469e+01 1.142158031463623047e+01 2.637206077575683594e+01 1.133809280395507812e+01 3.192348003387451172e+00
7.700000000000000000e+01 7.317976379394531250e+01 -1.337394618988037109e+01 1.986195945739746094e+01 4.523294830322265625e+01 1.952847290039062500e+01 5.116394042968750000e+00
7.800000000000000000e+01 7.331533050537109375e+01 -1.322820568084716797e+01 1.380150794982910156e+01 3.748847579956054688e+01 1.538699531555175781e+01 3.288527011871337891e+00
7.900000000000000000e+01 7.345088958740234375e+01 -1.308246612548828125e+01 1.047430133819580078e+01 3.090629768371582031e+01 1.241417980194091797e+01 3.453386306762695312e+00
8.000000000000000000e+01 7.358645629882812500e+01 -1.293672657012939453e+01 9.064032554626464844e+00 2.918867492675781250e+01 1.147581195831298828e+01 2.888097047805786133e+00
8.100000000000000000e+01 7.313331604003906250e+01 -1.333854103088378906e+01 1.591638946533203125e+01 4.860468292236328125e+01 1.935632133483886719e+01 2.436303138732910156e+00
8.200000000000000000e+01 7.323791503906250000e+01 -1.316919803619384766e+01 9.666155815124511719e+00 3.849533843994140625e+01 1.444844818115234375e+01 1.547988176345825195e+00
8.300000000000000000e+01 7.334250640869140625e+01 -1.299985504150390625e+01 8.242543220520019531e+00 3.314640045166015625e+01 1.241668319702148438e+01 5.119678378105163574e-01
8.400000000000000000e+01 7.344710540771484375e+01 -1.283051204681396484e+01 5.495337009429931641e+00 2.803115653991699219e+01 1.005794811248779297e+01 1.170271277427673340e+00
8.500000000000000000e+01 7.308086395263671875e+01 -1.331285762786865234e+01 1.134640216827392578e+01 4.965057754516601562e+01 1.829909515380859375e+01 -1.231987118721008301e+00
8.600000000000000000e+01 7.315048980712890625e+01 -1.312639141082763672e+01 7.796082496643066406e+00 3.910966873168945312e+01 1.407172489166259766e+01 -2.269837379455566406e+00
8.700000000000000000e+01 7.322011566162109375e+01 -1.293992519378662109e+01 5.198449611663818359e+00 3.314982604980468750e+01 1.150448322296142578e+01 -2.262412786483764648e+00
8.800000000000000000e+01 7.328974151611328125e+01 -1.275345993041992188e+01 4.087016105651855469e+00 2.898695373535156250e+01 9.922190666198730469e+00 -2.468636989593505859e+00
8.900000000000000000e+01 7.302441406250000000e+01 -1.329787635803222656e+01 9.116303443908691406e+00 4.912429046630859375e+01 1.747217941284179688e+01 -6.289743423461914062e+00
9.000000000000000000e+01 7.305640411376953125e+01 -1.310142326354980469e+01 6.413612365722656250e+00 3.762355041503906250e+01 1.321114826202392578e+01 -6.380976200103759766e+00
9.100000000000000000e+01 7.308839416503906250e+01 -1.290497016906738281e+01 4.133511066436767578e+00 3.171059799194335938e+01 1.075323200225830078e+01 -5.721231460571289062e+00
9.200000000000000000e+01 7.312039184570312500e+01 -1.270851707458496094e+01 3.559842109680175781e+00 2.863632774353027344e+01 9.658850669860839844e+00 -4.998736381530761719e+00
9.300000000000000000e+01 7.296612548828125000e+01 -1.329417228698730469e+01 8.919745445251464844e+00 4.606144714355468750e+01 1.649435806274414062e+01 -1.174886894226074219e+01
9.400000000000000000e+01 7.295925903320312500e+01 -1.309524917602539062e+01 6.285621166229248047e+00 3.424568939208984375e+01 1.215939331054687500e+01 -1.034148216247558594e+01
9.500000000000000000e+01 7.295239257812500000e+01 -1.289632701873779297e+01 4.871239185333251953e+00 2.873223876953125000e+01 1.008104324340820312e+01 -8.746063232421875000e+00
9.600000000000000000e+01 7.294552612304687500e+01 -1.269740390777587891e+01 3.620580196380615234e+00 2.470892524719238281e+01 8.498851776123046875e+00 -7.840065479278564453e+00
9.700000000000000000e+01 7.290823364257812500e+01 -1.330188560485839844e+01 1.034002971649169922e+01 4.028460311889648438e+01 1.518739032745361328e+01 -1.659786987304687500e+01
9.800000000000000000e+01 7.286277008056640625e+01 -1.310810661315917969e+01 7.863383293151855469e+00 2.918182563781738281e+01 1.111356258392333984e+01 -1.323865127563476562e+01
9.900000000000000000e+01 7.281730651855468750e+01 -1.291432666778564453e+01 6.289859294891357422e+00 2.380512046813964844e+01 9.028493881225585938e+00 -1.116429615020751953e+01
1.000000000000000000e+02 7.277185058593750000e+01 -1.272054672241210938e+01 4.694961071014404297e+00 2.079951667785644531e+01 7.648343086242675781e+00 -9.955739021301269531e+00
1.010000000000000000e+02 7.285295104980468750e+01 -1.332072353363037109e+01 1.320959568023681641e+01 3.240211486816406250e+01 1.368351364135742188e+01 -1.960431671142578125e+01
1.020000000000000000e+02 7.277062988281250000e+01 -1.313950157165527344e+01 1.029396438598632812e+01 2.269905662536621094e+01 9.897906303405761719e+00 -1.462590694427490234e+01
1.030000000000000000e+02 7.268831634521484375e+01 -1.295827960968017578e+01 7.987505912780761719e+00 1.818044471740722656e+01 7.850385189056396484e+00 -1.234679889678955078e+01
1.040000000000000000e+02 7.260599517822265625e+01 -1.277705764770507812e+01 6.713843345642089844e+00 1.596541595458984375e+01 6.803777694702148438e+00 -1.025363826751708984e+01
1.050000000000000000e+02 7.280239105224609375e+01 -1.334996318817138672e+01 1.702685165405273438e+01 2.347897720336914062e+01 1.215174865722656250e+01 -1.995199584960937500e+01
1.060000000000000000e+02 7.268636322021484375e+01 -1.318823337554931641e+01 1.227179718017578125e+01 1.549376296997070312e+01 8.329668045043945312e+00 -1.436897087097167969e+01
1.070000000000000000e+02 7.257034301757812500e+01 -1.302650451660156250e+01 9.872701644897460938e+00 1.260173892974853516e+01 6.742331981658935547e+00 -1.145847797393798828e+01
1.080000000000000000e+02 7.245432281494140625e+01 -1.286477565765380859e+01 8.257461547851562500e+00 1.032329368591308594e+01 5.574226379394531250e+00 -9.845232963562011719e+00
1.090000000000000000e+02 7.275849151611328125e+01 -1.338848495483398438e+01 1.948503494262695312e+01 1.404163360595703125e+01 1.005800056457519531e+01 -1.774117851257324219e+01
1.100000000000000000e+02 7.261319732666015625e+01 -1.325243854522705078e+01 1.371519660949707031e+01 9.164356231689453125e+00 6.863865375518798828e+00 -1.195700740814208984e+01
1.110000000000000000e+02 7.246791076660156250e+01 -1.311639118194580078e+01 1.055331897735595703e+01 6.906919956207275391e+00 5.238071918487548828e+00 -9.328975677490234375e+00
1.120000000000000000e+02 7.232263183593750000e+01 -1.298034381866455078e+01 8.737502098083496094e+00 6.288404941558837891e+00 4.507772445678710938e+00 -7.943956851959228516e+00
1.130000000000000000e+02 7.272293090820312500e+01 -1.343481731414794922e+01 2.025073242187500000e+01 6.358094692230224609e+00 7.982648372650146484e+00 -1.289216518402099609e+01
1.140000000000000000e+02 7.255393981933593750e+01 -1.332965850830078125e+01 1.270682239532470703e+01 3.503526687622070312e+00 4.863104820251464844e+00 -8.178836822509765625e+00
1.150000000000000000e+02 7.238494110107421875e+01 -1.322449874877929688e+01 9.918922424316406250e+00 3.267155647277832031e+00 3.955823421478271484e+00 -6.244987010955810547e+00
1.160000000000000000e+02 7.221595001220703125e+01 -1.311933994293212891e+01 7.769380092620849609e+00 2.591027498245239258e+00 3.108122348785400391e+00 -5.138412952423095703e+00
1.170000000000000000e+02 7.269707489013671875e+01 -1.348718547821044922e+01 1.670732879638671875e+01 3.279930651187896729e-01 5.110596656799316406e+00 -6.738626480102539062e+00
1.180000000000000000e+02 7.251084136962890625e+01 -1.341693878173828125e+01 9.724504470825195312e+00 4.134252369403839111e-01 3.041378974914550781e+00 -3.733862161636352539e+00
1.190000000000000000e+02 7.232460784912109375e+01 -1.334669208526611328e+01 6.468038558959960938e+00 9.334239959716796875e-01 2.220438718795776367e+00 -3.000191211700439453e+00
1.200000000000000000e+02 7.213837432861328125e+01 -1.327644443511962891e+01 5.839654922485351562e+00 1.133704781532287598e+00 2.092007875442504883e+00 -3.022382259368896484e+00
1.210000000000000000e+02 7.268190765380859375e+01 -1.354358577728271484e+01 9.103436470031738281e+00 -2.778545379638671875e+00 1.897467255592346191e+00 1.293919831514358521e-01
1.220000000000000000e+02 7.248555755615234375e+01 -1.351093959808349609e+01 2.397188663482666016e+00 -6.950527429580688477e-02 6.983050107955932617e-01 -5.466805100440979004e-01
1.230000000000000000e+02 7.228921508789062500e+01 -1.347829246520996094e+01 2.970977306365966797e+00 4.099834859371185303e-01 1.014288306236267090e+00 -1.518564939498901367e+00
1.240000000000000000e+02 7.209286499023437500e+01 -1.344564628601074219e+01 1.694137692451477051e+00 -1.976011879742145538e-02 5.023132562637329102e-01 -7.364557385444641113e-01
1.250000000000000000e+02 7.267800903320312500e+01 -1.360186100006103516e+01 -8.507296562194824219e+00 -2.032710552215576172e+00 -3.162002086639404297e+00 2.501136541366577148e+00
1.260000000000000000e+02 7.247905731201171875e+01 -1.360806274414062500e+01 -1.868127107620239258e+00 8.126848936080932617e-01 -3.166326582431793213e-01 -9.868710637092590332e-01
1.270000000000000000e+02 7.228011322021484375e+01 -1.361426639556884766e+01 -2.838779211044311523e+00 -4.302239418029785156e-01 -9.807009696960449219e-01 -1.187622323632240295e-01
1.280000000000000000e+02 7.208117675781250000e+01 -1.362046909332275391e+01 -2.642614364624023438e+00 1.882053017616271973e-01 -7.363227605819702148e-01 -3.615204095840454102e-01
1.290000000000000000e+02 6.965392303466796875e+01 -1.510314750671386719e+01 3.493223190307617188e-01 4.172191321849822998e-01 2.299624383449554443e-01 -7.519712299108505249e-02
1.300000000000000000e+02 6.999383544921875000e+01 -1.517718410491943359e+01 8.861817717552185059e-01 5.901965498924255371e-01 4.429134726524353027e-01 4.003143608570098877e-01
1.310000000000000000e+02 6.846645355224609375e+01 -1.521856594085693359e+01 7.174732536077499390e-02 -4.679574370384216309e-01 -1.188630387187004089e-01 -1.666724085807800293e-01
1.320000000000000000e+02 6.964276885986328125e+01 -1.457257366180419922e+01 -2.102745026350021362e-01 1.515140086412429810e-01 -1.762814819812774658e-02 -3.313558697700500488e-01
1.330000000000000000e+02 6.999848937988281250e+01 -1.452672576904296875e+01 -2.219122499227523804e-01 -1.198385655879974365e-01 -1.025252416729927063e-01 -1.324438601732254028e-01
1.340000000000000000e+02 6.928135681152343750e+01 -1.488135433197021484e+01 5.402731895446777344e-02 -1.010402068495750427e-01 -1.410386711359024048e-02 -3.393810689449310303e-01
1.350000000000000000e+02 6.993144226074218750e+01 -1.422894191741943359e+01 -1.233224630355834961e+00 -2.264835536479949951e-01 -4.379124641418457031e-01 -3.381884992122650146e-01
1.360000000000000000e+02 6.951966857910156250e+01 -1.426801204681396484e+01 -1.003788590431213379e+00 7.298278063535690308e-02 -2.792417407035827637e-01 -3.143097162246704102e-01
1.370000000000000000e+02 6.952111816406250000e+01 -1.542625808715820312e+01 5.570289492607116699e-01 5.386507511138916016e-01 3.287039101123809814e-01 1.674823015928268433e-01
1.380000000000000000e+02 6.998386383056640625e+01 -1.540365505218505859e+01 9.948499798774719238e-01 8.633801937103271484e-01 5.574690699577331543e-01 5.635851025581359863e-01
1.390000000000000000e+02 6.904021453857421875e+01 -1.538395309448242188e+01 1.450236886739730835e-01 -1.013142392039299011e-01 1.311283279210329056e-02 -3.106057643890380859e-01
1.400000000000000000e+02 6.994196319580078125e+01 -1.473102092742919922e+01 2.632892727851867676e-01 8.905202895402908325e-02 1.057023927569389343e-01 -1.244001761078834534e-01
1.410000000000000000e+02 6.995188140869140625e+01 -1.496155261993408203e+01 4.403893649578094482e-01 2.978162169456481934e-01 2.214616835117340088e-01 1.603404805064201355e-02
1.420000000000000000e+02 6.879804229736328125e+01 -1.450756263732910156e+01 -2.598121166229248047e-01 -1.487418562173843384e-01 -1.225661933422088623e-01 -2.056620270013809204e-01
1.430000000000000000e+02 6.987435913085937500e+01 -1.442374038696289062e+01 -6.161671876907348633e-01 -2.500454485416412354e-01 -2.598637938499450684e-01 -2.681742906570434570e-01
1.440000000000000000e+02 6.999410247802734375e+01 -1.436281871795654297e+01 -8.403720855712890625e-01 -1.790221035480499268e-01 -3.058182597160339355e-01 -3.051062226295471191e-01
1.450000000000000000e+02 7.227489471435546875e+01 -1.229351997375488281e+01 4.997635841369628906e+00 1.013865184783935547e+01 4.540886402130126953e+00 -7.853583812713623047e+00
1.460000000000000000e+02 7.322998809814453125e+01 -1.245220565795898438e+01 2.174907445907592773e+00 2.381061935424804688e+01 7.795657634735107422e+00 -3.959301471710205078e+00
1.470000000000000000e+02 7.358502960205078125e+01 -1.266302013397216797e+01 4.743537902832031250e+00 2.786497688293457031e+01 9.782554626464843750e+00 1.930037379264831543e+00
1.480000000000000000e+02 7.420546722412109375e+01 -1.306546497344970703e+01 1.116015815734863281e+01 1.969693183898925781e+01 9.257126808166503906e+00 2.768795728683471680e+00
1.490000000000000000e+02 7.412348937988281250e+01 -1.332992362976074219e+01 1.199613380432128906e+01 1.997929191589355469e+01 9.592627525329589844e+00 1.584114789962768555e+00
1.500000000000000000e+02 7.362454986572265625e+01 -1.446088027954101562e+01 5.180347919464111328e+00 2.549218940734863281e+01 9.201761245727539062e+00 -3.149701356887817383e+00
1.510000000000000000e+02 7.307305145263671875e+01 -1.496211719512939453e+01 7.694486975669860840e-01 1.999508094787597656e+01 6.229358673095703125e+00 4.411570549011230469e+00
1.520000000000000000e+02 7.175041198730468750e+01 -1.418371486663818359e+01 2.288425207138061523e+00 9.541318416595458984e-01 9.727671146392822266e-01 1.804975271224975586e+00
1.530000000000000000e+02 7.115300750732421875e+01 -1.416207408905029297e+01 -2.476284205913543701e-01 3.381053507328033447e-01 2.714307978749275208e-02 2.252298444509506226e-01
1.540000000000000000e+02 7.013670349121093750e+01 -1.413082408905029297e+01 -1.516995906829833984e+00 -1.998873502016067505e-01 -5.150650143623352051e-01 -1.964857578277587891e-01
1.550000000000000000e+02 7.253022003173828125e+01 -1.486689186096191406e+01 2.563878059387207031e+00 1.375972747802734375e+01 4.897081851959228516e+00 6.979040145874023438e+00
1.560000000000000000e+02 7.304109191894531250e+01 -1.470949363708496094e+01 1.598608970642089844e+00 2.307927894592285156e+01 7.403366088867187500e+00 4.018707752227783203e+00
1.570000000000000000e+02 7.394582366943359375e+01 -1.292143344879150391e+01 9.431384086608886719e+00 2.164964866638183594e+01 9.324309349060058594e+00 2.404909610748291016e+00
1.580000000000000000e+02 7.008668518066406250e+01 -1.385788249969482422e+01 -2.059105634689331055e+00 -2.402991056442260742e-01 -6.898214221000671387e-01 -2.392559051513671875e-01
1.590000000000000000e+02 7.006027221679687500e+01 -1.363904666900634766e+01 -1.191831350326538086e+00 5.743873864412307739e-02 -3.403177857398986816e-01 1.236809045076370239e-01
1.600000000000000000e+02 6.992110443115234375e+01 -1.282480621337890625e+01 6.917526125907897949e-01 3.850369751453399658e-01 3.230368793010711670e-01 -3.430388495326042175e-02
1.610000000000000000e+02 7.061760711669921875e+01 -1.352148914337158203e+01 -1.047613620758056641e+00 5.848687142133712769e-04 -3.141086101531982422e-01 -5.456252768635749817e-02
1.620000000000000000e+02 7.167836761474609375e+01 -1.363700485229492188e+01 -2.619473934173583984e+00 5.176420882344245911e-02 -7.703129649162292480e-01 -3.222421705722808838e-01
1.630000000000000000e+02 7.191874694824218750e+01 -1.318474960327148438e+01 4.557938098907470703e+00 6.738052368164062500e-01 1.569522976875305176e+00 -2.307905673980712891e+00
1.640000000000000000e+02 7.188048553466796875e+01 -1.362692070007324219e+01 -2.651216268539428711e+00 -1.743693798780441284e-01 -8.476756811141967773e-01 -2.680132687091827393e-01
1.650000000000000000e+02 7.398989868164062500e+01 -1.313867282867431641e+01 1.361852550506591797e+01 2.187390327453613281e+01 1.064772891998291016e+01 3.807423353195190430e+00
1.660000000000000000e+02 7.269451904296875000e+01 -1.224677467346191406e+01 3.405685663223266602e+00 1.546529102325439453e+01 5.661293029785156250e+00 -7.078836441040039062e+00
1.670000000000000000e+02 7.295427703857421875e+01 -1.248231410980224609e+01 2.203031301498413086e+00 2.325518798828125000e+01 7.637465476989746094e+00 -7.275567531585693359e+00
1.680000000000000000e+02 7.188601684570312500e+01 -1.341104888916015625e+01 1.354354619979858398e+00 6.865338236093521118e-02 4.269023835659027100e-01 -8.334228396415710449e-01
1.690000000000000000e+02 7.190767669677734375e+01 -1.386064624786376953e+01 -4.454583227634429932e-01 -4.965696856379508972e-02 -1.485345959663391113e-01 1.174317747354507446e-01
1.700000000000000000e+02 7.149414825439453125e+01 -1.393332481384277344e+01 -1.070094823837280273e+00 -8.198772557079792023e-03 -3.234880864620208740e-01 7.985982298851013184e-02
1.710000000000000000e+02 7.196907806396484375e+01 -1.408562183380126953e+01 2.880825281143188477e+00 1.229779839515686035e+00 1.233181595802307129e+00 2.218997478485107422e+00
1.720000000000000000e+02 7.285367584228515625e+01 -1.498029804229736328e+01 9.022389054298400879e-01 1.859373664855957031e+01 5.848793029785156250e+00 5.494005680084228516e+00
1.730000000000000000e+02 7.327700805664062500e+01 -1.465606212615966797e+01 8.899480700492858887e-01 2.717372703552246094e+01 8.419102668762207031e+00 1.316349983215332031e+00
1.740000000000000000e+02 7.391091918945312500e+01 -1.413411331176757812e+01 8.739871978759765625e+00 2.384864425659179688e+01 9.776555061340332031e+00 -4.849102020263671875e+00
1.750000000000000000e+02 7.088552856445312500e+01 -1.504950332641601562e+01 1.848729372024536133e+00 1.789523482322692871e+00 1.091475844383239746e+00 1.756380438804626465e+00
1.760000000000000000e+02 7.015419006347656250e+01 -1.434697914123535156e+01 -6.886088848114013672e-01 -5.676336586475372314e-02 -2.236116677522659302e-01 -3.159173727035522461e-01
1.770000000000000000e+02 7.048186492919921875e+01 -1.531028175354003906e+01 1.378932356834411621e+00 1.330662012100219727e+00 8.128783106803894043e-01 1.227799892425537109e+00
1.780000000000000000e+02 7.068043518066406250e+01 -1.526435279846191406e+01 1.595834374427795410e+00 1.723234295845031738e+00 9.957206249237060547e-01 1.558668971061706543e+00
1.790000000000000000e+02 7.063680267333984375e+01 -1.432095813751220703e+01 -3.561174571514129639e-01 8.908543735742568970e-02 -8.010960370302200317e-02 1.459164265543222427e-02
1.800000000000000000e+02 7.228619384765625000e+01 -1.505317211151123047e+01 2.522655010223388672e+00 1.025938987731933594e+01 3.834613323211669922e+00 6.208490371704101562e+00
1.810000000000000000e+02 7.187918090820312500e+01 -1.512153339385986328e+01 2.713309526443481445e+00 6.279996871948242188e+00 2.697991847991943359e+00 4.812889575958251953e+00
1.820000000000000000e+02 7.148603820800781250e+01 -1.516197490692138672e+01 2.547268152236938477e+00 4.082170009613037109e+00 1.988831520080566406e+00 3.520509243011474609e+00
1.830000000000000000e+02 6.989196777343750000e+01 -1.261048793792724609e+01 1.250307798385620117e+00 6.840918064117431641e-01 5.803198814392089844e-01 -2.743478119373321533e-01
1.840000000000000000e+02 7.003508758544921875e+01 -1.341104221343994141e+01 -5.805029273033142090e-01 8.766350895166397095e-02 -1.478518247604370117e-01 1.654258817434310913e-01
1.850000000000000000e+02 7.232946777343750000e+01 -1.266596794128417969e+01 6.776421070098876953e+00 9.682469367980957031e+00 4.937667369842529297e+00 -8.658664703369140625e+00
1.860000000000000000e+02 7.247830963134765625e+01 -1.228788185119628906e+01 4.005941390991210938e+00 1.343272399902343750e+01 5.231599330902099609e+00 -7.982335090637207031e+00
1.870000000000000000e+02 7.282273864746093750e+01 -1.470872879028320312e+01 1.934178352355957031e+00 1.911196327209472656e+01 6.313842773437500000e+00 6.978269100189208984e+00
1.880000000000000000e+02 7.261024475097656250e+01 -1.465362167358398438e+01 3.161851167678833008e+00 1.550843334197998047e+01 5.601085662841796875e+00 7.872956752777099609e+00
1.890000000000000000e+02 7.224645233154296875e+01 -1.443205547332763672e+01 5.221259593963623047e+00 7.056346893310546875e+00 3.683281898498535156e+00 6.684367656707763672e+00
1.900000000000000000e+02 7.208811187744140625e+01 -1.428010177612304688e+01 4.750388622283935547e+00 3.112696409225463867e+00 2.358925342559814453e+00 4.360734939575195312e+00
1.910000000000000000e+02 7.265940093994140625e+01 -1.502741050720214844e+01 1.398993968963623047e+00 1.539848041534423828e+01 5.039242267608642578e+00 6.426852226257324219e+00
1.920000000000000000e+02 7.344062805175781250e+01 -1.484031391143798828e+01 9.981404542922973633e-01 2.426418113708496094e+01 7.578696250915527344e+00 8.044774085283279419e-02
1.930000000000000000e+02 7.406268310546875000e+01 -1.377713203430175781e+01 1.536276531219482422e+01 2.017540359497070312e+01 1.066145133972167969e+01 -3.136331796646118164e+00
1.940000000000000000e+02 7.414865875244140625e+01 -1.354252243041992188e+01 1.275911808013916016e+01 1.921566581726074219e+01 9.592434883117675781e+00 -8.129455447196960449e-01
1.950000000000000000e+02 7.369267272949218750e+01 -1.462682247161865234e+01 3.329056024551391602e+00 2.360766220092773438e+01 8.081015586853027344e+00 -2.102193117141723633e+00
1.960000000000000000e+02 7.346684265136718750e+01 -1.455652999877929688e+01 2.013278722763061523e+00 2.691412353515625000e+01 8.678220748901367188e+00 1.709284633398056030e-02
1.970000000000000000e+02 7.401271820068359375e+01 -1.441709518432617188e+01 6.695718765258789062e+00 2.181887435913085938e+01 8.554377555847167969e+00 -4.913853168487548828e+00
1.980000000000000000e+02 7.380130004882812500e+01 -1.431659126281738281e+01 8.138312339782714844e+00 2.554131126403808594e+01 1.010388660430908203e+01 -5.308650016784667969e+00
1.990000000000000000e+02 7.306248474121093750e+01 -1.226091957092285156e+01 1.528115749359130859e+00 2.226765060424804688e+01 7.138730049133300781e+00 -5.047869205474853516e+00
2.000000000000000000e+02 7.252397918701171875e+01 -1.255743694305419922e+01 5.657320499420166016e+00 1.338176918029785156e+01 5.711727142333984375e+00 -9.040315628051757812e+00
2.010000000000000000e+02 7.216007232666015625e+01 -1.281233215332031250e+01 7.284804821014404297e+00 5.322146415710449219e+00 3.782085418701171875e+00 -6.792232036590576172e+00
2.020000000000000000e+02 7.167217254638671875e+01 -1.339103984832763672e+01 8.763158917427062988e-01 7.284000515937805176e-02 2.847467660903930664e-01 -6.047644019126892090e-01
2.030000000000000000e+02 7.344372558593750000e+01 -1.250814437866210938e+01 3.568041563034057617e+00 2.435331535339355469e+01 8.376407623291015625e+00 -8.348718285560607910e-01
2.040000000000000000e+02 7.380740356445312500e+01 -1.276338100433349609e+01 5.842380523681640625e+00 2.385887145996093750e+01 8.910375595092773438e+00 1.919110178947448730e+00
2.050000000000000000e+02 7.207904815673828125e+01 -1.507789230346679688e+01 2.769769906997680664e+00 8.197394371032714844e+00 3.290149211883544922e+00 5.641354560852050781e+00
2.060000000000000000e+02 7.186763763427734375e+01 -1.470253372192382812e+01 3.698343992233276367e+00 4.516783237457275391e+00 2.464538097381591797e+00 4.578538894653320312e+00
2.070000000000000000e+02 7.129862976074218750e+01 -1.412606048583984375e+01 -1.910712122917175293e-01 1.066110208630561829e-01 -2.533805929124355316e-02 2.467984855175018311e-01
2.080000000000000000e+02 7.168193817138671875e+01 -1.514146327972412109e+01 2.556703567504882812e+00 5.177415847778320312e+00 2.320235729217529297e+00 4.150343418121337891e+00
2.090000000000000000e+02 7.049003601074218750e+01 -1.486549091339111328e+01 1.087081313133239746e+00 5.860146284103393555e-01 5.019287467002868652e-01 6.707343459129333496e-01
2.100000000000000000e+02 7.241667175292968750e+01 -1.455393218994140625e+01 4.615626335144042969e+00 1.041171169281005859e+01 4.508201122283935547e+00 7.806146621704101562e+00
2.110000000000000000e+02 7.099111175537109375e+01 -1.421436595916748047e+01 -2.809029519557952881e-01 1.323250532150268555e-01 -4.457336664199829102e-02 1.496118009090423584e-01
2.120000000000000000e+02 7.030467987060546875e+01 -1.446893405914306641e+01 -2.220553010702133179e-01 5.871825665235519409e-02 -4.900111258029937744e-02 -6.024498492479324341e-02
2.130000000000000000e+02 7.092486572265625000e+01 -1.399701881408691406e+01 -1.709229469299316406e+00 1.392506645061075687e-03 -5.123510956764221191e-01 -2.659898698329925537e-01
2.140000000000000000e+02 7.127407836914062500e+01 -1.366989898681640625e+01 -2.528153181076049805e+00 -4.628926143050193787e-02 -7.723327279090881348e-01 -2.732894718647003174e-01
2.150000000000000000e+02 7.048213195800781250e+01 -1.380084705352783203e+01 -2.245967626571655273e+00 -1.246802359819412231e-01 -7.111943364143371582e-01 -1.992840021848678589e-01
2.160000000000000000e+02 7.147630310058593750e+01 -1.365152835845947266e+01 -2.590908527374267578e+00 -4.277850687503814697e-02 -7.901061177253723145e-01 -2.566996216773986816e-01
2.170000000000000000e+02 7.107156372070312500e+01 -1.369397926330566406e+01 -2.485028982162475586e+00 -8.813688764348626137e-04 -7.457731366157531738e-01 -2.672698497772216797e-01
2.180000000000000000e+02 7.095655822753906250e+01 -1.281392478942871094e+01 2.480173349380493164e+00 6.981536149978637695e-01 9.534980654716491699e-01 -1.218385219573974609e+00
2.190000000000000000e+02 7.069623565673828125e+01 -1.254059696197509766e+01 2.609446763992309570e+00 1.075746059417724609e+00 1.105557918548583984e+00 -1.445244669914245605e+00
2.200000000000000000e+02 7.189421844482421875e+01 -1.236136817932128906e+01 5.176901817321777344e+00 5.808383464813232422e+00 3.295585632324218750e+00 -5.901006221771240234e+00
2.210000000000000000e+02 7.131626129150390625e+01 -1.244266319274902344e+01 4.060449600219726562e+00 2.537570953369140625e+00 1.979406237602233887e+00 -3.289553880691528320e+00
2.220000000000000000e+02 7.150282287597656250e+01 -1.238864612579345703e+01 4.404218196868896484e+00 3.134005784988403320e+00 2.261467218399047852e+00 -3.993923664093017578e+00
2.230000000000000000e+02 7.209107971191406250e+01 -1.230418300628662109e+01 5.070638179779052734e+00 8.277310371398925781e+00 4.004384517669677734e+00 -6.910900115966796875e+00
2.240000000000000000e+02 7.009160614013671875e+01 -1.259230518341064453e+01 1.358641266822814941e+00 4.778699278831481934e-01 5.509533286094665527e-01 -3.684277534484863281e-01
2.250000000000000000e+02 7.049194335937500000e+01 -1.256050491333007812e+01 2.090047597885131836e+00 9.484546184539794922e-01 9.115506410598754883e-01 -1.061332821846008301e+00
2.260000000000000000e+02 7.273237609863281250e+01 -1.249859237670898438e+01 3.845024108886718750e+00 1.910284423828125000e+01 6.884360313415527344e+00 -7.757095336914062500e+00
2.270000000000000000e+02 7.021727752685546875e+01 -1.473421669006347656e+01 3.323390781879425049e-01 2.491570562124252319e-01 1.744488477706909180e-01 6.865211576223373413e-02
2.280000000000000000e+02 7.026532745361328125e+01 -1.360065555572509766e+01 -1.383238315582275391e+00 -3.320406749844551086e-02 -4.249327182769775391e-01 -4.778444126714020967e-04
2.290000000000000000e+02 7.170041656494140625e+01 -1.391530418395996094e+01 -7.568086981773376465e-01 7.762938737869262695e-02 -2.037537992000579834e-01 1.025564894080162048e-01
2.300000000000000000e+02 7.376173400878906250e+01 -1.250948429107666016e+01 4.312450885772705078e+00 2.388153457641601562e+01 8.458195686340332031e+00 1.809438943862915039e+00
2.310000000000000000e+02 7.087194061279296875e+01 -1.442518615722656250e+01 2.791495323181152344e-01 3.339742720127105713e-01 1.839371323585510254e-01 4.278786778450012207e-01
2.320000000000000000e+02 7.038421630859375000e+01 -1.467883110046386719e+01 3.658639788627624512e-01 3.082803189754486084e-01 2.022432833909988403e-01 2.436038553714752197e-01
2.330000000000000000e+02 7.105297088623046875e+01 -1.501525211334228516e+01 1.985852718353271484e+00 1.920093774795532227e+00 1.171783924102783203e+00 2.010973215103149414e+00
2.340000000000000000e+02 7.144062042236328125e+01 -1.485398864746093750e+01 2.763449430465698242e+00 2.617632627487182617e+00 1.614324569702148438e+00 2.953084230422973633e+00
2.350000000000000000e+02 7.045893859863281250e+01 -1.439175033569335938e+01 -3.404147028923034668e-01 1.195093393325805664e-01 -6.627161055803298950e-02 6.390971597284078598e-03
2.360000000000000000e+02 7.034837341308593750e+01 -1.411750507354736328e+01 -1.517879247665405273e+00 5.132107995450496674e-03 -4.538241326808929443e-01 -3.356972634792327881e-01
2.370000000000000000e+02 7.025891876220703125e+01 -1.336363983154296875e+01 -3.373934924602508545e-01 1.082040145993232727e-01 -6.875684112310409546e-02 1.697389781475067139e-01
2.380000000000000000e+02 7.199240875244140625e+01 -1.260289955139160156e+01 6.255236148834228516e+00 5.506657123565673828e+00 3.528567790985107422e+00 -6.310019016265869141e+00
2.390000000000000000e+02 7.075214385986328125e+01 -1.449356555938720703e+01 3.698756098747253418e-01 4.197035431861877441e-01 2.368737459182739258e-01 4.242820441722869873e-01
2.400000000000000000e+02 6.993687438964843750e+01 -1.302819728851318359e+01 3.810228109359741211e-01 3.600702881813049316e-01 2.223279327154159546e-01 1.323649436235427856e-01
2.410000000000000000e+02 7.009606170654296875e+01 -1.305711650848388672e+01 3.872004449367523193e-01 1.866897344589233398e-01 1.721670627593994141e-01 7.462327182292938232e-02
2.420000000000000000e+02 7.213327789306640625e+01 -1.465792465209960938e+01 4.227194786071777344e+00 6.791162967681884766e+00 3.305507183074951172e+00 6.068310737609863281e+00
2.430000000000000000e+02 7.179697418212890625e+01 -1.276360034942626953e+01 5.667627811431884766e+00 2.747869491577148438e+00 2.524649143218994141e+00 -4.309119701385498047e+00
2.440000000000000000e+02 7.016658020019531250e+01 -1.453244781494140625e+01 -1.551853418350219727e-01 1.105028912425041199e-01 -1.340473815798759460e-02 -4.898672178387641907e-02
2.450000000000000000e+02 7.068224334716796875e+01 -1.499345493316650391e+01 1.445448398590087891e+00 1.199484229087829590e+00 7.934798002243041992e-01 1.155909061431884766e+00
2.460000000000000000e+02 7.195662689208984375e+01 -1.450059795379638672e+01 4.102803707122802734e+00 3.740722417831420898e+00 2.353057861328125000e+00 4.415049076080322266e+00
2.470000000000000000e+02 7.078040313720703125e+01 -1.481854438781738281e+01 1.321003556251525879e+00 8.150193095207214355e-01 6.408068537712097168e-01 1.052359580993652344e+00
2.480000000000000000e+02 7.109934234619140625e+01 -1.523836517333984375e+01 2.305548667907714844e+00 2.672104358673095703e+00 1.493295907974243164e+00 2.516755342483520508e+00
2.490000000000000000e+02 7.070420837402343750e+01 -1.466169261932373047e+01 9.534265398979187012e-01 5.222059488296508789e-01 4.426897466182708740e-01 6.650727987289428711e-01
2.500000000000000000e+02 7.073438262939453125e+01 -1.403255367279052734e+01 -1.677226424217224121e+00 -4.811337962746620178e-02 -5.176019668579101562e-01 -2.851958274841308594e-01
2.510000000000000000e+02 7.146061706542968750e+01 -1.338408279418945312e+01 3.966646790504455566e-01 1.460078209638595581e-01 1.628017425537109375e-01 -4.872436225414276123e-01
2.520000000000000000e+02 7.111215209960937500e+01 -1.248560333251953125e+01 3.743544578552246094e+00 1.753421425819396973e+00 1.649089813232421875e+00 -2.539031982421875000e+00
2.530000000000000000e+02 7.080828857421875000e+01 -1.344155502319335938e+01 -6.824011206626892090e-01 1.172112748026847839e-01 -1.695569455623626709e-01 -6.366417557001113892e-02
2.540000000000000000e+02 7.075836181640625000e+01 -1.313985538482666016e+01 7.543242573738098145e-01 2.373636215925216675e-01 2.975063621997833252e-01 -3.178679049015045166e-01
2.550000000000000000e+02 7.054108428955078125e+01 -1.464874935150146484e+01 6.514472961425781250e-01 4.478357136249542236e-01 3.297848999500274658e-01 4.037646353244781494e-01
2.560000000000000000e+02 7.051636505126953125e+01 -1.284358882904052734e+01 1.467407345771789551e+00 5.326364040374755859e-01 6.000131368637084961e-01 -5.025064349174499512e-01
2.570000000000000000e+02 7.159195709228515625e+01 -1.292398452758789062e+01 4.272957801818847656e+00 1.239245891571044922e+00 1.653661012649536133e+00 -2.590834379196166992e+00
2.580000000000000000e+02 7.146866607666015625e+01 -1.311768817901611328e+01 2.614866495132446289e+00 4.303606748580932617e-01 9.135681986808776855e-01 -1.260271668434143066e+00
2.590000000000000000e+02 7.123686981201171875e+01 -1.308628273010253906e+01 2.098537445068359375e+00 4.053024649620056152e-01 7.511519789695739746e-01 -1.035574913024902344e+00
2.600000000000000000e+02 7.141696929931640625e+01 -1.455462169647216797e+01 2.373961210250854492e+00 1.492982625961303711e+00 1.160083174705505371e+00 2.037785768508911133e+00
2.610000000000000000e+02 7.029030609130859375e+01 -1.257674980163574219e+01 1.583900451660156250e+00 7.757312655448913574e-01 7.078894972801208496e-01 -6.480853557586669922e-01
2.620000000000000000e+02 6.998178100585937500e+01 -1.320951366424560547e+01 4.653486236929893494e-02 1.875742971897125244e-01 7.023274898529052734e-02 2.331141233444213867e-01
2.630000000000000000e+02 7.011250305175781250e+01 -1.282610797882080078e+01 1.002800583839416504e+00 4.652327001094818115e-01 4.404099881649017334e-01 -2.191500067710876465e-01
2.640000000000000000e+02 7.028653717041015625e+01 -1.382816982269287109e+01 -2.127897977828979492e+00 1.050949245691299438e-01 -6.068409085273742676e-01 -2.009997069835662842e-01
2.650000000000000000e+02 7.067574310302734375e+01 -1.376476097106933594e+01 -2.362582683563232422e+00 6.987296789884567261e-02 -6.878129243850708008e-01 -2.248119860887527466e-01
2.660000000000000000e+02 7.087094116210937500e+01 -1.372516441345214844e+01 -2.434380054473876953e+00 -5.831161141395568848e-02 -7.478075027465820312e-01 -2.545414566993713379e-01
2.670000000000000000e+02 7.124693298339843750e+01 -1.338486671447753906e+01 -1.083962805569171906e-02 2.065002359449863434e-02 2.943118568509817123e-03 -2.785646915435791016e-01
2.680000000000000000e+02 7.102995300292968750e+01 -1.340492820739746094e+01 -3.334041535854339600e-01 8.139486610889434814e-02 -7.560278475284576416e-02 -1.938729882240295410e-01
2.690000000000000000e+02 7.201108551025390625e+01 -1.297632122039794922e+01 6.571447372436523438e+00 2.698627471923828125e+00 2.781022310256958008e+00 -4.708886623382568359e+00
2.700000000000000000e+02 7.054216766357421875e+01 -1.407385253906250000e+01 -1.633007884025573730e+00 -4.656439647078514099e-02 -5.038716793060302734e-01 -2.796477675437927246e-01
2.710000000000000000e+02 7.028778076171875000e+01 -1.495834922790527344e+01 9.646140933036804199e-01 6.435169577598571777e-01 4.824393391609191895e-01 5.447723269462585449e-01
2.720000000000000000e+02 7.111052703857421875e+01 -1.396240615844726562e+01 -1.674635171890258789e+00 -2.079327404499053955e-02 -5.086285471916198730e-01 -2.089136093854904175e-01
2.730000000000000000e+02 7.129765319824218750e+01 -1.393614578247070312e+01 -1.456612110137939453e+00 1.514500230550765991e-01 -3.915486335754394531e-01 -5.021369829773902893e-02
2.740000000000000000e+02 7.031032562255859375e+01 -1.517367649078369141e+01 1.119850635528564453e+00 9.943369626998901367e-01 6.342563033103942871e-01 7.488007545471191406e-01
2.750000000000000000e+02 7.030952453613281250e+01 -1.536932373046875000e+01 1.164778590202331543e+00 1.471497654914855957e+00 7.908828854560852051e-01 9.920302629470825195e-01
2.760000000000000000e+02 7.073323822021484375e+01 -1.283596897125244141e+01 1.914936542510986328e+00 5.999214053153991699e-01 7.544574141502380371e-01 -8.188556432723999023e-01
2.770000000000000000e+02 7.090335083007812500e+01 -1.251612567901611328e+01 3.193250417709350586e+00 1.227916955947875977e+00 1.326350212097167969e+00 -1.894732475280761719e+00
2.780000000000000000e+02 7.168840789794921875e+01 -1.237593841552734375e+01 4.947617053985595703e+00 4.279872417449951172e+00 2.768246889114379883e+00 -4.985524177551269531e+00
2.790000000000000000e+02 7.161745452880859375e+01 -1.256735038757324219e+01 5.088798522949218750e+00 3.103416681289672852e+00 2.457664489746093750e+00 -4.226115703582763672e+00
2.800000000000000000e+02 7.218554687500000000e+01 -1.247721290588378906e+01 5.718988418579101562e+00 8.589408874511718750e+00 4.292519092559814453e+00 -7.533023834228515625e+00
2.810000000000000000e+02 7.232550048828125000e+01 -1.478597831726074219e+01 3.558037042617797852e+00 1.038077449798583984e+01 4.181643486022949219e+00 6.972155570983886719e+00
2.820000000000000000e+02 7.428998565673828125e+01 -1.378982734680175781e+01 1.252225589752197266e+01 1.816104125976562500e+01 9.204989433288574219e+00 -2.334937572479248047e+00
2.830000000000000000e+02 7.090114593505859375e+01 -1.526436424255371094e+01 1.945559859275817871e+00 2.116246938705444336e+00 1.218541979789733887e+00 2.003324747085571289e+00
2.840000000000000000e+02 7.129212188720703125e+01 -1.519662952423095703e+01 2.526220798492431641e+00 3.157158374786376953e+00 1.705013751983642578e+00 3.025103330612182617e+00
2.850000000000000000e+02 7.123061370849609375e+01 -1.491706180572509766e+01 2.302217006683349609e+00 2.167846202850341797e+00 1.341018915176391602e+00 2.372653007507324219e+00
2.860000000000000000e+02 7.184008789062500000e+01 -1.488661861419677734e+01 3.283199548721313477e+00 5.445821762084960938e+00 2.618706226348876953e+00 4.678232669830322266e+00
2.870000000000000000e+02 7.165299224853515625e+01 -1.486382293701171875e+01 3.166900873184204102e+00 3.771147489547729492e+00 2.081414461135864258e+00 3.834972858428955078e+00
2.880000000000000000e+02 7.200126647949218750e+01 -1.483309459686279297e+01 3.581873655319213867e+00 6.432362079620361328e+00 3.004270792007446289e+00 5.479615211486816406e+00
2.890000000000000000e+02 7.248324584960937500e+01 -1.506320095062255859e+01 1.873785972595214844e+00 1.286004829406738281e+01 4.420150279998779297e+00 6.205672264099121094e+00
2.900000000000000000e+02 7.412526702880859375e+01 -1.410252189636230469e+01 9.073895454406738281e+00 2.023710250854492188e+01 8.793299674987792969e+00 -3.654207944869995117e+00
2.910000000000000000e+02 7.399034881591796875e+01 -1.397246074676513672e+01 1.302367687225341797e+01 2.112390518188476562e+01 1.024427413940429688e+01 -3.112946271896362305e+00
2.920000000000000000e+02 7.145645904541015625e+01 -1.414804077148437500e+01 6.630814671516418457e-01 3.396170437335968018e-01 3.008095324039459229e-01 5.951024293899536133e-01
2.930000000000000000e+02 7.080903625488281250e+01 -1.424910640716552734e+01 -4.205840826034545898e-01 1.175716817378997803e-01 -9.090372174978256226e-02 9.866987168788909912e-02
2.940000000000000000e+02 7.121446228027343750e+01 -1.449837589263916016e+01 1.478273510932922363e+00 1.010634422302246094e+00 7.466723322868347168e-01 1.304507732391357422e+00
2.950000000000000000e+02 7.156271362304687500e+01 -1.427003860473632812e+01 1.530856490135192871e+00 8.990095257759094238e-01 7.289597988128662109e-01 1.355990052223205566e+00
2.960000000000000000e+02 7.030738830566406250e+01 -1.283734130859375000e+01 1.224456071853637695e+00 4.035030305385589600e-01 4.883877336978912354e-01 -2.905119061470031738e-01
2.970000000000000000e+02 7.142453765869140625e+01 -1.270132827758789062e+01 4.391472339630126953e+00 1.660268068313598633e+00 1.815522074699401855e+00 -2.862329721450805664e+00
2.980000000000000000e+02 7.119387054443359375e+01 -1.278190040588378906e+01 3.323537349700927734e+00 1.023126006126403809e+00 1.303998947143554688e+00 -1.819402456283569336e+00
2.990000000000000000e+02 7.177592468261718750e+01 -1.443164157867431641e+01 3.541969537734985352e+00 2.254145860671997070e+00 1.738834619522094727e+00 3.269774436950683594e+00
3.000000000000000000e+02 7.051798248291015625e+01 -1.313509368896484375e+01 5.166624188423156738e-01 2.223539352416992188e-01 2.217049002647399902e-01 -1.259260326623916626e-01
3.010000000000000000e+02 7.028520965576171875e+01 -1.310549354553222656e+01 3.922109305858612061e-01 2.983388900756835938e-01 2.071649432182312012e-01 -3.875844925642013550e-02
3.020000000000000000e+02 7.099475097656250000e+01 -1.311030387878417969e+01 1.321862220764160156e+00 3.503246009349822998e-01 5.016560554504394531e-01 -5.768832564353942871e-01
3.030000000000000000e+02 7.160343170166015625e+01 -1.449027729034423828e+01 2.906287908554077148e+00 1.701349616050720215e+00 1.382291316986083984e+00 2.490595340728759766e+00
3.040000000000000000e+02 7.168404388427734375e+01 -1.314372920989990234e+01 3.674888849258422852e+00 7.295590639114379883e-01 1.321334362030029297e+00 -1.893253207206726074e+00
3.050000000000000000e+02 7.170536804199218750e+01 -1.463704204559326172e+01 3.512248039245605469e+00 3.143264293670654297e+00 1.996653676033020020e+00 3.695239067077636719e+00
3.060000000000000000e+02 7.045076751708984375e+01 -1.358376979827880859e+01 -1.406146764755249023e+00 9.457245469093322754e-02 -3.934722840785980225e-01 -1.090914290398359299e-02
3.070000000000000000e+02 7.047344970703125000e+01 -1.338196086883544922e+01 -4.697502851486206055e-01 1.425493210554122925e-01 -9.816028922796249390e-02 3.549126908183097839e-02
3.080000000000000000e+02 7.113204956054687500e+01 -1.469481754302978516e+01 1.862433910369873047e+00 1.259540677070617676e+00 9.365923404693603516e-01 1.582561492919921875e+00
3.090000000000000000e+02 7.084439849853515625e+01 -1.469312381744384766e+01 1.298757076263427734e+00 7.315503954887390137e-01 6.090922355651855469e-01 8.988354802131652832e-01
3.100000000000000000e+02 7.126179504394531250e+01 -1.429210662841796875e+01 1.031464219093322754e+00 4.694171845912933350e-01 4.502644240856170654e-01 8.367089629173278809e-01
3.110000000000000000e+02 7.141555023193359375e+01 -1.432664966583251953e+01 1.290791749954223633e+00 8.472633957862854004e-01 6.414165496826171875e-01 1.257406711578369141e+00
3.120000000000000000e+02 7.087532043457031250e+01 -1.455987930297851562e+01 1.171653389930725098e+00 5.669813752174377441e-01 5.215904116630554199e-01 8.340996503829956055e-01
3.130000000000000000e+02 7.103032684326171875e+01 -1.442640209197998047e+01 8.192178010940551758e-01 4.431625604629516602e-01 3.787141144275665283e-01 7.792810201644897461e-01
3.140000000000000000e+02 7.100555419921875000e+01 -1.459469032287597656e+01 1.332438111305236816e+00 7.329222559928894043e-01 6.196081042289733887e-01 1.036887168884277344e+00
3.150000000000000000e+02 7.098576354980468750e+01 -1.474230384826660156e+01 1.751810669898986816e+00 1.190459609031677246e+00 8.826810717582702637e-01 1.415412902832031250e+00
3.160000000000000000e+02 7.094012451171875000e+01 -1.489014911651611328e+01 1.651768445968627930e+00 1.515248179435729980e+00 9.501049518585205078e-01 1.631135463714599609e+00
3.170000000000000000e+02 1.096101951599121094e+01 -2.067496776580810547e+00 -4.443349838256835938e-01 4.255250468850135803e-02 -1.205347478389739990e-01 -3.474818915128707886e-02
3.180000000000000000e+02 3.710351228713989258e+00 -1.989945173263549805e+00 -1.107161119580268860e-01 -2.348988316953182220e-02 -4.026179760694503784e-02 -1.077503934502601624e-01
3.190000000000000000e+02 6.024571061134338379e-01 -1.059652996063232422e+01 -1.484261127188801765e-03 -9.331107735633850098e-01 -2.803784906864166260e-01 -9.447590261697769165e-02
3.200000000000000000e+02 1.012986278533935547e+01 -1.625892257690429688e+01 1.946300148963928223e+00 5.199574232101440430e-01 7.398772835731506348e-01 7.101287841796875000e-01
3.210000000000000000e+02 1.143473625183105469e+01 -1.609323501586914062e+01 1.902756810188293457e+00 1.429485976696014404e-01 6.137115955352783203e-01 3.139464259147644043e-01
3.220000000000000000e+02 1.285379600524902344e+01 -1.601697158813476562e+01 1.734467148780822754e+00 1.680889874696731567e-01 5.707668662071228027e-01 1.011371705681085587e-02
3.230000000000000000e+02 1.613676071166992188e+01 -1.587335014343261719e+01 8.855959177017211914e-01 -1.975258439779281616e-02 2.597530186176300049e-01 -5.765861645340919495e-02
3.240000000000000000e+02 1.806347656250000000e+01 -1.445059967041015625e+01 6.979317069053649902e-01 -1.391267031431198120e-01 1.676414906978607178e-01 1.272657364606857300e-01
3.250000000000000000e+02 1.784753799438476562e+01 -2.784349918365478516e+00 -4.983695745468139648e-01 -3.194062411785125732e-02 -1.590930670499801636e-01 2.721019648015499115e-02
3.260000000000000000e+02 1.625228691101074219e+01 -2.714049816131591797e+00 -5.086640119552612305e-01 -1.600348204374313354e-02 -1.574002355337142944e-01 3.958779573440551758e-02
3.270000000000000000e+02 1.469304847717285156e+01 -2.561108589172363281e+00 -5.084041953086853027e-01 4.658677498809993267e-04 -1.523815095424652100e-01 3.103129379451274872e-02
3.280000000000000000e+02 1.392492771148681641e+01 -2.467952728271484375e+00 -5.036575794219970703e-01 2.475980203598737717e-03 -1.503544747829437256e-01 2.184640802443027496e-02
3.290000000000000000e+02 1.172561264038085938e+01 -2.926817178726196289e+00 -4.086988568305969238e-01 5.139091238379478455e-02 -1.071923822164535522e-01 -4.087766632437705994e-02
3.300000000000000000e+02 1.045281887054443359e+01 -1.367777729034423828e+01 7.076361775398254395e-01 6.116211414337158203e-01 3.957771956920623779e-01 1.978548914194107056e-01
3.310000000000000000e+02 1.798068761825561523e+00 -1.039103412628173828e+01 -1.326962281018495560e-02 -6.337918639183044434e-01 -1.941184550523757935e-01 -2.549041211605072021e-01
3.320000000000000000e+02 7.493018627166748047e+00 -1.835757446289062500e+01 1.032076120376586914e+00 2.212693929672241211e+00 9.734310507774353027e-01 1.347949981689453125e+00
3.330000000000000000e+02 6.167575120925903320e-01 -1.771146011352539062e+01 1.176279969513416290e-02 -1.794724583625793457e+00 -5.348885655403137207e-01 1.352846506051719189e-03
3.340000000000000000e+02 8.242145538330078125e+00 -1.728759956359863281e+01 1.766418814659118652e+00 1.551608204841613770e+00 9.954081177711486816e-01 1.261723756790161133e+00
3.350000000000000000e+02 6.046073436737060547e+00 -2.202667236328125000e+01 2.232103645801544189e-01 1.754685521125793457e+00 5.933687686920166016e-01 5.279315114021301270e-01
3.360000000000000000e+02 6.465255260467529297e+00 -2.082269287109375000e+01 2.905851304531097412e-01 2.220805168151855469e+00 7.534170746803283691e-01 7.951112985610961914e-01
3.370000000000000000e+02 5.607078075408935547e-01 -2.467169761657714844e+01 -1.290087006054818630e-03 -2.859192192554473877e-01 -8.616279065608978271e-02 1.918193250894546509e-01
3.380000000000000000e+02 5.034476757049560547e+00 -2.321158409118652344e+01 1.597733050584793091e-01 9.322091937065124512e-01 3.275947570800781250e-01 6.035041809082031250e-01
3.390000000000000000e+02 7.614982128143310547e-01 -2.889884948730468750e+01 -1.512520108371973038e-02 8.733162283897399902e-01 2.574573159217834473e-01 1.122621297836303711e-01
3.400000000000000000e+02 7.107044219970703125e+00 -2.794261741638183594e+01 -6.702113151550292969e-01 -7.597576379776000977e-01 -4.289906620979309082e-01 6.442152261734008789e-01
3.410000000000000000e+02 6.391930103302001953e+00 -2.679293441772460938e+01 -3.709061741828918457e-01 -4.980806112289428711e-01 -2.606960237026214600e-01 4.666953086853027344e-01
3.420000000000000000e+02 3.695675849914550781e+00 -2.769315528869628906e+01 -3.186488449573516846e-01 3.103259801864624023e-01 -2.496859524399042130e-03 5.330194830894470215e-01
3.430000000000000000e+02 9.064558029174804688e+00 -3.014614868164062500e+01 -1.032827854156494141e+00 -6.523100137710571289e-01 -5.055413246154785156e-01 6.238334178924560547e-01
3.440000000000000000e+02 8.034083366394042969e+00 -2.902385520935058594e+01 -7.149894833564758301e-01 -6.522185802459716797e-01 -4.101624190807342529e-01 6.906716227531433105e-01
3.450000000000000000e+02 7.155272960662841797e+00 -2.991977500915527344e+01 -6.826728582382202148e-01 -3.950954377651214600e-01 -3.233304917812347412e-01 4.332372546195983887e-01
3.460000000000000000e+02 3.088909149169921875e+00 -3.759051132202148438e+01 -3.168223774991929531e-04 5.766605734825134277e-01 1.729031205177307129e-01 -1.019796058535575867e-01
3.470000000000000000e+02 8.576362133026123047e-01 -3.725846481323242188e+01 -8.672116673551499844e-04 8.979896903038024902e-01 2.691367566585540771e-01 -5.126754939556121826e-02
3.480000000000000000e+02 7.261784672737121582e-01 -3.185478019714355469e+01 -1.609975844621658325e-02 1.096630215644836426e+00 3.241591453552246094e-01 2.110893838107585907e-02
3.490000000000000000e+02 8.182608604431152344e+00 -4.126594161987304688e+01 9.206205606460571289e-02 -3.261896222829818726e-02 1.783292740583419800e-02 -7.976639084517955780e-03
3.500000000000000000e+02 1.565676784515380859e+01 -3.187409591674804688e+01 -7.885705232620239258e-01 -5.860821157693862915e-02 -2.541536092758178711e-01 1.182063892483711243e-01
3.510000000000000000e+02 8.054506301879882812e+00 -3.128037834167480469e+01 -6.517315506935119629e-01 -3.641048669815063477e-01 -3.047509491443634033e-01 2.585768699645996094e-01
3.520000000000000000e+02 1.639292907714843750e+01 -3.632295227050781250e+01 -2.637177407741546631e-01 -1.985661089420318604e-01 -1.386851519346237183e-01 5.732068419456481934e-02
3.530000000000000000e+02 1.532484817504882812e+01 -3.878920364379882812e+01 -7.487756758928298950e-02 -2.460447549819946289e-01 -9.627670049667358398e-02 5.561662837862968445e-02
3.540000000000000000e+02 1.860564804077148438e+01 -3.220415496826171875e+01 -7.715241909027099609e-01 -5.538359284400939941e-02 -2.480723410844802856e-01 -1.058953255414962769e-02
3.550000000000000000e+02 1.707768821716308594e+01 -3.220142364501953125e+01 -7.903072237968444824e-01 -4.694729670882225037e-02 -2.511763572692871094e-01 5.231434106826782227e-02
3.560000000000000000e+02 2.381437301635742188e+01 -3.803498077392578125e+01 -1.645642369985580444e-01 3.793561756610870361e-01 6.443759053945541382e-02 1.626292020082473755e-01
3.570000000000000000e+02 2.348732376098632812e+01 -3.571276855468750000e+01 -2.271607369184494019e-01 2.012822180986404419e-01 -7.763557136058807373e-03 1.696675121784210205e-01
3.580000000000000000e+02 2.969468116760253906e+01 -3.084158134460449219e+01 4.943628609180450439e-01 4.329276382923126221e-01 2.781871557235717773e-01 6.356299519538879395e-01
3.590000000000000000e+02 2.427678298950195312e+01 -3.175030708312988281e+01 -7.448645830154418945e-01 -2.422933839261531830e-02 -2.307281792163848877e-01 -4.518369957804679871e-02
3.600000000000000000e+02 2.793276405334472656e+01 -4.111056518554687500e+01 -4.098200798034667969e-01 1.372967362403869629e+00 2.889441847801208496e-01 1.432266533374786377e-01
3.610000000000000000e+02 3.265138244628906250e+01 -3.633488082885742188e+01 -7.976537942886352539e-01 2.936874628067016602e+00 6.417662501335144043e-01 7.085860967636108398e-01
3.620000000000000000e+02 3.092249298095703125e+01 -3.029156112670898438e+01 1.359805464744567871e+00 1.545657157897949219e+00 8.716387748718261719e-01 1.321566104888916016e+00
3.630000000000000000e+02 2.832638740539550781e+01 -3.537286758422851562e+01 -2.344623506069183350e-01 1.210965871810913086e+00 2.929510474205017090e-01 6.743015646934509277e-01
3.640000000000000000e+02 4.077204895019531250e+01 -3.759223937988281250e+01 -1.079806447029113770e+00 3.399587631225585938e+00 6.959343552589416504e-01 -2.606282830238342285e-01
3.650000000000000000e+02 4.410606002807617188e+01 -3.157291030883789062e+01 -3.338161110877990723e-01 2.868867874145507812e+00 7.605155110359191895e-01 -7.276440262794494629e-01
3.660000000000000000e+02 4.346797943115234375e+01 -2.063547897338867188e+01 3.750783205032348633e-01 4.297863006591796875e+00 1.401882410049438477e+00 -1.441060066223144531e+00
3.670000000000000000e+02 4.435166168212890625e+01 -1.995665359497070312e+01 1.068576455116271973e+00 2.639033317565917969e+00 1.112282872200012207e+00 -1.549545049667358398e+00
3.680000000000000000e+02 4.203241729736328125e+01 -1.636952209472656250e+01 1.209043502807617188e+00 1.267176055908203125e+01 4.164241313934326172e+00 -2.772635221481323242e+00
3.690000000000000000e+02 4.148438644409179688e+01 -1.351506423950195312e+01 3.572539687156677246e-01 1.403182315826416016e+01 4.316723346710205078e+00 -1.192009806632995605e+00
3.700000000000000000e+02 4.133409500122070312e+01 -1.068278789520263672e+01 3.801543712615966797e-01 1.513554859161376953e+01 4.654710769653320312e+00 -4.577999413013458252e-01
3.710000000000000000e+02 4.156082153320312500e+01 -6.537200927734375000e+00 1.172769904136657715e+00 1.690869903564453125e+01 5.424440383911132812e+00 2.935347318649291992e+00
3.720000000000000000e+02 4.050581359863281250e+01 -6.441679000854492188e+00 1.301126360893249512e+00 1.327055644989013672e+01 4.371504783630371094e+00 1.517486095428466797e+00
3.730000000000000000e+02 4.372998428344726562e+01 -7.803445309400558472e-02 -1.671481013298034668e+00 5.160732269287109375e+00 1.046775341033935547e+00 1.405141472816467285e+00
3.740000000000000000e+02 3.902953338623046875e+01 5.394520282745361328e+00 2.426629543304443359e+00 1.282548618316650391e+01 4.575634479522705078e+00 5.212128639221191406e+00
3.750000000000000000e+02 4.697182083129882812e+01 1.365267276763916016e+00 -1.070263671875000000e+01 -9.353039860725402832e-01 -3.491382360458374023e+00 4.893119931221008301e-01
3.760000000000000000e+02 4.559986877441406250e+01 1.221573472023010254e+00 -7.665861129760742188e+00 2.882712185382843018e-01 -2.213276863098144531e+00 -1.775670796632766724e-01
3.770000000000000000e+02 4.843995666503906250e+01 1.220831990242004395e+00 -8.481355667114257812e+00 -6.507319211959838867e-01 -2.739626407623291016e+00 1.529772400856018066e+00
3.780000000000000000e+02 5.069371795654296875e+01 2.234400033950805664e+00 -4.796815872192382812e+00 1.064879298210144043e-01 -1.407098293304443359e+00 1.360493451356887817e-01
3.790000000000000000e+02 5.119734191894531250e+01 1.685523092746734619e-01 -5.172324657440185547e+00 -2.456394433975219727e-01 -1.625389218330383301e+00 1.489559173583984375e+00
3.800000000000000000e+02 5.513703155517578125e+01 -8.221947550773620605e-01 -5.432694911956787109e+00 -1.298588216304779053e-01 -1.668766140937805176e+00 7.161794304847717285e-01
3.810000000000000000e+02 6.050591278076171875e+01 -2.136392354965209961e+00 -4.112312793731689453e+00 -5.362821817398071289e-01 -1.394578456878662109e+00 1.323092937469482422e+00
3.820000000000000000e+02 6.504904174804687500e+01 -5.467228889465332031e+00 -2.759620547294616699e-01 6.962240934371948242e-01 1.260786205530166626e-01 -8.840453624725341797e-02
3.830000000000000000e+02 7.006143951416015625e+01 -1.219324970245361328e+01 1.955083012580871582e+00 1.103549361228942871e+00 9.175897240638732910e-01 -1.003982901573181152e+00
3.840000000000000000e+02 6.816275787353515625e+01 -1.097022724151611328e+01 5.254535079002380371e-01 4.481578171253204346e-01 2.920834124088287354e-01 -6.341158151626586914e-01
3.850000000000000000e+02 7.312351226806640625e+01 -1.184700107574462891e+01 9.370622634887695312e-01 1.896700096130371094e+01 5.971219062805175781e+00 -3.788437366485595703e+00
3.860000000000000000e+02 7.378929901123046875e+01 -1.165423774719238281e+01 5.865569710731506348e-01 1.932420539855957031e+01 5.973228931427001953e+00 -3.616662025451660156e-01
3.870000000000000000e+02 7.521121978759765625e+01 -1.233419704437255859e+01 4.393929481506347656e+00 1.422573280334472656e+01 5.585898399353027344e+00 2.476851463317871094e+00
3.880000000000000000e+02 7.302408599853515625e+01 -1.125605773925781250e+01 1.245560497045516968e-01 1.532980060577392578e+01 4.636306762695312500e+00 -3.343385219573974609e+00
3.890000000000000000e+02 7.943792724609375000e+01 -5.413565158843994141e+00 -6.055395677685737610e-02 9.078392028808593750e+00 2.705351352691650391e+00 2.995327711105346680e-01
3.900000000000000000e+02 7.818422698974609375e+01 -2.368897914886474609e+00 -1.496229916810989380e-01 9.256031036376953125e+00 2.731922388076782227e+00 1.387906968593597412e-01
3.910000000000000000e+02 7.935900878906250000e+01 2.951082706451416016e+00 -1.586879976093769073e-02 9.424207687377929688e+00 2.822501659393310547e+00 -1.267649531364440918e-01
3.920000000000000000e+02 7.318586730957031250e+01 9.168889045715332031e+00 3.676344081759452820e-02 5.628207683563232422e+00 1.699491262435913086e+00 -1.297376990318298340e+00
3.930000000000000000e+02 6.726248931884765625e+01 1.815022277832031250e+01 7.029566168785095215e-01 3.679100275039672852e+00 1.314617037773132324e+00 -1.021478056907653809e+00
3.940000000000000000e+02 5.388097763061523438e+01 2.072146034240722656e+01 1.445920228958129883e+00 3.220146417617797852e+00 1.399819970130920410e+00 5.572619438171386719e-01
3.950000000000000000e+02 5.022722625732421875e+01 3.261604309082031250e+01 2.441549301147460938e-01 4.139789104461669922e+00 1.315183162689208984e+00 4.296884834766387939e-01
3.960000000000000000e+02 4.128894042968750000e+01 2.945375442504882812e+01 5.490997433662414551e-01 5.589267730712890625e+00 1.841510176658630371e+00 -1.228752136230468750e+00
3.970000000000000000e+02 4.264682006835937500e+01 2.987042427062988281e+01 5.187094807624816895e-01 4.950377464294433594e+00 1.640726089477539062e+00 -3.364825546741485596e-01
3.980000000000000000e+02 4.293256378173828125e+01 2.833204269409179688e+01 6.524919867515563965e-01 5.220591545104980469e+00 1.761925101280212402e+00 -3.168716728687286377e-01
3.990000000000000000e+02 4.159515762329101562e+01 2.803232574462890625e+01 4.672562181949615479e-01 6.530118465423583984e+00 2.099212408065795898e+00 -6.885469555854797363e-01
4.000000000000000000e+02 4.169359588623046875e+01 2.658788108825683594e+01 1.171994581818580627e-01 6.234465599060058594e+00 1.905499458312988281e+00 -1.847453117370605469e-01
4.010000000000000000e+02 4.174047088623046875e+01 2.228719902038574219e+01 4.806167259812355042e-02 6.354939937591552734e+00 1.920900464057922363e+00 1.528468132019042969e-01
4.020000000000000000e+02 4.165853118896484375e+01 1.801791763305664062e+01 1.577417403459548950e-01 8.201826095581054688e+00 2.507870435714721680e+00 5.323482155799865723e-01
4.030000000000000000e+02 4.654046630859375000e+01 1.065173530578613281e+01 2.073500156402587891e+00 4.046219348907470703e+00 1.835915803909301758e+00 2.267076969146728516e+00
4.040000000000000000e+02 5.743164062500000000e+01 1.076630711555480957e+00 -3.337398290634155273e+00 -1.274451017379760742e-01 -1.039453029632568359e+00 2.075313776731491089e-01
4.050000000000000000e+02 6.029285812377929688e+01 1.497128605842590332e+00 -2.227517604827880859e+00 3.559182584285736084e-01 -5.614798069000244141e-01 -4.825127422809600830e-01
4.060000000000000000e+02 6.151729202270507812e+01 1.273179531097412109e+00 -2.015414476394653320e+00 7.187651991844177246e-01 -3.889947533607482910e-01 -7.012901306152343750e-01
4.070000000000000000e+02 7.305932617187500000e+01 1.981507062911987305e+00 -5.155614614486694336e-01 6.463773250579833984e+00 1.784463524818420410e+00 -1.044000387191772461e+00
4.080000000000000000e+02 6.827674865722656250e+01 -4.951380252838134766e+00 -5.700373053550720215e-01 3.501078128814697266e+00 8.793122768402099609e-01 -1.095915317535400391e+00
4.090000000000000000e+02 6.809003448486328125e+01 -6.136997699737548828e+00 -2.669587433338165283e-01 2.985373258590698242e+00 8.155243396759033203e-01 -1.143407583236694336e+00
4.100000000000000000e+02 4.213954162597656250e+01 -4.083219528198242188e+01 -1.090726256370544434e+00 3.031219482421875000e+00 5.821478962898254395e-01 -1.287893801927566528e-01
4.110000000000000000e+02 5.164037704467773438e+01 -2.962441635131835938e+01 -1.822419017553329468e-01 4.096485376358032227e-01 6.822199374437332153e-02 -1.571709215641021729e-01
4.120000000000000000e+02 5.295720672607421875e+01 -2.883185577392578125e+01 -1.051291003823280334e-01 4.498855397105216980e-02 -1.804216392338275909e-02 4.926821216940879822e-02
4.130000000000000000e+02 5.009962081909179688e+01 -2.585758018493652344e+01 8.986657112836837769e-02 2.318239659070968628e-01 9.650716185569763184e-02 -1.596907675266265869e-01
4.140000000000000000e+02 5.168762207031250000e+01 -4.085543441772460938e+01 -2.012516409158706665e-01 7.356175780296325684e-01 1.603097766637802124e-01 -1.649412214756011963e-01
4.150000000000000000e+02 5.344757843017578125e+01 -3.728343200683593750e+01 -3.420929312705993652e-01 4.775552153587341309e-01 4.063868522644042969e-02 -4.469216167926788330e-01
4.160000000000000000e+02 5.479058074951171875e+01 -3.088046073913574219e+01 -3.947472274303436279e-01 -9.200458973646163940e-02 -1.460255533456802368e-01 2.459146529436111450e-01
4.170000000000000000e+02 5.943970489501953125e+01 -3.886234664916992188e+01 3.658843636512756348e-01 -5.192512273788452148e-01 -4.601006582379341125e-02 -4.060463011264801025e-01
4.180000000000000000e+02 5.709848403930664062e+01 -3.498231124877929688e+01 -8.571572303771972656e-01 -2.170362472534179688e-01 -3.222580552101135254e-01 -5.124109387397766113e-01
4.190000000000000000e+02 5.642533874511718750e+01 -3.332672500610351562e+01 -1.245706558227539062e+00 -1.721658557653427124e-01 -4.253617227077484131e-01 -8.722376078367233276e-02
4.200000000000000000e+02 5.459806442260742188e+01 -3.442661666870117188e+01 -6.376703381538391113e-01 2.503203451633453369e-01 -1.162049919366836548e-01 -3.830258846282958984e-01
4.210000000000000000e+02 6.248767852783203125e+01 -4.141920471191406250e+01 8.847090005874633789e-01 -1.240988075733184814e-01 2.281830459833145142e-01 -5.956263467669487000e-02
4.220000000000000000e+02 6.483312225341796875e+01 -3.700114822387695312e+01 2.434578239917755127e-01 5.796365141868591309e-01 2.469283044338226318e-01 8.431763947010040283e-02
4.230000000000000000e+02 6.461894989013671875e+01 -3.090354156494140625e+01 -2.628642797470092773e+00 -1.056342124938964844e+00 -1.105495452880859375e+00 -1.630640745162963867e+00
4.240000000000000000e+02 6.194404602050781250e+01 -3.218148422241210938e+01 -3.468180179595947266e+00 -6.282944679260253906e-01 -1.228942394256591797e+00 -1.261551618576049805e+00
4.250000000000000000e+02 6.070660400390625000e+01 -3.246229934692382812e+01 -3.581077098846435547e+00 -2.883030474185943604e-01 -1.160814046859741211e+00 -7.641736268997192383e-01
4.260000000000000000e+02 6.794393920898437500e+01 -3.779878234863281250e+01 3.834002315998077393e-01 2.540873050689697266e+00 8.772819638252258301e-01 2.281915098428726196e-01
4.270000000000000000e+02 7.043116760253906250e+01 -3.502661514282226562e+01 -2.233941406011581421e-01 4.852909088134765625e+00 1.388854384422302246e+00 3.876303732395172119e-01
4.280000000000000000e+02 7.933963775634765625e+01 -3.335695266723632812e+01 -2.315878868103027344e-02 1.303179740905761719e+01 3.902591705322265625e+00 -4.265663214027881622e-03
4.290000000000000000e+02 7.804854583740234375e+01 -3.036980247497558594e+01 -1.080684810876846313e-01 1.178843688964843750e+01 3.504110336303710938e+00 -7.700466364622116089e-02
4.300000000000000000e+02 7.940271759033203125e+01 -2.638616943359375000e+01 -1.577460765838623047e-02 1.269701194763183594e+01 3.804371118545532227e+00 -1.773314028978347778e-01
4.310000000000000000e+02 7.837384796142578125e+01 -2.343093299865722656e+01 -1.380149871110916138e-01 1.106708049774169922e+01 3.278719663619995117e+00 -6.879389286041259766e-01
4.320000000000000000e+02 7.947731018066406250e+01 -2.221658325195312500e+01 -4.584355279803276062e-02 1.121352577209472656e+01 3.350304603576660156e+00 -3.760249614715576172e-01
4.330000000000000000e+02 7.006707000732421875e+01 -1.578612804412841797e+01 1.070010542869567871e+00 1.535288333892822266e+00 7.815896868705749512e-01 9.615110158920288086e-01
4.340000000000000000e+02 6.856497955322265625e+01 -1.636930084228515625e+01 8.137374371290206909e-02 -5.052626132965087891e-01 -1.271666586399078369e-01 2.136828452348709106e-01
4.350000000000000000e+02 7.058101654052734375e+01 -1.559127140045166016e+01 1.670729637145996094e+00 2.178176164627075195e+00 1.154671669006347656e+00 1.741433382034301758e+00
4.360000000000000000e+02 7.007304382324218750e+01 -2.531821632385253906e+01 -1.922290772199630737e-01 4.672448635101318359e+00 1.344065785408020020e+00 -2.679271697998046875e-01
4.370000000000000000e+02 6.873049163818359375e+01 -2.498332023620605469e+01 6.107957661151885986e-02 3.867662906646728516e+00 1.178622722625732422e+00 2.546163499355316162e-01
4.380000000000000000e+02 6.829910278320312500e+01 -2.640770530700683594e+01 -1.732952892780303955e-01 2.396044254302978516e+00 6.668246388435363770e-01 1.209822148084640503e-01
4.390000000000000000e+02 6.873347473144531250e+01 -3.101564979553222656e+01 -1.187737464904785156e+00 3.166992187500000000e+00 5.937764048576354980e-01 -4.376098513603210449e-02
4.400000000000000000e+02 6.764726257324218750e+01 -2.774929809570312500e+01 -6.242230534553527832e-01 8.622281551361083984e-01 7.140153646469116211e-02 -3.518162667751312256e-01
4.410000000000000000e+02 6.774294281005859375e+01 -2.993387794494628906e+01 -1.476382136344909668e+00 1.634045124053955078e+00 4.729889705777168274e-02 -3.288145661354064941e-01
4.420000000000000000e+02 7.801502227783203125e+01 -4.162539672851562500e+01 3.692548871040344238e-01 1.143541145324707031e+01 3.541399955749511719e+00 1.038740128278732300e-01
4.430000000000000000e+02 7.802817535400390625e+01 -3.708887481689453125e+01 -4.210562258958816528e-02 1.154093933105468750e+01 3.449650287628173828e+00 2.409707009792327881e-01
4.440000000000000000e+02 7.441596221923828125e+01 -1.623983955383300781e+01 -9.985889792442321777e-01 1.589930534362792969e+01 4.470214843750000000e+00 -1.650475740432739258e+00
4.450000000000000000e+02 7.943541717529296875e+01 -1.513438415527343750e+01 1.686566919088363647e-01 2.335806846618652344e+00 7.513390779495239258e-01 -6.654973030090332031e-01
4.460000000000000000e+02 7.482796478271484375e+01 -1.402367115020751953e+01 9.034593582153320312e+00 1.546909809112548828e+01 7.351107597351074219e+00 -2.570532083511352539e+00
4.470000000000000000e+02 7.527469635009765625e+01 -1.342614555358886719e+01 7.530933380126953125e+00 1.356849670410156250e+01 6.329829216003417969e+00 -6.865454465150833130e-02
4.480000000000000000e+02 7.805661773681640625e+01 4.645724773406982422e+00 -3.483356162905693054e-02 8.359920501708984375e+00 2.497526168823242188e+00 -4.424695968627929688e-01
4.490000000000000000e+02 7.933718109130859375e+01 8.531660079956054688e+00 -1.215416938066482544e-03 7.991194725036621094e+00 2.396993875503540039e+00 -1.800618171691894531e-01
4.500000000000000000e+02 7.228738403320312500e+01 1.718535804748535156e+01 3.097945451736450195e-01 4.684215068817138672e+00 1.498202919960021973e+00 -1.025625944137573242e+00
4.510000000000000000e+02 6.430901336669921875e+01 2.364499664306640625e+01 8.246093988418579102e-01 3.558759450912475586e+00 1.315010666847229004e+00 -4.374241530895233154e-01
4.520000000000000000e+02 5.670244979858398438e+01 2.866601753234863281e+01 7.365854978561401367e-01 3.756128311157226562e+00 1.347814083099365234e+00 2.988145053386688232e-01
4.530000000000000000e+02 4.788991928100585938e+01 3.859068298339843750e+01 -3.286136984825134277e-01 3.953854084014892578e+00 1.087572097778320312e+00 1.600277274847030640e-01
4.540000000000000000e+02 4.211432647705078125e+01 3.836808776855468750e+01 -4.143595397472381592e-01 3.121496915817260742e+00 8.121411800384521484e-01 -1.697382330894470215e-01
4.550000000000000000e+02 4.063284683227539062e+01 4.027186965942382812e+01 -2.912310957908630371e-01 2.402127027511596680e+00 6.332687735557556152e-01 -1.309208422899246216e-01
4.560000000000000000e+02 3.752073669433593750e+01 3.865591430664062500e+01 -3.409120813012123108e-02 1.170502066612243652e+00 3.409232795238494873e-01 -3.801308572292327881e-01
4.570000000000000000e+02 3.538814926147460938e+01 3.789699935913085938e+01 -8.230336010456085205e-03 4.292548894882202148e-01 1.263073682785034180e-01 -1.628117412328720093e-01
4.580000000000000000e+02 3.423904418945312500e+01 3.640556335449218750e+01 -3.018678724765777588e-01 -7.880088686943054199e-02 -1.142006292939186096e-01 1.127175018191337585e-01
4.590000000000000000e+02 3.091025543212890625e+01 3.863197326660156250e+01 -4.904482048004865646e-03 -4.818496480584144592e-02 -1.592683419585227966e-02 1.286101639270782471e-01
4.600000000000000000e+02 2.980655097961425781e+01 3.745734786987304688e+01 -1.421361565589904785e-01 -6.925806403160095215e-02 -6.341826915740966797e-02 7.659082859754562378e-02
4.610000000000000000e+02 2.264043807983398438e+01 3.757155990600585938e+01 -3.180300118401646614e-03 3.265864797867834568e-04 -8.561140857636928558e-04 4.033386707305908203e-03
4.620000000000000000e+02 1.981897354125976562e+01 4.008812332153320312e+01 -3.926972392946481705e-03 -3.021212527528405190e-03 -2.084455452859401703e-03 -2.130500506609678268e-03
4.630000000000000000e+02 1.240580654144287109e+01 4.133438110351562500e+01 -9.046322666108608246e-04 2.280750231875572354e-05 -2.645474451128393412e-04 -1.938019995577633381e-04
4.640000000000000000e+02 2.427948713302612305e+00 3.700625610351562500e+01 -1.649779733270406723e-04 2.947819884866476059e-04 3.894120527547784150e-05 -1.276928651350317523e-05
4.650000000000000000e+02 7.163514494895935059e-01 3.326612091064453125e+01 -2.231818361906334758e-04 1.974384213099256158e-04 -7.723022463324014097e-06 -6.587115058209747076e-05
4.660000000000000000e+02 2.059753179550170898e+00 3.049245643615722656e+01 3.025889163836836815e-04 8.789540152065455914e-05 1.171452895505353808e-04 -2.315872552571818233e-05
4.670000000000000000e+02 6.395133137702941895e-01 2.769232940673828125e+01 -2.944396983366459608e-04 8.566445103497244418e-06 -8.576197433285415173e-05 -3.251391171943396330e-05
4.680000000000000000e+02 1.884024500846862793e+00 2.637864875793457031e+01 -2.752196160145103931e-04 -1.255885194950678851e-06 -8.294264989672228694e-05 -4.574510967358946800e-05
4.690000000000000000e+02 1.305822753906250000e+01 1.621936607360839844e+01 2.678334421943873167e-04 -1.128654184867627919e-05 7.696407556068152189e-05 1.213875439134426415e-04
4.700000000000000000e+02 1.673574066162109375e+01 1.283459281921386719e+01 -2.294228470418602228e-04 -2.453813795000314713e-05 -7.618829840794205666e-05 -7.668377656955271959e-05
4.710000000000000000e+02 1.557005310058593750e+01 1.687639045715332031e+01 2.826364070642739534e-04 -4.520340553426649421e-06 8.343481749761849642e-05 5.249165042187087238e-05
4.720000000000000000e+02 1.632693099975585938e+01 1.417068290710449219e+01 2.533505030442029238e-04 1.413114205206511542e-05 8.024449198273941875e-05 7.617883966304361820e-05
4.730000000000000000e+02 1.522045516967773438e+01 2.251693916320800781e+01 3.387536853551864624e-04 -4.043584340251982212e-05 8.949535549618303776e-05 -8.202790013456251472e-06
4.740000000000000000e+02 1.582735633850097656e+01 2.675539779663085938e+01 -3.532213740982115269e-04 2.751409192569553852e-05 -9.771218174137175083e-05 1.268131745746359229e-04
4.750000000000000000e+02 1.630533027648925781e+01 2.812667846679687500e+01 5.138305714353919029e-04 1.025344899971969426e-04 1.849095133366063237e-04 -5.400665759225375950e-05
4.760000000000000000e+02 1.687721443176269531e+01 2.949854850769042969e+01 -2.119390555890277028e-04 1.304658944718539715e-04 -2.444194797135423869e-05 4.206733428873121738e-04
4.770000000000000000e+02 1.670246505737304688e+01 3.368272018432617188e+01 2.825831994414329529e-03 -3.897798305843025446e-04 7.308156345970928669e-04 3.315520880278199911e-04
4.780000000000000000e+02 1.933719444274902344e+01 3.301474380493164062e+01 1.123848138377070427e-03 1.676597283221781254e-03 8.401336381211876869e-04 8.878344669938087463e-04
4.790000000000000000e+02 2.144376373291015625e+01 3.503726577758789062e+01 5.238086916506290436e-03 9.683005046099424362e-04 1.861916156485676765e-03 1.510488800704479218e-03
4.800000000000000000e+02 1.999049568176269531e+01 3.691490936279296875e+01 -2.954280353151261806e-04 -1.721443724818527699e-03 -6.050615338608622551e-04 -1.802419894374907017e-03
4.810000000000000000e+02 7.799524688720703125e+01 1.165081882476806641e+01 1.838744990527629852e-02 6.780932426452636719e+00 2.039795875549316406e+00 -4.931740164756774902e-01
4.820000000000000000e+02 7.934610748291015625e+01 1.688741493225097656e+01 1.431817538104951382e-03 5.910261631011962891e+00 1.773508071899414062e+00 -1.312098056077957153e-01
4.830000000000000000e+02 7.267832946777343750e+01 2.493197059631347656e+01 2.445929348468780518e-01 4.395848751068115234e+00 1.392132520675659180e+00 -5.039370059967041016e-01
4.840000000000000000e+02 6.288940429687500000e+01 2.648188209533691406e+01 7.607681751251220703e-01 3.647978305816650391e+00 1.322623968124389648e+00 -1.883638650178909302e-01
4.850000000000000000e+02 5.153688812255859375e+01 3.819248199462890625e+01 -1.504814475774765015e-01 4.161307811737060547e+00 1.203247904777526855e+00 2.205201834440231323e-01
4.860000000000000000e+02 5.191140747070312500e+01 4.111911010742187500e+01 -2.280844151973724365e-01 4.164221286773681641e+00 1.180841088294982910e+00 4.337675869464874268e-02
4.870000000000000000e+02 7.803237152099609375e+01 1.996958732604980469e+01 2.936413697898387909e-02 5.262293338775634766e+00 1.587497115135192871e+00 -3.034135699272155762e-01
4.880000000000000000e+02 7.932128906250000000e+01 2.385043334960937500e+01 7.483406923711299896e-03 4.824649333953857422e+00 1.449639797210693359e+00 -7.438201457262039185e-02
4.890000000000000000e+02 7.332273101806640625e+01 3.183105087280273438e+01 1.221350580453872681e-01 4.275959014892578125e+00 1.319428205490112305e+00 -1.820916980504989624e-01
4.900000000000000000e+02 6.298222732543945312e+01 4.081164169311523438e+01 1.190034672617912292e-01 4.166673660278320312e+00 1.285703063011169434e+00 6.187873892486095428e-03
4.910000000000000000e+02 5.842777252197265625e+01 4.040680313110351562e+01 3.381777554750442505e-02 4.179972648620605469e+00 1.264137148857116699e+00 4.744533449411392212e-02
4.920000000000000000e+02 7.668262481689453125e+01 2.157365036010742188e+01 7.137933373451232910e-02 4.959905624389648438e+00 1.509385466575622559e+00 -4.106262922286987305e-01
4.930000000000000000e+02 7.934030914306640625e+01 2.937932777404785156e+01 8.043086156249046326e-03 4.387235641479492188e+00 1.318583607673645020e+00 -3.369322791695594788e-02
4.940000000000000000e+02 7.202702331542968750e+01 3.869434738159179688e+01 6.622869521379470825e-02 4.219721317291259766e+00 1.285785079002380371e+00 -4.924724996089935303e-02
4.950000000000000000e+02 6.416684722900390625e+01 3.734227752685546875e+01 1.777647435665130615e-01 4.132517337799072266e+00 1.293084621429443359e+00 -2.796574961394071579e-03
4.960000000000000000e+02 7.930564880371093750e+01 3.214567565917968750e+01 5.087626632302999496e-03 4.274273872375488281e+00 1.283808350563049316e+00 -2.318465150892734528e-02
4.970000000000000000e+02 7.891085815429687500e+01 3.887252426147460938e+01 -8.552253711968660355e-05 4.171383380889892578e+00 1.251389384269714355e+00 -3.438942832872271538e-03
4.980000000000000000e+02 2.040323495864868164e+00 4.164685440063476562e+01 -3.103269045823253691e-05 3.373861545696854591e-04 9.190604032482951880e-05 -1.399427583237411454e-05
4.990000000000000000e+02 6.154032945632934570e-01 2.066753578186035156e+01 2.282187197124585509e-04 -7.802064828865695745e-06 6.612499419134110212e-05 3.306657526991330087e-05
5.000000000000000000e+02 1.829824328422546387e+00 1.664182281494140625e+01 2.020139654632657766e-04 9.749588571139611304e-06 6.352906348183751106e-05 4.614192221197299659e-05
5.010000000000000000e+02 7.770436286926269531e+00 6.876160144805908203e+00 7.344568439293652773e-05 6.350733656290685758e-06 2.393892646068707108e-05 -1.140123422374017537e-04
5.020000000000000000e+02 1.932334709167480469e+01 6.416264057159423828e+00 1.831777044571936131e-04 2.120925819326657802e-05 6.131608824944123626e-05 5.420347224571742117e-05
5.030000000000000000e+02 1.718107604980468750e+01 1.150986766815185547e+01 2.072034258162602782e-04 2.486376070010010153e-05 6.962015322642400861e-05 7.284982712008059025e-05
5.040000000000000000e+02 6.034445166587829590e-01 1.503726482391357422e+01 1.963904942385852337e-04 3.387994865988730453e-06 5.993354352540336549e-05 3.873816240229643881e-05
5.050000000000000000e+02 1.791066408157348633e+00 9.700433731079101562e+00 -1.575561036588624120e-04 -9.819214028539136052e-06 -5.021259494242258370e-05 -3.783711508731357753e-05
5.060000000000000000e+02 9.740896224975585938e+00 1.850833177566528320e+00 -3.349058897583745420e-05 -2.636913268361240625e-05 -1.795791649783495814e-05 7.961552910273894668e-07
5.070000000000000000e+02 1.129949760437011719e+01 1.684183239936828613e+00 -3.325446596136316657e-05 -3.394743544049561024e-05 -2.016056896536611021e-05 6.641517757088877261e-06
5.080000000000000000e+02 1.428169345855712891e+01 1.210856437683105469e+00 -1.151438755186973140e-05 -6.680079968646168709e-05 -2.349455462535843253e-05 -1.007993159873876721e-05
5.090000000000000000e+02 1.775370979309082031e+01 1.895984411239624023e+00 -5.610262815025635064e-05 -4.680408164858818054e-05 -3.087201184825971723e-05 -5.512154530151747167e-05
5.100000000000000000e+02 1.710103797912597656e+01 1.013447046279907227e+00 -3.135155566269531846e-05 -3.984153590863570571e-05 -2.135792783519718796e-05 -4.331247328082099557e-05
5.110000000000000000e+02 2.024373626708984375e+01 1.101300239562988281e+00 -5.113386578159406781e-05 -2.983964577651931904e-06 -1.623534990358166397e-05 1.534859620733186603e-05
5.120000000000000000e+02 2.229456901550292969e+01 1.603367567062377930e+00 3.358950925758108497e-05 4.040341809741221368e-05 2.219787893409375101e-05 2.132840927515644580e-05
5.130000000000000000e+02 3.116209983825683594e+00 3.564153194427490234e+00 8.382773557968903333e-06 -5.526266249944455922e-05 -1.406396677339216694e-05 -3.016831726654345402e-07
5.140000000000000000e+02 6.969958543777465820e-01 6.508536338806152344e+00 1.088508070097304881e-04 -2.432872634017257951e-06 3.192538133589550853e-05 7.702014954702463001e-06
5.150000000000000000e+02 5.816842555999755859e+00 2.602627515792846680e+00 -5.358941780286841094e-05 -7.003597147559048608e-06 -1.817790507629979402e-05 -4.605993581208167598e-06
5.160000000000000000e+02 2.383834075927734375e+01 3.650004577636718750e+01 2.643613144755363464e-03 2.101751044392585754e-03 1.423609326593577862e-03 3.051191801205277443e-03
5.170000000000000000e+02 3.544390487670898438e+01 3.568877410888671875e+01 -3.252599239349365234e-01 5.933630838990211487e-02 -7.977708429098129272e-02 1.469808518886566162e-01
5.180000000000000000e+02 3.814345932006835938e+01 3.644817352294921875e+01 -7.857871800661087036e-02 1.340129137039184570e+00 3.784651160240173340e-01 -5.696346759796142578e-01
5.190000000000000000e+02 4.153327560424804688e+01 3.283787155151367188e+01 1.488319486379623413e-01 3.641237020492553711e+00 1.137020707130432129e+00 -5.608029961585998535e-01
5.200000000000000000e+02 4.145132446289062500e+01 1.517127418518066406e+01 3.578909039497375488e-01 1.005370807647705078e+01 3.123479604721069336e+00 1.385504722595214844e+00
5.210000000000000000e+02 4.219976425170898438e+01 1.223536777496337891e+01 1.142709016799926758e+00 9.872530937194824219e+00 3.304572105407714844e+00 2.792910814285278320e+00
5.220000000000000000e+02 4.762658309936523438e+01 1.069468975067138672e+01 2.030549764633178711e+00 3.245474100112915039e+00 1.582807183265686035e+00 1.920055031776428223e+00
5.230000000000000000e+02 4.009709930419921875e+01 8.117217063903808594e+00 1.932766318321228027e+00 1.476768398284912109e+01 5.010135173797607422e+00 4.751679420471191406e+00
5.240000000000000000e+02 3.962311553955078125e+01 6.735897541046142578e+00 2.217730522155761719e+00 1.444564723968505859e+01 4.999013423919677734e+00 5.349934577941894531e+00
5.250000000000000000e+02 3.828671264648437500e+01 4.131470203399658203e+00 2.092454910278320312e+00 1.018994522094726562e+01 3.684720039367675781e+00 4.542069911956787109e+00
5.260000000000000000e+02 3.336439132690429688e+01 -1.785145878791809082e+00 -2.061703681945800781e+00 -7.345633953809738159e-02 -6.405479907989501953e-01 -6.778670549392700195e-01
5.270000000000000000e+02 4.077051162719726562e+01 -5.089584350585937500e+00 6.839286088943481445e-01 1.339923477172851562e+01 4.224948883056640625e+00 2.174293041229248047e+00
5.280000000000000000e+02 3.294975662231445312e+01 -8.345108628273010254e-01 -3.786330223083496094e+00 -1.031862497329711914e+00 -1.445457816123962402e+00 -1.823215246200561523e+00
5.290000000000000000e+02 3.202388381958007812e+01 -2.441932916641235352e+00 -1.833187341690063477e+00 -6.744049787521362305e-01 -7.522776722908020020e-01 -9.091560244560241699e-01
5.300000000000000000e+02 2.654268455505371094e+01 -3.073794364929199219e+00 -1.079416036605834961e+00 -2.279977202415466309e-01 -3.922241032123565674e-01 -4.676575362682342529e-01
5.310000000000000000e+02 2.387187194824218750e+01 -3.129496097564697266e+00 -5.969445109367370605e-01 2.672625519335269928e-02 -1.710654795169830322e-01 -1.628713458776473999e-01
5.320000000000000000e+02 2.365229606628417969e+01 -2.202522277832031250e+00 -6.197696924209594727e-01 5.370681360363960266e-02 -1.698188632726669312e-01 -6.207468360662460327e-02
5.330000000000000000e+02 2.452257728576660156e+01 -2.021292448043823242e+00 -6.979331374168395996e-01 5.284728482365608215e-02 -1.935257613658905029e-01 -6.609648466110229492e-02
5.340000000000000000e+02 2.127051544189453125e+01 -3.374324321746826172e+00 -4.157806336879730225e-01 -4.228432476520538330e-02 -1.374194920063018799e-01 -2.723079733550548553e-02
5.350000000000000000e+02 2.152772140502929688e+01 -1.375374412536621094e+01 5.785760879516601562e-01 -2.575553655624389648e-01 9.630621969699859619e-02 2.328029721975326538e-01
5.360000000000000000e+02 2.454988479614257812e+01 -1.861901855468750000e+01 1.114187091588973999e-01 -6.574503611773252487e-03 3.145326301455497742e-02 7.448380440473556519e-02
5.370000000000000000e+02 2.576673698425292969e+01 -1.752587318420410156e+01 -9.145058691501617432e-02 -1.577878929674625397e-02 -3.216881304979324341e-02 2.634582817554473877e-01
5.380000000000000000e+02 3.031653976440429688e+01 -1.692118072509765625e+01 -1.622816205024719238e+00 -3.531196117401123047e-01 -5.927807092666625977e-01 7.448477745056152344e-01
5.390000000000000000e+02 3.255131912231445312e+01 -1.780955696105957031e+01 -3.191718101501464844e+00 -3.250003457069396973e-01 -1.055015563964843750e+00 1.040087223052978516e+00
5.400000000000000000e+02 3.556305313110351562e+01 -2.197549057006835938e+01 1.936361491680145264e-01 9.008180618286132812e+00 2.760545015335083008e+00 5.788863897323608398e-01
5.410000000000000000e+02 3.513608932495117188e+01 -1.976599311828613281e+01 -4.300492107868194580e-01 6.094092369079589844e+00 1.699213027954101562e+00 1.211126744747161865e-01
5.420000000000000000e+02 3.625564575195312500e+01 -2.078115272521972656e+01 2.011122107505798340e-01 7.772913932800292969e+00 2.392207860946655273e+00 9.379197955131530762e-01
5.430000000000000000e+02 3.536055374145507812e+01 -2.321729087829589844e+01 2.342786788940429688e-01 1.033848476409912109e+01 3.171829223632812500e+00 9.646748900413513184e-01
5.440000000000000000e+02 4.532713317871093750e+01 -2.095613670349121094e+01 6.366478800773620605e-01 1.375926136970520020e+00 6.037722229957580566e-01 -9.611120820045471191e-01
5.450000000000000000e+02 2.109712409973144531e+01 -2.631288766860961914e+00 -4.921138584613800049e-01 -1.371838990598917007e-02 -1.517496854066848755e-01 -2.118832804262638092e-02
5.460000000000000000e+02 1.683549499511718750e+01 -1.745860671997070312e+01 5.937732458114624023e-01 4.929352924227714539e-02 1.929200440645217896e-01 -1.875130683183670044e-01
5.470000000000000000e+02 3.481322097778320312e+01 -2.573129463195800781e+01 1.506422400474548340e+00 9.686684608459472656e+00 3.357932090759277344e+00 3.257878541946411133e+00
5.480000000000000000e+02 3.443931198120117188e+01 -2.695339393615722656e+01 1.763982772827148438e+00 7.209601879119873047e+00 2.692075490951538086e+00 3.021708965301513672e+00
5.490000000000000000e+02 3.206237792968750000e+01 -2.966185188293457031e+01 1.748933911323547363e+00 2.589540958404541016e+00 1.301542520523071289e+00 2.031231164932250977e+00
5.500000000000000000e+02 3.458847045898437500e+01 -2.860995292663574219e+01 1.315938472747802734e+00 5.936181068420410156e+00 2.175635814666748047e+00 1.985256075859069824e+00
5.510000000000000000e+02 3.565899658203125000e+01 -3.250454330444335938e+01 -6.669675111770629883e-01 4.531342983245849609e+00 1.159312605857849121e+00 5.115563869476318359e-01
5.520000000000000000e+02 5.990032196044921875e+00 -2.554310989379882812e+01 -1.031952500343322754e-01 1.681115925312042236e-01 1.947490312159061432e-02 2.771250903606414795e-01
5.530000000000000000e+02 6.573654174804687500e+01 -6.762588024139404297e+00 -4.962686449289321899e-03 7.988250851631164551e-01 2.381587177515029907e-01 -3.212535083293914795e-01
5.540000000000000000e+02 6.618498992919921875e+01 -8.153238296508789062e+00 1.476888954639434814e-01 5.289628505706787109e-01 2.029955238103866577e-01 -3.834220767021179199e-01
5.550000000000000000e+02 6.873855590820312500e+01 -1.236499404907226562e+01 4.836305677890777588e-01 1.134420782327651978e-01 1.791217923164367676e-01 6.306950002908706665e-02
5.560000000000000000e+02 5.248592376708984375e+01 -2.933633625507354736e-01 -4.686628341674804688e+00 4.965114872902631760e-03 -1.404499053955078125e+00 1.044293045997619629e+00
5.570000000000000000e+02 5.380183029174804688e+01 -5.931036472320556641e-01 -5.016302585601806641e+00 -3.143905848264694214e-02 -1.514322400093078613e+00 7.520484328269958496e-01
5.580000000000000000e+02 3.059568786621093750e+01 -2.904020071029663086e+00 -1.672962307929992676e+00 -6.810677647590637207e-01 -7.062090039253234863e-01 -1.017982721328735352e+00
5.590000000000000000e+02 2.900816345214843750e+01 -1.390467357635498047e+01 8.343790173530578613e-01 -3.339597284793853760e-01 1.501257866621017456e-01 8.278899788856506348e-01
5.600000000000000000e+02 4.020980072021484375e+01 -1.202289581298828125e+01 5.043699145317077637e-01 1.246324539184570312e+01 3.890284538269042969e+00 -3.164568841457366943e-01
5.610000000000000000e+02 4.020495986938476562e+01 -1.058471679687500000e+01 6.732565164566040039e-01 1.266374874114990234e+01 4.001101493835449219e+00 1.516785621643066406e-01
5.620000000000000000e+02 4.021981430053710938e+01 -1.357302188873291016e+01 5.900615453720092773e-01 1.163703250885009766e+01 3.668128252029418945e+00 -8.315288424491882324e-01
5.630000000000000000e+02 2.789070129394531250e+01 -1.459961605072021484e+01 4.370530247688293457e-01 -2.838141918182373047e-01 4.597164690494537354e-02 8.517340421676635742e-01
5.640000000000000000e+02 2.953231811523437500e+01 -1.768213272094726562e+01 -1.792312741279602051e+00 -1.086871102452278137e-01 -5.702999830245971680e-01 2.131895720958709717e-01
5.650000000000000000e+02 1.393502426147460938e+01 -1.429949760437011719e+01 9.732049703598022461e-01 2.114866971969604492e-01 3.554075062274932861e-01 1.956909298896789551e-01
5.660000000000000000e+02 2.399219894409179688e+01 -1.283905124664306641e+01 6.709001064300537109e-01 -3.931404650211334229e-01 8.332788199186325073e-02 3.691284954547882080e-01
5.670000000000000000e+02 5.565430450439453125e+01 3.212832510471343994e-01 -4.315093517303466797e+00 -1.625655442476272583e-01 -1.343297600746154785e+00 6.096459031105041504e-01
5.680000000000000000e+02 7.379058837890625000e+01 2.695233345031738281e+00 -4.052768647670745850e-01 6.647296905517578125e+00 1.872606039047241211e+00 -1.021855115890502930e+00
5.690000000000000000e+02 6.015131759643554688e+01 1.208658981323242188e+01 9.594312310218811035e-01 1.890312194824218750e+00 8.549230098724365234e-01 -9.575186371803283691e-01
5.700000000000000000e+02 6.722905731201171875e+01 1.307853507995605469e+01 5.329023003578186035e-01 3.566588878631591797e+00 1.229847311973571777e+00 -1.427057385444641113e+00
5.710000000000000000e+02 5.663305664062500000e+01 8.423281669616699219e+00 3.372478485107421875e-01 8.747576475143432617e-01 3.636016547679901123e-01 -6.787499785423278809e-01
5.720000000000000000e+02 5.547023010253906250e+01 7.806817531585693359e+00 1.257683336734771729e-01 6.981304287910461426e-01 2.471696287393569946e-01 -5.044475793838500977e-01
5.730000000000000000e+02 4.019674682617187500e+01 4.825243949890136719e+00 4.607868790626525879e-01 1.109513282775878906e+01 3.466775894165039062e+00 3.107773780822753906e+00
5.740000000000000000e+02 7.298792266845703125e+01 1.048940372467041016e+01 8.823637664318084717e-02 5.440287590026855469e+00 1.658557176589965820e+00 -1.298636436462402344e+00
5.750000000000000000e+02 5.317270660400390625e+01 1.902188491821289062e+01 1.593524098396301270e+00 3.092543363571166992e+00 1.405820250511169434e+00 6.934068799018859863e-01
5.760000000000000000e+02 4.693994903564453125e+01 1.871120452880859375e+01 1.146892905235290527e+00 5.140021324157714844e+00 1.886074185371398926e+00 1.433801412582397461e+00
5.770000000000000000e+02 4.650128555297851562e+01 1.744126319885253906e+01 1.248610496520996094e+00 5.327424526214599609e+00 1.972810506820678711e+00 1.662549138069152832e+00
5.780000000000000000e+02 7.269583129882812500e+01 1.884151840209960938e+01 2.887509167194366455e-01 4.664247035980224609e+00 1.485899448394775391e+00 -8.710649609565734863e-01
5.790000000000000000e+02 6.532228851318359375e+01 1.817127799987792969e+01 8.818580508232116699e-01 3.321050167083740234e+00 1.260872483253479004e+00 -9.201518297195434570e-01
5.800000000000000000e+02 4.760765838623046875e+01 2.347744941711425781e+01 7.894099950790405273e-01 4.810543060302734375e+00 1.679985880851745605e+00 7.349609732627868652e-01
5.810000000000000000e+02 4.861083602905273438e+01 2.656956863403320312e+01 7.322921156883239746e-01 4.434902191162109375e+00 1.550158381462097168e+00 5.769810080528259277e-01
5.820000000000000000e+02 6.563031005859375000e+01 2.803130149841308594e+01 5.323064923286437988e-01 3.889752149581909180e+00 1.326617598533630371e+00 -2.589181959629058838e-01
5.830000000000000000e+02 5.697094345092773438e+01 2.444771194458007812e+01 1.104086399078369141e+00 3.409844398498535156e+00 1.354179263114929199e+00 2.451959848403930664e-01
5.840000000000000000e+02 7.155141448974609375e+01 3.112870788574218750e+01 1.884198039770126343e-01 4.228213787078857422e+00 1.324990034103393555e+00 -2.271201759576797485e-01
5.850000000000000000e+02 5.572634887695312500e+01 3.107954406738281250e+01 5.167207121849060059e-01 3.924186944961547852e+00 1.332272291183471680e+00 3.318797945976257324e-01
5.860000000000000000e+02 4.954975128173828125e+01 3.034650230407714844e+01 4.450266063213348389e-01 4.197710514068603516e+00 1.392821192741394043e+00 5.016425251960754395e-01
5.870000000000000000e+02 1.201822185516357422e+01 2.898798370361328125e+01 -1.233996736118569970e-04 -3.249738365411758423e-04 -1.345120545011013746e-04 -3.966505173593759537e-04
5.880000000000000000e+02 1.323226070404052734e+01 2.720566177368164062e+01 -5.173264071345329285e-04 6.769795618311036378e-06 -1.531669695395976305e-04 -6.539757305290549994e-05
5.890000000000000000e+02 1.412362957000732422e+01 2.399784660339355469e+01 4.752415406983345747e-04 -3.941235627280548215e-05 1.307487546000629663e-04 7.641162937943590805e-07
5.900000000000000000e+02 1.814153289794921875e+01 3.783277130126953125e+01 1.245841151103377342e-03 1.553516049170866609e-04 4.203578282613307238e-04 -1.162635628134012222e-03
5.910000000000000000e+02 1.020558547973632812e+01 3.423913955688476562e+01 8.859449881128966808e-04 -1.779922022251412272e-04 2.123858430422842503e-04 -2.051323244813829660e-04
5.920000000000000000e+02 1.286765289306640625e+01 2.248880767822265625e+01 4.788429068867117167e-04 -4.059321872773580253e-05 1.314749097218737006e-04 6.350385228870436549e-05
5.930000000000000000e+02 1.436315345764160156e+01 1.659936141967773438e+01 -2.967382024507969618e-04 5.876394880033330992e-06 -8.725854422664269805e-05 -6.644627137575298548e-05
5.940000000000000000e+02 1.278669357299804688e+01 1.038798236846923828e+01 1.508338027633726597e-04 3.051681233046110719e-05 5.440518361865542829e-05 3.374537755007622764e-06
5.950000000000000000e+02 9.467563629150390625e+00 -1.916000247001647949e+00 -3.882910609245300293e-01 4.408551007509231567e-02 -1.032616645097732544e-01 -6.061478331685066223e-02
5.960000000000000000e+02 8.657130241394042969e+00 -1.906599164009094238e+00 -3.539741635322570801e-01 4.047936201095581055e-02 -9.404844045639038086e-02 -7.574752718210220337e-02
5.970000000000000000e+02 7.836548328399658203e+00 -1.908554315567016602e+00 -3.122713565826416016e-01 2.514319308102130890e-02 -8.613844960927963257e-02 -9.629245102405548096e-02
5.980000000000000000e+02 6.184303760528564453e+00 -1.931471347808837891e+00 -2.325813919305801392e-01 5.979234818369150162e-03 -6.798064708709716797e-02 -1.218000128865242004e-01
5.990000000000000000e+02 4.533294200897216797e+00 -1.966724157333374023e+00 -1.508310586214065552e-01 -1.268395874649286270e-02 -4.905450716614723206e-02 -1.193922683596611023e-01
6.000000000000000000e+02 2.884025335311889648e+00 -2.026698827743530273e+00 -7.434422522783279419e-02 -3.638908267021179199e-02 -3.321999311447143555e-02 -8.984348177909851074e-02
6.010000000000000000e+02 2.919454574584960938e+00 -3.058611631393432617e+00 -7.382528483867645264e-02 -6.508605927228927612e-02 -4.167339950799942017e-02 -1.347237676382064819e-01
6.020000000000000000e+02 2.055626869201660156e+00 -2.078488588333129883e+00 -4.281161725521087646e-02 -4.308436810970306396e-02 -2.576879411935806274e-02 -6.467975676059722900e-02
6.030000000000000000e+02 1.230255484580993652e+00 -2.135824203491210938e+00 -1.821894757449626923e-02 -4.429718479514122009e-02 -1.875483989715576172e-02 -3.757768869400024414e-02
6.040000000000000000e+02 4.092239737510681152e-01 -2.185108661651611328e+00 -3.917352762073278427e-03 -2.250713109970092773e-02 -7.927345111966133118e-03 -1.155481487512588501e-02
6.050000000000000000e+02 2.102791547775268555e+00 -4.160636520385742188e+01 7.608252763748168945e-02 7.112604975700378418e-01 2.362029105424880981e-01 -2.153319306671619415e-02
6.060000000000000000e+02 5.670657634735107422e+00 -3.723371505737304688e+01 2.758745849132537842e-02 1.626719087362289429e-01 5.707781016826629639e-02 -4.579214844852685928e-03
6.070000000000000000e+02 1.124952197074890137e+00 -3.858048248291015625e+01 -8.397513069212436676e-03 8.129922151565551758e-01 2.413784116506576538e-01 -6.059142202138900757e-02
6.080000000000000000e+02 6.059717535972595215e-01 -3.462473297119140625e+01 2.843763912096619606e-03 1.067263722419738770e+00 3.210322558879852295e-01 -2.146216668188571930e-02
6.090000000000000000e+02 6.509061455726623535e-01 -3.326552963256835938e+01 -1.424812339246273041e-02 1.105615615844726562e+00 3.274102210998535156e-01 -1.003867108374834061e-02
6.100000000000000000e+02 5.088966846466064453e+00 -3.075007438659667969e+01 -3.673833608627319336e-01 1.359400898218154907e-01 -6.943298131227493286e-02 1.722389459609985352e-01
6.110000000000000000e+02 1.987414956092834473e+00 -2.701414680480957031e+01 -1.103706955909729004e-01 3.587704300880432129e-01 7.451991736888885498e-02 4.714550673961639404e-01
6.120000000000000000e+02 5.999180078506469727e-01 -2.605640983581542969e+01 1.322064269334077835e-02 2.188680619001388550e-01 6.962661445140838623e-02 2.108521461486816406e-01
6.130000000000000000e+02 5.726822853088378906e+00 -2.429180335998535156e+01 4.844238609075546265e-02 8.889956474304199219e-01 2.812314033508300781e-01 3.561597764492034912e-01
6.140000000000000000e+02 1.643147230148315430e+00 -2.171696281433105469e+01 8.956945687532424927e-02 -6.862478256225585938e-01 -1.790035218000411987e-01 4.073466658592224121e-01
6.150000000000000000e+02 6.914111614227294922e+00 -1.958285903930664062e+01 6.086936593055725098e-01 2.346340656280517578e+00 8.865103125572204590e-01 1.004992723464965820e+00
6.160000000000000000e+02 5.446528196334838867e-01 -2.190496253967285156e+01 3.693670779466629028e-02 -1.250185728073120117e+00 -3.639747202396392822e-01 1.547244042158126831e-01
6.170000000000000000e+02 6.194090843200683594e-01 -1.629650115966796875e+01 3.288345783948898315e-02 -1.743748068809509277e+00 -5.132593512535095215e-01 -4.827337712049484253e-02
6.180000000000000000e+02 6.287192702293395996e-01 -1.487053585052490234e+01 1.993959303945302963e-03 -1.587274432182312012e+00 -4.755841493606567383e-01 -9.052653610706329346e-02
6.190000000000000000e+02 6.391308307647705078e-01 -1.344351005554199219e+01 4.443788435310125351e-03 -1.377146363258361816e+00 -4.118107557296752930e-01 -9.720586985349655151e-02
6.200000000000000000e+02 1.922214746475219727e+00 -1.329877567291259766e+01 1.148083154112100601e-02 -8.780866861343383789e-01 -2.599817514419555664e-01 -2.525450289249420166e-01
6.210000000000000000e+02 5.718417763710021973e-01 -9.178930282592773438e+00 -6.153799127787351608e-03 -7.115244865417480469e-01 -2.153034955263137817e-01 -8.581256121397018433e-02
6.220000000000000000e+02 5.494080185890197754e-01 -7.766502857208251953e+00 -6.190476473420858383e-03 -5.098412632942199707e-01 -1.548095196485519409e-01 -6.986055523157119751e-02
6.230000000000000000e+02 3.738971471786499023e+00 -2.968303203582763672e+00 -1.093948334455490112e-01 -4.164511337876319885e-02 -4.531198367476463318e-02 -1.507864892482757568e-01
6.240000000000000000e+02 3.776740312576293945e+00 -3.956493854522705078e+00 -9.692724794149398804e-02 -6.549995392560958862e-02 -4.872816056013107300e-02 -1.868881285190582275e-01
6.250000000000000000e+02 7.249408721923828125e+01 -3.786504745483398438e+01 1.648948788642883301e-01 6.693341255187988281e+00 2.057470798492431641e+00 4.565196037292480469e-01
6.260000000000000000e+02 3.688549041748046875e+01 -3.844575881958007812e+01 -1.200185060501098633e+00 3.496365547180175781e+00 6.888541579246520996e-01 1.143212094902992249e-01
6.270000000000000000e+02 1.240077304840087891e+01 -4.135998916625976562e+01 6.822041422128677368e-02 -2.793803513050079346e-01 -6.334798038005828857e-02 2.141092717647552490e-02
6.280000000000000000e+02 7.861308288574218750e+01 4.023657989501953125e+01 4.542062059044837952e-03 4.169915676116943359e+00 1.252337336540222168e+00 -5.556430551223456860e-04
6.290000000000000000e+02 7.806803131103515625e+01 4.173495101928710938e+01 -1.502172672189772129e-03 4.170160770416259766e+00 1.250597596168518066e+00 4.265297320671379566e-04
6.300000000000000000e+02 7.738677978515625000e+01 3.651135253906250000e+01 1.440626662224531174e-02 4.219242095947265625e+00 1.270094633102416992e+00 -3.345188871026039124e-02
6.310000000000000000e+02 7.920103454589843750e+01 3.493467712402343750e+01 3.287127707153558731e-03 4.207137584686279297e+00 1.263127446174621582e+00 -1.378252822905778885e-02
6.320000000000000000e+02 7.776437377929687500e+01 3.366704559326171875e+01 1.550007332116365433e-02 4.267040729522705078e+00 1.284762263298034668e+00 -5.527415126562118530e-02
6.330000000000000000e+02 7.925891113281250000e+01 3.353973007202148438e+01 6.475781556218862534e-04 4.234982490539550781e+00 1.270689010620117188e+00 -1.699305698275566101e-02
6.340000000000000000e+02 7.933470916748046875e+01 3.075913047790527344e+01 -1.841611810959875584e-03 4.324126720428466797e+00 1.296685457229614258e+00 -2.550605684518814087e-02
6.350000000000000000e+02 7.798072052001953125e+01 2.825516319274902344e+01 2.123231813311576843e-02 4.467004776000976562e+00 1.346471190452575684e+00 -1.158845573663711548e-01
6.360000000000000000e+02 7.933957672119140625e+01 2.662031745910644531e+01 5.944507196545600891e-03 4.564155101776123047e+00 1.371029853820800781e+00 -5.008365213871002197e-02
6.370000000000000000e+02 7.649794769287109375e+01 2.452055358886718750e+01 6.975299119949340820e-02 4.687596321105957031e+00 1.427204847335815430e+00 -3.186583518981933594e-01
6.380000000000000000e+02 7.933341979980468750e+01 2.523736572265625000e+01 4.732307046651840210e-03 4.683016777038574219e+00 1.406324744224548340e+00 -6.115874648094177246e-02
6.390000000000000000e+02 7.933119964599609375e+01 2.106349372863769531e+01 7.875625975430011749e-03 5.176904678344726562e+00 1.555433988571166992e+00 -9.713766723871231079e-02
6.400000000000000000e+02 7.934096527099609375e+01 1.967054367065429688e+01 2.964746439829468727e-03 5.392842292785644531e+00 1.618742108345031738e+00 -1.074004620313644409e-01
6.410000000000000000e+02 7.934607696533203125e+01 1.827893257141113281e+01 9.162540547549724579e-03 5.638875961303710938e+00 1.694411635398864746e+00 -1.217578202486038208e-01
6.420000000000000000e+02 7.933878326416015625e+01 1.411138725280761719e+01 2.649292815476655960e-03 6.527831554412841797e+00 1.959144234657287598e+00 -1.558086425065994263e-01
6.430000000000000000e+02 7.933512115478515625e+01 1.271718120574951172e+01 5.657898262143135071e-03 6.869095802307128906e+00 2.062426090240478516e+00 -1.652309149503707886e-01
6.440000000000000000e+02 7.933335876464843750e+01 1.132224559783935547e+01 3.588432911783456802e-03 7.229864597320556641e+00 2.170035839080810547e+00 -1.746152043342590332e-01
6.450000000000000000e+02 7.934156799316406250e+01 7.136978149414062500e+00 -3.024531761184334755e-03 8.375765800476074219e+00 2.511822462081909180e+00 -1.751285344362258911e-01
6.460000000000000000e+02 7.934547424316406250e+01 5.740435600280761719e+00 -6.213453598320484161e-03 8.748899459838867188e+00 2.622805833816528320e+00 -1.649233549833297729e-01
6.470000000000000000e+02 7.935079193115234375e+01 4.345431804656982422e+00 -5.806204397231340408e-03 9.104299545288085938e+00 2.729548215866088867e+00 -1.522775590419769287e-01
6.480000000000000000e+02 7.937545776367187500e+01 1.613048613071441650e-01 -3.243128582835197449e-02 9.883397102355957031e+00 2.955289602279663086e+00 -4.605805501341819763e-02
6.490000000000000000e+02 7.938422393798828125e+01 -1.238667964935302734e+00 -1.750823855400085449e-02 9.961087226867675781e+00 2.983073711395263672e+00 6.673406343907117844e-03
6.500000000000000000e+02 7.824015808105468750e+01 -3.754951715469360352e+00 -2.125226557254791260e-01 9.186557769775390625e+00 2.692210435867309570e+00 3.760469257831573486e-01
6.510000000000000000e+02 7.941633605957031250e+01 -4.026687622070312500e+00 -3.371029719710350037e-02 9.625083923339843750e+00 2.877412080764770508e+00 1.754378080368041992e-01
6.520000000000000000e+02 7.946147918701171875e+01 -8.187318801879882812e+00 -7.876071333885192871e-02 6.675774097442626953e+00 1.979104042053222656e+00 6.588161587715148926e-01
6.530000000000000000e+02 7.946233367919921875e+01 -9.578344345092773438e+00 -1.557377446442842484e-02 4.829049110412597656e+00 1.444042682647705078e+00 7.672242522239685059e-01
6.540000000000000000e+02 7.563426971435546875e+01 -1.184464645385742188e+01 2.655864477157592773e+00 1.276133060455322266e+01 4.625158309936523438e+00 2.534560680389404297e+00
6.550000000000000000e+02 7.946322631835937500e+01 -1.096186733245849609e+01 -1.393654569983482361e-02 2.794508457183837891e+00 8.341715931892395020e-01 8.089329004287719727e-01
6.560000000000000000e+02 7.610211944580078125e+01 -1.521589660644531250e+01 2.312207937240600586e+00 1.146636676788330078e+01 4.133572578430175781e+00 -3.180787563323974609e+00
6.570000000000000000e+02 7.946616363525390625e+01 -1.654776763916015625e+01 8.074708282947540283e-02 4.395938873291015625e+00 1.343005776405334473e+00 -9.403671026229858398e-01
6.580000000000000000e+02 7.948974609375000000e+01 -1.796737670898437500e+01 -8.013009279966354370e-02 6.758445739746093750e+00 2.003494739532470703e+00 -8.764033317565917969e-01
6.590000000000000000e+02 7.628170013427734375e+01 -1.642796707153320312e+01 3.201510906219482422e-01 1.157683181762695312e+01 3.569094896316528320e+00 -3.473896980285644531e+00
6.600000000000000000e+02 7.945264434814453125e+01 -2.360723876953125000e+01 -2.082779631018638611e-02 1.189599704742431641e+01 3.562550783157348633e+00 -2.865681946277618408e-01
6.610000000000000000e+02 7.828789520263671875e+01 -2.481164741516113281e+01 -1.091499626636505127e-01 1.135937881469726562e+01 3.375068664550781250e+00 -5.247363448143005371e-01
6.620000000000000000e+02 7.942660522460937500e+01 -2.499650192260742188e+01 -2.428442426025867462e-02 1.236761093139648438e+01 3.702998161315917969e+00 -2.269837111234664917e-01
6.630000000000000000e+02 7.936237335205078125e+01 -2.916717529296875000e+01 -1.754220575094223022e-02 1.305526542663574219e+01 3.911316871643066406e+00 -9.405960142612457275e-02
6.640000000000000000e+02 7.800959777832031250e+01 -3.178585815429687500e+01 -2.621258236467838287e-02 1.176454734802246094e+01 3.521500587463378906e+00 7.423453498631715775e-03
6.650000000000000000e+02 7.933744812011718750e+01 -3.195996856689453125e+01 8.151913061738014221e-03 1.307690906524658203e+01 3.925518512725830078e+00 -2.334249950945377350e-02
6.660000000000000000e+02 7.933972167968750000e+01 -3.610134124755859375e+01 5.287424102425575256e-02 1.269612407684326172e+01 3.824699401855468750e+00 5.607284978032112122e-02
6.670000000000000000e+02 7.930030822753906250e+01 -3.743867874145507812e+01 -1.257514357566833496e-01 1.239504241943359375e+01 3.680787324905395508e+00 1.734373867511749268e-01
6.680000000000000000e+02 7.913379669189453125e+01 -3.874191665649414062e+01 5.574443563818931580e-02 1.202151870727539062e+01 3.623178958892822266e+00 1.853139549493789673e-01
6.690000000000000000e+02 7.876644897460937500e+01 -4.006695938110351562e+01 -1.612658798694610596e-01 1.160056018829345703e+01 3.431788206100463867e+00 3.310190737247467041e-01
6.700000000000000000e+02 8.811358451843261719e+00 3.903458404541015625e+01 -3.004432946909219027e-04 -2.309181290911510587e-04 -1.594084315001964569e-04 -4.209478502161800861e-04
6.710000000000000000e+02 2.557447052001953125e+01 3.848107910156250000e+01 -1.359980367124080658e-02 -8.266115561127662659e-03 -6.559775676578283310e-03 1.957984641194343567e-02
6.720000000000000000e+02 4.763541793823242188e+01 4.124723434448242188e+01 -4.186596572399139404e-01 3.950905323028564453e+00 1.059673666954040527e+00 5.577166378498077393e-02
6.730000000000000000e+02 3.989284634590148926e-01 2.178523540496826172e+00 -5.316502574714832008e-05 -1.011432323139160872e-05 -1.898380469356197864e-05 1.763618274708278477e-05
6.740000000000000000e+02 3.580302476882934570e+00 2.656728744506835938e+00 5.073688225820660591e-05 -1.434507612430024892e-05 1.091754165827296674e-05 1.976888779608998448e-05
6.750000000000000000e+02 5.055247783660888672e+00 2.601282596588134766e+00 5.939013863098807633e-05 4.705528340309683699e-07 1.795820753613952547e-05 5.497779511642875150e-06
6.760000000000000000e+02 5.994343757629394531e-01 9.406966209411621094e+00 1.542652171337977052e-04 5.119681190990377218e-06 4.781547249876894057e-05 3.169166302541270852e-05
6.770000000000000000e+02 5.932523012161254883e-01 1.222235965728759766e+01 1.793301489669829607e-04 6.319265594356693327e-06 5.569482163991779089e-05 3.737074803211726248e-05
6.780000000000000000e+02 1.779882788658142090e+00 1.246433353424072266e+01 -1.780342863639816642e-04 -1.322447405982529745e-05 -5.737762694479897618e-05 -3.827409818768501282e-05
6.790000000000000000e+02 6.089147329330444336e-01 1.644463539123535156e+01 -2.029308670898899436e-04 -1.661878195591270924e-05 -6.586489325854927301e-05 -3.608600673032924533e-05
6.800000000000000000e+02 6.117918491363525391e-01 1.785228157043457031e+01 2.094452356686815619e-04 -1.647253498049394693e-06 6.233939348021522164e-05 3.704936534631997347e-05
6.810000000000000000e+02 6.172778010368347168e-01 2.207378768920898438e+01 -2.404962433502078056e-04 -2.499279071344062686e-05 -7.964670658111572266e-05 -2.949050212919246405e-05
6.820000000000000000e+02 6.199132800102233887e-01 2.347896766662597656e+01 2.560120192356407642e-04 -1.031599276757333428e-05 7.370880484813824296e-05 2.693861097213812172e-05
6.830000000000000000e+02 1.858020186424255371e+00 2.360985565185546875e+01 -2.511746133677661419e-04 -1.968854121514596045e-05 -8.125894964905455709e-05 -3.396469764993526042e-05
6.840000000000000000e+02 6.232747435569763184e-01 2.488407897949218750e+01 -2.690363035071641207e-04 -1.957491986104287207e-05 -8.658337173983454704e-05 -2.840803063008934259e-05
6.850000000000000000e+02 6.564882993698120117e-01 2.909410667419433594e+01 3.075941931456327438e-04 4.775165871251374483e-05 1.066037584678269923e-04 3.670633986985194497e-06
6.860000000000000000e+02 6.744461059570312500e-01 3.048980331420898438e+01 -3.023641183972358704e-04 7.906268729129806161e-05 -6.699043296976014972e-05 -3.989901961176656187e-05
6.870000000000000000e+02 3.196851491928100586e+00 2.778851890563964844e+01 -2.807128475978970528e-04 1.320397586823673919e-05 -8.025266288314014673e-05 -8.059073297772556543e-05
6.880000000000000000e+02 6.905670762062072754e-01 3.187876892089843750e+01 2.848608710337430239e-04 1.303360768361017108e-04 1.245590829057618976e-04 -3.995542556367581710e-06
6.890000000000000000e+02 7.867737412452697754e-01 3.601025390625000000e+01 -1.270190114155411720e-04 2.744255180004984140e-04 4.422194979269988835e-05 -1.073413750418694690e-05
6.900000000000000000e+02 8.455940485000610352e-01 3.736970138549804688e+01 1.311409287154674530e-04 3.332251217216253281e-04 1.393098209518939257e-04 -4.248019831720739603e-05
6.910000000000000000e+02 1.013848066329956055e+00 3.871540069580078125e+01 -1.440641644876450300e-04 3.392698417883366346e-04 5.856170537299476564e-05 1.170688119600526989e-05
6.920000000000000000e+02 1.361410021781921387e+00 4.008789443969726562e+01 8.738368342164903879e-05 3.337862726766616106e-04 1.263509911950677633e-04 6.701283837173832580e-06
6.930000000000000000e+02 1.052519321441650391e+01 1.790878295898437500e+00 3.254085095250047743e-05 3.036367161257658154e-05 1.887135658762417734e-05 -4.032168362755328417e-06
6.940000000000000000e+02 8.952036857604980469e+00 1.863747119903564453e+00 3.226210901630111039e-05 2.382545244472566992e-05 1.682626862020697445e-05 -1.025034180202055722e-06
6.950000000000000000e+02 8.964167594909667969e+00 2.594653367996215820e+00 -4.442699355422519147e-05 -2.186606252507772297e-05 -1.988791700568981469e-05 1.765568981682008598e-06
6.960000000000000000e+02 8.168169975280761719e+00 1.869359493255615234e+00 -3.304157144157215953e-05 -2.060756378341466188e-05 -1.609474020369816571e-05 6.718594818266865332e-07
6.970000000000000000e+02 5.829205513000488281e+00 1.866428375244140625e+00 3.932796607841737568e-05 1.226318636327050626e-05 1.547734609630424529e-05 5.802916348329745233e-06
6.980000000000000000e+02 5.055444717407226562e+00 1.866033315658569336e+00 -4.166251528658904135e-05 -8.551330211048480123e-06 -1.506415355834178627e-05 -9.915062946674879640e-06
6.990000000000000000e+02 4.286208629608154297e+00 1.871130585670471191e+00 3.999545151600614190e-05 6.104993644839851186e-06 1.383013295708224177e-05 1.478156536904862151e-05
7.000000000000000000e+02 3.517332315444946289e+00 1.890546679496765137e+00 -2.898262937378603965e-05 -5.998772849125089124e-06 -1.049442107614595443e-05 -1.619960130483377725e-05
7.010000000000000000e+02 2.748138904571533203e+00 1.939075469970703125e+00 1.247886848432244733e-05 1.005698868539184332e-05 6.760757059964817017e-06 1.266233539354288951e-05
7.020000000000000000e+02 1.192889690399169922e+00 2.108264923095703125e+00 9.592828973836731166e-06 2.217221845057792962e-05 9.529513590678106993e-06 -1.931998667714651674e-05
7.030000000000000000e+02 1.283043384552001953e+01 1.443304300308227539e+00 -2.434358975733630359e-05 -4.894605081062763929e-05 -2.198689253418706357e-05 1.075223917723633349e-05
7.040000000000000000e+02 1.356671237945556641e+01 1.320982217788696289e+00 1.617460475245025009e-05 6.155629671411588788e-05 2.331927134946454316e-05 -4.334708137321285903e-06
7.050000000000000000e+02 1.499316883087158203e+01 1.118819117546081543e+00 1.353112838842207566e-05 6.627719267271459103e-05 2.394249713688623160e-05 2.494586806278675795e-05
7.060000000000000000e+02 1.569998073577880859e+01 1.051440715789794922e+00 -1.975351915461942554e-05 -5.966179378447122872e-05 -2.382459388172719628e-05 -3.714667764143086970e-05
7.070000000000000000e+02 1.639967155456542969e+01 1.018236279487609863e+00 2.414420305285602808e-05 5.194628829485736787e-05 2.282714740431401879e-05 4.290035212761722505e-05
7.080000000000000000e+02 1.781450080871582031e+01 1.017620325088500977e+00 4.454898589756339788e-05 2.331397445232141763e-05 2.035888792306650430e-05 3.887749335262924433e-05
7.090000000000000000e+02 1.989401817321777344e+01 5.211813926696777344e+00 -1.743065658956766129e-04 -1.640967639104928821e-05 -5.721487104892730713e-05 -4.394160350784659386e-05
7.100000000000000000e+02 2.051415061950683594e+01 2.968195915222167969e+00 -1.210602131322957575e-04 2.413444417470600456e-05 -2.907773159677162766e-05 1.641356902837287635e-05
7.110000000000000000e+02 2.114155006408691406e+01 1.783589363098144531e+00 -4.434959919308312237e-07 -5.269252596917795017e-06 -1.713824531179852784e-06 2.099691482726484537e-05
7.120000000000000000e+02 2.153003692626953125e+01 2.500732421875000000e+00 -3.019349423993844539e-05 -3.980809560744091868e-05 -2.100047640851698816e-05 -3.583642683224752545e-05
7.130000000000000000e+02 2.108357238769531250e+01 1.116027951240539551e+00 2.661160033312626183e-05 1.568132393003907055e-05 1.268787764274748042e-05 -2.174824294343125075e-05
7.140000000000000000e+02 1.935710906982421875e+01 1.054304718971252441e+00 6.327420123852789402e-05 -4.843654551223153248e-06 1.752916432451456785e-05 -1.868790263870323543e-06
7.150000000000000000e+02 1.938152885437011719e+01 2.011599302291870117e+00 -9.998055611504241824e-05 1.392742888128850609e-05 -2.581593798822723329e-05 -1.160900592367397621e-05
7.160000000000000000e+02 1.874669075012207031e+01 7.651352405548095703e+00 -1.863804354798048735e-04 -2.080529520753771067e-05 -6.215571920620277524e-05 -6.056192432879470289e-05
7.170000000000000000e+02 1.767453193664550781e+01 1.020464611053466797e+01 -1.938198838615790009e-04 -2.645940185175277293e-05 -6.608378316741436720e-05 -6.728545849910005927e-05
7.180000000000000000e+02 1.592535686492919922e+01 1.551431465148925781e+01 -2.717110619414597750e-04 -1.100271219911519438e-05 -8.481413533445447683e-05 -6.677918281638994813e-05
7.190000000000000000e+02 1.522837066650390625e+01 1.968438720703125000e+01 3.019966825377196074e-04 -2.130639404640533030e-05 8.420708763878792524e-05 2.769502316368743777e-05
7.200000000000000000e+02 1.520078277587890625e+01 2.110229492187500000e+01 -3.232596791349351406e-04 -1.231560418091248721e-05 -1.006725797196850181e-04 -1.660729321883991361e-05
7.210000000000000000e+02 1.528528308868408203e+01 2.393864631652832031e+01 -3.418723063077777624e-04 -1.191822957480326295e-05 -1.061371658579446375e-04 3.170634590787813067e-05
7.220000000000000000e+02 1.547053050994873047e+01 2.536022567749023438e+01 3.656808403320610523e-04 -1.585059908393304795e-05 1.049490747391246259e-04 -4.616819205693900585e-05
7.230000000000000000e+02 1.615343666076660156e+01 3.178118133544921875e+01 -6.404438754543662071e-04 -3.638288717411342077e-06 -1.932246377691626549e-04 2.809832221828401089e-04
7.240000000000000000e+02 1.758431053161621094e+01 3.091752052307128906e+01 9.767547016963362694e-04 4.728615458589047194e-04 4.348848597146570683e-04 4.040376370539888740e-05
7.250000000000000000e+02 2.021614265441894531e+01 3.423684692382812500e+01 3.133154241368174553e-03 1.134230871684849262e-03 1.280215568840503693e-03 1.411161734722554684e-03
7.260000000000000000e+02 2.263097763061523438e+01 3.564223098754882812e+01 5.239485763013362885e-03 7.402355549857020378e-04 1.793916453607380390e-03 3.711382858455181122e-03
7.270000000000000000e+02 2.528940773010253906e+01 3.692663955688476562e+01 2.471448620781302452e-03 2.720502903684973717e-03 1.557585434056818485e-03 2.003849367611110210e-04
7.280000000000000000e+02 2.665079498291015625e+01 3.717580795288085938e+01 -2.206567861139774323e-02 -1.009356323629617691e-02 -9.647772647440433502e-03 1.494993735104799271e-02
7.290000000000000000e+02 2.820482063293457031e+01 3.759122848510742188e+01 -7.877629250288009644e-02 -1.085714716464281082e-02 -2.689003199338912964e-02 3.642046824097633362e-02
7.300000000000000000e+02 3.118298721313476562e+01 3.715261840820312500e+01 -2.677163183689117432e-01 2.101079188287258148e-02 -7.401166111230850220e-02 1.122500076889991760e-01
7.310000000000000000e+02 3.795101547241210938e+01 3.462616729736328125e+01 2.320203185081481934e-01 1.080992341041564941e+00 3.939037919044494629e-01 -5.300440788269042969e-01
7.320000000000000000e+02 4.013893508911132812e+01 3.218318939208984375e+01 6.742326617240905762e-01 3.195950508117675781e+00 1.161054968833923340e+00 -1.248334169387817383e+00
7.330000000000000000e+02 4.306178283691406250e+01 2.680774116516113281e+01 4.665966033935546875e-01 5.682981491088867188e+00 1.844873428344726562e+00 -2.675458192825317383e-01
7.340000000000000000e+02 4.173316574096679688e+01 2.371580696105957031e+01 2.290950343012809753e-02 6.124082565307617188e+00 1.844097614288330078e+00 8.189870417118072510e-02
7.350000000000000000e+02 4.173184585571289062e+01 2.086595726013183594e+01 3.707776591181755066e-02 6.733530044555664062e+00 2.031182289123535156e+00 2.351332455873489380e-01
7.360000000000000000e+02 4.170085906982421875e+01 1.944370460510253906e+01 4.277106374502182007e-02 7.268833160400390625e+00 2.193481206893920898e+00 3.145164251327514648e-01
7.370000000000000000e+02 4.279088973999023438e+01 1.655639839172363281e+01 6.021777391433715820e-01 8.053532600402832031e+00 2.596713066101074219e+00 1.453479409217834473e+00
7.380000000000000000e+02 4.157661437988281250e+01 1.659319877624511719e+01 2.313685119152069092e-01 9.063228607177734375e+00 2.788379192352294922e+00 8.994840383529663086e-01
7.390000000000000000e+02 4.077259445190429688e+01 1.093366336822509766e+01 8.990960121154785156e-01 1.268472480773925781e+01 4.075146198272705078e+00 2.989726066589355469e+00
7.400000000000000000e+02 4.079625701904296875e+01 6.337658405303955078e+00 1.597990989685058594e+00 1.114245510101318359e+01 3.822134017944335938e+00 3.775020599365234375e+00
7.410000000000000000e+02 3.741608047485351562e+01 2.948065757751464844e+00 1.185918927192687988e+00 6.536312103271484375e+00 2.316669225692749023e+00 2.943846702575683594e+00
7.420000000000000000e+02 3.647528839111328125e+01 1.800634741783142090e+00 -7.944937050342559814e-02 3.183957815170288086e+00 9.313524961471557617e-01 1.156264066696166992e+00
7.430000000000000000e+02 3.540749740600585938e+01 7.637568712234497070e-01 -1.648710012435913086e+00 9.071129560470581055e-01 -2.224791198968887329e-01 -2.886055707931518555e-01
7.440000000000000000e+02 3.026011085510253906e+01 -1.818111062049865723e+00 -3.554216623306274414e+00 -4.622740745544433594e-01 -1.204947233200073242e+00 -1.027550101280212402e+00
7.450000000000000000e+02 2.745068550109863281e+01 -2.051791906356811523e+00 -2.096971750259399414e+00 -1.474252194166183472e-01 -6.733191013336181641e-01 -1.666098982095718384e-01
7.460000000000000000e+02 2.277519035339355469e+01 -2.399178266525268555e+00 -5.540040135383605957e-01 5.660818144679069519e-02 -1.492187529802322388e-01 -5.063576251268386841e-02
7.470000000000000000e+02 2.192070388793945312e+01 -2.545081615447998047e+00 -5.048468112945556641e-01 -1.844122656621038914e-03 -1.520072817802429199e-01 -2.536926046013832092e-02
7.480000000000000000e+02 1.864820098876953125e+01 -2.806708574295043945e+00 -4.872352778911590576e-01 -4.846792295575141907e-02 -1.607109606266021729e-01 2.104160189628601074e-02
7.490000000000000000e+02 2.027971839904785156e+01 -2.710510253906250000e+00 -4.832890629768371582e-01 -4.184987023472785950e-02 -1.575416773557662964e-01 -3.173129400238394737e-03
7.500000000000000000e+02 1.704992103576660156e+01 -2.752528190612792969e+00 -5.050277709960937500e-01 -3.410983830690383911e-02 -1.617412716150283813e-01 3.589545562863349915e-02
7.510000000000000000e+02 1.546574878692626953e+01 -2.650214910507202148e+00 -5.074984431266784668e-01 -1.863276213407516479e-02 -1.578393578529357910e-01 3.763607144355773926e-02
7.520000000000000000e+02 1.241398715972900391e+01 -2.274804830551147461e+00 -4.772571623325347900e-01 2.101960219442844391e-02 -1.368712782859802246e-01 -4.175857175141572952e-03
7.530000000000000000e+02 1.316032505035400391e+01 -2.374381065368652344e+00 -4.930460453033447266e-01 2.050632983446121216e-02 -1.417619138956069946e-01 1.134415157139301300e-02
7.540000000000000000e+02 1.168651008605957031e+01 -2.169684410095214844e+00 -4.601592719554901123e-01 3.837105631828308105e-02 -1.265364587306976318e-01 -1.990060880780220032e-02
7.550000000000000000e+02 1.428778457641601562e+01 -1.631625366210937500e+01 1.267107129096984863e+00 1.162511259317398071e-01 4.150074720382690430e-01 -2.143028527498245239e-01
7.560000000000000000e+02 1.969212341308593750e+01 -1.706502723693847656e+01 4.804892241954803467e-01 -8.181750029325485229e-02 1.196015179157257080e-01 3.971427213400602341e-03
7.570000000000000000e+02 1.933317947387695312e+01 -1.830532264709472656e+01 3.957920372486114502e-01 -1.679330249316990376e-03 1.182338148355484009e-01 -6.157192587852478027e-02
7.580000000000000000e+02 2.193148040771484375e+01 -1.868032264709472656e+01 2.793526351451873779e-01 -1.013235095888376236e-02 8.076608926057815552e-02 2.646573074162006378e-02
7.590000000000000000e+02 2.460159873962402344e+01 -1.753891754150390625e+01 9.831296652555465698e-02 4.816805943846702576e-03 3.093893080949783325e-02 1.661367565393447876e-01
7.600000000000000000e+02 2.117230987548828125e+01 -1.604219055175781250e+01 4.687657952308654785e-01 -1.363883912563323975e-01 9.971322864294052124e-02 1.280209422111511230e-01
7.610000000000000000e+02 2.837416839599609375e+01 -1.799770164489746094e+01 -8.183315396308898926e-01 6.718706339597702026e-02 -2.253433465957641602e-01 1.404187269508838654e-02
7.620000000000000000e+02 2.700743103027343750e+01 -3.142115974426269531e+01 -5.535295009613037109e-01 1.751546934247016907e-02 -1.608042120933532715e-01 9.836314618587493896e-02
7.630000000000000000e+02 2.289266395568847656e+01 -3.190824127197265625e+01 -7.914174199104309082e-01 9.381175041198730469e-03 -2.346108853816986084e-01 -4.650479182600975037e-02
7.640000000000000000e+02 2.469365692138671875e+01 -3.346520614624023438e+01 -3.970936536788940430e-01 1.244017183780670166e-01 -8.180757611989974976e-02 1.163523867726325989e-01
7.650000000000000000e+02 2.149370002746582031e+01 -3.198497581481933594e+01 -8.012098670005798340e-01 -1.306064892560243607e-02 -2.442811578512191772e-01 -4.546775296330451965e-02
7.660000000000000000e+02 2.020370674133300781e+01 -3.360583114624023438e+01 -6.021778583526611328e-01 -9.656824171543121338e-03 -1.835504174232482910e-01 -1.637029834091663361e-02
7.670000000000000000e+02 1.626948165893554688e+01 -3.397169113159179688e+01 -5.466318130493164062e-01 -1.358062475919723511e-01 -2.047314196825027466e-01 6.986770778894424438e-02
7.680000000000000000e+02 1.177355575561523438e+01 -3.101723670959472656e+01 -9.860903620719909668e-01 -7.539294660091400146e-02 -3.184449970722198486e-01 2.700636982917785645e-01
7.690000000000000000e+02 6.714389038085937500e+01 -1.062874126434326172e+01 1.190308406949043274e-01 -3.668358623981475830e-01 -7.434151321649551392e-02 -4.663261398673057556e-02
7.700000000000000000e+02 6.978480529785156250e+01 -1.223505973815917969e+01 1.515333652496337891e+00 8.234637975692749023e-01 7.016392350196838379e-01 -6.781812906265258789e-01
7.710000000000000000e+02 6.791474914550781250e+01 -1.008685111999511719e+01 6.420801877975463867e-01 8.264634609222412109e-01 4.405630826950073242e-01 -9.040175676345825195e-01
7.720000000000000000e+02 7.246195220947265625e+01 -1.197865104675292969e+01 2.652928829193115234e+00 1.290740966796875000e+01 4.668101787567138672e+00 -6.622254848480224609e+00
7.730000000000000000e+02 7.267414855957031250e+01 -1.191639995574951172e+01 1.958810567855834961e+00 1.515351200103759766e+01 5.133696556091308594e+00 -7.043632984161376953e+00
7.740000000000000000e+02 7.200643920898437500e+01 -1.202098369598388672e+01 4.026435852050781250e+00 7.998228549957275391e+00 3.607399225234985352e+00 -6.276015281677246094e+00
7.750000000000000000e+02 7.211246490478515625e+01 -1.531431293487548828e+01 2.030406475067138672e+00 9.133738517761230469e+00 3.349243402481079102e+00 5.477174758911132812e+00
7.760000000000000000e+02 7.194725036621093750e+01 -1.536175346374511719e+01 2.256693601608276367e+00 7.665176391601562500e+00 2.976561069488525391e+00 5.009358406066894531e+00
7.770000000000000000e+02 7.209161376953125000e+01 -1.548611736297607422e+01 1.578641772270202637e+00 9.006063461303710938e+00 3.175411701202392578e+00 4.873380661010742188e+00
7.780000000000000000e+02 7.176409149169921875e+01 -1.540944862365722656e+01 2.311393022537231445e+00 6.532628059387207031e+00 2.653206348419189453e+00 4.499618530273437500e+00
7.790000000000000000e+02 7.113695526123046875e+01 -1.550272178649902344e+01 1.993876457214355469e+00 3.485086441040039062e+00 1.643688917160034180e+00 2.781478881835937500e+00
7.800000000000000000e+02 7.105901336669921875e+01 -1.569006443023681641e+01 1.903539538383483887e+00 3.567797422409057617e+00 1.641401052474975586e+00 2.717694044113159180e+00
7.810000000000000000e+02 7.136657714843750000e+01 -1.552565288543701172e+01 2.083787202835083008e+00 4.529968738555908203e+00 1.984126806259155273e+00 3.354398965835571289e+00
7.820000000000000000e+02 7.095063781738281250e+01 -1.549597358703613281e+01 1.925366044044494629e+00 2.682084560394287109e+00 1.382235169410705566e+00 2.351265907287597656e+00
7.830000000000000000e+02 7.076994323730468750e+01 -1.553775024414062500e+01 1.813365459442138672e+00 2.420298814773559570e+00 1.270099282264709473e+00 2.072184562683105469e+00
7.840000000000000000e+02 6.910159301757812500e+01 -1.731512451171875000e+01 4.950796440243721008e-02 8.791351318359375000e-01 2.785929441452026367e-01 6.855486035346984863e-01
7.850000000000000000e+02 6.873336029052734375e+01 -2.075830459594726562e+01 -1.264914497733116150e-02 3.289844512939453125e+00 9.831586480140686035e-01 2.515077590942382812e-01
7.860000000000000000e+02 6.877445220947265625e+01 -2.212171554565429688e+01 -8.484183251857757568e-02 3.876496791839599609e+00 1.137496471405029297e+00 1.265113949775695801e-01
7.870000000000000000e+02 6.883285522460937500e+01 -2.352952766418457031e+01 9.695513546466827393e-02 4.296072959899902344e+00 1.317908406257629395e+00 1.254035979509353638e-01
7.880000000000000000e+02 6.681733703613281250e+01 -2.897356414794921875e+01 -1.404172539710998535e+00 -3.494380712509155273e-01 -5.260831713676452637e-01 -9.484621286392211914e-01
7.890000000000000000e+02 6.329611206054687500e+01 -3.172315597534179688e+01 -3.226357221603393555e+00 -1.064537405967712402e+00 -1.287268400192260742e+00 -1.550024390220642090e+00
7.900000000000000000e+02 5.803932189941406250e+01 -3.279398345947265625e+01 -2.115478754043579102e+00 -1.966373771429061890e-01 -6.936348080635070801e-01 4.915712401270866394e-02
7.910000000000000000e+02 5.321885681152343750e+01 -3.178902435302734375e+01 -6.571940779685974121e-01 3.882587254047393799e-01 -8.068060129880905151e-02 -4.267870262265205383e-02
7.920000000000000000e+02 5.104612350463867188e+01 -2.685346412658691406e+01 5.126337707042694092e-02 1.673007905483245850e-01 6.556925177574157715e-02 -9.749937057495117188e-02
7.930000000000000000e+02 4.621450424194335938e+01 -2.373515701293945312e+01 3.991351425647735596e-01 1.432864308357238770e+00 5.495998263359069824e-01 -7.421878576278686523e-01
7.940000000000000000e+02 4.724968719482421875e+01 -2.292923164367675781e+01 2.999783456325531006e-01 5.759429931640625000e-01 2.627764046192169189e-01 -4.301606714725494385e-01
7.950000000000000000e+02 4.511827087402343750e+01 -2.455899429321289062e+01 3.603820800781250000e-01 2.280787944793701172e+00 7.923510074615478516e-01 -8.696006536483764648e-01
7.960000000000000000e+02 4.340427780151367188e+01 -1.889662742614746094e+01 1.507554411888122559e+00 5.079515457153320312e+00 1.976121068000793457e+00 -2.627118825912475586e+00
7.970000000000000000e+02 4.259466934204101562e+01 -1.770323371887207031e+01 1.833573579788208008e+00 9.319925308227539062e+00 3.346049785614013672e+00 -3.240341424942016602e+00
7.980000000000000000e+02 4.167603302001953125e+01 -1.495492267608642578e+01 6.467674374580383301e-01 1.390253543853759766e+01 4.364790916442871094e+00 -1.855393528938293457e+00
7.990000000000000000e+02 4.139841461181640625e+01 -1.208574199676513672e+01 8.814215660095214844e-02 1.405226421356201172e+01 4.242121696472167969e+00 -8.644562959671020508e-01
8.000000000000000000e+02 4.137915802001953125e+01 -7.907774448394775391e+00 7.364991307258605957e-01 1.734676551818847656e+01 5.424979209899902344e+00 1.332155942916870117e+00
8.010000000000000000e+02 4.186999130249023438e+01 -5.190321922302246094e+00 5.946248173713684082e-01 1.465387344360351562e+01 4.574549674987792969e+00 3.259304761886596680e+00
8.020000000000000000e+02 4.307120513916015625e+01 -1.213741064071655273e+00 1.656412363052368164e+00 1.002742862701416016e+01 3.505152225494384766e+00 3.483078479766845703e+00
8.030000000000000000e+02 4.409220886230468750e+01 1.183541059494018555e+00 -4.421941757202148438e+00 4.529948711395263672e+00 3.240209817886352539e-02 1.025229811668395996e+00
8.040000000000000000e+02 4.987519454956054688e+01 7.821747064590454102e-01 -6.695581912994384766e+00 -6.760445237159729004e-01 -2.211487770080566406e+00 1.626644372940063477e+00
8.050000000000000000e+02 5.782560729980468750e+01 -1.341707825660705566e+00 -5.303366661071777344e+00 -2.764419913291931152e-01 -1.673942565917968750e+00 1.036805748939514160e+00
8.060000000000000000e+02 5.648081207275390625e+01 -1.059306859970092773e+00 -5.545717239379882812e+00 -2.276600152254104614e-01 -1.732013225555419922e+00 8.619520068168640137e-01
8.070000000000000000e+02 5.917464828491210938e+01 -1.682172536849975586e+00 -4.922183990478515625e+00 -4.594417512416839600e-01 -1.614487767219543457e+00 1.217434406280517578e+00
8.080000000000000000e+02 6.178873062133789062e+01 -2.737093687057495117e+00 -3.206883907318115234e+00 -5.826538205146789551e-01 -1.136861324310302734e+00 1.246725082397460938e+00
8.090000000000000000e+02 6.297931289672851562e+01 -3.501493215560913086e+00 -2.039911270141601562e+00 -4.883329570293426514e-01 -7.584732770919799805e-01 9.383242130279541016e-01
8.100000000000000000e+02 6.816610717773437500e+01 -1.165256214141845703e+01 4.340167045593261719e-01 -9.195828810334205627e-03 1.274462640285491943e-01 -1.529482752084732056e-01
8.110000000000000000e+02 6.810443878173828125e+01 -1.239081096649169922e+01 1.581712216138839722e-01 -2.220070809125900269e-01 -1.915075816214084625e-02 2.343878000974655151e-01
8.120000000000000000e+02 5.568779373168945312e+01 -3.191127586364746094e+01 -1.104517936706542969e+00 -1.843556016683578491e-01 -3.866620659828186035e-01 2.562131881713867188e-01
8.130000000000000000e+02 7.282578277587890625e+01 -1.599639606475830078e+01 -4.956746995449066162e-01 1.410170650482177734e+01 4.081809520721435547e+00 3.270149707794189453e+00
8.140000000000000000e+02 7.433430480957031250e+01 -1.537049388885498047e+01 1.277030467987060547e+00 1.863463973999023438e+01 5.973501205444335938e+00 -2.976670742034912109e+00
8.150000000000000000e+02 7.018218231201171875e+01 -1.717523193359375000e+01 1.849428266286849976e-01 3.365227222442626953e+00 1.065051078796386719e+00 1.629689574241638184e+00
8.160000000000000000e+02 7.038285064697265625e+01 -1.566846561431884766e+01 1.444377303123474121e+00 1.755240201950073242e+00 9.598852992057800293e-01 1.416653037071228027e+00
8.170000000000000000e+02 7.157677459716796875e+01 -1.546743965148925781e+01 2.175972461700439453e+00 5.462508201599121094e+00 2.291544198989868164e+00 3.793640851974487305e+00
8.180000000000000000e+02 7.248412322998046875e+01 -1.529929161071777344e+01 1.228609561920166016e+00 1.251784992218017578e+01 4.123937606811523438e+00 5.504718780517578125e+00
8.190000000000000000e+02 6.955144500732421875e+01 -1.682454872131347656e+01 3.438884019851684570e-01 1.729467988014221191e+00 6.220068931579589844e-01 9.483324289321899414e-01
8.200000000000000000e+02 7.068155670166015625e+01 -1.227686595916748047e+01 3.071911811828613281e+00 1.536558866500854492e+00 1.382541179656982422e+00 -1.968624234199523926e+00
8.210000000000000000e+02 6.922383117675781250e+01 -1.174301052093505859e+01 1.116153001785278320e+00 9.035084247589111328e-01 6.058984398841857910e-01 -7.077917456626892090e-01
8.220000000000000000e+02 7.087825012207031250e+01 -1.223957347869873047e+01 3.373375654220581055e+00 1.877109408378601074e+00 1.575145483016967773e+00 -2.445217847824096680e+00
8.230000000000000000e+02 6.901049041748046875e+01 -1.041479396820068359e+01 1.057407259941101074e+00 1.730813026428222656e+00 8.364661335945129395e-01 -1.550091743469238281e+00
8.240000000000000000e+02 7.223158264160156250e+01 -1.196467876434326172e+01 3.365189075469970703e+00 1.070375061035156250e+01 4.220682144165039062e+00 -6.794756889343261719e+00
8.250000000000000000e+02 7.165896606445312500e+01 -1.216269111633300781e+01 4.494866847991943359e+00 5.051101684570312500e+00 2.863790512084960938e+00 -5.243670463562011719e+00
8.260000000000000000e+02 7.107249450683593750e+01 -1.222968769073486328e+01 3.503700494766235352e+00 2.288401365280151367e+00 1.737630486488342285e+00 -2.810121774673461914e+00
8.270000000000000000e+02 7.145586395263671875e+01 -1.215982055664062500e+01 4.283357143402099609e+00 3.943254947662353516e+00 2.467983722686767578e+00 -4.315021038055419922e+00
8.280000000000000000e+02 7.030980682373046875e+01 -1.221569156646728516e+01 2.357942819595336914e+00 1.207954883575439453e+00 1.069769263267517090e+00 -1.316581130027770996e+00
8.290000000000000000e+02 7.182997894287109375e+01 -1.212461948394775391e+01 4.260447025299072266e+00 6.311267852783203125e+00 3.171514511108398438e+00 -5.743253707885742188e+00
8.300000000000000000e+02 6.961990356445312500e+01 -1.593522357940673828e+01 7.669219970703125000e-01 9.481745958328247070e-01 5.145289897918701172e-01 5.811866521835327148e-01
8.310000000000000000e+02 6.913490295410156250e+01 -1.611567878723144531e+01 4.596685171127319336e-01 6.168203949928283691e-01 3.229466676712036133e-01 2.782174348831176758e-01
8.320000000000000000e+02 6.878353881835937500e+01 -1.819570350646972656e+01 -4.740250110626220703e-02 1.119750618934631348e+00 3.217044174671173096e-01 4.682453572750091553e-01
8.330000000000000000e+02 6.764151763916015625e+01 -1.141365146636962891e+01 1.463860124349594116e-01 -4.725367426872253418e-01 -9.784521907567977905e-02 -4.261302947998046875e-02
8.340000000000000000e+02 6.934809112548828125e+01 -1.229803562164306641e+01 9.315279126167297363e-01 5.988609194755554199e-01 4.591166377067565918e-01 -2.218516618013381958e-01
8.350000000000000000e+02 1.854346466064453125e+01 1.022414326667785645e+00 -6.076528370613232255e-05 -3.947528057324234396e-06 -1.941384289239067584e-05 -1.957411222974769771e-05
8.360000000000000000e+02 1.773570060729980469e+01 7.292309761047363281e+00 1.491571892984211445e-04 2.267948002554476261e-05 5.155100006959401071e-05 5.227873771218582988e-05
8.370000000000000000e+02 1.852459335327148438e+01 1.964082241058349609e+00 8.910540782380849123e-05 1.596443871676456183e-05 3.152095450786873698e-05 4.387428634800016880e-05
8.380000000000000000e+02 1.738159179687500000e+01 3.607655286788940430e+00 -5.808678179164417088e-05 -8.079809776972979307e-05 -4.166546568740159273e-05 -7.752382225589826703e-05
8.390000000000000000e+02 1.023381519317626953e+01 -1.970908761024475098e+00 -4.188914000988006592e-01 5.107187479734420776e-02 -1.103458628058433533e-01 -4.346144571900367737e-02
8.400000000000000000e+02 1.098801803588867188e+01 -2.845612764358520508e+00 -3.944205641746520996e-01 6.530436128377914429e-02 -9.873485565185546875e-02 -5.644250288605690002e-02
8.410000000000000000e+02 1.029589271545410156e+01 -3.550482273101806641e+00 -3.365919888019561768e-01 9.011421352624893188e-02 -7.394333183765411377e-02 -9.268470853567123413e-02
8.420000000000000000e+02 9.484702110290527344e+00 -2.732819318771362305e+00 -3.546202182769775391e-01 6.857541203498840332e-02 -8.581344783306121826e-02 -9.062005579471588135e-02
8.430000000000000000e+02 1.434387969970703125e+01 1.876934409141540527e+00 3.801297225436428562e-06 7.792697579134255648e-05 2.451848013151902705e-05 9.843994121183641255e-06
8.440000000000000000e+02 1.533779335021972656e+01 3.328281164169311523e+00 3.790522896451875567e-05 7.254872616613283753e-05 3.313618799438700080e-05 3.862320954794995487e-05
8.450000000000000000e+02 1.501129913330078125e+01 1.784430503845214844e+00 -8.971936949819792062e-06 -8.017857908271253109e-05 -2.674515599210280925e-05 -3.487383946776390076e-05
8.460000000000000000e+02 1.206904029846191406e+01 1.568479299545288086e+00 3.089060555794276297e-05 3.948841549572534859e-05 2.111370667989831418e-05 -9.556772965879645199e-06
8.470000000000000000e+02 2.174457550048828125e+01 1.273992657661437988e+00 -2.849532393156550825e-06 -3.543776983860880136e-05 -1.148619048763066530e-05 1.491800412622978911e-05
8.480000000000000000e+02 1.475517940521240234e+01 -3.284033060073852539e+00 -4.252561628818511963e-01 7.113637402653694153e-04 -1.273634433746337891e-01 2.291288226842880249e-02
8.490000000000000000e+02 1.321976184844970703e+01 -3.107391119003295898e+00 -4.241587817668914795e-01 2.800785936415195465e-02 -1.188452765345573425e-01 -5.737790372222661972e-03
8.500000000000000000e+02 1.633724784851074219e+01 -3.426120996475219727e+00 -4.158334434032440186e-01 -2.624040096998214722e-02 -1.326221525669097900e-01 3.696345165371894836e-02
8.510000000000000000e+02 1.136754608154296875e+01 2.435326337814331055e+00 4.650459231925196946e-05 3.211727016605436802e-05 2.358655910938978195e-05 -6.899787422298686579e-06
8.520000000000000000e+02 1.365528488159179688e+01 2.038648128509521484e+00 -1.690074350335635245e-05 -6.390248745447024703e-05 -2.424096965114586055e-05 1.113575581257464364e-05
8.530000000000000000e+02 1.292588901519775391e+01 2.201714992523193359e+00 3.570073749870061874e-05 4.626487861969508231e-05 2.458968447172082961e-05 -1.630495899007655680e-05
8.540000000000000000e+02 7.416802978515625000e+01 -1.222538185119628906e+01 3.347803592681884766e+00 1.999359893798828125e+01 7.002420902252197266e+00 2.099597930908203125e+00
8.550000000000000000e+02 7.253474426269531250e+01 -1.168140506744384766e+01 1.765643239021301270e+00 1.463269519805908203e+01 4.919501304626464844e+00 -6.368155479431152344e+00
8.560000000000000000e+02 7.463682556152343750e+01 -1.280030822753906250e+01 7.890548229217529297e+00 1.684337615966796875e+01 7.420177459716796875e+00 2.511934995651245117e+00
8.570000000000000000e+02 7.838764190673828125e+01 -9.239386558532714844e+00 -2.204809337854385376e-01 7.007787227630615234e+00 2.036191940307617188e+00 1.927078485488891602e+00
8.580000000000000000e+02 7.450888824462890625e+01 -1.464779663085937500e+01 5.393940448760986328e+00 1.829774856567382812e+01 7.107506752014160156e+00 -4.163434028625488281e+00
8.590000000000000000e+02 7.362536621093750000e+01 -1.535138797760009766e+01 6.217320263385772705e-02 2.004582595825195312e+01 6.032400131225585938e+00 -2.341272532939910889e-01
8.600000000000000000e+02 7.671330261230468750e+01 -1.358549499511718750e+01 3.767315149307250977e+00 9.042779922485351562e+00 3.843028545379638672e+00 -4.679446816444396973e-01
8.610000000000000000e+02 7.830038452148437500e+01 -1.477108192443847656e+01 1.000067830085754395e+00 5.609251499176025391e+00 1.982795715332031250e+00 -1.571754813194274902e+00
8.620000000000000000e+02 7.308878326416015625e+01 -1.583346748352050781e+01 -7.994674444198608398e-01 1.688712501525878906e+01 4.826297283172607422e+00 2.666539430618286133e+00
8.630000000000000000e+02 7.853005218505859375e+01 -1.918365478515625000e+01 -2.864070236682891846e-01 8.910095214843750000e+00 2.587106466293334961e+00 -1.709159970283508301e+00
8.640000000000000000e+02 6.607676029205322266e+00 1.869219064712524414e+00 -3.670373553177341819e-05 -1.527554741187486798e-05 -1.559378506499342620e-05 -3.339676823088666424e-06
8.650000000000000000e+02 2.039785146713256836e+00 6.894402980804443359e+00 -1.281210279557853937e-04 -3.106598887825384736e-05 -4.775610432261601090e-05 -5.247949593467637897e-05
8.660000000000000000e+02 5.069105148315429688e+00 3.350970268249511719e+00 -6.953567208256572485e-05 -2.011617425523581915e-06 -2.146418773918412626e-05 -3.670986416182131507e-06
8.670000000000000000e+02 1.330344676971435547e+00 3.335204601287841797e+00 -1.970032371900742874e-06 -1.465611876483308151e-05 -4.987845386494882405e-06 1.435571812180569395e-05
8.680000000000000000e+02 2.858883380889892578e+00 2.794434785842895508e+00 -1.997489744098857045e-05 1.390102715959073976e-05 -1.822161038944614120e-06 -1.781546052370686084e-05
8.690000000000000000e+02 2.125486135482788086e+00 3.045080661773681641e+00 -1.737546654112520628e-06 -3.088103767368011177e-06 -1.447695126444159541e-06 8.685208740644156933e-06
8.700000000000000000e+02 1.976138710975646973e+00 2.019564867019653320e+00 1.818941768760851119e-06 -1.852526656875852495e-05 -5.011897428630618379e-06 -1.041804125634371303e-06
8.710000000000000000e+02 8.167221069335937500e+00 2.611860990524291992e+00 4.532739330898039043e-05 1.785033964551985264e-05 1.895332025014795363e-05 -2.034991439359146170e-06
8.720000000000000000e+02 7.387743473052978516e+00 1.871050119400024414e+00 3.495342753012664616e-05 1.742002859828062356e-05 1.571203574712853879e-05 1.194067863252712414e-06
8.730000000000000000e+02 8.187090873718261719e+00 3.362351655960083008e+00 -5.702119233319535851e-05 -1.449686169507913291e-05 -2.145541657228022814e-05 7.409984846162842587e-06
8.740000000000000000e+02 7.379228115081787109e+00 2.618742465972900391e+00 -4.999764860258437693e-05 -1.307118691329378635e-05 -1.892065120046027005e-05 4.439260123945132364e-07
8.750000000000000000e+02 1.057440757751464844e+01 2.514703273773193359e+00 -4.497704867389984429e-05 -2.949014378827996552e-05 -2.234015846624970436e-05 3.479018232610542327e-06
8.760000000000000000e+02 1.946058845520019531e+01 -2.781807661056518555e+00 -4.857283830642700195e-01 -3.625797107815742493e-02 -1.565959155559539795e-01 5.940057802945375443e-03
8.770000000000000000e+02 1.553923034667968750e+01 -3.363604545593261719e+00 -4.237225949764251709e-01 -4.198773764073848724e-03 -1.283764094114303589e-01 3.272116929292678833e-02
8.780000000000000000e+02 1.795404815673828125e+01 -3.501350402832031250e+00 -4.002069234848022461e-01 -5.016244575381278992e-02 -1.351108103990554810e-01 3.290221467614173889e-02
8.790000000000000000e+02 1.714439773559570312e+01 -3.471082925796508789e+00 -4.108232855796813965e-01 -2.962934225797653198e-02 -1.321357786655426025e-01 3.645716607570648193e-02
8.800000000000000000e+02 2.043744850158691406e+01 -3.439348220825195312e+00 -4.045758247375488281e-01 -4.126698523759841919e-02 -1.337528526782989502e-01 -9.075753390789031982e-03
8.810000000000000000e+02 2.298605537414550781e+01 -3.213157892227172852e+00 -5.071352124214172363e-01 -1.605910481885075569e-03 -1.526223421096801758e-01 -1.053483709692955017e-01
8.820000000000000000e+02 1.877071762084960938e+01 -3.511071681976318359e+00 -3.985092639923095703e-01 -4.680053517222404480e-02 -1.335929483175277710e-01 2.233310602605342865e-02
8.830000000000000000e+02 8.692264556884765625e+00 -2.719538211822509766e+00 -3.230732679367065430e-01 5.578387901186943054e-02 -8.018682152032852173e-02 -1.123686358332633972e-01
8.840000000000000000e+02 6.218276977539062500e+00 -2.803063392639160156e+00 -2.172501683235168457e-01 1.586228050291538239e-02 -6.041636317968368530e-02 -1.603692024946212769e-01
8.850000000000000000e+02 7.011353492736816406e+00 -1.917497158050537109e+00 -2.745993137359619141e-01 1.828905567526817322e-02 -7.689307630062103271e-02 -1.106484606862068176e-01
8.860000000000000000e+02 7.877778053283691406e+00 -2.729138135910034180e+00 -2.919967472553253174e-01 4.866582527756690979e-02 -7.299927622079849243e-02 -1.302256435155868530e-01
8.870000000000000000e+02 7.051137447357177734e+00 -2.758134841918945312e+00 -2.532065808773040771e-01 2.892943099141120911e-02 -6.728313863277435303e-02 -1.501486897468566895e-01
8.880000000000000000e+02 5.357651233673095703e+00 -1.948900699615478516e+00 -1.908354312181472778e-01 -1.848579850047826767e-03 -5.780520290136337280e-02 -1.218685731291770935e-01
8.890000000000000000e+02 4.556890964508056641e+00 -2.910094261169433594e+00 -1.411637812852859497e-01 -2.278798446059226990e-02 -4.918553307652473450e-02 -1.600413322448730469e-01
8.900000000000000000e+02 1.700429081916809082e+00 -8.974331855773925781e+00 -1.771528087556362152e-02 -5.138559341430664062e-01 -1.594713777303695679e-01 -2.198819369077682495e-01
8.910000000000000000e+02 5.252101421356201172e-01 -6.352573871612548828e+00 -4.339623264968395233e-03 -3.417484462261199951e-01 -1.038264185190200806e-01 -5.558934062719345093e-02
8.920000000000000000e+02 2.278264522552490234e+00 -4.314974784851074219e+00 -4.214778542518615723e-02 -1.345309615135192871e-01 -5.300362408161163330e-02 -1.529337167739868164e-01
8.930000000000000000e+02 4.233686029911041260e-01 -3.559928417205810547e+00 -4.354617092758417130e-03 -8.976293355226516724e-02 -2.823526598513126373e-02 -2.613733336329460144e-02
8.940000000000000000e+02 2.526650810241699219e+01 -1.860339164733886719e+00 -8.768610954284667969e-01 -6.999891251325607300e-02 -2.840580046176910400e-01 4.492183774709701538e-02
8.950000000000000000e+02 2.041655731201171875e+01 4.055499553680419922e+00 1.625493605388328433e-04 1.456153131584869698e-05 5.313326983014121652e-05 2.214659252786077559e-05
8.960000000000000000e+02 1.842280578613281250e+01 2.880278825759887695e+00 -1.045424942276440561e-04 -4.259445267962291837e-05 -4.414108479977585375e-05 -6.563645729329437017e-05
8.970000000000000000e+02 2.168676853179931641e+00 -3.185489082336425781e+01 -9.028156846761703491e-02 7.360579371452331543e-01 1.937329024076461792e-01 3.636868298053741455e-02
8.980000000000000000e+02 3.140857505798339844e+01 -1.755661010742187500e+01 -3.112397432327270508e+00 -4.110251665115356445e-01 -1.057026743888854980e+00 8.469566702842712402e-01
8.990000000000000000e+02 3.371501922607421875e+01 -1.758074951171875000e+01 -1.976823687553405762e+00 8.262300491333007812e-01 -3.451780974864959717e-01 3.787591159343719482e-01
9.000000000000000000e+02 4.157916259765625000e+01 -1.820045471191406250e+01 4.768236875534057617e-01 8.989543914794921875e+00 2.839910268783569336e+00 -8.594467639923095703e-01
9.010000000000000000e+02 3.858237075805664062e+01 -1.455248165130615234e+01 6.073970198631286621e-01 9.070828437805175781e+00 2.903467655181884766e+00 -2.405930459499359131e-01
9.020000000000000000e+02 7.459418773651123047e+00 -1.559155845642089844e+01 7.141162157058715820e-01 1.035408496856689453e+00 5.248574018478393555e-01 2.604451775550842285e-01
9.030000000000000000e+02 3.433496856689453125e+01 -1.878560256958007812e+01 -2.273930072784423828e+00 1.730687022209167480e+00 -1.629728972911834717e-01 3.608362674713134766e-01
9.040000000000000000e+02 3.514009475708007812e+01 -2.448161888122558594e+01 1.337183237075805664e+00 1.175364017486572266e+01 3.927247047424316406e+00 2.145617485046386719e+00
9.050000000000000000e+02 3.834339141845703125e+01 -2.360266876220703125e+01 8.820543885231018066e-01 6.726145267486572266e+00 2.282459735870361328e+00 1.086689352989196777e+00
9.060000000000000000e+02 1.133514881134033203e+01 -3.353822708129882812e+01 -4.201962053775787354e-01 -3.222888112068176270e-01 -2.227455079555511475e-01 2.478841543197631836e-01
9.070000000000000000e+02 1.848653435707092285e+00 -1.901395416259765625e+01 8.120860904455184937e-02 -9.951216578483581543e-01 -2.741739153861999512e-01 1.466443389654159546e-01
9.080000000000000000e+02 1.560038852691650391e+01 -1.689538002014160156e+01 8.463117480278015137e-01 8.805435150861740112e-02 2.803098261356353760e-01 -2.511433064937591553e-01
9.090000000000000000e+02 1.275380706787109375e+01 -1.481652164459228516e+01 1.171432256698608398e+00 2.669019997119903564e-01 4.315002560615539551e-01 1.672303080558776855e-01
9.100000000000000000e+02 2.838124656677246094e+01 -3.124165916442871094e+01 -2.238588929176330566e-01 2.120722383260726929e-01 -3.535998752340674400e-03 2.403354048728942871e-01
9.110000000000000000e+02 3.008665466308593750e+01 -3.190453720092773438e+01 2.369684576988220215e-01 1.384994387626647949e+00 4.865888655185699463e-01 1.129627823829650879e+00
9.120000000000000000e+02 1.309174537658691406e+01 -3.123988151550292969e+01 -8.737838268280029297e-01 -7.595065236091613770e-02 -2.849203348159790039e-01 2.006531655788421631e-01
9.130000000000000000e+02 1.036265659332275391e+01 -3.081822204589843750e+01 -1.155125379562377930e+00 -3.815369606018066406e-01 -4.609987139701843262e-01 4.685307443141937256e-01
9.140000000000000000e+02 3.175611257553100586e+00 -1.747107505798339844e+01 2.834100127220153809e-01 -3.631026744842529297e-01 -2.390779741108417511e-02 5.155153200030326843e-02
9.150000000000000000e+02 3.516364288330078125e+01 -3.062061500549316406e+01 -1.088982447981834412e-01 4.781606197357177734e+00 1.401812434196472168e+00 7.223811149597167969e-01
9.160000000000000000e+02 2.215476226806640625e+01 -1.740571975708007812e+01 3.214079141616821289e-01 -5.987936258316040039e-02 7.845856249332427979e-02 9.190516173839569092e-02
9.170000000000000000e+02 3.609394073486328125e+01 -2.707760810852050781e+01 1.069072484970092773e+00 7.058320522308349609e+00 2.438217878341674805e+00 1.039549350738525391e+00
9.180000000000000000e+02 1.143925762176513672e+01 -1.493826484680175781e+01 1.370201826095581055e+00 4.351689815521240234e-01 5.416112542152404785e-01 3.459482491016387939e-01
9.190000000000000000e+02 1.023258590698242188e+01 -1.486929988861083984e+01 1.073334097862243652e+00 7.016324996948242188e-01 5.324900150299072266e-01 4.410631656646728516e-01
9.200000000000000000e+02 1.732028579711914062e+01 -1.638443183898925781e+01 7.085696458816528320e-01 -6.098385900259017944e-02 1.942757368087768555e-01 -6.769526749849319458e-02
9.210000000000000000e+02 3.314225006103515625e+01 -2.895867347717285156e+01 1.930783390998840332e+00 4.587539196014404297e+00 1.955496788024902344e+00 2.524228572845458984e+00
9.220000000000000000e+02 6.758463382720947266e-01 -2.746190834045410156e+01 -4.191097244620323181e-02 6.201955080032348633e-01 1.734853535890579224e-01 1.611091047525405884e-01
9.230000000000000000e+02 9.030051231384277344e+00 -1.461651897430419922e+01 7.680453658103942871e-01 7.726210355758666992e-01 4.621998965740203857e-01 2.680272758007049561e-01
9.240000000000000000e+02 8.784687042236328125e+00 -1.605577468872070312e+01 1.470212578773498535e+00 1.038566589355468750e+00 7.526337504386901855e-01 7.134840488433837891e-01
9.250000000000000000e+02 1.723162174224853516e+00 -2.037852096557617188e+01 1.297208368778228760e-01 -8.914561271667480469e-01 -2.285205870866775513e-01 2.806178629398345947e-01
9.260000000000000000e+02 1.806950950622558594e+01 -1.794058799743652344e+01 4.663726091384887695e-01 3.377246670424938202e-03 1.409249603748321533e-01 -1.201917380094528198e-01
9.270000000000000000e+02 3.371137619018554688e+01 -3.102513504028320312e+01 -1.934474855661392212e-01 4.472616195678710938e+00 1.283750534057617188e+00 1.255098819732666016e+00
9.280000000000000000e+02 3.238383865356445312e+01 -3.133389472961425781e+01 3.211278915405273438e-01 3.438516616821289062e+00 1.127893328666687012e+00 1.670724153518676758e+00
9.290000000000000000e+02 3.773282623291015625e+01 -2.168479728698730469e+01 1.882261633872985840e-01 7.504625320434570312e+00 2.307855367660522461e+00 1.461144089698791504e+00
9.300000000000000000e+02 1.521694183349609375e+01 -3.541916275024414062e+01 -3.204320669174194336e-01 -1.894628107547760010e-01 -1.529684662818908691e-01 1.144136786460876465e-01
9.310000000000000000e+02 1.849720573425292969e+01 -1.677403259277343750e+01 5.755625963211059570e-01 -6.590186804533004761e-02 1.528982222080230713e-01 -4.211856797337532043e-02
9.320000000000000000e+02 2.062358093261718750e+01 -1.856029129028320312e+01 3.301524221897125244e-01 -2.795125544071197510e-02 9.066035598516464233e-02 -1.900672540068626404e-02
9.330000000000000000e+02 2.008495521545410156e+01 -3.202375411987304688e+01 -7.635847330093383789e-01 9.481159970164299011e-03 -2.262310832738876343e-01 -4.667822644114494324e-02
9.340000000000000000e+02 2.317749786376953125e+01 -3.372201538085937500e+01 -4.473816454410552979e-01 3.070997446775436401e-02 -1.250015050172805786e-01 3.612010553479194641e-02
9.350000000000000000e+02 2.091375923156738281e+01 -1.727298164367675781e+01 4.045228362083435059e-01 -7.267396152019500732e-02 9.955465793609619141e-02 5.515102297067642212e-02
9.360000000000000000e+02 2.584292793273925781e+01 -1.846635055541992188e+01 -6.297872960567474365e-02 3.853780403733253479e-02 -7.332277018576860428e-03 5.806540325284004211e-02
9.370000000000000000e+02 2.362207221984863281e+01 -1.627619934082031250e+01 2.874003648757934570e-01 -9.745653718709945679e-02 5.698315054178237915e-02 2.528407275676727295e-01
9.380000000000000000e+02 2.793068885803222656e+01 -1.703922462463378906e+01 -7.819973826408386230e-01 4.334277659654617310e-02 -2.215963751077651978e-01 5.123519301414489746e-01
9.390000000000000000e+02 2.881693458557128906e+01 -3.262935638427734375e+01 3.165234252810478210e-02 7.185578346252441406e-01 2.250630557537078857e-01 7.966496944427490234e-01
9.400000000000000000e+02 2.734457969665527344e+01 -3.289753341674804688e+01 -1.687795221805572510e-01 4.834310412406921387e-01 9.439545869827270508e-02 3.994126915931701660e-01
9.410000000000000000e+02 2.563746833801269531e+01 -3.155659484863281250e+01 -6.892998218536376953e-01 8.681894838809967041e-02 -1.807442605495452881e-01 -1.068667881190776825e-02
9.420000000000000000e+02 1.491861343383789062e+01 -1.521779441833496094e+01 1.055492043495178223e+00 5.843922495841979980e-02 3.341793715953826904e-01 6.251090019941329956e-02
9.430000000000000000e+02 3.164369010925292969e+01 -1.635537528991699219e+01 -3.721288740634918213e-01 -5.804817080497741699e-01 -2.857831716537475586e-01 8.551394939422607422e-01
9.440000000000000000e+02 2.881364631652832031e+01 -1.665845108032226562e+01 -6.343925595283508301e-01 -2.181829512119293213e-02 -1.968632489442825317e-01 9.176520705223083496e-01
9.450000000000000000e+02 2.712378120422363281e+01 -1.824503517150878906e+01 -4.268206954002380371e-01 -2.250360883772373199e-02 -1.347972899675369263e-01 8.602678775787353516e-02
9.460000000000000000e+02 3.338006973266601562e+01 -1.611334419250488281e+01 -3.296640217304229736e-01 1.264501094818115234e+00 2.804511189460754395e-01 -4.570598527789115906e-02
9.470000000000000000e+02 2.324521827697753906e+01 -1.868717765808105469e+01 2.184883207082748413e-01 -4.399776458740234375e-03 6.422656029462814331e-02 4.580832645297050476e-02
9.480000000000000000e+02 4.036263942718505859e+00 -1.595200347900390625e+01 2.432518452405929565e-01 -1.237549483776092529e-01 3.584906831383705139e-02 -1.354632973670959473e-01
9.490000000000000000e+02 1.436501216888427734e+01 -3.153111648559570312e+01 -8.121975660324096680e-01 -3.066303580999374390e-02 -2.528581619262695312e-01 1.732600480318069458e-01
9.500000000000000000e+02 1.486202239990234375e+01 -3.334149932861328125e+01 -6.483244895935058594e-01 -9.585800021886825562e-02 -2.232547402381896973e-01 1.351254433393478394e-01
9.510000000000000000e+02 1.159809970855712891e+01 -3.226600265502929688e+01 -8.399119973182678223e-01 -2.552395761013031006e-01 -3.285454809665679932e-01 3.927887082099914551e-01
9.520000000000000000e+02 1.276886940002441406e+01 -3.240563964843750000e+01 -7.480234503746032715e-01 -1.269043385982513428e-01 -2.624783515930175781e-01 2.690693736076354980e-01
9.530000000000000000e+02 3.709286117553710938e+01 -2.276043701171875000e+01 7.223175764083862305e-01 7.712232112884521484e+00 2.530364990234375000e+00 1.446697115898132324e+00
9.540000000000000000e+02 3.661427688598632812e+01 -2.383637619018554688e+01 1.397062778472900391e+00 8.256866455078125000e+00 2.896178722381591797e+00 1.559173107147216797e+00
9.550000000000000000e+02 1.671715259552001953e+00 -2.304008674621582031e+01 4.486712440848350525e-02 -4.775758087635040283e-01 -1.298126131296157837e-01 4.721815288066864014e-01
9.560000000000000000e+02 1.378134059906005859e+01 -3.272917938232421875e+01 -6.868227720260620117e-01 -1.141863614320755005e-01 -2.403027415275573730e-01 1.800017654895782471e-01
9.570000000000000000e+02 2.163121604919433594e+01 -3.373027038574218750e+01 -5.088328719139099121e-01 2.512137591838836670e-02 -1.451134532690048218e-01 -1.571177155710756779e-03
9.580000000000000000e+02 2.655169486999511719e+01 -3.713099670410156250e+01 -2.432207316160202026e-01 8.556516766548156738e-01 1.837292909622192383e-01 3.552717268466949463e-01
9.590000000000000000e+02 2.884759140014648438e+01 -2.019303321838378906e+00 -2.792501449584960938e+00 -1.822368800640106201e-01 -8.924215435981750488e-01 -5.624877810478210449e-01
9.600000000000000000e+02 7.111033630371093750e+01 -2.331017684936523438e+01 -2.693712711334228516e-01 5.862238407135009766e+00 1.677860021591186523e+00 4.586592689156532288e-02
9.610000000000000000e+02 6.405802154541015625e+01 -4.420498847961425781e+00 -8.675522804260253906e-01 8.678339421749114990e-02 -2.342306673526763916e-01 4.005178213119506836e-01
9.620000000000000000e+02 6.234305191040039062e+01 -1.795985341072082520e+00 -2.636430978775024414e+00 1.298128366470336914e-01 -7.519854307174682617e-01 2.726576924324035645e-01
9.630000000000000000e+02 6.725942230224609375e+01 -7.647653102874755859e+00 2.107859849929809570e-01 1.532195329666137695e+00 5.228943824768066406e-01 -8.949813842773437500e-01
9.640000000000000000e+02 5.958502960205078125e+01 -6.910203695297241211e-01 -3.744624614715576172e+00 -2.684197723865509033e-01 -1.203913331031799316e+00 5.130956768989562988e-01
9.650000000000000000e+02 6.956238555908203125e+01 -2.703667449951171875e+01 -6.939185261726379395e-01 4.092885494232177734e+00 1.019690155982971191e+00 -3.823481798171997070e-01
9.660000000000000000e+02 4.221315383911132812e+01 1.620285212993621826e-01 -3.239697694778442383e+00 1.057426166534423828e+01 2.200369119644165039e+00 7.960510849952697754e-01
9.670000000000000000e+02 4.218529510498046875e+01 -3.839960575103759766e+00 8.415801525115966797e-01 1.451147460937500000e+01 4.605916500091552734e+00 3.207680463790893555e+00
9.680000000000000000e+02 4.096210861206054688e+01 -1.673386383056640625e+01 9.402550458908081055e-01 1.040311336517333984e+01 3.403010368347167969e+00 -9.157493114471435547e-01
9.690000000000000000e+02 5.855361175537109375e+01 -3.450322723388671875e+01 -1.109094500541687012e+00 -4.873779714107513428e-01 -4.789417684078216553e-01 -6.266190409660339355e-01
9.700000000000000000e+02 4.056021499633789062e+01 -1.985384750366210938e+01 -1.806719601154327393e-01 7.750350952148437500e+00 2.270903825759887695e+00 3.759011626243591309e-01
9.710000000000000000e+02 5.942218017578125000e+01 -3.276539611816406250e+01 -2.974961042404174805e+00 -2.104557454586029053e-01 -9.556250572204589844e-01 -3.109750449657440186e-01
9.720000000000000000e+02 6.578276062011718750e+01 -3.001784896850585938e+01 -2.135165452957153320e+00 -9.432765245437622070e-01 -9.235326051712036133e-01 -1.380524277687072754e+00
9.730000000000000000e+02 6.742733001708984375e+01 -3.250059509277343750e+01 -1.080978274345397949e+00 1.779743194580078125e+00 2.096294909715652466e-01 8.352790027856826782e-02
9.740000000000000000e+02 4.046250534057617188e+01 -1.518913745880126953e+01 8.589074611663818359e-01 1.115510463714599609e+01 3.604203701019287109e+00 -9.313222765922546387e-01
9.750000000000000000e+02 5.078141403198242188e+01 4.167184352874755859e+00 -2.418364286422729492e+00 1.664866805076599121e-01 -6.755632758140563965e-01 -1.546425819396972656e-01
9.760000000000000000e+02 4.440793609619140625e+01 -2.168796157836914062e+01 4.469915032386779785e-01 2.929204463958740234e+00 1.012858748435974121e+00 -1.175496101379394531e+00
9.770000000000000000e+02 6.139786148071289062e+01 -3.319026565551757812e+01 -2.431694984436035156e+00 -7.132626175880432129e-01 -9.434872865676879883e-01 -8.389022946357727051e-01
9.780000000000000000e+02 6.386494064331054688e+01 -3.286722564697265625e+01 -1.841251730918884277e+00 -6.391200423240661621e-01 -7.441115379333496094e-01 -6.803442239761352539e-01
9.790000000000000000e+02 1.533775615692138672e+01 1.826922607421875000e+01 -2.896612277254462242e-04 -1.205474382004467770e-05 -9.051479719346389174e-05 -4.130322122364304960e-05
9.800000000000000000e+02 1.410118198394775391e+01 1.805639648437500000e+01 3.104775678366422653e-04 -4.042055934405652806e-06 9.193064761348068714e-05 4.850095501751638949e-05
9.810000000000000000e+02 4.032904052734375000e+01 -7.811625480651855469e+00 1.492921948432922363e+00 1.334279537200927734e+01 4.450715065002441406e+00 1.524157404899597168e+00
9.820000000000000000e+02 6.471128082275390625e+01 -3.458027362823486328e+00 -1.425297617912292480e+00 1.087033152580261230e+00 -1.014793664216995239e-01 -1.320751104503870010e-02
9.830000000000000000e+02 2.749412345886230469e+01 3.946739196777343750e+01 -1.602234318852424622e-02 -3.497658297419548035e-02 -1.529967878013849258e-02 6.063302606344223022e-02
9.840000000000000000e+02 5.315967178344726562e+01 1.073494195938110352e+00 -4.612260818481445312e+00 2.694073617458343506e-01 -1.302856087684631348e+00 7.955886125564575195e-01
9.850000000000000000e+02 5.271439743041992188e+01 2.821949481964111328e+00 -3.484728336334228516e+00 2.866521775722503662e-01 -9.594228267669677734e-01 6.198515649884939194e-03
9.860000000000000000e+02 3.899675369262695312e+01 -1.335156822204589844e+01 7.396214604377746582e-01 9.847469329833984375e+00 3.176127195358276367e+00 -2.424417883157730103e-01
9.870000000000000000e+02 6.355384445190429688e+01 -2.635288476943969727e+00 -2.014608383178710938e+00 5.501946806907653809e-01 -4.393241405487060547e-01 1.249793246388435364e-01
9.880000000000000000e+02 6.099434280395507812e+01 -1.123734712600708008e+00 -3.217097759246826172e+00 -7.581190019845962524e-02 -9.878728985786437988e-01 3.661943078041076660e-01
9.890000000000000000e+02 6.659051513671875000e+01 -3.112757873535156250e+01 -1.610214114189147949e+00 5.587146878242492676e-01 -3.154498338699340820e-01 -4.138149917125701904e-01
9.900000000000000000e+02 5.693673706054687500e+01 -4.193834960460662842e-03 -4.300334453582763672e+00 -2.223632633686065674e-01 -1.356809377670288086e+00 5.443927645683288574e-01
9.910000000000000000e+02 5.824152755737304688e+01 -3.324137926101684570e-01 -4.165207862854003906e+00 -2.870550453662872314e-01 -1.335678935050964355e+00 5.723694562911987305e-01
9.920000000000000000e+02 4.132940673828125000e+01 -9.293920516967773438e+00 1.636607199907302856e-01 1.581985664367675781e+01 4.795054912567138672e+00 2.111062705516815186e-01
9.930000000000000000e+02 4.973496627807617188e+01 3.259987115859985352e+00 -3.776678085327148438e+00 -1.830066591501235962e-01 -1.187905430793762207e+00 -5.070599913597106934e-02
9.940000000000000000e+02 6.869023895263671875e+01 -9.736000061035156250e+00 8.005701303482055664e-01 1.853911042213439941e+00 7.963443398475646973e-01 -1.455696702003479004e+00
9.950000000000000000e+02 2.717853736877441406e+01 4.143034362792968750e+01 5.464619770646095276e-02 -6.360451877117156982e-02 -2.687496133148670197e-03 2.480744943022727966e-02
9.960000000000000000e+02 6.760142517089843750e+01 -8.928915023803710938e+00 4.307574927806854248e-01 1.222979187965393066e+00 4.961210191249847412e-01 -9.899604916572570801e-01
9.970000000000000000e+02 6.666078186035156250e+01 -9.432405471801757812e+00 2.015785723924636841e-01 1.262763440608978271e-01 9.835647046566009521e-02 -2.647657096385955811e-01
9.980000000000000000e+02 5.389085769653320312e+01 -2.984027099609375000e+01 -2.783672511577606201e-01 -3.501398488879203796e-02 -9.401436895132064819e-02 1.021311208605766296e-01
9.990000000000000000e+02 5.390325546264648438e+01 -3.299866104125976562e+01 -7.207509279251098633e-01 4.355078935623168945e-01 -8.557290583848953247e-02 -2.687460780143737793e-01
1.000000000000000000e+03 6.980012512207031250e+01 -2.218625831604003906e+01 -1.680453121662139893e-01 4.816077232360839844e+00 1.394409537315368652e+00 4.057975113391876221e-01
1.001000000000000000e+03 3.545878601074218750e+01 -4.839293003082275391e+00 7.656681537628173828e-01 3.859700918197631836e+00 1.387610673904418945e+00 6.044648885726928711e-01
1.002000000000000000e+03 6.529405975341796875e+01 -3.203488159179687500e+01 -1.803442835807800293e+00 -1.173107475042343140e-01 -5.762260556221008301e-01 -6.618499159812927246e-01
1.003000000000000000e+03 2.342829895019531250e+01 3.912887191772460938e+01 -3.425955073907971382e-04 -5.705166142433881760e-03 -1.814328483305871487e-03 8.348776027560234070e-03
1.004000000000000000e+03 4.915634536743164062e+01 -2.487247085571289062e+01 1.563296467065811157e-01 2.923197746276855469e-01 1.345948278903961182e-01 -2.262680232524871826e-01
1.005000000000000000e+03 4.982854843139648438e+01 -2.763862800598144531e+01 5.833425372838973999e-02 5.721397995948791504e-01 1.891422122716903687e-01 -3.165948092937469482e-01
1.006000000000000000e+03 4.255162429809570312e+01 -2.490266799926757812e+00 1.478184819221496582e+00 1.400974178314208984e+01 4.646378040313720703e+00 3.762621879577636719e+00
1.007000000000000000e+03 3.466655349731445312e+01 -1.004135966300964355e+00 -2.008258342742919922e+00 1.120173215866088867e+00 -2.664255201816558838e-01 -2.016595602035522461e-01
1.008000000000000000e+03 1.848853492736816406e+01 3.203307723999023438e+01 5.479545798152685165e-04 -1.336016612185630947e-05 1.603783166501671076e-04 1.221724669449031353e-03
1.009000000000000000e+03 1.551530933380126953e+01 3.012987899780273438e+01 1.392216538079082966e-03 -1.305097539443522692e-04 3.785120206885039806e-04 4.280370922060683370e-05
1.010000000000000000e+03 4.820391845703125000e+01 -2.390302085876464844e+01 2.308998107910156250e-01 4.175786674022674561e-01 1.945435404777526855e-01 -2.938190698623657227e-01
1.011000000000000000e+03 4.800084686279296875e+01 -2.568437576293945312e+01 2.532277107238769531e-01 8.581175208091735840e-01 3.334035873413085938e-01 -4.940243959426879883e-01
1.012000000000000000e+03 5.200569915771484375e+01 -2.783983612060546875e+01 -6.039351224899291992e-02 1.008179783821105957e-01 1.212733890861272812e-02 -4.631365463137626648e-02
1.013000000000000000e+03 5.037052917480468750e+01 -3.037653923034667969e+01 -1.392395496368408203e-01 7.845953106880187988e-01 1.936067193746566772e-01 -3.374376296997070312e-01
1.014000000000000000e+03 5.111205673217773438e+01 -3.137042808532714844e+01 -3.860451281070709229e-01 7.682960033416748047e-01 1.146752685308456421e-01 -2.994853854179382324e-01
1.015000000000000000e+03 6.873051452636718750e+01 -1.943767166137695312e+01 -4.716904461383819580e-02 2.345582485198974609e+00 6.895240545272827148e-01 3.423236012458801270e-01
1.016000000000000000e+03 4.531962585449218750e+01 -2.271998214721679688e+01 4.399248659610748291e-01 1.917693972587585449e+00 7.072856426239013672e-01 -9.326786398887634277e-01
1.017000000000000000e+03 4.629094314575195312e+01 -2.194655609130859375e+01 4.497498869895935059e-01 8.997072577476501465e-01 4.048371613025665283e-01 -6.001677513122558594e-01
1.018000000000000000e+03 4.890920639038085938e+01 -2.665304756164550781e+01 1.947727948427200317e-01 6.688318848609924316e-01 2.590813934803009033e-01 -4.098829030990600586e-01
1.019000000000000000e+03 5.171071243286132812e+01 -3.248009109497070312e+01 -4.488379657268524170e-01 7.979261279106140137e-01 1.047264561057090759e-01 -3.814877569675445557e-01
1.020000000000000000e+03 6.968095397949218750e+01 -1.971501922607421875e+01 -1.923152655363082886e-01 3.873485088348388672e+00 1.104350924491882324e+00 9.760047197341918945e-01
1.021000000000000000e+03 1.610765647888183594e+01 1.116187667846679688e+01 -1.803776394808664918e-04 -3.720120366779156029e-05 -6.527365621877834201e-05 -7.451628334820270538e-05
1.022000000000000000e+03 1.565545749664306641e+01 1.250277328491210938e+01 2.037598023889586329e-04 3.067934449063614011e-05 7.033174188109114766e-05 8.882990368874743581e-05
1.023000000000000000e+03 1.724670982360839844e+01 3.572101593017578125e+01 -2.379242068855091929e-04 -8.772434084676206112e-04 -3.345502773299813271e-04 -1.025624340400099754e-03
1.024000000000000000e+03 1.822957229614257812e+01 3.342610931396484375e+01 4.289731441531330347e-04 -3.999598848167806864e-04 8.703974344825837761e-06 5.945279845036566257e-04
1.025000000000000000e+03 1.400506782531738281e+01 1.955682945251464844e+01 -3.427402116358280182e-04 1.045280441758222878e-05 -9.968622180167585611e-05 -5.403326940722763538e-05
1.026000000000000000e+03 1.521473884582519531e+01 1.384299755096435547e+01 -2.335445751668885350e-04 -1.883662662294227630e-05 -7.571436435682699084e-05 -9.732014586916193366e-05
1.027000000000000000e+03 1.882537269592285156e+01 4.996944427490234375e+00 1.367937948089092970e-04 2.978139309561811388e-05 4.997255746275186539e-05 4.967351924278773367e-05
1.028000000000000000e+03 1.455725479125976562e+01 2.704093170166015625e+01 6.726714200340211391e-04 -1.438488652638625354e-05 1.974859624169766903e-04 4.405611616675741971e-05
1.029000000000000000e+03 1.919621467590332031e+01 3.950463771820068359e+00 -1.391123514622449875e-04 -3.907173231709748507e-05 -5.345522731659002602e-05 -4.801597970072180033e-05
1.030000000000000000e+03 1.399628353118896484e+01 2.104804420471191406e+01 3.870311193168163300e-04 -4.225210432196035981e-05 1.034337110468186438e-04 2.642903746163938195e-05
1.031000000000000000e+03 1.819514465332031250e+01 8.916165351867675781e+00 1.884208468254655600e-04 2.392685382801573724e-05 6.370431219693273306e-05 6.241942901397123933e-05
1.032000000000000000e+03 1.670542526245117188e+01 3.397931337356567383e+00 -1.085061626326933037e-06 1.116476923925802112e-04 3.316878792247734964e-05 5.199905353947542608e-05
1.033000000000000000e+03 1.428578948974609375e+01 2.551122283935546875e+01 -4.760875017382204533e-04 4.607088703778572381e-05 -1.290049840463325381e-04 5.138947744853794575e-05
1.034000000000000000e+03 1.714595794677734375e+01 8.533111572265625000e+00 -1.571362954564392567e-04 -2.771401887002866715e-05 -5.545509338844567537e-05 -5.515713928616605699e-05
1.035000000000000000e+03 1.659762954711914062e+01 9.829199790954589844e+00 1.673498190939426422e-04 3.239864963688887656e-05 5.992454316583462059e-05 6.127692176960408688e-05
1.036000000000000000e+03 1.495793247222900391e+01 2.857957267761230469e+01 -5.415573250502347946e-04 1.160936371888965368e-04 -1.276391121791675687e-04 1.802616025088354945e-04
1.037000000000000000e+03 1.477079486846923828e+01 1.520202159881591797e+01 2.668205706868320704e-04 -1.343968051514821127e-05 7.601427205372601748e-05 8.705087384441867471e-05
1.038000000000000000e+03 1.702896308898925781e+01 1.831566572189331055e+00 3.595568705350160599e-05 6.063392720534466207e-05 2.897688500524964184e-05 5.067717575002461672e-05
1.039000000000000000e+03 7.770069885253906250e+01 -3.807406997680664062e+01 -1.112524643540382385e-01 1.115995025634765625e+01 3.314609289169311523e+00 3.745052814483642578e-01
1.040000000000000000e+03 7.934410858154296875e+01 -3.473992538452148438e+01 -4.938619956374168396e-02 1.288494873046875000e+01 3.850668907165527344e+00 7.741548120975494385e-02
1.041000000000000000e+03 7.938079071044921875e+01 -2.777610969543457031e+01 -1.887484081089496613e-02 1.292044925689697266e+01 3.870472431182861328e+00 -1.360230892896652222e-01
1.042000000000000000e+03 7.790818786621093750e+01 3.228287124633789062e+01 8.502465672791004181e-03 4.300185203552246094e+00 1.292606234550476074e+00 -6.215999647974967957e-02
1.043000000000000000e+03 7.915587615966796875e+01 3.631116104125976562e+01 3.254337469115853310e-03 4.188379764556884766e+00 1.257490158081054688e+00 -8.262310177087783813e-03
1.044000000000000000e+03 7.949246978759765625e+01 -2.081683540344238281e+01 -5.431721732020378113e-02 1.018799781799316406e+01 3.040104389190673828e+00 -5.185248851776123047e-01
1.045000000000000000e+03 7.814881134033203125e+01 -2.758585929870605469e+01 -8.928801864385604858e-02 1.169247817993164062e+01 3.480957031250000000e+00 -2.969068586826324463e-01
1.046000000000000000e+03 7.821259307861328125e+01 -2.619725036621093750e+01 -8.895287662744522095e-02 1.156084156036376953e+01 3.441566705703735352e+00 -4.101318418979644775e-01
1.047000000000000000e+03 7.934744262695312500e+01 -3.056171035766601562e+01 -2.932108193635940552e-02 1.309512042999267578e+01 3.919739723205566406e+00 -4.157724976539611816e-02
1.048000000000000000e+03 7.801813507080078125e+01 -3.320361328125000000e+01 -8.076336234807968140e-02 1.168183326721191406e+01 3.480320930480957031e+00 9.361595660448074341e-02
1.049000000000000000e+03 7.590618896484375000e+01 -3.763017654418945312e+01 -1.053580492734909058e-01 9.983102798461914062e+00 2.963323354721069336e+00 -1.850507706403732300e-01
1.050000000000000000e+03 7.685195922851562500e+01 -3.903411483764648438e+01 -4.052114114165306091e-02 1.117318725585937500e+01 3.339799880981445312e+00 2.046227604150772095e-01
1.051000000000000000e+03 7.801132202148437500e+01 1.445316219329833984e+01 2.751369029283523560e-02 6.197216987609863281e+00 1.867419242858886719e+00 -4.383349120616912842e-01
1.052000000000000000e+03 7.934305572509765625e+01 1.549945640563964844e+01 9.417984634637832642e-03 6.206786632537841797e+00 1.864861488342285156e+00 -1.446831077337265015e-01
1.053000000000000000e+03 7.799619293212890625e+01 2.135853385925292969e+01 2.750536054372787476e-02 5.074190139770507812e+00 1.530508637428283691e+00 -2.713534533977508545e-01
1.054000000000000000e+03 7.932141876220703125e+01 2.245806312561035156e+01 3.360062139108777046e-03 4.987751960754394531e+00 1.497333645820617676e+00 -8.451443165540695190e-02
1.055000000000000000e+03 7.800070190429687500e+01 3.092361068725585938e+01 1.686753146350383759e-02 4.343073844909667969e+00 1.307982444763183594e+00 -7.815945893526077271e-02
1.056000000000000000e+03 7.933724975585937500e+01 2.800202178955078125e+01 9.529449162073433399e-04 4.467049598693847656e+00 1.340400815010070801e+00 -4.181841015815734863e-02
1.057000000000000000e+03 7.799762725830078125e+01 2.554075813293457031e+01 2.719706855714321136e-02 4.658498764038085938e+00 1.405708670616149902e+00 -1.760571897029876709e-01
1.058000000000000000e+03 7.794461059570312500e+01 2.417451667785644531e+01 2.350924722850322723e-02 4.774679183959960938e+00 1.439456462860107422e+00 -2.054015845060348511e-01
1.059000000000000000e+03 7.804672241210937500e+01 1.858704376220703125e+01 2.653114311397075653e-02 5.466450214385986328e+00 1.647894501686096191e+00 -3.340626358985900879e-01
1.060000000000000000e+03 7.802552032470703125e+01 1.583136081695556641e+01 2.215270325541496277e-02 5.939662933349609375e+00 1.788544654846191406e+00 -4.073218405246734619e-01
1.061000000000000000e+03 7.803989410400390625e+01 1.720551681518554688e+01 3.086018562316894531e-02 5.693459510803222656e+00 1.717295885086059570e+00 -3.736851811408996582e-01
1.062000000000000000e+03 7.799951934814453125e+01 1.305322742462158203e+01 1.967431232333183289e-02 6.482073307037353516e+00 1.950524330139160156e+00 -4.719872474670410156e-01
1.063000000000000000e+03 7.667478942871093750e+01 1.050112342834472656e+01 2.835963480174541473e-02 6.613427639007568359e+00 1.992536187171936035e+00 -7.797851562500000000e-01
1.064000000000000000e+03 7.801432037353515625e+01 8.845046043395996094e+00 1.333761261776089668e-03 7.413737773895263672e+00 2.224521398544311523e+00 -5.150754451751708984e-01
1.065000000000000000e+03 7.933390808105468750e+01 9.926528930664062500e+00 1.879756455309689045e-03 7.606681823730468750e+00 2.282568454742431641e+00 -1.798243969678878784e-01
1.066000000000000000e+03 7.407707977294921875e+01 -1.074138927459716797e+01 -7.509031891822814941e-01 1.594969463348388672e+01 4.559637546539306641e+00 -2.821896411478519440e-02
1.067000000000000000e+03 7.945423889160156250e+01 -6.799483776092529297e+00 -6.487573683261871338e-02 8.130862236022949219e+00 2.419795989990234375e+00 4.638732969760894775e-01
1.068000000000000000e+03 7.813404083251953125e+01 4.551769196987152100e-01 -9.565275907516479492e-02 9.089280128479003906e+00 2.698088407516479492e+00 -2.019397616386413574e-01
1.069000000000000000e+03 7.936759948730468750e+01 1.557088017463684082e+00 -1.057447772473096848e-02 9.696865081787109375e+00 2.905887126922607422e+00 -9.918455034494400024e-02
1.070000000000000000e+03 7.949394989013671875e+01 -1.939529609680175781e+01 -5.623336136341094971e-02 8.714449882507324219e+00 2.597465038299560547e+00 -6.828653216361999512e-01
1.071000000000000000e+03 7.944003295898437500e+01 -1.373410701751708984e+01 2.628706395626068115e-01 1.157395124435424805e+00 4.260797202587127686e-01 -1.788669675588607788e-01
1.072000000000000000e+03 7.945919036865234375e+01 -1.234404373168945312e+01 2.220565229654312134e-01 1.282683849334716797e+00 4.514220952987670898e-01 4.550267159938812256e-01
1.073000000000000000e+03 7.802927398681640625e+01 7.444971084594726562e+00 -1.332407630980014801e-02 7.739055156707763672e+00 2.317719221115112305e+00 -5.043423175811767578e-01
1.074000000000000000e+03 7.800035095214843750e+01 2.959470939636230469e+01 1.464265026152133942e-02 4.404267311096191406e+00 1.325672984123229980e+00 -9.712453931570053101e-02
1.075000000000000000e+03 7.918675231933593750e+01 3.761774063110351562e+01 1.302021322771906853e-03 4.178078174591064453e+00 1.253814101219177246e+00 -4.417164251208305359e-03
1.076000000000000000e+03 7.520330810546875000e+01 3.651846313476562500e+01 3.460936993360519409e-02 4.240652561187744141e+00 1.282578468322753906e+00 -6.038533896207809448e-02
1.077000000000000000e+03 7.800112915039062500e+01 1.024774551391601562e+01 1.032007858157157898e-02 7.090438365936279297e+00 2.130227565765380859e+00 -5.098924636840820312e-01
1.078000000000000000e+03 7.693658447265625000e+01 -7.307803034782409668e-01 -2.842921614646911621e-01 8.605468750000000000e+00 2.496353149414062500e+00 -1.896536797285079956e-01
1.079000000000000000e+03 7.808348846435546875e+01 3.249679565429687500e+00 -4.647916555404663086e-02 8.643651008605957031e+00 2.579151630401611328e+00 -3.912314474582672119e-01
1.080000000000000000e+03 7.815372467041015625e+01 -9.578766822814941406e-01 -1.316939294338226318e-01 9.219532012939453125e+00 2.726351499557495117e+00 -4.552811384201049805e-02
1.081000000000000000e+03 7.939710998535156250e+01 -2.636683940887451172e+00 -4.465959593653678894e-02 9.891819953918457031e+00 2.954148054122924805e+00 8.464362472295761108e-02
1.082000000000000000e+03 7.839484405517578125e+01 -7.862685680389404297e+00 -3.121208548545837402e-01 7.928840637207031250e+00 2.285016059875488281e+00 1.502248883247375488e+00
1.083000000000000000e+03 7.831229400634765625e+01 -5.128297328948974609e+00 -2.398017942905426025e-01 8.956230163574218750e+00 2.614928483963012695e+00 6.770030260086059570e-01
1.084000000000000000e+03 7.838945770263671875e+01 -1.060234069824218750e+01 7.415253669023513794e-02 6.091394901275634766e+00 1.849664211273193359e+00 1.951506257057189941e+00
1.085000000000000000e+03 7.586271667480468750e+01 -1.288071537017822266e+01 4.817251205444335938e+00 1.170570564270019531e+01 4.956886768341064453e+00 1.456577301025390625e+00
1.086000000000000000e+03 7.838877868652343750e+01 -1.195339202880859375e+01 6.140829920768737793e-01 5.265462398529052734e+00 1.763863682746887207e+00 1.424769997596740723e+00
1.087000000000000000e+03 7.692985534667968750e+01 -1.652299118041992188e+01 2.714422345161437988e-01 9.984932899475097656e+00 3.076912641525268555e+00 -3.359253644943237305e+00
1.088000000000000000e+03 7.376586151123046875e+01 -1.618875885009765625e+01 -1.188543558120727539e+00 1.596263694763183594e+01 4.432228088378906250e+00 -8.606733381748199463e-02
1.089000000000000000e+03 4.079616928100585938e+01 3.445691299438476562e+01 -6.546818464994430542e-02 2.921769142150878906e+00 8.568902611732482910e-01 -5.472575426101684570e-01
1.090000000000000000e+03 4.079677581787109375e+01 3.083772087097167969e+01 6.120783090591430664e-01 4.346609115600585938e+00 1.487606287002563477e+00 -1.372308373451232910e+00
1.091000000000000000e+03 3.420257186889648438e+01 -9.749417752027511597e-02 -2.948854684829711914e+00 -5.035753846168518066e-01 -1.035728931427001953e+00 -1.478712558746337891e+00
1.092000000000000000e+03 3.164068603515625000e+01 -1.426886439323425293e+00 -4.067105770111083984e+00 -7.848109006881713867e-01 -1.455575108528137207e+00 -1.597958683967590332e+00
1.093000000000000000e+03 3.657354354858398438e+01 3.514686203002929688e+01 -1.406553834676742554e-01 1.886214166879653931e-01 1.438980922102928162e-02 -1.530057489871978760e-01
1.094000000000000000e+03 3.272234344482421875e+01 3.695175170898437500e+01 -3.072788119316101074e-01 -4.390855133533477783e-02 -1.053562015295028687e-01 8.114682137966156006e-02
1.095000000000000000e+03 4.126728057861328125e+01 1.375541973114013672e+01 6.251308321952819824e-01 1.088148021697998047e+01 3.451983213424682617e+00 2.005305767059326172e+00
1.096000000000000000e+03 4.293689346313476562e+01 1.799983978271484375e+01 4.510540962219238281e-01 7.378125667572021484e+00 2.348753929138183594e+00 1.153176426887512207e+00
1.097000000000000000e+03 4.217486190795898438e+01 3.136749076843261719e+01 3.453801274299621582e-01 4.388804435729980469e+00 1.420255303382873535e+00 -5.194510817527770996e-01
1.098000000000000000e+03 3.996356201171875000e+01 2.597497224807739258e+00 -1.841831803321838379e+00 1.017398834228515625e+01 2.499646902084350586e+00 1.480898380279541016e+00
1.099000000000000000e+03 2.913709640502929688e+01 -3.120365858078002930e+00 -1.535683035850524902e+00 -5.411965250968933105e-01 -6.230638623237609863e-01 -8.546740412712097168e-01
1.100000000000000000e+03 4.047373199462890625e+01 9.520288467407226562e+00 1.308868050575256348e+00 1.404987144470214844e+01 4.607621669769287109e+00 3.841390848159790039e+00
1.101000000000000000e+03 3.922060012817382812e+01 -7.698554515838623047e+00 1.578106999397277832e+00 1.071316814422607422e+01 3.687382459640502930e+00 1.062111139297485352e+00
1.102000000000000000e+03 3.326282501220703125e+01 3.885732650756835938e+01 6.285603344440460205e-02 1.130387485027313232e-01 5.276843532919883728e-02 2.101654931902885437e-02
1.103000000000000000e+03 3.825067901611328125e+01 2.311937093734741211e+00 -9.128581285476684570e-01 8.548318862915039062e+00 2.290638208389282227e+00 1.811749935150146484e+00
1.104000000000000000e+03 2.488863945007324219e+01 -4.092533111572265625e+00 -5.261002182960510254e-01 -1.208431944251060486e-01 -1.940830349922180176e-01 -3.726365566253662109e-01
1.105000000000000000e+03 3.965257263183593750e+01 -5.012389183044433594e+00 9.125007987022399902e-01 1.070046615600585938e+01 3.483890056610107422e+00 1.409619808197021484e+00
1.106000000000000000e+03 3.605603790283203125e+01 -1.343315988779067993e-01 -1.925123214721679688e+00 3.613229513168334961e+00 5.064318776130676270e-01 5.376828908920288086e-01
1.107000000000000000e+03 3.728299713134765625e+01 1.018432617187500000e+00 -1.625335931777954102e+00 6.227278232574462891e+00 1.380582690238952637e+00 1.141929388046264648e+00
1.108000000000000000e+03 4.163457870483398438e+01 9.307405471801757812e+00 1.930796980857849121e+00 1.074676227569580078e+01 3.803267955780029297e+00 3.811706781387329102e+00
1.109000000000000000e+03 4.307408523559570312e+01 1.945124053955078125e+01 2.717922329902648926e-01 6.941409111022949219e+00 2.163960456848144531e+00 8.855994343757629395e-01
1.110000000000000000e+03 4.006886672973632812e+01 3.840871810913085938e+01 -2.497474998235702515e-01 2.131813287734985352e+00 5.646197199821472168e-01 -2.822204232215881348e-01
1.111000000000000000e+03 3.923143386840820312e+01 3.356135177612304688e+01 4.377970695495605469e-01 1.885483860969543457e+00 6.969842910766601562e-01 -9.086654782295227051e-01
1.112000000000000000e+03 4.171976470947265625e+01 2.515112304687500000e+01 6.729166954755783081e-02 6.037532329559326172e+00 1.831447124481201172e+00 -3.216643817722797394e-03
1.113000000000000000e+03 4.102664566040039062e+01 1.234647655487060547e+01 5.580086112022399902e-01 1.138059425354003906e+01 3.581580877304077148e+00 2.458928823471069336e+00
1.114000000000000000e+03 4.242828750610351562e+01 1.367650413513183594e+01 9.752582311630249023e-01 9.151521682739257812e+00 3.038033962249755859e+00 2.216835260391235352e+00
1.115000000000000000e+03 4.555142593383789062e+01 2.595332860946655273e+00 -4.077970504760742188e+00 1.611509680747985840e+00 -7.399383187294006348e-01 2.491872549057006836e+00
1.116000000000000000e+03 4.193912887573242188e+01 1.078084468841552734e+01 1.451728940010070801e+00 1.025801753997802734e+01 3.512923955917358398e+00 3.422343015670776367e+00
1.117000000000000000e+03 4.310903930664062500e+01 2.531862068176269531e+01 2.015146613121032715e-01 5.843450069427490234e+00 1.813489437103271484e+00 1.607690937817096710e-02
1.118000000000000000e+03 4.319002914428710938e+01 2.237167167663574219e+01 1.584803313016891479e-01 6.198312282562255859e+00 1.907037734985351562e+00 4.414684474468231201e-01
1.119000000000000000e+03 4.464694976806640625e+01 2.248820877075195312e+01 4.026957154273986816e-01 5.788103103637695312e+00 1.857239723205566406e+00 6.353084444999694824e-01
1.120000000000000000e+03 1.491263508796691895e+00 -3.998255920410156250e+01 -6.648094858974218369e-03 7.390133142471313477e-01 2.197095751762390137e-01 -6.847071647644042969e-02
1.121000000000000000e+03 2.765474081039428711e+00 3.808099746704101562e+01 1.483304076828062534e-04 3.483078326098620892e-04 1.489914720878005028e-04 -6.616217433474957943e-05
1.122000000000000000e+03 7.511944770812988281e-01 3.464493179321289062e+01 1.510478032287210226e-04 2.662675397004932165e-04 1.251946086995303631e-04 -4.011100827483460307e-06
1.123000000000000000e+03 6.281833052635192871e-01 2.628873443603515625e+01 2.864966809283941984e-04 1.687744884293351788e-06 8.645532943774014711e-05 1.811016227293293923e-05
1.124000000000000000e+03 1.922431826591491699e+00 2.775478172302246094e+01 3.030245425179600716e-04 3.741413456737063825e-05 1.021316056721843779e-04 -3.339226006815465553e-09
1.125000000000000000e+03 6.702733039855957031e-01 -3.595098876953125000e+01 -1.536369603127241135e-02 9.890550374984741211e-01 2.921074032783508301e-01 -4.036252945661544800e-02
1.126000000000000000e+03 6.886037349700927734e+00 -3.550722885131835938e+01 -9.441596269607543945e-02 -5.290396139025688171e-02 -4.419597610831260681e-02 -3.730175783857703209e-03
1.127000000000000000e+03 3.132010459899902344e+00 2.645844841003417969e+01 3.083253104705363512e-04 3.344522701809182763e-05 1.025311648845672607e-04 6.133752776804612949e-06
1.128000000000000000e+03 3.088829994201660156e+00 2.374405097961425781e+01 2.637283178046345711e-04 2.720778684306424111e-05 8.728083048481494188e-05 2.794571446429472417e-05
1.129000000000000000e+03 2.101681232452392578e+00 3.182968902587890625e+01 -2.806739066727459431e-04 1.363661285722628236e-04 -4.329233706812374294e-05 -1.341569586656987667e-04
1.130000000000000000e+03 2.178869485855102539e+00 3.315330123901367188e+01 2.824049151968210936e-04 1.223700819537043571e-04 1.214325020555406809e-04 1.108742799260653555e-05
1.131000000000000000e+03 5.036619663238525391e+00 3.784880828857421875e+01 -8.526627789251506329e-05 7.949873106554150581e-04 2.129163040081039071e-04 -2.351013790757860988e-05
1.132000000000000000e+03 3.600776672363281250e+00 3.917685699462890625e+01 -1.962971873581409454e-04 2.202864270657300949e-04 7.196769729489460588e-06 6.131405098130926490e-05
1.133000000000000000e+03 7.824794054031372070e-01 -3.038144874572753906e+01 -3.344277665019035339e-02 1.020700693130493164e+00 2.961773872375488281e-01 6.578269600868225098e-02
1.134000000000000000e+03 3.241887092590332031e+00 -2.633971214294433594e+01 -1.783312261104583740e-01 2.647120952606201172e-01 2.591425925493240356e-02 6.630724668502807617e-01
1.135000000000000000e+03 1.870097637176513672e+00 -1.761481475830078125e+01 1.235399842262268066e-01 -1.048009276390075684e+00 -2.773407697677612305e-01 1.580338366329669952e-02
1.136000000000000000e+03 6.027166247367858887e-01 -1.911454963684082031e+01 2.483705803751945496e-02 -1.739065885543823242e+00 -5.142686367034912109e-01 4.432614147663116455e-02
1.137000000000000000e+03 5.692489743232727051e-01 -2.050912666320800781e+01 1.240171305835247040e-02 -1.574478745460510254e+00 -4.686231315135955811e-01 8.762977272272109985e-02
1.138000000000000000e+03 5.455300211906433105e-01 -2.329580116271972656e+01 -5.720794433727860451e-04 -7.823002934455871582e-01 -2.348617017269134521e-01 1.951796710491180420e-01
1.139000000000000000e+03 2.395781040191650391e+00 -3.649873733520507812e+01 -2.226324193179607391e-02 7.003185153007507324e-01 2.034165859222412109e-01 -8.806083351373672485e-02
1.140000000000000000e+03 6.133608222007751465e-01 1.926006126403808594e+01 -2.174799155909568071e-04 -2.161498377972748131e-05 -7.172847108449786901e-05 -3.281901808804832399e-05
1.141000000000000000e+03 1.851524353027343750e+00 2.222143745422363281e+01 2.430612803436815739e-04 8.977592187875416130e-06 7.561166421510279179e-05 3.333790300530381501e-05
1.142000000000000000e+03 5.974087715148925781e-01 1.363003349304199219e+01 -1.887817343231290579e-04 -1.238573804585030302e-05 -6.035024125594645739e-05 -3.698493310366757214e-05
1.143000000000000000e+03 1.839208364486694336e+00 1.803739929199218750e+01 -2.098334953188896179e-04 -2.232841507066041231e-05 -6.964857311686500907e-05 -3.898325303453020751e-05
1.144000000000000000e+03 1.773808240890502930e+00 1.108033657073974609e+01 1.689337368588894606e-04 1.017516024148790166e-05 5.373267049435526133e-05 4.022685607196763158e-05
1.145000000000000000e+03 6.250723600387573242e-01 7.988199234008789062e+00 -1.347847428405657411e-04 3.793450105149531737e-06 -3.929738886654376984e-05 -2.054920150840189308e-05
1.146000000000000000e+03 5.322882652282714844e+00 -4.033515167236328125e+01 8.315934985876083374e-02 2.750497460365295410e-01 1.074627265334129333e-01 1.426023989915847778e-02
1.147000000000000000e+03 3.982981920242309570e+00 -3.883053588867187500e+01 2.230879291892051697e-02 5.225446820259094238e-01 1.634560525417327881e-01 -4.886575788259506226e-02
1.148000000000000000e+03 2.698324441909790039e+00 -3.472968292236328125e+01 -3.015592508018016815e-02 6.567062139511108398e-01 1.879650801420211792e-01 -6.840816885232925415e-02
1.149000000000000000e+03 5.497653007507324219e+00 -2.768611145019531250e+01 -5.587652325630187988e-01 1.082921028137207031e-02 -1.643808186054229736e-01 4.818807840347290039e-01
1.150000000000000000e+03 1.958725452423095703e+00 -3.326700592041015625e+01 -2.532609552145004272e-02 8.028388023376464844e-01 2.332538068294525146e-01 -2.602795138955116272e-02
1.151000000000000000e+03 4.485530853271484375e+00 -2.885807037353515625e+01 -4.017438590526580811e-01 2.353488653898239136e-01 -4.991850256919860840e-02 3.808360695838928223e-01
1.152000000000000000e+03 3.838133573532104492e+00 -2.438424110412597656e+01 4.712129011750221252e-02 1.842374056577682495e-01 6.940760463476181030e-02 7.730060219764709473e-01
1.153000000000000000e+03 4.168092250823974609e+00 -2.214546012878417969e+01 2.490299642086029053e-01 5.050843358039855957e-01 2.262343019247055054e-01 7.128208279609680176e-01
1.154000000000000000e+03 1.844304680824279785e+00 -1.619986343383789062e+01 8.207943290472030640e-02 -1.038208842277526855e+00 -2.868388295173645020e-01 -1.216158643364906311e-01
1.155000000000000000e+03 6.309044361114501953e-01 -1.201914882659912109e+01 -2.751339692622423172e-03 -1.157910704612731934e+00 -3.481985926628112793e-01 -9.979618340730667114e-02
1.156000000000000000e+03 1.899781227111816406e+00 -1.183624458312988281e+01 6.429161876440048218e-03 -7.559347748756408691e-01 -2.248516827821731567e-01 -2.645830214023590088e-01
1.157000000000000000e+03 1.589076161384582520e+00 -6.135269641876220703e+00 -1.929730549454689026e-02 -2.727608680725097656e-01 -8.761745691299438477e-02 -1.542354226112365723e-01
1.158000000000000000e+03 1.266657471656799316e+00 -3.412242889404296875e+00 -1.692387089133262634e-02 -9.761594980955123901e-02 -3.436194732785224915e-02 -6.982807815074920654e-02
1.159000000000000000e+03 4.749273955821990967e-01 -4.947216987609863281e+00 -5.380643531680107117e-03 -2.028695642948150635e-01 -6.247506290674209595e-02 -4.206319153308868408e-02
1.160000000000000000e+03 6.277633309364318848e-01 4.991611003875732422e+00 -9.343214333057403564e-05 1.624890501261688769e-05 -2.315497113158926368e-05 1.390256147715263069e-05
1.161000000000000000e+03 5.824014663696289062e+00 4.132603168487548828e+00 -6.480774027295410633e-05 2.176697535105631687e-06 -1.878931288956664503e-05 1.831176996347494423e-05
1.162000000000000000e+03 5.921494960784912109e-01 1.081566143035888672e+01 -1.686444156803190708e-04 -8.993681149149779230e-06 -5.329143095877952874e-05 -3.481942621874623001e-05
1.163000000000000000e+03 1.794677257537841797e+00 1.385554409027099609e+01 1.868084800662472844e-04 9.118979505728930235e-06 5.877823787159286439e-05 4.314854231779463589e-05
1.164000000000000000e+03 1.843737602233886719e+00 1.943393707275390625e+01 2.184071781812235713e-04 9.255950317310635000e-06 6.829893391113728285e-05 4.214445289107970893e-05
1.165000000000000000e+03 7.071567535400390625e+01 -1.584224319458007812e+01 1.566508889198303223e+00 2.822307109832763672e+00 1.316644787788391113e+00 2.143469572067260742e+00
1.166000000000000000e+03 7.176420593261718750e+01 -1.596161270141601562e+01 1.166893005371093750e+00 7.560135364532470703e+00 2.618108510971069336e+00 3.891987085342407227e+00
1.167000000000000000e+03 7.060695648193359375e+01 -2.096154403686523438e+01 -4.658285975456237793e-01 5.565642833709716797e+00 1.529944300651550293e+00 7.940438389778137207e-01
1.168000000000000000e+03 7.064121246337890625e+01 -1.206973743438720703e+01 2.924849033355712891e+00 1.961336493492126465e+00 1.465855598449707031e+00 -2.186111927032470703e+00
1.169000000000000000e+03 7.050383758544921875e+01 -1.185436248779296875e+01 2.658413171768188477e+00 2.120998620986938477e+00 1.433823585510253906e+00 -2.157843351364135742e+00
1.170000000000000000e+03 6.999887847900390625e+01 -1.167826652526855469e+01 2.095962524414062500e+00 1.612203955650329590e+00 1.112449884414672852e+00 -1.627542018890380859e+00
1.171000000000000000e+03 7.179380798339843750e+01 -1.177602481842041016e+01 3.569105863571166992e+00 7.376593589782714844e+00 3.283709764480590820e+00 -5.745709419250488281e+00
1.172000000000000000e+03 7.169008636474609375e+01 -1.198562526702880859e+01 4.069117069244384766e+00 5.861093521118164062e+00 2.979063272476196289e+00 -5.275999069213867188e+00
1.173000000000000000e+03 7.125442504882812500e+01 -1.219548130035400391e+01 3.865564107894897461e+00 3.224660396575927734e+00 2.127067327499389648e+00 -3.482483148574829102e+00
1.174000000000000000e+03 7.288951110839843750e+01 -1.533154773712158203e+01 -1.771357357501983643e-01 1.646092605590820312e+01 4.885137081146240234e+00 4.298028469085693359e+00
1.175000000000000000e+03 7.267750549316406250e+01 -1.531152439117431641e+01 3.565181493759155273e-01 1.534222316741943359e+01 4.709622383117675781e+00 5.209008216857910156e+00
1.176000000000000000e+03 6.854864501953125000e+01 -8.725923538208007812e+00 5.030775666236877441e-01 2.353380680084228516e+00 8.569374680519104004e-01 -1.537036418914794922e+00
1.177000000000000000e+03 6.996788787841796875e+01 -1.654333686828613281e+01 8.135415315628051758e-01 2.390151739120483398e+00 9.611079692840576172e-01 1.376303434371948242e+00
1.178000000000000000e+03 7.002904510498046875e+01 -1.787181472778320312e+01 -5.503983795642852783e-02 3.821348905563354492e+00 1.129892706871032715e+00 1.531559824943542480e+00
1.179000000000000000e+03 7.056305694580078125e+01 -1.601731109619140625e+01 1.356651067733764648e+00 2.778983831405639648e+00 1.240690469741821289e+00 1.932234764099121094e+00
1.180000000000000000e+03 7.420282745361328125e+01 -1.789110946655273438e+01 -1.972442030906677246e+00 1.257705402374267578e+01 3.181383609771728516e+00 -6.751120686531066895e-01
1.181000000000000000e+03 7.058054351806640625e+01 -1.081620788574218750e+01 1.825760364532470703e+00 4.108862400054931641e+00 1.780386805534362793e+00 -3.018679380416870117e+00
1.182000000000000000e+03 1.567062187194824219e+01 1.770176649093627930e+00 2.503739233361557126e-05 7.284491584869101644e-05 2.936469172709621489e-05 4.566748611978255212e-05
1.183000000000000000e+03 1.633732604980468750e+01 1.789883136749267578e+00 -3.171412754454649985e-05 -6.619941268581897020e-05 -2.937406316050328314e-05 -4.670194175560027361e-05
1.184000000000000000e+03 1.024681568145751953e+01 -2.777145385742187500e+00 -3.767419457435607910e-01 6.431995332241058350e-02 -9.372659772634506226e-02 -7.619198411703109741e-02
1.185000000000000000e+03 7.474430084228515625e+01 -1.180839729309082031e+01 2.497947931289672852e+00 1.619983673095703125e+01 5.609335422515869141e+00 2.445537805557250977e+00
1.186000000000000000e+03 7.438937377929687500e+01 -1.126653289794921875e+01 5.481699109077453613e-01 1.656100463867187500e+01 5.132752418518066406e+00 1.538240313529968262e+00
1.187000000000000000e+03 6.874324798583984375e+01 -1.100408172607421875e+01 8.968763947486877441e-01 1.039827346801757812e+00 5.810111165046691895e-01 -9.827892184257507324e-01
1.188000000000000000e+03 6.870638275146484375e+01 -1.170864200592041016e+01 6.975943446159362793e-01 3.998116552829742432e-01 3.292218148708343506e-01 -3.104761540889739990e-01
1.189000000000000000e+03 1.831694030761718750e+01 6.114696025848388672e+00 -1.420972548658028245e-04 -2.480141847627237439e-05 -5.006960418540984392e-05 -5.139790664543397725e-05
1.190000000000000000e+03 1.104076385498046875e+01 -3.605641603469848633e+00 -3.480650782585144043e-01 8.018638193607330322e-02 -8.036360889673233032e-02 -7.464762777090072632e-02
1.191000000000000000e+03 1.178324222564697266e+01 -3.677597045898437500e+00 -3.561045229434967041e-01 7.730323076248168945e-02 -8.364038169384002686e-02 -5.169431120157241821e-02
1.192000000000000000e+03 1.246727561950683594e+01 -3.016672372817993164e+00 -4.184242486953735352e-01 4.709660634398460388e-02 -1.113982945680618286e-01 -2.173929288983345032e-02
1.193000000000000000e+03 9.536725044250488281e+00 -3.521067857742309570e+00 -3.177616596221923828e-01 8.423618972301483154e-02 -7.005763798952102661e-02 -1.166552156209945679e-01
1.194000000000000000e+03 1.444893360137939453e+01 2.505194187164306641e+00 9.061825949174817652e-06 -7.862143684178590775e-05 -2.086788299493491650e-05 -1.026041445584269240e-05
1.195000000000000000e+03 1.382348442077636719e+01 2.774423599243164062e+00 1.608508500794414431e-05 5.939558104728348553e-05 2.264419890707358718e-05 -1.765496017469558865e-05
1.196000000000000000e+03 1.215535545349121094e+01 2.333527326583862305e+00 -4.491670188144780695e-05 -3.589063635445199907e-05 -2.424220110697206110e-05 1.143860299634980038e-05
1.197000000000000000e+03 1.398293972015380859e+01 -3.196549654006958008e+00 -4.279808104038238525e-01 2.255434729158878326e-02 -1.216279342770576477e-01 1.078188419342041016e-02
1.198000000000000000e+03 1.482526206970214844e+01 -4.018277168273925781e+00 -3.493788540363311768e-01 1.937084086239337921e-02 -9.900239855051040649e-02 2.173303440213203430e-02
1.199000000000000000e+03 1.253010463714599609e+01 -3.761415719985961914e+00 -3.584791719913482666e-01 5.950373411178588867e-02 -8.969262987375259399e-02 -3.314622491598129272e-02
1.200000000000000000e+03 1.328450489044189453e+01 -3.848135709762573242e+00 -3.595285117626190186e-01 5.242073163390159607e-02 -9.213232994079589844e-02 -1.150817144662141800e-02
1.201000000000000000e+03 1.225581359863281250e+01 3.132170200347900391e+00 5.538842742680571973e-05 3.573127105482853949e-05 2.733590918069239706e-05 -8.342592991539277136e-06
1.202000000000000000e+03 1.062530517578125000e+01 3.271412372589111328e+00 5.746505485149100423e-05 2.908284659497439861e-05 2.596436934254597872e-05 -4.907787570118671283e-06
1.203000000000000000e+03 1.307192325592041016e+01 2.998542308807373047e+00 -5.080352275399491191e-05 -3.942896364605985582e-05 -2.706974555621854961e-05 1.713215169729664922e-05
1.204000000000000000e+03 6.594436168670654297e+00 2.611598730087280273e+00 5.228491863817907870e-05 9.315084753325209022e-06 1.848000101745128632e-05 3.986281626566778868e-06
1.205000000000000000e+03 4.356632709503173828e+00 3.357868432998657227e+00 8.232019172282889485e-05 -1.089502711693057790e-05 2.142754965461790562e-05 -3.061456027353415266e-06
1.206000000000000000e+03 3.239375829696655273e+00 4.840147495269775391e+00 -9.820239210966974497e-05 -2.779432725219521672e-05 -3.779901453526690602e-05 -6.115690484875813127e-05
1.207000000000000000e+03 4.313089370727539062e+00 2.611983776092529297e+00 -6.280674278968945146e-05 9.678930837253574282e-06 -1.593834349478129297e-05 -1.144443558587227017e-05
1.208000000000000000e+03 5.815522670745849609e+00 3.351462602615356445e+00 6.492561806226149201e-05 3.197448222636012360e-06 2.043692074948921800e-05 3.462331733317114413e-06
1.209000000000000000e+03 9.770694732666015625e+00 2.566595315933227539e+00 4.349446680862456560e-05 2.603923894639592618e-05 2.086011045321356505e-05 -1.529991209281433839e-06
1.210000000000000000e+03 6.587670326232910156e+00 3.367298126220703125e+00 -6.856658001197502017e-05 -4.751699634653050452e-06 -2.199548362114001065e-05 -6.506717454612953588e-06
1.211000000000000000e+03 1.710019588470458984e+00 4.622198104858398438e+00 -2.669890363904414698e-06 -3.125453076791018248e-05 -1.017732665786752477e-05 -2.370045149291399866e-05
1.212000000000000000e+03 4.571209847927093506e-01 3.549310445785522461e+00 7.679344707867130637e-05 1.015652833302738145e-05 2.608499198686331511e-05 -2.459900679241400212e-05
1.213000000000000000e+03 8.235402107238769531e+00 4.107879161834716797e+00 6.279772787820547819e-05 1.546294333820696920e-05 2.347820191062055528e-05 -1.504441570432391018e-05
1.214000000000000000e+03 9.813069343566894531e+00 3.304251432418823242e+00 -5.572155714617110789e-05 -2.506994133000262082e-05 -2.423744990664999932e-05 1.693222088761103805e-06
1.215000000000000000e+03 1.642394256591796875e+01 -4.155787944793701172e+00 -3.303914368152618408e-01 -1.673845574259757996e-02 -1.041389703750610352e-01 3.955314680933952332e-02
1.216000000000000000e+03 1.806244277954101562e+01 -4.230605602264404297e+00 -3.116028606891632080e-01 -4.827860742807388306e-02 -1.079644411802291870e-01 3.566559776663780212e-02
1.217000000000000000e+03 1.733551979064941406e+01 -4.946589469909667969e+00 -2.306791394948959351e-01 -3.844557702541351318e-02 -8.073741197586059570e-02 4.713075235486030579e-02
1.218000000000000000e+03 1.960140991210937500e+01 -3.489615440368652344e+00 -3.931232094764709473e-01 -5.990387126803398132e-02 -1.359081268310546875e-01 1.113885268568992615e-02
1.219000000000000000e+03 2.057969093322753906e+01 -4.183098793029785156e+00 -3.096882104873657227e-01 -7.534764707088470459e-02 -1.155107542872428894e-01 -1.593709178268909454e-02
1.220000000000000000e+03 2.226436805725097656e+01 -4.090888023376464844e+00 -3.603235781192779541e-01 -6.266677379608154297e-02 -1.268971115350723267e-01 -9.906360507011413574e-02
1.221000000000000000e+03 2.211455345153808594e+01 -3.300908565521240234e+00 -4.563588500022888184e-01 -1.286394894123077393e-03 -1.372935771942138672e-01 -6.129701808094978333e-02
1.222000000000000000e+03 6.288821220397949219e+00 -3.693909883499145508e+00 -2.012563347816467285e-01 2.182636782526969910e-02 -5.382899194955825806e-02 -1.997136920690536499e-01
1.223000000000000000e+03 2.096534252166748047e+00 -3.219879150390625000e+00 -3.973932936787605286e-02 -9.192453324794769287e-02 -3.949915990233421326e-02 -1.057013794779777527e-01
1.224000000000000000e+03 3.905081272125244141e+00 -8.489502906799316406e+00 -6.045013293623924255e-02 -1.641507893800735474e-01 -6.738027930259704590e-02 -3.299810886383056641e-01
1.225000000000000000e+03 7.949279785156250000e+00 -3.554383039474487305e+00 -2.668247222900390625e-01 6.525879353284835815e-02 -6.046978011727333069e-02 -1.621850728988647461e-01
1.226000000000000000e+03 5.384530067443847656e+00 -2.857486248016357422e+00 -1.785410642623901367e-01 -6.085247267037630081e-03 -5.538789182901382446e-02 -1.677179187536239624e-01
1.227000000000000000e+03 5.443778991699218750e+00 -3.791183710098266602e+00 -1.674338281154632568e-01 -2.112554153427481651e-03 -5.086391419172286987e-02 -2.041908204555511475e-01
1.228000000000000000e+03 1.437508106231689453e+00 -4.724768161773681641e+00 -2.042760327458381653e-02 -1.774038821458816528e-01 -5.934944376349449158e-02 -1.141062006354331970e-01
1.229000000000000000e+03 8.754847526550292969e+00 -3.523657798767089844e+00 -2.974054217338562012e-01 8.362340182065963745e-02 -6.413460522890090942e-02 -1.369637399911880493e-01
1.230000000000000000e+03 1.561775875091552734e+01 -4.094353675842285156e+00 -3.372992277145385742e-01 -6.700733210891485214e-03 -1.031999886035919189e-01 3.240730613470077515e-02
1.231000000000000000e+03 1.143542575836181641e+01 3.217793703079223633e+00 -5.681904076482169330e-05 -3.480871237115934491e-05 -2.748832594079431146e-05 7.558418019470991567e-06
1.232000000000000000e+03 8.998576164245605469e+00 3.331352949142456055e+00 5.325556412572041154e-05 2.230021527793724090e-05 2.266673436679411680e-05 -3.744001105587813072e-06
1.233000000000000000e+03 1.889290428161621094e+01 -4.238173007965087891e+00 -3.009248673915863037e-01 -6.949189305305480957e-02 -1.111250296235084534e-01 2.572353370487689972e-02
1.234000000000000000e+03 2.559958457946777344e+01 -3.053342819213867188e+00 -9.327217936515808105e-01 -4.827762022614479065e-02 -2.942998111248016357e-01 -3.315762281417846680e-01
1.235000000000000000e+03 2.475078964233398438e+01 -3.078833103179931641e+00 -7.331848740577697754e-01 -3.247784823179244995e-02 -2.296988219022750854e-01 -2.215716093778610229e-01
1.236000000000000000e+03 2.030278205871582031e+01 1.986772179603576660e+00 6.913401011843234301e-05 -1.313766551902517676e-05 1.679890374362003058e-05 -3.076360007980838418e-05
1.237000000000000000e+03 2.141950416564941406e+01 -4.135475158691406250e+00 -3.360814154148101807e-01 -5.374734103679656982e-02 -1.169486194849014282e-01 -5.041854828596115112e-02
1.238000000000000000e+03 2.070353507995605469e+01 -4.948986530303955078e+00 -2.151988744735717773e-01 -9.313781559467315674e-02 -9.250100702047348022e-02 -2.621777914464473724e-02
1.239000000000000000e+03 7.556164550781250000e+01 -1.456297779083251953e+01 4.753932476043701172e+00 1.289027023315429688e+01 5.293261051177978516e+00 -3.177980661392211914e+00
1.240000000000000000e+03 7.499989318847656250e+01 -1.553301620483398438e+01 1.790560007095336914e+00 1.543033695220947266e+01 5.166268825531005859e+00 -3.716788291931152344e+00
1.241000000000000000e+03 3.907798004150390625e+01 -1.186452770233154297e+01 9.222940802574157715e-01 1.030828380584716797e+01 3.369173288345336914e+00 -7.674194872379302979e-02
1.242000000000000000e+03 1.998487663269042969e+01 -1.587451076507568359e+01 5.429508686065673828e-01 -1.363484114408493042e-01 1.219807267189025879e-01 8.510246127843856812e-02
1.243000000000000000e+03 2.339506340026855469e+01 -1.748668098449707031e+01 2.134372591972351074e-01 -4.206228628754615784e-02 5.141248926520347595e-02 1.593200415372848511e-01
1.244000000000000000e+03 6.694418334960937500e+01 -6.269181728363037109e+00 -1.396276801824569702e-01 1.832484364509582520e+00 5.078570246696472168e-01 -7.107678651809692383e-01
1.245000000000000000e+03 5.867279052734375000e+01 7.244102954864501953e-01 -3.165333032608032227e+00 -9.883665293455123901e-02 -9.792509078979492188e-01 9.076024591922760010e-02
1.246000000000000000e+03 5.348707962036132812e+01 4.012978553771972656e+00 -2.264450311660766602e+00 3.046269416809082031e-01 -5.879470109939575195e-01 -1.878798305988311768e-01
1.247000000000000000e+03 1.884065818786621094e+01 -1.566099357604980469e+01 6.288572549819946289e-01 -1.321226954460144043e-01 1.490203738212585449e-01 5.495823174715042114e-02
1.248000000000000000e+03 2.841345787048339844e+01 -1.570490741729736328e+01 -4.582239687442779541e-02 -2.259911894798278809e-01 -8.154407888650894165e-02 7.863387465476989746e-01
1.249000000000000000e+03 2.688785171508789062e+01 -1.735724258422851562e+01 -2.799639701843261719e-01 5.601800605654716492e-02 -6.718378514051437378e-02 2.955785095691680908e-01
1.250000000000000000e+03 1.774548721313476562e+01 -1.537613868713378906e+01 7.157019972801208496e-01 -1.050971522927284241e-01 1.831814646720886230e-01 3.854227438569068909e-02
1.251000000000000000e+03 2.137756919860839844e+01 -1.486788177490234375e+01 5.154682993888854980e-01 -2.031473070383071899e-01 9.369628876447677612e-02 2.086714208126068115e-01
1.252000000000000000e+03 1.136492538452148438e+01 1.781679344177246094e+01 3.173017757944762707e-04 -1.386896019539562985e-05 9.102984768105670810e-05 -2.930907430709339678e-05
1.253000000000000000e+03 2.601768493652343750e+01 -3.303485870361328125e+01 -3.189154565334320068e-01 7.523957639932632446e-02 -7.310275733470916748e-02 1.445768326520919800e-01
1.254000000000000000e+03 2.689353752136230469e+01 -3.422911453247070312e+01 -1.701615899801254272e-01 5.557147860527038574e-01 1.156659573316574097e-01 4.351812899112701416e-01
1.255000000000000000e+03 2.391405677795410156e+01 -1.504685974121093750e+01 3.817279040813446045e-01 -2.021152377128601074e-01 5.388379842042922974e-02 3.907142281532287598e-01
1.256000000000000000e+03 1.888487815856933594e+01 -3.389813995361328125e+01 -5.458849072456359863e-01 -7.208876311779022217e-02 -1.853920966386795044e-01 2.142158802598714828e-03
1.257000000000000000e+03 1.992514801025390625e+01 -3.497496414184570312e+01 -3.605470061302185059e-01 -4.279454052448272705e-02 -1.210024580359458923e-01 -2.685087267309427261e-03
1.258000000000000000e+03 4.107880020141601562e+01 -3.736028909683227539e+00 6.432178020477294922e-01 1.236915874481201172e+01 3.903712987899780273e+00 2.547032833099365234e+00
1.259000000000000000e+03 3.781504440307617188e+01 -2.306318283081054688e+00 -9.240388274192810059e-01 7.074278354644775391e+00 1.845071911811828613e+00 7.749066948890686035e-01
1.260000000000000000e+03 5.218910598754882812e+01 -3.375267791748046875e+01 -5.026320219039916992e-01 7.139974236488342285e-01 6.340961903333663940e-02 -3.721975684165954590e-01
1.261000000000000000e+03 5.246947479248046875e+01 -3.067138099670410156e+01 -2.726114094257354736e-01 3.663831055164337158e-01 2.813150174915790558e-02 -6.873384118080139160e-02
1.262000000000000000e+03 4.949725723266601562e+01 -2.944630050659179688e+01 -9.047012031078338623e-02 9.263401627540588379e-01 2.507610023021697998e-01 -4.154728651046752930e-01
1.263000000000000000e+03 1.413831138610839844e+01 1.348702144622802734e+01 1.925888209370896220e-04 3.084286436205729842e-05 6.702950486214831471e-05 1.146079957834444940e-04
1.264000000000000000e+03 1.670362091064453125e+01 -1.493292903900146484e+01 8.206213116645812988e-01 -6.962673366069793701e-02 2.252983748912811279e-01 8.531150221824645996e-02
1.265000000000000000e+03 2.477509880065917969e+01 -1.643876647949218750e+01 1.407439857721328735e-01 -8.070364594459533691e-02 1.801210083067417145e-02 3.645349442958831787e-01
1.266000000000000000e+03 4.228076171875000000e+01 -2.469055747985839844e+01 2.450738102197647095e-01 4.410386085510253906e+00 1.396637916564941406e+00 -5.949589610099792480e-01
1.267000000000000000e+03 4.681132125854492188e+01 -2.655599594116210938e+01 2.863377928733825684e-01 1.499249458312988281e+00 5.356761813163757324e-01 -7.066457271575927734e-01
1.268000000000000000e+03 7.002378845214843750e+01 -2.362310791015625000e+01 -2.002133429050445557e-02 4.951807975769042969e+00 1.479535937309265137e+00 1.541000604629516602e-01
1.269000000000000000e+03 6.968871307373046875e+01 -2.089814186096191406e+01 -2.101992070674896240e-01 4.331010818481445312e+00 1.236243486404418945e+00 6.017847657203674316e-01
1.270000000000000000e+03 2.152821731567382812e+01 -3.556137084960937500e+01 -3.164428472518920898e-01 6.289575248956680298e-02 -7.606412470340728760e-02 3.671292588114738464e-02
1.271000000000000000e+03 1.275829315185546875e+01 -3.361434173583984375e+01 -5.446323752403259277e-01 -2.113289535045623779e-01 -2.267884016036987305e-01 2.460704445838928223e-01
1.272000000000000000e+03 1.369190597534179688e+01 -3.470219802856445312e+01 -4.245757758617401123e-01 -2.227925062179565430e-01 -1.942104846239089966e-01 1.704440861940383911e-01
1.273000000000000000e+03 5.074919891357421875e+01 -2.862591361999511719e+01 -8.772763423621654510e-03 4.664721190929412842e-01 1.373098045587539673e-01 -2.262523174285888672e-01
1.274000000000000000e+03 4.986600112915039062e+01 -3.197366714477539062e+01 -3.259395062923431396e-01 1.090520024299621582e+00 2.293741703033447266e-01 -4.990924298763275146e-01
1.275000000000000000e+03 6.296581268310546875e+00 -2.876558876037597656e+01 -5.174474716186523438e-01 -2.706756889820098877e-01 -2.364369481801986694e-01 4.092555642127990723e-01
1.276000000000000000e+03 4.182904434204101562e+01 -1.063357114791870117e+00 -9.125761389732360840e-01 1.043799304962158203e+01 2.857625007629394531e+00 5.571816563606262207e-01
1.277000000000000000e+03 4.143433380126953125e+01 -2.376212120056152344e+00 8.621267080307006836e-01 1.132927894592285156e+01 3.657421588897705078e+00 1.857935428619384766e+00
1.278000000000000000e+03 6.006296920776367188e+01 -3.409789657592773438e+01 -1.505327701568603516e+00 -5.986807942390441895e-01 -6.312025189399719238e-01 -6.421459317207336426e-01
1.279000000000000000e+03 6.125525665283203125e+01 -3.522151947021484375e+01 -7.523293495178222656e-01 -6.544826030731201172e-01 -4.220435917377471924e-01 -5.592241287231445312e-01
1.280000000000000000e+03 6.707258605957031250e+01 -4.788537502288818359e+00 -5.728708505630493164e-01 2.408101797103881836e+00 5.505692958831787109e-01 -7.052086591720581055e-01
1.281000000000000000e+03 6.585586547851562500e+01 -4.290436744689941406e+00 -8.132205605506896973e-01 1.666765689849853516e+00 2.560635209083557129e-01 -3.042525649070739746e-01
1.282000000000000000e+03 4.710331726074218750e+01 -2.472121238708496094e+01 3.369222581386566162e-01 1.074569702148437500e+00 4.234475791454315186e-01 -6.190351843833923340e-01
1.283000000000000000e+03 4.770584487915039062e+01 -2.750255966186523438e+01 1.559779047966003418e-01 1.238905787467956543e+00 4.184651076793670654e-01 -6.094978451728820801e-01
1.284000000000000000e+03 7.255348205566406250e+01 -1.615394783020019531e+01 -3.823498785495758057e-01 1.244711589813232422e+01 3.619429826736450195e+00 3.582044363021850586e+00
1.285000000000000000e+03 4.593483352661132812e+01 -2.559957695007324219e+01 3.040911853313446045e-01 1.843470931053161621e+00 6.442686319351196289e-01 -7.914825081825256348e-01
1.286000000000000000e+03 6.960839843750000000e+01 -1.130865192413330078e+01 1.668887734413146973e+00 1.572365760803222656e+00 9.723760485649108887e-01 -1.522884249687194824e+00
1.287000000000000000e+03 7.143863677978515625e+01 -1.591825962066650391e+01 1.470655083656311035e+00 5.697150707244873047e+00 2.150341749191284180e+00 3.393977165222167969e+00
1.288000000000000000e+03 6.978888702392578125e+01 -1.868521499633789062e+01 -1.607777774333953857e-01 3.813942670822143555e+00 1.095949411392211914e+00 1.308870315551757812e+00
1.289000000000000000e+03 7.076087188720703125e+01 -2.209411811828613281e+01 -3.454500436782836914e-01 5.640155315399169922e+00 1.588411569595336914e+00 4.455228447914123535e-01
1.290000000000000000e+03 4.346388626098632812e+01 -2.239849281311035156e+01 2.358381301164627075e-01 3.915368795394897461e+00 1.245362043380737305e+00 -9.709731936454772949e-01
1.291000000000000000e+03 4.430776977539062500e+01 -2.347570800781250000e+01 3.213056921958923340e-01 3.029118776321411133e+00 1.005127310752868652e+00 -9.582185745239257812e-01
1.292000000000000000e+03 7.484980773925781250e+01 -3.262793731689453125e+01 -3.058692812919616699e-01 8.812787055969238281e+00 2.552075147628784180e+00 7.871572673320770264e-02
1.293000000000000000e+03 7.660440063476562500e+01 -3.582285690307617188e+01 -1.834179461002349854e-01 1.038133716583251953e+01 3.059375762939453125e+00 1.330892741680145264e-01
1.294000000000000000e+03 7.631059265136718750e+01 -2.295220184326171875e+01 -5.805147290229797363e-01 9.978133201599121094e+00 2.819285631179809570e+00 -1.021298050880432129e+00
1.295000000000000000e+03 7.809568023681640625e+01 -2.897461509704589844e+01 -8.716050535440444946e-02 1.175880622863769531e+01 3.501493692398071289e+00 -1.905345171689987183e-01
1.296000000000000000e+03 7.455286407470703125e+01 -3.794942855834960938e+01 7.699327170848846436e-02 8.008490562438964844e+00 2.425645112991333008e+00 1.697361171245574951e-01
1.297000000000000000e+03 7.529750823974609375e+01 1.502676010131835938e+01 1.185989826917648315e-01 5.509724140167236328e+00 1.688496947288513184e+00 -8.602668642997741699e-01
1.298000000000000000e+03 7.666611480712890625e+01 1.476463222503662109e+01 5.565157905220985413e-02 5.868332862854003906e+00 1.777195334434509277e+00 -6.758658885955810547e-01
1.299000000000000000e+03 7.755232238769531250e+01 3.507036209106445312e+01 1.316561084240674973e-02 4.239325046539306641e+00 1.275747179985046387e+00 -4.132600501179695129e-02
1.300000000000000000e+03 7.646401214599609375e+01 3.229407119750976562e+01 3.088501654565334320e-02 4.313097476959228516e+00 1.303194761276245117e+00 -1.008203327655792236e-01
1.301000000000000000e+03 7.845812988281250000e+01 -2.205132865905761719e+01 -2.044279873371124268e-01 1.061096858978271484e+01 3.121962070465087891e+00 -9.155070185661315918e-01
1.302000000000000000e+03 7.732660675048828125e+01 -2.321697044372558594e+01 -3.620626926422119141e-01 1.045937538146972656e+01 3.029193639755249023e+00 -9.418966174125671387e-01
1.303000000000000000e+03 7.676204681396484375e+01 -3.016689682006835938e+01 -2.083968669176101685e-01 1.056746387481689453e+01 3.107720136642456055e+00 -1.376229524612426758e-01
1.304000000000000000e+03 7.801796722412109375e+01 -3.457365036010742188e+01 -7.783218473196029663e-02 1.170796108245849609e+01 3.489038705825805664e+00 1.031350120902061462e-01
1.305000000000000000e+03 7.683795166015625000e+01 -2.877521514892578125e+01 -2.169003486633300781e-01 1.059291362762451172e+01 3.112803936004638672e+00 -2.700861692428588867e-01
1.306000000000000000e+03 7.703449249267578125e+01 -2.598708724975585938e+01 -2.134935110807418823e-01 1.055435466766357422e+01 3.102258205413818359e+00 -5.667838454246520996e-01
1.307000000000000000e+03 7.692615509033203125e+01 -2.738401794433593750e+01 -2.011308372020721436e-01 1.057885932922363281e+01 3.113318681716918945e+00 -4.288236200809478760e-01
1.308000000000000000e+03 7.716965484619140625e+01 -2.459505081176757812e+01 -2.442785352468490601e-01 1.052357387542724609e+01 3.083788633346557617e+00 -7.289993166923522949e-01
1.309000000000000000e+03 7.671675109863281250e+01 -3.312488555908203125e+01 -9.324328601360321045e-02 1.048475170135498047e+01 3.117452383041381836e+00 1.340946257114410400e-01
1.310000000000000000e+03 7.538163757324218750e+01 -3.137478637695312500e+01 -3.018701970577239990e-01 9.358966827392578125e+00 2.717129230499267578e+00 -5.550331994891166687e-02
1.311000000000000000e+03 7.665451812744140625e+01 -3.165098381042480469e+01 -1.795140802860260010e-01 1.046962356567382812e+01 3.087033033370971680e+00 4.461477324366569519e-02
1.312000000000000000e+03 7.536061859130859375e+01 -4.024566650390625000e+01 1.881279647350311279e-01 9.340548515319824219e+00 2.858603000640869141e+00 -1.667456626892089844e-01
1.313000000000000000e+03 7.795478820800781250e+01 2.276379966735839844e+01 3.107352368533611298e-02 4.910655021667480469e+00 1.482518553733825684e+00 -2.393477410078048706e-01
1.314000000000000000e+03 7.675517272949218750e+01 2.020531845092773438e+01 6.833406537771224976e-02 5.109162330627441406e+00 1.553249001502990723e+00 -4.562601745128631592e-01
1.315000000000000000e+03 7.540861511230468750e+01 2.167144393920898438e+01 1.246096566319465637e-01 4.830339908599853516e+00 1.486484885215759277e+00 -5.193976163864135742e-01
1.316000000000000000e+03 7.665267944335937500e+01 1.335081481933593750e+01 5.773370340466499329e-02 6.096863269805908203e+00 1.846379160881042480e+00 -7.157300710678100586e-01
1.317000000000000000e+03 7.550576782226562500e+01 7.848114967346191406e+00 -2.645921520888805389e-02 6.652512550354003906e+00 1.987816095352172852e+00 -9.940389394760131836e-01
1.318000000000000000e+03 7.658567047119140625e+01 2.299717521667480469e+01 6.941261887550354004e-02 4.817949295043945312e+00 1.466208577156066895e+00 -3.689076304435729980e-01
1.319000000000000000e+03 7.801741027832031250e+01 2.688615989685058594e+01 2.112254127860069275e-02 4.548404216766357422e+00 1.370858073234558105e+00 -1.439800560474395752e-01
1.320000000000000000e+03 7.665042114257812500e+01 1.192540073394775391e+01 4.367433488368988037e-02 6.342488765716552734e+00 1.915848851203918457e+00 -7.597851753234863281e-01
1.321000000000000000e+03 7.852101135253906250e+01 -2.065599441528320312e+01 -2.304655015468597412e-01 9.964829444885253906e+00 2.920309066772460938e+00 -1.226537823677062988e+00
1.322000000000000000e+03 7.747981262207031250e+01 -2.185596466064453125e+01 -4.524031579494476318e-01 1.031073188781738281e+01 2.957498550415039062e+00 -1.266250491142272949e+00
1.323000000000000000e+03 7.649820709228515625e+01 2.847848510742187500e+01 4.873216897249221802e-02 4.448792457580566406e+00 1.349257469177246094e+00 -1.910824179649353027e-01
1.324000000000000000e+03 7.673855590820312500e+01 7.687329292297363281e+00 -1.801451854407787323e-02 7.164536952972412109e+00 2.143956661224365234e+00 -7.776463627815246582e-01
1.325000000000000000e+03 7.718714904785156250e+01 -4.926773548126220703e+00 -5.766088366508483887e-01 8.950064659118652344e+00 2.512036800384521484e+00 7.443212866783142090e-01
1.326000000000000000e+03 7.730535125732421875e+01 -8.927301406860351562e+00 -5.794877409934997559e-01 8.962127685546875000e+00 2.514791965484619141e+00 2.235381841659545898e+00
1.327000000000000000e+03 7.804162597656250000e+01 6.042900085449218750e+00 -1.979203708469867706e-02 8.061180114746093750e+00 2.412416458129882812e+00 -4.828751981258392334e-01
1.328000000000000000e+03 7.689299011230468750e+01 2.075525999069213867e+00 -1.541043519973754883e-01 8.211142539978027344e+00 2.417111396789550781e+00 -5.036019682884216309e-01
1.329000000000000000e+03 7.578353118896484375e+01 3.490093612670898438e+01 4.003778472542762756e-02 4.257257461547851562e+00 1.289188623428344727e+00 -7.621619105339050293e-02
1.330000000000000000e+03 7.674118804931640625e+01 2.705720520019531250e+01 5.444791167974472046e-02 4.522215366363525391e+00 1.372998952865600586e+00 -2.162736356258392334e-01
1.331000000000000000e+03 7.677071380615234375e+01 1.885245132446289062e+01 6.988339126110076904e-02 5.284245967864990234e+00 1.606238842010498047e+00 -5.107047557830810547e-01
1.332000000000000000e+03 7.677388000488281250e+01 4.874265193939208984e+00 -7.117459923028945923e-02 7.708529472351074219e+00 2.291206359863281250e+00 -6.992440223693847656e-01
1.333000000000000000e+03 7.703981781005859375e+01 -3.561107397079467773e+00 -4.403530955314636230e-01 8.868372917175292969e+00 2.528405904769897461e+00 3.630331754684448242e-01
1.334000000000000000e+03 7.557308197021484375e+01 -1.055141735076904297e+01 4.921430349349975586e-02 1.266987609863281250e+01 3.815726995468139648e+00 2.410841464996337891e+00
1.335000000000000000e+03 7.830648803710937500e+01 -1.332256793975830078e+01 1.306953310966491699e+00 5.056562900543212891e+00 1.909054875373840332e+00 -5.505502223968505859e-02
1.336000000000000000e+03 7.853170013427734375e+01 -1.770952796936035156e+01 -2.030844241380691528e-01 7.677207946777343750e+00 2.242237091064453125e+00 -2.113296508789062500e+00
1.337000000000000000e+03 7.845574188232421875e+01 -1.626562309265136719e+01 2.534990012645721436e-01 6.449471473693847656e+00 2.010891199111938477e+00 -2.282756328582763672e+00
1.338000000000000000e+03 7.836998748779296875e+01 -6.495800018310546875e+00 -3.245540559291839600e-01 8.531014442443847656e+00 2.461938142776489258e+00 1.063158035278320312e+00
1.339000000000000000e+03 7.731288909912109375e+01 -1.029067420959472656e+01 -3.167749196290969849e-02 8.704627037048339844e+00 2.601884841918945312e+00 2.524153470993041992e+00
1.340000000000000000e+03 7.564926147460937500e+01 -1.617863655090332031e+01 6.715525388717651367e-01 1.297144126892089844e+01 4.092898368835449219e+00 -3.635932683944702148e+00
1.341000000000000000e+03 7.572980499267578125e+01 -1.782402801513671875e+01 -1.305116415023803711e+00 1.196398353576660156e+01 3.197660207748413086e+00 -2.549793243408203125e+00
1.342000000000000000e+03 7.235468292236328125e+01 3.625407409667968750e+01 8.479679375886917114e-02 4.229388236999511719e+00 1.294255495071411133e+00 -8.683542162179946899e-02
1.343000000000000000e+03 7.669495391845703125e+01 3.099684333801269531e+01 3.345466405153274536e-02 4.343143939971923828e+00 1.312979459762573242e+00 -1.159316226840019226e-01
1.344000000000000000e+03 7.670983123779296875e+01 9.087181091308593750e+00 4.504575394093990326e-03 6.886359214782714844e+00 2.067259073257446289e+00 -7.841852903366088867e-01
1.345000000000000000e+03 7.811285400390625000e+01 1.853609085083007812e+00 -7.289814203977584839e-02 8.886622428894042969e+00 2.644117355346679688e+00 -3.057076334953308105e-01
1.346000000000000000e+03 7.675769805908203125e+01 6.281566143035888672e+00 -5.075392872095108032e-02 7.435275077819824219e+00 2.215356349945068359e+00 -7.466609477996826172e-01
1.347000000000000000e+03 7.682658386230468750e+01 3.470879554748535156e+00 -1.148627102375030518e-01 7.963790893554687500e+00 2.354678392410278320e+00 -6.146533489227294922e-01
1.348000000000000000e+03 7.695300292968750000e+01 -2.159539461135864258e+00 -3.658992648124694824e-01 8.758294105529785156e+00 2.517718315124511719e+00 7.571190595626831055e-02
1.349000000000000000e+03 7.509192657470703125e+01 -4.936126232147216797e+00 -1.102181315422058105e+00 8.888133049011230469e+00 2.335785627365112305e+00 3.121087551116943359e-01
1.350000000000000000e+03 7.720722198486328125e+01 -1.276766777038574219e+01 2.428192853927612305e+00 8.006468772888183594e+00 3.130398511886596680e+00 8.956059813499450684e-01
1.351000000000000000e+03 7.736285400390625000e+01 -1.158201217651367188e+01 1.062452793121337891e+00 8.125686645507812500e+00 2.756441831588745117e+00 2.139316320419311523e+00
1.352000000000000000e+03 7.761090850830078125e+01 -2.050855636596679688e+01 -5.379611253738403320e-01 9.962475776672363281e+00 2.827354192733764648e+00 -1.673219680786132812e+00
1.353000000000000000e+03 1.336589527130126953e+01 6.161421775817871094e+00 1.164566810984979384e-06 -4.760515821544686332e-06 -1.078784634955809452e-06 -4.614943100023083389e-05
1.354000000000000000e+03 1.936632156372070312e+01 2.970639228820800781e+00 1.331072271568700671e-04 7.775711310387123376e-06 4.226488090353086591e-05 4.141610043006949127e-05
1.355000000000000000e+03 4.262557601928710938e+01 1.511679172515869141e+01 8.710246086120605469e-01 8.597945213317871094e+00 2.840690851211547852e+00 1.885361671447753906e+00
1.356000000000000000e+03 4.397547149658203125e+01 1.647278976440429688e+01 9.690135717391967773e-01 7.035739421844482422e+00 2.401425838470458984e+00 1.791710019111633301e+00
1.357000000000000000e+03 1.302563095092773438e+01 3.166746711730957031e+01 9.731334866955876350e-04 -6.712675676681101322e-04 9.055976261151954532e-05 -1.308978244196623564e-04
1.358000000000000000e+03 4.442543792724609375e+01 1.936463165283203125e+01 5.922049880027770996e-01 6.310158252716064453e+00 2.070708990097045898e+00 1.191215157508850098e+00
1.359000000000000000e+03 3.670206451416015625e+01 -1.400774478912353516e+01 7.685559988021850586e-01 6.361604690551757812e+00 2.139048337936401367e+00 -5.065269023180007935e-02
1.360000000000000000e+03 3.852425003051757812e+01 -1.745826911926269531e+01 -2.559701800346374512e-01 8.051052093505859375e+00 2.338524580001831055e+00 6.806830763816833496e-01
1.361000000000000000e+03 4.334300613403320312e+01 1.214876556396484375e+01 1.559926986694335938e+00 8.053233146667480469e+00 2.883948087692260742e+00 2.847955942153930664e+00
1.362000000000000000e+03 4.444863510131835938e+01 2.546610832214355469e+01 4.459752440452575684e-01 5.476234436035156250e+00 1.776662826538085938e+00 1.273629963397979736e-01
1.363000000000000000e+03 1.502379226684570312e+01 1.083091926574707031e+01 1.523842656752094626e-04 5.158733620191924274e-05 6.119148019934073091e-05 7.628576713614165783e-05
1.364000000000000000e+03 4.317860412597656250e+01 2.091084098815917969e+01 1.985998898744583130e-01 6.487500190734863281e+00 2.005830049514770508e+00 6.138167977333068848e-01
1.365000000000000000e+03 4.446478271484375000e+01 2.398505973815917969e+01 3.355741798877716064e-01 5.658973693847656250e+00 1.798364400863647461e+00 3.605268895626068115e-01
1.366000000000000000e+03 4.590035629272460938e+01 2.296981048583984375e+01 5.558900833129882812e-01 5.409971237182617188e+00 1.789758443832397461e+00 7.040719389915466309e-01
1.367000000000000000e+03 4.314211654663085938e+01 2.383975028991699219e+01 1.790908128023147583e-01 5.963588237762451172e+00 1.842803597450256348e+00 2.346907258033752441e-01
1.368000000000000000e+03 2.405900478363037109e+00 3.576682281494140625e+01 8.260592585429549217e-05 3.496947465464472771e-04 1.296902046306058764e-04 -5.989770943415351212e-05
1.369000000000000000e+03 6.394805431365966797e+00 3.870841217041015625e+01 -2.838986110873520374e-04 3.032425593119114637e-04 5.803186923003522679e-06 -3.550367837306112051e-04
1.370000000000000000e+03 5.653659343719482422e+00 3.125767326354980469e+01 4.398770761326886714e-05 1.601284166099503636e-04 6.123483763076364994e-05 1.514666364528238773e-04
1.371000000000000000e+03 3.315071105957031250e+00 2.911383438110351562e+01 3.483812615741044283e-04 4.662977880798280239e-05 1.185033106594346464e-04 -2.727239552768878639e-05
1.372000000000000000e+03 1.866682410240173340e+00 2.499649238586425781e+01 2.739302872214466333e-04 1.485707161918981001e-05 8.663620974402874708e-05 1.961275484063662589e-05
1.373000000000000000e+03 1.985857367515563965e+00 2.912864303588867188e+01 -2.779722271952778101e-04 4.107631320948712528e-05 -7.106877455953508615e-05 -7.939989154692739248e-05
1.374000000000000000e+03 2.312937021255493164e+00 3.446867752075195312e+01 -2.026554575422778726e-04 1.643255236558616161e-04 -1.149898071162169799e-05 -2.090051420964300632e-04
1.375000000000000000e+03 3.635893821716308594e+00 3.296391296386718750e+01 -3.259544027969241142e-04 2.237682929262518883e-04 -3.065583223360590637e-05 -2.776234759949147701e-04
1.376000000000000000e+03 4.800155639648437500e+00 3.026926231384277344e+01 3.603709046728909016e-04 7.942361844470724463e-05 1.319383591180667281e-04 -1.218876132043078542e-04
1.377000000000000000e+03 3.532714843750000000e+00 3.048928260803222656e+01 -2.819615765474736691e-04 6.346357986330986023e-05 -6.554940046044066548e-05 -1.468026021029800177e-04
1.378000000000000000e+03 5.028498172760009766e+00 4.052669906616210938e+01 1.348255464108660817e-04 8.062695269472897053e-04 2.823285176418721676e-04 -9.620544005883857608e-05
1.379000000000000000e+03 3.533507823944091797e+00 -3.544771575927734375e+01 -3.064383752644062042e-02 4.993998706340789795e-01 1.406268030405044556e-01 -7.366971671581268311e-02
1.380000000000000000e+03 2.279425859451293945e+00 -2.850982666015625000e+01 -1.675108969211578369e-01 5.156020522117614746e-01 1.044273450970649719e-01 3.338692486286163330e-01
1.381000000000000000e+03 1.750525474548339844e+00 -3.448373413085937500e+01 -2.991391159594058990e-02 8.318280577659606934e-01 2.405742406845092773e-01 -5.601172149181365967e-02
1.382000000000000000e+03 5.495066642761230469e+00 -3.364529037475585938e+01 -1.216325312852859497e-01 1.253842860460281372e-01 1.125523587688803673e-03 6.423366256058216095e-03
1.383000000000000000e+03 2.348511695861816406e+00 -3.020913505554199219e+01 -1.264978945255279541e-01 6.210516095161437988e-01 1.483661234378814697e-01 1.741330474615097046e-01
1.384000000000000000e+03 3.085243463516235352e+00 2.237291717529296875e+01 -2.350498252781108022e-04 -2.543138180044479668e-05 -7.814435957698151469e-05 -4.027119939564727247e-05
1.385000000000000000e+03 3.216295480728149414e+00 -1.161353683471679688e+01 -3.698985558003187180e-03 -3.681599795818328857e-01 -1.115576922893524170e-01 -3.552480936050415039e-01
1.386000000000000000e+03 1.635306477546691895e+00 -7.574832916259765625e+00 -2.152826823294162750e-02 -3.952730298042297363e-01 -1.250403821468353271e-01 -1.910667419433593750e-01
1.387000000000000000e+03 3.065653800964355469e+00 1.683586502075195312e+01 -2.019511593971401453e-04 -2.094385854434221983e-05 -6.686850247206166387e-05 -4.561330206342972815e-05
1.388000000000000000e+03 1.847581386566162109e+00 2.082965660095214844e+01 -2.278478350490331650e-04 -2.422883881081361324e-05 -7.562300015706568956e-05 -3.429653224884532392e-05
1.389000000000000000e+03 1.859455823898315430e+00 8.317544937133789062e+00 1.512162853032350540e-04 6.720001692883670330e-06 4.738088682643137872e-05 4.503432501223869622e-05
1.390000000000000000e+03 2.952286720275878906e+00 1.136145591735839844e+01 -1.701250585028901696e-04 -1.575368696649093181e-05 -5.576362309511750937e-05 -3.956616637879051268e-05
1.391000000000000000e+03 2.890972852706909180e+00 -2.404859924316406250e+01 7.439871877431869507e-02 7.122194021940231323e-02 4.368619993329048157e-02 7.089828848838806152e-01
1.392000000000000000e+03 1.870975494384765625e+00 -1.475893402099609375e+01 4.433833062648773193e-02 -9.773710370063781738e-01 -2.799097895622253418e-01 -1.962244510650634766e-01
1.393000000000000000e+03 3.243313550949096680e+00 -1.317942237854003906e+01 6.117782741785049438e-02 -4.028665721416473389e-01 -1.025066301226615906e-01 -3.220308721065521240e-01
1.394000000000000000e+03 5.543500900268554688e+00 -4.753402709960937500e+00 -1.554190069437026978e-01 -2.005712362006306648e-03 -4.722741246223449707e-02 -2.445893287658691406e-01
1.395000000000000000e+03 3.255492925643920898e+00 7.503248214721679688e+00 1.304559846175834537e-04 3.460538209765218198e-05 4.951841037836857140e-05 4.578825974022038281e-05
1.396000000000000000e+03 1.813399434089660645e+00 1.524767303466796875e+01 -1.956748164957389235e-04 -1.652817263675387949e-05 -6.366089655784890056e-05 -4.057387195643968880e-05
1.397000000000000000e+03 3.037209033966064453e+00 1.545482254028320312e+01 1.944247778737917542e-04 1.271275414183037356e-05 6.214126187842339277e-05 5.069819599157199264e-05
1.398000000000000000e+03 3.050574064254760742e+00 8.740677833557128906e+00 -1.442965731257572770e-04 -2.585382026154547930e-05 -5.104512092657387257e-05 -4.919834100292064250e-05
1.399000000000000000e+03 2.706573009490966797e+00 -7.408489227294921875e+00 -4.035196080803871155e-02 -2.733325958251953125e-01 -9.410537034273147583e-02 -2.600212395191192627e-01
1.400000000000000000e+03 3.227972269058227539e+00 -1.897338867187500000e+01 2.889516949653625488e-01 -2.518957555294036865e-01 1.111677661538124084e-02 2.646027803421020508e-01
1.401000000000000000e+03 3.008887529373168945e+00 -1.608829879760742188e+01 1.661826372146606445e-01 -5.177217125892639160e-01 -1.054617241024971008e-01 -1.296652853488922119e-01
1.402000000000000000e+03 1.701042294502258301e+00 -2.433955955505371094e+01 2.292205952107906342e-02 -1.761584132909774780e-01 -4.597090557217597961e-02 5.640398859977722168e-01
1.403000000000000000e+03 2.919864416122436523e+00 -2.275663185119628906e+01 1.513765156269073486e-01 -1.546553242951631546e-02 4.077329486608505249e-02 6.584112048149108887e-01
1.404000000000000000e+03 2.894855260848999023e+00 -2.520066070556640625e+01 -8.760306984186172485e-02 1.473370790481567383e-01 1.792020164430141449e-02 7.265584468841552734e-01
1.405000000000000000e+03 1.780435442924499512e+00 -2.565588188171386719e+01 -4.354381188750267029e-02 1.341735869646072388e-01 2.718893252313137054e-02 5.305644273757934570e-01
1.406000000000000000e+03 2.970013141632080078e+00 -1.013173007965087891e+01 -2.530495822429656982e-02 -3.660735785961151123e-01 -1.174135655164718628e-01 -3.274971246719360352e-01
1.407000000000000000e+03 2.804803609848022461e+00 -8.746425628662109375e+00 -4.428302869200706482e-02 -3.354805111885070801e-01 -1.139290630817413330e-01 -3.018769323825836182e-01
1.408000000000000000e+03 4.494341373443603516e+00 -3.631030654907226562e+01 -5.065744742751121521e-02 3.695494830608367920e-01 9.566761553287506104e-02 -7.164384424686431885e-02
1.409000000000000000e+03 3.085372686386108398e+00 2.099470138549804688e+01 2.291700802743434906e-04 2.443419725750572979e-05 7.608128362335264683e-05 4.332349635660648346e-05
1.410000000000000000e+03 1.878431916236877441e+00 -3.550815200805664062e+01 -3.488183487206697464e-03 7.914849519729614258e-01 2.363990247249603271e-01 -6.595265865325927734e-02
1.411000000000000000e+03 3.285135269165039062e+00 -3.353791809082031250e+01 -8.078543096780776978e-02 5.103356242179870605e-01 1.288650631904602051e-01 -1.124740019440650940e-02
1.412000000000000000e+03 5.176115989685058594e+00 -3.217630767822265625e+01 -2.632701694965362549e-01 1.475514322519302368e-01 -3.471562266349792480e-02 8.846501260995864868e-02
1.413000000000000000e+03 2.713380575180053711e+00 -2.153140640258789062e+01 1.550452858209609985e-01 -2.425982654094696045e-01 -2.626589685678482056e-02 5.281955599784851074e-01
1.414000000000000000e+03 5.581108570098876953e+00 -2.042050552368164062e+01 4.467621445655822754e-01 1.354066491127014160e+00 5.402485728263854980e-01 6.340174078941345215e-01
1.415000000000000000e+03 3.060831546783447266e+00 -1.469074344635009766e+01 9.962758421897888184e-02 -4.982399344444274902e-01 -1.195837035775184631e-01 -2.407737374305725098e-01
1.416000000000000000e+03 2.967779636383056641e+00 1.003695869445800781e+01 1.585865975357592106e-04 1.661271926423069090e-05 5.255979340290650725e-05 4.474674278753809631e-05
1.417000000000000000e+03 4.124751567840576172e+00 1.163290405273437500e+01 1.761199091561138630e-04 1.657438951951917261e-05 5.780829087598249316e-05 3.890243533533066511e-05
1.418000000000000000e+03 2.969840288162231445e+00 1.271056175231933594e+01 1.769316586432978511e-04 1.213953419210156426e-05 5.672135739587247372e-05 4.287594492780044675e-05
1.419000000000000000e+03 4.284320354461669922e+00 1.565529632568359375e+01 -2.000059757847338915e-04 -1.069751215254655108e-05 -6.321104592643678188e-05 -4.898855331703089178e-05
1.420000000000000000e+03 3.616717147827148438e+01 -2.485400772094726562e+01 1.600469589233398438e+00 8.155166625976562500e+00 2.926690816879272461e+00 1.409964680671691895e+00
1.421000000000000000e+03 4.308928298950195312e+01 1.066777229309082031e+01 1.851762890815734863e+00 8.289792060852050781e+00 3.042466402053833008e+00 3.250867366790771484e+00
1.422000000000000000e+03 4.550032424926757812e+01 3.272624206542968750e+01 6.365444511175155640e-02 4.191717624664306641e+00 1.276611566543579102e+00 2.127585560083389282e-01
1.423000000000000000e+03 1.145464992523193359e+01 -1.390153980255126953e+01 8.029940724372863770e-01 5.501282811164855957e-01 4.059366881847381592e-01 2.905157208442687988e-01
1.424000000000000000e+03 4.024073410034179688e+01 -9.191356658935546875e+00 9.393515586853027344e-01 1.347167301177978516e+01 4.323307514190673828e+00 7.947406768798828125e-01
1.425000000000000000e+03 6.870611572265625000e+01 -2.855055809020996094e+01 -1.168757677078247070e+00 2.878933906555175781e+00 5.130528807640075684e-01 -3.584534823894500732e-01
1.426000000000000000e+03 7.074155426025390625e+01 -2.800354385375976562e+01 -8.345976471900939941e-01 5.211189746856689453e+00 1.312977671623229980e+00 -4.119670689105987549e-01
1.427000000000000000e+03 3.397068023681640625e+01 -3.309111404418945312e+01 -5.069316029548645020e-01 3.709394693374633789e+00 9.607389569282531738e-01 8.612474203109741211e-01
1.428000000000000000e+03 1.763031387329101562e+01 -3.501048278808593750e+01 -3.928508460521697998e-01 -1.358822733163833618e-01 -1.586199402809143066e-01 4.147187247872352600e-02
1.429000000000000000e+03 5.193374633789062500e+01 1.574163794517517090e+00 -5.023935317993164062e+00 3.545951545238494873e-01 -1.400802016258239746e+00 5.457278490066528320e-01
1.430000000000000000e+03 5.160255432128906250e+01 5.206337451934814453e+00 -1.415417313575744629e+00 3.125569820404052734e-01 -3.308580815792083740e-01 -1.390556991100311279e-01
1.431000000000000000e+03 2.976425361633300781e+01 -3.389599990844726562e+01 -1.915107667446136475e-01 1.645705938339233398e+00 4.362585544586181641e-01 1.042387008666992188e+00
1.432000000000000000e+03 1.458968067169189453e+01 1.217460727691650391e+01 -1.778117439243942499e-04 -4.682597864302806556e-05 -6.739131640642881393e-05 -9.854345262283459306e-05
1.433000000000000000e+03 4.402484893798828125e+00 -2.538965415954589844e+01 -1.405994594097137451e-01 2.844321727752685547e-01 4.314981773495674133e-02 8.221518397331237793e-01
1.434000000000000000e+03 2.747054672241210938e+01 -1.609915161132812500e+01 -1.452820096164941788e-02 -9.548065811395645142e-02 -3.300265967845916748e-02 7.576356530189514160e-01
1.435000000000000000e+03 3.928938674926757812e+01 3.485041618347167969e+00 -4.934453070163726807e-01 1.045717906951904297e+01 2.989120244979858398e+00 2.409219264984130859e+00
1.436000000000000000e+03 1.628155708312988281e+01 4.040118217468261719e+00 3.886945705744437873e-05 -6.172616122057661414e-05 -6.857011157990200445e-06 -5.591159788309596479e-05
1.437000000000000000e+03 1.689581298828125000e+01 2.635135412216186523e+00 -2.828296237566974014e-05 -8.711512055015191436e-05 -3.461942469584755599e-05 -4.789953527506440878e-05
1.438000000000000000e+03 5.439543151855468750e+01 6.694345474243164062e-01 -4.347785949707031250e+00 4.477737098932266235e-02 -1.290902614593505859e+00 7.326033115386962891e-01
1.439000000000000000e+03 1.035848236083984375e+01 -3.235190200805664062e+01 -6.056930422782897949e-01 -4.216187894344329834e-01 -3.081935644149780273e-01 3.554356992244720459e-01
1.440000000000000000e+03 1.352099990844726562e+01 2.895320320129394531e+01 1.068992423824965954e-03 -1.014770168694667518e-04 2.902546257246285677e-04 3.169529954902827740e-04
1.441000000000000000e+03 1.607323455810546875e+01 8.113925933837890625e+00 1.282558514503762126e-04 2.763580050668679178e-05 4.676749449572525918e-05 4.863135472987778485e-05
1.442000000000000000e+03 1.672706604003906250e+01 6.886440753936767578e+00 -1.223472645506262779e-04 -2.603745997475925833e-05 -4.451541826711036265e-05 -5.848600630997680128e-05
1.443000000000000000e+03 3.788224411010742188e+01 -1.297550773620605469e+01 8.823255300521850586e-01 8.043807983398437500e+00 2.677840232849121094e+00 -1.973056979477405548e-02
1.444000000000000000e+03 1.363268661499023438e+01 1.481416797637939453e+01 -2.146394253941252828e-04 -1.069658173946663737e-05 -6.760080577805638313e-05 -1.385266368743032217e-04
1.445000000000000000e+03 2.303002929687500000e+01 4.129104232788085938e+01 -1.558018149808049202e-03 -1.176431775093078613e-02 -3.996700979769229889e-03 2.601109212264418602e-03
1.446000000000000000e+03 4.126376342773437500e+01 7.823474407196044922e+00 2.043458938598632812e+00 1.106963539123535156e+01 3.933928489685058594e+00 3.958574295043945312e+00
1.447000000000000000e+03 6.280022048950195312e+01 -3.584090423583984375e+01 -2.041031420230865479e-01 -4.191550910472869873e-01 -1.869774758815765381e-01 -2.890932857990264893e-01
1.448000000000000000e+03 6.594446563720703125e+01 -3.332235336303710938e+01 -9.831873774528503418e-01 7.133253812789916992e-01 -8.095860481262207031e-02 -7.077694684267044067e-02
1.449000000000000000e+03 3.658375549316406250e+01 -3.644820690155029297e+00 3.901869803667068481e-02 5.360106945037841797e+00 1.619737625122070312e+00 7.261559963226318359e-01
1.450000000000000000e+03 3.299954986572265625e+01 4.117958831787109375e+01 1.817493587732315063e-01 1.085143461823463440e-01 8.707910776138305664e-02 8.955615572631359100e-03
1.451000000000000000e+03 2.985877418518066406e+01 4.043787384033203125e+01 7.434702664613723755e-02 -1.030110195279121399e-01 -8.599198423326015472e-03 6.207201629877090454e-02
1.452000000000000000e+03 5.107997417449951172e+00 -2.131461524963378906e+01 3.624488711357116699e-01 9.734387397766113281e-01 4.007662832736968994e-01 6.441141366958618164e-01
1.453000000000000000e+03 4.251134109497070312e+01 1.400202751159667969e+00 -3.574134588241577148e+00 9.378897666931152344e+00 1.741428971290588379e+00 1.731669902801513672e+00
1.454000000000000000e+03 5.900555610656738281e+00 -1.925640678405761719e+01 6.614484786987304688e-01 1.400519251823425293e+00 6.185903549194335938e-01 7.202746868133544922e-01
1.455000000000000000e+03 6.408035278320312500e+00 -1.800280761718750000e+01 9.330381751060485840e-01 1.259313106536865234e+00 6.577053666114807129e-01 6.610618829727172852e-01
1.456000000000000000e+03 4.280773544311523438e+01 9.147591590881347656e+00 2.002684593200683594e+00 8.277866363525390625e+00 3.084165334701538086e+00 3.519725799560546875e+00
1.457000000000000000e+03 1.276801013946533203e+01 1.944080734252929688e+01 3.867278282996267080e-04 -4.038330007460899651e-05 1.039033595588989556e-04 5.087934550829231739e-05
1.458000000000000000e+03 1.275192451477050781e+01 1.780119895935058594e+01 -3.352233616169542074e-04 6.747896804881747812e-06 -9.854263771558180451e-05 -8.091878407867625356e-05
1.459000000000000000e+03 4.271101379394531250e+01 2.755043268203735352e+00 -3.159180402755737305e+00 7.897785663604736328e+00 1.421581506729125977e+00 2.045798063278198242e+00
1.460000000000000000e+03 4.205536270141601562e+01 6.022277832031250000e+00 8.882181048393249512e-01 8.782808303833007812e+00 2.901307821273803711e+00 3.137622356414794922e+00
1.461000000000000000e+03 4.377754592895507812e+01 1.504269313812255859e+01 1.147026777267456055e+00 7.423572063446044922e+00 2.571179628372192383e+00 2.050745248794555664e+00
1.462000000000000000e+03 4.537937927246093750e+01 1.771973419189453125e+01 1.031210303306579590e+00 5.963616371154785156e+00 2.098448038101196289e+00 1.632683634757995605e+00
1.463000000000000000e+03 4.439340972900390625e+01 2.861075401306152344e+01 5.839157700538635254e-01 4.891229629516601562e+00 1.642543673515319824e+00 4.171497374773025513e-02
1.464000000000000000e+03 1.488073253631591797e+01 3.404425048828125000e+01 -4.234037078276742250e-06 -5.198536673560738564e-04 -1.572263136040419340e-04 -7.863274659030139446e-04
1.465000000000000000e+03 1.452047729492187500e+01 3.222047042846679688e+01 1.609462779015302658e-03 -1.324576442129909992e-04 4.431015113368630409e-04 3.933728730771690607e-04
1.466000000000000000e+03 2.944429206848144531e+01 -4.429207324981689453e+00 -2.577762603759765625e-01 -5.965968966484069824e-01 -2.563119530677795410e-01 -7.769908308982849121e-01
1.467000000000000000e+03 4.246324157714843750e+01 -1.951166725158691406e+01 1.710754781961441040e-01 6.901031494140625000e+00 2.121632099151611328e+00 -1.295093894004821777e+00
1.468000000000000000e+03 1.406219005584716797e+01 -1.263440704345703125e+01 6.460041403770446777e-01 2.298343777656555176e-01 2.627515494823455811e-01 2.382252812385559082e-01
1.469000000000000000e+03 1.572905731201171875e+01 -1.429947376251220703e+01 8.098894357681274414e-01 2.828599326312541962e-02 2.514526247978210449e-01 1.507173478603363037e-01
1.470000000000000000e+03 3.662390232086181641e+00 -2.098127174377441406e+01 2.924714386463165283e-01 1.589810401201248169e-01 1.354357451200485229e-01 5.897210240364074707e-01
1.471000000000000000e+03 3.644386672973632812e+01 3.637172698974609375e+01 -2.186495251953601837e-02 5.088227391242980957e-01 1.460873335599899292e-01 -3.189329206943511963e-01
1.472000000000000000e+03 6.416758728027343750e+01 -1.650866270065307617e+00 -1.927003502845764160e+00 1.275890946388244629e+00 -1.953337788581848145e-01 -4.073710739612579346e-01
1.473000000000000000e+03 3.599205780029296875e+01 -2.588457870483398438e+01 1.559882164001464844e+00 7.883950710296630859e+00 2.833149909973144531e+00 1.210399031639099121e+00
1.474000000000000000e+03 4.327918624877929688e+01 -2.415764427185058594e+01 2.913886606693267822e-01 3.726110458374023438e+00 1.205249667167663574e+00 -7.827511429786682129e-01
1.475000000000000000e+03 5.553133773803710938e+01 -3.610998153686523438e+01 -5.050080418586730957e-01 -3.100564703345298767e-02 -1.608041077852249146e-01 -4.684431552886962891e-01
1.476000000000000000e+03 1.305638790130615234e+01 2.556769752502441406e+01 6.202412187121808529e-04 -1.738409628160297871e-05 1.808571396395564079e-04 1.220341728185303509e-04
1.477000000000000000e+03 3.832529067993164062e+01 4.791073501110076904e-01 -2.150489807128906250e+00 8.151969909667968750e+00 1.800444006919860840e+00 9.250915050506591797e-01
1.478000000000000000e+03 4.127630615234375000e+01 2.872392177581787109e+00 -2.441918373107910156e+00 1.008458709716796875e+01 2.292800426483154297e+00 1.720217227935791016e+00
1.479000000000000000e+03 5.165783309936523438e+01 3.432760953903198242e+00 -3.072247028350830078e+00 2.397573143243789673e-01 -8.497468829154968262e-01 -9.177740663290023804e-02
1.480000000000000000e+03 3.647681808471679688e+01 -1.245197176933288574e+00 -1.616971373558044434e+00 4.862013339996337891e+00 9.735126495361328125e-01 7.171426415443420410e-01
1.481000000000000000e+03 6.976124572753906250e+01 -2.948993301391601562e+01 -1.194786787033081055e+00 4.223461627960205078e+00 9.086024761199951172e-01 -1.530737280845642090e-01
1.482000000000000000e+03 1.403700923919677734e+01 2.251687240600585938e+01 -4.272091609891504049e-04 3.436136103118769825e-05 -1.178543388959951699e-04 -9.944831617758609354e-06
1.483000000000000000e+03 2.774040985107421875e+01 -3.130967140197753906e+00 -1.284986257553100586e+00 -3.194843828678131104e-01 -4.813411831855773926e-01 -6.303300857543945312e-01
1.484000000000000000e+03 2.797385025024414062e+01 -4.311570644378662109e+00 -4.971413016319274902e-01 -5.230406522750854492e-01 -3.060545921325683594e-01 -7.574440240859985352e-01
1.485000000000000000e+03 3.117373085021972656e+01 -3.148811149597167969e+01 4.091944992542266846e-01 2.062410116195678711e+00 7.414814233779907227e-01 1.432701945304870605e+00
1.486000000000000000e+03 3.227208709716796875e+01 -3.318501281738281250e+01 -4.917615354061126709e-01 3.095930337905883789e+00 7.812506556510925293e-01 1.210495471954345703e+00
1.487000000000000000e+03 5.621806716918945312e+01 1.446726560592651367e+00 -3.420035123825073242e+00 -1.974099501967430115e-02 -1.031932830810546875e+00 2.745676636695861816e-01
1.488000000000000000e+03 4.261903762817382812e+01 3.474878692626953125e+01 -2.261958718299865723e-01 3.536639451980590820e+00 9.931331276893615723e-01 -2.091502994298934937e-01
1.489000000000000000e+03 4.028886795043945312e+01 3.637223434448242188e+01 -2.202489972114562988e-01 2.390480995178222656e+00 6.510696411132812500e-01 -4.548729360103607178e-01
1.490000000000000000e+03 4.887464523315429688e+00 -2.654767608642578125e+01 -4.048711955547332764e-01 2.655467689037322998e-01 -4.179732874035835266e-02 6.676728725433349609e-01
1.491000000000000000e+03 3.632768249511718750e+01 -2.854403877258300781e+01 4.246004521846771240e-01 6.068610668182373047e+00 1.947963356971740723e+00 7.171141505241394043e-01
1.492000000000000000e+03 3.102613258361816406e+01 -4.203066825866699219e+00 -1.577700674533843994e-01 -5.280278325080871582e-01 -2.057393640279769897e-01 -6.437879800796508789e-01
1.493000000000000000e+03 6.351615142822265625e+01 -3.476129150390625000e+01 -7.550473809242248535e-01 -3.351143598556518555e-01 -3.270485401153564453e-01 -3.367114961147308350e-01
1.494000000000000000e+03 6.561837768554687500e+01 -3.467694473266601562e+01 -4.487597346305847168e-01 7.263302803039550781e-01 8.327116817235946655e-02 1.062664911150932312e-01
1.495000000000000000e+03 3.509531402587890625e+01 -1.949817895889282227e+00 -1.281575560569763184e+00 2.361933946609497070e+00 3.241074979305267334e-01 3.867490589618682861e-01
1.496000000000000000e+03 7.189591217041015625e+01 -2.698913764953613281e+01 -6.478617191314697266e-01 6.233840465545654297e+00 1.675793528556823730e+00 -4.149038195610046387e-01
1.497000000000000000e+03 3.542723464965820312e+01 -1.784620094299316406e+01 -1.582481384277343750e+00 5.737191677093505859e+00 1.246413111686706543e+00 -2.293521314859390259e-01
1.498000000000000000e+03 4.695733261108398438e+01 2.659437656402587891e+00 -4.260495662689208984e+00 -1.009960770606994629e+00 -1.581136941909790039e+00 9.166968464851379395e-01
1.499000000000000000e+03 4.841292190551757812e+01 2.754227638244628906e+00 -4.736040115356445312e+00 -7.410166859626770020e-01 -1.643116950988769531e+00 8.068715035915374756e-02
1.500000000000000000e+03 4.085595703125000000e+01 2.361056655645370483e-01 -2.488918542861938477e+00 1.020658206939697266e+01 2.315299034118652344e+00 5.672169923782348633e-01
1.501000000000000000e+03 3.086668586730957031e+01 -3.269751358032226562e+01 9.778783656656742096e-03 2.103294610977172852e+00 6.339220404624938965e-01 1.358028888702392578e+00
1.502000000000000000e+03 7.418695831298828125e+01 -2.614115715026855469e+01 -4.042617976665496826e-01 8.405678749084472656e+00 2.400425195693969727e+00 -5.745633244514465332e-01
1.503000000000000000e+03 6.307889938354492188e+01 -9.455671906471252441e-01 -2.232395887374877930e+00 8.547835350036621094e-01 -4.132836759090423584e-01 -3.680917918682098389e-01
1.504000000000000000e+03 3.075729942321777344e+01 -1.588339805603027344e+01 -3.829268515110015869e-01 -4.281458556652069092e-01 -2.433218061923980713e-01 1.004601240158081055e+00
1.505000000000000000e+03 6.367636489868164062e+01 -6.994053721427917480e-02 -1.771998167037963867e+00 1.434423923492431641e+00 -1.012722477316856384e-01 -7.926274538040161133e-01
1.506000000000000000e+03 4.304045486450195312e+01 3.336619567871093750e+01 -3.126636892557144165e-02 3.933113574981689453e+00 1.170554161071777344e+00 -1.407579779624938965e-01
1.507000000000000000e+03 3.631945419311523438e+01 -1.868790435791015625e+01 -1.733999848365783691e+00 6.756752014160156250e+00 1.506825566291809082e+00 1.210203766822814941e+00
1.508000000000000000e+03 4.037333297729492188e+01 -1.862269973754882812e+01 -2.070843279361724854e-01 8.606153488159179688e+00 2.519720554351806641e+00 2.899155020713806152e-01
1.509000000000000000e+03 6.990826606750488281e+00 -1.680864143371582031e+01 8.900989294052124023e-01 1.095995783805847168e+00 5.958284139633178711e-01 3.573887050151824951e-01
1.510000000000000000e+03 4.373620223999023438e+01 3.193550300598144531e+01 1.681672483682632446e-01 4.286540031433105469e+00 1.336412191390991211e+00 3.839784767478704453e-03
1.511000000000000000e+03 3.109949874877929688e+01 -1.339404201507568359e+01 1.307553410530090332e+00 2.129895091056823730e-01 4.561628699302673340e-01 6.310391426086425781e-01
1.512000000000000000e+03 2.935679817199707031e+01 -1.597198009490966797e+01 -1.484556049108505249e-01 -1.541131585836410522e-01 -9.077063202857971191e-02 9.529451131820678711e-01
1.513000000000000000e+03 3.939651870727539062e+01 -1.941786956787109375e+01 -4.040525555610656738e-01 7.981686592102050781e+00 2.273290157318115234e+00 1.065676331520080566e+00
1.514000000000000000e+03 3.787877655029296875e+01 -2.831427383422851562e+01 4.109283089637756348e-01 5.629455089569091797e+00 1.812115073204040527e+00 6.952670961618423462e-02
1.515000000000000000e+03 3.752592849731445312e+01 -2.684906387329101562e+01 8.712989687919616699e-01 6.199362277984619141e+00 2.121198415756225586e+00 2.882914543151855469e-01
1.516000000000000000e+03 1.236568546295166016e+01 -1.377432060241699219e+01 8.770540356636047363e-01 3.928204178810119629e-01 3.809623420238494873e-01 3.056834638118743896e-01
1.517000000000000000e+03 1.896659469604492188e+01 3.513137435913085938e+01 4.386295098811388016e-03 -2.044069115072488785e-04 1.254566479474306107e-03 -2.375813928665593266e-04
1.518000000000000000e+03 5.385247802734375000e+01 2.301143646240234375e+00 -3.640021800994873047e+00 2.997809052467346191e-01 -1.002072334289550781e+00 2.074792683124542236e-01
1.519000000000000000e+03 1.281027126312255859e+01 2.098766517639160156e+01 -4.251011414453387260e-04 4.677939432440325618e-05 -1.134965204983018339e-04 -5.537831384572200477e-05
1.520000000000000000e+03 5.835272598266601562e+01 -3.606083297729492188e+01 -4.638383984565734863e-01 -5.365566611289978027e-01 -3.001185059547424316e-01 -6.257652640342712402e-01
1.521000000000000000e+03 5.230862617492675781e+00 -1.498198223114013672e+01 2.923364639282226562e-01 3.240834176540374756e-01 1.849259734153747559e-01 -1.621875762939453125e-01
1.522000000000000000e+03 8.923729896545410156e+00 -3.311135864257812500e+01 -3.291547000408172607e-01 -3.540973067283630371e-01 -2.049756050109863281e-01 1.834395527839660645e-01
1.523000000000000000e+03 3.733904647827148438e+01 -1.967576408386230469e+01 -5.855114459991455078e-01 7.204504966735839844e+00 1.985698103904724121e+00 1.640485882759094238e+00
1.524000000000000000e+03 4.377747726440429688e+01 7.443707466125488281e+00 1.465467572212219238e+00 6.155794143676757812e+00 2.286378622055053711e+00 3.004745721817016602e+00
1.525000000000000000e+03 7.075605773925781250e+01 -1.126169872283935547e+01 2.458011865615844727e+00 3.967820644378662109e+00 1.927749752998352051e+00 -3.219946622848510742e+00
1.526000000000000000e+03 7.178625488281250000e+01 -1.565510463714599609e+01 1.639435172080993652e+00 7.189267158508300781e+00 2.648610591888427734e+00 4.267075538635253906e+00
1.527000000000000000e+03 7.225122833251953125e+01 -1.154747581481933594e+01 2.197196960449218750e+00 1.076353454589843750e+01 3.888219594955444336e+00 -5.599090576171875000e+00
1.528000000000000000e+03 7.290850067138671875e+01 -1.070709514617919922e+01 -3.652853965759277344e-01 1.367141056060791016e+01 3.991837501525878906e+00 -3.142943620681762695e+00
1.529000000000000000e+03 7.646706390380859375e+01 -1.132930278778076172e+01 1.223890423774719238e+00 1.045341205596923828e+01 3.503190755844116211e+00 2.563950300216674805e+00
1.530000000000000000e+03 7.629373168945312500e+01 -8.521263122558593750e+00 -1.032812833786010742e+00 1.022146511077880859e+01 2.756595849990844727e+00 1.949171304702758789e+00
1.531000000000000000e+03 9.614151954650878906e+00 -4.285670280456542969e+00 -2.855977118015289307e-01 1.134935617446899414e-01 -5.163124203681945801e-02 -1.291830241680145264e-01
1.532000000000000000e+03 1.036230659484863281e+01 -4.306285858154296875e+00 -2.950756251811981201e-01 1.076799780130386353e-01 -5.621869117021560669e-02 -1.070484444499015808e-01
1.533000000000000000e+03 7.085765075683593750e+01 -1.716364860534667969e+01 1.999230831861495972e-01 5.147391796112060547e+00 1.604194521903991699e+00 2.178229093551635742e+00
1.534000000000000000e+03 1.621025466918945312e+01 2.565581083297729492e+00 4.289424396120011806e-05 6.976151780690997839e-05 3.379672853043302894e-05 3.193013253621757030e-05
1.535000000000000000e+03 1.761889266967773438e+01 2.755356788635253906e+00 5.750338823418132961e-05 7.458783511538058519e-05 3.962736809626221657e-05 6.916031270520761609e-05
1.536000000000000000e+03 1.784158706665039062e+01 4.756301879882812500e+00 -1.093072714866138995e-04 -4.552430982585065067e-05 -4.644947330234572291e-05 -6.365307490341365337e-05
1.537000000000000000e+03 1.414864349365234375e+01 3.552408695220947266e+00 -1.700952452665660530e-05 -3.627505429903976619e-05 -1.598537346580997109e-05 -1.029794589157972950e-06
1.538000000000000000e+03 1.110282325744628906e+01 -4.358451366424560547e+00 -3.021978437900543213e-01 1.079789027571678162e-01 -5.826568230986595154e-02 -8.076271414756774902e-02
1.539000000000000000e+03 1.556628036499023438e+01 2.508142948150634766e+00 -3.562210622476413846e-05 -7.380449824267998338e-05 -3.282798206782899797e-05 -4.768955477629788220e-05
1.540000000000000000e+03 7.125369548797607422e+00 -3.611584186553955078e+00 -2.381831407546997070e-01 5.171762034296989441e-02 -5.593965575098991394e-02 -1.813348382711410522e-01
1.541000000000000000e+03 8.848667144775390625e+00 -4.304817199707031250e+00 -2.663896977901458740e-01 1.026035621762275696e-01 -4.913584142923355103e-02 -1.567585766315460205e-01
1.542000000000000000e+03 6.923299407958984375e+01 -1.120328617095947266e+01 1.332348942756652832e+00 1.334865570068359375e+00 8.001644015312194824e-01 -1.221578240394592285e+00
1.543000000000000000e+03 1.404836368560791016e+01 -3.934177160263061523e+00 -3.534813821315765381e-01 2.912984602153301239e-02 -9.730546176433563232e-02 5.308875348418951035e-03
1.544000000000000000e+03 1.723998451232910156e+01 -4.201478004455566406e+00 -3.164225220680236816e-01 -4.245088621973991394e-02 -1.076620221138000488e-01 4.063604027032852173e-02
1.545000000000000000e+03 9.852222442626953125e+00 4.048861503601074219e+00 6.797840615035966039e-05 2.579704050731379539e-05 2.813263381540309638e-05 -3.067359784836298786e-06
1.546000000000000000e+03 5.068147659301757812e+00 6.196673870086669922e+00 -1.363523915642872453e-04 -7.582831585750682279e-06 -4.318056744523346424e-05 -6.753747584298253059e-05
1.547000000000000000e+03 7.847586631774902344e+00 5.611861705780029297e+00 -1.192198396893218160e-05 -3.200253559043630958e-05 -1.317735586781054735e-05 1.079580324585549533e-04
1.548000000000000000e+03 7.381812095642089844e+00 3.385236978530883789e+00 6.445391045417636633e-05 5.959216196060879156e-06 2.112393667630385607e-05 -3.579282747523393482e-06
1.549000000000000000e+03 4.771915912628173828e+00 4.825445652008056641e+00 -9.392682113684713840e-05 -6.530752216349355876e-06 -3.013727291545365006e-05 -9.101587056647986174e-05
1.550000000000000000e+03 3.693357467651367188e+00 3.373209953308105469e+00 -8.812583837425336242e-05 3.319892857689410448e-05 -1.647807221161201596e-05 -1.602294105396140367e-05
1.551000000000000000e+03 3.639030933380126953e+00 6.434945583343505859e+00 -1.407735835528001189e-04 -2.442856020934414119e-05 -4.956064367434009910e-05 -5.671347389579750597e-05
1.552000000000000000e+03 2.511106967926025391e+00 4.025415897369384766e+00 1.451187108614249155e-05 4.357656871434301138e-05 1.742653148539829999e-05 1.409229662385769188e-05
1.553000000000000000e+03 1.335106277465820312e+01 -4.600341320037841797e+00 -2.915776669979095459e-01 6.443029642105102539e-02 -6.814421713352203369e-02 -1.332836784422397614e-02
1.554000000000000000e+03 1.327827739715576172e+01 3.870711088180541992e+00 6.328471499728038907e-05 5.152244921191595495e-05 3.444214962655678391e-05 -2.943055733339861035e-06
1.555000000000000000e+03 1.184570026397705078e+01 -4.430705547332763672e+00 -3.022314906120300293e-01 9.370174258947372437e-02 -6.255892664194107056e-02 -5.994956940412521362e-02
1.556000000000000000e+03 1.259495258331298828e+01 -4.514758586883544922e+00 -3.009151518344879150e-01 8.706182986497879028e-02 -6.415599584579467773e-02 -3.377873450517654419e-02
1.557000000000000000e+03 2.320338630676269531e+01 -4.915518283843994141e+00 -2.503981292247772217e-01 -1.428645998239517212e-01 -1.179788261651992798e-01 -2.068711519241333008e-01
1.558000000000000000e+03 1.651107788085937500e+01 -4.901359081268310547e+00 -2.398466318845748901e-01 -2.326948568224906921e-02 -7.893483340740203857e-02 4.547157883644104004e-02
1.559000000000000000e+03 1.973446655273437500e+01 -4.221167087554931641e+00 -3.070020973682403564e-01 -6.386655569076538086e-02 -1.112605929374694824e-01 7.617264520376920700e-03
1.560000000000000000e+03 1.985625267028808594e+01 -4.972896575927734375e+00 -2.033261358737945557e-01 -9.667927026748657227e-02 -9.000162035226821899e-02 5.269839428365230560e-03
1.561000000000000000e+03 7.247680187225341797e+00 -4.467520236968994141e+00 -2.178794741630554199e-01 6.941229850053787231e-02 -4.454015567898750305e-02 -2.098625749349594116e-01
1.562000000000000000e+03 4.600641250610351562e+00 -3.882115840911865234e+00 -1.324676424264907837e-01 -3.766601160168647766e-02 -5.104009434580802917e-02 -2.052776366472244263e-01
1.563000000000000000e+03 6.410833835601806641e+00 -4.602858543395996094e+00 -1.909974217414855957e-01 4.459908977150917053e-02 -4.391949996352195740e-02 -2.290410548448562622e-01
1.564000000000000000e+03 3.754720926284790039e+00 -4.967985153198242188e+00 -9.105803072452545166e-02 -9.921054542064666748e-02 -5.708057433366775513e-02 -2.324108630418777466e-01
1.565000000000000000e+03 3.728375673294067383e+00 -6.063019275665283203e+00 -7.899588346481323242e-02 -1.210570409893989563e-01 -6.001587584614753723e-02 -2.663914859294891357e-01
1.566000000000000000e+03 3.001645326614379883e+00 -4.015169620513916016e+00 -7.385325431823730469e-02 -8.819390833377838135e-02 -4.861414805054664612e-02 -1.704403907060623169e-01
1.567000000000000000e+03 2.670657157897949219e+00 -6.054390907287597656e+00 -4.825690388679504395e-02 -2.032864242792129517e-01 -7.546299695968627930e-02 -2.243549078702926636e-01
1.568000000000000000e+03 7.225450897216796875e+01 -1.673018455505371094e+01 -4.711444377899169922e-01 1.027135467529296875e+01 2.940063238143920898e+00 3.125730037689208984e+00
1.569000000000000000e+03 7.439481353759765625e+01 -1.710159683227539062e+01 -1.573208808898925781e+00 1.404263114929199219e+01 3.740826606750488281e+00 -1.269276857376098633e+00
1.570000000000000000e+03 1.411675739288330078e+01 -4.685064315795898438e+00 -2.849579453468322754e-01 5.205128341913223267e-02 -6.987199932336807251e-02 8.657427504658699036e-03
1.571000000000000000e+03 1.489848709106445312e+01 -4.767907619476318359e+00 -2.687810659408569336e-01 2.354275621473789215e-02 -7.357148826122283936e-02 2.468246035277843475e-02
1.572000000000000000e+03 1.569761466979980469e+01 -4.841232776641845703e+00 -2.585771381855010986e-01 7.491395808756351471e-03 -7.532572746276855469e-02 3.860012441873550415e-02
1.573000000000000000e+03 1.235130405426025391e+01 3.961769342422485352e+00 -5.321278877090662718e-05 -5.327807957655750215e-05 -3.194726014044135809e-05 1.562399847898632288e-05
1.574000000000000000e+03 1.149139404296875000e+01 4.033678054809570312e+00 7.053672015899792314e-05 3.412311707506887615e-05 3.139795080642215908e-05 -1.732914643071126193e-05
1.575000000000000000e+03 9.864212989807128906e+00 4.784834861755371094e+00 -8.741956116864457726e-05 -2.206306453444994986e-05 -3.284478952991776168e-05 -2.087766915792599320e-06
1.576000000000000000e+03 7.606721496582031250e+01 -1.407895946502685547e+01 4.969358921051025391e+00 1.087919902801513672e+01 4.754567623138427734e+00 -2.114067554473876953e+00
1.577000000000000000e+03 1.816782379150390625e+01 -4.974445819854736328e+00 -2.137080281972885132e-01 -6.716532260179519653e-02 -8.426200598478317261e-02 4.089610651135444641e-02
1.578000000000000000e+03 7.516870117187500000e+01 -1.501191139221191406e+01 3.539563179016113281e+00 1.462493991851806641e+01 5.449350833892822266e+00 -3.559530973434448242e+00
1.579000000000000000e+03 2.312574958801269531e+01 -4.059548377990722656e+00 -4.087512195110321045e-01 -4.478263109922409058e-02 -1.360601484775543213e-01 -1.633648127317428589e-01
1.580000000000000000e+03 2.400193405151367188e+01 -4.056888580322265625e+00 -4.597026109695434570e-01 -8.825147151947021484e-02 -1.643862277269363403e-01 -2.581058442592620850e-01
1.581000000000000000e+03 2.405467987060546875e+01 -4.971059322357177734e+00 -2.515735030174255371e-01 -1.775290668010711670e-01 -1.287307739257812500e-01 -2.943190038204193115e-01
1.582000000000000000e+03 6.758065795898437500e+01 -3.365298986434936523e+00 -9.998831748962402344e-01 3.271230459213256836e+00 6.814042329788208008e-01 -8.723264932632446289e-01
1.583000000000000000e+03 2.153770828247070312e+01 -4.924792766571044922e+00 -2.201848775148391724e-01 -1.105546206235885620e-01 -9.922184795141220093e-02 -7.134325802326202393e-02
1.584000000000000000e+03 1.907099723815917969e+01 -1.457208919525146484e+01 6.322320103645324707e-01 -1.620118021965026855e-01 1.410660594701766968e-01 1.282911449670791626e-01
1.585000000000000000e+03 2.239193916320800781e+01 -1.616730499267578125e+01 3.771290481090545654e-01 -1.281770169734954834e-01 7.468561083078384399e-02 2.074608355760574341e-01
1.586000000000000000e+03 7.068042755126953125e+01 -1.903361320495605469e+01 -4.564555585384368896e-01 5.480072021484375000e+00 1.507084846496582031e+00 1.427448153495788574e+00
1.587000000000000000e+03 2.259858703613281250e+01 -1.497998523712158203e+01 4.790176749229431152e-01 -2.008719891309738159e-01 8.344370871782302856e-02 2.604709267616271973e-01
1.588000000000000000e+03 2.020006752014160156e+01 -1.472259235382080078e+01 5.828840732574462891e-01 -1.873533576726913452e-01 1.186592206358909607e-01 1.522447615861892700e-01
1.589000000000000000e+03 2.576830291748046875e+01 -1.661899185180664062e+01 1.011101156473159790e-02 -1.840117573738098145e-02 -2.487049205228686333e-03 3.539161682128906250e-01
1.590000000000000000e+03 2.515666007995605469e+01 -1.532311153411865234e+01 3.142824769020080566e-01 -1.799292266368865967e-01 4.030597582459449768e-02 4.454133808612823486e-01
1.591000000000000000e+03 1.726162528991699219e+01 -1.411359119415283203e+01 7.035398483276367188e-01 -7.537221908569335938e-02 1.884502917528152466e-01 1.410664469003677368e-01
1.592000000000000000e+03 5.996366882324218750e+01 3.806064128875732422e-01 -2.951054096221923828e+00 1.827120035886764526e-02 -8.798348903656005859e-01 -4.323961585760116577e-02
1.593000000000000000e+03 5.794567871093750000e+01 2.173620223999023438e+00 -2.503750085830688477e+00 9.560091793537139893e-02 -7.224447131156921387e-01 -1.972406059503555298e-01
1.594000000000000000e+03 3.580418395996093750e+01 -1.671337699890136719e+01 -1.156825423240661621e+00 5.623080730438232422e+00 1.339876532554626465e+00 2.851351499557495117e-01
1.595000000000000000e+03 3.940014266967773438e+01 -6.353734493255615234e+00 1.390425801277160645e+00 1.079380035400390625e+01 3.655267953872680664e+00 1.384455323219299316e+00
1.596000000000000000e+03 3.909534454345703125e+01 -1.044171428680419922e+01 1.060795545578002930e+00 1.073800945281982422e+01 3.539641618728637695e+00 4.676622450351715088e-01
1.597000000000000000e+03 3.767932510375976562e+01 -1.412062454223632812e+01 6.894639134407043457e-01 7.738558769226074219e+00 2.528406858444213867e+00 -1.136606372892856598e-02
1.598000000000000000e+03 4.728689193725585938e+01 -2.943843650817871094e+01 -4.309269040822982788e-02 1.566088080406188965e+00 4.568985998630523682e-01 -6.499482989311218262e-01
1.599000000000000000e+03 2.662172126770019531e+01 -1.650816535949707031e+01 -1.892448067665100098e-01 -3.449380025267601013e-02 -6.712158024311065674e-02 5.218372344970703125e-01
1.600000000000000000e+03 2.540066719055175781e+01 -3.522172927856445312e+01 -1.695637404918670654e-01 3.162038028240203857e-01 4.399202391505241394e-02 2.727853953838348389e-01
1.601000000000000000e+03 5.265266036987304688e+01 -3.531300354003906250e+01 -5.268021225929260254e-01 6.793631315231323242e-01 4.576828703284263611e-02 -4.304252564907073975e-01
1.602000000000000000e+03 9.818387985229492188e+00 -1.222298622131347656e+01 2.916616499423980713e-01 5.720994472503662109e-01 2.591283321380615234e-01 4.808533564209938049e-02
1.603000000000000000e+03 5.502466583251953125e+01 1.850384354591369629e+00 -3.532366752624511719e+00 1.233167201280593872e-01 -1.022714972496032715e+00 3.147325217723846436e-01
1.604000000000000000e+03 5.250046920776367188e+01 4.612964153289794922e+00 -1.868423581123352051e+00 2.952872812747955322e-01 -4.719409048557281494e-01 -2.271366715431213379e-01
1.605000000000000000e+03 9.314744949340820312e+00 2.077440261840820312e+01 2.123333688359707594e-04 8.872364560374990106e-05 9.031710214912891388e-05 5.580379001912660897e-05
1.606000000000000000e+03 4.257828521728515625e+01 -2.133815574645996094e+01 -1.301334053277969360e-02 5.515517711639404297e+00 1.650751352310180664e+00 -8.856886625289916992e-01
1.607000000000000000e+03 4.652574157714843750e+01 -2.839462661743164062e+01 6.537930667400360107e-02 1.742743968963623047e+00 5.424370169639587402e-01 -7.357287406921386719e-01
1.608000000000000000e+03 3.791485977172851562e+01 -9.369034767150878906e-01 -1.864221334457397461e+00 7.447015762329101562e+00 1.674838304519653320e+00 7.718951106071472168e-01
1.609000000000000000e+03 1.820477104187011719e+01 3.801202058792114258e+00 1.055852990248240530e-04 5.495311779668554664e-05 4.816152431885711849e-05 6.622363434871658683e-05
1.610000000000000000e+03 4.054143905639648438e+01 -1.007659077644348145e+00 -1.559442281723022461e+00 1.049732971191406250e+01 2.681366205215454102e+00 5.600616335868835449e-01
1.611000000000000000e+03 4.465902709960937500e+01 -2.661207199096679688e+01 2.479046434164047241e-01 2.650379896163940430e+00 8.694853186607360840e-01 -8.344795703887939453e-01
1.612000000000000000e+03 4.395802688598632812e+01 -2.534060096740722656e+01 2.670747637748718262e-01 3.183106184005737305e+00 1.035054326057434082e+00 -8.586041927337646484e-01
1.613000000000000000e+03 7.058878326416015625e+01 -1.992750930786132812e+01 -5.095262527465820312e-01 5.509758472442626953e+00 1.500069618225097656e+00 1.106033325195312500e+00
1.614000000000000000e+03 7.220124816894531250e+01 -1.632369422912597656e+01 -3.595016151666641235e-02 1.022971153259277344e+01 3.058128356933593750e+00 3.553976058959960938e+00
1.615000000000000000e+03 7.162652587890625000e+01 -2.188175964355468750e+01 -6.407788395881652832e-01 6.709407806396484375e+00 1.820588707923889160e+00 3.178264796733856201e-01
1.616000000000000000e+03 7.147237396240234375e+01 -2.094594001770019531e+01 -7.417848110198974609e-01 6.721917152404785156e+00 1.794039726257324219e+00 6.764871478080749512e-01
1.617000000000000000e+03 7.530134582519531250e+01 1.358525466918945312e+01 9.669554233551025391e-02 5.720867156982421875e+00 1.745268821716308594e+00 -9.296985268592834473e-01
1.618000000000000000e+03 7.692493438720703125e+01 6.852132678031921387e-01 -2.028848379850387573e-01 8.413914680480957031e+00 2.463309049606323242e+00 -3.679929077625274658e-01
1.619000000000000000e+03 7.575706481933593750e+01 -5.335670113563537598e-01 -4.334170818328857422e-01 8.025568962097167969e+00 2.277645587921142578e+00 -3.605277240276336670e-01
1.620000000000000000e+03 7.279589080810546875e+01 3.391921997070312500e+01 9.861155599355697632e-02 4.248484134674072266e+00 1.304128766059875488e+00 -1.295234113931655884e-01
1.621000000000000000e+03 7.629514312744140625e+01 3.362388229370117188e+01 2.635495550930500031e-02 4.285923957824707031e+00 1.293683648109436035e+00 -8.703949302434921265e-02
1.622000000000000000e+03 7.552151489257812500e+01 3.065501976013183594e+01 6.664415448904037476e-02 4.351326942443847656e+00 1.325391411781311035e+00 -1.707433909177780151e-01
1.623000000000000000e+03 7.629111480712890625e+01 -1.221088504791259766e+01 3.129725217819213867e+00 1.089377784729003906e+01 4.207050800323486328e+00 2.067812919616699219e+00
1.624000000000000000e+03 7.545227050781250000e+01 9.235510826110839844e+00 1.585312187671661377e-02 6.414910793304443359e+00 1.929229259490966797e+00 -1.003891706466674805e+00
1.625000000000000000e+03 7.673207092285156250e+01 1.749733352661132812e+01 6.920666247606277466e-02 5.464368820190429688e+00 1.660072684288024902e+00 -5.635148286819458008e-01
1.626000000000000000e+03 7.668751525878906250e+01 1.614079093933105469e+01 7.084223628044128418e-02 5.650369644165039062e+00 1.716363549232482910e+00 -6.241458058357238770e-01
1.627000000000000000e+03 7.662438201904296875e+01 -1.480038928985595703e+01 2.962274074554443359e+00 1.020883846282958984e+01 3.951333761215209961e+00 -2.578215599060058594e+00
1.628000000000000000e+03 7.556744384765625000e+01 -1.551431083679199219e+01 1.746139287948608398e+00 1.321194267272949219e+01 4.487424373626708984e+00 -3.653816938400268555e+00
1.629000000000000000e+03 7.577163696289062500e+01 8.575149774551391602e-01 -3.126565217971801758e-01 7.864514827728271484e+00 2.265557527542114258e+00 -5.346057415008544922e-01
1.630000000000000000e+03 7.552939605712890625e+01 6.453575134277343750e+00 -7.853680104017257690e-02 6.891145229339599609e+00 2.043782472610473633e+00 -9.642626643180847168e-01
1.631000000000000000e+03 7.657736968994140625e+01 -1.763180732727050781e+01 -6.953516006469726562e-01 1.078564643859863281e+01 3.027088403701782227e+00 -3.045800209045410156e+00
1.632000000000000000e+03 7.765985870361328125e+01 -1.915122032165527344e+01 -5.744665265083312988e-01 9.571823120117187500e+00 2.699207067489624023e+00 -2.206828832626342773e+00
1.633000000000000000e+03 7.671620178222656250e+01 -2.031823158264160156e+01 -9.167135357856750488e-01 1.027022647857666016e+01 2.806053876876831055e+00 -1.851726531982421875e+00
1.634000000000000000e+03 7.735546112060546875e+01 -7.582757949829101562e+00 -7.223400473594665527e-01 8.893420219421386719e+00 2.451323986053466797e+00 1.693344950675964355e+00
1.635000000000000000e+03 7.457775878906250000e+01 -1.031569576263427734e+01 -8.081743717193603516e-01 1.422462368011474609e+01 4.024934768676757812e+00 1.091861963272094727e+00
1.636000000000000000e+03 7.537504577636718750e+01 1.065653514862060547e+01 4.709436371922492981e-02 6.160805702209472656e+00 1.862370014190673828e+00 -9.979690313339233398e-01
1.637000000000000000e+03 7.427632141113281250e+01 9.266422271728515625e+00 2.173608914017677307e-02 5.996269226074218750e+00 1.805401563644409180e+00 -1.178641080856323242e+00
1.638000000000000000e+03 7.540557098388671875e+01 1.778985404968261719e+01 1.284457147121429443e-01 5.219222068786621094e+00 1.604300260543823242e+00 -7.244133353233337402e-01
1.639000000000000000e+03 7.553433990478515625e+01 2.035500526428222656e+01 1.256230771541595459e-01 4.959665298461914062e+00 1.525586485862731934e+00 -5.770670175552368164e-01
1.640000000000000000e+03 7.553183746337890625e+01 1.908569717407226562e+01 1.228841692209243774e-01 5.085037708282470703e+00 1.562376499176025391e+00 -6.434480547904968262e-01
1.641000000000000000e+03 7.380272674560546875e+01 1.668817901611328125e+01 2.111970335245132446e-01 5.031266689300537109e+00 1.572739124298095703e+00 -9.355286359786987305e-01
1.642000000000000000e+03 7.559017181396484375e+01 3.579783201217651367e+00 -1.835812032222747803e-01 7.339403629302978516e+00 2.146746635437011719e+00 -8.282371759414672852e-01
1.643000000000000000e+03 7.549377441406250000e+01 5.024536609649658203e+00 -1.244755089282989502e-01 7.099417686462402344e+00 2.092482566833496094e+00 -9.051319360733032227e-01
1.644000000000000000e+03 7.467010498046875000e+01 2.238215684890747070e+00 -3.395771682262420654e-01 7.160460472106933594e+00 2.046264886856079102e+00 -8.157892227172851562e-01
1.645000000000000000e+03 7.254672241210937500e+01 2.698438072204589844e+01 2.171263247728347778e-01 4.338059902191162109e+00 1.366555929183959961e+00 -3.929198086261749268e-01
1.646000000000000000e+03 7.666271209716796875e+01 2.586186218261718750e+01 5.833360925316810608e-02 4.598343372344970703e+00 1.397003054618835449e+00 -2.654491662979125977e-01
1.647000000000000000e+03 7.381970214843750000e+01 2.448290634155273438e+01 1.922655254602432251e-01 4.502389430999755859e+00 1.408396601676940918e+00 -4.871794283390045166e-01
1.648000000000000000e+03 7.566188049316406250e+01 2.676041603088378906e+01 8.596556633710861206e-02 4.514243125915527344e+00 1.380062580108642578e+00 -2.959781587123870850e-01
1.649000000000000000e+03 7.730355834960937500e+01 -6.263692855834960938e+00 -6.355328559875488281e-01 8.951045036315917969e+00 2.494653701782226562e+00 1.189415335655212402e+00
1.650000000000000000e+03 7.635945892333984375e+01 -7.346678733825683594e+00 -1.084809541702270508e+00 9.603486061096191406e+00 2.555603027343750000e+00 1.467521071434020996e+00
1.651000000000000000e+03 7.659471893310546875e+01 2.981659317016601562e+01 4.988344013690948486e-02 4.388034343719482422e+00 1.331375360488891602e+00 -1.569605320692062378e-01
1.652000000000000000e+03 7.501802062988281250e+01 2.832162475585937500e+01 1.020449921488761902e-01 4.412406921386718750e+00 1.354335546493530273e+00 -2.616698145866394043e-01
1.653000000000000000e+03 7.458317565917968750e+01 2.619543266296386719e+01 1.369037181138992310e-01 4.479964256286621094e+00 1.385060429573059082e+00 -3.612079322338104248e-01
1.654000000000000000e+03 7.546757507324218750e+01 -2.995737266540527344e+01 -3.723330199718475342e-01 9.399580001831054688e+00 2.708174228668212891e+00 -1.860719472169876099e-01
1.655000000000000000e+03 7.322088623046875000e+01 -2.280355834960937500e+01 -7.593728899955749512e-01 7.957845211029052734e+00 2.159541845321655273e+00 -3.662847280502319336e-01
1.656000000000000000e+03 7.609146118164062500e+01 -4.842797279357910156e+00 -8.633669614791870117e-01 8.934614181518554688e+00 2.421374082565307617e+00 5.658345222473144531e-01
1.657000000000000000e+03 7.081273651123046875e+01 -3.046584510803222656e+01 -9.511428475379943848e-01 5.286074161529541016e+00 1.300479412078857422e+00 6.792204454541206360e-03
1.658000000000000000e+03 7.513758087158203125e+01 -3.635253143310546875e+01 9.199567139148712158e-03 8.761076927185058594e+00 2.631083011627197266e+00 2.527388334274291992e-01
1.659000000000000000e+03 7.481607818603515625e+01 3.383263397216796875e+01 5.817041173577308655e-02 4.272500514984130859e+00 1.299201250076293945e+00 -1.091656163334846497e-01
1.660000000000000000e+03 7.586308288574218750e+01 -2.575321578979492188e+01 -3.274264037609100342e-01 9.652222633361816406e+00 2.797438859939575195e+00 -6.291482448577880859e-01
1.661000000000000000e+03 7.570764923095703125e+01 -2.716997718811035156e+01 -3.417285382747650146e-01 9.526115417480468750e+00 2.755316019058227539e+00 -4.892930686473846436e-01
1.662000000000000000e+03 7.283498382568359375e+01 -2.539390945434570312e+01 -4.805658757686614990e-01 7.339668273925781250e+00 2.057730674743652344e+00 -5.027537941932678223e-01
1.663000000000000000e+03 7.626233673095703125e+01 -6.115180015563964844e+00 -9.995331764221191406e-01 9.268910408020019531e+00 2.480813264846801758e+00 1.011221289634704590e+00
1.664000000000000000e+03 7.566876220703125000e+01 -1.990681529045104980e+00 -5.893819332122802734e-01 8.249639511108398438e+00 2.298077344894409180e+00 -1.410654485225677490e-01
1.665000000000000000e+03 7.578510284423828125e+01 -3.465811729431152344e+00 -7.416965365409851074e-01 8.544023513793945312e+00 2.340698242187500000e+00 1.667478680610656738e-01
1.666000000000000000e+03 7.555783843994140625e+01 -2.857773017883300781e+01 -3.438266813755035400e-01 9.429123878479003906e+00 2.725589036941528320e+00 -3.448027372360229492e-01
1.667000000000000000e+03 7.664726257324218750e+01 -3.447206497192382812e+01 -9.373086690902709961e-02 1.029763412475585938e+01 3.061171054840087891e+00 1.609824150800704956e-01
1.668000000000000000e+03 7.560634613037109375e+01 -3.373624420166015625e+01 -1.069209650158882141e-01 9.602715492248535156e+00 2.848738193511962891e+00 1.894943416118621826e-01
1.669000000000000000e+03 6.819564056396484375e+01 -7.214362621307373047e+00 6.031179055571556091e-02 2.663506507873535156e+00 8.171454668045043945e-01 -1.289162993431091309e+00
1.670000000000000000e+03 6.530827331542968750e+01 -2.303069829940795898e+00 -1.496572017669677734e+00 1.883376359939575195e+00 1.160413175821304321e-01 -5.518391132354736328e-01
1.671000000000000000e+03 4.613483428955078125e+01 2.062878608703613281e+01 7.599333524703979492e-01 5.479562282562255859e+00 1.871848702430725098e+00 1.091744303703308105e+00
1.672000000000000000e+03 4.418564987182617188e+01 1.790485954284667969e+01 7.099662423133850098e-01 6.725112438201904297e+00 2.230523586273193359e+00 1.471557021141052246e+00
1.673000000000000000e+03 1.327400493621826172e+01 3.503263473510742188e+01 9.824566077440977097e-04 -3.079938178416341543e-04 2.023388515226542950e-04 -3.658059868030250072e-04
1.674000000000000000e+03 4.562932205200195312e+01 2.415083122253417969e+01 5.123752951622009277e-01 5.378144741058349609e+00 1.767156004905700684e+00 4.725361466407775879e-01
1.675000000000000000e+03 4.447373962402343750e+01 1.209192943572998047e+01 1.840185165405273438e+00 6.623684883117675781e+00 2.539160966873168945e+00 2.766818284988403320e+00
1.676000000000000000e+03 4.356888198852539062e+01 1.360306549072265625e+01 1.367048621177673340e+00 7.807626724243164062e+00 2.752402544021606445e+00 2.473023414611816406e+00
1.677000000000000000e+03 1.497917079925537109e+01 7.648018360137939453e+00 -9.738212975207716227e-05 -3.271000241511501372e-05 -3.902764001395553350e-05 -6.645390385529026389e-05
1.678000000000000000e+03 1.549321746826171875e+01 9.450858116149902344e+00 -1.332714600721374154e-04 -4.986302155884914100e-05 -5.494034485309384763e-05 -5.394142135628499091e-05
1.679000000000000000e+03 4.467606353759765625e+01 2.091605377197265625e+01 4.594783186912536621e-01 6.016840934753417969e+00 1.942895770072937012e+00 9.282549619674682617e-01
1.680000000000000000e+03 4.172102451324462891e+00 -1.474803733825683594e+01 1.866936534643173218e-01 -1.003341227769851685e-01 2.590785734355449677e-02 -2.322798222303390503e-01
1.681000000000000000e+03 4.330265998840332031e+00 2.117448425292968750e+01 -2.177649585064500570e-04 -3.179752457072027028e-05 -7.486874528694897890e-05 -5.007037179893814027e-05
1.682000000000000000e+03 4.615201950073242188e+00 -2.038044166564941406e+01 4.107462763786315918e-01 5.796285867691040039e-01 2.971124649047851562e-01 5.889781117439270020e-01
1.683000000000000000e+03 2.879267692565917969e+00 -2.037093734741210938e+01 2.627075910568237305e-01 -2.670187652111053467e-01 -1.293352339416742325e-03 4.451012611389160156e-01
1.684000000000000000e+03 4.303414344787597656e+00 -1.698798370361328125e+01 4.168658554553985596e-01 9.830569475889205933e-02 1.545514613389968872e-01 6.377891451120376587e-02
1.685000000000000000e+03 5.208218097686767578e+00 -1.765254783630371094e+01 5.499688982963562012e-01 5.412811636924743652e-01 3.273750245571136475e-01 2.250848561525344849e-01
1.686000000000000000e+03 3.085760831832885742e+00 1.960863113403320312e+01 -2.143129968317225575e-04 -2.690288965823128819e-05 -7.236476812977343798e-05 -4.204180368105880916e-05
1.687000000000000000e+03 5.580734729766845703e+00 2.138240623474121094e+01 2.232795377494767308e-04 5.678877278114669025e-05 8.402049570577219129e-05 6.310921889962628484e-05
1.688000000000000000e+03 5.551398277282714844e+00 2.272939109802246094e+01 -2.131198561983183026e-04 -4.792453910340555012e-05 -7.831331458874046803e-05 -5.893984780414029956e-05
1.689000000000000000e+03 5.529536247253417969e+00 2.535771560668945312e+01 -2.512917271815240383e-04 -2.594915349618531764e-05 -8.317226456711068749e-05 -6.678677164018154144e-05
1.690000000000000000e+03 4.564065933227539062e+00 2.903590011596679688e+01 -2.895337820518761873e-04 6.913326615176629275e-06 -8.478613744955509901e-05 -1.212066781590692699e-04
1.691000000000000000e+03 4.332807540893554688e+00 1.702940940856933594e+01 2.010309108300134540e-04 2.304457848367746919e-05 6.722264515701681376e-05 6.062562897568568587e-05
1.692000000000000000e+03 3.081323146820068359e+00 1.822076797485351562e+01 2.076441887766122818e-04 2.130002030753530562e-05 6.868326454423367977e-05 5.156699990038760006e-05
1.693000000000000000e+03 4.351490974426269531e+00 1.841001701354980469e+01 -2.031091134995222092e-04 -2.892401062126737088e-05 -6.960993778193369508e-05 -5.268436143524013460e-05
1.694000000000000000e+03 3.001650571823120117e+00 1.407919692993164062e+01 -1.883426302811130881e-04 -1.302506552747217938e-05 -6.041030792403034866e-05 -4.135275594308041036e-05
1.695000000000000000e+03 3.100470066070556641e+00 2.510848617553710938e+01 -2.580460859462618828e-04 -1.264463480765698478e-05 -8.120721759041771293e-05 -4.940101644024252892e-05
1.696000000000000000e+03 4.322504997253417969e+00 2.522588920593261719e+01 2.992357476614415646e-04 3.731262404471635818e-05 1.009645129670388997e-04 1.736602098389994353e-05
1.697000000000000000e+03 4.312294006347656250e+00 2.388874053955078125e+01 -2.376039046794176102e-04 -2.824836701620370150e-05 -7.975567859830334783e-05 -5.192752360017038882e-05
1.698000000000000000e+03 4.161917686462402344e+00 1.294317817687988281e+01 -1.858818286564201117e-04 -1.017977956507820636e-05 -5.881848119315691292e-05 -3.674133040476590395e-05
1.699000000000000000e+03 4.105009555816650391e+00 -9.774367332458496094e+00 -5.372015386819839478e-02 -1.642147302627563477e-01 -6.538046151399612427e-02 -3.658288121223449707e-01
1.700000000000000000e+03 4.498795509338378906e+00 -1.338639736175537109e+01 1.140763834118843079e-01 -6.494692061096429825e-03 3.227450698614120483e-02 -3.131197988986968994e-01
1.701000000000000000e+03 3.815420627593994141e+00 -3.039309120178222656e+01 -2.946765124797821045e-01 3.669908344745635986e-01 2.169429697096347809e-02 2.156158089637756348e-01
1.702000000000000000e+03 3.637274503707885742e+00 -3.206790924072265625e+01 -1.289351880550384521e-01 4.415677785873413086e-01 9.378977864980697632e-02 3.624611720442771912e-02
1.703000000000000000e+03 5.255609035491943359e+00 1.065950965881347656e+01 1.786467473721131682e-04 2.556631625338923186e-05 6.126391963334754109e-05 2.806860902637708932e-05
1.704000000000000000e+03 4.437145709991455078e+00 2.780594635009765625e+01 3.750143805518746376e-04 3.505704080453142524e-05 1.230214256793260574e-04 -4.537800123216584325e-06
1.705000000000000000e+03 6.576480865478515625e+00 3.706216812133789062e+01 -2.674175193533301353e-04 -2.537888940423727036e-04 -1.563619298394769430e-04 -6.143724313005805016e-04
1.706000000000000000e+03 4.493556976318359375e+00 -1.111444091796875000e+01 -6.833245046436786652e-03 -5.377153679728507996e-02 -1.818143576383590698e-02 -3.596003055572509766e-01
1.707000000000000000e+03 4.123106002807617188e+00 1.037001895904541016e+01 -1.661388378124684095e-04 -2.319855047971941531e-05 -5.680121830664575100e-05 -3.888415812980383635e-05
1.708000000000000000e+03 4.743413448333740234e+00 -5.949112892150878906e+00 -1.151101291179656982e-01 -5.082419514656066895e-02 -4.978029802441596985e-02 -2.830604016780853271e-01
1.709000000000000000e+03 4.365279674530029297e+00 -3.426731109619140625e+01 -1.065414398908615112e-01 3.600161969661712646e-01 7.604242116212844849e-02 -3.148275241255760193e-02
1.710000000000000000e+03 7.188064098358154297e+00 -3.364469146728515625e+01 -2.303361296653747559e-01 -1.547936648130416870e-01 -1.155389398336410522e-01 9.440632164478302002e-02
1.711000000000000000e+03 5.743000507354736328e+00 2.900218772888183594e+01 4.410459077917039394e-04 1.025117308017797768e-05 1.353891275357455015e-04 5.353671076591126621e-05
1.712000000000000000e+03 3.992290496826171875e+00 3.422044372558593750e+01 2.366010885452851653e-04 2.164648903999477625e-04 1.359197922283783555e-04 1.889891973405610770e-05
1.713000000000000000e+03 3.551852226257324219e+00 3.179456901550292969e+01 3.428111376706510782e-04 3.180768544552847743e-05 1.123856491176411510e-04 3.038441946046077646e-06
1.714000000000000000e+03 5.732878684997558594e+00 3.370879364013671875e+01 -3.557672316674143076e-04 7.217664824565872550e-05 -8.507717575412243605e-05 -3.409439232200384140e-04
1.715000000000000000e+03 4.867974758148193359e+00 3.233769607543945312e+01 3.131639969069510698e-04 -6.596802268177270889e-05 7.415879372274503112e-05 -2.838349610101431608e-04
1.716000000000000000e+03 4.352629661560058594e+00 8.030337333679199219e+00 -1.469757116865366697e-04 -3.311003456474281847e-05 -5.402572423918172717e-05 -4.519598587648943067e-05
1.717000000000000000e+03 4.162194728851318359e+00 5.536628723144531250e+00 1.188828755402937531e-04 1.426460767106618732e-05 3.994424332631751895e-05 7.308008935069665313e-05
1.718000000000000000e+03 4.652996540069580078e+00 -4.888741493225097656e+00 -1.221543997526168823e-01 -4.320944100618362427e-02 -4.960915073752403259e-02 -2.409855127334594727e-01
1.719000000000000000e+03 4.571764755249023438e+01 1.912288856506347656e+01 8.469582200050354004e-01 5.768571376800537109e+00 1.984658956527709961e+00 1.370502948760986328e+00
1.720000000000000000e+03 2.860856294631958008e+00 -4.917051315307617188e+00 -5.600163340568542480e-02 -1.404011696577072144e-01 -5.892083793878555298e-02 -1.941060870885848999e-01
1.721000000000000000e+03 4.858892822265625000e+01 -2.848613739013671875e+01 5.888590961694717407e-02 1.028503656387329102e+00 3.262168765068054199e-01 -5.290643572807312012e-01
1.722000000000000000e+03 3.479470062255859375e+01 -1.693441963195800781e+01 -9.966954588890075684e-01 3.673258781433105469e+00 8.029689788818359375e-01 -5.971915125846862793e-01
1.723000000000000000e+03 3.672090911865234375e+01 -1.526870346069335938e+01 1.306082904338836670e-01 6.466435432434082031e+00 1.979113101959228516e+00 1.245184987783432007e-01
1.724000000000000000e+03 5.680515289306640625e+01 2.561075687408447266e+00 -2.593767881393432617e+00 1.081038191914558411e-01 -7.456992268562316895e-01 -1.016910374164581299e-01
1.725000000000000000e+03 1.733732223510742188e+01 5.772753715515136719e+00 1.130847012973390520e-04 3.314038258395157754e-05 4.386752698337659240e-05 6.410590867744758725e-05
1.726000000000000000e+03 2.592668151855468750e+01 -1.430574417114257812e+01 5.021497011184692383e-01 -3.002672493457794189e-01 6.056473031640052795e-02 6.249286532402038574e-01
1.727000000000000000e+03 3.279999542236328125e+01 -1.479110240936279297e+01 6.791985034942626953e-01 1.029467105865478516e+00 5.125996470451354980e-01 3.839929103851318359e-01
1.728000000000000000e+03 3.098018646240234375e+01 -1.479059028625488281e+01 6.619759798049926758e-01 -1.094897016882896423e-01 1.657458841800689697e-01 7.442812323570251465e-01
1.729000000000000000e+03 1.577188014984130859e+01 6.412542343139648438e+00 7.291659130714833736e-05 4.341235762694850564e-05 3.489868322503753006e-05 6.693295290460810065e-05
1.730000000000000000e+03 1.490832233428955078e+01 5.839407444000244141e+00 -8.997373697638977319e-06 -5.373554449761286378e-05 -1.881987554952502251e-05 -3.872600791510194540e-05
1.731000000000000000e+03 1.256687355041503906e+01 1.427066040039062500e+01 9.882099402602761984e-05 4.281929432181641459e-05 4.249208723194897175e-05 1.252348592970520258e-04
1.732000000000000000e+03 1.433639335632324219e+01 9.092222213745117188e+00 1.368395314784720540e-04 5.217778016231022775e-05 5.670519385603256524e-05 5.449680975289084017e-05
1.733000000000000000e+03 4.423427963256835938e+01 1.060957145690917969e+01 1.994370937347412109e+00 6.566520690917968750e+00 2.568267583847045898e+00 2.974756002426147461e+00
1.734000000000000000e+03 4.295924758911132812e+01 4.220855236053466797e+00 -1.723645687103271484e+00 7.213112831115722656e+00 1.646840095520019531e+00 2.657965660095214844e+00
1.735000000000000000e+03 4.414497756958007812e+01 2.616455078125000000e+00 -4.269052028656005859e+00 5.176527976989746094e+00 2.722426950931549072e-01 2.382248640060424805e+00
1.736000000000000000e+03 4.922972106933593750e+01 -3.117732048034667969e+01 -2.382332086563110352e-01 1.246703863143920898e+00 3.025411963462829590e-01 -5.187374353408813477e-01
1.737000000000000000e+03 7.766047000885009766e+00 -1.423007297515869141e+01 5.508722662925720215e-01 8.044756650924682617e-01 4.066043794155120850e-01 9.849393367767333984e-02
1.738000000000000000e+03 6.301054954528808594e+00 -1.527389812469482422e+01 5.365862250328063965e-01 6.640345454216003418e-01 3.601862192153930664e-01 2.122161909937858582e-02
1.739000000000000000e+03 4.251939392089843750e+01 -2.305927467346191406e+01 1.387077271938323975e-01 4.762594699859619141e+00 1.470390796661376953e+00 -6.482972502708435059e-01
1.740000000000000000e+03 3.913097763061523438e+01 -9.057265281677246094e+00 1.538134455680847168e+00 1.060656356811523438e+01 3.643409490585327148e+00 9.567286372184753418e-01
1.741000000000000000e+03 3.700561141967773438e+01 -1.147477531433105469e+01 1.518827438354492188e+00 6.806604862213134766e+00 2.497629642486572266e+00 3.410532772541046143e-01
1.742000000000000000e+03 4.585850143432617188e+01 2.706312751770019531e+01 6.044222116470336914e-01 4.885720729827880859e+00 1.647042870521545410e+00 2.844028472900390625e-01
1.743000000000000000e+03 4.445543289184570312e+01 2.699493026733398438e+01 5.743854641914367676e-01 5.133251667022705078e+00 1.712291121482849121e+00 5.422812327742576599e-02
1.744000000000000000e+03 5.632039260864257812e+01 4.090322017669677734e+00 -1.771476387977600098e+00 2.871004641056060791e-01 -4.453127682209014893e-01 -3.925297260284423828e-01
1.745000000000000000e+03 1.221790790557861328e+01 -3.887153625488281250e+01 -9.153285063803195953e-04 -2.492468953132629395e-01 -7.504866272211074829e-02 5.086309090256690979e-02
1.746000000000000000e+03 1.485784912109375000e+01 -1.352020835876464844e+01 7.682074904441833496e-01 1.012797951698303223e-01 2.608461678028106689e-01 1.853361278772354126e-01
1.747000000000000000e+03 6.182058811187744141e+00 -3.058168601989746094e+01 -5.287838578224182129e-01 -9.067167341709136963e-02 -1.858366727828979492e-01 2.171433717012405396e-01
1.748000000000000000e+03 4.490374374389648438e+01 1.495252323150634766e+01 1.436460971832275391e+00 6.394655227661132812e+00 2.349334716796875000e+00 2.187397718429565430e+00
1.749000000000000000e+03 3.859796142578125000e+01 -2.060225868225097656e+01 -1.224606335163116455e-01 7.606828689575195312e+00 2.245310306549072266e+00 1.300454497337341309e+00
1.750000000000000000e+03 3.826699066162109375e+01 -1.862592315673828125e+01 -8.281542658805847168e-01 8.039693832397460938e+00 2.163461923599243164e+00 1.080073118209838867e+00
1.751000000000000000e+03 3.898266220092773438e+01 -2.258740234375000000e+01 4.061387479305267334e-01 6.846266746520996094e+00 2.175721645355224609e+00 1.022175431251525879e+00
1.752000000000000000e+03 3.703735351562500000e+01 -2.559673500061035156e+01 1.353378534317016602e+00 6.953550815582275391e+00 2.492078781127929688e+00 9.017639160156250000e-01
1.753000000000000000e+03 4.469506835937500000e+01 1.353691482543945312e+01 1.633067488670349121e+00 6.526695728302001953e+00 2.447928905487060547e+00 2.429822921752929688e+00
1.754000000000000000e+03 4.922426223754882812e+01 4.522827625274658203e+00 -1.849361896514892578e+00 -1.226775497198104858e-01 -5.916118621826171875e-01 6.107796356081962585e-02
1.755000000000000000e+03 4.687432861328125000e+01 4.017498493194580078e+00 -1.971476078033447266e+00 5.563042163848876953e-01 -4.245515465736389160e-01 1.593675374984741211e+00
1.756000000000000000e+03 4.248183441162109375e+01 7.590461254119873047e+00 1.803080201148986816e+00 8.415657043457031250e+00 3.065621137619018555e+00 3.418713569641113281e+00
1.757000000000000000e+03 5.478983402252197266e+00 -2.964610862731933594e+01 -5.356752872467041016e-01 3.815583884716033936e-02 -1.492558270692825317e-01 3.274586796760559082e-01
1.758000000000000000e+03 3.993423843383789062e+01 -3.662649631500244141e+00 3.918825089931488037e-01 1.063744068145751953e+01 3.308796882629394531e+00 1.508149147033691406e+00
1.759000000000000000e+03 3.901908493041992188e+01 -2.283831357955932617e+00 -8.872844576835632324e-01 9.033951759338378906e+00 2.444000244140625000e+00 8.682386279106140137e-01
1.760000000000000000e+03 4.399637603759765625e+01 9.073021888732910156e+00 2.030650854110717773e+00 6.407695293426513672e+00 2.531503915786743164e+00 3.079613447189331055e+00
1.761000000000000000e+03 7.585404205322265625e+01 4.062862777709960938e+01 1.574647799134254456e-02 4.197870254516601562e+00 1.264084935188293457e+00 -1.859780028462409973e-02
1.762000000000000000e+03 7.532644653320312500e+01 3.854998016357421875e+01 3.114123456180095673e-02 4.220059871673583984e+00 1.275360226631164551e+00 -3.761408478021621704e-02
1.763000000000000000e+03 1.759998321533203125e+01 -3.785523986816406250e+01 -1.396262496709823608e-01 -1.897258460521697998e-01 -9.880562871694564819e-02 3.324107080698013306e-02
1.764000000000000000e+03 1.902300834655761719e+01 -3.638931655883789062e+01 -2.537725269794464111e-01 -1.125450655817985535e-01 -1.098952814936637878e-01 -3.803286934271454811e-03
1.765000000000000000e+03 1.411375999450683594e+01 3.060901260375976562e+01 -7.127854623831808567e-04 2.779074711725115776e-04 -1.304634060943499207e-04 1.978303225769195706e-05
1.766000000000000000e+03 3.903021240234375000e+01 1.738508701324462891e+00 -1.968333363533020020e+00 9.632610321044921875e+00 2.299283027648925781e+00 1.221096873283386230e+00
1.767000000000000000e+03 3.957811737060546875e+01 2.974541187286376953e-01 -2.470192432403564453e+00 9.901815414428710938e+00 2.229486703872680664e+00 5.153591036796569824e-01
1.768000000000000000e+03 4.154298019409179688e+01 4.424178123474121094e+00 -8.803556561470031738e-01 9.363072395324707031e+00 2.544815063476562500e+00 2.467958211898803711e+00
1.769000000000000000e+03 3.995681381225585938e+01 1.493227481842041016e+00 -2.707839488983154297e+00 1.004386997222900391e+01 2.200809240341186523e+00 9.285219311714172363e-01
1.770000000000000000e+03 4.339892196655273438e+01 5.789429187774658203e+00 3.764840960502624512e-01 6.327867031097412109e+00 2.011305332183837891e+00 2.787588119506835938e+00
1.771000000000000000e+03 3.928760147094726562e+01 -1.566538429260253906e+01 5.842109322547912598e-01 9.323472023010253906e+00 2.972305059432983398e+00 -1.815336048603057861e-01
1.772000000000000000e+03 6.861418151855468750e+01 -3.401261901855468750e+01 -4.853470325469970703e-01 3.127506732940673828e+00 7.926478981971740723e-01 2.914346754550933838e-01
1.773000000000000000e+03 7.152875518798828125e+01 -2.548225784301757812e+01 -4.151483178138732910e-01 6.000828266143798828e+00 1.675704002380371094e+00 -3.954945206642150879e-01
1.774000000000000000e+03 3.134964942932128906e+01 -1.198601722717285156e+01 1.692772746086120605e+00 5.081369280815124512e-01 6.602728962898254395e-01 4.647917449474334717e-01
1.775000000000000000e+03 6.249868392944335938e+01 -3.927845382690429688e+01 6.853131651878356934e-01 1.480538770556449890e-02 2.100355625152587891e-01 -1.524540185928344727e-01
1.776000000000000000e+03 3.387264633178710938e+01 -2.807245492935180664e+00 -7.314159274101257324e-01 9.897832274436950684e-01 7.751019299030303955e-02 -9.388008154928684235e-03
1.777000000000000000e+03 4.114494323730468750e+01 1.491485595703125000e+00 -3.276562929153442383e+00 1.022872066497802734e+01 2.085647344589233398e+00 8.012423515319824219e-01
1.778000000000000000e+03 3.677614212036132812e+01 -3.024984169006347656e+01 1.035862602293491364e-02 5.243575572967529297e+00 1.576180219650268555e+00 3.460077345371246338e-01
1.779000000000000000e+03 7.270861816406250000e+01 -2.817267608642578125e+01 -6.931106448173522949e-01 6.973436355590820312e+00 1.884097695350646973e+00 -3.911717832088470459e-01
1.780000000000000000e+03 3.627264785766601562e+01 -3.426242446899414062e+01 -9.066846370697021484e-01 4.163120746612548828e+00 9.769309163093566895e-01 2.512648403644561768e-01
1.781000000000000000e+03 3.736709213256835938e+01 -3.199721336364746094e+01 -6.716493368148803711e-01 4.643451690673828125e+00 1.191540718078613281e+00 6.234645843505859375e-02
1.782000000000000000e+03 2.935440826416015625e+01 -5.781218051910400391e+00 5.879784226417541504e-01 -5.424062609672546387e-01 1.367163658142089844e-02 -5.880268812179565430e-01
1.783000000000000000e+03 5.016336441040039062e+01 4.980888843536376953e+00 -1.589984655380249023e+00 1.035375520586967468e-01 -4.459341168403625488e-01 -2.679791487753391266e-02
1.784000000000000000e+03 3.254360961914062500e+01 -3.602536916732788086e+00 -3.367631137371063232e-01 8.796731382608413696e-02 -7.463873922824859619e-02 -3.610631227493286133e-01
1.785000000000000000e+03 3.390104675292968750e+01 -9.794449806213378906e+00 1.910978436470031738e+00 2.533636808395385742e+00 1.333384513854980469e+00 3.059806823730468750e-01
1.786000000000000000e+03 7.394078826904296875e+01 -3.211834716796875000e+01 -4.312327206134796143e-01 7.999601840972900391e+00 2.270510911941528320e+00 1.580262184143066406e-01
1.787000000000000000e+03 1.082099056243896484e+01 1.632485008239746094e+01 -2.121170837199315429e-04 5.770968709839507937e-05 -4.632222044165246189e-05 1.007259052130393684e-04
1.788000000000000000e+03 4.166733551025390625e+01 -2.201984214782714844e+01 -9.697801433503627777e-03 5.824791431427001953e+00 1.744528055191040039e+00 -1.498030275106430054e-01
1.789000000000000000e+03 4.164952087402343750e+01 -2.029439544677734375e+01 -1.488915830850601196e-01 6.926300048828125000e+00 2.033222436904907227e+00 -3.151537477970123291e-01
1.790000000000000000e+03 2.130989646911621094e+01 3.853834915161132812e+01 2.155659021809697151e-03 -6.536424625664949417e-03 -1.314229681156575680e-03 5.704089999198913574e-04
1.791000000000000000e+03 4.418100357055664062e+01 3.029486274719238281e+01 4.529903233051300049e-01 4.534403324127197266e+00 1.496218085289001465e+00 1.822489686310291290e-02
1.792000000000000000e+03 4.250889205932617188e+01 3.643103408813476562e+01 -3.533806204795837402e-01 3.375086307525634766e+00 9.065117239952087402e-01 -1.848321259021759033e-01
1.793000000000000000e+03 3.022691726684570312e+01 -3.641240310668945312e+01 -5.154550671577453613e-01 1.971454262733459473e+00 4.367997348308563232e-01 7.325665354728698730e-01
1.794000000000000000e+03 6.273218917846679688e+01 1.167722463607788086e+00 -1.813179254531860352e+00 1.104220151901245117e+00 -2.126877605915069580e-01 -8.958172202110290527e-01
1.795000000000000000e+03 7.174417877197265625e+01 -2.913551139831542969e+01 -8.361878991127014160e-01 6.245757102966308594e+00 1.622870683670043945e+00 -2.108203172683715820e-01
1.796000000000000000e+03 6.690267944335937500e+01 -3.582850646972656250e+01 -1.410080213099718094e-02 1.808671355247497559e+00 5.383711457252502441e-01 2.381417006254196167e-01
1.797000000000000000e+03 6.257585525512695312e+01 -3.734089660644531250e+01 2.138857543468475342e-01 -2.145898044109344482e-01 -2.112159563694149256e-04 -2.066105306148529053e-01
1.798000000000000000e+03 1.181738471984863281e+01 2.719327163696289062e+01 5.813271272927522659e-04 1.053484375006519258e-04 2.060026745311915874e-04 2.996311523020267487e-04
1.799000000000000000e+03 5.530092716217041016e+00 2.405472755432128906e+01 2.809557190630584955e-04 5.550997593672946095e-05 1.009397092275321484e-04 3.036729867744725198e-05
1.800000000000000000e+03 1.294584941864013672e+01 2.400005149841308594e+01 -4.918478662148118019e-04 4.868176984018646181e-05 -1.329498190898448229e-04 -5.614876135950908065e-05
1.801000000000000000e+03 1.170858573913574219e+01 2.241861724853515625e+01 -4.078001948073506355e-04 1.662932299950625747e-05 -1.173512573586776853e-04 -8.866071584634482861e-05
1.802000000000000000e+03 4.592823410034179688e+01 2.877405357360839844e+01 5.729117989540100098e-01 4.601894855499267578e+00 1.552442073822021484e+00 2.758105397224426270e-01
1.803000000000000000e+03 4.586428833007812500e+01 3.066075706481933594e+01 3.774538040161132812e-01 4.410781383514404297e+00 1.436470627784729004e+00 2.994284629821777344e-01
1.804000000000000000e+03 5.256564140319824219e+00 -1.220479393005371094e+01 5.476322770118713379e-02 1.166627630591392517e-01 5.142779648303985596e-02 -3.323473930358886719e-01
1.805000000000000000e+03 6.245162487030029297e+00 -1.133854007720947266e+01 1.309911999851465225e-02 2.752095162868499756e-01 8.649259060621261597e-02 -2.870108783245086670e-01
1.806000000000000000e+03 3.928538131713867188e+01 -2.795452117919921875e+01 3.309011757373809814e-01 5.089037418365478516e+00 1.625981688499450684e+00 -2.749148309230804443e-01
1.807000000000000000e+03 6.645020294189453125e+01 -2.899348974227905273e+00 -1.214747548103332520e+00 2.591299295425415039e+00 4.129655361175537109e-01 -7.117274403572082520e-01
1.808000000000000000e+03 1.175896644592285156e+01 -1.307548618316650391e+01 6.132952570915222168e-01 4.686101675033569336e-01 3.245716392993927002e-01 1.977158486843109131e-01
1.809000000000000000e+03 1.084615898132324219e+01 -1.262745571136474609e+01 4.865930974483489990e-01 5.468205809593200684e-01 3.100240826606750488e-01 1.986598372459411621e-01
1.810000000000000000e+03 7.389231872558593750e+01 -2.420423126220703125e+01 -6.500123143196105957e-01 8.225401878356933594e+00 2.272616863250732422e+00 -5.684476494789123535e-01
1.811000000000000000e+03 7.267527008056640625e+01 -3.002780532836914062e+01 -7.146814465522766113e-01 6.902967929840087891e+00 1.856485962867736816e+00 -9.053431451320648193e-02
1.812000000000000000e+03 3.468022155761718750e+01 -3.518578338623046875e+01 -9.900758862495422363e-01 3.626612663269042969e+00 7.909610271453857422e-01 5.299270749092102051e-01
1.813000000000000000e+03 3.977188110351562500e+01 -1.718510246276855469e+01 2.611915767192840576e-01 9.198419570922851562e+00 2.837883234024047852e+00 1.309919655323028564e-01
1.814000000000000000e+03 4.492531585693359375e+01 3.619894027709960938e+01 -2.968751490116119385e-01 3.860221385955810547e+00 1.069003820419311523e+00 6.342551857233047485e-02
1.815000000000000000e+03 4.135151290893554688e+01 -2.501395034790039062e+01 3.958247900009155273e-01 4.681643486022949219e+00 1.523240447044372559e+00 -3.588005304336547852e-01
1.816000000000000000e+03 3.900674819946289062e+01 -2.544420051574707031e+01 7.770655751228332520e-01 5.948315143585205078e+00 2.017614126205444336e+00 3.386716544628143311e-01
1.817000000000000000e+03 6.690200805664062500e+00 -3.191447830200195312e+01 -3.674142062664031982e-01 -1.746832430362701416e-01 -1.626292318105697632e-01 1.326286792755126953e-01
1.818000000000000000e+03 5.867422580718994141e+00 -1.645092964172363281e+01 6.128184199333190918e-01 7.068967223167419434e-01 3.959145545959472656e-01 1.460490971803665161e-01
1.819000000000000000e+03 8.600214004516601562e+00 -3.668502807617187500e+01 -2.595556899905204773e-02 -1.774476170539855957e-01 -6.102095916867256165e-02 4.048291966319084167e-02
1.820000000000000000e+03 6.637718200683593750e+01 2.227808684110641479e-01 -1.267737030982971191e+00 2.971766948699951172e+00 5.112090110778808594e-01 -1.221166849136352539e+00
1.821000000000000000e+03 6.259743499755859375e+01 9.672783315181732178e-03 -2.139533996582031250e+00 7.989923357963562012e-01 -4.021625220775604248e-01 -5.633804202079772949e-01
1.822000000000000000e+03 3.814535140991210938e+01 -1.620261001586914062e+01 2.932283096015453339e-02 8.065629005432128906e+00 2.428485393524169922e+00 2.528129816055297852e-01
1.823000000000000000e+03 5.822117233276367188e+01 -4.121087265014648438e+01 4.700904488563537598e-01 -3.694442510604858398e-01 3.019385226070880890e-02 -1.140863895416259766e-01
1.824000000000000000e+03 7.186156463623046875e+01 -1.139149856567382812e+01 2.406554460525512695e+00 8.528766632080078125e+00 3.280596494674682617e+00 -5.369278907775878906e+00
1.825000000000000000e+03 6.971895599365234375e+01 -1.099597835540771484e+01 1.666380763053894043e+00 2.055305957794189453e+00 1.116506099700927734e+00 -1.884389758110046387e+00
1.826000000000000000e+03 7.184279632568359375e+01 -9.759396553039550781e+00 1.033071335405111313e-02 8.874006271362304688e+00 2.665301084518432617e+00 -3.303713083267211914e+00
1.827000000000000000e+03 7.088617706298828125e+01 -1.197330093383789062e+01 3.246272087097167969e+00 2.650485277175903320e+00 1.769027233123779297e+00 -2.898999691009521484e+00
1.828000000000000000e+03 7.240261077880859375e+01 -1.586463737487792969e+01 3.453973233699798584e-01 1.154127883911132812e+01 3.566002845764160156e+00 4.235496997833251953e+00
1.829000000000000000e+03 7.206204223632812500e+01 -1.569284820556640625e+01 1.232056140899658203e+00 9.214236259460449219e+00 3.133887767791748047e+00 4.567331314086914062e+00
1.830000000000000000e+03 7.115473175048828125e+01 -1.593645572662353516e+01 1.569154143333435059e+00 4.323069095611572266e+00 1.767667055130004883e+00 2.830310583114624023e+00
1.831000000000000000e+03 7.034179687500000000e+01 -1.629507637023925781e+01 1.085378527641296387e+00 2.613226890563964844e+00 1.109581589698791504e+00 1.707117557525634766e+00
1.832000000000000000e+03 7.373849487304687500e+01 -1.937653923034667969e+01 -1.743287920951843262e+00 1.051291751861572266e+01 2.630888938903808594e+00 -1.879403293132781982e-01
1.833000000000000000e+03 7.325011444091796875e+01 -1.626935768127441406e+01 -1.296377897262573242e+00 1.559192085266113281e+01 4.288662910461425781e+00 1.532863855361938477e+00
1.834000000000000000e+03 7.121302795410156250e+01 -1.655916595458984375e+01 5.033903717994689941e-01 5.874547958374023438e+00 1.913381457328796387e+00 2.763522386550903320e+00
1.835000000000000000e+03 7.459157562255859375e+01 -1.890396118164062500e+01 -1.802925109863281250e+00 1.138273334503173828e+01 2.873942375183105469e+00 -1.031886577606201172e+00
1.836000000000000000e+03 7.020546722412109375e+01 -1.108376216888427734e+01 2.002425909042358398e+00 2.747654438018798828e+00 1.425024032592773438e+00 -2.405949831008911133e+00
1.837000000000000000e+03 9.699689865112304688e+00 -5.032063961029052734e+00 -2.489051371812820435e-01 1.343351006507873535e-01 -3.437101095914840698e-02 -1.381431072950363159e-01
1.838000000000000000e+03 1.042822265625000000e+01 -5.058538913726806641e+00 -2.545495927333831787e-01 1.377358883619308472e-01 -3.504410758614540100e-02 -1.099014580249786377e-01
1.839000000000000000e+03 7.336925506591796875e+01 -1.058768653869628906e+01 -6.666659712791442871e-01 1.442445373535156250e+01 4.127336502075195312e+00 -2.009254455566406250e+00
1.840000000000000000e+03 6.946927642822265625e+01 -1.011794090270996094e+01 1.070222854614257812e+00 2.708469152450561523e+00 1.133607625961303711e+00 -2.011465549468994141e+00
1.841000000000000000e+03 7.088510894775390625e+01 -1.829836463928222656e+01 -3.851799070835113525e-01 5.807598590850830078e+00 1.626725673675537109e+00 1.840884208679199219e+00
1.842000000000000000e+03 7.374377441406250000e+01 -1.031347751617431641e+01 -1.080263376235961914e+00 1.433734130859375000e+01 3.977123498916625977e+00 -1.129192471504211426e+00
1.843000000000000000e+03 7.356526184082031250e+01 -1.106987762451171875e+01 -4.802288413047790527e-01 1.623323440551757812e+01 4.725902080535888672e+00 -1.834352612495422363e+00
1.844000000000000000e+03 7.507720184326171875e+01 -1.741075897216796875e+01 -1.467403769493103027e+00 1.303367424011230469e+01 3.469881057739257812e+00 -2.096950531005859375e+00
1.845000000000000000e+03 7.376967620849609375e+01 -1.697178840637207031e+01 -1.715996146202087402e+00 1.409648990631103516e+01 3.714148283004760742e+00 2.816844545304775238e-02
1.846000000000000000e+03 1.474933147430419922e+01 3.001170635223388672e+00 1.566507489769719541e-05 -3.258861761423759162e-05 -5.077062724012648687e-06 7.417530923703452572e-06
1.847000000000000000e+03 1.604756736755371094e+01 3.376669406890869141e+00 -6.263535760808736086e-05 -7.122514944057911634e-05 -4.015815284219570458e-05 -8.002905815374106169e-06
1.848000000000000000e+03 1.643752670288085938e+01 5.358334541320800781e+00 -6.916276470292359591e-05 -4.642253770725801587e-05 -3.467559145065024495e-05 -6.591264536837115884e-05
1.849000000000000000e+03 1.409236526489257812e+01 5.203815937042236328e+00 1.542866630188655108e-05 3.938351437682285905e-05 1.644365329411812127e-05 1.943750066857319325e-05
1.850000000000000000e+03 6.196926116943359375e+00 4.797617435455322266e+00 -5.317367322277277708e-05 -8.023898772080428898e-06 -1.835927105275914073e-05 -9.467326162848621607e-05
1.851000000000000000e+03 5.089407444000244141e+00 4.137325286865234375e+00 9.060160664375871420e-05 1.466359776713943575e-06 2.762039002845995128e-05 2.939899241027887911e-05
1.852000000000000000e+03 4.373289108276367188e+00 4.144023895263671875e+00 -6.520107854157686234e-05 -8.452165275230072439e-06 -2.209597187174949795e-05 2.673482777026947588e-05
1.853000000000000000e+03 4.650961399078369141e+00 7.041162014007568359e+00 1.468374248361214995e-04 2.480829243722837418e-05 5.149371645529754460e-05 5.272160706226713955e-05
1.854000000000000000e+03 3.656301736831665039e+00 4.078834533691406250e+00 1.162262342404574156e-04 1.859181065810844302e-05 4.044541128678247333e-05 3.390335405129007995e-05
1.855000000000000000e+03 1.324999046325683594e+01 4.785512447357177734e+00 -6.299490632954984903e-05 -4.559806257020682096e-05 -3.257788921473547816e-05 -1.260657313650881406e-06
1.856000000000000000e+03 7.523552703857421875e+01 -1.143088340759277344e+01 1.648644328117370605e+00 1.412366199493408203e+01 4.731691837310791016e+00 2.621160507202148438e+00
1.857000000000000000e+03 1.341526699066162109e+01 -5.370360851287841797e+00 -2.286022752523422241e-01 9.178815037012100220e-02 -4.104423895478248596e-02 -5.253518931567668915e-03
1.858000000000000000e+03 7.384653568267822266e+00 4.196147918701171875e+00 -8.192302630050107837e-05 3.320968971820548177e-06 -2.358061647100839764e-05 1.929549944179598242e-05
1.859000000000000000e+03 5.572764873504638672e+00 5.428735256195068359e+00 1.004068471956998110e-04 5.305594186211237684e-06 3.171373464283533394e-05 8.341576904058456421e-05
1.860000000000000000e+03 9.048429489135742188e+00 4.062001228332519531e+00 -6.532392580993473530e-05 -2.113057598762679845e-05 -2.593635144876316190e-05 5.950812010269146413e-06
1.861000000000000000e+03 7.027731418609619141e+00 6.375160694122314453e+00 1.712933444650843740e-04 -2.759361268545035273e-05 4.310991789679974318e-05 -1.179480204882565886e-05
1.862000000000000000e+03 6.567350864410400391e+00 4.144960403442382812e+00 8.526928286300972104e-05 5.067091933597112074e-06 2.710091212065890431e-05 2.949334157165139914e-05
1.863000000000000000e+03 1.115939140319824219e+01 -5.117765426635742188e+00 -2.533731460571289062e-01 1.284804940223693848e-01 -3.746779635548591614e-02 -8.687467128038406372e-02
1.864000000000000000e+03 1.190148067474365234e+01 -5.195630073547363281e+00 -2.503076493740081787e-01 1.247401908040046692e-01 -3.767024353146553040e-02 -5.641677603125572205e-02
1.865000000000000000e+03 1.066290950775146484e+01 4.049852848052978516e+00 -7.393692794721573591e-05 -2.656815922819077969e-05 -3.015152651641983539e-05 5.030514330428559333e-06
1.866000000000000000e+03 8.336587905883789062e+00 4.812901973724365234e+00 -6.504907651105895638e-05 -1.210271784657379612e-05 -2.314553785254247487e-05 3.273567563155665994e-05
1.867000000000000000e+03 1.239568138122558594e+01 4.809989929199218750e+00 4.063549567945301533e-05 6.505581404780969024e-05 3.170739364577457309e-05 -5.171483280719257891e-05
1.868000000000000000e+03 8.059810638427734375e+00 -4.366094589233398438e+00 -2.480175942182540894e-01 9.673056006431579590e-02 -4.538610950112342834e-02 -1.821205317974090576e-01
1.869000000000000000e+03 7.363575935363769531e+00 -7.108490943908691406e+00 -1.474501639604568481e-01 1.578681319952011108e-01 3.125386778265237808e-03 -2.522332370281219482e-01
1.870000000000000000e+03 2.080151748657226562e+01 -5.741590499877929688e+00 -9.251946210861206055e-02 -1.425778865814208984e-01 -7.052920758724212646e-02 -3.174489364027976990e-02
1.871000000000000000e+03 1.659746170043945312e+01 -5.660785675048828125e+00 -1.579724699258804321e-01 -1.605259254574775696e-02 -5.220751836895942688e-02 5.661822855472564697e-02
1.872000000000000000e+03 7.540583801269531250e+01 -1.676568794250488281e+01 -8.467101454734802246e-01 1.358830642700195312e+01 3.822479009628295898e+00 -2.953318119049072266e+00
1.873000000000000000e+03 7.505263519287109375e+01 -1.621082496643066406e+01 -5.214994028210639954e-02 1.500256824493408203e+01 4.485125541687011719e+00 -3.190405845642089844e+00
1.874000000000000000e+03 1.265468597412109375e+01 -5.283026218414306641e+00 -2.377457469701766968e-01 1.044844835996627808e-01 -3.997837752103805542e-02 -3.263471648097038269e-02
1.875000000000000000e+03 6.873223114013671875e+01 -7.803248405456542969e+00 1.551561802625656128e-01 3.023596525192260742e+00 9.536257982254028320e-01 -1.548786878585815430e+00
1.876000000000000000e+03 5.712616443634033203e+00 -5.745046138763427734e+00 -1.482968777418136597e-01 2.147891558706760406e-02 -3.804538771510124207e-02 -2.726438045501708984e-01
1.877000000000000000e+03 6.608606338500976562e+00 -5.505254745483398438e+00 -1.745567023754119873e-01 6.602493673563003540e-02 -3.255952894687652588e-02 -2.548799812793731689e-01
1.878000000000000000e+03 6.914468765258789062e+00 -6.352224349975585938e+00 -1.688096821308135986e-01 1.175189465284347534e-01 -1.538722217082977295e-02 -2.623016238212585449e-01
1.879000000000000000e+03 1.577769947052001953e+01 -5.603548526763916016e+00 -1.719669997692108154e-01 7.697852328419685364e-03 -4.928074404597282410e-02 4.814532771706581116e-02
1.880000000000000000e+03 8.208480834960937500e+00 -5.137792587280273438e+00 -2.213071733713150024e-01 1.182592213153839111e-01 -3.091438859701156616e-02 -1.954399496316909790e-01
1.881000000000000000e+03 9.812499046325683594e+00 5.507894515991210938e+00 8.822675590636208653e-05 3.056788773392327130e-05 3.563839345588348806e-05 1.591699037817306817e-05
1.882000000000000000e+03 1.900775909423828125e+01 -4.983158111572265625e+00 -2.118193656206130981e-01 -7.491263747215270996e-02 -8.601960539817810059e-02 2.772888541221618652e-02
1.883000000000000000e+03 1.418451213836669922e+01 -5.454655647277832031e+00 -2.085642963647842407e-01 6.228663399815559387e-02 -4.388329759240150452e-02 1.546895410865545273e-02
1.884000000000000000e+03 1.497170734405517578e+01 -5.534293651580810547e+00 -1.951767206192016602e-01 4.225275292992591858e-02 -4.587719216942787170e-02 3.510364517569541931e-02
1.885000000000000000e+03 1.910952377319335938e+01 -5.742250919342041016e+00 -1.076401695609092712e-01 -1.023790016770362854e-01 -6.300575286149978638e-02 3.195068985223770142e-02
1.886000000000000000e+03 2.243502998352050781e+01 -5.761065483093261719e+00 -8.442445099353790283e-02 -1.878276616334915161e-01 -8.167563378810882568e-02 -1.415006518363952637e-01
1.887000000000000000e+03 7.576665496826171875e+01 -1.125561428070068359e+01 1.312257170677185059e+00 1.247237682342529297e+01 4.135390281677246094e+00 2.537374496459960938e+00
1.888000000000000000e+03 7.494679260253906250e+01 -1.088019752502441406e+01 3.012658059597015381e-01 1.458116912841796875e+01 4.464730262756347656e+00 1.983876228332519531e+00
1.889000000000000000e+03 1.151693534851074219e+01 4.899904727935791016e+00 -9.671642328612506390e-05 -2.100232268276158720e-05 -3.531562470016069710e-05 2.600990774226374924e-05
1.890000000000000000e+03 9.101026535034179688e+00 4.765901565551757812e+00 7.016232848400250077e-05 2.550715908000711352e-05 2.870084608730394393e-05 -9.631891771277878433e-06
1.891000000000000000e+03 6.940408325195312500e+01 -1.076270484924316406e+01 1.369872689247131348e+00 1.952761173248291016e+00 9.967901706695556641e-01 -1.727688908576965332e+00
1.892000000000000000e+03 6.990081787109375000e+01 -1.127114963531494141e+01 1.904648780822753906e+00 2.037931919097900391e+00 1.182774186134338379e+00 -1.865833044052124023e+00
1.893000000000000000e+03 1.826603317260742188e+01 -5.729499340057373047e+00 -1.260950714349746704e-01 -7.165833562612533569e-02 -5.932602286338806152e-02 4.887051880359649658e-02
1.894000000000000000e+03 2.271936416625976562e+01 -1.385357761383056641e+01 5.315939188003540039e-01 -2.784617245197296143e-01 7.593966275453567505e-02 3.180209100246429443e-01
1.895000000000000000e+03 3.200138473510742188e+01 -1.541239356994628906e+01 3.487792313098907471e-01 3.924652338027954102e-01 2.223733365535736084e-01 4.694978296756744385e-01
1.896000000000000000e+03 3.231571960449218750e+01 -1.346760368347167969e+01 1.365800261497497559e+00 9.435235261917114258e-01 6.927971243858337402e-01 4.287457466125488281e-01
1.897000000000000000e+03 2.493723678588867188e+01 -5.087728500366210938e+00 -1.991364359855651855e-01 -2.754681408405303955e-01 -1.423813700675964355e-01 -4.107830226421356201e-01
1.898000000000000000e+03 2.236805152893066406e+01 -4.908946514129638672e+00 -2.415100932121276855e-01 -1.073884144425392151e-01 -1.046695485711097717e-01 -1.263221353292465210e-01
1.899000000000000000e+03 7.437090301513671875e+01 -1.952452850341796875e+01 -1.722152590751647949e+00 1.084576225280761719e+01 2.737082958221435547e+00 -7.982028722763061523e-01
1.900000000000000000e+03 7.175733184814453125e+01 -1.743450736999511719e+01 -5.094747543334960938e-01 8.129195213317871094e+00 2.285916090011596680e+00 2.490742921829223633e+00
1.901000000000000000e+03 2.162556266784667969e+01 -5.746495723724365234e+00 -9.429095685482025146e-02 -1.536514759063720703e-01 -7.438272982835769653e-02 -7.861125469207763672e-02
1.902000000000000000e+03 2.085999870300292969e+01 -6.561513900756835938e+00 2.466368675231933594e-02 -1.783840358257293701e-01 -4.611610621213912964e-02 -2.004430443048477173e-02
1.903000000000000000e+03 1.651428604125976562e+01 -1.348540115356445312e+01 6.984158754348754883e-01 -3.556865453720092773e-02 1.988541781902313232e-01 1.666685789823532104e-01
1.904000000000000000e+03 3.774946975708007812e+01 -1.510701274871826172e+01 4.120779335498809814e-01 7.620082378387451172e+00 2.409648180007934570e+00 1.165799517184495926e-02
1.905000000000000000e+03 6.908290100097656250e+01 -6.150707721710205078e+00 -3.904446959495544434e-01 4.120676040649414062e+00 1.119069457054138184e+00 -1.444808363914489746e+00
1.906000000000000000e+03 7.367507171630859375e+01 -4.305555343627929688e+00 -1.188512086868286133e+00 8.046060562133789062e+00 2.057264566421508789e+00 -4.032714366912841797e-01
1.907000000000000000e+03 4.678997421264648438e+01 5.362902641296386719e+00 -3.605870902538299561e-01 1.561847686767578125e+00 3.603781759738922119e-01 1.514746785163879395e+00
1.908000000000000000e+03 4.810999679565429688e+01 4.200815200805664062e+00 -1.692293763160705566e+00 -1.693324297666549683e-01 -5.584878325462341309e-01 5.871440172195434570e-01
1.909000000000000000e+03 4.515514373779296875e+01 7.595270633697509766e+00 1.409157633781433105e+00 4.370676040649414062e+00 1.733950018882751465e+00 2.561275482177734375e+00
1.910000000000000000e+03 4.825104141235351562e+01 -3.041427612304687500e+01 -8.136427402496337891e-02 1.345450639724731445e+00 3.792259097099304199e-01 -6.062561869621276855e-01
1.911000000000000000e+03 4.557359313964843750e+01 3.935887575149536133e+00 -2.047832489013671875e+00 2.179358959197998047e+00 3.945792838931083679e-02 2.156615257263183594e+00
1.912000000000000000e+03 3.979372024536132812e+01 -2.164069557189941406e+01 -1.078552659600973129e-02 6.904930591583251953e+00 2.068243503570556641e+00 7.990341782569885254e-01
1.913000000000000000e+03 4.023525238037109375e+01 -2.312549352645874023e+00 -4.038385450839996338e-01 1.024694824218750000e+01 2.952933073043823242e+00 9.664105772972106934e-01
1.914000000000000000e+03 3.925307464599609375e+01 -9.725331068038940430e-01 -1.727471113204956055e+00 9.271512031555175781e+00 2.263212203979492188e+00 6.246395707130432129e-01
1.915000000000000000e+03 5.567034149169921875e+01 2.987760782241821289e+00 -2.609112739562988281e+00 2.014928013086318970e-01 -7.222859859466552734e-01 -9.545411169528961182e-02
1.916000000000000000e+03 2.546399116516113281e+00 5.699698448181152344e+00 1.093660102924332023e-04 3.589047992136329412e-05 4.357694706413894892e-05 7.151193858589977026e-05
1.917000000000000000e+03 1.321188449859619141e+01 -1.325709342956542969e+01 7.540929317474365234e-01 2.897339761257171631e-01 3.131480515003204346e-01 2.213104963302612305e-01
1.918000000000000000e+03 1.698867416381835938e+01 4.452643871307373047e+00 6.474206747952848673e-05 5.922918353462591767e-05 3.719137748703360558e-05 7.801825995557010174e-05
1.919000000000000000e+03 7.606758880615234375e+01 -2.433395004272460938e+01 -4.390223324298858643e-01 9.814513206481933594e+00 2.812647104263305664e+00 -8.084001541137695312e-01
1.920000000000000000e+03 7.183689880371093750e+01 -2.417456054687500000e+01 -4.392627775669097900e-01 6.301094532012939453e+00 1.758549571037292480e+00 -2.570887207984924316e-01
1.921000000000000000e+03 1.352929496765136719e+01 1.186696243286132812e+01 1.484293461544439197e-04 6.109995592851191759e-05 6.285878771450370550e-05 7.599349191877990961e-05
1.922000000000000000e+03 1.310722351074218750e+01 1.309112358093261719e+01 -1.349465019302442670e-04 -5.992878868710249662e-05 -5.846258864039555192e-05 -1.097346321330405772e-04
1.923000000000000000e+03 1.738832855224609375e+01 -1.275316333770751953e+01 6.082780361175537109e-01 -8.918494731187820435e-02 1.557279378175735474e-01 1.910432875156402588e-01
1.924000000000000000e+03 6.869657135009765625e+01 -3.729961395263671875e+00 -8.844037055969238281e-01 4.064046382904052734e+00 9.538928270339965820e-01 -1.070161223411560059e+00
1.925000000000000000e+03 7.371475982666015625e+01 2.773559570312500000e+01 1.569472849369049072e-01 4.373077392578125000e+00 1.359007477760314941e+00 -3.262898325920104980e-01
1.926000000000000000e+03 7.431905364990234375e+01 -3.107714653015136719e+01 -4.482983946800231934e-01 8.279050827026367188e+00 2.349225521087646484e+00 -2.040646225214004517e-02
1.927000000000000000e+03 7.554812622070312500e+01 -7.347600460052490234e+00 -1.391507625579833984e+00 1.015700531005859375e+01 2.629649162292480469e+00 1.116642713546752930e+00
1.928000000000000000e+03 4.150516510009765625e+01 -2.752682495117187500e+01 2.166332453489303589e-01 4.169558525085449219e+00 1.315857529640197754e+00 -5.668523907661437988e-01
1.929000000000000000e+03 4.520513916015625000e+01 -2.894369125366210938e+01 -2.707473700866103172e-03 2.386800289154052734e+00 7.152278423309326172e-01 -7.912091016769409180e-01
1.930000000000000000e+03 7.455142211914062500e+01 -9.250488281250000000e+00 -1.562848925590515137e+00 1.237377071380615234e+01 3.243276596069335938e+00 5.076456665992736816e-01
1.931000000000000000e+03 7.653025817871093750e+01 -2.161203575134277344e+01 -7.907059192657470703e-01 1.016132450103759766e+01 2.811185598373413086e+00 -1.392021894454956055e+00
1.932000000000000000e+03 7.397888183593750000e+01 -2.318319320678710938e+01 -7.399185895919799805e-01 8.492163658142089844e+00 2.325673580169677734e+00 -5.808198451995849609e-01
1.933000000000000000e+03 7.590137481689453125e+01 -1.988160133361816406e+01 -1.288657069206237793e+00 1.062335109710693359e+01 2.800408124923706055e+00 -1.794804811477661133e+00
1.934000000000000000e+03 7.432985687255859375e+01 -2.237974357604980469e+01 -9.924275875091552734e-01 9.070662498474121094e+00 2.423470497131347656e+00 -6.930038332939147949e-01
1.935000000000000000e+03 7.414466857910156250e+01 2.161514472961425781e+01 1.869110018014907837e-01 4.721224308013916016e+00 1.472440600395202637e+00 -6.166366338729858398e-01
1.936000000000000000e+03 7.525468444824218750e+01 2.308614921569824219e+01 1.233603358268737793e-01 4.722422599792480469e+00 1.453734993934631348e+00 -4.629933238029479980e-01
1.937000000000000000e+03 6.699633026123046875e+01 -1.576479196548461914e+00 -1.254780173301696777e+00 3.173063039779663086e+00 5.754848122596740723e-01 -9.993093013763427734e-01
1.938000000000000000e+03 7.463717651367187500e+01 1.017712712287902832e+00 -4.332968294620513916e-01 7.288932800292968750e+00 2.056690931320190430e+00 -7.200039625167846680e-01
1.939000000000000000e+03 7.574269104003906250e+01 2.197978973388671875e+00 -2.613992393016815186e-01 7.652681350708007812e+00 2.217384576797485352e+00 -6.849077939987182617e-01
1.940000000000000000e+03 7.462977600097656250e+01 -2.974227964878082275e-01 -5.563428401947021484e-01 7.531952857971191406e+00 2.092683076858520508e+00 -5.568260550498962402e-01
1.941000000000000000e+03 7.530290985107421875e+01 1.211830902099609375e+01 8.703092485666275024e-02 5.936866760253906250e+00 1.807169318199157715e+00 -9.684335589408874512e-01
1.942000000000000000e+03 7.390981292724609375e+01 1.516192340850830078e+01 1.930601596832275391e-01 5.172245025634765625e+00 1.609591603279113770e+00 -1.007555365562438965e+00
1.943000000000000000e+03 7.529894256591796875e+01 1.643212127685546875e+01 1.277324408292770386e-01 5.363156795501708984e+00 1.647266864776611328e+00 -7.937026023864746094e-01
1.944000000000000000e+03 7.435768890380859375e+01 7.923894405364990234e+00 -3.528720512986183167e-02 6.216256618499755859e+00 1.854290843009948730e+00 -1.159890174865722656e+00
1.945000000000000000e+03 7.684354400634765625e+01 -1.828523445129394531e+01 -8.694208860397338867e-01 1.023356056213378906e+01 2.809241771697998047e+00 -2.740144014358520508e+00
1.946000000000000000e+03 7.630641174316406250e+01 -1.817416000366210938e+01 -1.103812932968139648e+00 1.114919757843017578e+01 3.013615369796752930e+00 -2.722115278244018555e+00
1.947000000000000000e+03 7.346404266357421875e+01 2.572926712036132812e+01 1.902410537004470825e-01 4.430637359619140625e+00 1.386263489723205566e+00 -4.292922616004943848e-01
1.948000000000000000e+03 7.509001159667968750e+01 2.462117004394531250e+01 1.190967559814453125e-01 4.601759910583496094e+00 1.416256904602050781e+00 -4.120100140571594238e-01
1.949000000000000000e+03 7.413625335693359375e+01 1.067407608032226562e+01 7.659083604812622070e-02 5.766048431396484375e+00 1.752791762351989746e+00 -1.170816898345947266e+00
1.950000000000000000e+03 7.309104919433593750e+01 3.593723773956298828e+00 -3.827798962593078613e-01 6.237793445587158203e+00 1.756504058837890625e+00 -1.166691899299621582e+00
1.951000000000000000e+03 7.405223083496093750e+01 1.817163276672363281e+01 1.978878676891326904e-01 4.947422504425048828e+00 1.543593168258666992e+00 -8.307875990867614746e-01
1.952000000000000000e+03 7.522512054443359375e+01 -1.931689453125000000e+01 -1.632313370704650879e+00 1.114295482635498047e+01 2.853192329406738281e+00 -1.532790541648864746e+00
1.953000000000000000e+03 4.274412918090820312e+01 -2.590624046325683594e+01 3.029153943061828613e-01 3.776150703430175781e+00 1.223719835281372070e+00 -6.990125179290771484e-01
1.954000000000000000e+03 7.436764526367187500e+01 6.609989643096923828e+00 -9.762574732303619385e-02 6.403902053833007812e+00 1.891882896423339844e+00 -1.138661026954650879e+00
1.955000000000000000e+03 7.310563659667968750e+01 -2.650457191467285156e+01 -4.786123037338256836e-01 7.418556690216064453e+00 2.081983327865600586e+00 -5.100872516632080078e-01
1.956000000000000000e+03 6.813449859619140625e+01 -2.052691221237182617e+00 -1.111417770385742188e+00 3.872427940368652344e+00 8.283030986785888672e-01 -1.076143860816955566e+00
1.957000000000000000e+03 7.533943176269531250e+01 -5.986333847045898438e+00 -1.269530892372131348e+00 9.399216651916503906e+00 2.438905715942382812e+00 6.246305108070373535e-01
1.958000000000000000e+03 7.497067260742187500e+01 3.217036819458007812e+01 6.917952001094818115e-02 4.302552700042724609e+00 1.311519622802734375e+00 -1.445131599903106689e-01
1.959000000000000000e+03 7.198074340820312500e+01 -2.275658607482910156e+01 -5.897361636161804199e-01 6.954272747039794922e+00 1.909361004829406738e+00 1.660055108368396759e-02
1.960000000000000000e+03 7.144419097900390625e+01 -2.005464935302734375e+01 -8.145903944969177246e-01 6.881744861602783203e+00 1.820146441459655762e+00 1.025446295738220215e+00
1.961000000000000000e+03 7.361209869384765625e+01 -2.749791526794433594e+01 -6.071230173110961914e-01 7.700187206268310547e+00 2.127919197082519531e+00 -4.508761167526245117e-01
1.962000000000000000e+03 7.581855773925781250e+01 -9.362488746643066406e+00 -1.006945133209228516e+00 1.123542499542236328e+01 3.068543910980224609e+00 2.037892103195190430e+00
1.963000000000000000e+03 7.500759887695312500e+01 -7.692404270172119141e+00 -1.567685365676879883e+00 1.063058757781982422e+01 2.718870639801025391e+00 6.761450171470642090e-01
1.964000000000000000e+03 7.534235382080078125e+01 -2.057597160339355469e+01 -1.284979701042175293e+00 1.034511947631835938e+01 2.718041896820068359e+00 -1.344291210174560547e+00
1.965000000000000000e+03 7.281832885742187500e+01 1.450160503387451172e+01 2.358155548572540283e-01 4.994228839874267578e+00 1.569013357162475586e+00 -1.148880243301391602e+00
1.966000000000000000e+03 7.439435577392578125e+01 2.039151763916015625e+01 1.811834424734115601e-01 4.810367107391357422e+00 1.497465133666992188e+00 -6.597195863723754883e-01
1.967000000000000000e+03 7.292505645751953125e+01 -3.182305335998535156e+01 -5.918816924095153809e-01 7.068698883056640625e+00 1.943045139312744141e+00 1.352680027484893799e-01
1.968000000000000000e+03 7.420302581787109375e+01 3.001531791687011719e+01 1.121872663497924805e-01 4.334603309631347656e+00 1.334037184715270996e+00 -2.266699224710464478e-01
1.969000000000000000e+03 4.661569595336914062e+01 2.399812507629394531e+01 6.898939013481140137e-01 5.027685642242431641e+00 1.715273976325988770e+00 6.452564001083374023e-01
1.970000000000000000e+03 7.878598213195800781e+00 2.971261787414550781e+01 -1.873774453997612000e-04 2.374861105636227876e-05 -4.908865230390802026e-05 6.127764208940789104e-05
1.971000000000000000e+03 4.361589431762695312e+00 2.653719520568847656e+01 -2.691032423172146082e-04 -6.368854883476160467e-06 -8.264162897830829024e-05 -7.815263234078884125e-05
1.972000000000000000e+03 1.802049446105957031e+01 -1.356440258026123047e+01 6.346533894538879395e-01 -1.323441714048385620e-01 1.506927609443664551e-01 1.614274382591247559e-01
1.973000000000000000e+03 1.927928352355957031e+01 -1.237061500549316406e+01 5.595758557319641113e-01 -1.992710381746292114e-01 1.080914437770843506e-01 1.922721415758132935e-01
1.974000000000000000e+03 7.375774383544921875e+01 -2.657778978347778320e+00 -9.257699251174926758e-01 7.621368885040283203e+00 2.008679628372192383e+00 -4.541240036487579346e-01
1.975000000000000000e+03 7.462294006347656250e+01 -3.730721712112426758e+00 -9.860621094703674316e-01 8.304567337036132812e+00 2.195551633834838867e+00 -1.001562923192977905e-01
1.976000000000000000e+03 7.439566802978515625e+01 -2.822282218933105469e+01 -4.956203699111938477e-01 8.459847450256347656e+00 2.389268159866333008e+00 -3.655283451080322266e-01
1.977000000000000000e+03 4.872546768188476562e+01 1.943251228332519531e+01 1.297202706336975098e+00 4.413010597229003906e+00 1.713063955307006836e+00 1.264927268028259277e+00
1.978000000000000000e+03 5.571352005004882812e+00 -1.043219757080078125e+01 -2.480723708868026733e-02 1.201061233878135681e-01 2.858966588973999023e-02 -3.380584120750427246e-01
1.979000000000000000e+03 4.317956447601318359e+00 2.253836059570312500e+01 2.481968258507549763e-04 4.233806976117193699e-05 8.716047159396111965e-05 4.263640948920510709e-05
1.980000000000000000e+03 9.247199058532714844e+00 2.487305831909179688e+01 -1.207267268910072744e-04 -1.522454258520156145e-04 -8.189164509531110525e-05 -8.620626613264903426e-05
1.981000000000000000e+03 1.180385112762451172e+01 2.549229621887207031e+01 -3.859216230921447277e-04 -4.659742990043014288e-05 -1.297557173529639840e-04 -1.617496745893731713e-04
1.982000000000000000e+03 2.677727890014648438e+01 -4.212939262390136719e+00 -5.735763311386108398e-01 -3.613906204700469971e-01 -2.804901003837585449e-01 -5.972077250480651855e-01
1.983000000000000000e+03 2.800846099853515625e+01 -5.484753131866455078e+00 1.344397813081741333e-01 -6.304739117622375488e-01 -1.488102376461029053e-01 -6.519145369529724121e-01
1.984000000000000000e+03 3.799837875366210938e+01 -1.165408134460449219e+01 1.209335327148437500e+00 8.471030235290527344e+00 2.904109716415405273e+00 1.904017776250839233e-01
1.985000000000000000e+03 4.683177947998046875e+01 2.209168624877929688e+01 7.524199485778808594e-01 5.167840957641601562e+00 1.776078224182128906e+00 9.032432436943054199e-01
1.986000000000000000e+03 4.746401214599609375e+01 2.005585670471191406e+01 1.042789578437805176e+00 4.955049991607666016e+00 1.799351811408996582e+00 1.230359315872192383e+00
1.987000000000000000e+03 4.925460815429687500e+00 -1.607650375366210938e+01 4.361523389816284180e-01 3.104393780231475830e-01 2.239775210618972778e-01 -3.579750284552574158e-02
1.988000000000000000e+03 1.184687519073486328e+01 1.544593429565429688e+01 -4.956213160767219961e-05 -2.525104355299845338e-05 -2.244395182060543448e-05 -1.245016464963555336e-04
1.989000000000000000e+03 6.783867359161376953e+00 1.591272068023681641e+01 -2.626198693178594112e-04 3.732668119482696056e-05 -6.758795643690973520e-05 -4.829360477742739022e-05
1.990000000000000000e+03 4.345162391662597656e+00 1.979500198364257812e+01 2.128843334503471851e-04 3.640628710854798555e-05 7.478718180209398270e-05 5.493001299328170717e-05
1.991000000000000000e+03 4.219901561737060547e+00 1.429032611846923828e+01 1.913101004902273417e-04 7.989873665792401880e-06 5.978999251965433359e-05 4.752782479044981301e-05
1.992000000000000000e+03 5.660474300384521484e+00 2.785170364379882812e+01 -2.933645737357437611e-04 -3.335283054184401408e-06 -8.900996181182563305e-05 -1.374567800667136908e-04
1.993000000000000000e+03 6.575294494628906250e+00 -1.406455898284912109e+01 3.155668079853057861e-01 5.864312648773193359e-01 2.705994248390197754e-01 -1.180065646767616272e-01
1.994000000000000000e+03 5.845313072204589844e+00 3.012307739257812500e+01 -1.835831935750320554e-04 -1.697525294730439782e-05 -6.016753468429669738e-05 -4.171061154920607805e-04
1.995000000000000000e+03 2.993831253051757812e+01 -1.505088233947753906e+01 2.968972325325012207e-01 -2.955660820007324219e-01 3.993478021584451199e-04 9.956499338150024414e-01
1.996000000000000000e+03 5.545042037963867188e+00 1.582604885101318359e+01 2.133519155904650688e-04 2.945446112789795734e-06 6.488920917036011815e-05 6.270952872000634670e-05
1.997000000000000000e+03 5.338792800903320312e+00 1.313299179077148438e+01 2.019358653342351317e-04 2.734479267019196413e-06 6.140110053820535541e-05 3.154491059831343591e-05
1.998000000000000000e+03 5.640659809112548828e+00 1.721506118774414062e+01 -2.055360819213092327e-04 -1.937241358973551542e-05 -6.747254519723355770e-05 -6.602526264032348990e-05
1.999000000000000000e+03 5.619297027587890625e+00 2.000821685791015625e+01 -2.018644445342943072e-04 -3.510565147735178471e-05 -7.109103171387687325e-05 -6.499356095446273685e-05
2.000000000000000000e+03 3.558734893798828125e+01 -1.530390930175781250e+01 2.151567339897155762e-01 4.807325363159179688e+00 1.506744742393493652e+00 -1.555272787809371948e-01
2.001000000000000000e+03 4.186332702636718750e+00 9.159560203552246094e+00 1.529148576082661748e-04 2.931685594376176596e-05 5.466951552079990506e-05 4.295895996619947255e-05
2.002000000000000000e+03 5.279158592224121094e+00 9.522526741027832031e+00 -1.679234992479905486e-04 -2.968160879390779883e-05 -5.928153404965996742e-05 -3.129053948214277625e-05
2.003000000000000000e+03 5.551620483398437500e+00 -1.387480258941650391e+01 2.232882678508758545e-01 3.271439373493194580e-01 1.651296615600585938e-01 -2.141578644514083862e-01
2.004000000000000000e+03 6.221911907196044922e+00 -1.303257751464843750e+01 1.877407878637313843e-01 4.365422725677490234e-01 1.872849166393280029e-01 -2.090906798839569092e-01
2.005000000000000000e+03 5.381765365600585938e+00 8.475329399108886719e+00 1.587018050486221910e-04 3.280600867583416402e-05 5.745234375353902578e-05 3.597677641664631665e-05
2.006000000000000000e+03 3.791251420974731445e+00 -7.257390975952148438e+00 -7.430703192949295044e-02 -1.555215716361999512e-01 -6.894858181476593018e-02 -3.078056871891021729e-01
2.007000000000000000e+03 4.922184467315673828e+00 -7.077807903289794922e+00 -1.046192869544029236e-01 -2.710755728185176849e-02 -3.951805457472801208e-02 -3.118337988853454590e-01
2.008000000000000000e+03 6.175492286682128906e+00 3.539662170410156250e+01 2.305140515090897679e-04 3.204967360943555832e-04 1.653032377362251282e-04 -8.454483031528070569e-05
2.009000000000000000e+03 5.022034168243408203e+00 -8.241067886352539062e+00 -9.149692207574844360e-02 -2.298606745898723602e-02 -3.434489667415618896e-02 -3.465515077114105225e-01
2.010000000000000000e+03 5.979508399963378906e+00 -8.265610694885253906e+00 -1.028726547956466675e-01 1.016977503895759583e-01 -3.524710191413760185e-04 -3.148289024829864502e-01
2.011000000000000000e+03 5.455571746826171875e+01 3.466810941696166992e+00 -2.505470991134643555e+00 2.436070740222930908e-01 -6.785591840744018555e-01 -1.441021859645843506e-01
2.012000000000000000e+03 5.426140975952148438e+01 5.165091514587402344e+00 -1.328148603439331055e+00 3.403150439262390137e-01 -2.963500618934631348e-01 -3.449277579784393311e-01
2.013000000000000000e+03 1.294942378997802734e+01 7.783194065093994141e+00 1.399812899762764573e-04 -1.720801265037152916e-05 3.683198156068101525e-05 -3.983732676715590060e-05
2.014000000000000000e+03 4.078977584838867188e+01 -2.096810722351074219e+01 -1.437562406063079834e-01 6.955646038055419922e+00 2.043566942214965820e+00 2.854334115982055664e-01
2.015000000000000000e+03 4.088446807861328125e+01 -2.419338607788085938e+01 3.710195720195770264e-01 5.324419498443603516e+00 1.708631753921508789e+00 -7.113874703645706177e-02
2.016000000000000000e+03 4.538512802124023438e+01 1.060969734191894531e+01 2.054395437240600586e+00 5.193111896514892578e+00 2.174252271652221680e+00 2.673935651779174805e+00
2.017000000000000000e+03 4.561082839965820312e+01 1.206256103515625000e+01 1.991780519485473633e+00 5.345408916473388672e+00 2.201156854629516602e+00 2.495093345642089844e+00
2.018000000000000000e+03 7.056035041809082031e+00 -1.055236816406250000e+01 6.223004776984453201e-03 3.299756348133087158e-01 1.008595898747444153e-01 -2.435721158981323242e-01
2.019000000000000000e+03 9.364046096801757812e+00 -1.334323406219482422e+01 5.492620468139648438e-01 6.788114309310913086e-01 3.684220612049102783e-01 1.689422875642776489e-01
2.020000000000000000e+03 1.308193302154541016e+01 9.017573356628417969e+00 -1.418951869709417224e-04 -3.849771019304171205e-05 -5.411786696640774608e-05 1.945935082403593697e-06
2.021000000000000000e+03 1.392809963226318359e+01 1.055576896667480469e+01 -1.538261858513578773e-04 -5.054578286944888532e-05 -6.131159170763567090e-05 -5.954248626949265599e-05
2.022000000000000000e+03 6.092324447631835938e+01 3.605987548828125000e+00 -1.269048929214477539e+00 9.145184159278869629e-01 -1.063591763377189636e-01 -1.011500358581542969e+00
2.023000000000000000e+03 6.133024215698242188e+01 5.488979816436767578e-02 -2.557796478271484375e+00 3.495275974273681641e-01 -6.624806523323059082e-01 -2.494567185640335083e-01
2.024000000000000000e+03 6.585690307617187500e+01 -1.053993463516235352e+00 -1.485576987266540527e+00 2.522699594497680664e+00 3.111368119716644287e-01 -9.421622157096862793e-01
2.025000000000000000e+03 4.511725616455078125e+01 1.634309005737304688e+01 1.194687366485595703e+00 6.211485862731933594e+00 2.221852064132690430e+00 1.877578258514404297e+00
2.026000000000000000e+03 4.621031188964843750e+01 1.618394470214843750e+01 1.443808674812316895e+00 5.421543121337890625e+00 2.059605598449707031e+00 1.908663153648376465e+00
2.027000000000000000e+03 1.031508922576904297e+01 -3.510086059570312500e+01 -2.249147146940231323e-01 -2.840712070465087891e-01 -1.526957750320434570e-01 1.411325037479400635e-01
2.028000000000000000e+03 2.578906631469726562e+01 -4.146941661834716797e+00 -5.489524602890014648e-01 -2.579484581947326660e-01 -2.420702874660491943e-01 -4.990451633930206299e-01
2.029000000000000000e+03 4.696235275268554688e+01 2.535853004455566406e+01 6.721002459526062012e-01 4.856051921844482422e+00 1.658445715904235840e+00 5.271585583686828613e-01
2.030000000000000000e+03 4.573402404785156250e+01 2.551913261413574219e+01 5.768898725509643555e-01 5.107953071594238281e+00 1.705452799797058105e+00 3.632631003856658936e-01
2.031000000000000000e+03 3.801060485839843750e+01 -1.028253555297851562e+01 1.545355916023254395e+00 8.447109222412109375e+00 2.997739553451538086e+00 5.719512701034545898e-01
2.032000000000000000e+03 3.592837905883789062e+01 -1.252412128448486328e+01 1.434119224548339844e+00 5.196818828582763672e+00 1.989281415939331055e+00 1.919968724250793457e-01
2.033000000000000000e+03 1.561920547485351562e+01 4.807017326354980469e+00 7.284977073140908033e-06 4.813245323020964861e-05 1.662522845435887575e-05 3.938088411814533174e-05
2.034000000000000000e+03 4.583603668212890625e+01 1.348594665527343750e+01 1.821796894073486328e+00 5.462176322937011719e+00 2.185191869735717773e+00 2.343058586120605469e+00
2.035000000000000000e+03 3.443478775024414062e+01 -1.558899879455566406e+01 -1.084705069661140442e-01 2.767260074615478516e+00 7.976369261741638184e-01 -1.284393966197967529e-01
2.036000000000000000e+03 6.474108123779296875e+01 -5.222311019897460938e-01 -1.652801156044006348e+00 1.902468323707580566e+00 7.490016520023345947e-02 -8.963238000869750977e-01
2.037000000000000000e+03 4.751567077636718750e+01 1.705377006530761719e+01 1.473254561424255371e+00 4.720589637756347656e+00 1.858153343200683594e+00 1.636000275611877441e+00
2.038000000000000000e+03 7.264881134033203125e+01 -2.227916908264160156e+01 -7.863529920578002930e-01 7.669884681701660156e+00 2.065059423446655273e+00 -4.304054379463195801e-02
2.039000000000000000e+03 7.254982757568359375e+01 -2.347336387634277344e+01 -5.399284362792968750e-01 7.220495223999023438e+00 2.004169940948486328e+00 -2.329884767532348633e-01
2.040000000000000000e+03 6.173986816406250000e+01 2.399806022644042969e+00 -1.565036892890930176e+00 9.668475985527038574e-01 -1.794568002223968506e-01 -9.439057111740112305e-01
2.041000000000000000e+03 6.061228942871093750e+01 2.594091653823852539e+00 -1.686855196952819824e+00 6.895211338996887207e-01 -2.992002367973327637e-01 -8.167423605918884277e-01
2.042000000000000000e+03 6.749213218688964844e+00 2.425972938537597656e+01 -2.063915017060935497e-04 -6.797356763854622841e-05 -8.230951789300888777e-05 -5.475375292007811368e-05
2.043000000000000000e+03 4.602645874023437500e+01 1.486664581298828125e+01 1.628762960433959961e+00 5.463773727416992188e+00 2.127761125564575195e+00 2.109945774078369141e+00
2.044000000000000000e+03 5.954125976562500000e+01 2.907714605331420898e+00 -1.765871763229370117e+00 4.654846489429473877e-01 -3.901161253452301025e-01 -6.559193134307861328e-01
2.045000000000000000e+03 5.741218185424804688e+01 3.675285577774047852e+00 -1.808057904243469238e+00 3.038587272167205811e-01 -4.512597620487213135e-01 -4.585699439048767090e-01
2.046000000000000000e+03 3.694507980346679688e+01 -1.658760261535644531e+01 -4.640181660652160645e-01 6.599524021148681641e+00 1.840651869773864746e+00 3.856507837772369385e-01
2.047000000000000000e+03 9.766698837280273438e+00 -5.763905525207519531e+00 -2.132045924663543701e-01 1.658832281827926636e-01 -1.419640798121690750e-02 -1.385343670845031738e-01
2.048000000000000000e+03 5.331789398193359375e+01 5.884586811065673828e+00 -8.620577454566955566e-01 3.932761847972869873e-01 -1.406344771385192871e-01 -2.701624035835266113e-01
2.049000000000000000e+03 8.234192848205566406e+00 3.491137313842773438e+01 -4.171974142082035542e-04 -1.268617488676682115e-04 -1.632177445571869612e-04 -6.332081393338739872e-04
2.050000000000000000e+03 2.800651931762695312e+01 -1.278935050964355469e+01 1.043747425079345703e+00 -4.136767685413360596e-01 1.890211999416351318e-01 6.449522376060485840e-01
2.051000000000000000e+03 4.790571212768554688e+01 6.930989742279052734e+00 7.517800331115722656e-01 1.441765785217285156e+00 6.580637693405151367e-01 1.283747196197509766e+00
2.052000000000000000e+03 5.079153060913085938e+01 5.719560146331787109e+00 -8.789855837821960449e-01 3.347198069095611572e-01 -1.632797271013259888e-01 -4.366772249341011047e-02
2.053000000000000000e+03 6.944298553466796875e+01 -3.988787460327148438e+01 5.941972732543945312e-01 4.012398719787597656e+00 1.381978750228881836e+00 1.036775633692741394e-01
2.054000000000000000e+03 5.508527755737304688e+01 6.195932388305664062e+00 -6.877730488777160645e-01 4.647323191165924072e-01 -6.691221892833709717e-02 -4.670973718166351318e-01
2.055000000000000000e+03 4.457850265502929688e+01 5.410815715789794922e+00 -2.881082296371459961e-01 4.485303401947021484e+00 1.259158611297607422e+00 2.606145381927490234e+00
2.056000000000000000e+03 4.541476440429687500e+01 6.305047035217285156e+00 6.847594380378723145e-01 3.618502855300903320e+00 1.290978670120239258e+00 2.249939441680908203e+00
2.057000000000000000e+03 4.078598403930664062e+01 -2.268625068664550781e+01 1.834924966096878052e-01 5.994359016418457031e+00 1.853355407714843750e+00 1.792605519294738770e-01
2.058000000000000000e+03 4.003318786621093750e+01 -2.344334030151367188e+01 4.335539937019348145e-01 5.979980945587158203e+00 1.924060583114624023e+00 4.234367311000823975e-01
2.059000000000000000e+03 1.513202476501464844e+01 3.603490066528320312e+01 1.189256552606821060e-03 -2.982713049277663231e-04 2.672955743037164211e-04 -2.992553636431694031e-04
2.060000000000000000e+03 1.155194091796875000e+01 1.941089820861816406e+01 -3.702815447468310595e-04 3.717988874996080995e-05 -9.993049752665683627e-05 -1.690228782535996288e-05
2.061000000000000000e+03 6.999022483825683594e+00 1.735632133483886719e+01 2.408523723715916276e-04 6.945802851987536997e-06 7.433945575030520558e-05 8.847766730468720198e-05
2.062000000000000000e+03 3.710410308837890625e+01 -6.096689701080322266e+00 1.333513259887695312e+00 6.390399456024169922e+00 2.317173719406127930e+00 8.556013107299804688e-01
2.063000000000000000e+03 3.852849960327148438e+01 -4.946156501770019531e+00 8.911361694335937500e-01 8.669993400573730469e+00 2.868338823318481445e+00 1.113159775733947754e+00
2.064000000000000000e+03 1.164273548126220703e+01 1.357642555236816406e+01 -5.548246554099023342e-05 3.875076345138950273e-06 -1.548221553093753755e-05 -1.166551664937287569e-04
2.065000000000000000e+03 6.985015106201171875e+01 -3.209518814086914062e+01 -9.183112978935241699e-01 4.432529449462890625e+00 1.054265379905700684e+00 2.141785770654678345e-01
2.066000000000000000e+03 3.839745712280273438e+01 -2.986478233337402344e+01 -7.000306993722915649e-02 5.015772342681884766e+00 1.483730792999267578e+00 -1.534643471240997314e-01
2.067000000000000000e+03 7.362594604492187500e+01 -2.911144256591796875e+01 -5.466386675834655762e-01 7.860461235046386719e+00 2.194146871566772461e+00 -2.650899291038513184e-01
2.068000000000000000e+03 3.767108154296875000e+01 -3.605430841445922852e+00 4.041150584816932678e-02 7.108051776885986328e+00 2.144539117813110352e+00 8.815709352493286133e-01
2.069000000000000000e+03 3.878673553466796875e+01 -3.619770526885986328e+00 1.647015661001205444e-01 8.647178649902343750e+00 2.643563985824584961e+00 9.615183472633361816e-01
2.070000000000000000e+03 2.829516029357910156e+01 -8.416778564453125000e+00 1.217706561088562012e+00 -5.269804596900939941e-01 2.072178125381469727e-01 -1.223557591438293457e-01
2.071000000000000000e+03 3.177304077148437500e+01 -5.562705039978027344e+00 8.392496109008789062e-01 1.104214042425155640e-01 2.849013209342956543e-01 -2.482304871082305908e-01
2.072000000000000000e+03 6.437280654907226562e+00 1.204451656341552734e+01 2.099775301758199930e-04 1.106758372770855203e-05 6.631353608099743724e-05 3.263526423324947245e-06
2.073000000000000000e+03 2.590993309020996094e+01 -1.240148353576660156e+01 8.731918334960937500e-01 -4.741026461124420166e-01 1.197267547249794006e-01 4.765301346778869629e-01
2.074000000000000000e+03 2.167256164550781250e+01 -6.606620311737060547e+00 6.020037457346916199e-02 -2.194247543811798096e-01 -4.776731133460998535e-02 -6.862128525972366333e-02
2.075000000000000000e+03 3.461425399780273438e+01 -3.584104061126708984e+00 -5.959375202655792236e-02 2.134381771087646484e+00 6.224364042282104492e-01 3.580949604511260986e-01
2.076000000000000000e+03 3.599260711669921875e+01 -5.708985805511474609e+00 1.133466482162475586e+00 4.665371894836425781e+00 1.739651560783386230e+00 7.471318244934082031e-01
2.077000000000000000e+03 3.063283348083496094e+01 -6.533435821533203125e+00 1.121098875999450684e+00 -2.228637337684631348e-01 2.694705426692962646e-01 -3.069117665290832520e-01
2.078000000000000000e+03 3.392578887939453125e+01 -5.975997924804687500e+00 1.311852574348449707e+00 2.074178218841552734e+00 1.015809297561645508e+00 3.087797164916992188e-01
2.079000000000000000e+03 3.911478424072265625e+01 -3.154671859741210938e+01 -4.311283230781555176e-01 4.436351776123046875e+00 1.201567053794860840e+00 -3.109138906002044678e-01
2.080000000000000000e+03 3.884228897094726562e+01 -2.669769859313964844e+01 7.470483779907226562e-01 5.603125095367431641e+00 1.905052065849304199e+00 1.294516772031784058e-01
2.081000000000000000e+03 7.224388122558593750e+01 4.121506881713867188e+01 5.309598892927169800e-02 4.222250938415527344e+00 1.282604098320007324e+00 -1.671718806028366089e-02
2.082000000000000000e+03 3.945111465454101562e+01 -2.435159873962402344e+01 6.731752753257751465e-01 5.890176773071289062e+00 1.969005703926086426e+00 3.944510519504547119e-01
2.083000000000000000e+03 3.826041030883789062e+01 -6.256449222564697266e+00 1.360217809677124023e+00 8.469359397888183594e+00 2.948873281478881836e+00 9.927363991737365723e-01
2.084000000000000000e+03 3.805619812011718750e+01 -7.566461563110351562e+00 1.747956514358520508e+00 8.375559806823730469e+00 3.037054777145385742e+00 9.953426718711853027e-01
2.085000000000000000e+03 5.393164157867431641e+00 -3.498639678955078125e+01 -9.390392899513244629e-02 1.590172052383422852e-01 1.953398436307907104e-02 3.231462324038147926e-03
2.086000000000000000e+03 9.586369514465332031e+00 1.680542182922363281e+01 2.650105161592364311e-04 -6.017674968461506069e-05 6.145012594060972333e-05 4.896990958513924852e-06
2.087000000000000000e+03 1.164963531494140625e+01 2.093081092834472656e+01 4.054658056702464819e-04 -1.766669447533786297e-05 1.163397391792386770e-04 5.234272248344495893e-05
2.088000000000000000e+03 4.748881530761718750e+01 2.871170806884765625e+01 5.645955801010131836e-01 4.458651065826416016e+00 1.506973981857299805e+00 4.419400095939636230e-01
2.089000000000000000e+03 4.772744750976562500e+01 3.312128829956054688e+01 8.413286507129669189e-02 4.187536239624023438e+00 1.281500697135925293e+00 3.565501272678375244e-01
2.090000000000000000e+03 1.037754821777343750e+01 2.678089523315429688e+01 3.737756560440175235e-05 -2.823698159772902727e-04 -7.349767111008986831e-05 -1.399103930452838540e-04
2.091000000000000000e+03 7.430008697509765625e+01 -3.485951995849609375e+01 -1.386787593364715576e-01 8.255566596984863281e+00 2.435066223144531250e+00 3.223984837532043457e-01
2.092000000000000000e+03 2.154253387451171875e+01 3.628402709960937500e+01 5.667413584887981415e-03 -6.087770452722907066e-04 1.517590950243175030e-03 1.897600828669965267e-03
2.093000000000000000e+03 1.550158977508544922e+01 3.842159271240234375e+01 -1.277412869967520237e-03 -5.197232821956276894e-04 -5.391408340074121952e-04 -1.483068685047328472e-03
2.094000000000000000e+03 1.175962924957275391e+01 2.392269325256347656e+01 4.742754972539842129e-04 2.196890090999659151e-05 1.488733105361461639e-04 1.561611279612407088e-04
2.095000000000000000e+03 1.053572559356689453e+01 2.230039024353027344e+01 3.273648908361792564e-04 5.855852577951736748e-05 1.157770238933153450e-04 9.740975656313821673e-05
2.096000000000000000e+03 4.455743026733398438e+01 3.865661621093750000e+01 -4.102590084075927734e-01 3.598415613174438477e+00 9.564469456672668457e-01 -4.810044169425964355e-02
2.097000000000000000e+03 4.149757766723632812e+01 -2.610934257507324219e+01 2.700310647487640381e-01 4.507987022399902344e+00 1.433405399322509766e+00 -4.857909679412841797e-01
2.098000000000000000e+03 5.705278396606445312e+01 -3.772779846191406250e+01 -2.727419883012771606e-02 -3.560216128826141357e-01 -1.149887442588806152e-01 -5.052799582481384277e-01
2.099000000000000000e+03 2.911771392822265625e+01 -3.851666259765625000e+01 -4.372576177120208740e-01 1.575039148330688477e+00 3.413344621658325195e-01 4.503222703933715820e-01
2.100000000000000000e+03 3.265785980224609375e+01 -4.127603149414062500e+01 -9.530631303787231445e-01 2.738124608993530273e+00 5.355184674263000488e-01 1.173200681805610657e-01
2.101000000000000000e+03 7.035529327392578125e+01 -1.150414943695068359e+01 2.381799459457397461e+00 2.421933889389038086e+00 1.441120028495788574e+00 -2.253615140914916992e+00
2.102000000000000000e+03 7.177597045898437500e+01 -1.636639976501464844e+01 4.483402371406555176e-01 7.852661132812500000e+00 2.490300416946411133e+00 3.453001260757446289e+00
2.103000000000000000e+03 7.128431701660156250e+01 -1.778632164001464844e+01 -4.071682393550872803e-01 6.728455543518066406e+00 1.896386265754699707e+00 2.202424526214599609e+00
2.104000000000000000e+03 7.210154724121093750e+01 -1.597203636169433594e+01 6.602017283439636230e-01 9.654403686523437500e+00 3.094381809234619141e+00 4.169811248779296875e+00
2.105000000000000000e+03 7.187724304199218750e+01 -1.084283161163330078e+01 1.368333697319030762e+00 9.035658836364746094e+00 3.121197700500488281e+00 -4.566063880920410156e+00
2.106000000000000000e+03 7.144924926757812500e+01 -9.246514320373535156e+00 -4.784273356199264526e-02 7.558887004852294922e+00 2.253313302993774414e+00 -2.934877634048461914e+00
2.107000000000000000e+03 7.235930633544921875e+01 -1.024459743499755859e+01 -1.103553101420402527e-01 1.073757839202880859e+01 3.188166856765747070e+00 -3.496595621109008789e+00
2.108000000000000000e+03 7.149234771728515625e+01 -1.927370452880859375e+01 -8.697178363800048828e-01 7.163769721984863281e+00 1.888215541839599609e+00 1.383484721183776855e+00
2.109000000000000000e+03 9.075068473815917969e+00 -5.755234718322753906e+00 -2.103506028652191162e-01 1.608546376228332520e-01 -1.484878920018672943e-02 -1.672358363866806030e-01
2.110000000000000000e+03 1.047329139709472656e+01 -5.818196773529052734e+00 -2.113591432571411133e-01 1.619283407926559448e-01 -1.482923887670040131e-02 -1.137684285640716553e-01
2.111000000000000000e+03 7.085266876220703125e+01 -1.621277618408203125e+01 1.322532296180725098e+00 3.738195896148681641e+00 1.518218398094177246e+00 2.409440517425537109e+00
2.112000000000000000e+03 7.077684783935546875e+01 -1.657987785339355469e+01 7.111933827400207520e-01 4.062710285186767578e+00 1.432171225547790527e+00 2.151725292205810547e+00
2.113000000000000000e+03 7.225824737548828125e+01 -1.936699676513671875e+01 -1.248577117919921875e+00 8.590184211730957031e+00 2.202481985092163086e+00 9.697133898735046387e-01
2.114000000000000000e+03 6.989019775390625000e+01 -1.014597892761230469e+01 1.157981872558593750e+00 3.403887987136840820e+00 1.368561029434204102e+00 -2.412405729293823242e+00
2.115000000000000000e+03 7.322672271728515625e+01 -1.690002250671386719e+01 -1.601107120513916016e+00 1.345535945892333984e+01 3.556275606155395508e+00 1.224036574363708496e+00
2.116000000000000000e+03 7.254489898681640625e+01 -1.732396125793457031e+01 -1.215200662612915039e+00 1.076395988464355469e+01 2.864627838134765625e+00 2.122860193252563477e+00
2.117000000000000000e+03 7.228959655761718750e+01 -2.090665245056152344e+01 -1.009035348892211914e+00 7.811732769012451172e+00 2.040809392929077148e+00 3.906664550304412842e-01
2.118000000000000000e+03 7.333387756347656250e+01 -1.013523864746093750e+01 -1.058232188224792480e+00 1.338560771942138672e+01 3.698212623596191406e+00 -1.840887069702148438e+00
2.119000000000000000e+03 5.943367481231689453e+00 6.770472526550292969e+00 1.416367886122316122e-04 5.858381427970016375e-06 4.424855433171615005e-05 6.463725003413856030e-05
2.120000000000000000e+03 1.119665908813476562e+01 -5.891967773437500000e+00 -2.055773288011550903e-01 1.631905287504196167e-01 -1.271604094654321671e-02 -8.043769001960754395e-02
2.121000000000000000e+03 6.838897228240966797e+00 5.377357959747314453e+00 5.095461165183223784e-05 -7.127450317057082430e-06 1.314814835495781153e-05 9.212065197061747313e-05
2.122000000000000000e+03 6.344441413879394531e+00 6.035796165466308594e+00 -1.233532675541937351e-04 1.873957103271095548e-06 -3.644379467004910111e-05 -7.265810563694685698e-05
2.123000000000000000e+03 6.997394561767578125e+01 -1.073837280273437500e+01 1.599735140800476074e+00 2.837644338607788086e+00 1.331213831901550293e+00 -2.290781736373901367e+00
2.124000000000000000e+03 7.317694664001464844e+00 5.901873588562011719e+00 -8.656905265524983406e-05 5.689271347364410758e-05 -8.902900844987016171e-06 -1.027857797453179955e-04
2.125000000000000000e+03 7.547667026519775391e+00 4.969613075256347656e+00 5.294390211929567158e-05 -9.484651855018455535e-06 1.303777480643475428e-05 -7.217048550955951214e-05
2.126000000000000000e+03 1.200386714935302734e+01 6.128919601440429688e+00 2.263128862978192046e-06 2.132813824573531747e-05 7.077380359987728298e-06 -3.713454498210921884e-05
2.127000000000000000e+03 1.194129562377929688e+01 -5.976892948150634766e+00 -1.913458853960037231e-01 1.481114327907562256e-01 -1.297033391892910004e-02 -5.387366190552711487e-02
2.128000000000000000e+03 1.347183036804199219e+01 -6.160659313201904297e+00 -1.544189006090164185e-01 1.073465272784233093e-01 -1.412171404808759689e-02 5.494786892086267471e-03
2.129000000000000000e+03 6.001329421997070312e+00 -6.747817993164062500e+00 -1.327836811542510986e-01 5.184616893529891968e-02 -2.428125403821468353e-02 -2.975006699562072754e-01
2.130000000000000000e+03 8.963260650634765625e+00 -5.052641391754150391e+00 -2.415163964033126831e-01 1.363800317049026489e-01 -3.154091164469718933e-02 -1.656108647584915161e-01
2.131000000000000000e+03 8.588872909545898438e+00 -7.411528110504150391e+00 -1.319156289100646973e-01 2.311311960220336914e-01 2.976466901600360870e-02 -1.914829462766647339e-01
2.132000000000000000e+03 7.430243968963623047e+00 -5.293696403503417969e+00 -2.055485546588897705e-01 1.069035157561302185e-01 -2.959351241588592529e-02 -2.247531414031982422e-01
2.133000000000000000e+03 1.703901863098144531e+01 -9.448282241821289062e+00 2.822004258632659912e-01 -4.409972578287124634e-02 7.143021374940872192e-02 1.478183418512344360e-01
2.134000000000000000e+03 1.510906791687011719e+01 -7.105364322662353516e+00 -3.429476171731948853e-02 6.827777624130249023e-02 1.019490510225296021e-02 7.020252197980880737e-02
2.135000000000000000e+03 1.065395927429199219e+01 4.836554050445556641e+00 9.732277248986065388e-05 1.833865280786994845e-05 3.469842704362235963e-05 -7.376883786491816863e-06
2.136000000000000000e+03 1.751672744750976562e+01 -6.468699932098388672e+00 -5.035801231861114502e-02 -5.387797951698303223e-02 -3.127079829573631287e-02 6.892122328281402588e-02
2.137000000000000000e+03 1.742763900756835938e+01 -5.702991008758544922e+00 -1.348737627267837524e-01 -5.169315263628959656e-02 -5.597007274627685547e-02 5.581612884998321533e-02
2.138000000000000000e+03 2.003162765502929688e+01 -6.532227993011474609e+00 1.040031388401985168e-02 -1.529902964830398560e-01 -4.277699440717697144e-02 1.391944289207458496e-02
2.139000000000000000e+03 1.995810127258300781e+01 -5.743615627288818359e+00 -1.055395752191543579e-01 -1.153900250792503357e-01 -6.627888232469558716e-02 7.273139897733926773e-03
2.140000000000000000e+03 1.135284042358398438e+01 5.737492084503173828e+00 1.435974554624408484e-04 -3.585297235986217856e-05 3.232334711356088519e-05 -9.172752470476552844e-06
2.141000000000000000e+03 7.686985015869140625e+00 -6.059939861297607422e+00 -1.810085028409957886e-01 1.317528039216995239e-01 -1.477671321481466293e-02 -2.286119461059570312e-01
2.142000000000000000e+03 2.133052444458007812e+01 -9.217624664306640625e+00 4.086454510688781738e-01 -3.115520477294921875e-01 2.912801876664161682e-02 8.064545691013336182e-02
2.143000000000000000e+03 7.159207153320312500e+01 -1.865688514709472656e+01 -8.823570013046264648e-01 7.528421401977539062e+00 1.993819355964660645e+00 1.626499652862548828e+00
2.144000000000000000e+03 1.424688243865966797e+01 -6.243719100952148438e+00 -1.390661150217056274e-01 8.646521717309951782e-02 -1.578027009963989258e-02 2.978713065385818481e-02
2.145000000000000000e+03 1.504241561889648438e+01 -6.315680503845214844e+00 -1.118173748254776001e-01 4.956319555640220642e-02 -1.867625303566455841e-02 4.926862940192222595e-02
2.146000000000000000e+03 2.049532127380371094e+01 -1.256624794006347656e+01 5.871273279190063477e-01 -2.598022222518920898e-01 9.819752722978591919e-02 2.037844657897949219e-01
2.147000000000000000e+03 1.919468688964843750e+01 -6.512674808502197266e+00 -1.426304597407579422e-02 -1.183922514319419861e-01 -3.979659080505371094e-02 4.224288836121559143e-02
2.148000000000000000e+03 1.241153049468994141e+01 1.160890197753906250e+01 -1.259576383745297790e-04 -6.805497832829132676e-05 -5.820378646603785455e-05 -7.037200703052803874e-06
2.149000000000000000e+03 7.497789001464843750e+01 -2.420576667785644531e+01 -5.768233537673950195e-01 9.175423622131347656e+00 2.579580068588256836e+00 -7.803491353988647461e-01
2.150000000000000000e+03 6.523622894287109375e+01 7.737692594528198242e-01 -1.359104156494140625e+00 2.380519390106201172e+00 3.064245581626892090e-01 -1.182180166244506836e+00
2.151000000000000000e+03 1.028194999694824219e+01 -1.123510074615478516e+01 2.099217176437377930e-01 4.803493618965148926e-01 2.070813328027725220e-01 4.020979627966880798e-02
2.152000000000000000e+03 8.092448234558105469e+00 6.169117450714111328e+00 5.896950824535451829e-06 5.359381248126737773e-05 1.784722917363978922e-05 -1.239992852788418531e-04
2.153000000000000000e+03 6.288097763061523438e+01 2.285540580749511719e+00 -1.420524001121520996e+00 1.377887845039367676e+00 -1.279084663838148117e-02 -1.123447179794311523e+00
2.154000000000000000e+03 1.063910865783691406e+01 -1.033062362670898438e+01 1.195874512195587158e-01 4.080450534820556641e-01 1.582897454500198364e-01 -7.021847413852810860e-04
2.155000000000000000e+03 8.195814132690429688e+00 -1.290247154235839844e+01 2.700798213481903076e-01 6.285640597343444824e-01 2.695931792259216309e-01 -1.786286383867263794e-02
2.156000000000000000e+03 2.006263351440429688e+01 -7.328400135040283203e+00 1.118259802460670471e-01 -1.785076856613159180e-01 -2.000451274216175079e-02 3.384878113865852356e-02
2.157000000000000000e+03 7.236166381835937500e+01 -2.167023277282714844e+01 -8.915111422538757324e-01 7.630838394165039062e+00 2.021798133850097656e+00 1.744272708892822266e-01
2.158000000000000000e+03 1.912840652465820312e+01 -1.346264648437500000e+01 6.185035109519958496e-01 -1.805362999439239502e-01 1.313901692628860474e-01 1.759709417819976807e-01
2.159000000000000000e+03 1.676873588562011719e+01 -7.212829113006591797e+00 1.798156835138797760e-02 -2.354596368968486786e-02 -1.669318298809230328e-03 8.705054968595504761e-02
2.160000000000000000e+03 3.738236236572265625e+01 -1.780986213684082031e+01 -8.920919299125671387e-01 7.344983100891113281e+00 1.935867309570312500e+00 6.209936738014221191e-01
2.161000000000000000e+03 7.420206451416015625e+01 -5.252016544342041016e+00 -1.287837386131286621e+00 8.780462265014648438e+00 2.247787475585937500e+00 -9.626617282629013062e-02
2.162000000000000000e+03 2.403233718872070312e+01 -5.870653629302978516e+00 -2.046139910817146301e-02 -2.823258936405181885e-01 -9.083618968725204468e-02 -2.850710749626159668e-01
2.163000000000000000e+03 2.323069763183593750e+01 -5.791547298431396484e+00 -7.256962358951568604e-02 -2.174568176269531250e-01 -8.700793236494064331e-02 -2.041977345943450928e-01
2.164000000000000000e+03 7.634469604492187500e+01 -1.028238582611083984e+01 -7.352191209793090820e-02 1.075468254089355469e+01 3.204348325729370117e+00 2.579407453536987305e+00
2.165000000000000000e+03 7.510443115234375000e+01 -8.728625297546386719e+00 -1.496274590492248535e+00 1.145396804809570312e+01 2.987308263778686523e+00 1.076431393623352051e+00
2.166000000000000000e+03 6.952078247070312500e+01 -7.927762508392333984e+00 6.664830446243286133e-02 4.101533889770507812e+00 1.250454664230346680e+00 -1.921396970748901367e+00
2.167000000000000000e+03 6.897135925292968750e+01 -7.026381492614746094e+00 -1.675303876399993896e-01 3.822144031524658203e+00 1.096384048461914062e+00 -1.540343046188354492e+00
2.168000000000000000e+03 3.687143325805664062e+01 -1.274568939208984375e+01 1.052163481712341309e+00 6.578969478607177734e+00 2.289339780807495117e+00 1.365504413843154907e-01
2.169000000000000000e+03 6.940934753417968750e+01 -9.536878585815429688e+00 8.365737199783325195e-01 3.151297330856323242e+00 1.196361303329467773e+00 -2.092077255249023438e+00
2.170000000000000000e+03 2.034611701965332031e+01 -1.361617088317871094e+01 5.794057250022888184e-01 -2.324879169464111328e-01 1.040753424167633057e-01 1.993220746517181396e-01
2.171000000000000000e+03 7.389705657958984375e+01 -2.524603843688964844e+01 -5.331202745437622070e-01 8.128581047058105469e+00 2.278638362884521484e+00 -5.913606286048889160e-01
2.172000000000000000e+03 4.163475799560546875e+01 -2.364891242980957031e+01 2.644452452659606934e-01 5.056865215301513672e+00 1.596393227577209473e+00 -2.490579932928085327e-01
2.173000000000000000e+03 8.730254173278808594e+00 2.721535301208496094e+01 3.201112849637866020e-05 -8.759786578593775630e-05 -1.667602191446349025e-05 -8.344837988261133432e-05
2.174000000000000000e+03 9.063106536865234375e+00 1.556588363647460938e+01 -2.401481033302843571e-04 6.960631435504183173e-05 -5.116253669257275760e-05 2.688534368644468486e-05
2.175000000000000000e+03 2.487095642089843750e+01 -6.065856456756591797e+00 7.826889306306838989e-02 -3.688910007476806641e-01 -8.718662708997726440e-02 -3.518996834754943848e-01
2.176000000000000000e+03 5.526171875000000000e+01 4.573993682861328125e+00 -1.633594512939453125e+00 3.205081224441528320e-01 -3.939259052276611328e-01 -3.636507093906402588e-01
2.177000000000000000e+03 1.567631721496582031e+01 -1.137581920623779297e+01 4.631003737449645996e-01 6.080941110849380493e-02 1.571729332208633423e-01 1.990785002708435059e-01
2.178000000000000000e+03 4.904360961914062500e+01 2.834571838378906250e+01 6.443248391151428223e-01 4.297168731689453125e+00 1.482448101043701172e+00 5.173509120941162109e-01
2.179000000000000000e+03 4.768045043945312500e+01 3.074246597290039062e+01 3.930671811103820801e-01 4.309067249298095703e+00 1.410640358924865723e+00 4.170943498611450195e-01
2.180000000000000000e+03 1.491174411773681641e+01 -1.200649452209472656e+01 5.275927782058715820e-01 1.236251741647720337e-01 1.953653842210769653e-01 2.054918706417083740e-01
2.181000000000000000e+03 1.137367630004882812e+01 -1.166649246215820312e+01 3.251672685146331787e-01 4.438484907150268555e-01 2.307047247886657715e-01 1.070555672049522400e-01
2.182000000000000000e+03 4.427783584594726562e+01 4.018429279327392578e+00 -1.781419634819030762e+00 4.732222080230712891e+00 8.852407932281494141e-01 2.604879617691040039e+00
2.183000000000000000e+03 7.551285552978515625e+01 -8.119585037231445312e+00 -1.381698966026306152e+00 1.074514007568359375e+01 2.809032440185546875e+00 1.292366743087768555e+00
2.184000000000000000e+03 1.189612293243408203e+01 3.315778350830078125e+01 -1.779665471985936165e-04 -1.858618343248963356e-04 -1.091485173674300313e-04 -2.564565220382064581e-04
2.185000000000000000e+03 7.547596740722656250e+01 -2.251445198059082031e+01 -7.937575578689575195e-01 9.604907989501953125e+00 2.643345117568969727e+00 -1.027280807495117188e+00
2.186000000000000000e+03 7.492394256591796875e+01 -2.180753517150878906e+01 -1.117769241333007812e+00 9.597293853759765625e+00 2.543857336044311523e+00 -9.000809192657470703e-01
2.187000000000000000e+03 7.255084991455078125e+01 -3.333304214477539062e+01 -4.255299568176269531e-01 6.783824443817138672e+00 1.907488346099853516e+00 2.969022691249847412e-01
2.188000000000000000e+03 7.384427642822265625e+01 -3.328629684448242188e+01 -3.358821868896484375e-01 7.846461772918701172e+00 2.253173828125000000e+00 2.511034607887268066e-01
2.189000000000000000e+03 8.792103767395019531e+00 2.896569824218750000e+01 4.688988847192376852e-04 -1.063710224116221070e-04 1.087583586922846735e-04 -2.237657754449173808e-04
2.190000000000000000e+03 4.795114135742187500e+01 5.573894500732421875e+00 -3.672846257686614990e-01 8.327636122703552246e-01 1.396436989307403564e-01 1.049515366554260254e+00
2.191000000000000000e+03 7.549700927734375000e+01 -1.857712364196777344e+01 -1.541313171386718750e+00 1.159588432312011719e+01 3.016371250152587891e+00 -2.017413139343261719e+00
2.192000000000000000e+03 7.336437225341796875e+01 -1.830682754516601562e+01 -1.868407368659973145e+00 1.126662445068359375e+01 2.819465160369873047e+00 4.076860547065734863e-01
2.193000000000000000e+03 7.197807312011718750e+01 2.393417930603027344e+01 2.968449294567108154e-01 4.358559608459472656e+00 1.396621465682983398e+00 -5.792259573936462402e-01
2.194000000000000000e+03 7.038447570800781250e+01 1.634775543212890625e+01 4.392224550247192383e-01 4.293204784393310547e+00 1.419728159904479980e+00 -1.157522678375244141e+00
2.195000000000000000e+03 7.458443450927734375e+01 -2.093952178955078125e+01 -1.287531256675720215e+00 9.794130325317382812e+00 2.551979780197143555e+00 -8.074027299880981445e-01
2.196000000000000000e+03 7.191037750244140625e+01 1.011135578155517578e+01 1.128535121679306030e-01 5.071470737457275391e+00 1.555297374725341797e+00 -1.414960265159606934e+00
2.197000000000000000e+03 7.328782653808593750e+01 7.930400848388671875e+00 -4.687611386179924011e-02 5.795896053314208984e+00 1.724705934524536133e+00 -1.307798743247985840e+00
2.198000000000000000e+03 7.290048980712890625e+01 4.968202114105224609e-01 -6.798274517059326172e-01 6.523635387420654297e+00 1.753142356872558594e+00 -9.500278234481811523e-01
2.199000000000000000e+03 7.453048706054687500e+01 3.353202342987060547e+00 -2.683638036251068115e-01 6.911923408508300781e+00 1.993067860603332520e+00 -9.509120583534240723e-01
2.200000000000000000e+03 7.138932037353515625e+01 3.927566766738891602e+00 -4.276186823844909668e-01 5.462859630584716797e+00 1.510572195053100586e+00 -1.372386574745178223e+00
2.201000000000000000e+03 4.316027069091796875e+01 -2.737516021728515625e+01 1.426611840724945068e-01 3.425590038299560547e+00 1.070475339889526367e+00 -7.807813286781311035e-01
2.202000000000000000e+03 3.384746170043945312e+01 -1.427342605590820312e+01 1.028140306472778320e+00 2.341729402542114258e+00 1.010960936546325684e+00 1.466924250125885010e-01
2.203000000000000000e+03 7.145936012268066406e+00 3.147557258605957031e+01 -3.321452531963586807e-04 -4.649052129934716504e-07 -9.978305024560540915e-05 -3.651778970379382372e-04
2.204000000000000000e+03 7.361920928955078125e+01 -1.767229843139648438e+01 -1.858543395996093750e+00 1.256302452087402344e+01 3.211344242095947266e+00 1.513358950614929199e-01
2.205000000000000000e+03 7.425527954101562500e+01 5.304945468902587891e+00 -1.834700852632522583e-01 6.558087348937988281e+00 1.912385106086730957e+00 -1.103580355644226074e+00
2.206000000000000000e+03 7.227088165283203125e+01 2.981839418411254883e+00 -4.800486266613006592e-01 5.958199501037597656e+00 1.643445253372192383e+00 -1.232435584068298340e+00
2.207000000000000000e+03 7.392295837402343750e+01 1.223280429840087891e+01 1.285771280527114868e-01 5.511138916015625000e+00 1.691914796829223633e+00 -1.148258328437805176e+00
2.208000000000000000e+03 2.586021232604980469e+01 -5.234917640686035156e+00 -1.463200449943542480e-01 -3.753964900970458984e-01 -1.565149575471878052e-01 -5.145384669303894043e-01
2.209000000000000000e+03 7.436746978759765625e+01 1.934583663940429688e+01 1.904667019844055176e-01 4.896150588989257812e+00 1.525985240936279297e+00 -7.421001195907592773e-01
2.210000000000000000e+03 7.167842864990234375e+01 1.560963153839111328e+01 3.283440470695495605e-01 4.630231857299804688e+00 1.487572669982910156e+00 -1.165483117103576660e+00
2.211000000000000000e+03 7.154359436035156250e+01 2.600170707702636719e+01 2.923552691936492920e-01 4.274488449096679688e+00 1.370053052902221680e+00 -4.667764902114868164e-01
2.212000000000000000e+03 6.972599029541015625e+01 -7.142980098724365234e+00 -2.780899703502655029e-01 4.627171039581298828e+00 1.304724335670471191e+00 -1.773484945297241211e+00
2.213000000000000000e+03 7.852237224578857422e+00 -1.121904754638671875e+01 7.159437239170074463e-02 4.487043023109436035e-01 1.560896039009094238e-01 -1.570095121860504150e-01
2.214000000000000000e+03 3.799014663696289062e+01 -8.908528327941894531e+00 1.660415768623352051e+00 8.482103347778320312e+00 3.042755603790283203e+00 7.732194662094116211e-01
2.215000000000000000e+03 3.419272613525390625e+01 -1.181261348724365234e+01 1.722311019897460938e+00 2.881072521209716797e+00 1.381015062332153320e+00 2.402059137821197510e-01
2.216000000000000000e+03 8.045806884765625000e+00 2.322113609313964844e+01 -1.652206701692193747e-04 -9.215287718689069152e-05 -7.721206202404573560e-05 -6.925572961336001754e-05
2.217000000000000000e+03 7.456412506103515625e+01 -2.713087463378906250e+01 -4.205238819122314453e-01 8.673689842224121094e+00 2.475949764251708984e+00 -5.445336103439331055e-01
2.218000000000000000e+03 5.572541713714599609e+00 2.663229370117187500e+01 3.687046992126852274e-04 2.210872298746835440e-05 1.172440242953598499e-04 1.378707747790031135e-05
2.219000000000000000e+03 6.600743293762207031e+00 -8.691930770874023438e+00 -9.630506485700607300e-02 1.857849657535552979e-01 2.684397064149379730e-02 -2.996363341808319092e-01
2.220000000000000000e+03 5.150517940521240234e+00 -9.384542465209960938e+00 -6.898672133684158325e-02 3.458485752344131470e-02 -1.032055914402008057e-02 -3.535594642162322998e-01
2.221000000000000000e+03 6.743075847625732422e+00 2.673326683044433594e+01 -3.144869697280228138e-04 1.099488781619584188e-05 -9.104762284550815821e-05 -7.864068174967542291e-05
2.222000000000000000e+03 5.429340362548828125e+00 1.446189689636230469e+01 -2.160219446523115039e-04 9.121764378505758941e-06 -6.207005208125337958e-05 -3.999088585260324180e-05
2.223000000000000000e+03 7.960916042327880859e+00 1.583610057830810547e+01 2.668607339728623629e-04 -4.906616595690138638e-05 6.533836858579888940e-05 8.357246770174242556e-06
2.224000000000000000e+03 4.815627670288085938e+01 2.496071624755859375e+01 8.016436696052551270e-01 4.588355541229248047e+00 1.616999745368957520e+00 6.382946372032165527e-01
2.225000000000000000e+03 6.484786987304687500e+00 1.326658821105957031e+01 -2.315777674084529281e-04 1.754897493810858577e-05 -6.420863792300224304e-05 -1.020785748551134020e-05
2.226000000000000000e+03 5.281493663787841797e+00 1.186238288879394531e+01 -1.953670434886589646e-04 -1.336775494564790279e-05 -6.262044189497828484e-05 -2.410190427326597273e-05
2.227000000000000000e+03 7.011278152465820312e+00 1.884126472473144531e+01 -1.886690733954310417e-04 -4.584141788654960692e-05 -7.035314774839207530e-05 -9.718698856886476278e-05
2.228000000000000000e+03 5.658711910247802734e+00 1.861454582214355469e+01 2.016561193158850074e-04 4.365730637800879776e-05 7.359402661677449942e-05 6.828462210251018405e-05
2.229000000000000000e+03 6.595886230468750000e+00 1.456207275390625000e+01 2.448048908263444901e-04 -2.790198595903348178e-05 6.507087528007104993e-05 2.811766353261191398e-05
2.230000000000000000e+03 7.438156890869140625e+01 -1.594969153404235840e+00 -7.354342341423034668e-01 7.673183917999267578e+00 2.081324815750122070e+00 -4.291537404060363770e-01
2.231000000000000000e+03 7.324176025390625000e+01 -9.635410904884338379e-01 -8.036946654319763184e-01 6.964720726013183594e+00 1.848307728767395020e+00 -7.409153580665588379e-01
2.232000000000000000e+03 7.030444335937500000e+01 -3.050448179244995117e+00 -1.003048300743103027e+00 5.426200389862060547e+00 1.326945662498474121e+00 -1.095531463623046875e+00
2.233000000000000000e+03 5.913916397094726562e+01 4.453526973724365234e+00 -1.159022092819213867e+00 6.569225192070007324e-01 -1.506298780441284180e-01 -8.590388894081115723e-01
2.234000000000000000e+03 4.044595336914062500e+01 -2.489764213562011719e+01 5.005177855491638184e-01 5.330565452575683594e+00 1.749324917793273926e+00 1.378651801496744156e-02
2.235000000000000000e+03 1.011799621582031250e+01 9.068661689758300781e+00 6.816691893618553877e-05 4.513010935625061393e-05 3.398910848773084581e-05 -1.171158419310813770e-05
2.236000000000000000e+03 2.978399276733398438e+01 -7.704728126525878906e+00 1.346710681915283203e+00 -2.979719042778015137e-01 3.146216273307800293e-01 -1.954378336668014526e-01
2.237000000000000000e+03 6.468281745910644531e+00 7.966616630554199219e+00 1.796228316379711032e-04 2.329695598746184260e-05 6.087593646952882409e-05 2.391879752394743264e-05
2.238000000000000000e+03 1.211161804199218750e+01 1.269645690917968750e+01 8.381519728573039174e-05 9.442000009585171938e-05 5.347056139726191759e-05 6.579240289283916354e-05
2.239000000000000000e+03 6.544394969940185547e+00 -7.563151359558105469e+00 -1.324872672557830811e-01 1.263924837112426758e-01 -1.828437671065330505e-03 -2.987953424453735352e-01
2.240000000000000000e+03 6.381695270538330078e+00 8.816141128540039062e+00 -1.750502706272527575e-04 -2.586417394923046231e-05 -6.027433482813648880e-05 -1.645565862418152392e-05
2.241000000000000000e+03 8.221310615539550781e+00 8.130314826965332031e+00 1.233775692526251078e-04 1.095366042136447504e-05 4.029936826555058360e-05 -9.666440018918365240e-05
2.242000000000000000e+03 5.432324600219726562e+01 6.999727249145507812e+00 -2.257595658302307129e-01 5.359106659889221191e-01 9.304533153772354126e-02 -3.828774690628051758e-01
2.243000000000000000e+03 4.807596969604492188e+01 2.144993400573730469e+01 9.882068634033203125e-01 4.749744892120361328e+00 1.721385598182678223e+00 1.040113687515258789e+00
2.244000000000000000e+03 2.696660232543945312e+01 -1.343617820739746094e+01 8.169374465942382812e-01 -4.147383868694305420e-01 1.206597238779067993e-01 6.348028779029846191e-01
2.245000000000000000e+03 2.204934120178222656e+01 -9.548000335693359375e+00 5.038799643516540527e-01 -3.737634420394897461e-01 3.903496265411376953e-02 7.427165657281875610e-02
2.246000000000000000e+03 7.684899806976318359e+00 1.456916141510009766e+01 -2.809898578561842442e-04 6.448498606914654374e-05 -6.495146226370707154e-05 -5.628238000099372584e-07
2.247000000000000000e+03 1.049577903747558594e+01 2.087606048583984375e+01 -3.024752659257501364e-04 -1.717802842904347926e-05 -9.589598630554974079e-05 -4.409665052662603557e-05
2.248000000000000000e+03 2.621154022216796875e+01 -9.789830207824707031e+00 9.819890260696411133e-01 -5.852091908454895020e-01 1.190339475870132446e-01 1.062688454985618591e-01
2.249000000000000000e+03 3.279524612426757812e+01 -6.806914329528808594e+00 1.571694731712341309e+00 1.238107204437255859e+00 8.429406285285949707e-01 1.526276767253875732e-01
2.250000000000000000e+03 4.646492767333984375e+01 9.300655364990234375e+00 1.840851187705993652e+00 3.578759431838989258e+00 1.625883221626281738e+00 2.241899728775024414e+00
2.251000000000000000e+03 2.289190483093261719e+01 -1.165800094604492188e+01 6.366940140724182129e-01 -3.965680301189422607e-01 7.203779369592666626e-02 2.402765005826950073e-01
2.252000000000000000e+03 2.165420150756835938e+01 -1.268566989898681641e+01 5.793929100036621094e-01 -3.062251806259155273e-01 8.195032179355621338e-02 2.446313798427581787e-01
2.253000000000000000e+03 1.406000423431396484e+01 6.958984851837158203e+00 -1.404997510690009221e-05 2.855640923371538520e-05 4.351930328994058073e-06 3.942296825698576868e-05
2.254000000000000000e+03 3.529930877685546875e+01 -6.866312980651855469e+00 1.669457077980041504e+00 3.854795217514038086e+00 1.657275676727294922e+00 5.928587913513183594e-01
2.255000000000000000e+03 4.521556091308593750e+01 9.127432823181152344e+00 1.944641828536987305e+00 4.907554626464843750e+00 2.055659055709838867e+00 2.654318571090698242e+00
2.256000000000000000e+03 5.216621017456054688e+01 1.018526363372802734e+01 1.310755372047424316e+00 1.254666209220886230e+00 7.696264386177062988e-01 3.651052415370941162e-01
2.257000000000000000e+03 3.610121536254882812e+01 -1.131364154815673828e+01 1.563800692558288574e+00 5.490799903869628906e+00 2.116380214691162109e+00 4.230414330959320068e-01
2.258000000000000000e+03 5.592849349975585938e+01 7.021789550781250000e+00 -2.032666504383087158e-01 6.265240311622619629e-01 1.269772052764892578e-01 -5.959498286247253418e-01
2.259000000000000000e+03 4.918009185791015625e+01 1.730702781677246094e+01 1.636874318122863770e+00 3.951649188995361328e+00 1.676557064056396484e+00 1.412816405296325684e+00
2.260000000000000000e+03 1.089540481567382812e+01 1.435229492187500000e+01 5.826313281431794167e-05 -3.730720709427259862e-05 6.286778443609364331e-06 7.596046634716913104e-05
2.261000000000000000e+03 7.641292572021484375e+00 1.220997047424316406e+01 -2.243617782369256020e-04 -3.561880930647021160e-06 -6.837709952378645539e-05 3.085861317231319845e-05
2.262000000000000000e+03 3.743709945678710938e+01 -4.864701747894287109e+00 8.149489164352416992e-01 6.721938133239746094e+00 2.261066198348999023e+00 8.205426335334777832e-01
2.263000000000000000e+03 4.586333465576171875e+01 -3.047344207763671875e+01 -1.015033274888992310e-01 2.196503639221191406e+00 6.285001039505004883e-01 -7.927595376968383789e-01
2.264000000000000000e+03 4.718963623046875000e+01 1.484101295471191406e+01 1.782536983489990234e+00 4.645184516906738281e+00 1.928316473960876465e+00 1.977785706520080566e+00
2.265000000000000000e+03 3.699562072753906250e+01 -1.017381668090820312e+01 1.691526889801025391e+00 6.825234889984130859e+00 2.555028438568115234e+00 4.767158329486846924e-01
2.266000000000000000e+03 4.675833129882812500e+01 1.204396724700927734e+01 2.048594713211059570e+00 4.338434219360351562e+00 1.916108727455139160e+00 2.223143100738525391e+00
2.267000000000000000e+03 1.052502632141113281e+01 2.523955345153808594e+01 3.200884384568780661e-04 1.360875030513852835e-04 1.368527882732450962e-04 1.945790427271276712e-04
2.268000000000000000e+03 6.822138214111328125e+01 3.195450782775878906e+01 2.883537709712982178e-01 4.105553150177001953e+00 1.318172097206115723e+00 -1.815617084503173828e-01
2.269000000000000000e+03 3.069237518310546875e+01 -8.533628463745117188e+00 1.654341697692871094e+00 3.265884937718510628e-03 4.972822964191436768e-01 3.917601332068443298e-02
2.270000000000000000e+03 5.228344345092773438e+01 6.448037624359130859e+00 -4.367162585258483887e-01 4.555880427360534668e-01 5.661536008119583130e-03 -1.760898381471633911e-01
2.271000000000000000e+03 6.869946289062500000e+01 -7.752239108085632324e-01 -1.081391453742980957e+00 4.313340187072753906e+00 9.695845842361450195e-01 -1.205431461334228516e+00
2.272000000000000000e+03 6.750512695312500000e+01 -3.083108067512512207e-01 -1.192296266555786133e+00 3.582226514816284180e+00 7.169790267944335938e-01 -1.220019340515136719e+00
2.273000000000000000e+03 7.072346496582031250e+01 -4.523344039916992188e+00 -9.763331413269042969e-01 5.914766311645507812e+00 1.481529951095581055e+00 -1.201581358909606934e+00
2.274000000000000000e+03 6.924452972412109375e+01 -2.528362751007080078e+00 -1.026338100433349609e+00 4.608246803283691406e+00 1.074572563171386719e+00 -1.111445665359497070e+00
2.275000000000000000e+03 4.653119277954101562e+01 7.964919567108154297e+00 1.423011302947998047e+00 2.995113849639892578e+00 1.325437545776367188e+00 2.025614738464355469e+00
2.276000000000000000e+03 9.285825729370117188e+00 3.251236724853515625e+01 -3.603240184020251036e-04 -9.002598380902782083e-05 -1.351050013909116387e-04 -2.641157188918441534e-04
2.277000000000000000e+03 2.981661605834960938e+01 -1.280417156219482422e+01 1.278022527694702148e+00 -2.691447138786315918e-01 3.026633262634277344e-01 6.776359081268310547e-01
2.278000000000000000e+03 5.801252365112304688e+01 4.796663761138916016e+00 -1.154583930969238281e+00 5.176557898521423340e-01 -1.910784244537353516e-01 -7.127177715301513672e-01
2.279000000000000000e+03 5.694599151611328125e+01 5.158784389495849609e+00 -1.104712724685668945e+00 4.534053206443786621e-01 -1.953922063112258911e-01 -6.249644756317138672e-01
2.280000000000000000e+03 2.166382408142089844e+01 -7.489343643188476562e+00 1.950496584177017212e-01 -2.655595242977142334e-01 -2.115296013653278351e-02 -3.137130662798881531e-02
2.281000000000000000e+03 4.666569519042968750e+01 6.657038211822509766e+00 7.802220582962036133e-01 2.413575649261474609e+00 9.581393599510192871e-01 1.857411742210388184e+00
2.282000000000000000e+03 7.395696258544921875e+01 1.375197029113769531e+01 1.565495580434799194e-01 5.357534408569335938e+00 1.654225111007690430e+00 -1.092641830444335938e+00
2.283000000000000000e+03 2.395376396179199219e+01 -1.389290142059326172e+01 5.706306695938110352e-01 -3.056786656379699707e-01 7.948560267686843872e-02 4.071264564990997314e-01
2.284000000000000000e+03 4.903104019165039062e+01 5.776280403137207031e+00 -2.946460843086242676e-01 3.935860097408294678e-01 2.968197315931320190e-02 5.763391256332397461e-01
2.285000000000000000e+03 6.671222686767578125e+01 -4.123401260375976562e+01 8.032878041267395020e-01 2.251704692840576172e+00 9.164977669715881348e-01 7.721742242574691772e-02
2.286000000000000000e+03 6.553196716308593750e+01 -3.888718414306640625e+01 5.947519540786743164e-01 1.135267257690429688e+00 5.190057754516601562e-01 1.784321814775466919e-01
2.287000000000000000e+03 3.643687057495117188e+01 -4.740938663482666016e+00 7.803887724876403809e-01 5.417667865753173828e+00 1.859416961669921875e+00 7.585321068763732910e-01
2.288000000000000000e+03 3.660424804687500000e+01 -3.606959152221679688e+01 -1.094316124916076660e+00 3.742420673370361328e+00 7.944313883781433105e-01 2.236706912517547607e-01
2.289000000000000000e+03 3.797507858276367188e+01 -3.371515655517578125e+01 -8.460828661918640137e-01 4.280550479888916016e+00 1.030340194702148438e+00 -3.505514003336429596e-03
2.290000000000000000e+03 4.573725891113281250e+01 -3.356958770751953125e+01 -4.328345954418182373e-01 2.313497781753540039e+00 5.641989111900329590e-01 -7.100825309753417969e-01
2.291000000000000000e+03 3.990850830078125000e+01 -2.935077476501464844e+01 6.513187289237976074e-02 4.699810504913330078e+00 1.429482698440551758e+00 -4.285152852535247803e-01
2.292000000000000000e+03 7.136535644531250000e+01 2.840409660339355469e+01 2.505123317241668701e-01 4.237874031066894531e+00 1.346515893936157227e+00 -3.419061899185180664e-01
2.293000000000000000e+03 7.270752716064453125e+01 2.933066940307617188e+01 1.766750365495681763e-01 4.297898292541503906e+00 1.342371940612792969e+00 -2.842230796813964844e-01
2.294000000000000000e+03 4.008113479614257812e+01 -2.710312652587890625e+01 3.451036810874938965e-01 4.970535278320312500e+00 1.594691753387451172e+00 -2.800543308258056641e-01
2.295000000000000000e+03 2.098499298095703125e+01 -3.754702758789062500e+01 -1.481819599866867065e-01 6.187235191464424133e-02 -2.589288540184497833e-02 2.677831053733825684e-02
2.296000000000000000e+03 4.343682861328125000e+01 -2.932742309570312500e+01 -2.841796353459358215e-02 3.199613809585571289e+00 9.513587951660156250e-01 -7.786969542503356934e-01
2.297000000000000000e+03 7.009665679931640625e+01 -3.746560287475585938e+01 1.839558333158493042e-01 4.757734775543212891e+00 1.482507228851318359e+00 2.715351581573486328e-01
2.298000000000000000e+03 7.247349548339843750e+01 -3.533732604980468750e+01 -1.613523960113525391e-01 6.714288234710693359e+00 1.965880751609802246e+00 3.989822864532470703e-01
2.299000000000000000e+03 7.115504455566406250e+01 -3.292441940307617188e+01 -6.344062685966491699e-01 5.509053707122802734e+00 1.462394237518310547e+00 3.264740705490112305e-01
2.300000000000000000e+03 7.284273529052734375e+01 -1.805405616760253906e+01 -1.618429541587829590e+00 1.063627147674560547e+01 2.705352544784545898e+00 1.242833614349365234e+00
2.301000000000000000e+03 7.272145843505859375e+01 -1.681096839904785156e+01 -1.040978908538818359e+00 1.221877384185791016e+01 3.353338479995727539e+00 2.501311540603637695e+00
2.302000000000000000e+03 7.182614898681640625e+01 -9.289858818054199219e+00 -3.317340612411499023e-01 8.612981796264648438e+00 2.484374523162841797e+00 -2.895463705062866211e+00
2.303000000000000000e+03 9.144692420959472656e+00 -6.389218807220458984e+00 -1.820971220731735229e-01 1.916981190443038940e-01 2.880297135561704636e-03 -1.670158803462982178e-01
2.304000000000000000e+03 1.272474288940429688e+01 -7.648290157318115234e+00 -4.961368441581726074e-02 1.991585046052932739e-01 4.486344382166862488e-02 1.462974119931459427e-02
2.305000000000000000e+03 7.094724273681640625e+01 -1.045625686645507812e+01 1.510359764099121094e+00 5.491142749786376953e+00 2.100450754165649414e+00 -3.499337196350097656e+00
2.306000000000000000e+03 7.226283264160156250e+01 -2.011021995544433594e+01 -1.159566879272460938e+00 8.185169219970703125e+00 2.107680559158325195e+00 6.753266453742980957e-01
2.307000000000000000e+03 7.188300323486328125e+01 -1.823256683349609375e+01 -9.978688359260559082e-01 8.394741058349609375e+00 2.219061613082885742e+00 1.752551078796386719e+00
2.308000000000000000e+03 7.221156311035156250e+01 -1.872030639648437500e+01 -1.266827464103698730e+00 8.834983825683593750e+00 2.270447015762329102e+00 1.318310141563415527e+00
2.309000000000000000e+03 7.514906311035156250e+01 -9.859961509704589844e+00 -9.385221004486083984e-01 1.288586139678955078e+01 3.584201812744140625e+00 1.659885883331298828e+00
2.310000000000000000e+03 7.009647369384765625e+01 -8.701354026794433594e+00 3.532746732234954834e-01 4.736481189727783203e+00 1.526926755905151367e+00 -2.393486738204956055e+00
2.311000000000000000e+03 6.941343688964843750e+01 -8.741940498352050781e+00 4.910461008548736572e-01 3.643530845642089844e+00 1.240373134613037109e+00 -2.032275199890136719e+00
2.312000000000000000e+03 1.047367286682128906e+01 -6.593027591705322266e+00 -1.658995896577835083e-01 1.990153938531875610e-01 9.934741072356700897e-03 -1.053653657436370850e-01
2.313000000000000000e+03 7.455104064941406250e+01 -8.164183616638183594e+00 -1.653193473815917969e+00 1.105848407745361328e+01 2.821587085723876953e+00 3.924269378185272217e-01
2.314000000000000000e+03 6.968133544921875000e+01 -1.046097087860107422e+01 1.304805040359497070e+00 2.617604732513427734e+00 1.176722884178161621e+00 -2.107783794403076172e+00
2.315000000000000000e+03 7.056783294677734375e+01 -1.002258300781250000e+01 1.106772303581237793e+00 4.992981910705566406e+00 1.829926252365112305e+00 -3.084204435348510742e+00
2.316000000000000000e+03 1.271843338012695312e+01 5.521856784820556641e+00 1.163070555776357651e-05 -1.638198409636970609e-05 -1.425383743480779231e-06 6.387276516761630774e-05
2.317000000000000000e+03 1.120479202270507812e+01 -6.680193901062011719e+00 -1.519801914691925049e-01 1.913456618785858154e-01 1.180963963270187378e-02 -7.806967198848724365e-02
2.318000000000000000e+03 7.135371208190917969e+00 6.956695556640625000e+00 -1.177877493319101632e-04 4.939925202052108943e-05 -2.051655064860824496e-05 1.053740998031571507e-04
2.319000000000000000e+03 8.468437194824218750e+00 5.448831558227539062e+00 5.476893420564010739e-05 2.362715531489811838e-05 2.351882721995934844e-05 -6.286343705141916871e-05
2.320000000000000000e+03 6.671456336975097656e+00 7.276877403259277344e+00 -1.513228489784523845e-04 -1.383815470035187900e-05 -4.954830365022644401e-05 -5.521951970877125859e-05
2.321000000000000000e+03 1.351497554779052734e+01 -6.975305080413818359e+00 -8.846139907836914062e-02 1.365775316953659058e-01 1.443484239280223846e-02 2.464410103857517242e-02
2.322000000000000000e+03 1.270301246643066406e+01 -6.068866729736328125e+00 -1.795992255210876465e-01 1.375120878219604492e-01 -1.262614130973815918e-02 -1.984440535306930542e-02
2.323000000000000000e+03 7.136007690429687500e+01 -1.026370429992675781e+01 9.669324159622192383e-01 7.261898994445800781e+00 2.468649387359619141e+00 -3.820184707641601562e+00
2.324000000000000000e+03 7.004496765136718750e+01 -9.667028427124023438e+00 9.005749821662902832e-01 4.136008739471435547e+00 1.510975122451782227e+00 -2.543257236480712891e+00
2.325000000000000000e+03 8.822058677673339844e+00 6.415503025054931641e+00 -6.544604548253118992e-05 6.209262937773019075e-05 -1.006026309369190130e-06 -8.697958401171490550e-05
2.326000000000000000e+03 1.120839309692382812e+01 6.535035610198974609e+00 -1.506337139289826155e-04 1.038971095113083720e-05 -4.207319943816401064e-05 1.480926493968581781e-05
2.327000000000000000e+03 8.863771438598632812e+00 -9.512118339538574219e+00 -2.102586627006530762e-02 3.604396879673004150e-01 1.018241420388221741e-01 -1.485831737518310547e-01
2.328000000000000000e+03 2.082759094238281250e+01 -1.054167556762695312e+01 5.099104046821594238e-01 -3.012598454952239990e-01 6.259516626596450806e-02 1.519080102443695068e-01
2.329000000000000000e+03 8.388871192932128906e+00 -5.849375247955322266e+00 -2.041570693254470825e-01 1.570671945810317993e-01 -1.412696111947298050e-02 -2.018892616033554077e-01
2.330000000000000000e+03 2.324402427673339844e+01 -6.708953857421875000e+00 1.274465918540954590e-01 -3.077360093593597412e-01 -5.408682674169540405e-02 -1.898606419563293457e-01
2.331000000000000000e+03 2.396529769897460938e+01 -6.724581718444824219e+00 1.611082851886749268e-01 -3.460645973682403564e-01 -5.548689514398574829e-02 -2.334491759538650513e-01
2.332000000000000000e+03 1.668290901184082031e+01 -6.431535243988037109e+00 -6.424955278635025024e-02 -2.347088232636451721e-02 -2.631612867116928101e-02 6.986835598945617676e-02
2.333000000000000000e+03 1.585762691497802734e+01 -6.379092216491699219e+00 -9.291496127843856812e-02 1.913524605333805084e-02 -2.213391475379467010e-02 6.458312273025512695e-02
2.334000000000000000e+03 1.685277366638183594e+01 -8.012478828430175781e+00 1.154309138655662537e-01 -2.992419525980949402e-02 2.565201558172702789e-02 1.060901060700416565e-01
2.335000000000000000e+03 1.842799758911132812e+01 -7.260581016540527344e+00 6.161460652947425842e-02 -1.042709350585937500e-01 -1.279689837247133255e-02 7.433217763900756836e-02
2.336000000000000000e+03 1.430138015747070312e+01 -7.055276870727539062e+00 -5.643560737371444702e-02 1.004946231842041016e-01 1.321770437061786652e-02 4.858918115496635437e-02
2.337000000000000000e+03 1.327223205566406250e+01 -1.168078708648681641e+01 4.228460788726806641e-01 3.000889420509338379e-01 2.168805003166198730e-01 1.805387139320373535e-01
2.338000000000000000e+03 7.374199676513671875e+01 -2.017163085937500000e+01 -1.478067159652709961e+00 9.783199310302734375e+00 2.491539478302001953e+00 -3.021471500396728516e-01
2.339000000000000000e+03 1.760087394714355469e+01 -7.238862037658691406e+00 4.746675491333007812e-02 -6.727140396833419800e-02 -5.941396113485097885e-03 8.366656303405761719e-02
2.340000000000000000e+03 1.835485649108886719e+01 -6.493441581726074219e+00 -2.504534274339675903e-02 -9.210328012704849243e-02 -3.514458611607551575e-02 5.893936008214950562e-02
2.341000000000000000e+03 1.054762077331542969e+01 5.630936145782470703e+00 -1.320813025813549757e-04 4.148559128225315362e-06 -3.837982148979790509e-05 -1.662937575019896030e-05
2.342000000000000000e+03 9.642388343811035156e+00 6.203197956085205078e+00 -8.639592851977795362e-05 -1.698334381217136979e-05 -3.101378388237208128e-05 -1.408426214766222984e-05
2.343000000000000000e+03 6.373360157012939453e+00 9.808664321899414062e+00 1.686137256911024451e-04 3.080176611547358334e-05 5.982464790577068925e-05 1.334296666755108163e-05
2.344000000000000000e+03 7.305250549316406250e+01 -2.093358612060546875e+01 -1.197884082794189453e+00 8.699464797973632812e+00 2.250474214553833008e+00 -3.053728258237242699e-03
2.345000000000000000e+03 2.247111701965332031e+01 -6.661902904510498047e+00 9.101357311010360718e-02 -2.567461729049682617e-01 -4.971978440880775452e-02 -1.241259872913360596e-01
2.346000000000000000e+03 1.188546180725097656e+01 9.168635368347167969e+00 1.092446036636829376e-04 6.106678483774885535e-05 5.109341873321682215e-05 -4.984737643098924309e-06
2.347000000000000000e+03 8.646891593933105469e+00 1.447284030914306641e+01 2.542985312175005674e-04 -6.416146788978949189e-05 5.704111390514299273e-05 -3.380820271559059620e-05
2.348000000000000000e+03 7.173128604888916016e+00 -8.189363479614257812e+00 -1.044588610529899597e-01 2.088340669870376587e-01 3.131255879998207092e-02 -2.656639814376831055e-01
2.349000000000000000e+03 7.458927154541015625e+01 -7.139340400695800781e+00 -1.570626854896545410e+00 1.018477821350097656e+01 2.584245443344116211e+00 3.588888645172119141e-01
2.350000000000000000e+03 7.460993194580078125e+01 -6.096344470977783203e+00 -1.417721509933471680e+00 9.362310409545898438e+00 2.383376836776733398e+00 1.613770276308059692e-01
2.351000000000000000e+03 7.511717987060546875e+01 -6.687022686004638672e+00 -1.392135977745056152e+00 9.811235427856445312e+00 2.525729656219482422e+00 6.671883463859558105e-01
2.352000000000000000e+03 2.885094451904296875e+01 -6.934453964233398438e+00 1.013313412666320801e+00 -5.345891118049621582e-01 1.436172872781753540e-01 -3.568039536476135254e-01
2.353000000000000000e+03 7.486515045166015625e+01 -1.988598251342773438e+01 -1.563965082168579102e+00 1.063371181488037109e+01 2.720923900604248047e+00 -1.190352439880371094e+00
2.354000000000000000e+03 7.393070983886718750e+01 -1.862162208557128906e+01 -1.859205484390258789e+00 1.146158790588378906e+01 2.880714893341064453e+00 -3.191300034523010254e-01
2.355000000000000000e+03 7.437129974365234375e+01 -2.014863204956054688e+01 -1.554132819175720215e+00 1.027627372741699219e+01 2.616642236709594727e+00 -7.315425872802734375e-01
2.356000000000000000e+03 6.934207153320312500e+01 -5.156215190887451172e+00 -6.730942130088806152e-01 4.527503967285156250e+00 1.156322836875915527e+00 -1.296892881393432617e+00
2.357000000000000000e+03 7.483879089355468750e+01 -1.819280052185058594e+01 -1.795760273933410645e+00 1.226761054992675781e+01 3.141555070877075195e+00 -1.462500810623168945e+00
2.358000000000000000e+03 2.579983329772949219e+01 -6.390309810638427734e+00 2.908824980258941650e-01 -4.863426387310028076e-01 -5.863804370164871216e-02 -4.196235537528991699e-01
2.359000000000000000e+03 7.283858489990234375e+01 -2.429883384704589844e+01 -6.429584026336669922e-01 7.328977108001708984e+00 2.005805730819702148e+00 -4.710554182529449463e-01
2.360000000000000000e+03 2.246591377258300781e+01 -7.607689857482910156e+00 2.715163230895996094e-01 -3.239773213863372803e-01 -1.573829725384712219e-02 -6.912820786237716675e-02
2.361000000000000000e+03 2.789058494567871094e+01 -6.554353713989257812e+00 6.702414751052856445e-01 -6.318098306655883789e-01 1.152949687093496323e-02 -5.061967372894287109e-01
2.362000000000000000e+03 2.685810470581054688e+01 -5.352818489074707031e+00 -5.643976107239723206e-02 -4.811547696590423584e-01 -1.612783521413803101e-01 -6.110663414001464844e-01
2.363000000000000000e+03 2.081527519226074219e+01 -8.206645965576171875e+00 2.553941905498504639e-01 -2.484805881977081299e-01 2.074079588055610657e-03 3.843693807721138000e-02
2.364000000000000000e+03 2.281067657470703125e+01 -1.276423358917236328e+01 6.470912098884582520e-01 -3.605562746524810791e-01 8.596047759056091309e-02 2.918044924736022949e-01
2.365000000000000000e+03 8.261980056762695312e+00 -8.521294593811035156e+00 -8.560130745172500610e-02 2.741312086582183838e-01 5.655896663665771484e-02 -2.037801146507263184e-01
2.366000000000000000e+03 1.054972743988037109e+01 2.375115585327148438e+01 -2.614404947962611914e-04 -7.611035107402130961e-05 -1.012652501231059432e-04 -1.264803286176174879e-04
2.367000000000000000e+03 6.791474819183349609e+00 2.295680618286132812e+01 2.378092176513746381e-04 8.177167183021083474e-05 9.587426757207140326e-05 5.378636342356912792e-05
2.368000000000000000e+03 7.262100219726562500e+01 1.195329093933105469e+01 1.720150858163833618e-01 5.154995918273925781e+00 1.598103284835815430e+00 -1.281308054924011230e+00
2.369000000000000000e+03 5.257991027832031250e+01 2.413431549072265625e+01 1.092790484428405762e+00 3.777888298034667969e+00 1.461203575134277344e+00 6.368722319602966309e-01
2.370000000000000000e+03 6.403830718994140625e+01 2.247587203979492188e+00 -1.250749826431274414e+00 1.946368813514709473e+00 2.086857110261917114e-01 -1.290685653686523438e+00
2.371000000000000000e+03 7.290348815917968750e+01 4.563572406768798828e+00 -2.878109514713287354e-01 6.001842021942138672e+00 1.714209318161010742e+00 -1.266617655754089355e+00
2.372000000000000000e+03 5.595862197875976562e+01 5.597209453582763672e+00 -9.647188782691955566e-01 4.398058056831359863e-01 -1.574739068746566772e-01 -5.384273529052734375e-01
2.373000000000000000e+03 4.841953659057617188e+01 1.496716976165771484e+01 1.852642059326171875e+00 3.882102012634277344e+00 1.720423221588134766e+00 1.676305294036865234e+00
2.374000000000000000e+03 4.700781250000000000e+01 1.345538425445556641e+01 1.919708609580993652e+00 4.472482204437255859e+00 1.917657256126403809e+00 2.090019464492797852e+00
2.375000000000000000e+03 6.403008460998535156e+00 1.089686489105224609e+01 -1.865134545369073749e-04 -2.586105074442457408e-05 -6.371235213009640574e-05 -4.923758297081803903e-06
2.376000000000000000e+03 1.195957565307617188e+01 -7.528923988342285156e+00 -7.074288278818130493e-02 2.123704552650451660e-01 4.248826950788497925e-02 -2.491127327084541321e-02
2.377000000000000000e+03 7.187125396728515625e+01 -3.128211402893066406e+01 -7.687518596649169922e-01 6.291421890258789062e+00 1.656800985336303711e+00 8.090373873710632324e-02
2.378000000000000000e+03 3.462977981567382812e+01 -1.336765289306640625e+01 1.202960252761840820e+00 3.406502962112426758e+00 1.382838964462280273e+00 1.103669255971908569e-01
2.379000000000000000e+03 3.563998413085937500e+01 -1.385432624816894531e+01 8.362058997154235840e-01 4.703636646270751953e+00 1.661952733993530273e+00 3.071540594100952148e-02
2.380000000000000000e+03 4.724569320678710938e+01 2.693300628662109375e+01 6.789293885231018066e-01 4.621808528900146484e+00 1.590221285820007324e+00 4.554468393325805664e-01
2.381000000000000000e+03 7.298777770996093750e+01 -2.168315696716308594e+01 -9.986067414283752441e-01 8.257912635803222656e+00 2.177791833877563477e+00 -9.716054797172546387e-02
2.382000000000000000e+03 7.365427398681640625e+01 -2.193493843078613281e+01 -1.044880151748657227e+00 8.834654808044433594e+00 2.336932420730590820e+00 -4.313881993293762207e-01
2.383000000000000000e+03 7.390883636474609375e+01 2.305849456787109375e+01 1.902067959308624268e-01 4.592766284942626953e+00 1.434891819953918457e+00 -5.599822402000427246e-01
2.384000000000000000e+03 6.986993408203125000e+01 -1.344478964805603027e+00 -1.018948674201965332e+00 5.038670539855957031e+00 1.205916523933410645e+00 -1.153701663017272949e+00
2.385000000000000000e+03 1.005098533630371094e+01 1.507415103912353516e+01 9.584832878317683935e-05 -1.206076012749690562e-05 2.513627077860292047e-05 -8.849701407598331571e-05
2.386000000000000000e+03 7.087026977539062500e+01 1.785224914550781250e+01 4.210203289985656738e-01 4.356271266937255859e+00 1.433187484741210938e+00 -1.039078474044799805e+00
2.387000000000000000e+03 7.313691711425781250e+01 5.641281604766845703e+00 -2.126845866441726685e-01 5.976348400115966797e+00 1.729099154472351074e+00 -1.279542565345764160e+00
2.388000000000000000e+03 6.979997253417968750e+01 3.912664413452148438e+00 -4.966798722743988037e-01 4.687492370605468750e+00 1.257243752479553223e+00 -1.500756978988647461e+00
2.389000000000000000e+03 6.426959037780761719e+00 -9.842074394226074219e+00 -5.256814137101173401e-02 2.132448107004165649e-01 4.820299893617630005e-02 -3.019587993621826172e-01
2.390000000000000000e+03 5.053686904907226562e+01 8.445149421691894531e+00 9.612748026847839355e-01 1.029342293739318848e+00 5.971851348876953125e-01 5.700442790985107422e-01
2.391000000000000000e+03 6.975881195068359375e+01 -4.103906631469726562e+00 -8.808864355087280273e-01 4.996747970581054688e+00 1.234758496284484863e+00 -1.181809306144714355e+00
2.392000000000000000e+03 8.897124290466308594e+00 1.843959045410156250e+01 2.582153538241982460e-04 -8.097289537545293570e-05 5.317274190019816160e-05 -5.646397039527073503e-05
2.393000000000000000e+03 8.230483055114746094e+00 1.926161575317382812e+01 7.283310696948319674e-05 1.378666784148663282e-04 6.320993998087942600e-05 1.012762586469762027e-04
2.394000000000000000e+03 7.327075958251953125e+01 6.760309696197509766e+00 -1.156422868371009827e-01 5.945362567901611328e+00 1.748916029930114746e+00 -1.288000345230102539e+00
2.395000000000000000e+03 7.194132995605468750e+01 4.845472812652587891e+00 -3.187032938003540039e-01 5.612195014953613281e+00 1.588047504425048828e+00 -1.366389155387878418e+00
2.396000000000000000e+03 6.195631790161132812e+01 3.490393400192260742e+00 -1.178433656692504883e+00 1.217050313949584961e+00 1.158497855067253113e-02 -1.161312818527221680e+00
2.397000000000000000e+03 7.085648059844970703e+00 -9.272653579711914062e+00 -6.616500765085220337e-02 2.545081079006195068e-01 5.650293081998825073e-02 -2.626040875911712646e-01
2.398000000000000000e+03 7.118300437927246094e+00 -1.220435237884521484e+01 1.383952796459197998e-01 4.648155272006988525e-01 1.809632480144500732e-01 -1.725536733865737915e-01
2.399000000000000000e+03 3.324369430541992188e+01 -1.323894119262695312e+01 1.369697809219360352e+00 1.794190764427185059e+00 9.491665363311767578e-01 3.107559978961944580e-01
2.400000000000000000e+03 7.188028717041015625e+01 1.330457973480224609e+01 2.517224848270416260e-01 4.826813697814941406e+00 1.523560881614685059e+00 -1.287183523178100586e+00
2.401000000000000000e+03 7.149151611328125000e+01 1.128112792968750000e+01 1.906398683786392212e-01 4.841946601867675781e+00 1.509775996208190918e+00 -1.403591036796569824e+00
2.402000000000000000e+03 3.676440429687500000e+01 -7.396266460418701172e+00 1.714651346206665039e+00 6.180524349212646484e+00 2.368552684783935547e+00 7.288174629211425781e-01
2.403000000000000000e+03 7.993252754211425781e+00 7.462337493896484375e+00 -1.089080687961541116e-04 -2.860915628843940794e-06 -3.353069769218564034e-05 1.240858982782810926e-04
2.404000000000000000e+03 7.415156364440917969e+00 8.998204231262207031e+00 1.673815859248861670e-04 2.075581141980364919e-05 5.644122211378999054e-05 -1.832312045735307038e-05
2.405000000000000000e+03 8.558482170104980469e+00 3.100160026550292969e+01 6.870118668302893639e-04 -9.208852134179323912e-05 1.784770138328894973e-04 -1.746823982102796435e-04
2.406000000000000000e+03 5.264013671875000000e+01 7.763096332550048828e+00 2.347635328769683838e-01 6.067659258842468262e-01 2.524588406085968018e-01 -9.017163515090942383e-02
2.407000000000000000e+03 7.338360595703125000e+01 2.000704193115234375e+01 2.474100738763809204e-01 4.696341991424560547e+00 1.483125686645507812e+00 -7.666711211204528809e-01
2.408000000000000000e+03 7.123174285888671875e+01 1.951455497741699219e+01 3.893474638462066650e-01 4.390599250793457031e+00 1.433984041213989258e+00 -9.010787010192871094e-01
2.409000000000000000e+03 5.853482437133789062e+01 5.947343826293945312e+00 -6.071255803108215332e-01 7.585682868957519531e-01 4.543280601501464844e-02 -9.020450711250305176e-01
2.410000000000000000e+03 1.115524291992187500e+01 1.142469024658203125e+01 1.706664916127920151e-04 2.949378904304467142e-05 6.004808528814464808e-05 -2.300089727214071900e-05
2.411000000000000000e+03 7.291462707519531250e+01 -3.457850217819213867e+00 -1.082071781158447266e+00 7.397059440612792969e+00 1.894496202468872070e+00 -6.380296349525451660e-01
2.412000000000000000e+03 9.082569122314453125e+00 2.616179466247558594e+01 2.686113293748348951e-04 1.289622596232220531e-04 1.192720737890340388e-04 1.963511567737441510e-05
2.413000000000000000e+03 2.775415992736816406e+01 -1.165274047851562500e+01 1.182683229446411133e+00 -4.927566349506378174e-01 2.069779634475708008e-01 4.573081433773040771e-01
2.414000000000000000e+03 2.549095344543457031e+01 -9.065502166748046875e+00 8.088023662567138672e-01 -5.726411342620849609e-01 7.084836810827255249e-02 2.357468474656343460e-03
2.415000000000000000e+03 3.678128433227539062e+01 -8.800425529479980469e+00 1.870972871780395508e+00 6.275155544281005859e+00 2.443838596343994141e+00 7.178300619125366211e-01
2.416000000000000000e+03 3.458423995971679688e+01 -9.865346908569335938e+00 1.947093844413757324e+00 3.228404283523559570e+00 1.552649497985839844e+00 3.364848196506500244e-01
2.417000000000000000e+03 1.103261661529541016e+01 1.260565280914306641e+01 -9.392169886268675327e-05 -6.514343840535730124e-05 -4.771954263560473919e-05 6.031966404407285154e-05
2.418000000000000000e+03 3.432697677612304688e+01 -4.776218891143798828e+00 6.435430645942687988e-01 2.267888307571411133e+00 8.734294176101684570e-01 3.719553351402282715e-01
2.419000000000000000e+03 4.563332366943359375e+01 5.199671268463134766e+00 -5.284165143966674805e-01 2.678616285324096680e+00 6.450599431991577148e-01 2.296967744827270508e+00
2.420000000000000000e+03 6.861654663085937500e+01 2.860526275634765625e+01 3.727093935012817383e-01 4.079073905944824219e+00 1.335535049438476562e+00 -3.205340504646301270e-01
2.421000000000000000e+03 7.284971618652343750e+01 2.131216430664062500e+01 2.685624957084655762e-01 4.563351154327392578e+00 1.449574112892150879e+00 -7.181947827339172363e-01
2.422000000000000000e+03 3.230509948730468750e+01 -1.222153663635253906e+01 1.664381265640258789e+00 1.077656626701354980e+00 8.226113319396972656e-01 4.466310441493988037e-01
2.423000000000000000e+03 6.655995178222656250e+01 3.301839828491210938e+00 -7.827085852622985840e-01 3.224250555038452148e+00 7.324626445770263672e-01 -1.544104576110839844e+00
2.424000000000000000e+03 5.033689498901367188e+01 1.308738136291503906e+01 1.946741819381713867e+00 2.532120466232299805e+00 1.343658685684204102e+00 1.194925785064697266e+00
2.425000000000000000e+03 4.770271301269531250e+01 9.582518577575683594e+00 1.776729702949523926e+00 2.685947656631469727e+00 1.338803291320800781e+00 1.738750934600830078e+00
2.426000000000000000e+03 4.790058135986328125e+01 8.344173431396484375e+00 1.401107668876647949e+00 2.141218185424804688e+00 1.062697768211364746e+00 1.559157371520996094e+00
2.427000000000000000e+03 4.810738754272460938e+01 1.812963867187500000e+01 1.385093212127685547e+00 4.591890335083007812e+00 1.793095111846923828e+00 1.456836819648742676e+00
2.428000000000000000e+03 4.932852554321289062e+01 2.082992362976074219e+01 1.197409391403198242e+00 4.304474830627441406e+00 1.650565266609191895e+00 1.056874513626098633e+00
2.429000000000000000e+03 7.208700561523437500e+01 5.878563880920410156e+00 -2.062204033136367798e-01 5.546950817108154297e+00 1.602219223976135254e+00 -1.394142508506774902e+00
2.430000000000000000e+03 5.686725616455078125e+01 7.460491657257080078e+00 -1.025984995067119598e-03 7.494286298751831055e-01 2.245208024978637695e-01 -7.295683622360229492e-01
2.431000000000000000e+03 6.715658664703369141e+00 2.551475906372070312e+01 3.578570031095296144e-04 4.331931995693594217e-05 1.203528954647481441e-04 -3.603925904371862998e-07
2.432000000000000000e+03 7.988715648651123047e+00 2.452920722961425781e+01 2.657093864399939775e-04 1.008654944598674774e-04 1.099724613595753908e-04 3.661560185719281435e-05
2.433000000000000000e+03 7.086009216308593750e+01 1.232409000396728516e+01 2.549567520618438721e-01 4.614370822906494141e+00 1.460798263549804688e+00 -1.414582252502441406e+00
2.434000000000000000e+03 4.710741424560546875e+01 -3.177444839477539062e+01 -2.846865057945251465e-01 1.877893567085266113e+00 4.779621064662933350e-01 -7.009160518646240234e-01
2.435000000000000000e+03 1.075844383239746094e+01 2.933429718017578125e+01 3.916773421224206686e-04 7.303413894987897947e-06 1.196942248498089612e-04 -3.677007407532073557e-05
2.436000000000000000e+03 8.026165962219238281e+00 2.784248161315917969e+01 -3.395785752218216658e-04 3.378836481715552509e-05 -9.173705620924010873e-05 7.428933895425871015e-05
2.437000000000000000e+03 2.499374198913574219e+01 -1.337920379638671875e+01 6.464432477951049805e-01 -3.766554892063140869e-01 8.093633502721786499e-02 4.541118741035461426e-01
2.438000000000000000e+03 1.007547760009765625e+01 1.810787582397460938e+01 -2.903618151322007179e-04 4.354817065177485347e-05 -7.404409552691504359e-05 -1.418989813828375190e-05
2.439000000000000000e+03 7.140885162353515625e+01 2.124591064453125000e+01 3.652650415897369385e-01 4.373519420623779297e+00 1.421635389328002930e+00 -7.676538825035095215e-01
2.440000000000000000e+03 1.130892276763916016e+01 3.632067871093750000e+01 -6.180583150126039982e-04 -2.390489389654248953e-04 -2.571321674622595310e-04 -7.972146268002688885e-04
2.441000000000000000e+03 7.558758735656738281e+00 3.311817932128906250e+01 6.327736191451549530e-04 -5.066052472102455795e-05 1.746339257806539536e-04 -7.757678395137190819e-05
2.442000000000000000e+03 4.026760482788085938e+01 -2.590000534057617188e+01 4.935436844825744629e-01 4.967381477355957031e+00 1.638277649879455566e+00 -1.580175906419754028e-01
2.443000000000000000e+03 7.151445007324218750e+01 2.180660963058471680e+00 -6.239967942237854004e-01 5.680528163909912109e+00 1.516959428787231445e+00 -1.249388694763183594e+00
2.444000000000000000e+03 4.724591064453125000e+01 1.605596351623535156e+01 1.598513960838317871e+00 4.756127357482910156e+00 1.906392335891723633e+00 1.811544895172119141e+00
2.445000000000000000e+03 4.994351196289062500e+01 1.875416564941406250e+01 1.493176221847534180e+00 3.879823207855224609e+00 1.611899852752685547e+00 1.174603819847106934e+00
2.446000000000000000e+03 7.429841613769531250e+01 -3.004472923278808594e+01 -4.635018408298492432e-01 8.320862770080566406e+00 2.357208490371704102e+00 -1.854999810457229614e-01
2.447000000000000000e+03 6.938675880432128906e+00 3.014623069763183594e+01 6.155470036901533604e-04 -1.784460037015378475e-04 1.311302912654355168e-04 1.245673047378659248e-04
2.448000000000000000e+03 6.914354324340820312e+00 2.795664978027343750e+01 5.334434099495410919e-04 -4.727386840386316180e-05 1.458508631912991405e-04 4.340765372035093606e-05
2.449000000000000000e+03 7.021021270751953125e+01 2.721472549438476562e+01 3.332772254943847656e-01 4.171473026275634766e+00 1.351425170898437500e+00 -4.047965109348297119e-01
2.450000000000000000e+03 1.037854576110839844e+01 1.946965599060058594e+01 2.965982712339609861e-04 1.117589636123739183e-05 9.233225136995315552e-05 4.579852429742459208e-06
2.451000000000000000e+03 2.502980422973632812e+01 -1.147646903991699219e+01 8.424116969108581543e-01 -5.110560655593872070e-01 9.940667450428009033e-02 2.881899178028106689e-01
2.452000000000000000e+03 1.570331096649169922e+01 -1.277626323699951172e+01 6.430127620697021484e-01 4.545712843537330627e-02 2.065409570932388306e-01 2.070328444242477417e-01
2.453000000000000000e+03 1.649185180664062500e+01 -1.205484867095947266e+01 5.396376252174377441e-01 -2.033802866935729980e-02 1.557898819446563721e-01 1.915054768323898315e-01
2.454000000000000000e+03 3.160838890075683594e+01 -7.566450595855712891e+00 1.641603827476501465e+00 4.111381173133850098e-01 6.158225536346435547e-01 2.212670072913169861e-02
2.455000000000000000e+03 7.797060966491699219e+00 2.682177162170410156e+01 5.047651939094066620e-04 -2.404529368504881859e-05 1.442159700673073530e-04 -8.580730354879051447e-05
2.456000000000000000e+03 6.993567657470703125e+01 3.003788375854492188e+01 2.735751271247863770e-01 4.163662433624267578e+00 1.331171154975891113e+00 -2.700496315956115723e-01
2.457000000000000000e+03 4.825327301025390625e+01 1.629890823364257812e+01 1.669912099838256836e+00 4.209381580352783203e+00 1.763788104057312012e+00 1.632236361503601074e+00
2.458000000000000000e+03 7.035507202148437500e+01 3.322037124633789062e+01 1.855787336826324463e-01 4.187408924102783203e+00 1.311896324157714844e+00 -1.500837504863739014e-01
2.459000000000000000e+03 1.066585254669189453e+01 3.163454818725585938e+01 7.738471613265573978e-04 -2.118848206009715796e-04 1.685886963969096541e-04 -2.570437500253319740e-04
2.460000000000000000e+03 1.674373054504394531e+01 4.113745498657226562e+01 -1.635533408261835575e-03 7.193196215666830540e-04 -2.748641418293118477e-04 -1.594415662111714482e-04
2.461000000000000000e+03 7.231992340087890625e+01 -9.708230018615722656e+00 -4.592207670211791992e-01 1.012636566162109375e+01 2.900143384933471680e+00 -2.978762865066528320e+00
2.462000000000000000e+03 7.021852874755859375e+01 -8.031952857971191406e+00 -6.399168074131011963e-02 5.205704689025878906e+00 1.542513847351074219e+00 -2.175721645355224609e+00
2.463000000000000000e+03 7.032977294921875000e+01 -9.204709053039550781e+00 5.536332726478576660e-01 4.894706726074218750e+00 1.634502053260803223e+00 -2.614648818969726562e+00
2.464000000000000000e+03 9.771023750305175781e+00 -6.487417697906494141e+00 -1.783389896154403687e-01 1.928192824125289917e-01 4.344087559729814529e-03 -1.403821408748626709e-01
2.465000000000000000e+03 7.283483886718750000e+01 -9.622662544250488281e+00 -9.632080197334289551e-01 1.126382350921630859e+01 3.090184688568115234e+00 -2.388217449188232422e+00
2.466000000000000000e+03 7.411843109130859375e+01 -7.598691940307617188e+00 -1.643474817276000977e+00 1.043977546691894531e+01 2.638890027999877930e+00 -1.504847556352615356e-01
2.467000000000000000e+03 7.224114227294921875e+01 -9.179891586303710938e+00 -7.155463099479675293e-01 9.546796798706054688e+00 2.649375200271606445e+00 -2.601368904113769531e+00
2.468000000000000000e+03 7.407464599609375000e+01 -9.808069229125976562e+00 -1.432938575744628906e+00 1.355115222930908203e+01 3.635464191436767578e+00 -2.680806517601013184e-01
2.469000000000000000e+03 7.134079742431640625e+01 -1.076443767547607422e+01 1.762255787849426270e+00 6.536742687225341797e+00 2.489699602127075195e+00 -4.124989032745361328e+00
2.470000000000000000e+03 7.288361358642578125e+01 -4.882688045501708984e+00 -1.228833198547363281e+00 7.837791919708251953e+00 1.982687592506408691e+00 -7.025970816612243652e-01
2.471000000000000000e+03 7.410914611816406250e+01 -6.583374977111816406e+00 -1.497609138488769531e+00 9.511994361877441406e+00 2.404315471649169922e+00 -1.171759888529777527e-01
2.472000000000000000e+03 7.303359222412109375e+01 -2.013739967346191406e+01 -1.375537276268005371e+00 9.157791137695312500e+00 2.334676265716552734e+00 1.478423178195953369e-01
2.473000000000000000e+03 1.119039249420166016e+01 -7.473793029785156250e+00 -1.030932292342185974e-01 2.366409450769424438e-01 4.006431251764297485e-02 -5.668075010180473328e-02
2.474000000000000000e+03 7.301062011718750000e+01 -1.934127807617187500e+01 -1.555154800415039062e+00 9.708612442016601562e+00 2.446037292480468750e+00 4.273657798767089844e-01
2.475000000000000000e+03 1.247003555297851562e+01 6.873863220214843750e+00 -7.614507921971380711e-05 1.481329763919347897e-05 -1.839953620219603181e-05 6.485550693469122052e-05
2.476000000000000000e+03 7.304343700408935547e+00 7.525809288024902344e+00 1.881030475487932563e-04 -2.158819916076026857e-05 4.995445488020777702e-05 -8.411883027292788029e-05
2.477000000000000000e+03 1.273475551605224609e+01 -6.863934040069580078e+00 -1.077415347099304199e-01 1.604176759719848633e-01 1.580284349620342255e-02 -6.274360232055187225e-03
2.478000000000000000e+03 8.586811065673828125e+00 5.994782924652099609e+00 -2.338568083359859884e-05 -5.153481833986006677e-05 -2.247614975203759968e-05 9.544037311570718884e-05
2.479000000000000000e+03 8.672767639160156250e+00 7.222667694091796875e+00 2.552565774749382399e-06 4.116355194128118455e-05 1.311483538302127272e-05 -1.187074740300886333e-04
2.480000000000000000e+03 1.352389049530029297e+01 -7.837967395782470703e+00 -2.186587080359458923e-03 1.589654535055160522e-01 4.703366383910179138e-02 4.728237912058830261e-02
2.481000000000000000e+03 8.607436180114746094e+00 -6.472595691680908203e+00 -1.761543303728103638e-01 1.863756626844406128e-01 3.066397504881024361e-03 -1.922191083431243896e-01
2.482000000000000000e+03 8.054039955139160156e+00 -6.761105060577392578e+00 -1.709809005260467529e-01 1.805467456579208374e-01 2.869755961000919342e-03 -2.260628193616867065e-01
2.483000000000000000e+03 1.593733787536621094e+01 -7.163870811462402344e+00 -5.385465337894856930e-04 1.708879508078098297e-02 4.965074360370635986e-03 8.359131962060928345e-02
2.484000000000000000e+03 7.060251617431640625e+01 -8.773420333862304688e+00 1.802130341529846191e-01 5.835633277893066406e+00 1.804753899574279785e+00 -2.630012750625610352e+00
2.485000000000000000e+03 7.306703186035156250e+01 -1.749866294860839844e+01 -1.599541306495666504e+00 1.187244892120361328e+01 3.081872224807739258e+00 1.277253389358520508e+00
2.486000000000000000e+03 1.395376777648925781e+01 -9.132718086242675781e+00 1.374564319849014282e-01 1.711323857307434082e-01 9.257664531469345093e-02 1.040102764964103699e-01
2.487000000000000000e+03 1.517119979858398438e+01 -7.874857902526855469e+00 5.536302551627159119e-02 7.429839670658111572e-02 3.889842331409454346e-02 9.747717529535293579e-02
2.488000000000000000e+03 1.081433582305908203e+01 8.526986122131347656e+00 1.128099829657003284e-04 -2.151453554688487202e-05 2.738863440754357725e-05 -3.303956691524945199e-05
2.489000000000000000e+03 1.925147628784179688e+01 -7.288208007812500000e+00 9.136214107275009155e-02 -1.450365036725997925e-01 -1.610230840742588043e-02 5.549358949065208435e-02
2.490000000000000000e+03 9.002333641052246094e+00 -6.920103549957275391e+00 -1.599060893058776855e-01 2.121540755033493042e-01 1.567439548671245575e-02 -1.767710000276565552e-01
2.491000000000000000e+03 1.435449218750000000e+01 -7.907728195190429688e+00 1.979634165763854980e-02 1.288756430149078369e-01 4.460159689188003540e-02 7.391843944787979126e-02
2.492000000000000000e+03 2.086607170104980469e+01 -7.392485618591308594e+00 1.546450704336166382e-01 -2.225640714168548584e-01 -2.037570066750049591e-02 9.472796809859573841e-04
2.493000000000000000e+03 7.210355377197265625e+01 -1.710272216796875000e+01 -5.711778402328491211e-01 9.518208503723144531e+00 2.684109210968017578e+00 2.723042011260986328e+00
2.494000000000000000e+03 7.226821899414062500e+01 -1.782016181945800781e+01 -1.169563770294189453e+00 9.553952217102050781e+00 2.515316486358642578e+00 1.891319274902343750e+00
2.495000000000000000e+03 1.034922313690185547e+01 6.473252296447753906e+00 1.263570884475484490e-04 2.009152558457572013e-05 4.393458584672771394e-05 4.835392974200658500e-05
2.496000000000000000e+03 7.922053337097167969e+00 -7.816910266876220703e+00 -1.266831308603286743e-01 2.291698902845382690e-01 3.074602782726287842e-02 -2.267911583185195923e-01
2.497000000000000000e+03 7.401344299316406250e+01 -8.620973587036132812e+00 -1.660068035125732422e+00 1.154001617431640625e+01 2.963984489440917969e+00 -2.961499989032745361e-01
2.498000000000000000e+03 2.331702613830566406e+01 -7.718320846557617188e+00 3.553634583950042725e-01 -3.902792036533355713e-01 -1.047472376376390457e-02 -1.157809048891067505e-01
2.499000000000000000e+03 1.927295112609863281e+01 -8.060633659362792969e+00 1.782504022121429443e-01 -1.612743884325027466e-01 5.092802457511425018e-03 7.884952425956726074e-02
2.500000000000000000e+03 1.926859283447265625e+01 -8.829173088073730469e+00 2.808764874935150146e-01 -1.819134801626205444e-01 2.968890219926834106e-02 1.021599844098091125e-01
2.501000000000000000e+03 1.852277374267578125e+01 -8.807236671447753906e+00 2.391061931848526001e-01 -1.303468346595764160e-01 3.262780606746673584e-02 1.171974018216133118e-01
2.502000000000000000e+03 1.629565620422363281e+01 -1.074257659912109375e+01 3.950182199478149414e-01 2.215248532593250275e-03 1.191700398921966553e-01 1.758035421371459961e-01
2.503000000000000000e+03 1.143451404571533203e+01 7.349428653717041016e+00 1.504615356680005789e-04 -4.508976053330115974e-05 3.161153654218651354e-05 -4.026230089948512614e-05
2.504000000000000000e+03 1.091953754425048828e+01 9.236293792724609375e+00 -8.535348752047866583e-05 -8.356550097232684493e-05 -5.067569509265013039e-05 4.799176167580299079e-05
2.505000000000000000e+03 9.306638717651367188e+00 2.350065994262695312e+01 2.513888757675886154e-04 1.109949953388422728e-04 1.087151613319292665e-04 9.736022184370085597e-05
2.506000000000000000e+03 2.067950439453125000e+01 -1.155187892913818359e+01 5.433355569839477539e-01 -2.819870710372924805e-01 7.840454578399658203e-02 1.980028003454208374e-01
2.507000000000000000e+03 2.176263427734375000e+01 -1.163930320739746094e+01 6.050590872764587402e-01 -3.432835936546325684e-01 7.853264361619949341e-02 2.103111147880554199e-01
2.508000000000000000e+03 5.625507354736328125e+01 9.390204429626464844e+00 6.822901368141174316e-01 1.022215008735656738e+00 5.113515257835388184e-01 -5.429434180259704590e-01
2.509000000000000000e+03 3.313600921630859375e+01 -1.235079669952392578e+01 1.649636507034301758e+00 1.706298828125000000e+00 1.006780624389648438e+00 3.391883671283721924e-01
2.510000000000000000e+03 3.228368759155273438e+01 -8.469189643859863281e+00 1.872396111488342285e+00 9.229321479797363281e-01 8.385984897613525391e-01 2.194128334522247314e-01
2.511000000000000000e+03 2.356097030639648438e+01 -1.017987155914306641e+01 6.710513830184936523e-01 -4.627936482429504395e-01 6.247732043266296387e-02 1.282604485750198364e-01
2.512000000000000000e+03 1.178113079071044922e+01 8.191076278686523438e+00 -1.528337743366137147e-04 9.873841918306425214e-06 -4.288797936169430614e-05 1.344179327134042978e-05
2.513000000000000000e+03 1.165783405303955078e+01 1.027616596221923828e+01 -1.193431889987550676e-04 -4.758604336529970169e-05 -5.007876825402490795e-05 -6.118032615631818771e-06
2.514000000000000000e+03 5.594381332397460938e+00 7.560729980468750000e+00 -1.599650277057662606e-04 -2.411310561001300812e-05 -5.522343781194649637e-05 -4.720793731394223869e-05
2.515000000000000000e+03 2.076191520690917969e+01 -9.677638053894042969e+00 4.195060431957244873e-01 -2.872107028961181641e-01 3.968859463930130005e-02 1.073570400476455688e-01
2.516000000000000000e+03 2.406361007690429688e+01 -1.175205707550048828e+01 7.606844902038574219e-01 -4.581327736377716064e-01 9.076552093029022217e-02 2.849603295326232910e-01
2.517000000000000000e+03 2.541328430175781250e+01 -7.463022708892822266e+00 5.229840278625488281e-01 -5.346196889877319336e-01 -3.490692004561424255e-03 -2.689431309700012207e-01
2.518000000000000000e+03 2.464193344116210938e+01 -6.943973541259765625e+00 3.046999573707580566e-01 -4.300877749919891357e-01 -3.761633858084678650e-02 -2.769242823123931885e-01
2.519000000000000000e+03 1.167538547515869141e+01 -1.067719745635986328e+01 2.143369168043136597e-01 3.899497687816619873e-01 1.812860071659088135e-01 9.441915154457092285e-02
2.520000000000000000e+03 1.274891662597656250e+01 -1.065754604339599609e+01 2.872977554798126221e-01 3.156439960002899170e-01 1.808825284242630005e-01 1.386469155550003052e-01
2.521000000000000000e+03 4.928985214233398438e+01 1.330909824371337891e+01 2.001745462417602539e+00 3.019399404525756836e+00 1.506343483924865723e+00 1.498620867729187012e+00
2.522000000000000000e+03 1.811897659301757812e+01 -1.192486095428466797e+01 5.353741049766540527e-01 -1.335502564907073975e-01 1.205471530556678772e-01 1.830263733863830566e-01
2.523000000000000000e+03 1.960938072204589844e+01 -1.137104129791259766e+01 5.171218514442443848e-01 -2.254270166158676147e-01 8.750844746828079224e-02 1.746555268764495850e-01
2.524000000000000000e+03 1.420520973205566406e+01 -1.117776298522949219e+01 4.056363403797149658e-01 1.999327242374420166e-01 1.816707104444503784e-01 1.928411573171615601e-01
2.525000000000000000e+03 1.250618934631347656e+01 -9.646929740905761719e+00 1.165743917226791382e-01 2.968922257423400879e-01 1.240399852395057678e-01 7.305812835693359375e-02
2.526000000000000000e+03 6.996056365966796875e+01 -6.318701744079589844e+00 -5.578383803367614746e-01 5.129254341125488281e+00 1.371424794197082520e+00 -1.583954691886901855e+00
2.527000000000000000e+03 7.217459869384765625e+01 -4.218430995941162109e+00 -1.141196846961975098e+00 7.087845325469970703e+00 1.783994436264038086e+00 -8.830778598785400391e-01
2.528000000000000000e+03 3.084021186828613281e+01 -1.031230545043945312e+01 1.784074068069458008e+00 2.173612266778945923e-01 6.004305481910705566e-01 3.235784471035003662e-01
2.529000000000000000e+03 6.754446411132812500e+01 2.624907493591308594e+00 -8.375583291053771973e-01 3.671008825302124023e+00 8.500351309776306152e-01 -1.513222455978393555e+00
2.530000000000000000e+03 7.334001541137695312e+00 8.177312850952148438e+00 -1.810394751373678446e-04 -4.854964572587050498e-06 -5.576833063969388604e-05 3.937377914553508162e-05
2.531000000000000000e+03 7.265251922607421875e+01 -1.862041234970092773e+00 -9.028517603874206543e-01 6.821502208709716797e+00 1.775595188140869141e+00 -7.787082195281982422e-01
2.532000000000000000e+03 3.423133850097656250e+01 -9.123540878295898438e+00 1.970398783683776855e+00 2.947727441787719727e+00 1.475437879562377930e+00 2.979515194892883301e-01
2.533000000000000000e+03 9.712347984313964844e+00 3.024809074401855469e+01 -1.162953049060888588e-04 -1.161236941698007286e-04 -6.972569826757535338e-05 2.712613240873906761e-05
2.534000000000000000e+03 8.790411949157714844e+00 -1.177779579162597656e+01 1.979002803564071655e-01 5.295296311378479004e-01 2.182289659976959229e-01 -4.795817658305168152e-02
2.535000000000000000e+03 6.495272064208984375e+01 2.795409917831420898e+00 -1.061936736106872559e+00 2.379169702529907227e+00 3.951698839664459229e-01 -1.433664917945861816e+00
2.536000000000000000e+03 6.399463653564453125e+01 1.098369121551513672e+00 -1.550101518630981445e+00 1.773735642433166504e+00 6.709021329879760742e-02 -1.109458684921264648e+00
2.537000000000000000e+03 7.623149394989013672e+00 -8.770013809204101562e+00 -8.809097111225128174e-02 2.613568007946014404e-01 5.197975039482116699e-02 -2.466852366924285889e-01
2.538000000000000000e+03 9.721405029296875000e+00 -9.916672706604003906e+00 5.412920191884040833e-02 3.979752957820892334e-01 1.356313526630401611e-01 -6.644770503044128418e-02
2.539000000000000000e+03 6.997263336181640625e+01 1.146656894683837891e+01 2.430615425109863281e-01 4.391129970550537109e+00 1.390257477760314941e+00 -1.500201821327209473e+00
2.540000000000000000e+03 7.213753509521484375e+01 8.942967414855957031e+00 7.074108347296714783e-03 5.308785915374755859e+00 1.594758033752441406e+00 -1.410593271255493164e+00
2.541000000000000000e+03 6.952616882324218750e+01 1.831820869445800781e+01 5.293048024177551270e-01 4.085420131683349609e+00 1.384417533874511719e+00 -1.015003800392150879e+00
2.542000000000000000e+03 7.083106231689453125e+01 1.428876209259033203e+01 3.511390686035156250e-01 4.486515045166015625e+00 1.451296210289001465e+00 -1.294697284698486328e+00
2.543000000000000000e+03 2.488689994812011719e+01 -9.914798736572265625e+00 7.925655245780944824e-01 -5.343291163444519043e-01 7.747093588113784790e-02 9.988590329885482788e-02
2.544000000000000000e+03 2.665251350402832031e+01 -1.132981777191162109e+01 1.096210360527038574e+00 -5.389326810836791992e-01 1.671832948923110962e-01 3.681242763996124268e-01
2.545000000000000000e+03 2.876449394226074219e+01 -1.202051162719726562e+01 1.308169722557067871e+00 -3.833121657371520996e-01 2.774572968482971191e-01 5.759754776954650879e-01
2.546000000000000000e+03 6.095294570922851562e+01 5.605475902557373047e+00 -5.792459845542907715e-01 1.235927343368530273e+00 1.970044225454330444e-01 -1.210162043571472168e+00
2.547000000000000000e+03 6.304647064208984375e+01 3.381904840469360352e+00 -1.058556318283081055e+00 1.665683388710021973e+00 1.821381300687789917e-01 -1.316762089729309082e+00
2.548000000000000000e+03 3.524781417846679688e+01 -1.109767150878906250e+01 1.805357217788696289e+00 4.224890708923339844e+00 1.809074401855468750e+00 3.650428652763366699e-01
2.549000000000000000e+03 1.007376766204833984e+01 1.320170021057128906e+01 -8.266262011602520943e-05 3.952451515942811966e-05 -1.294143203267594799e-05 -4.208755490253679454e-05
2.550000000000000000e+03 7.529435634613037109e+00 9.983923912048339844e+00 -1.625650766072794795e-04 -2.607437272672541440e-05 -5.659183443640358746e-05 1.231970509252278134e-05
2.551000000000000000e+03 6.900099182128906250e+01 1.377395820617675781e+01 4.535300433635711670e-01 4.020834445953369141e+00 1.342309355735778809e+00 -1.376431703567504883e+00
2.552000000000000000e+03 7.592827320098876953e+00 1.336413955688476562e+01 2.572792873252183199e-04 -3.924471457139588892e-05 6.541037146234884858e-05 -1.359047473670216277e-05
2.553000000000000000e+03 7.631853103637695312e+00 1.108284473419189453e+01 1.711300865281373262e-04 3.538484816090203822e-05 6.195448077050969005e-05 -1.806894215405918658e-05
2.554000000000000000e+03 6.937239074707031250e+01 1.370941758155822754e+00 -8.596946597099304199e-01 4.623641490936279297e+00 1.129184007644653320e+00 -1.347376465797424316e+00
2.555000000000000000e+03 7.119464874267578125e+01 5.630793094635009766e+00 -2.624623477458953857e-01 5.190385341644287109e+00 1.478376865386962891e+00 -1.472957968711853027e+00
2.556000000000000000e+03 6.884854316711425781e+00 2.026165390014648438e+01 1.923688978422433138e-04 7.308252679649740458e-05 7.963542884681373835e-05 9.272781608160585165e-05
2.557000000000000000e+03 7.684567451477050781e+00 -9.827422142028808594e+00 -3.192299604415893555e-02 3.316651582717895508e-01 8.992264419794082642e-02 -2.181206494569778442e-01
2.558000000000000000e+03 8.434644699096679688e+00 -1.033885860443115234e+01 4.004834964871406555e-02 4.081605374813079834e-01 1.344626694917678833e-01 -1.426646858453750610e-01
2.559000000000000000e+03 8.333782196044921875e+00 1.720630645751953125e+01 -2.565312606748193502e-04 4.861456545768305659e-05 -6.237500929273664951e-05 -1.477347541367635131e-05
2.560000000000000000e+03 8.080566406250000000e+00 2.188328933715820312e+01 2.019698149524629116e-04 9.963973570847883821e-05 9.048286301549524069e-05 7.725320756435394287e-05
2.561000000000000000e+03 3.337824249267578125e+01 -7.967880725860595703e+00 1.912892341613769531e+00 1.946179270744323730e+00 1.157721519470214844e+00 3.344027996063232422e-01
2.562000000000000000e+03 9.064135551452636719e+00 7.813657283782958984e+00 -2.733210385486017913e-05 -1.995360253204125911e-05 -1.418571173417149112e-05 9.568645327817648649e-05
2.563000000000000000e+03 4.152287292480468750e+01 -2.932727241516113281e+01 -3.184162452816963196e-02 4.013533592224121094e+00 1.194507479667663574e+00 -6.626503467559814453e-01
2.564000000000000000e+03 1.780973625183105469e+01 -9.645646095275878906e+00 3.151133954524993896e-01 -1.008656546473503113e-01 6.427431851625442505e-02 1.493431776762008667e-01
2.565000000000000000e+03 5.161650466918945312e+01 8.062249183654785156e+00 5.931600332260131836e-01 7.598566412925720215e-01 4.059050083160400391e-01 1.949304044246673584e-01
2.566000000000000000e+03 5.728929519653320312e+01 9.913416862487792969e+00 7.403870820999145508e-01 1.174013614654541016e+00 5.743201971054077148e-01 -6.927409172058105469e-01
2.567000000000000000e+03 9.843789100646972656e+00 9.926510810852050781e+00 -8.315256127389147878e-05 -1.163921551778912544e-04 -5.986341420793905854e-05 6.637955084443092346e-05
2.568000000000000000e+03 4.817609786987304688e+01 1.342378330230712891e+01 1.993394732475280762e+00 3.634306907653808594e+00 1.688310503959655762e+00 1.821419477462768555e+00
2.569000000000000000e+03 4.895482635498046875e+01 1.183558273315429688e+01 1.984773278236389160e+00 2.690202951431274414e+00 1.402492880821228027e+00 1.551812291145324707e+00
2.570000000000000000e+03 3.032078933715820312e+01 -1.150093173980712891e+01 1.695688605308532715e+00 3.086177259683609009e-02 5.179651379585266113e-01 4.436111152172088623e-01
2.571000000000000000e+03 3.255370330810546875e+01 -1.119037532806396484e+01 1.871210932731628418e+00 1.301349163055419922e+00 9.517680406570434570e-01 3.771873116493225098e-01
2.572000000000000000e+03 5.749841308593750000e+01 6.230882167816162109e+00 -5.601928234100341797e-01 6.337504982948303223e-01 2.206730283796787262e-02 -7.737825512886047363e-01
2.573000000000000000e+03 5.790876770019531250e+01 7.396316528320312500e+00 -3.795969858765602112e-02 8.678194880485534668e-01 2.489579319953918457e-01 -8.683081865310668945e-01
2.574000000000000000e+03 9.281675338745117188e+00 1.953639221191406250e+01 -2.148067724192515016e-04 -4.161984543316066265e-05 -7.692798681091517210e-05 -8.814801731205079705e-06
2.575000000000000000e+03 7.000741577148437500e+01 1.313736915588378906e+01 3.536497652530670166e-01 4.313984394073486328e+00 1.400290250778198242e+00 -1.406468868255615234e+00
2.576000000000000000e+03 5.385306167602539062e+01 8.106084823608398438e+00 3.071435093879699707e-01 6.728012561798095703e-01 2.939834296703338623e-01 -2.477640509605407715e-01
2.577000000000000000e+03 1.091892910003662109e+01 -9.508257865905761719e+00 6.364037096500396729e-02 3.524056673049926758e-01 1.248138174414634705e-01 -7.281864527612924576e-03
2.578000000000000000e+03 9.788400650024414062e+00 2.808303260803222656e+01 3.450184522080235183e-05 4.740157601190730929e-05 2.457102709740865976e-05 4.899709892924875021e-05
2.579000000000000000e+03 4.908855819702148438e+01 7.092030048370361328e+00 5.411535501480102539e-01 1.007634639739990234e+00 4.646364450454711914e-01 8.245661854743957520e-01
2.580000000000000000e+03 8.612165451049804688e+00 1.350654125213623047e+01 -2.730459964368492365e-04 6.173719884827733040e-05 -6.339263927657157183e-05 -1.809121567930560559e-05
2.581000000000000000e+03 6.965115356445312500e+01 1.991983032226562500e+01 5.112817287445068359e-01 4.113344669342041016e+00 1.387387871742248535e+00 -8.856773376464843750e-01
2.582000000000000000e+03 3.147566223144531250e+01 -9.289131164550781250e+00 1.897544145584106445e+00 5.044176578521728516e-01 7.205885648727416992e-01 2.424630075693130493e-01
2.583000000000000000e+03 7.072267913818359375e+01 2.478349685668945312e+01 3.602171838283538818e-01 4.219226360321044922e+00 1.373833060264587402e+00 -5.404400825500488281e-01
2.584000000000000000e+03 7.012656402587890625e+01 2.331214332580566406e+01 4.280487000942230225e-01 4.172319412231445312e+00 1.380110502243041992e+00 -6.515815854072570801e-01
2.585000000000000000e+03 5.120316314697265625e+01 6.808581352233886719e+00 -6.995645910501480103e-02 5.265232920646667480e-01 1.369700431823730469e-01 6.212005764245986938e-02
2.586000000000000000e+03 9.007682800292968750e+00 1.120934677124023438e+01 -1.693299418548122048e-04 -2.476140434737317264e-05 -5.822740422445349395e-05 4.731036460725590587e-05
2.587000000000000000e+03 2.321053314208984375e+01 -8.781726837158203125e+00 5.101363658905029297e-01 -4.267009198665618896e-01 2.503064647316932678e-02 -7.677531335502862930e-03
2.588000000000000000e+03 4.855177688598632812e+01 1.043822669982910156e+01 1.861961722373962402e+00 2.459308147430419922e+00 1.296380877494812012e+00 1.529732227325439453e+00
2.589000000000000000e+03 6.918111419677734375e+01 1.690180969238281250e+01 5.402740240097045898e-01 4.028545856475830078e+00 1.370645999908447266e+00 -1.147667050361633301e+00
2.590000000000000000e+03 6.972203826904296875e+01 1.501342391967773438e+01 4.517390429973602295e-01 4.187302589416503906e+00 1.391712546348571777e+00 -1.281971216201782227e+00
2.591000000000000000e+03 7.162526702880859375e+01 -1.118218779563903809e+00 -9.315586686134338379e-01 6.099810600280761719e+00 1.550475597381591797e+00 -1.003360152244567871e+00
2.592000000000000000e+03 7.045770263671875000e+01 1.055695629119873047e+01 1.864818483591079712e-01 4.597056388854980469e+00 1.435061573982238770e+00 -1.494950056076049805e+00
2.593000000000000000e+03 7.093222808837890625e+01 9.630592346191406250e+00 1.074092909693717957e-01 4.755560398101806641e+00 1.458890914916992188e+00 -1.497523665428161621e+00
2.594000000000000000e+03 2.429013824462890625e+01 -1.076914215087890625e+01 7.457743287086486816e-01 -4.906974136829376221e-01 7.652307301759719849e-02 1.882362812757492065e-01
2.595000000000000000e+03 5.031096267700195312e+01 1.653146934509277344e+01 1.764853000640869141e+00 3.411890268325805664e+00 1.553022980690002441e+00 1.241422295570373535e+00
2.596000000000000000e+03 5.017558670043945312e+01 7.062142848968505859e+00 3.310583531856536865e-01 6.295689344406127930e-01 2.881881892681121826e-01 3.875383734703063965e-01
2.597000000000000000e+03 4.958751678466796875e+01 1.009604644775390625e+01 1.660000324249267578e+00 1.899221897125244141e+00 1.067766666412353516e+00 1.182928442955017090e+00
2.598000000000000000e+03 8.111763954162597656e+00 2.055118179321289062e+01 -1.498983183410018682e-04 -8.872058242559432983e-05 -7.158567314036190510e-05 -9.066943312063813210e-05
2.599000000000000000e+03 9.322848320007324219e+00 2.212094306945800781e+01 -1.980178785743191838e-04 -7.501657091779634356e-05 -8.191032975446432829e-05 -7.706348696956411004e-05
2.600000000000000000e+03 4.078583145141601562e+01 -3.083532524108886719e+01 -3.315288722515106201e-01 4.068676471710205078e+00 1.121144294738769531e+00 -6.160774827003479004e-01
2.601000000000000000e+03 6.692830657958984375e+01 1.457458019256591797e+00 -1.054048418998718262e+00 3.335374832153320312e+00 6.843979358673095703e-01 -1.382783651351928711e+00
2.602000000000000000e+03 6.797048950195312500e+01 8.793102502822875977e-01 -1.020011663436889648e+00 3.880606651306152344e+00 8.581784963607788086e-01 -1.360180616378784180e+00
2.603000000000000000e+03 6.916169738769531250e+01 3.562416839599609375e+01 1.477999091148376465e-01 4.185544013977050781e+00 1.300003290176391602e+00 -9.134174138307571411e-02
2.604000000000000000e+03 4.936417388916015625e+01 2.439759063720703125e+01 9.052178263664245605e-01 4.350474834442138672e+00 1.576707839965820312e+00 7.144418954849243164e-01
2.605000000000000000e+03 4.997797012329101562e+01 2.598397636413574219e+01 8.374913930892944336e-01 4.230194091796875000e+00 1.520305633544921875e+00 6.240062713623046875e-01
2.606000000000000000e+03 9.394812583923339844e+00 1.405069351196289062e+01 -2.934225449280347675e-06 8.594432074460200965e-06 1.698062078503426164e-06 6.858165579615160823e-05
2.607000000000000000e+03 4.904157257080078125e+01 -3.355126953125000000e+01 -3.696382343769073486e-01 1.464128494262695312e+00 3.283470571041107178e-01 -6.325617432594299316e-01
2.608000000000000000e+03 1.210949420928955078e+01 3.882275390625000000e+01 -1.855395239545032382e-04 3.774315409827977419e-04 5.756760219810530543e-05 -2.080397971440106630e-04
2.609000000000000000e+03 4.966355895996093750e+01 1.490228748321533203e+01 1.896433949470520020e+00 3.292937517166137695e+00 1.556811451911926270e+00 1.430548310279846191e+00
2.610000000000000000e+03 5.030238342285156250e+01 -3.295474624633789062e+01 -4.071177542209625244e-01 1.034397482872009277e+00 1.881839185953140259e-01 -4.477077424526214600e-01
2.611000000000000000e+03 4.857260131835937500e+01 -3.230332946777343750e+01 -2.999404966831207275e-01 1.457980513572692871e+00 3.474119901657104492e-01 -5.803937315940856934e-01
2.612000000000000000e+03 3.294114303588867188e+01 -3.873210525512695312e+01 -9.832773804664611816e-01 2.940212965011596680e+00 5.870807170867919922e-01 3.912177979946136475e-01
2.613000000000000000e+03 3.735057067871093750e+01 -4.117604446411132812e+01 -1.277554750442504883e+00 3.487872600555419922e+00 6.630953550338745117e-01 4.345771297812461853e-02
2.614000000000000000e+03 5.118215179443359375e+01 2.164867401123046875e+01 1.257797479629516602e+00 3.863525152206420898e+00 1.536396741867065430e+00 8.521644473075866699e-01
2.615000000000000000e+03 4.993480300903320312e+01 2.226279449462890625e+01 1.117137312889099121e+00 4.206662654876708984e+00 1.597140073776245117e+00 9.005806446075439453e-01
2.616000000000000000e+03 4.873411178588867188e+01 2.288802528381347656e+01 9.542230367660522461e-01 4.538482666015625000e+00 1.647811770439147949e+00 8.493555784225463867e-01
2.617000000000000000e+03 4.334348297119140625e+01 4.120827865600585938e+01 -4.169215857982635498e-01 3.090241432189941406e+00 8.019959330558776855e-01 -4.114142805337905884e-02
2.618000000000000000e+03 4.785160064697265625e+01 3.580009841918945312e+01 -1.665989458560943604e-01 4.091031551361083984e+00 1.177329897880554199e+00 2.468770146369934082e-01
2.619000000000000000e+03 7.083480072021484375e+01 -9.537039756774902344e+00 6.267720460891723633e-01 5.935982704162597656e+00 1.968826413154602051e+00 -3.088829517364501953e+00
2.620000000000000000e+03 7.336985778808593750e+01 -8.910318374633789062e+00 -1.500541329383850098e+00 1.133710956573486328e+01 2.950970649719238281e+00 -1.222917199134826660e+00
2.621000000000000000e+03 7.329286193847656250e+01 -7.467055320739746094e+00 -1.486527204513549805e+00 9.711944580078125000e+00 2.467625141143798828e+00 -8.203129172325134277e-01
2.622000000000000000e+03 1.041115570068359375e+01 -7.384331703186035156e+00 -1.223059967160224915e-01 2.336929887533187866e-01 3.341609984636306763e-02 -1.041993275284767151e-01
2.623000000000000000e+03 7.286215209960937500e+01 -1.863187408447265625e+01 -1.562552094459533691e+00 1.012755680084228516e+01 2.569501399993896484e+00 8.204478621482849121e-01
2.624000000000000000e+03 7.372433471679687500e+01 -7.101395130157470703e+00 -1.550470232963562012e+00 9.721748352050781250e+00 2.451383590698242188e+00 -4.830487370491027832e-01
2.625000000000000000e+03 7.104529571533203125e+01 -9.025733947753906250e+00 3.105627559125423431e-02 6.692618370056152344e+00 2.017102479934692383e+00 -2.803529500961303711e+00
2.626000000000000000e+03 1.848261833190917969e+01 -8.028150558471679688e+00 1.590129733085632324e-01 -1.213230118155479431e-01 1.130698621273040771e-02 8.963161706924438477e-02
2.627000000000000000e+03 1.768231773376464844e+01 -8.009324073791503906e+00 1.299180984497070312e-01 -7.872542738914489746e-02 1.535780355334281921e-02 1.021502688527107239e-01
2.628000000000000000e+03 7.339859008789062500e+01 -5.611230373382568359e+00 -1.367226004600524902e+00 8.508864402770996094e+00 2.142491579055786133e+00 -5.455809235572814941e-01
2.629000000000000000e+03 1.600232505798339844e+01 -7.949657917022705078e+00 8.486073464155197144e-02 1.887904666364192963e-02 3.112193383276462555e-02 1.034839227795600891e-01
2.630000000000000000e+03 1.502966594696044922e+01 -9.498118400573730469e+00 2.235684096813201904e-01 1.002001464366912842e-01 9.713056683540344238e-02 1.401502937078475952e-01
2.631000000000000000e+03 1.608338737487792969e+01 -9.617711067199707031e+00 2.649450004100799561e-01 2.376451343297958374e-02 8.661285787820816040e-02 1.522402167320251465e-01
2.632000000000000000e+03 7.176798248291015625e+01 -6.176367759704589844e+00 -1.100475788116455078e+00 7.309907436370849609e+00 1.862829446792602539e+00 -1.336818218231201172e+00
2.633000000000000000e+03 7.044972991943359375e+01 -7.336224079132080078e+00 -4.533608555793762207e-01 5.695042133331298828e+00 1.572504401206970215e+00 -1.948879957199096680e+00
2.634000000000000000e+03 1.144100570678710938e+01 -9.050534248352050781e+00 2.405025251209735870e-02 3.071143031120300293e-01 9.934937208890914917e-02 -4.306469054426997900e-04
2.635000000000000000e+03 1.168488216400146484e+01 -9.771559715270996094e+00 1.227483898401260376e-01 3.273191154003143311e-01 1.350202560424804688e-01 3.511709719896316528e-02
2.636000000000000000e+03 2.705381774902343750e+01 -7.733783245086669922e+00 8.672049641609191895e-01 -6.134254932403564453e-01 7.613383233547210693e-02 -2.483230382204055786e-01
2.637000000000000000e+03 7.344681549072265625e+01 -9.576936721801757812e+00 -1.307031631469726562e+00 1.232996273040771484e+01 3.306879281997680664e+00 -1.389308571815490723e+00
2.638000000000000000e+03 9.258955001831054688e+00 6.799208641052246094e+00 7.421964255627244711e-05 -4.624033681466244161e-05 8.393792086280882359e-06 6.436194962589070201e-05
2.639000000000000000e+03 7.130780029296875000e+01 -8.544938087463378906e+00 -3.348692655563354492e-01 7.248191833496093750e+00 2.073996782302856445e+00 -2.504322767257690430e+00
2.640000000000000000e+03 2.183690643310546875e+01 -1.058330345153808594e+01 5.469805002212524414e-01 -3.558048009872436523e-01 5.735271796584129333e-02 1.633004844188690186e-01
2.641000000000000000e+03 2.156888008117675781e+01 -8.366002082824707031e+00 3.264136016368865967e-01 -3.035618960857391357e-01 6.855518091470003128e-03 1.455303188413381577e-02
2.642000000000000000e+03 2.234159660339355469e+01 -8.567870140075683594e+00 3.835189938545227051e-01 -3.552350699901580811e-01 8.485175669193267822e-03 -2.884972142055630684e-03
2.643000000000000000e+03 9.306920051574707031e+00 -1.080514621734619141e+01 9.395784884691238403e-02 4.610955119132995605e-01 1.665160059928894043e-01 -6.866674125194549561e-02
2.644000000000000000e+03 2.281177520751953125e+01 -1.063570594787597656e+01 6.500895023345947266e-01 -4.257486164569854736e-01 6.730225682258605957e-02 1.702199727296829224e-01
2.645000000000000000e+03 1.986253356933593750e+01 -1.048569297790527344e+01 4.498863518238067627e-01 -2.336615324020385742e-01 6.486744433641433716e-02 1.633983999490737915e-01
2.646000000000000000e+03 9.851209640502929688e+00 7.251430034637451172e+00 -4.218683170620352030e-05 3.579430540412431583e-06 -1.158222039521206170e-05 -7.742689194856211543e-05
2.647000000000000000e+03 8.346110343933105469e+00 6.691076278686523438e+00 5.580371180258225650e-06 -5.681311085936613381e-05 -1.536982199468184263e-05 1.265043538296595216e-04
2.648000000000000000e+03 5.242593765258789062e+01 8.919837951660156250e+00 9.259126186370849609e-01 8.877108097076416016e-01 5.440869927406311035e-01 1.450575739145278931e-01
2.649000000000000000e+03 6.888776397705078125e+01 4.754203319549560547e+00 -4.497326314449310303e-01 4.242938041687011719e+00 1.137961745262145996e+00 -1.589200496673583984e+00
2.650000000000000000e+03 1.041187000274658203e+01 7.853015422821044922e+00 -8.259544847533106804e-05 3.359904803801327944e-05 -1.469891958549851552e-05 3.425313843763433397e-05
2.651000000000000000e+03 1.366848182678222656e+01 -1.031495285034179688e+01 2.605377733707427979e-01 2.303166836500167847e-01 1.472563445568084717e-01 1.427790969610214233e-01
2.652000000000000000e+03 7.155911254882812500e+01 -4.993033409118652344e+00 -1.078848838806152344e+00 6.788874626159667969e+00 1.713007807731628418e+00 -1.131955146789550781e+00
2.653000000000000000e+03 7.027915191650390625e+01 -5.440060138702392578e+00 -7.866365909576416016e-01 5.526908397674560547e+00 1.422081589698791504e+00 -1.403418898582458496e+00
2.654000000000000000e+03 5.228303146362304688e+01 1.298694133758544922e+01 1.800228476524353027e+00 1.978721976280212402e+00 1.133685111999511719e+00 6.579285860061645508e-01
2.655000000000000000e+03 4.999098205566406250e+01 1.162933254241943359e+01 1.900631785392761230e+00 2.222284317016601562e+00 1.236874818801879883e+00 1.185530185699462891e+00
2.656000000000000000e+03 6.901920318603515625e+01 1.095933914184570312e+01 2.605429887771606445e-01 4.072984218597412109e+00 1.300058245658874512e+00 -1.552683830261230469e+00
2.657000000000000000e+03 7.196413421630859375e+01 -2.725913763046264648e+00 -1.006605505943298340e+00 6.591176509857177734e+00 1.675371289253234863e+00 -8.720359206199645996e-01
2.658000000000000000e+03 7.229715728759765625e+01 -2.699838578701019287e-01 -8.045240044593811035e-01 6.343026161193847656e+00 1.661550641059875488e+00 -9.660382866859436035e-01
2.659000000000000000e+03 7.149726867675781250e+01 5.232925415039062500e-01 -7.974838018417358398e-01 5.840782165527343750e+00 1.512989521026611328e+00 -1.127152681350708008e+00
2.660000000000000000e+03 1.559281539916992188e+01 -1.014476680755615234e+01 3.135734200477600098e-01 7.093555480241775513e-02 1.153526902198791504e-01 1.701266169548034668e-01
2.661000000000000000e+03 2.471515655517578125e+01 -8.329358100891113281e+00 6.225075125694274902e-01 -5.131554007530212402e-01 3.280564397573471069e-02 -1.007691174745559692e-01
2.662000000000000000e+03 2.411988449096679688e+01 -7.553882122039794922e+00 4.012541174888610840e-01 -4.419573545455932617e-01 -1.221097819507122040e-02 -1.756812036037445068e-01
2.663000000000000000e+03 2.806060791015625000e+01 -7.518373489379882812e+00 1.022401332855224609e+00 -5.643230676651000977e-01 1.374235004186630249e-01 -2.641826868057250977e-01
2.664000000000000000e+03 6.409825134277343750e+01 3.259197473526000977e+00 -1.014947295188903809e+00 2.063244104385375977e+00 3.144890666007995605e-01 -1.398410320281982422e+00
2.665000000000000000e+03 7.093647766113281250e+01 -2.041745901107788086e+00 -9.851968884468078613e-01 5.812424659729003906e+00 1.448168277740478516e+00 -1.048534631729125977e+00
2.666000000000000000e+03 9.644884109497070312e+00 -7.199725627899169922e+00 -1.363978236913681030e-01 2.332060337066650391e-01 2.904246374964714050e-02 -1.389627903699874878e-01
2.667000000000000000e+03 9.370085716247558594e+00 -7.905534267425537109e+00 -1.070722863078117371e-01 2.667992413043975830e-01 4.791808500885963440e-02 -1.529030054807662964e-01
2.668000000000000000e+03 1.713793754577636719e+01 -1.131671905517578125e+01 4.740449488162994385e-01 -5.808039754629135132e-02 1.247893646359443665e-01 1.908805221319198608e-01
2.669000000000000000e+03 1.858345603942871094e+01 -1.097872066497802734e+01 4.583596885204315186e-01 -1.600852757692337036e-01 8.948232233524322510e-02 1.771051287651062012e-01
2.670000000000000000e+03 8.968596458435058594e+00 1.244503307342529297e+01 2.324051311006769538e-04 -1.181588504550745711e-05 6.617677718168124557e-05 -1.859294752648565918e-05
2.671000000000000000e+03 6.849794769287109375e+01 1.973747730255126953e+00 -8.517677783966064453e-01 4.191457748413085938e+00 1.001906991004943848e+00 -1.432640433311462402e+00
2.672000000000000000e+03 7.068894195556640625e+01 3.060231685638427734e+00 -5.775841474533081055e-01 5.201665878295898438e+00 1.387224435806274414e+00 -1.391049027442932129e+00
2.673000000000000000e+03 2.287570190429687500e+01 -9.742614746093750000e+00 5.654791593551635742e-01 -4.166621863842010498e-01 4.464509710669517517e-02 8.829939365386962891e-02
2.674000000000000000e+03 3.471366119384765625e+01 -8.208933830261230469e+00 1.892339587211608887e+00 3.379466533660888672e+00 1.581541895866394043e+00 4.615993797779083252e-01
2.675000000000000000e+03 3.290067672729492188e+01 -1.030434322357177734e+01 1.928219318389892578e+00 1.677940607070922852e+00 1.081848025321960449e+00 3.850095272064208984e-01
2.676000000000000000e+03 3.366102218627929688e+01 -1.060590076446533203e+01 1.942193269729614258e+00 2.289980173110961914e+00 1.269652009010314941e+00 2.681625783443450928e-01
2.677000000000000000e+03 2.569228172302246094e+01 -1.063955307006835938e+01 9.107339978218078613e-01 -5.567291378974914551e-01 1.062014549970626831e-01 2.178306579589843750e-01
2.678000000000000000e+03 2.702155113220214844e+01 -1.019121646881103516e+01 1.146225571632385254e+00 -5.789266228675842285e-01 1.701896786689758301e-01 1.962015628814697266e-01
2.679000000000000000e+03 7.229451751708984375e+01 7.869856357574462891e+00 -2.010173909366130829e-02 5.433647155761718750e+00 1.624063611030578613e+00 -1.387367606163024902e+00
2.680000000000000000e+03 7.137870025634765625e+01 7.516067981719970703e+00 -7.472513616085052490e-02 5.093945980072021484e+00 1.505766272544860840e+00 -1.483135819435119629e+00
2.681000000000000000e+03 7.078042602539062500e+01 1.368368864059448242e+00 -7.687253355979919434e-01 5.411568164825439453e+00 1.392852902412414551e+00 -1.268246769905090332e+00
2.682000000000000000e+03 2.004865837097167969e+01 -8.115600585937500000e+00 2.195062637329101562e-01 -2.080584019422531128e-01 3.434357699006795883e-03 5.743057280778884888e-02
2.683000000000000000e+03 1.924771881103515625e+01 -9.567344665527343750e+00 3.483271896839141846e-01 -1.981711983680725098e-01 4.504679888486862183e-02 1.268080919981002808e-01
2.684000000000000000e+03 2.908582115173339844e+01 -8.791178703308105469e+00 1.386908531188964844e+00 -4.392956793308258057e-01 2.842838764190673828e-01 -1.463759597390890121e-02
2.685000000000000000e+03 6.828814697265625000e+01 1.853675842285156250e+01 6.314694285392761230e-01 3.859509229660034180e+00 1.347293615341186523e+00 -1.008539080619812012e+00
2.686000000000000000e+03 8.130388259887695312e+00 -9.177227973937988281e+00 -4.667858406901359558e-02 3.173193633556365967e-01 8.119223266839981079e-02 -1.939909011125564575e-01
2.687000000000000000e+03 1.647406387329101562e+01 -9.059971809387207031e+00 2.128084301948547363e-01 -3.780104219913482666e-03 6.270849704742431641e-02 1.336364597082138062e-01
2.688000000000000000e+03 3.443944931030273438e+01 -1.085316085815429688e+01 1.900771141052246094e+00 3.195061683654785156e+00 1.528749823570251465e+00 3.343228697776794434e-01
2.689000000000000000e+03 7.111682891845703125e+01 8.622850418090820312e+00 -4.056254401803016663e-03 4.900506973266601562e+00 1.468935132026672363e+00 -1.517471790313720703e+00
2.690000000000000000e+03 6.095518493652343750e+01 4.535697937011718750e+00 -9.291403889656066895e-01 1.082173466682434082e+00 4.590993747115135193e-02 -1.144732713699340820e+00
2.691000000000000000e+03 5.336859512329101562e+01 1.189163303375244141e+01 1.556975603103637695e+00 1.537498116493225098e+00 9.283421039581298828e-01 2.809009850025177002e-01
2.692000000000000000e+03 5.107281875610351562e+01 1.151641750335693359e+01 1.773582577705383301e+00 1.893697500228881836e+00 1.100184082984924316e+00 8.725468516349792480e-01
2.693000000000000000e+03 5.895479583740234375e+01 7.125512123107910156e+00 -1.238691732287406921e-01 9.834607839584350586e-01 2.578774690628051758e-01 -1.007092714309692383e+00
2.694000000000000000e+03 6.210079956054687500e+01 4.552246570587158203e+00 -8.161047101020812988e-01 1.467183828353881836e+00 1.953237503767013550e-01 -1.313362836837768555e+00
2.695000000000000000e+03 6.832185268402099609e+00 2.162348365783691406e+01 -1.820486359065398574e-04 -6.593715806957334280e-05 -7.439573528245091438e-05 -7.538791396655142307e-05
2.696000000000000000e+03 7.129705047607421875e+01 -3.611080408096313477e+00 -1.040247797966003418e+00 6.295975685119628906e+00 1.576718330383300781e+00 -1.015917420387268066e+00
2.697000000000000000e+03 5.085683822631835938e+01 9.995845794677734375e+00 1.465907692909240723e+00 1.390195131301879883e+00 8.568308353424072266e-01 7.044240236282348633e-01
2.698000000000000000e+03 5.508906936645507812e+01 8.770658493041992188e+00 5.349640250205993652e-01 8.217799067497253418e-01 4.070231616497039795e-01 -4.044967591762542725e-01
2.699000000000000000e+03 8.511716842651367188e+00 8.943284034729003906e+00 -1.281305303564295173e-04 -2.800278343784157187e-05 -4.683999213739298284e-05 5.534415686270222068e-05
2.700000000000000000e+03 2.828868865966796875e+01 -9.264179229736328125e+00 1.361289739608764648e+00 -4.946595430374145508e-01 2.599890530109405518e-01 7.299858331680297852e-02
2.701000000000000000e+03 6.998763275146484375e+01 5.924032330513000488e-01 -9.159638881683349609e-01 5.010002613067626953e+00 1.228211641311645508e+00 -1.271705985069274902e+00
2.702000000000000000e+03 1.174825668334960938e+01 3.051150131225585938e+01 1.751568634063005447e-04 2.788064375636167824e-05 6.091125032980926335e-05 2.048933529295027256e-04
2.703000000000000000e+03 6.758025360107421875e+01 2.685167694091796875e+01 4.851671457290649414e-01 3.976410627365112305e+00 1.338473320007324219e+00 -3.917219936847686768e-01
2.704000000000000000e+03 6.853470611572265625e+01 2.400443267822265625e+01 5.246444940567016602e-01 3.992148160934448242e+00 1.355037808418273926e+00 -5.844959020614624023e-01
2.705000000000000000e+03 8.752051353454589844e+00 9.980787277221679688e+00 1.365885691484436393e-04 4.510063808993436396e-05 5.450676326290704310e-05 -5.677383160218596458e-05
2.706000000000000000e+03 2.683581733703613281e+01 -6.552642822265625000e+00 4.692102372646331787e-01 -5.878065228462219238e-01 -3.557887300848960876e-02 -4.795679748058319092e-01
2.707000000000000000e+03 5.187686920166015625e+01 1.960683250427246094e+01 1.502506375312805176e+00 3.454219579696655273e+00 1.487017750740051270e+00 8.613333702087402344e-01
2.708000000000000000e+03 5.934819412231445312e+01 8.272908210754394531e+00 2.195026874542236328e-01 1.222043991088867188e+00 4.324640035629272461e-01 -1.056931138038635254e+00
2.709000000000000000e+03 5.839411163330078125e+01 8.583421707153320312e+00 3.456566631793975830e-01 1.070942282676696777e+00 4.249796867370605469e-01 -9.122551083564758301e-01
2.710000000000000000e+03 1.071645736694335938e+01 1.007150459289550781e+01 1.620038165128789842e-05 1.369919191347435117e-04 4.595769132720306516e-05 -1.481049093854380772e-05
2.711000000000000000e+03 6.979529571533203125e+01 2.163059043884277344e+01 4.796127676963806152e-01 4.135396003723144531e+00 1.384502530097961426e+00 -7.792201042175292969e-01
2.712000000000000000e+03 3.171486282348632812e+01 -1.083371448516845703e+01 1.873252391815185547e+00 7.508023381233215332e-01 7.872164249420166016e-01 4.215804934501647949e-01
2.713000000000000000e+03 6.448796844482421875e+01 5.503592491149902344e+00 -4.477446675300598145e-01 2.395951747894287109e+00 5.844621062278747559e-01 -1.575265765190124512e+00
2.714000000000000000e+03 5.154329299926757812e+01 1.592458915710449219e+01 1.840163111686706543e+00 2.872698783874511719e+00 1.413858532905578613e+00 9.991512894630432129e-01
2.715000000000000000e+03 4.925325393676757812e+01 8.537396430969238281e+00 1.290699005126953125e+00 1.483222126960754395e+00 8.321763277053833008e-01 1.030830979347229004e+00
2.716000000000000000e+03 7.895156383514404297e+00 2.574779510498046875e+01 -2.029120951192453504e-04 -8.833059109747409821e-05 -8.737280586501583457e-05 -3.241734520997852087e-05
2.717000000000000000e+03 5.409935760498046875e+01 2.483075714111328125e+01 1.065607070922851562e+00 3.641413450241088867e+00 1.412106156349182129e+00 5.027031302452087402e-01
2.718000000000000000e+03 6.926092529296875000e+01 2.574561119079589844e+01 4.242419004440307617e-01 4.092060565948486328e+00 1.354890823364257812e+00 -4.829205870628356934e-01
2.719000000000000000e+03 6.801649475097656250e+01 2.204437065124511719e+01 6.140134930610656738e-01 3.887763500213623047e+00 1.350533127784729004e+00 -7.199167013168334961e-01
2.720000000000000000e+03 4.197056961059570312e+01 -3.290398406982421875e+01 -5.808595418930053711e-01 3.578995704650878906e+00 8.994408845901489258e-01 -6.010146737098693848e-01
2.721000000000000000e+03 4.378310012817382812e+01 -3.571171569824218750e+01 -7.951623201370239258e-01 2.882487297058105469e+00 6.261975169181823730e-01 -5.000663995742797852e-01
2.722000000000000000e+03 7.148307037353515625e+01 2.280150222778320312e+01 3.441942930221557617e-01 4.333551406860351562e+00 1.403323769569396973e+00 -6.660364866256713867e-01
2.723000000000000000e+03 5.237327575683593750e+01 1.743437385559082031e+01 1.719554305076599121e+00 2.988574266433715820e+00 1.412438511848449707e+00 8.306777477264404297e-01
2.724000000000000000e+03 6.930275726318359375e+01 1.208393383026123047e+01 3.306287229061126709e-01 4.117659091949462891e+00 1.334486365318298340e+00 -1.490494132041931152e+00
2.725000000000000000e+03 5.059589767456054688e+01 2.020686912536621094e+01 1.374469161033630371e+00 3.867152214050292969e+00 1.572486400604248047e+00 1.005004644393920898e+00
2.726000000000000000e+03 7.264854431152343750e+01 -7.185499191284179688e+00 -1.288579225540161133e+00 8.806831359863281250e+00 2.255475759506225586e+00 -1.220950961112976074e+00
2.727000000000000000e+03 7.108418273925781250e+01 -5.795119762420654297e+00 -9.500239491462707520e-01 6.462447643280029297e+00 1.653727054595947266e+00 -1.413412451744079590e+00
2.728000000000000000e+03 7.166683197021484375e+01 -8.897472381591796875e+00 -4.573691189289093018e-01 8.084712982177734375e+00 2.288203239440917969e+00 -2.607627868652343750e+00
2.729000000000000000e+03 7.274413299560546875e+01 -9.045827865600585938e+00 -1.068710088729858398e+00 1.048592662811279297e+01 2.825164794921875000e+00 -2.101024866104125977e+00
2.730000000000000000e+03 7.362279510498046875e+01 -7.990737438201904297e+00 -1.606127977371215820e+00 1.039523220062255859e+01 2.636731147766113281e+00 -7.171961069107055664e-01
2.731000000000000000e+03 2.070840072631835938e+01 -8.964035987854003906e+00 3.420180678367614746e-01 -2.667621970176696777e-01 2.257676236331462860e-02 7.070659846067428589e-02
2.732000000000000000e+03 2.000729942321777344e+01 -8.896136283874511719e+00 3.010168671607971191e-01 -2.276393920183181763e-01 2.201324142515659332e-02 8.519567549228668213e-02
2.733000000000000000e+03 1.776589584350585938e+01 -8.792968750000000000e+00 2.210060358047485352e-01 -9.098461270332336426e-02 3.900642693042755127e-02 1.185023710131645203e-01
2.734000000000000000e+03 7.081585693359375000e+01 -8.229998588562011719e+00 -2.506991922855377197e-01 6.329985141754150391e+00 1.823785781860351562e+00 -2.382289648056030273e+00
2.735000000000000000e+03 7.252465057373046875e+01 -8.452093124389648438e+00 -1.146981358528137207e+00 9.567910194396972656e+00 2.526278495788574219e+00 -1.895669460296630859e+00
2.736000000000000000e+03 1.030653476715087891e+01 -8.211005210876464844e+00 -6.113466620445251465e-02 2.921300828456878662e-01 6.929861754179000854e-02 -8.198117464780807495e-02
2.737000000000000000e+03 9.120328903198242188e+00 -8.680742263793945312e+00 -6.132901832461357117e-02 3.110130727291107178e-01 7.490521669387817383e-02 -1.468424052000045776e-01
2.738000000000000000e+03 1.119539833068847656e+01 -8.294157028198242188e+00 -3.270678967237472534e-02 2.652057707309722900e-01 6.974969804286956787e-02 -4.352812469005584717e-02
2.739000000000000000e+03 1.458134937286376953e+01 -8.753427505493164062e+00 1.259423941373825073e-01 1.316760033369064331e-01 7.728552073240280151e-02 1.140546724200248718e-01
2.740000000000000000e+03 1.260998153686523438e+01 -8.395116806030273438e+00 1.545011345297098160e-02 2.182187587022781372e-01 7.010066509246826172e-02 2.271134033799171448e-02
2.741000000000000000e+03 1.007671928405761719e+01 -9.060856819152832031e+00 -1.480553764849901199e-02 3.357858657836914062e-01 9.629409760236740112e-02 -8.246786147356033325e-02
2.742000000000000000e+03 1.701417541503906250e+01 -8.771378517150878906e+00 1.945694386959075928e-01 -4.218448698520660400e-02 4.571548476815223694e-02 1.292591989040374756e-01
2.743000000000000000e+03 1.591247177124023438e+01 -8.640092849731445312e+00 1.542487591505050659e-01 3.013269230723381042e-02 5.531443655490875244e-02 1.249526962637901306e-01
2.744000000000000000e+03 1.526073169708251953e+01 -8.565798759460449219e+00 1.174429580569267273e-01 7.207380980253219604e-02 5.685503035783767700e-02 1.080764159560203552e-01
2.745000000000000000e+03 7.224353027343750000e+01 -5.491629123687744141e+00 -1.204596877098083496e+00 7.528423309326171875e+00 1.897147893905639648e+00 -1.026455640792846680e+00
2.746000000000000000e+03 7.303280639648437500e+01 -7.052416801452636719e+00 -1.407326579093933105e+00 9.127294540405273438e+00 2.315990447998046875e+00 -9.396898150444030762e-01
2.747000000000000000e+03 7.073213195800781250e+01 -6.590471744537353516e+00 -7.227041125297546387e-01 6.081789493560791016e+00 1.607725620269775391e+00 -1.712166786193847656e+00
2.748000000000000000e+03 9.508737564086914062e+00 8.507710456848144531e+00 2.415442577330395579e-05 1.270965094590792432e-05 1.105922274291515350e-05 -2.976333053084090352e-05
2.749000000000000000e+03 1.997183227539062500e+01 -9.679262161254882812e+00 3.960437476634979248e-01 -2.392482310533523560e-01 4.703865200281143188e-02 1.179691106081008911e-01
2.750000000000000000e+03 6.820092010498046875e+01 3.721106767654418945e+00 -6.146528720855712891e-01 3.977214336395263672e+00 1.008768439292907715e+00 -1.563781261444091797e+00
2.751000000000000000e+03 6.962417602539062500e+01 5.760056018829345703e+00 -2.991195023059844971e-01 4.498653411865234375e+00 1.259860157966613770e+00 -1.593780040740966797e+00
2.752000000000000000e+03 1.761146545410156250e+01 -1.051711273193359375e+01 4.032151699066162109e-01 -9.257084131240844727e-02 9.319330006837844849e-02 1.674918830394744873e-01
2.753000000000000000e+03 1.857643508911132812e+01 -9.615993499755859375e+00 3.434195518493652344e-01 -1.453278511762619019e-01 5.942751094698905945e-02 1.418075710535049438e-01
2.754000000000000000e+03 1.195241355895996094e+01 -8.231841087341308594e+00 -3.105126507580280304e-02 2.513586580753326416e-01 6.609221547842025757e-02 -3.218726720660924911e-03
2.755000000000000000e+03 1.441165161132812500e+01 -9.911909103393554688e+00 2.505403757095336914e-01 1.619940400123596191e-01 1.237603202462196350e-01 1.535634547472000122e-01
2.756000000000000000e+03 6.456165313720703125e+01 6.519670009613037109e+00 -2.306987792253494263e-01 2.475611209869384766e+00 6.734737157821655273e-01 -1.585876464843750000e+00
2.757000000000000000e+03 6.941443634033203125e+01 9.810213088989257812e+00 1.504317373037338257e-01 4.215411186218261719e+00 1.309752941131591797e+00 -1.581961989402770996e+00
2.758000000000000000e+03 7.047335052490234375e+01 6.735333442687988281e+00 -1.614340394735336304e-01 4.808368682861328125e+00 1.394080400466918945e+00 -1.552384972572326660e+00
2.759000000000000000e+03 6.859152221679687500e+01 1.563286685943603516e+01 5.539743900299072266e-01 3.911341190338134766e+00 1.339594721794128418e+00 -1.242490768432617188e+00
2.760000000000000000e+03 6.790980529785156250e+01 1.438457012176513672e+01 5.561504960060119629e-01 3.756589412689208984e+00 1.293821930885314941e+00 -1.333634614944458008e+00
2.761000000000000000e+03 6.648049163818359375e+01 1.948568153381347656e+01 7.711786627769470215e-01 3.595213890075683594e+00 1.309917688369750977e+00 -8.675472736358642578e-01
2.762000000000000000e+03 6.747311401367187500e+01 1.629264831542968750e+01 6.567447185516357422e-01 3.682096242904663086e+00 1.301652312278747559e+00 -1.179666876792907715e+00
2.763000000000000000e+03 7.048387908935546875e+01 4.817152976989746094e+00 -3.705533742904663086e-01 4.933709621429443359e+00 1.368946790695190430e+00 -1.492488980293273926e+00
2.764000000000000000e+03 1.675379371643066406e+01 -1.009818744659423828e+01 3.341339826583862305e-01 -2.466722950339317322e-02 9.284003078937530518e-02 1.645372360944747925e-01
2.765000000000000000e+03 2.619031906127929688e+01 -8.264009475708007812e+00 8.166046142578125000e-01 -5.935805439949035645e-01 6.690721213817596436e-02 -1.684472560882568359e-01
2.766000000000000000e+03 6.004561614990234375e+01 6.923428535461425781e+00 -1.724536865949630737e-01 1.203266263008117676e+00 3.092437684535980225e-01 -1.150284290313720703e+00
2.767000000000000000e+03 2.811149024963378906e+01 -1.036022758483886719e+01 1.343546867370605469e+00 -4.956720471382141113e-01 2.543624639511108398e-01 2.452289909124374390e-01
2.768000000000000000e+03 2.926895523071289062e+01 -1.082527637481689453e+01 1.527507901191711426e+00 -3.649804592132568359e-01 3.487582504749298096e-01 3.605349063873291016e-01
2.769000000000000000e+03 2.990738868713378906e+01 -9.610256195068359375e+00 1.667398214340209961e+00 -1.634704023599624634e-01 4.511783421039581299e-01 1.486313045024871826e-01
2.770000000000000000e+03 7.066208648681640625e+01 -3.194363117218017578e-01 -9.147729277610778809e-01 5.443744182586669922e+00 1.358691453933715820e+00 -1.160183548927307129e+00
2.771000000000000000e+03 6.913226318359375000e+01 2.973808526992797852e+00 -6.782931685447692871e-01 4.438408374786376953e+00 1.128034472465515137e+00 -1.473559617996215820e+00
2.772000000000000000e+03 5.082407760620117188e+01 1.449764728546142578e+01 1.898136258125305176e+00 2.754686594009399414e+00 1.395846843719482422e+00 1.107205152511596680e+00
2.773000000000000000e+03 6.442987823486328125e+01 4.375485897064208984e+00 -7.218238711357116699e-01 2.277169942855834961e+00 4.666038155555725098e-01 -1.521791100502014160e+00
2.774000000000000000e+03 6.336336898803710938e+01 5.567972660064697266e+00 -4.788946807384490967e-01 1.965351939201354980e+00 4.459371566772460938e-01 -1.479928016662597656e+00
2.775000000000000000e+03 2.408480262756347656e+01 -9.232184410095214844e+00 6.376035213470458984e-01 -4.910452067852020264e-01 4.396748915314674377e-02 2.775150910019874573e-02
2.776000000000000000e+03 5.361762237548828125e+01 9.359766960144042969e+00 9.259459972381591797e-01 9.626553654670715332e-01 5.665804147720336914e-01 -7.494362443685531616e-02
2.777000000000000000e+03 5.815773010253906250e+01 1.002454757690429688e+01 7.228165268898010254e-01 1.265185713768005371e+00 5.964006781578063965e-01 -8.314129710197448730e-01
2.778000000000000000e+03 5.763661575317382812e+01 9.091369628906250000e+00 4.833021163940429688e-01 1.069031238555908203e+00 4.657000005245208740e-01 -7.952441573143005371e-01
2.779000000000000000e+03 6.035151290893554688e+01 8.092267036437988281e+00 1.525781601667404175e-01 1.408701658248901367e+00 4.683839380741119385e-01 -1.189897537231445312e+00
2.780000000000000000e+03 7.364279174804687500e+01 -1.989988610148429871e-02 -6.456134915351867676e-01 7.044867515563964844e+00 1.919776201248168945e+00 -7.478589415550231934e-01
2.781000000000000000e+03 7.224629211425781250e+01 1.304046630859375000e+00 -6.578617095947265625e-01 6.151670932769775391e+00 1.648142814636230469e+00 -1.096216320991516113e+00
2.782000000000000000e+03 6.868630981445312500e+01 6.690051555633544922e+00 -1.791821569204330444e-01 4.100229263305664062e+00 1.176314234733581543e+00 -1.637910962104797363e+00
2.783000000000000000e+03 6.585420227050781250e+01 2.081771850585937500e+00 -1.078140020370483398e+00 2.801537990570068359e+00 5.170193910598754883e-01 -1.407888650894165039e+00
2.784000000000000000e+03 6.799957275390625000e+01 2.010557556152343750e+01 6.461122632026672363e-01 3.840043783187866211e+00 1.345846772193908691e+00 -8.627849221229553223e-01
2.785000000000000000e+03 6.902422332763671875e+01 4.147830009460449219e-01 -9.793128371238708496e-01 4.506204605102539062e+00 1.058067560195922852e+00 -1.298054456710815430e+00
2.786000000000000000e+03 6.555753326416015625e+01 3.982382535934448242e+00 -7.251311540603637695e-01 2.763520240783691406e+00 6.115167140960693359e-01 -1.578281044960021973e+00
2.787000000000000000e+03 6.538963317871093750e+01 5.987911224365234375e+00 -3.492069244384765625e-01 2.764509916305541992e+00 7.245908975601196289e-01 -1.638538241386413574e+00
2.788000000000000000e+03 5.363017654418945312e+01 1.674749755859375000e+01 1.743894219398498535e+00 2.601704120635986328e+00 1.303679466247558594e+00 5.793957710266113281e-01
2.789000000000000000e+03 5.114416122436523438e+01 1.808494758605957031e+01 1.637432217597961426e+00 3.419595241546630859e+00 1.517108201980590820e+00 1.041671395301818848e+00
2.790000000000000000e+03 3.384654998779296875e+01 -1.269522380828857422e+01 1.506859660148620605e+00 2.435732364654541016e+00 1.182777643203735352e+00 2.691409289836883545e-01
2.791000000000000000e+03 5.480726242065429688e+01 9.856398582458496094e+00 9.376714825630187988e-01 9.729092717170715332e-01 5.731742382049560547e-01 -2.684944272041320801e-01
2.792000000000000000e+03 6.723252868652343750e+01 4.463267803192138672e+00 -5.596570372581481934e-01 3.520785093307495117e+00 8.883383870124816895e-01 -1.625293254852294922e+00
2.793000000000000000e+03 7.020299530029296875e+01 8.863153457641601562e+00 4.069864377379417419e-02 4.554035663604736328e+00 1.378420233726501465e+00 -1.568347096443176270e+00
2.794000000000000000e+03 5.272768020629882812e+01 1.520405006408691406e+01 1.817081570625305176e+00 2.445591211318969727e+00 1.278801798820495605e+00 6.914750337600708008e-01
2.795000000000000000e+03 1.964980125427246094e+01 -3.980978775024414062e+01 -6.649640202522277832e-02 -6.063073128461837769e-02 -3.813813999295234680e-02 1.305560022592544556e-02
2.796000000000000000e+03 5.039010238647460938e+01 -3.566095352172851562e+01 -4.878102242946624756e-01 1.217547655105590820e+00 2.189212292432785034e-01 -5.080004334449768066e-01
2.797000000000000000e+03 5.506655120849609375e+01 -3.969848251342773438e+01 3.060671314597129822e-02 3.067707084119319916e-02 1.838513463735580444e-02 -2.964847087860107422e-01
2.798000000000000000e+03 5.055469512939453125e+01 2.768672943115234375e+01 7.272684574127197266e-01 4.137470245361328125e+00 1.459421515464782715e+00 5.843950510025024414e-01
2.799000000000000000e+03 7.169174194335937500e+01 -8.097108840942382812e+00 -7.785130739212036133e-01 7.889115333557128906e+00 2.133180618286132812e+00 -2.116841793060302734e+00
2.800000000000000000e+03 7.307707214355468750e+01 -8.264342308044433594e+00 -1.409096956253051758e+00 1.012009048461914062e+01 2.613298177719116211e+00 -1.244150757789611816e+00
2.801000000000000000e+03 7.211713409423828125e+01 -7.148772716522216797e+00 -1.120921373367309570e+00 8.093492507934570312e+00 2.091771364212036133e+00 -1.529884457588195801e+00
2.802000000000000000e+03 7.280085754394531250e+01 -7.692011356353759766e+00 -1.367214918136596680e+00 9.312599182128906250e+00 2.383615255355834961e+00 -1.275377035140991211e+00
2.803000000000000000e+03 1.333468341827392578e+01 -8.658282279968261719e+00 5.442121624946594238e-02 2.150293588638305664e-01 8.083517104387283325e-02 7.111358642578125000e-02
2.804000000000000000e+03 7.204223632812500000e+01 -8.651792526245117188e+00 -7.530464529991149902e-01 8.812851905822753906e+00 2.417941808700561523e+00 -2.339399576187133789e+00
2.805000000000000000e+03 7.307695770263671875e+01 -6.420907497406005859e+00 -1.360656261444091797e+00 8.614006996154785156e+00 2.176005363464355469e+00 -8.388185501098632812e-01
2.806000000000000000e+03 1.901119804382324219e+01 -1.021862602233886719e+01 4.062434732913970947e-01 -1.826696097850799561e-01 6.707216054201126099e-02 1.477113962173461914e-01
2.807000000000000000e+03 1.555741786956787109e+01 -9.121222496032714844e+00 2.040575742721557617e-01 6.512670218944549561e-02 8.075528591871261597e-02 1.402557492256164551e-01
2.808000000000000000e+03 7.145140075683593750e+01 -6.928972244262695312e+00 -9.248073697090148926e-01 7.152707576751708984e+00 1.868370056152343750e+00 -1.687135219573974609e+00
2.809000000000000000e+03 2.684235572814941406e+01 -9.213284492492675781e+00 1.089290261268615723e+00 -6.124423742294311523e-01 1.430543512105941772e-01 3.169279173016548157e-02
2.810000000000000000e+03 5.221033477783203125e+01 1.162362766265869141e+01 1.677862763404846191e+00 1.603092432022094727e+00 9.842865467071533203e-01 5.397412776947021484e-01
2.811000000000000000e+03 6.794207763671875000e+01 5.579701423645019531e+00 -3.630075752735137939e-01 3.809997081756591797e+00 1.034096837043762207e+00 -1.647688984870910645e+00
2.812000000000000000e+03 7.001008605957031250e+01 2.199499368667602539e+00 -7.228626608848571777e-01 4.891545772552490234e+00 1.250604987144470215e+00 -1.387317895889282227e+00
2.813000000000000000e+03 5.336218643188476562e+01 1.320958518981933594e+01 1.749364137649536133e+00 1.846550107002258301e+00 1.078774213790893555e+00 4.373340606689453125e-01
2.814000000000000000e+03 5.667084884643554688e+01 1.945632171630859375e+01 1.473854422569274902e+00 2.829465866088867188e+00 1.290996074676513672e+00 1.501058638095855713e-01
2.815000000000000000e+03 6.659542083740234375e+01 1.170966815948486328e+01 4.606702327728271484e-01 3.333662271499633789e+00 1.138299822807312012e+00 -1.505325436592102051e+00
2.816000000000000000e+03 6.833789825439453125e+01 1.251745605468750000e+01 4.240587353706359863e-01 3.868072032928466797e+00 1.287639260292053223e+00 -1.462602972984313965e+00
2.817000000000000000e+03 6.949662017822265625e+01 7.799261569976806641e+00 -4.863730072975158691e-02 4.366347312927246094e+00 1.295313000679016113e+00 -1.605480790138244629e+00
2.818000000000000000e+03 5.437799072265625000e+01 2.268610763549804688e+01 1.263007521629333496e+00 3.418241024017333984e+00 1.404374480247497559e+00 5.017477273941040039e-01
2.819000000000000000e+03 5.342609786987304688e+01 1.060145092010498047e+01 1.276519179344177246e+00 1.208610057830810547e+00 7.455387711524963379e-01 1.009375751018524170e-01
2.820000000000000000e+03 6.640040588378906250e+01 1.713724327087402344e+01 7.633448839187622070e-01 3.491127967834472656e+00 1.276341795921325684e+00 -1.063063144683837891e+00
2.821000000000000000e+03 6.678364562988281250e+01 2.486263465881347656e+01 6.035706400871276855e-01 3.855330467224121094e+00 1.337670326232910156e+00 -4.805640280246734619e-01
2.822000000000000000e+03 6.698450469970703125e+01 6.364935398101806641e+00 -2.381197512149810791e-01 3.427977323532104492e+00 9.569572806358337402e-01 -1.668893694877624512e+00
2.823000000000000000e+03 6.676432800292968750e+01 1.507812976837158203e+01 6.734011173248291016e-01 3.497576236724853516e+00 1.251293182373046875e+00 -1.258857965469360352e+00
2.824000000000000000e+03 5.568547058105468750e+01 1.235483932495117188e+01 1.401177048683166504e+00 1.511163592338562012e+00 8.737022280693054199e-01 -1.865751892328262329e-01
2.825000000000000000e+03 6.785099792480468750e+01 1.111359977722167969e+01 3.268277347087860107e-01 3.727483272552490234e+00 1.216293334960937500e+00 -1.557486772537231445e+00
2.826000000000000000e+03 6.239448928833007812e+01 6.794831752777099609e+00 -1.964691579341888428e-01 1.779107332229614258e+00 4.747914373874664307e-01 -1.423156857490539551e+00
2.827000000000000000e+03 6.601344299316406250e+01 7.079589843750000000e+00 -1.336683928966522217e-01 3.057735681533813477e+00 8.772202134132385254e-01 -1.665625810623168945e+00
2.828000000000000000e+03 6.623558807373046875e+01 5.204408645629882812e+00 -4.683725237846374512e-01 3.088011264801025391e+00 7.858915925025939941e-01 -1.635748863220214844e+00
2.829000000000000000e+03 5.140485763549804688e+01 2.523254203796386719e+01 9.582778811454772949e-01 3.980875253677368164e+00 1.481745958328247070e+00 6.433927416801452637e-01
2.830000000000000000e+03 5.061700057983398438e+01 -3.791921234130859375e+01 -4.306146204471588135e-01 1.107093691825866699e+00 2.029437273740768433e-01 -3.964470028877258301e-01
2.831000000000000000e+03 5.269215393066406250e+01 2.838248443603515625e+01 6.981208324432373047e-01 3.954148292541503906e+00 1.395680665969848633e+00 5.131552815437316895e-01
2.832000000000000000e+03 5.127486419677734375e+01 2.950596809387207031e+01 5.756440758705139160e-01 4.080066680908203125e+00 1.396713256835937500e+00 5.110377073287963867e-01
2.833000000000000000e+03 6.666429901123046875e+01 3.018001747131347656e+01 3.939059078693389893e-01 4.016458511352539062e+00 1.323109388351440430e+00 -2.133554369211196899e-01
2.834000000000000000e+03 6.070880508422851562e+01 2.444573020935058594e+01 9.926576614379882812e-01 3.398638486862182617e+00 1.317388892173767090e+00 -1.120799779891967773e-01
2.835000000000000000e+03 5.494296646118164062e+01 1.597316455841064453e+01 1.698339939117431641e+00 2.291659116744995117e+00 1.196999669075012207e+00 2.685447335243225098e-01
2.836000000000000000e+03 1.664960861206054688e+01 -4.119364166259765625e+01 9.047773666679859161e-03 -2.084118574857711792e-01 -5.980922654271125793e-02 7.659115362912416458e-03
2.837000000000000000e+03 9.151986122131347656e+00 -3.879409408569335938e+01 3.428333625197410583e-02 -1.624381393194198608e-01 -3.844644129276275635e-02 2.032754570245742798e-02
2.838000000000000000e+03 1.257468509674072266e+01 -3.644185256958007812e+01 -1.640067100524902344e-01 -2.527794837951660156e-01 -1.250358521938323975e-01 1.175683513283729553e-01
2.839000000000000000e+03 1.217049503326416016e+01 -8.865080833435058594e+00 5.312373489141464233e-02 2.541701197624206543e-01 9.218815714120864868e-02 2.339603379368782043e-02
2.840000000000000000e+03 7.222616577148437500e+01 -7.824414730072021484e+00 -1.075891375541687012e+00 8.569486618041992188e+00 2.248078584671020508e+00 -1.737727999687194824e+00
2.841000000000000000e+03 6.604626464843750000e+01 1.376955318450927734e+01 6.686179041862487793e-01 3.268121004104614258e+00 1.181021690368652344e+00 -1.336432337760925293e+00
2.842000000000000000e+03 5.598049926757812500e+01 1.040483570098876953e+01 9.841544628143310547e-01 1.156587481498718262e+00 6.422225832939147949e-01 -4.195250868797302246e-01
2.843000000000000000e+03 6.729434204101562500e+01 9.659064292907714844e+00 2.044027000665664673e-01 3.544099330902099609e+00 1.124550580978393555e+00 -1.615887761116027832e+00
2.844000000000000000e+03 5.797211837768554688e+01 1.471892547607421875e+01 1.411732196807861328e+00 2.016489982604980469e+00 1.028466701507568359e+00 -4.169556796550750732e-01
2.845000000000000000e+03 5.391818618774414062e+01 1.449758911132812500e+01 1.753095984458923340e+00 2.060666561126708984e+00 1.144128799438476562e+00 3.903310298919677734e-01
2.846000000000000000e+03 5.612994766235351562e+01 2.229264640808105469e+01 1.293042182922363281e+00 3.223293542861938477e+00 1.354900717735290527e+00 2.939173877239227295e-01
2.847000000000000000e+03 5.347814178466796875e+01 2.683668899536132812e+01 8.621401190757751465e-01 3.834217786788940430e+00 1.408907413482666016e+00 5.156657695770263672e-01
2.848000000000000000e+03 5.454122543334960938e+01 1.219288253784179688e+01 1.473423242568969727e+00 1.510581493377685547e+00 8.952014446258544922e-01 1.422763708978891373e-02
2.849000000000000000e+03 5.592585372924804688e+01 1.366933631896972656e+01 1.532544136047363281e+00 1.772162318229675293e+00 9.914119243621826172e-01 -1.060509532690048218e-01
2.850000000000000000e+03 5.896374130249023438e+01 9.708058357238769531e+00 6.164501309394836426e-01 1.359775662422180176e+00 5.928677320480346680e-01 -9.503685235977172852e-01
2.851000000000000000e+03 5.736101913452148438e+01 1.318865966796875000e+01 1.333468556404113770e+00 1.728918552398681641e+00 9.187161326408386230e-01 -4.376435875892639160e-01
2.852000000000000000e+03 6.153655624389648438e+01 9.285610198974609375e+00 3.981839120388031006e-01 1.783331513404846191e+00 6.544546484947204590e-01 -1.295846700668334961e+00
2.853000000000000000e+03 6.144658660888671875e+01 8.054936408996582031e+00 1.354625374078750610e-01 1.665389418601989746e+00 5.402556061744689941e-01 -1.309404373168945312e+00
2.854000000000000000e+03 5.171844482421875000e+01 2.302692985534667969e+01 1.161703109741210938e+00 3.857665777206420898e+00 1.505810737609863281e+00 7.519204616546630859e-01
2.855000000000000000e+03 6.409239959716796875e+01 9.425121307373046875e+00 3.258181512355804443e-01 2.498393774032592773e+00 8.472635746002197266e-01 -1.508045792579650879e+00
2.856000000000000000e+03 5.528591156005859375e+01 2.019770431518554688e+01 1.491230607032775879e+00 2.987527132034301758e+00 1.343627333641052246e+00 3.857563734054565430e-01
2.857000000000000000e+03 6.495014953613281250e+01 7.636178016662597656e+00 -2.568412944674491882e-02 2.661098957061767578e+00 7.906244397163391113e-01 -1.608836889266967773e+00
2.858000000000000000e+03 6.439525604248046875e+01 1.678929138183593750e+01 9.396948218345642090e-01 3.084101438522338867e+00 1.207138895988464355e+00 -9.896188378334045410e-01
2.859000000000000000e+03 6.357412719726562500e+01 1.539371776580810547e+01 9.664537906646728516e-01 2.827600717544555664e+00 1.138216376304626465e+00 -1.047999024391174316e+00
2.860000000000000000e+03 6.482615661621093750e+01 1.455621719360351562e+01 8.116488456726074219e-01 3.025352954864501953e+00 1.151100635528564453e+00 -1.211620211601257324e+00
2.861000000000000000e+03 5.202192306518554688e+01 2.688094139099121094e+01 8.385502696037292480e-01 3.960350990295410156e+00 1.439670324325561523e+00 5.644670724868774414e-01
2.862000000000000000e+03 5.398112869262695312e+01 2.970404434204101562e+01 5.961910486221313477e-01 3.939038753509521484e+00 1.360569000244140625e+00 4.414467215538024902e-01
2.863000000000000000e+03 7.051999568939208984e+00 -3.829956817626953125e+01 5.220399424433708191e-02 1.294589601457118988e-02 1.954496651887893677e-02 -9.057719260454177856e-03
2.864000000000000000e+03 6.054028320312500000e+01 9.171742439270019531e+00 4.051712155342102051e-01 1.588912010192871094e+00 5.982249379158020020e-01 -1.197938084602355957e+00
2.865000000000000000e+03 5.448042297363281250e+01 1.839816856384277344e+01 1.624272346496582031e+00 2.794798374176025391e+00 1.325721263885498047e+00 4.628833830356597900e-01
2.866000000000000000e+03 6.522684478759765625e+01 2.081376457214355469e+01 8.532488346099853516e-01 3.485448837280273438e+00 1.301609277725219727e+00 -7.025607824325561523e-01
2.867000000000000000e+03 6.363995361328125000e+01 2.174798774719238281e+01 9.489799737930297852e-01 3.376003026962280273e+00 1.297494888305664062e+00 -5.085889101028442383e-01
2.868000000000000000e+03 6.489661407470703125e+01 2.577776527404785156e+01 6.903175711631774902e-01 3.729164838790893555e+00 1.325844764709472656e+00 -3.490566611289978027e-01
2.869000000000000000e+03 6.412123870849609375e+01 3.190540313720703125e+01 3.934083580970764160e-01 3.982736349105834961e+00 1.312843441963195801e+00 -6.069130077958106995e-02
2.870000000000000000e+03 5.048865509033203125e+01 -3.407433319091796875e+01 -4.599460363388061523e-01 1.171073079109191895e+00 2.133381217718124390e-01 -5.213177800178527832e-01
2.871000000000000000e+03 4.796007156372070312e+01 -3.505463409423828125e+01 -5.168725252151489258e-01 1.808342814445495605e+00 3.874410688877105713e-01 -6.174683570861816406e-01
2.872000000000000000e+03 7.232905578613281250e+01 -6.509055614471435547e+00 -1.221637129783630371e+00 7.963596343994140625e+00 2.022587776184082031e+00 -1.222851395606994629e+00
2.873000000000000000e+03 6.768721771240234375e+01 7.554945468902587891e+00 -6.610395014286041260e-02 3.678577423095703125e+00 1.083742022514343262e+00 -1.661525249481201172e+00
2.874000000000000000e+03 6.845763397216796875e+01 8.800580024719238281e+00 7.562712579965591431e-02 3.939477682113647461e+00 1.204531431198120117e+00 -1.634591817855834961e+00
2.875000000000000000e+03 5.723813629150390625e+01 1.698528861999511719e+01 1.537569642066955566e+00 2.403989076614379883e+00 1.182467579841613770e+00 -8.892019093036651611e-02
2.876000000000000000e+03 6.038751602172851562e+01 1.960663223266601562e+01 1.262347817420959473e+00 2.878583192825317383e+00 1.242279291152954102e+00 -3.577399551868438721e-01
2.877000000000000000e+03 5.460335540771484375e+01 1.099304389953613281e+01 1.240949511528015137e+00 1.254173994064331055e+00 7.485370635986328125e-01 -1.076609566807746887e-01
2.878000000000000000e+03 6.208435440063476562e+01 1.272987079620361328e+01 8.935655355453491211e-01 2.290956258773803711e+00 9.553565382957458496e-01 -1.119312167167663574e+00
2.879000000000000000e+03 6.534047698974609375e+01 1.240215873718261719e+01 6.146426796913146973e-01 3.028088569641113281e+00 1.092819333076477051e+00 -1.405077099800109863e+00
2.880000000000000000e+03 6.275126266479492188e+01 9.490441322326660156e+00 3.880276381969451904e-01 2.163329839706420898e+00 7.654072046279907227e-01 -1.397982835769653320e+00
2.881000000000000000e+03 5.715061569213867188e+01 1.100947856903076172e+01 1.031178712844848633e+00 1.345777988433837891e+00 7.130870223045349121e-01 -5.720087289810180664e-01
2.882000000000000000e+03 5.892982864379882812e+01 2.671327590942382812e+01 8.691241741180419922e-01 3.593739748001098633e+00 1.338859200477600098e+00 1.245770975947380066e-01
2.883000000000000000e+03 6.131238174438476562e+01 1.046384716033935547e+01 6.349000334739685059e-01 1.883802771568298340e+00 7.556108236312866211e-01 -1.201925635337829590e+00
2.884000000000000000e+03 5.836968994140625000e+01 1.121226501464843750e+01 9.707099795341491699e-01 1.511685371398925781e+00 7.447186112403869629e-01 -7.629963755607604980e-01
2.885000000000000000e+03 6.559191131591796875e+01 1.589183616638183594e+01 8.111781477928161621e-01 3.259491682052612305e+00 1.221200942993164062e+00 -1.136928796768188477e+00
2.886000000000000000e+03 5.760546493530273438e+01 2.123945999145507812e+01 1.322613000869750977e+00 3.036044836044311523e+00 1.307597398757934570e+00 8.926134556531906128e-02
2.887000000000000000e+03 6.379719543457031250e+01 7.962583541870117188e+00 4.630330577492713928e-02 2.315420389175415039e+00 7.085170745849609375e-01 -1.533797621726989746e+00
2.888000000000000000e+03 6.541255187988281250e+01 8.938726425170898438e+00 1.893303990364074707e-01 2.907883405685424805e+00 9.291641116142272949e-01 -1.599703788757324219e+00
2.889000000000000000e+03 6.613792419433593750e+01 2.274491882324218750e+01 7.321429848670959473e-01 3.692775726318359375e+00 1.327475666999816895e+00 -6.052612066268920898e-01
2.890000000000000000e+03 5.876575088500976562e+01 1.262117385864257812e+01 1.153513312339782715e+00 1.748002767562866211e+00 8.704547882080078125e-01 -7.139976024627685547e-01
2.891000000000000000e+03 5.642988586425781250e+01 1.529374885559082031e+01 1.583230018615722656e+00 2.071468353271484375e+00 1.096409440040588379e+00 -6.403218954801559448e-02
2.892000000000000000e+03 6.336929702758789062e+01 2.904810333251953125e+01 5.852118730545043945e-01 3.821162462234497070e+00 1.321912288665771484e+00 -1.092914119362831116e-01
2.893000000000000000e+03 6.607650756835937500e+01 3.427616119384765625e+01 2.564640939235687256e-01 4.096621990203857422e+00 1.305925846099853516e+00 -6.601686775684356689e-02
2.894000000000000000e+03 6.096837615966796875e+01 2.950743865966796875e+01 6.275775432586669922e-01 3.789013624191284180e+00 1.324977397918701172e+00 3.599879145622253418e-02
2.895000000000000000e+03 6.086317062377929688e+01 2.678282356262207031e+01 8.242675065994262695e-01 3.597623348236083984e+00 1.326567292213439941e+00 -3.437891602516174316e-02
2.896000000000000000e+03 3.873475313186645508e+00 3.704321670532226562e+01 -1.408328971592709422e-04 2.857919607777148485e-04 4.348771835793741047e-05 -9.985897486330941319e-05
2.897000000000000000e+03 6.275976562500000000e+01 2.012418365478515625e+01 1.074393749237060547e+00 3.130970716476440430e+00 1.261609315872192383e+00 -5.751090049743652344e-01
2.898000000000000000e+03 6.227721023559570312e+01 1.624052047729492188e+01 1.110948443412780762e+00 2.687391042709350586e+00 1.139501810073852539e+00 -8.576695322990417480e-01
2.899000000000000000e+03 5.953847122192382812e+01 1.083327293395996094e+01 8.151268362998962402e-01 1.632584691047668457e+00 7.343134284019470215e-01 -9.663364887237548828e-01
2.900000000000000000e+03 6.281219863891601562e+01 1.402433300018310547e+01 9.489972591400146484e-01 2.551760911941528320e+00 1.050227403640747070e+00 -1.101960897445678711e+00
2.901000000000000000e+03 6.597994232177734375e+01 1.031958770751953125e+01 3.437285125255584717e-01 3.120858192443847656e+00 1.039376020431518555e+00 -1.565664410591125488e+00
2.902000000000000000e+03 6.261858749389648438e+01 8.064990043640136719e+00 9.824619442224502563e-02 1.985148429870605469e+00 6.250184178352355957e-01 -1.443801403045654297e+00
2.903000000000000000e+03 6.408858489990234375e+01 1.318929862976074219e+01 7.752838730812072754e-01 2.772900581359863281e+00 1.064455270767211914e+00 -1.275534391403198242e+00
2.904000000000000000e+03 5.582253646850585938e+01 1.769874191284179688e+01 1.604433774948120117e+00 2.548596143722534180e+00 1.245908975601196289e+00 2.010750472545623779e-01
2.905000000000000000e+03 6.091841888427734375e+01 1.708774948120117188e+01 1.247726798057556152e+00 2.615623950958251953e+00 1.159005284309387207e+00 -6.206392049789428711e-01
2.906000000000000000e+03 6.410764312744140625e+01 1.920425796508789062e+01 9.817928075790405273e-01 3.214395284652709961e+00 1.258856415748596191e+00 -7.626458406448364258e-01
2.907000000000000000e+03 5.883628082275390625e+01 2.430841064453125000e+01 1.076706051826477051e+00 3.358721256256103516e+00 1.330628156661987305e+00 5.825496837496757507e-02
2.908000000000000000e+03 5.719792556762695312e+01 2.647830200195312500e+01 9.057273864746093750e-01 3.591968297958374023e+00 1.349308729171752930e+00 2.191046923398971558e-01
2.909000000000000000e+03 5.570887756347656250e+01 2.571511268615722656e+01 1.004737257957458496e+00 3.574199676513671875e+00 1.373681068420410156e+00 3.700041770935058594e-01
2.910000000000000000e+03 1.479223251342773438e+01 -3.687903976440429688e+01 -1.849120110273361206e-01 -2.312121391296386719e-01 -1.248372420668601990e-01 8.435406535863876343e-02
2.911000000000000000e+03 8.774445533752441406e+00 3.686687088012695312e+01 1.689668570179492235e-04 3.120430046692490578e-04 1.443029614165425301e-04 1.535001388219825458e-06
2.912000000000000000e+03 8.066596031188964844e+00 4.133081436157226562e+01 -2.961359859909862280e-04 1.277407282032072544e-04 -5.051857806392945349e-05 -9.131838305620476604e-05
2.913000000000000000e+03 5.940979003906250000e+01 1.409358119964599609e+01 1.248794317245483398e+00 2.056364536285400391e+00 9.915476441383361816e-01 -6.808915138244628906e-01
2.914000000000000000e+03 5.869965362548828125e+01 2.930629348754882812e+01 6.670668125152587891e-01 3.770500183105468750e+00 1.331270098686218262e+00 1.553451120853424072e-01
2.915000000000000000e+03 6.012431716918945312e+01 1.557085132598876953e+01 1.271051526069641113e+00 2.336497306823730469e+00 1.082264661788940430e+00 -6.580540537834167480e-01
2.916000000000000000e+03 5.891573333740234375e+01 2.036289787292480469e+01 1.317352175712585449e+00 2.917645692825317383e+00 1.270499348640441895e+00 -1.440149694681167603e-01
2.917000000000000000e+03 6.461447906494140625e+01 1.096482849121093750e+01 5.059312582015991211e-01 2.741906404495239258e+00 9.743513464927673340e-01 -1.459983825683593750e+00
2.918000000000000000e+03 6.149530029296875000e+01 1.481782054901123047e+01 1.116176724433898926e+00 2.420533657073974609e+00 1.061013102531433105e+00 -8.825793862342834473e-01
2.919000000000000000e+03 6.215262222290039062e+01 2.240605163574218750e+01 1.011195063591003418e+00 3.310559988021850586e+00 1.296526551246643066e+00 -3.592101037502288818e-01
2.920000000000000000e+03 6.313979721069335938e+01 1.770396995544433594e+01 1.066873311996459961e+00 2.951629877090454102e+00 1.205551028251647949e+00 -8.093377947807312012e-01
2.921000000000000000e+03 6.331814193725585938e+01 1.181638240814208984e+01 6.832658648490905762e-01 2.474231958389282227e+00 9.472493529319763184e-01 -1.320959210395812988e+00
2.922000000000000000e+03 5.869450378417968750e+01 1.629251098632812500e+01 1.423520445823669434e+00 2.312815904617309570e+00 1.120900869369506836e+00 -3.854748606681823730e-01
2.923000000000000000e+03 5.807479095458984375e+01 1.867266273498535156e+01 1.433053851127624512e+00 2.669416904449462891e+00 1.230741262435913086e+00 -1.233425810933113098e-01
2.924000000000000000e+03 5.902470779418945312e+01 2.217246627807617188e+01 1.211486220359802246e+00 3.143583059310913086e+00 1.306520819664001465e+00 -4.631813615560531616e-02
2.925000000000000000e+03 6.077815246582031250e+01 1.344599819183349609e+01 1.070384144783020020e+00 2.155747413635253906e+00 9.678394794464111328e-01 -9.252962470054626465e-01
2.926000000000000000e+03 6.068928527832031250e+01 2.244061851501464844e+01 1.110547304153442383e+00 3.214061498641967773e+00 1.297382593154907227e+00 -2.105594128370285034e-01
2.927000000000000000e+03 6.251014328002929688e+01 2.424948120117187500e+01 9.085839986801147461e-01 3.467089653015136719e+00 1.312702059745788574e+00 -2.814262509346008301e-01
2.928000000000000000e+03 6.141307830810546875e+01 1.156756877899169922e+01 8.132693171501159668e-01 2.051614999771118164e+00 8.594653010368347168e-01 -1.138793706893920898e+00
2.929000000000000000e+03 6.180280303955078125e+01 1.861943435668945312e+01 1.172674298286437988e+00 2.886890172958374023e+00 1.217869400978088379e+00 -6.051197648048400879e-01
2.930000000000000000e+03 6.140825271606445312e+01 2.103200149536132812e+01 1.144377112388610840e+00 3.114669799804687500e+00 1.277714133262634277e+00 -3.603072762489318848e-01
2.931000000000000000e+03 5.499055099487304688e+01 2.773103713989257812e+01 8.164288997650146484e-01 3.770037651062011719e+00 1.375939965248107910e+00 4.181022346019744873e-01
2.932000000000000000e+03 5.950770187377929688e+01 1.791266059875488281e+01 1.366731643676757812e+00 2.603137969970703125e+00 1.190960884094238281e+00 -3.725552260875701904e-01
2.933000000000000000e+03 5.398709869384765625e+01 3.357349777221679688e+01 2.434189021587371826e-01 4.076010704040527344e+00 1.295828938484191895e+00 3.505246341228485107e-01
2.934000000000000000e+03 5.237689971923828125e+01 3.143202209472656250e+01 4.028477072715759277e-01 4.046438694000244141e+00 1.334785819053649902e+00 4.612881243228912354e-01
2.935000000000000000e+03 5.118342208862304688e+01 3.523433685302734375e+01 2.270290628075599670e-02 4.120715618133544922e+00 1.243025541305541992e+00 3.446643352508544922e-01
2.936000000000000000e+03 5.801940536499023438e+01 3.218527221679687500e+01 4.457707405090332031e-01 3.940151214599609375e+00 1.315776586532592773e+00 2.245323657989501953e-01
2.937000000000000000e+03 5.656888961791992188e+01 3.539869308471679688e+01 2.054989039897918701e-01 4.078116893768310547e+00 1.285084724426269531e+00 2.221590280532836914e-01
2.938000000000000000e+03 6.099396896362304688e+01 3.271068954467773438e+01 3.995688259601593018e-01 3.964438915252685547e+00 1.309202313423156738e+00 7.310054451227188110e-02
2.939000000000000000e+03 7.695237731933593750e+01 -3.709808349609375000e+01 -1.549212038516998291e-01 1.074901866912841797e+01 3.178229093551635742e+00 3.513946831226348877e-01
2.940000000000000000e+03 7.248577117919921875e+01 -4.087954711914062500e+01 4.226471781730651855e-01 6.416634082794189453e+00 2.051784276962280273e+00 1.579889059066772461e-01
2.941000000000000000e+03 4.703920745849609375e+01 -4.075451660156250000e+01 -7.152665853500366211e-01 2.062354087829589844e+00 4.041262567043304443e-01 -1.559315919876098633e-01
2.942000000000000000e+03 6.017279052734375000e+01 3.638478088378906250e+01 2.029986679553985596e-01 4.091221332550048828e+00 1.288265943527221680e+00 1.021265685558319092e-01
2.943000000000000000e+03 5.477386474609375000e+01 3.905875015258789062e+01 -4.735052213072776794e-02 4.171473026275634766e+00 1.237236738204956055e+00 1.464764177799224854e-01
2.944000000000000000e+03 6.765793609619140625e+01 4.112257766723632812e+01 1.116636991500854492e-01 4.190536499023437500e+00 1.290660023689270020e+00 -1.294187735766172409e-02
2.945000000000000000e+03 6.819041442871093750e+01 3.832543563842773438e+01 1.227772235870361328e-01 4.190643787384033203e+00 1.294026255607604980e+00 -5.042671412229537964e-02
2.946000000000000000e+03 2.324440574645996094e+01 -4.090606689453125000e+01 -9.079113602638244629e-02 3.583159446716308594e-01 8.025744557380676270e-02 7.222767174243927002e-02
2.947000000000000000e+03 4.702057266235351562e+01 -3.757572174072265625e+01 -6.591421961784362793e-01 2.062762737274169922e+00 4.210861325263977051e-01 -4.589127302169799805e-01
2.948000000000000000e+03 3.730090332031250000e+01 4.116967010498046875e+01 -1.821524463593959808e-02 1.233423233032226562e+00 3.645624220371246338e-01 -1.242955029010772705e-01
2.949000000000000000e+03 6.755817413330078125e+01 -1.232143497467041016e+01 -8.947707712650299072e-02 -9.646301865577697754e-01 -3.162321746349334717e-01 3.710307776927947998e-01
2.950000000000000000e+03 2.616997909545898438e+01 -1.905133366584777832e+00 -1.328675508499145508e+00 -4.838053882122039795e-02 -4.131168127059936523e-01 5.624097958207130432e-02
2.951000000000000000e+03 7.229527282714843750e+01 -1.530268001556396484e+01 1.614412665367126465e+00 1.050325012207031250e+01 3.635298728942871094e+00 5.399265289306640625e+00
2.952000000000000000e+03 6.965058898925781250e+01 -1.173340034484863281e+01 1.624709129333496094e+00 1.187775611877441406e+00 8.437454104423522949e-01 -1.067850470542907715e+00
2.953000000000000000e+03 7.050392913818359375e+01 -1.227953433990478516e+01 2.700796365737915039e+00 1.369316339492797852e+00 1.221033811569213867e+00 -1.539620995521545410e+00
2.954000000000000000e+03 7.112907409667968750e+01 -1.201272487640380859e+01 3.613770484924316406e+00 3.176857471466064453e+00 2.037188291549682617e+00 -3.416282892227172852e+00
2.955000000000000000e+03 3.247899627685546875e+01 -1.644816017150878906e+01 -3.087831139564514160e-01 1.783305406570434570e-01 -3.913576900959014893e-02 2.915861904621124268e-01
2.956000000000000000e+03 7.314704132080078125e+01 -1.538940334320068359e+01 -7.415824532508850098e-01 1.832645797729492188e+01 5.275462627410888672e+00 3.194646596908569336e+00
2.957000000000000000e+03 7.283084869384765625e+01 -1.570348453521728516e+01 -2.475135475397109985e-01 1.532794666290283203e+01 4.524129867553710938e+00 3.899131536483764648e+00
2.958000000000000000e+03 7.087026977539062500e+01 -1.575482654571533203e+01 1.810842275619506836e+00 3.084160327911376953e+00 1.468500733375549316e+00 2.362317323684692383e+00
2.959000000000000000e+03 7.091024780273437500e+01 -1.595552539825439453e+01 1.454770326614379883e+00 3.482517004013061523e+00 1.481186151504516602e+00 2.451766014099121094e+00
2.960000000000000000e+03 7.227743530273437500e+01 -1.549439620971679688e+01 1.254252791404724121e+00 1.064340305328369141e+01 3.569296836853027344e+00 5.107677936553955078e+00
2.961000000000000000e+03 7.243414306640625000e+01 -1.552582454681396484e+01 8.058934807777404785e-01 1.210084247589111328e+01 3.872020721435546875e+00 5.022351264953613281e+00
2.962000000000000000e+03 7.143180847167968750e+01 -1.630987358093261719e+01 7.309653162956237793e-01 6.517871856689453125e+00 2.174651145935058594e+00 3.145780801773071289e+00
2.963000000000000000e+03 7.253281402587890625e+01 -1.132560920715332031e+01 9.382249116897583008e-01 1.352995872497558594e+01 4.340455055236816406e+00 -5.137700080871582031e+00
2.964000000000000000e+03 6.030743026733398438e+01 -3.684571075439453125e+01 -6.540766358375549316e-02 -5.126780271530151367e-01 -1.734257042407989502e-01 -5.563435554504394531e-01
2.965000000000000000e+03 4.650490283966064453e+00 -1.904177284240722656e+01 5.400230884552001953e-01 4.649697244167327881e-01 3.014978468418121338e-01 4.231870472431182861e-01
2.966000000000000000e+03 7.229360198974609375e+01 -1.566462421417236328e+01 8.646664619445800781e-01 1.099552440643310547e+01 3.558057308197021484e+00 4.739115715026855469e+00
2.967000000000000000e+03 7.283131408691406250e+01 -1.633668899536132812e+01 -9.133761525154113770e-01 1.304007625579833984e+01 3.638010025024414062e+00 2.871410369873046875e+00
2.968000000000000000e+03 7.115370941162109375e+01 -1.624945640563964844e+01 1.103289842605590820e+00 4.746303081512451172e+00 1.754877924919128418e+00 2.735910177230834961e+00
2.969000000000000000e+03 3.778559112548828125e+01 -2.470702362060546875e+01 1.185643672943115234e+00 6.524917602539062500e+00 2.313168287277221680e+00 7.593721747398376465e-01
2.970000000000000000e+03 7.152290344238281250e+01 -1.172261333465576172e+01 3.293532371520996094e+00 6.166684627532958984e+00 2.838065147399902344e+00 -4.787333965301513672e+00
2.971000000000000000e+03 7.148426818847656250e+01 -1.193682670593261719e+01 3.882380962371826172e+00 4.983189105987548828e+00 2.659671068191528320e+00 -4.649118423461914062e+00
2.972000000000000000e+03 7.801380157470703125e+01 -3.588443374633789062e+01 -7.982022315263748169e-02 1.164362907409667969e+01 3.469142675399780273e+00 2.647190392017364502e-01
2.973000000000000000e+03 7.758574676513671875e+01 3.799013137817382812e+01 1.047608442604541779e-02 4.196891784667968750e+00 1.262210369110107422e+00 -2.166985347867012024e-02
2.974000000000000000e+03 7.260301971435546875e+01 -1.562698364257812500e+01 2.036291211843490601e-01 1.357751560211181641e+01 4.134343147277832031e+00 4.278607845306396484e+00
2.975000000000000000e+03 7.147013092041015625e+01 -1.142490863800048828e+01 2.662605047225952148e+00 6.386794090270996094e+00 2.714819669723510742e+00 -4.453199863433837891e+00
2.976000000000000000e+03 7.117220306396484375e+01 -1.155368709564208984e+01 3.034988164901733398e+00 4.279066085815429688e+00 2.194216251373291016e+00 -3.899961709976196289e+00
2.977000000000000000e+03 7.659561920166015625e+01 -1.583690929412841797e+01 9.169592857360839844e-01 1.068937110900878906e+01 3.481899023056030273e+00 -3.446368694305419922e+00
2.978000000000000000e+03 7.715221405029296875e+01 -1.542688846588134766e+01 9.506344795227050781e-01 8.704504966735839844e+00 2.896541833877563477e+00 -2.851457118988037109e+00
2.979000000000000000e+03 7.730962371826171875e+01 -1.460343170166015625e+01 2.132823705673217773e+00 7.988941192626953125e+00 3.036529541015625000e+00 -2.093286752700805664e+00
2.980000000000000000e+03 7.184260559082031250e+01 -1.678163146972656250e+01 -1.767307333648204803e-02 8.330706596374511719e+00 2.493910074234008789e+00 3.091138839721679688e+00
2.981000000000000000e+03 7.285153198242187500e+01 -1.017251110076904297e+01 -6.184130311012268066e-01 1.215664863586425781e+01 3.461470603942871094e+00 -2.769692182540893555e+00
2.982000000000000000e+03 7.241319274902343750e+01 -1.080768299102783203e+01 4.637892246246337891e-01 1.167415904998779297e+01 3.641384601593017578e+00 -4.266409397125244141e+00
2.983000000000000000e+03 7.186331939697265625e+01 -1.028063964843750000e+01 4.075218439102172852e-01 9.031343460083007812e+00 2.831659555435180664e+00 -3.759973764419555664e+00
2.984000000000000000e+03 6.246893310546875000e+01 -3.394015884399414062e+01 -1.506487607955932617e+00 -7.328971028327941895e-01 -6.718153953552246094e-01 -6.537479162216186523e-01
2.985000000000000000e+03 3.134486579895019531e+01 -3.483567428588867188e+01 -5.302008986473083496e-01 2.551287651062011719e+00 6.063260436058044434e-01 9.796831607818603516e-01
2.986000000000000000e+03 3.901416778564453125e+01 -3.529277420043945312e+01 -9.891813993453979492e-01 3.817233562469482422e+00 8.484156131744384766e-01 -2.416331768035888672e-01
2.987000000000000000e+03 7.084098815917968750e+01 -1.166038799285888672e+01 2.942631959915161133e+00 3.381016492843627930e+00 1.897094488143920898e+00 -3.181769371032714844e+00
2.988000000000000000e+03 7.129234313964843750e+01 -1.181889724731445312e+01 3.540935754776000977e+00 4.346547603607177734e+00 2.366245031356811523e+00 -3.973975658416748047e+00
2.989000000000000000e+03 7.026457214355468750e+01 -1.042492294311523438e+01 1.414253711700439453e+00 3.836074113845825195e+00 1.575098276138305664e+00 -2.703655958175659180e+00
2.990000000000000000e+03 7.604218292236328125e+01 -1.714655494689941406e+01 -6.808473467826843262e-01 1.183709621429443359e+01 3.346874475479125977e+00 -3.164490699768066406e+00
2.991000000000000000e+03 7.761774444580078125e+01 -1.628756141662597656e+01 3.546789288520812988e-01 8.261363983154296875e+00 2.584812879562377930e+00 -2.870222568511962891e+00
2.992000000000000000e+03 7.140949249267578125e+01 -1.697256851196289062e+01 1.711008101701736450e-01 6.927894115447998047e+00 2.129698514938354492e+00 2.836105108261108398e+00
2.993000000000000000e+03 1.499136352539062500e+01 2.422464609146118164e+00 -6.054663572285789996e-06 9.630662680137902498e-05 2.707558815018273890e-05 4.021060158265754580e-05
2.994000000000000000e+03 7.134534454345703125e+01 -9.732765197753906250e+00 4.228111207485198975e-01 7.266045570373535156e+00 2.306657075881958008e+00 -3.331155776977539062e+00
2.995000000000000000e+03 3.982663345336914062e+01 -3.353438186645507812e+01 -8.280571103096008301e-01 3.956860303878784180e+00 9.386410117149353027e-01 -3.677130937576293945e-01
2.996000000000000000e+03 7.616758728027343750e+01 -1.895427131652832031e+01 -1.254184961318969727e+00 1.094105625152587891e+01 2.906061410903930664e+00 -2.307615518569946289e+00
2.997000000000000000e+03 3.503193283081054688e+01 -1.220006561279296875e+01 1.547975540161132812e+00 4.052216529846191406e+00 1.680057525634765625e+00 2.665084600448608398e-01
2.998000000000000000e+03 1.240305995941162109e+01 -1.232655048370361328e+01 5.127362012863159180e-01 4.053272604942321777e-01 2.754190266132354736e-01 2.270690947771072388e-01
2.999000000000000000e+03 4.193147182464599609e+00 3.564616775512695312e+01 -1.481048821005970240e-04 3.942275725421495736e-05 -3.260463927290402353e-05 -2.706985105760395527e-04
3.000000000000000000e+03 1.497479438781738281e+01 -1.066355609893798828e+01 3.533722758293151855e-01 1.137417629361152649e-01 1.401342153549194336e-01 1.749843209981918335e-01
3.001000000000000000e+03 7.774688720703125000e+01 -1.743704032897949219e+01 -2.921361327171325684e-01 8.643632888793945312e+00 2.505449056625366211e+00 -2.794717073440551758e+00
3.002000000000000000e+03 6.427666473388671875e+01 -3.566627120971679688e+01 -8.222495764493942261e-02 1.970379054546356201e-01 3.444388508796691895e-02 -6.876993924379348755e-02
3.003000000000000000e+03 6.463819885253906250e+01 -3.386606216430664062e+01 -1.068480491638183594e+00 -1.797742396593093872e-01 -3.744764029979705811e-01 -2.242166101932525635e-01
3.004000000000000000e+03 6.001659393310546875e+00 -9.088100433349609375e+00 -7.670900970697402954e-02 1.204338222742080688e-01 1.311744470149278641e-02 -3.214972019195556641e-01
3.005000000000000000e+03 2.685177230834960938e+01 -1.518111133575439453e+01 2.481960654258728027e-01 -2.121388763189315796e-01 1.081715524196624756e-02 6.328477859497070312e-01
3.006000000000000000e+03 1.479474830627441406e+01 4.219720840454101562e+00 -1.647091266931965947e-05 -2.993286216224078089e-05 -1.392113244946813211e-05 -3.226322951377369463e-05
3.007000000000000000e+03 2.609429740905761719e+01 -1.584306049346923828e+01 1.571229100227355957e-01 -1.400632858276367188e-01 5.117885768413543701e-03 6.026677489280700684e-01
3.008000000000000000e+03 3.660565948486328125e+01 -2.479333639144897461e+00 -9.014528989791870117e-01 5.382663249969482422e+00 1.344363212585449219e+00 6.905379295349121094e-01
3.009000000000000000e+03 7.710023498535156250e+01 -1.735156059265136719e+01 -3.901459276676177979e-01 9.930988311767578125e+00 2.862252712249755859e+00 -3.148018121719360352e+00
3.010000000000000000e+03 4.436286163330078125e+01 3.431208419799804688e+01 -1.667322367429733276e-01 4.019217967987060547e+00 1.155745744705200195e+00 8.160033077001571655e-02
3.011000000000000000e+03 7.119728851318359375e+01 -1.119747352600097656e+01 2.460706472396850586e+00 5.449585437774658203e+00 2.373087644577026367e+00 -4.039414882659912109e+00
3.012000000000000000e+03 3.337866973876953125e+01 -1.148075103759765625e+01 1.812207460403442383e+00 1.995021581649780273e+00 1.142168760299682617e+00 3.502731025218963623e-01
3.013000000000000000e+03 3.547334671020507812e+01 -2.849359750747680664e+00 -6.489048600196838379e-01 3.303528070449829102e+00 7.963869571685791016e-01 6.237030625343322754e-01
3.014000000000000000e+03 3.555557632446289062e+01 -3.759639263153076172e+00 6.290756165981292725e-02 3.873602390289306641e+00 1.180952906608581543e+00 6.065008044242858887e-01
3.015000000000000000e+03 7.687930297851562500e+01 -1.917365264892578125e+01 -9.275184273719787598e-01 1.028124427795410156e+01 2.806117773056030273e+00 -2.371972799301147461e+00
3.016000000000000000e+03 3.325779724121093750e+01 -9.559666633605957031e+00 1.945333719253540039e+00 2.060204982757568359e+00 1.201661586761474609e+00 3.127708137035369873e-01
3.017000000000000000e+03 7.742594146728515625e+01 -1.810848808288574219e+01 -6.448571681976318359e-01 9.394697189331054688e+00 2.624952077865600586e+00 -2.686252832412719727e+00
3.018000000000000000e+03 1.196077442169189453e+01 -6.763448715209960938e+00 -1.380625069141387939e-01 1.874978393316268921e-01 1.483059767633676529e-02 -3.789328411221504211e-02
3.019000000000000000e+03 3.575870513916015625e+01 -9.112100601196289062e+00 1.913197278976440430e+00 4.791174411773681641e+00 2.011311531066894531e+00 5.680618882179260254e-01
3.020000000000000000e+03 3.534368896484375000e+01 -1.000784969329833984e+01 1.914707541465759277e+00 4.104507923126220703e+00 1.805764675140380859e+00 5.137929916381835938e-01
3.021000000000000000e+03 3.613059997558593750e+01 -1.017447757720947266e+01 1.882953882217407227e+00 5.649676799774169922e+00 2.259789228439331055e+00 5.736185908317565918e-01
3.022000000000000000e+03 7.113938903808593750e+01 -7.629959106445312500e+00 -6.316922307014465332e-01 6.861020088195800781e+00 1.868798375129699707e+00 -2.042526960372924805e+00
3.023000000000000000e+03 2.753935241699218750e+01 -8.752676963806152344e+00 1.162227511405944824e+00 -5.822825431823730469e-01 1.739834845066070557e-01 -5.168383568525314331e-02
3.024000000000000000e+03 1.330387020111083984e+01 -9.454415321350097656e+00 1.542735993862152100e-01 2.389606088399887085e-01 1.179702579975128174e-01 1.025839969515800476e-01
3.025000000000000000e+03 4.561834335327148438e+01 -2.757450675964355469e+01 1.730227172374725342e-01 2.199872732162475586e+00 7.118685841560363770e-01 -7.968626022338867188e-01
3.026000000000000000e+03 7.566203308105468750e+01 -2.152621078491210938e+01 -1.017575263977050781e+00 1.005946540832519531e+01 2.712567090988159180e+00 -1.280797719955444336e+00
3.027000000000000000e+03 9.126178741455078125e+00 5.422843933105468750e+00 -7.222526619443669915e-05 -3.079133603023365140e-05 -3.090498285018838942e-05 1.946340853464789689e-05
3.028000000000000000e+03 7.380945587158203125e+01 -2.103540039062500000e+01 -1.281560063362121582e+00 9.322218894958496094e+00 2.412197828292846680e+00 -4.025285542011260986e-01
3.029000000000000000e+03 3.343887329101562500e+01 -8.883292198181152344e+00 2.038044929504394531e+00 2.275620698928833008e+00 1.294099688529968262e+00 3.799572885036468506e-01
3.030000000000000000e+03 5.849631118774414062e+01 3.290518045425415039e+00 -1.818685173988342285e+00 3.289287686347961426e-01 -4.469269216060638428e-01 -5.345702767372131348e-01
3.031000000000000000e+03 5.909881210327148438e+01 1.811659336090087891e+00 -2.414963960647583008e+00 1.507655680179595947e-01 -6.792594790458679199e-01 -3.020126521587371826e-01
3.032000000000000000e+03 7.482138824462890625e+01 -2.312481689453125000e+01 -7.514977455139160156e-01 9.240420341491699219e+00 2.546676874160766602e+00 -8.439840078353881836e-01
3.033000000000000000e+03 3.274118804931640625e+01 -9.166692733764648438e+00 2.063559055328369141e+00 1.478697180747985840e+00 1.062676906585693359e+00 4.009283781051635742e-01
3.034000000000000000e+03 7.587676525115966797e+00 6.354355812072753906e+00 -2.948873407149221748e-05 -4.212148633087053895e-05 -2.148306521121412516e-05 1.105088886106386781e-04
3.035000000000000000e+03 7.482791137695312500e+01 -2.540922355651855469e+01 -4.594629406929016113e-01 8.914873123168945312e+00 2.536623239517211914e+00 -6.312547922134399414e-01
3.036000000000000000e+03 5.058034515380859375e+01 2.372772216796875000e+01 1.051053166389465332e+00 4.099425792694091797e+00 1.545143723487854004e+00 7.595370411872863770e-01
3.037000000000000000e+03 4.997829437255859375e+01 5.907723426818847656e+00 -5.040588974952697754e-01 2.902476191520690918e-01 -6.414338201284408569e-02 1.829735934734344482e-01
3.038000000000000000e+03 3.308715820312500000e+01 -4.867783069610595703e+00 6.102793216705322266e-01 7.446006536483764648e-01 4.064640104770660400e-01 -3.733065444976091385e-03
3.039000000000000000e+03 3.218441390991210938e+01 -9.885002136230468750e+00 1.937653183937072754e+00 1.026310205459594727e+00 8.891890645027160645e-01 3.571236133575439453e-01
3.040000000000000000e+03 7.348116302490234375e+01 -3.071013069152832031e+01 -6.051751971244812012e-01 7.567458629608154297e+00 2.088685035705566406e+00 9.414778323844075203e-04
3.041000000000000000e+03 5.289469909667968750e+01 2.267607307434082031e+01 1.236968517303466797e+00 3.608559846878051758e+00 1.453658580780029297e+00 6.486569643020629883e-01
3.042000000000000000e+03 6.920227527618408203e+00 2.907765388488769531e+01 -2.752130676526576281e-04 4.642466228688135743e-05 -6.863651651656255126e-05 -3.511631221044808626e-04
3.043000000000000000e+03 6.007264709472656250e+01 3.972474575042724609e+00 -1.219398260116577148e+00 7.808334231376647949e-01 -1.315694600343704224e-01 -9.264439344406127930e-01
3.044000000000000000e+03 5.658582305908203125e+01 6.522074699401855469e+00 -4.728163182735443115e-01 6.008328795433044434e-01 3.840497136116027832e-02 -6.863879561424255371e-01
3.045000000000000000e+03 4.788877105712890625e+01 1.199152946472167969e+01 2.038385868072509766e+00 3.433177709579467773e+00 1.641469120979309082e+00 1.898530125617980957e+00
3.046000000000000000e+03 7.265229034423828125e+01 2.281725311279296875e+01 2.699546217918395996e-01 4.463556289672851562e+00 1.420053362846374512e+00 -6.233489513397216797e-01
3.047000000000000000e+03 5.968474578857421875e+01 5.687569618225097656e+00 -6.311664581298828125e-01 9.377907514572143555e-01 9.198728948831558228e-02 -1.047089338302612305e+00
3.048000000000000000e+03 9.077885627746582031e+00 5.998352527618408203e+00 8.772247383603826165e-05 1.127070663642371073e-05 2.969795423268806189e-05 -1.245275961991865188e-05
3.049000000000000000e+03 7.275536346435546875e+01 -5.985518455505371094e+00 -1.312292456626892090e+00 8.181215286254882812e+00 2.060676813125610352e+00 -9.270831942558288574e-01
3.050000000000000000e+03 7.356413269042968750e+01 -6.282142639160156250e+00 -1.421053767204284668e+00 8.998302459716796875e+00 2.273174524307250977e+00 -4.642010629177093506e-01
3.051000000000000000e+03 7.335961914062500000e+01 -6.746212482452392578e+00 -1.458013057708740234e+00 9.274338722229003906e+00 2.344897747039794922e+00 -6.261876821517944336e-01
3.052000000000000000e+03 5.249703979492187500e+01 2.113947105407714844e+01 1.369327306747436523e+00 3.522533416748046875e+00 1.467558264732360840e+00 7.381047606468200684e-01
3.053000000000000000e+03 6.323654937744140625e+01 4.476566791534423828e+00 -7.817704081535339355e-01 1.830060482025146484e+00 3.144870400428771973e-01 -1.420566678047180176e+00
3.054000000000000000e+03 6.221144485473632812e+01 5.629534721374511719e+00 -5.115099549293518066e-01 1.621754884719848633e+00 3.330734968185424805e-01 -1.369328737258911133e+00
3.055000000000000000e+03 7.362564086914062500e+01 9.772744774818420410e-01 -5.359984636306762695e-01 6.862505912780761719e+00 1.897952318191528320e+00 -8.684818148612976074e-01
3.056000000000000000e+03 1.016316795349121094e+01 1.088439559936523438e+01 -1.694249840511474758e-05 2.154107278329320252e-05 1.379572154291963670e-06 -5.139751738170161843e-05
3.057000000000000000e+03 6.120631408691406250e+01 6.830686569213867188e+00 -2.051746696233749390e-01 1.466411352157592773e+00 3.783710002899169922e-01 -1.290828108787536621e+00
3.058000000000000000e+03 5.665288925170898438e+01 1.198634719848632812e+01 1.237958431243896484e+00 1.473040699958801270e+00 8.132997155189514160e-01 -4.248286485671997070e-01
3.059000000000000000e+03 7.275057220458984375e+01 -6.762909889221191406e+00 -1.326413393020629883e+00 8.617648124694824219e+00 2.187370538711547852e+00 -1.057728052139282227e+00
3.060000000000000000e+03 6.809980773925781250e+01 1.737588691711425781e+01 6.296194791793823242e-01 3.818438529968261719e+00 1.334417343139648438e+00 -1.099639534950256348e+00
3.061000000000000000e+03 5.973659515380859375e+01 9.319164276123046875e+00 4.976808726787567139e-01 1.429906010627746582e+00 5.782760977745056152e-01 -1.061088085174560547e+00
3.062000000000000000e+03 5.130078887939453125e+01 1.285678195953369141e+01 1.889241337776184082e+00 2.178544521331787109e+00 1.220335721969604492e+00 9.159561991691589355e-01
3.063000000000000000e+03 5.183838653564453125e+01 1.396798324584960938e+01 1.867896080017089844e+00 2.305422067642211914e+00 1.251995444297790527e+00 8.443158268928527832e-01
3.064000000000000000e+03 5.570201873779296875e+01 1.136276245117187500e+01 1.208369016647338867e+00 1.267827987670898438e+00 7.428590655326843262e-01 -3.029317259788513184e-01
3.065000000000000000e+03 6.352750015258789062e+01 6.706751823425292969e+00 -1.962911933660507202e-01 2.155940055847167969e+00 5.878946781158447266e-01 -1.530181050300598145e+00
3.066000000000000000e+03 5.454232025146484375e+01 1.350284099578857422e+01 1.630536675453186035e+00 1.814550757408142090e+00 1.033526182174682617e+00 1.507985144853591919e-01
3.067000000000000000e+03 7.384430694580078125e+01 4.228808879852294922e+00 -2.450806051492691040e-01 6.562049865722656250e+00 1.895090699195861816e+00 -1.088295817375183105e+00
3.068000000000000000e+03 6.661189270019531250e+01 8.313446998596191406e+00 5.042941123247146606e-02 3.294651031494140625e+00 1.003524184226989746e+00 -1.661469101905822754e+00
3.069000000000000000e+03 7.221102905273437500e+01 6.897497653961181641e+00 -1.469225883483886719e-01 5.469287872314453125e+00 1.596709609031677246e+00 -1.411220192909240723e+00
3.070000000000000000e+03 6.033499908447265625e+01 1.012698745727539062e+01 6.466876864433288574e-01 1.669457435607910156e+00 6.948435306549072266e-01 -1.111391782760620117e+00
3.071000000000000000e+03 6.239347839355468750e+01 1.080620479583740234e+01 6.209846735000610352e-01 2.195676088333129883e+00 8.449982404708862305e-01 -1.303573369979858398e+00
3.072000000000000000e+03 6.982394409179687500e+01 -1.380701160430908203e+01 -1.659060597419738770e+00 -2.304860018193721771e-02 -5.046327710151672363e-01 3.343689814209938049e-02
3.073000000000000000e+03 6.895697784423828125e+01 -1.304846286773681641e+01 -1.561731845140457153e-01 2.120958119630813599e-01 1.677678711712360382e-02 3.347726464271545410e-01
3.074000000000000000e+03 6.952723693847656250e+01 -1.344532299041748047e+01 -5.883966088294982910e-01 3.170282244682312012e-01 -8.141051977872848511e-02 3.452150225639343262e-01
3.075000000000000000e+03 6.975332641601562500e+01 -1.324475288391113281e+01 -1.315312981605529785e-01 2.276403307914733887e-01 2.883270941674709320e-02 3.059758245944976807e-01
3.076000000000000000e+03 6.895287322998046875e+01 -1.376084327697753906e+01 -7.468872070312500000e-01 1.675605624914169312e-01 -1.737979948520660400e-01 2.170012146234512329e-01
3.077000000000000000e+03 6.953404998779296875e+01 -1.268031120300292969e+01 7.715867757797241211e-01 3.458102941513061523e-01 3.352191150188446045e-01 3.890075162053108215e-02
3.078000000000000000e+03 6.860395812988281250e+01 -1.320857620239257812e+01 -1.397283226251602173e-01 5.659672990441322327e-02 -2.493947930634021759e-02 3.275463283061981201e-01
3.079000000000000000e+03 6.806096649169921875e+01 -1.309192562103271484e+01 -2.831460535526275635e-01 -5.815140008926391602e-01 -2.593980133533477783e-01 5.231277942657470703e-01
3.080000000000000000e+03 6.967813110351562500e+01 -1.287314891815185547e+01 5.439879298210144043e-01 3.121036291122436523e-01 2.568274736404418945e-01 1.294395476579666138e-01
3.081000000000000000e+03 6.973354339599609375e+01 -1.305157756805419922e+01 2.373875975608825684e-01 1.936459094285964966e-01 1.293100565671920776e-01 1.634139120578765869e-01
3.082000000000000000e+03 6.946266174316406250e+01 -1.322975730895996094e+01 -2.379298061132431030e-01 2.769181430339813232e-01 1.169649884104728699e-02 2.782157659530639648e-01
3.083000000000000000e+03 6.948076629638671875e+01 -1.301621246337890625e+01 2.420418858528137207e-01 3.261960744857788086e-01 1.704713851213455200e-01 2.404562979936599731e-01
3.084000000000000000e+03 6.920915985107421875e+01 -1.286344909667968750e+01 2.834269106388092041e-01 2.874838709831237793e-01 1.712732315063476562e-01 1.822636276483535767e-01
3.085000000000000000e+03 6.945704650878906250e+01 -1.394223499298095703e+01 -1.220242381095886230e+00 1.500689983367919922e-01 -3.210520148277282715e-01 -6.058119237422943115e-02
3.086000000000000000e+03 6.961036682128906250e+01 -1.364319229125976562e+01 -8.736719489097595215e-01 2.352861315011978149e-01 -1.915157437324523926e-01 2.907534241676330566e-01
3.087000000000000000e+03 6.914675140380859375e+01 -1.326440715789794922e+01 -1.909540593624114990e-01 1.949717253446578979e-01 1.205297885462641716e-03 3.894539773464202881e-01
3.088000000000000000e+03 6.829167938232421875e+01 -1.370272636413574219e+01 -2.785299122333526611e-01 -2.214553356170654297e-01 -1.499955803155899048e-01 2.484413385391235352e-01
3.089000000000000000e+03 6.978958129882812500e+01 -1.344644260406494141e+01 -6.393681168556213379e-01 1.281653344631195068e-01 -1.533608436584472656e-01 2.884291112422943115e-01
3.090000000000000000e+03 6.932874298095703125e+01 -1.369626140594482422e+01 -8.052607774734497070e-01 3.261743783950805664e-01 -1.437259167432785034e-01 2.570081353187561035e-01
3.091000000000000000e+03 6.982858276367187500e+01 -1.364023113250732422e+01 -1.081700563430786133e+00 2.363127283751964569e-02 -3.174207806587219238e-01 1.597141325473785400e-01
3.092000000000000000e+03 6.881220245361328125e+01 -1.281613826751708984e+01 1.712750643491744995e-01 2.342556118965148926e-01 1.216592043638229370e-01 2.016273438930511475e-01
3.093000000000000000e+03 6.831332397460937500e+01 -1.294213771820068359e+01 -2.098162770271301270e-01 -3.436029255390167236e-01 -1.660257577896118164e-01 4.022520482540130615e-01
3.094000000000000000e+03 6.924117279052734375e+01 -1.347358989715576172e+01 -6.484469771385192871e-01 1.857250928878784180e-01 -1.388165652751922607e-01 2.112461179494857788e-01
3.095000000000000000e+03 6.888940429687500000e+01 -1.341467761993408203e+01 -2.825916707515716553e-01 2.039659321308135986e-01 -2.358772046864032745e-02 2.766449153423309326e-01
3.096000000000000000e+03 1.628620338439941406e+01 -1.255944609642028809e+00 -7.350385785102844238e-01 -8.074741810560226440e-03 -2.229339927434921265e-01 4.952016845345497131e-02
3.097000000000000000e+03 1.779829025268554688e+01 -2.059187889099121094e+00 -6.092504858970642090e-01 -2.684919163584709167e-02 -1.908299028873443604e-01 1.967036910355091095e-02
3.098000000000000000e+03 1.623538208007812500e+01 -1.994474172592163086e+00 -6.024319529533386230e-01 -2.874682284891605377e-02 -1.893536299467086792e-01 4.803211241960525513e-02
3.099000000000000000e+03 1.858121871948242188e+01 -2.091711521148681641e+00 -5.844327807426452637e-01 -3.134231641888618469e-02 -1.847325265407562256e-01 5.496177356690168381e-03
3.100000000000000000e+03 1.856809425354003906e+01 -1.350533485412597656e+00 -7.280172109603881836e-01 -2.529328316450119019e-02 -2.259931564331054688e-01 5.360166076570749283e-03
3.101000000000000000e+03 1.704577255249023438e+01 -1.287305474281311035e+00 -7.093548178672790527e-01 -1.054747961461544037e-02 -2.159706950187683105e-01 3.409134969115257263e-02
3.102000000000000000e+03 1.701626777648925781e+01 -2.026717901229858398e+00 -6.129291057586669922e-01 -1.059206482023000717e-02 -1.870563477277755737e-01 4.274006560444831848e-02
3.103000000000000000e+03 1.780648040771484375e+01 -1.318892598152160645e+00 -7.043686509132385254e-01 1.525526400655508041e-03 -2.108529359102249146e-01 2.766058966517448425e-02
3.104000000000000000e+03 2.016102409362792969e+01 -1.984116315841674805e+00 -5.790581703186035156e-01 -1.194112561643123627e-02 -1.772997975349426270e-01 -1.483950298279523849e-02
3.105000000000000000e+03 1.932956504821777344e+01 -1.326877713203430176e+00 -7.068548202514648438e-01 -1.511291414499282837e-02 -2.165903300046920776e-01 -3.222816437482833862e-02
3.106000000000000000e+03 2.095439147949218750e+01 -1.900163888931274414e+00 -5.571776628494262695e-01 -1.896210387349128723e-02 -1.728419214487075806e-01 -3.328148275613784790e-02
3.107000000000000000e+03 1.936882019042968750e+01 -2.066858530044555664e+00 -5.726641416549682617e-01 -4.179553315043449402e-02 -1.843378990888595581e-01 5.383219104260206223e-03
3.108000000000000000e+03 2.174835014343261719e+01 -1.814883351325988770e+00 -5.319258570671081543e-01 -5.327144754119217396e-04 -1.597375720739364624e-01 -3.254803642630577087e-02
3.109000000000000000e+03 2.161623764038085938e+01 -1.084643244743347168e+00 -5.985710620880126953e-01 -1.846680417656898499e-02 -1.851113587617874146e-01 -6.155784800648689270e-02
3.110000000000000000e+03 2.009082221984863281e+01 -1.247412800788879395e+00 -6.429628133773803711e-01 -1.227988954633474350e-02 -1.965728104114532471e-01 -5.069142952561378479e-02
3.111000000000000000e+03 2.085324478149414062e+01 -1.166737556457519531e+00 -6.135872006416320801e-01 -2.791736973449587822e-03 -1.849136799573898315e-01 -5.563768371939659119e-02
3.112000000000000000e+03 2.387390518188476562e+01 -4.479292035102844238e-01 -1.255514919757843018e-01 3.851960226893424988e-02 -2.610956504940986633e-02 6.838184595108032227e-02
3.113000000000000000e+03 2.338660240173339844e+01 -1.393575310707092285e+00 -5.562300682067871094e-01 1.056590974330902100e-01 -1.351712942123413086e-01 -1.426858245395123959e-03
3.114000000000000000e+03 2.463154602050781250e+01 -7.788130044937133789e-01 -3.255940079689025879e-01 -1.011110991239547729e-01 -1.280115246772766113e-01 1.257350444793701172e-01
3.115000000000000000e+03 2.316317939758300781e+01 -6.830692291259765625e-01 -3.176392614841461182e-01 4.978039115667343140e-02 -8.035766333341598511e-02 -7.877038791775703430e-03
3.116000000000000000e+03 2.239013290405273438e+01 -9.233466386795043945e-01 -4.973818361759185791e-01 -6.027764175087213516e-03 -1.510228812694549561e-01 -6.228223070502281189e-02
3.117000000000000000e+03 2.256301116943359375e+01 -1.645976901054382324e+00 -5.334835648536682129e-01 3.940013796091079712e-02 -1.482250243425369263e-01 2.550381002947688103e-03
3.118000000000000000e+03 2.414787673950195312e+01 -1.146310925483703613e+00 -5.843395590782165527e-01 4.932270944118499756e-02 -1.605050563812255859e-01 2.873063273727893829e-02
3.119000000000000000e+03 2.268977355957031250e+01 7.519461512565612793e-01 -3.721391476574353874e-05 -1.507604611106216908e-05 -1.568698826304171234e-05 -2.028042217716574669e-05
3.120000000000000000e+03 2.288392829895019531e+01 3.258301690220832825e-02 1.275028262170962989e-05 6.521193427033722401e-06 5.781442723673535511e-06 -5.329877694748574868e-06
3.121000000000000000e+03 2.203942871093750000e+01 5.569665431976318359e-01 9.661827789386734366e-06 3.639112037490122020e-05 1.381588481308426708e-05 6.032254532328806818e-06
3.122000000000000000e+03 2.220252990722656250e+01 -1.685228794813156128e-01 -9.479850632487796247e-06 -6.735000624757958576e-06 -4.864455149800051004e-06 -2.048754822681075893e-06
3.123000000000000000e+03 2.341383171081542969e+01 3.852292895317077637e-01 -2.678757027751998976e-06 -8.176479241228662431e-06 -3.256570835219463333e-06 1.775798068592848722e-06
3.124000000000000000e+03 2.086642074584960938e+01 -3.808408677577972412e-01 -1.095941752282669768e-05 -9.029785360326059163e-06 -5.996761046844767407e-06 6.527716323034837842e-07
3.125000000000000000e+03 2.032355690002441406e+01 -5.136474370956420898e-01 4.468323822948150337e-06 2.745449637586716563e-05 9.576845513947773725e-06 2.911421006501768716e-06
3.126000000000000000e+03 2.127867507934570312e+01 4.179379940032958984e-01 -1.313030224991962314e-05 -2.101352765748742968e-05 -1.024314951791893691e-05 1.371316830045543611e-05
3.127000000000000000e+03 1.928600883483886719e+01 1.842018812894821167e-01 -4.123153121327050030e-05 6.627994025620864704e-06 -1.038106074702227488e-05 1.020195668388623744e-05
3.128000000000000000e+03 1.994704437255859375e+01 -1.048566401004791260e-02 -8.461624929623212665e-06 -6.573844075319357216e-06 -4.510640792432241142e-06 -1.862667340901680291e-05
3.129000000000000000e+03 1.923109054565429688e+01 -5.657521486282348633e-01 1.469227845518616959e-05 -8.061039807216729969e-06 1.989371412491891533e-06 -8.438608347205445170e-06
3.130000000000000000e+03 2.048274993896484375e+01 3.226658403873443604e-01 4.272230944479815662e-05 3.804687821684638038e-06 1.395809977111639455e-05 -3.955789907195139676e-06
3.131000000000000000e+03 2.150494194030761719e+01 -3.022379875183105469e-01 3.461650067038135603e-06 7.660401934117544442e-06 3.336615691296174191e-06 -1.225970436280476861e-06
3.132000000000000000e+03 1.981065368652343750e+01 -5.720503926277160645e-01 1.133486193793942221e-07 -2.029269307968206704e-05 -6.053803190297912806e-06 1.308937407884513959e-05
3.133000000000000000e+03 1.707793617248535156e+01 -5.109162330627441406e-01 -7.510367595386924222e-06 -9.169569239020347595e-06 -5.003981186746386811e-06 -1.362828061246545985e-05
3.134000000000000000e+03 1.633993148803710938e+01 -4.782602787017822266e-01 7.138625278457766399e-06 3.061501411139033735e-05 1.132609122578287497e-05 1.404692648065974936e-05
3.135000000000000000e+03 1.781616592407226562e+01 -5.415064096450805664e-01 1.073918429028708488e-05 -9.082330507226288319e-06 4.970561917616578285e-07 8.798914677754510194e-06
3.136000000000000000e+03 1.854128074645996094e+01 1.711868941783905029e-01 3.803358413279056549e-05 1.035686295836057980e-06 1.172078100353246555e-05 8.641422937216702849e-06
3.137000000000000000e+03 1.855440711975097656e+01 -5.699911117553710938e-01 -8.999671990750357509e-06 1.609036371519323438e-05 2.127207153534982353e-06 -2.233576651633484289e-06
3.138000000000000000e+03 1.639075088500976562e+01 2.602692842483520508e-01 -1.836248156905639917e-05 -3.821700374828651547e-05 -1.697384504950605333e-05 -3.492086761980317533e-05
3.139000000000000000e+03 1.710744285583496094e+01 2.284961640834808350e-01 2.429646701784804463e-05 2.525342461012769490e-05 1.486496694269590080e-05 3.449407813604921103e-05
3.140000000000000000e+03 1.782435607910156250e+01 1.987887471914291382e-01 -3.163857400068081915e-05 -1.147331386164296418e-05 -1.293356581300031394e-05 -2.710181252041365951e-05
3.141000000000000000e+03 1.421318435668945312e+01 5.040000677108764648e-01 1.121046716434648260e-05 5.668320227414369583e-05 2.036810110439546406e-05 1.039495055010775104e-05
3.142000000000000000e+03 1.412459087371826172e+01 -2.306861728429794312e-01 -5.269169832899933681e-06 -6.187427788972854614e-05 -2.014303390751592815e-05 -8.653306394990067929e-06
3.143000000000000000e+03 1.338628387451171875e+01 -1.375386416912078857e-01 5.507059086085064337e-06 5.815592885483056307e-05 1.909889579110313207e-05 5.451122433441923931e-06
3.144000000000000000e+03 1.486306858062744141e+01 -3.233485221862792969e-01 6.143497103039408103e-06 5.796418918180279434e-05 1.923230593092739582e-05 1.155873633251758292e-05
3.145000000000000000e+03 1.566856193542480469e+01 3.219058215618133545e-01 1.753863216436002403e-05 4.698717384599149227e-05 1.935774162120651454e-05 2.755791319941636175e-05
3.146000000000000000e+03 1.560165977478027344e+01 -4.155019819736480713e-01 -6.993345323280664161e-06 -4.689453999162651598e-05 -1.616636473045218736e-05 -1.307541333517292514e-05
3.147000000000000000e+03 1.348572158813476562e+01 5.957868695259094238e-01 -1.285478356294333935e-05 -5.559647979680448771e-05 -2.053537900792434812e-05 -2.452120270390878431e-06
3.148000000000000000e+03 1.494081592559814453e+01 4.126985073089599609e-01 -1.284689278691075742e-05 -5.388950012275017798e-05 -2.002091787289828062e-05 -2.004856651183217764e-05
3.149000000000000000e+03 1.115022563934326172e+01 2.165033817291259766e-01 -6.402874532795976847e-06 -3.235306576243601739e-05 -1.162678199762012810e-05 -1.126582674260134809e-06
3.150000000000000000e+03 1.122651290893554688e+01 9.537453055381774902e-01 1.945069561770651489e-05 3.411385478102602065e-05 1.606936530151870102e-05 -3.225856744393240660e-06
3.151000000000000000e+03 1.040434932708740234e+01 3.321511745452880859e-01 5.519190381164662540e-06 2.637446414155419916e-05 9.568096174916718155e-06 6.812953756707429420e-07
3.152000000000000000e+03 1.189680099487304688e+01 9.631319344043731689e-02 5.731705186917679384e-06 3.985034345532767475e-05 1.367461482004728168e-05 1.436957973055541515e-06
3.153000000000000000e+03 1.274307727813720703e+01 7.053368687629699707e-01 1.464605884393677115e-05 4.906711546937003732e-05 1.911395156639628112e-05 -2.979681994474958628e-06
3.154000000000000000e+03 1.264393043518066406e+01 -2.822761237621307373e-02 -5.596986738964915276e-06 -4.900969361187890172e-05 -1.638200410525314510e-05 -2.929269840024062432e-06
3.155000000000000000e+03 1.046920776367187500e+01 1.071231842041015625e+00 -1.760615123203024268e-05 -2.796265835058875382e-05 -1.367064305668463930e-05 2.019250587181886658e-06
3.156000000000000000e+03 1.198451900482177734e+01 8.317164182662963867e-01 -1.794967647583689541e-05 -4.179391908110119402e-05 -1.792307921277824789e-05 4.299888132663909346e-06
3.157000000000000000e+03 8.874713897705078125e+00 3.907073438167572021e-01 6.173080691951327026e-06 1.935059481183998287e-05 7.657102287339512259e-06 1.606374894436157774e-06
3.158000000000000000e+03 9.645540237426757812e+00 3.903963863849639893e-01 -6.981710157560883090e-06 -2.156247319362591952e-05 -8.563254596083424985e-06 -1.270483380721998401e-06
3.159000000000000000e+03 7.374577522277832031e+00 1.131132245063781738e+00 -2.062445673800539225e-05 -1.648484976612962782e-05 -1.113279176934156567e-05 -2.363245812375680543e-06
3.160000000000000000e+03 7.331357002258300781e+00 3.911322057247161865e-01 6.864367151138139889e-06 1.661495662119705230e-05 7.043796813377412036e-06 1.705119984762859531e-06
3.161000000000000000e+03 5.045433998107910156e+00 1.131745219230651855e+00 2.401427991571836174e-05 1.474781129218172282e-05 1.162862736237002537e-05 9.815028533921577036e-06
3.162000000000000000e+03 2.715631723403930664e+00 1.131616950035095215e+00 -8.716875527170486748e-06 -2.298300205438863486e-05 -9.509963092568796128e-06 -6.136426236480474472e-06
3.163000000000000000e+03 2.699708461761474609e+00 3.916168808937072754e-01 3.644683602033182979e-06 4.163746052654460073e-05 1.358464305667439476e-05 1.606005412213562522e-06
3.164000000000000000e+03 1.939137935638427734e+00 1.131583452224731445e+00 2.629829168654396199e-06 2.867808689188677818e-05 9.392374522576574236e-06 -8.835800144879613072e-06
3.165000000000000000e+03 1.927764058113098145e+00 3.915834426879882812e-01 -2.637254965520696715e-06 -3.490305971354246140e-05 -1.126209463109262288e-05 6.161266810522647575e-06
3.166000000000000000e+03 1.156864285469055176e+00 3.912966847419738770e-01 8.928029274102300406e-06 1.833002170315012336e-05 8.177415111276786774e-06 -9.256435987481381744e-06
3.167000000000000000e+03 3.880036771297454834e-01 1.130522727966308594e+00 4.907336551696062088e-05 8.580672329117078334e-06 1.729620998958125710e-05 -1.607158628758043051e-05
3.168000000000000000e+03 3.857289254665374756e-01 3.905227184295654297e-01 -1.206000979436794296e-05 -4.347703452367568389e-06 -4.922314019495388493e-06 3.937039309676038101e-06
3.169000000000000000e+03 4.243989944458007812e+00 3.916435539722442627e-01 7.478292900486849248e-06 2.996662988152820617e-05 1.123347647080663592e-05 6.039269919710932299e-06
3.170000000000000000e+03 3.472155570983886719e+00 3.916060328483581543e-01 -6.207906608324265108e-06 -3.778094833251088858e-05 -1.319665625487687066e-05 -5.740661890740739182e-06
3.171000000000000000e+03 4.269012451171875000e+00 1.131643533706665039e+00 -2.295404738106299192e-05 -1.611204424989409745e-05 -1.171982694359030575e-05 -1.272364443138940260e-05
3.172000000000000000e+03 5.015861988067626953e+00 3.917452692985534668e-01 -7.600255685247248039e-06 -2.304030022060032934e-05 -9.192166544380597770e-06 -4.803976935363607481e-06
3.173000000000000000e+03 5.788088321685791016e+00 3.919011354446411133e-01 7.468781859643058851e-06 1.866553247964475304e-05 7.840294529160019010e-06 3.366479177202563733e-06
3.174000000000000000e+03 6.598729610443115234e+00 1.131563067436218262e+00 2.184236836910713464e-05 1.495173637522384524e-05 1.103823160519823432e-05 4.029985575471073389e-06
3.175000000000000000e+03 6.560058593750000000e+00 3.915631175041198730e-01 -6.951611794647760689e-06 -1.675941712164785713e-05 -7.113308583939215168e-06 -2.322879709026892669e-06
3.176000000000000000e+03 8.103197097778320312e+00 3.908808529376983643e-01 -6.502461019408656284e-06 -1.766159948601853102e-05 -7.249218015203950927e-06 -1.355281256110174581e-06
3.177000000000000000e+03 8.150966644287109375e+00 1.130880832672119141e+00 1.959078872459940612e-05 1.820189936552196741e-05 1.133780642703641206e-05 1.719907231745310128e-06
3.178000000000000000e+03 8.927033424377441406e+00 1.130707383155822754e+00 -1.901257201097905636e-05 -2.074672011076472700e-05 -1.192778745462419465e-05 -1.102549163078947458e-06
3.179000000000000000e+03 9.702409744262695312e+00 1.130396366119384766e+00 1.988461008295416832e-05 2.359167592658195645e-05 1.304288616665871814e-05 9.341375175608845893e-07
3.180000000000000000e+03 5.822209835052490234e+00 1.131901144981384277e+00 -2.301051245012786239e-05 -1.438203162251738831e-05 -1.121776313084410504e-05 -6.625179139518877491e-06
3.181000000000000000e+03 3.492628335952758789e+00 1.131605982780456543e+00 1.835105103964451700e-05 1.863793477241415530e-05 1.109669574361760169e-05 1.266925573872867972e-05
3.182000000000000000e+03 1.163688659667968750e+00 1.131296634674072266e+00 -1.819415956560987979e-05 -2.434790076222270727e-05 -1.276261809834977612e-05 2.530777601350564510e-05
3.183000000000000000e+03 1.328147125244140625e+01 -9.107246994972229004e-01 -6.616511344909667969e-01 -5.936673842370510101e-03 -2.002763450145721436e-01 7.521884143352508545e-02
3.184000000000000000e+03 1.470345211029052734e+01 -1.836183547973632812e+00 -6.043192744255065918e-01 -1.232663355767726898e-02 -1.849937587976455688e-01 4.484323784708976746e-02
3.185000000000000000e+03 1.318203258514404297e+01 -1.644050240516662598e+00 -5.655853152275085449e-01 -4.856565035879611969e-03 -1.711325645446777344e-01 3.744013980031013489e-02
3.186000000000000000e+03 1.478120040893554688e+01 -1.100136518478393555e+00 -6.984676122665405273e-01 -3.550313645973801613e-03 -2.106053829193115234e-01 7.718674093484878540e-02
3.187000000000000000e+03 1.546425342559814453e+01 -1.930399060249328613e+00 -6.024693250656127930e-01 -1.311912108212709427e-02 -1.846765428781509399e-01 4.496827721595764160e-02
3.188000000000000000e+03 1.553115558624267578e+01 -1.192991256713867188e+00 -7.310605049133300781e-01 -2.179198339581489563e-02 -2.258557379245758057e-01 6.813541054725646973e-02
3.189000000000000000e+03 1.403127861022949219e+01 -1.006039500236511230e+00 -6.787892580032348633e-01 -1.297319121658802032e-02 -2.075287252664566040e-01 7.395504415035247803e-02
3.190000000000000000e+03 1.394268608093261719e+01 -1.740725755691528320e+00 -5.885618925094604492e-01 3.302449127659201622e-03 -1.755778342485427856e-01 4.835696145892143250e-02
3.191000000000000000e+03 1.171745300292968750e+01 -1.416588187217712402e+00 -5.184905529022216797e-01 9.923409670591354370e-03 -1.525701433420181274e-01 1.410353370010852814e-02
3.192000000000000000e+03 1.027132415771484375e+01 -1.186757922172546387e+00 -4.592885673046112061e-01 3.080749139189720154e-02 -1.285443305969238281e-01 -1.197971124202013016e-02
3.193000000000000000e+03 1.244032764434814453e+01 -1.534988999366760254e+00 -5.433312654495239258e-01 1.062305364757776260e-02 -1.598124653100967407e-01 2.667218446731567383e-02
3.194000000000000000e+03 1.253947448730468750e+01 -8.014244437217712402e-01 -6.278483271598815918e-01 -1.475318521261215210e-02 -1.927804499864578247e-01 7.358410954475402832e-02
3.195000000000000000e+03 1.180517101287841797e+01 -6.811850070953369141e-01 -5.774860978126525879e-01 -1.061003771610558033e-03 -1.735641360282897949e-01 6.836395710706710815e-02
3.196000000000000000e+03 1.107078933715820312e+01 -5.637502074241638184e-01 -5.251902341842651367e-01 -5.837875418365001678e-03 -1.593084335327148438e-01 5.485359579324722290e-02
3.197000000000000000e+03 1.099450206756591797e+01 -1.300992131233215332e+00 -4.830074608325958252e-01 2.842891402542591095e-02 -1.363735646009445190e-01 1.201132661662995815e-03
3.198000000000000000e+03 1.033618259429931641e+01 -4.476772546768188477e-01 -4.589219987392425537e-01 1.365676056593656540e-02 -1.335795670747756958e-01 3.443175181746482849e-02
3.199000000000000000e+03 9.576753616333007812e+00 -3.928347527980804443e-01 -4.275286793708801270e-01 1.010391395539045334e-02 -1.252274364233016968e-01 4.473039880394935608e-03
3.200000000000000000e+03 9.504050254821777344e+00 -1.132834792137145996e+00 -4.235229194164276123e-01 3.407359123229980469e-02 -1.168347969651222229e-01 -1.822301559150218964e-02
3.201000000000000000e+03 8.792594909667968750e+00 -3.964475393295288086e-01 -4.221854209899902344e-01 6.453539244830608368e-03 -1.247195675969123840e-01 -1.287272199988365173e-02
3.202000000000000000e+03 8.008638381958007812e+00 -3.979170620441436768e-01 -3.894374370574951172e-01 1.090227044187486172e-03 -1.165041625499725342e-01 -2.149662561714649200e-02
3.203000000000000000e+03 7.224994659423828125e+00 -3.992207646369934082e-01 -3.437363207340240479e-01 2.969063818454742432e-03 -1.022301763296127319e-01 -2.525937929749488831e-02
3.204000000000000000e+03 6.441524982452392578e+00 -4.004793763160705566e-01 -2.904280722141265869e-01 -1.611284096725285053e-04 -8.717675507068634033e-02 -2.895153313875198364e-02
3.205000000000000000e+03 5.658351421356201172e+00 -4.034211039543151855e-01 -2.326159924268722534e-01 5.296197487041354179e-04 -6.962591409683227539e-02 -2.914973534643650055e-02
3.206000000000000000e+03 4.875236511230468750e+00 -4.076028764247894287e-01 -1.749655455350875854e-01 -1.217522891238331795e-03 -5.285492166876792908e-02 -2.911663427948951721e-02
3.207000000000000000e+03 4.092308998107910156e+00 -4.107097685337066650e-01 -1.199679374694824219e-01 -2.357855439186096191e-03 -3.669773787260055542e-02 -2.597620896995067596e-02
3.208000000000000000e+03 2.531672000885009766e+00 -4.164903461933135986e-01 -3.470940515398979187e-02 -4.285399336367845535e-03 -1.169844157993793488e-02 -1.461279857903718948e-02
3.209000000000000000e+03 2.214911937713623047e+00 -1.156490325927734375e+00 -4.199660941958427429e-02 -1.670793443918228149e-02 -1.761136390268802643e-02 -3.751529380679130554e-02
3.210000000000000000e+03 3.740455806255340576e-01 -5.643077492713928223e-01 3.461351152509450912e-04 1.275736605748534203e-03 4.865615046583116055e-04 6.523404736071825027e-04
3.211000000000000000e+03 1.421646475791931152e+00 -1.153123378753662109e+00 -1.887010969221591949e-02 -1.487805135548114777e-02 -1.012444868683815002e-02 -1.771983876824378967e-02
3.212000000000000000e+03 8.692774772644042969e+00 -1.136447548866271973e+00 -3.773069381713867188e-01 1.693980582058429718e-02 -1.081101372838020325e-01 -4.110370203852653503e-02
3.213000000000000000e+03 7.881700515747070312e+00 -1.137917041778564453e+00 -3.431976139545440674e-01 1.309570483863353729e-02 -9.903056919574737549e-02 -5.858720466494560242e-02
3.214000000000000000e+03 7.070939540863037109e+00 -1.139220714569091797e+00 -3.010972142219543457e-01 5.249632056802511215e-03 -8.875427395105361938e-02 -7.197392731904983521e-02
3.215000000000000000e+03 6.260352134704589844e+00 -1.140479445457458496e+00 -2.547515034675598145e-01 3.782571526244282722e-03 -7.529067993164062500e-02 -7.640315592288970947e-02
3.216000000000000000e+03 5.450060844421386719e+00 -1.143421053886413574e+00 -2.070978134870529175e-01 -1.900866627693176270e-03 -6.269960105419158936e-02 -8.019315451383590698e-02
3.217000000000000000e+03 4.639828681945800781e+00 -1.147602915763854980e+00 -1.582910418510437012e-01 -5.168123170733451843e-03 -4.903775081038475037e-02 -7.576113194227218628e-02
3.218000000000000000e+03 3.829783916473388672e+00 -1.150709748268127441e+00 -1.137991547584533691e-01 -1.036523561924695969e-02 -3.724931553006172180e-02 -6.887897849082946777e-02
3.219000000000000000e+03 3.020616531372070312e+00 -1.151894450187683105e+00 -7.331568747758865356e-02 -1.407949719578027725e-02 -2.621855586767196655e-02 -5.434817075729370117e-02
3.220000000000000000e+03 3.310259342193603516e+00 -4.118944704532623291e-01 -7.216785103082656860e-02 -2.900603692978620529e-03 -2.252053655683994293e-02 -2.112440019845962524e-02
3.221000000000000000e+03 1.765524148941040039e+00 -4.131233394145965576e-01 -1.083797961473464966e-02 -3.112444421276450157e-03 -4.185127094388008118e-03 -7.120942696928977966e-03
3.222000000000000000e+03 1.067645549774169922e+00 -3.868701159954071045e-01 -3.388995828572660685e-04 -2.724210033193230629e-03 -9.189328993670642376e-04 -1.112032448872923851e-03
3.223000000000000000e+03 6.966503262519836426e-01 -1.126870155334472656e+00 -5.551572889089584351e-03 -3.909315448254346848e-03 -2.838266547769308090e-03 -3.921035677194595337e-03
3.224000000000000000e+03 7.287976837158203125e+01 -1.361625385284423828e+01 3.819417190551757812e+01 1.145930290222167969e+01 1.489604187011718750e+01 1.817802238464355469e+01
3.225000000000000000e+03 7.288623046875000000e+01 -1.363461780548095703e+01 3.189222335815429688e+01 2.783158111572265625e+01 1.791714096069335938e+01 2.781700897216796875e+01
3.226000000000000000e+03 7.289614105224609375e+01 -1.365137195587158203e+01 2.774132919311523438e+01 4.202212905883789062e+01 2.092903709411621094e+01 3.004173469543457031e+01
3.227000000000000000e+03 7.290913391113281250e+01 -1.366587638854980469e+01 2.280253982543945312e+01 5.532923889160156250e+01 2.343953323364257812e+01 2.895885848999023438e+01
3.228000000000000000e+03 7.292469024658203125e+01 -1.367757415771484375e+01 1.924530792236328125e+01 6.701466369628906250e+01 2.587799263000488281e+01 2.470554351806640625e+01
3.229000000000000000e+03 7.294223785400390625e+01 -1.368601894378662109e+01 1.639963722229003906e+01 7.558451843261718750e+01 2.759524726867675781e+01 1.831245040893554688e+01
3.230000000000000000e+03 7.296108245849609375e+01 -1.369088745117187500e+01 1.622344970703125000e+01 8.114862823486328125e+01 2.921162414550781250e+01 1.040691661834716797e+01
3.231000000000000000e+03 7.298052215576171875e+01 -1.369199275970458984e+01 1.769916152954101562e+01 8.282875061035156250e+01 3.015837287902832031e+01 2.311291217803955078e+00
3.232000000000000000e+03 7.299980163574218750e+01 -1.368929290771484375e+01 2.182060432434082031e+01 8.137921142578125000e+01 3.095994377136230469e+01 -4.995913505554199219e+00
3.233000000000000000e+03 7.301818847656250000e+01 -1.368289089202880859e+01 2.689351844787597656e+01 7.711642456054687500e+01 3.120298385620117188e+01 -1.047772598266601562e+01
3.234000000000000000e+03 7.303497314453125000e+01 -1.367303180694580078e+01 3.348878860473632812e+01 7.150988769531250000e+01 3.149960327148437500e+01 -1.358678913116455078e+01
3.235000000000000000e+03 7.304952239990234375e+01 -1.366009426116943359e+01 3.929580688476562500e+01 6.496527099609375000e+01 3.127832412719726562e+01 -1.442645359039306641e+01
3.236000000000000000e+03 7.306126403808593750e+01 -1.364457130432128906e+01 4.463120269775390625e+01 5.953128433227539062e+01 3.124874687194824219e+01 -1.290935420989990234e+01
3.237000000000000000e+03 7.306977081298828125e+01 -1.362705802917480469e+01 4.871997070312500000e+01 5.493811035156250000e+01 3.109742355346679688e+01 -9.608344078063964844e+00
3.238000000000000000e+03 7.307470703125000000e+01 -1.360822486877441406e+01 5.078344726562500000e+01 5.197183990478515625e+01 3.082658576965332031e+01 -5.491403102874755859e+00
3.239000000000000000e+03 7.307587432861328125e+01 -1.358879184722900391e+01 5.132250976562500000e+01 5.137383270263671875e+01 3.080890274047851562e+01 -8.453058600425720215e-01
3.240000000000000000e+03 7.307324218750000000e+01 -1.356950283050537109e+01 5.016560363769531250e+01 5.300686645507812500e+01 3.095174217224121094e+01 3.790215730667114258e+00
3.241000000000000000e+03 7.306689453125000000e+01 -1.355109596252441406e+01 4.688534164428710938e+01 5.551922607421875000e+01 3.072137069702148438e+01 7.737154006958007812e+00
3.242000000000000000e+03 7.305709075927734375e+01 -1.353427600860595703e+01 4.303760910034179688e+01 6.018184661865234375e+01 3.096583557128906250e+01 9.957966804504394531e+00
3.243000000000000000e+03 7.304420471191406250e+01 -1.351968574523925781e+01 3.761257934570312500e+01 6.659731292724609375e+01 3.126296806335449219e+01 1.049775028228759766e+01
3.244000000000000000e+03 7.302872467041015625e+01 -1.350788402557373047e+01 3.120810508728027344e+01 7.154391479492187500e+01 3.082560729980468750e+01 9.255846977233886719e+00
3.245000000000000000e+03 7.301123809814453125e+01 -1.349932289123535156e+01 2.645737457275390625e+01 7.693816375732421875e+01 3.101866340637207031e+01 5.200671672821044922e+00
3.246000000000000000e+03 7.299242401123046875e+01 -1.349432945251464844e+01 2.183705711364746094e+01 8.003549194335937500e+01 3.056176376342773438e+01 -8.090878725051879883e-01
3.247000000000000000e+03 7.297299194335937500e+01 -1.349309444427490234e+01 1.893760299682617188e+01 8.028438568115234375e+01 2.976659584045410156e+01 -8.136944770812988281e+00
3.248000000000000000e+03 7.295369720458984375e+01 -1.349566555023193359e+01 1.848559570312500000e+01 7.738525390625000000e+01 2.876125526428222656e+01 -1.576819705963134766e+01
3.249000000000000000e+03 7.293526458740234375e+01 -1.350194549560546875e+01 2.012122344970703125e+01 7.104782867431640625e+01 2.735071563720703125e+01 -2.280436515808105469e+01
3.250000000000000000e+03 7.291841125488281250e+01 -1.351169204711914062e+01 2.284934234619140625e+01 6.151810836791992188e+01 2.531023597717285156e+01 -2.818237495422363281e+01
3.251000000000000000e+03 7.290377807617187500e+01 -1.352453231811523438e+01 2.687887382507324219e+01 5.037255859375000000e+01 2.317542839050292969e+01 -3.089900398254394531e+01
3.252000000000000000e+03 7.289192962646484375e+01 -1.353997611999511719e+01 3.022041893005371094e+01 3.758050918579101562e+01 2.034027862548828125e+01 -3.102817344665527344e+01
3.253000000000000000e+03 7.288330841064453125e+01 -1.355743217468261719e+01 3.331217193603515625e+01 2.523801612854003906e+01 1.756505775451660156e+01 -2.791314506530761719e+01
3.254000000000000000e+03 7.287825012207031250e+01 -1.357623291015625000e+01 3.416090774536132812e+01 1.351790142059326172e+01 1.430364322662353516e+01 -2.221017837524414062e+01
3.255000000000000000e+03 7.287695312500000000e+01 -1.359565734863281250e+01 3.359786605834960938e+01 3.842144012451171875e+00 1.123200321197509766e+01 -9.057493209838867188e+00
