# el_label, x, y, sXX, sYY, sZZ, sXY
1.000000000000000000e+00 1.266380500793457031e+01 -4.601029157638549805e-01 -2.019788980484008789e+00 -1.210149645805358887e+00 -9.689815640449523926e-01 -1.990875482559204102e+00
2.000000000000000000e+00 1.246506500244140625e+01 -4.491708278656005859e-01 2.277147054672241211e+00 5.808871984481811523e-01 8.574103116989135742e-01 2.642577886581420898e-01
3.000000000000000000e+00 1.226632404327392578e+01 -4.382387399673461914e-01 1.385002255439758301e+00 -2.834398448467254639e-01 3.304687440395355225e-01 -2.700161039829254150e-01
4.000000000000000000e+00 1.206758308410644531e+01 -4.273066818714141846e-01 1.295771598815917969e+00 1.624357849359512329e-01 4.374622106552124023e-01 -4.214984551072120667e-02
5.000000000000000000e+00 1.266631698608398438e+01 -5.184548497200012207e-01 9.578668594360351562e+00 -1.871232390403747559e+00 2.312230825424194336e+00 -7.982907891273498535e-01
6.000000000000000000e+00 1.246925067901611328e+01 -5.464239716529846191e-01 4.900315284729003906e+00 1.191775035113096237e-02 1.473669886589050293e+00 2.951349690556526184e-02
7.000000000000000000e+00 1.227218532562255859e+01 -5.743931531906127930e-01 5.082000732421875000e+00 2.289582341909408569e-01 1.593287706375122070e+00 6.486071348190307617e-01
8.000000000000000000e+00 1.207511901855468750e+01 -6.023623347282409668e-01 4.108135223388671875e+00 -1.078873276710510254e-01 1.200074434280395508e+00 2.641547620296478271e-01
9.000000000000000000e+00 1.268014049530029297e+01 -5.752012133598327637e-01 1.473235797882080078e+01 3.156482800841331482e-02 4.429176807403564453e+00 3.807153224945068359e+00
1.000000000000000000e+01 1.249229049682617188e+01 -6.410012245178222656e-01 9.724401473999023438e+00 4.920810833573341370e-02 2.932082891464233398e+00 1.957451820373535156e+00
1.100000000000000000e+01 1.230444049835205078e+01 -7.068013548851013184e-01 7.368112564086914062e+00 5.819658637046813965e-01 2.385023593902587891e+00 1.755341887474060059e+00
1.200000000000000000e+01 1.211659145355224609e+01 -7.726014256477355957e-01 6.699185848236083984e+00 5.613272190093994141e-01 2.178153753280639648e+00 1.727070212364196777e+00
1.300000000000000000e+01 1.270474815368652344e+01 -6.281703710556030273e-01 1.717897033691406250e+01 3.552179098129272461e+00 6.219345092773437500e+00 7.933278083801269531e+00
1.400000000000000000e+01 1.253330230712890625e+01 -7.292832732200622559e-01 1.175738716125488281e+01 2.119135379791259766e+00 4.162956714630126953e+00 4.956923484802246094e+00
1.500000000000000000e+01 1.236185741424560547e+01 -8.303961753845214844e-01 9.679352760314941406e+00 1.701445817947387695e+00 3.414239645004272461e+00 3.833797454833984375e+00
1.600000000000000000e+01 1.219041252136230469e+01 -9.315090775489807129e-01 8.094405174255371094e+00 1.623461008071899414e+00 2.915359735488891602e+00 3.352158308029174805e+00
1.700000000000000000e+01 1.273919677734375000e+01 -6.753354072570800781e-01 1.672686767578125000e+01 8.728157043457031250e+00 7.636507511138916016e+00 1.129169178009033203e+01
1.800000000000000000e+01 1.259071731567382812e+01 -8.078916072845458984e-01 1.249444389343261719e+01 5.418952465057373047e+00 5.374018669128417969e+00 7.548187732696533203e+00
1.900000000000000000e+01 1.244223785400390625e+01 -9.404478669166564941e-01 1.012844753265380859e+01 4.212041378021240234e+00 4.302146911621093750e+00 5.918298721313476562e+00
2.000000000000000000e+01 1.229375839233398438e+01 -1.073004126548767090e+00 8.815136909484863281e+00 3.470730781555175781e+00 3.685760259628295898e+00 5.143016815185546875e+00
2.100000000000000000e+01 1.278216838836669922e+01 -7.148911952972412109e-01 1.507277202606201172e+01 1.463109493255615234e+01 8.911160469055175781e+00 1.301517009735107422e+01
2.200000000000000000e+01 1.266233730316162109e+01 -8.738179802894592285e-01 1.153386020660400391e+01 9.747334480285644531e+00 6.384358406066894531e+00 9.195455551147460938e+00
2.300000000000000000e+01 1.254250621795654297e+01 -1.032744765281677246e+00 9.795546531677246094e+00 7.568862915039062500e+00 5.209322929382324219e+00 7.439612388610839844e+00
2.400000000000000000e+01 1.242267417907714844e+01 -1.191671490669250488e+00 8.264286994934082031e+00 6.310868263244628906e+00 4.372546672821044922e+00 6.401979923248291016e+00
2.500000000000000000e+01 1.283201980590820312e+01 -7.453240752220153809e-01 1.253351974487304688e+01 2.064523124694824219e+01 9.953625679016113281e+00 1.285799407958984375e+01
2.600000000000000000e+01 1.274542236328125000e+01 -9.245394468307495117e-01 1.017322826385498047e+01 1.430869579315185547e+01 7.344577312469482422e+00 9.671167373657226562e+00
2.700000000000000000e+01 1.265882396697998047e+01 -1.103754758834838867e+00 8.430496215820312500e+00 1.147005844116210938e+01 5.970166206359863281e+00 7.875017166137695312e+00
2.800000000000000000e+01 1.257222652435302734e+01 -1.282970190048217773e+00 7.548919677734375000e+00 9.624595642089843750e+00 5.152054309844970703e+00 6.958951473236083984e+00
2.900000000000000000e+01 1.288684177398681641e+01 -7.654694318771362305e-01 1.046724700927734375e+01 2.598373222351074219e+01 1.093529319763183594e+01 1.101495265960693359e+01
3.000000000000000000e+01 1.283679199218750000e+01 -9.581149816513061523e-01 8.556247711181640625e+00 1.844618415832519531e+01 8.100729942321777344e+00 8.752873420715332031e+00
3.100000000000000000e+01 1.278674125671386719e+01 -1.150760531425476074e+00 7.161573886871337891e+00 1.528708267211914062e+01 6.734596729278564453e+00 7.508452892303466797e+00
3.200000000000000000e+01 1.273669147491455078e+01 -1.343406081199645996e+00 6.299241542816162109e+00 1.313286876678466797e+01 5.829632759094238281e+00 6.293015480041503906e+00
3.300000000000000000e+01 1.294453620910644531e+01 -7.745562195777893066e-01 9.045224189758300781e+00 2.965864944458007812e+01 1.161116218566894531e+01 8.077719688415527344e+00
3.400000000000000000e+01 1.293294906616210938e+01 -9.732596278190612793e-01 7.637796878814697266e+00 2.211309814453125000e+01 8.925268173217773438e+00 6.732526779174804688e+00
3.500000000000000000e+01 1.292136192321777344e+01 -1.171963095664978027e+00 6.215479373931884766e+00 1.800402259826660156e+01 7.265851020812988281e+00 6.075545310974121094e+00
3.600000000000000000e+01 1.290977573394775391e+01 -1.370666503906250000e+00 5.205212593078613281e+00 1.629593086242675781e+01 6.450342655181884766e+00 5.377642154693603516e+00
3.700000000000000000e+01 1.300289535522460938e+01 -7.722367644309997559e-01 9.519891738891601562e+00 3.188044929504394531e+01 1.242010211944580078e+01 4.445866107940673828e+00
3.800000000000000000e+01 1.303021526336669922e+01 -9.693939089775085449e-01 6.981255054473876953e+00 2.431882667541503906e+01 9.390024185180664062e+00 4.314188003540039062e+00
3.900000000000000000e+01 1.305753517150878906e+01 -1.166551113128662109e+00 6.333346843719482422e+00 2.036430931091308594e+01 8.009297370910644531e+00 3.649407863616943359e+00
4.000000000000000000e+01 1.308485507965087891e+01 -1.363708257675170898e+00 4.992849826812744141e+00 1.723304939270019531e+01 6.667769908905029297e+00 3.866744756698608398e+00
4.100000000000000000e+01 1.305968761444091797e+01 -7.585998177528381348e-01 1.075781059265136719e+01 3.231470870971679688e+01 1.292175674438476562e+01 1.093321681022644043e+00
4.200000000000000000e+01 1.312486839294433594e+01 -9.466656446456909180e-01 7.901128292083740234e+00 2.528305244445800781e+01 9.955254554748535156e+00 1.620181083679199219e+00
4.300000000000000000e+01 1.319004917144775391e+01 -1.134731531143188477e+00 6.451365947723388672e+00 2.144388389587402344e+01 8.368575096130371094e+00 1.421581149101257324e+00
4.400000000000000000e+01 1.325522994995117188e+01 -1.322797417640686035e+00 6.203773498535156250e+00 1.876337814331054688e+01 7.490145206451416016e+00 1.026586890220642090e+00
4.500000000000000000e+01 1.311273765563964844e+01 -7.341672778129577637e-01 1.293252754211425781e+01 3.132274246215820312e+01 1.327658176422119141e+01 -1.589458703994750977e+00
4.600000000000000000e+01 1.321328544616699219e+01 -9.059447646141052246e-01 9.699620246887207031e+00 2.518271255493164062e+01 1.046469974517822266e+01 -5.886129736900329590e-01
4.700000000000000000e+01 1.331383228302001953e+01 -1.077722191810607910e+00 7.510998249053955078e+00 2.116305541992187500e+01 8.602215766906738281e+00 -6.782435178756713867e-01
4.800000000000000000e+01 1.341438007354736328e+01 -1.249499678611755371e+00 6.968827247619628906e+00 1.979039382934570312e+01 8.027766227722167969e+00 -4.037646055221557617e-01
4.900000000000000000e+01 1.316001605987548828e+01 -6.998741030693054199e-01 1.603533744812011719e+01 2.995315551757812500e+01 1.379654788970947266e+01 -2.947905778884887695e+00
5.000000000000000000e+01 1.329208183288574219e+01 -8.487894535064697266e-01 1.169903564453125000e+01 2.369227409362792969e+01 1.061739349365234375e+01 -2.370615720748901367e+00
5.100000000000000000e+01 1.342414855957031250e+01 -9.977048635482788086e-01 9.669228553771972656e+00 2.071019935607910156e+01 9.113828659057617188e+00 -1.819445013999938965e+00
5.200000000000000000e+01 1.355621528625488281e+01 -1.146620273590087891e+00 8.142190933227539062e+00 1.708940696716308594e+01 7.569479465484619141e+00 -1.230042815208435059e+00
5.300000000000000000e+01 1.319971275329589844e+01 -6.570326685905456543e-01 1.879263114929199219e+01 2.772724342346191406e+01 1.395596218109130859e+01 -3.378357410430908203e+00
5.400000000000000000e+01 1.335824394226074219e+01 -7.773871421813964844e-01 1.422761154174804688e+01 2.233155059814453125e+01 1.096774864196777344e+01 -2.998342514038085938e+00
5.500000000000000000e+01 1.351677513122558594e+01 -8.977415561676025391e-01 1.183571243286132812e+01 1.878490638732910156e+01 9.186185836791992188e+00 -2.237648487091064453e+00
5.600000000000000000e+01 1.367530632019042969e+01 -1.018096089363098145e+00 1.052503108978271484e+01 1.552662658691406250e+01 7.815496921539306641e+00 -2.560219526290893555e+00
5.700000000000000000e+01 1.323030948638916016e+01 -6.072825193405151367e-01 2.124783325195312500e+01 2.584835624694824219e+01 1.412885665893554688e+01 -2.806736469268798828e+00
5.800000000000000000e+01 1.340923881530761719e+01 -6.944701671600341797e-01 1.631715202331542969e+01 2.077053833007812500e+01 1.112630748748779297e+01 -2.485104322433471680e+00
5.900000000000000000e+01 1.358816814422607422e+01 -7.816578745841979980e-01 1.405364894866943359e+01 1.693476486206054688e+01 9.296524047851562500e+00 -2.315582513809204102e+00
6.000000000000000000e+01 1.376709747314453125e+01 -8.688455224037170410e-01 1.211523151397705078e+01 1.541031074523925781e+01 8.257662773132324219e+00 -2.527584791183471680e+00
6.100000000000000000e+01 1.325063514709472656e+01 -5.525274872779846191e-01 2.267562103271484375e+01 2.468726539611816406e+01 1.420886611938476562e+01 -1.546247839927673340e+00
6.200000000000000000e+01 1.344311523437500000e+01 -6.032118201255798340e-01 1.818762397766113281e+01 1.923533439636230469e+01 1.122688770294189453e+01 -1.213003039360046387e+00
6.300000000000000000e+01 1.363559532165527344e+01 -6.538960933685302734e-01 1.510357952117919922e+01 1.629748153686523438e+01 9.420317649841308594e+00 -1.538162708282470703e+00
6.400000000000000000e+01 1.382807445526123047e+01 -7.045804262161254883e-01 1.333547973632812500e+01 1.427015018463134766e+01 8.281688690185546875e+00 -1.289135694503784180e+00
6.500000000000000000e+01 1.325991249084472656e+01 -4.948629140853881836e-01 2.352013015747070312e+01 2.427351379394531250e+01 1.433809280395507812e+01 5.904273986816406250e-01
6.600000000000000000e+01 1.345857620239257812e+01 -5.071041584014892578e-01 1.862712860107421875e+01 1.845405387878417969e+01 1.112435531616210938e+01 1.190666034817695618e-01
6.700000000000000000e+01 1.365724086761474609e+01 -5.193454027175903320e-01 1.584278964996337891e+01 1.609648132324218750e+01 9.581781387329101562e+00 3.251836597919464111e-01
6.800000000000000000e+01 1.385590457916259766e+01 -5.315865874290466309e-01 1.358586406707763672e+01 1.363642883300781250e+01 8.166687965393066406e+00 -1.470837593078613281e-01
6.900000000000000000e+01 1.325778484344482422e+01 -4.364954829216003418e-01 2.301109313964843750e+01 2.398157882690429688e+01 1.409780120849609375e+01 2.411246061325073242e+00
7.000000000000000000e+01 1.345503139495849609e+01 -4.098250865936279297e-01 1.812237358093261719e+01 1.929130935668945312e+01 1.122410488128662109e+01 2.078292608261108398e+00
7.100000000000000000e+01 1.365227699279785156e+01 -3.831547200679779053e-01 1.534902858734130859e+01 1.570914077758789062e+01 9.317450523376464844e+00 1.617884397506713867e+00
7.200000000000000000e+01 1.384952354431152344e+01 -3.564843237400054932e-01 1.381319999694824219e+01 1.458745193481445312e+01 8.520195960998535156e+00 1.498843431472778320e+00
7.300000000000000000e+01 1.324433517456054688e+01 -3.796590268611907959e-01 2.154765510559082031e+01 2.527187347412109375e+01 1.404585838317871094e+01 4.196028232574462891e+00
7.400000000000000000e+01 1.343261528015136719e+01 -3.150976896286010742e-01 1.657635879516601562e+01 2.006217575073242188e+01 1.099155998229980469e+01 3.527827739715576172e+00
7.500000000000000000e+01 1.362089443206787109e+01 -2.505363523960113525e-01 1.380728435516357422e+01 1.708943748474121094e+01 9.269016265869140625e+00 2.849412441253662109e+00
7.600000000000000000e+01 1.380917358398437500e+01 -1.859749853610992432e-01 1.223382949829101562e+01 1.494763660430908203e+01 8.154439926147460938e+00 2.144179582595825195e+00
7.700000000000000000e+01 1.322007751464843750e+01 -3.265286386013031006e-01 1.914651107788085938e+01 2.704623413085937500e+01 1.385782337188720703e+01 5.272881507873535156e+00
7.800000000000000000e+01 1.339218521118164062e+01 -2.265470623970031738e-01 1.408552169799804688e+01 2.163652229309082031e+01 1.071661281585693359e+01 4.411782264709472656e+00
7.900000000000000000e+01 1.356429195404052734e+01 -1.265654712915420532e-01 1.172977828979492188e+01 1.870148468017578125e+01 9.129379272460937500e+00 3.367515325546264648e+00
8.000000000000000000e+01 1.373639965057373047e+01 -2.658387273550033569e-02 9.080104827880859375e+00 1.640818405151367188e+01 7.646486759185791016e+00 2.901257276535034180e+00
8.100000000000000000e+01 1.318593978881835938e+01 -2.791376113891601562e-01 1.565993022918701172e+01 2.907672500610351562e+01 1.342099666595458984e+01 5.608577728271484375e+00
8.200000000000000000e+01 1.333528900146484375e+01 -1.475619971752166748e-01 1.152222824096679688e+01 2.353817749023437500e+01 1.051812171936035156e+01 4.046921253204345703e+00
8.300000000000000000e+01 1.348463821411132812e+01 -1.598637923598289490e-02 8.760069847106933594e+00 2.019809722900390625e+01 8.687450408935546875e+00 3.416333198547363281e+00
8.400000000000000000e+01 1.363398742675781250e+01 1.155892387032508850e-01 7.498794078826904297e+00 1.811722373962402344e+01 7.684805393218994141e+00 3.120629787445068359e+00
8.500000000000000000e+01 1.314322853088378906e+01 -2.392995357513427734e-01 1.244661903381347656e+01 3.116412353515625000e+01 1.308322238922119141e+01 4.525033473968505859e+00
8.600000000000000000e+01 1.326410388946533203e+01 -8.116518706083297729e-02 8.377632141113281250e+00 2.509182929992675781e+01 1.004083824157714844e+01 2.884643793106079102e+00
8.700000000000000000e+01 1.338498020172119141e+01 7.696915417909622192e-02 6.661573886871337891e+00 2.135795974731445312e+01 8.405859947204589844e+00 2.372225522994995117e+00
8.800000000000000000e+01 1.350585460662841797e+01 2.351035028696060181e-01 5.582111835479736328e+00 1.894628143310546875e+01 7.358517646789550781e+00 2.148127794265747070e+00
8.900000000000000000e+01 1.309357929229736328e+01 -2.085389792919158936e-01 9.056275367736816406e+00 3.279975128173828125e+01 1.255680751800537109e+01 2.146602153778076172e+00
9.000000000000000000e+01 1.318135547637939453e+01 -2.989759109914302826e-02 6.122950077056884766e+00 2.571233940124511719e+01 9.550586700439453125e+00 8.467342257499694824e-01
9.100000000000000000e+01 1.326913070678710938e+01 1.487437933683395386e-01 4.713177204132080078e+00 2.190333747863769531e+01 7.984954357147216797e+00 4.150031208992004395e-01
9.200000000000000000e+01 1.335690689086914062e+01 3.273851573467254639e-01 3.923332214355468750e+00 1.907546234130859375e+01 6.899638175964355469e+00 2.714692354202270508e-01
9.300000000000000000e+01 1.303889179229736328e+01 -1.880331337451934814e-01 6.604804992675781250e+00 3.297869491577148438e+01 1.187504959106445312e+01 -1.076717019081115723e+00
9.400000000000000000e+01 1.309020805358886719e+01 4.278816282749176025e-03 4.636199951171875000e+00 2.538815116882324219e+01 9.007305145263671875e+00 -1.999700665473937988e+00
9.500000000000000000e+01 1.314152526855468750e+01 1.965907514095306396e-01 3.482880353927612305e+00 2.118766021728515625e+01 7.401162147521972656e+00 -1.883679986000061035e+00
9.600000000000000000e+01 1.319284152984619141e+01 3.889026939868927002e-01 2.860146522521972656e+00 1.876483345031738281e+01 6.487493991851806641e+00 -1.935662150382995605e+00
9.700000000000000000e+01 1.298125743865966797e+01 -1.785667389631271362e-01 5.544003009796142578e+00 3.166020202636718750e+01 1.116126155853271484e+01 -5.042250633239746094e+00
9.800000000000000000e+01 1.299415206909179688e+01 2.005613222718238831e-02 4.059681415557861328e+00 2.351699447631835938e+01 8.273002624511718750e+00 -4.739670753479003906e+00
9.900000000000000000e+01 1.300704574584960938e+01 2.186789959669113159e-01 3.186883687973022461e+00 1.956767463684082031e+01 6.826367378234863281e+00 -4.428616523742675781e+00
1.000000000000000000e+02 1.301994037628173828e+01 4.173018634319305420e-01 2.601899623870849609e+00 1.690020942687988281e+01 5.850632667541503906e+00 -3.900064468383789062e+00
1.010000000000000000e+02 1.292288398742675781e+01 -1.805020719766616821e-01 5.791013240814208984e+00 2.833747100830078125e+01 1.023854541778564453e+01 -8.575057029724121094e+00
1.020000000000000000e+02 1.289686107635498047e+01 1.683057099580764771e-02 4.581704139709472656e+00 2.042613410949707031e+01 7.502351760864257812e+00 -7.293202400207519531e+00
1.030000000000000000e+02 1.287084007263183594e+01 2.141632139682769775e-01 3.603595495223999023e+00 1.670220947265625000e+01 6.091741085052490234e+00 -6.228489875793457031e+00
1.040000000000000000e+02 1.284481811523437500e+01 4.114958643913269043e-01 3.019932031631469727e+00 1.436733436584472656e+01 5.216179847717285156e+00 -5.836029052734375000e+00
1.050000000000000000e+02 1.286600303649902344e+01 -1.937650740146636963e-01 7.443273544311523438e+00 2.329256629943847656e+01 9.220751762390136719e+00 -1.135611248016357422e+01
1.060000000000000000e+02 1.280206108093261719e+01 -5.274429917335510254e-03 5.652330398559570312e+00 1.622083663940429688e+01 6.561950206756591797e+00 -8.635576248168945312e+00
1.070000000000000000e+02 1.273811912536621094e+01 1.832162141799926758e-01 4.668611049652099609e+00 1.302675342559814453e+01 5.308609485626220703e+00 -7.437885761260986328e+00
1.080000000000000000e+02 1.267417716979980469e+01 3.717068433761596680e-01 3.701273202896118164e+00 1.139107894897460938e+01 4.527705669403076172e+00 -6.485293865203857422e+00
1.090000000000000000e+02 1.281279373168945312e+01 -2.178481668233871460e-01 9.374701499938964844e+00 1.712646675109863281e+01 7.950350761413574219e+00 -1.226182270050048828e+01
1.100000000000000000e+02 1.271337795257568359e+01 -4.541292786598205566e-02 7.246344566345214844e+00 1.133399105072021484e+01 5.574100971221923828e+00 -8.918015480041503906e+00
1.110000000000000000e+02 1.261396217346191406e+01 1.270223110914230347e-01 5.507627964019775391e+00 9.126303672790527344e+00 4.390179157257080078e+00 -7.208449840545654297e+00
1.120000000000000000e+02 1.251454734802246094e+01 2.994575798511505127e-01 4.708125591278076172e+00 7.841400623321533203e+00 3.764857769012451172e+00 -6.318480014801025391e+00
1.130000000000000000e+02 1.276529026031494141e+01 -2.518297135829925537e-01 1.162011146545410156e+01 1.040037822723388672e+01 6.606146812438964844e+00 -1.127961540222167969e+01
1.140000000000000000e+02 1.263420581817626953e+01 -1.020488440990447998e-01 7.769612789154052734e+00 6.621368408203125000e+00 4.317294120788574219e+00 -7.593674659729003906e+00
1.150000000000000000e+02 1.250312232971191406e+01 4.773202911019325256e-02 6.385631084442138672e+00 5.413993835449218750e+00 3.539887428283691406e+00 -5.999690055847167969e+00
1.160000000000000000e+02 1.237203884124755859e+01 1.975129097700119019e-01 4.839964866638183594e+00 4.639604091644287109e+00 2.843870639801025391e+00 -5.206787586212158203e+00
1.170000000000000000e+02 1.272531127929687500e+01 -2.944092750549316406e-01 1.164819717407226562e+01 4.231994152069091797e+00 4.764057636260986328e+00 -8.333292007446289062e+00
1.180000000000000000e+02 1.256757545471191406e+01 -1.730147749185562134e-01 7.826699733734130859e+00 2.687319755554199219e+00 3.154205799102783203e+00 -5.020916461944580078e+00
1.190000000000000000e+02 1.240983963012695312e+01 -5.162027478218078613e-02 5.439190387725830078e+00 2.626536130905151367e+00 2.419718027114868164e+00 -3.958211183547973633e+00
1.200000000000000000e+02 1.225210380554199219e+01 6.977422535419464111e-02 4.717808246612548828e+00 2.561758041381835938e+00 2.183869838714599609e+00 -3.695341825485229492e+00
1.210000000000000000e+02 1.269438838958740234e+01 -3.439573645591735840e-01 9.952756881713867188e+00 -8.964522480964660645e-01 2.716891527175903320e+00 -3.481737613677978516e+00
1.220000000000000000e+02 1.251603603363037109e+01 -2.555949091911315918e-01 4.718546867370605469e+00 7.777578234672546387e-01 1.648891448974609375e+00 -1.950790762901306152e+00
1.230000000000000000e+02 1.233768463134765625e+01 -1.672324538230895996e-01 4.238093852996826172e+00 1.292681932449340820e+00 1.659232735633850098e+00 -2.314460039138793945e+00
1.240000000000000000e+02 1.215933227539062500e+01 -7.886999845504760742e-02 3.148972749710083008e+00 6.798867583274841309e-01 1.148657798767089844e+00 -1.767389893531799316e+00
1.250000000000000000e+02 1.267370319366455078e+01 -3.985778093338012695e-01 6.004173159599304199e-01 -2.333906173706054688e+00 -5.200466513633728027e-01 1.401917695999145508e+00
1.260000000000000000e+02 1.248156070709228516e+01 -3.466289639472961426e-01 2.450970411300659180e+00 9.668719768524169922e-01 1.025352716445922852e+00 -9.683423042297363281e-01
1.270000000000000000e+02 1.228941822052001953e+01 -2.946801185607910156e-01 1.416299939155578613e+00 -2.054643630981445312e-01 3.632506728172302246e-01 -4.148883223533630371e-01
1.280000000000000000e+02 1.209727573394775391e+01 -2.427312880754470825e-01 1.003656387329101562e+00 2.853174209594726562e-01 3.866921365261077881e-01 -3.447450995445251465e-01
1.290000000000000000e+02 9.173074722290039062e+00 -5.639369487762451172e-01 7.081179022789001465e-01 -8.639474958181381226e-02 1.865169405937194824e-01 6.176858767867088318e-02
1.300000000000000000e+02 9.666455268859863281e+00 -1.027179598808288574e+00 1.829540133476257324e+00 5.005041882395744324e-02 5.638771653175354004e-01 3.973491787910461426e-01
1.310000000000000000e+02 9.680541038513183594e+00 -5.694267153739929199e-01 8.816742897033691406e-01 2.741067111492156982e-02 2.727254927158355713e-01 8.855416625738143921e-02
1.320000000000000000e+02 9.711938858032226562e+00 -3.464965224266052246e-01 5.528135895729064941e-01 6.413481384515762329e-02 1.850845068693161011e-01 -1.039213128387928009e-02
1.330000000000000000e+02 9.253258705139160156e+00 -2.838814854621887207e-01 3.302361369132995605e-01 -1.049845814704895020e-01 6.757546216249465942e-02 1.229458488523960114e-02
1.340000000000000000e+02 9.655059814453125000e+00 -1.305871903896331787e-01 1.178731620311737061e-01 2.313452959060668945e-02 4.230230674147605896e-02 -1.379532646387815475e-02
1.350000000000000000e+02 7.899702072143554688e+00 -1.243021130561828613e+00 9.936124682426452637e-01 2.514568157494068146e-02 3.056274354457855225e-01 3.154082894325256348e-01
1.360000000000000000e+02 7.024353027343750000e+00 -1.248451471328735352e+00 6.683985590934753418e-01 3.025524690747261047e-02 2.095961421728134155e-01 2.544336020946502686e-01
1.370000000000000000e+02 6.190491676330566406e+00 -1.250668287277221680e+00 4.451748132705688477e-01 3.540597856044769287e-02 1.441742330789566040e-01 1.943380832672119141e-01
1.380000000000000000e+02 5.363922119140625000e+00 -1.251135826110839844e+00 2.765686511993408203e-01 4.800498113036155701e-02 9.737208485603332520e-02 1.466010063886642456e-01
1.390000000000000000e+02 4.539069652557373047e+00 -1.251662611961364746e+00 1.519588232040405273e-01 4.023579880595207214e-02 5.765838548541069031e-02 7.820088416337966919e-02
1.400000000000000000e+02 3.716955661773681641e+00 -1.252853274345397949e+00 6.475229561328887939e-02 5.296115577220916748e-02 3.531403467059135437e-02 3.649071976542472839e-02
1.410000000000000000e+02 2.225275516510009766e+00 -7.468184828758239746e-01 -8.092752844095230103e-02 8.213117718696594238e-03 -2.181432396173477173e-02 -5.585962906479835510e-02
1.420000000000000000e+02 1.114718317985534668e+00 -3.916849792003631592e-01 -4.851780831813812256e-02 5.819668294861912727e-04 -1.438075304031372070e-02 -2.589152194559574127e-02
1.430000000000000000e+02 6.956539750099182129e-01 -1.131685018539428711e+00 -1.555042155086994171e-02 -4.480994120240211487e-02 -1.810810901224613190e-02 -4.830736294388771057e-02
1.440000000000000000e+02 3.945160806179046631e-01 -5.616126060485839844e-01 -5.029341205954551697e-03 -1.600698195397853851e-02 -6.310896947979927063e-03 -8.878397755324840546e-03
1.450000000000000000e+02 9.585620880126953125e+00 -1.396716713905334473e+00 2.191144704818725586e+00 4.468512162566184998e-02 6.707489490509033203e-01 6.520373225212097168e-01
1.460000000000000000e+02 8.765516281127929688e+00 -1.250557899475097656e+00 1.450778603553771973e+00 5.264990776777267456e-02 4.510285556316375732e-01 4.272093772888183594e-01
1.470000000000000000e+02 2.903784751892089844e+00 -1.254671692848205566e+00 1.360892667435109615e-03 3.645053878426551819e-02 1.134342979639768600e-02 -3.768626973032951355e-02
1.480000000000000000e+02 2.115226507186889648e+00 -1.245336651802062988e+00 -7.880348712205886841e-03 5.512726027518510818e-03 -7.102868985384702682e-04 -4.745355248451232910e-02
1.490000000000000000e+02 9.711336135864257812e+00 -1.201739549636840820e+00 2.252215623855590820e+00 2.663294412195682526e-02 6.836545467376708984e-01 5.015470981597900391e-01
1.500000000000000000e+02 8.670428276062011719e+00 -6.288058161735534668e-01 7.427571415901184082e-01 4.688711464405059814e-02 2.368932813405990601e-01 1.291829347610473633e-01
1.510000000000000000e+02 9.346615791320800781e+00 -1.241039156913757324e+00 1.912222504615783691e+00 1.735933497548103333e-02 5.788745284080505371e-01 5.403289794921875000e-01
1.520000000000000000e+02 7.074220180511474609e+00 -2.645794153213500977e-01 -9.554863907396793365e-03 1.759864576160907745e-02 2.413134323433041573e-03 3.553222119808197021e-02
1.530000000000000000e+02 5.406253814697265625e+00 -2.644275426864624023e-01 -1.868001073598861694e-01 1.287568267434835434e-02 -5.217732861638069153e-02 2.095767483115196228e-02
1.540000000000000000e+02 5.386411666870117188e+00 -7.555634379386901855e-01 5.737715587019920349e-02 1.015024818480014801e-02 2.025822177529335022e-02 6.142386049032211304e-02
1.550000000000000000e+02 3.746869802474975586e+00 -2.632339596748352051e-01 -2.343865036964416504e-01 8.913294412195682526e-03 -6.764195859432220459e-02 -4.733593203127384186e-03
1.560000000000000000e+02 3.736603736877441406e+00 -7.560872435569763184e-01 -7.562872767448425293e-02 1.452719233930110931e-02 -1.833046041429042816e-02 -7.738880813121795654e-03
1.570000000000000000e+02 2.180727720260620117e+00 -2.614818811416625977e-01 -1.332577466964721680e-01 7.250168360769748688e-03 -3.780227527022361755e-02 -2.447564899921417236e-02
1.580000000000000000e+02 1.671366214752197266e+00 -5.788209438323974609e-01 -8.075866103172302246e-02 -9.557157754898071289e-03 -2.709474600851535797e-02 -3.762306272983551025e-02
1.590000000000000000e+02 9.639280319213867188e+00 -8.156741261482238770e-01 1.392809152603149414e+00 1.798385009169578552e-02 4.232378900051116943e-01 2.498006969690322876e-01
1.600000000000000000e+02 1.374354124069213867e+00 -1.197655677795410156e+00 -1.212442480027675629e-02 -1.043163333088159561e-02 -6.766817532479763031e-03 -6.421316415071487427e-02
1.610000000000000000e+02 2.938088893890380859e+00 -7.562919855117797852e-01 -7.807445526123046875e-02 1.515353936702013016e-02 -1.887627504765987396e-02 -3.256966173648834229e-02
1.620000000000000000e+02 2.933254480361938477e+00 -2.616203129291534424e-01 -2.015616148710250854e-01 -2.845490351319313049e-03 -6.132213026285171509e-02 -1.571553200483322144e-02
1.630000000000000000e+02 4.575065135955810547e+00 -2.639665901660919189e-01 -2.321944385766983032e-01 -3.386700060218572617e-03 -7.067434489727020264e-02 3.898848313838243484e-03
1.640000000000000000e+02 6.238673686981201172e+00 -2.652183175086975098e-01 -1.096692457795143127e-01 -1.076865475624799728e-02 -3.613137081265449524e-02 2.287054434418678284e-02
1.650000000000000000e+02 7.058266162872314453e+00 -7.530308961868286133e-01 3.508525788784027100e-01 4.031923599541187286e-03 1.064653471112251282e-01 1.140367165207862854e-01
1.660000000000000000e+02 7.910226821899414062e+00 -2.519324719905853271e-01 6.589115411043167114e-02 -3.230640292167663574e-02 1.007542666047811508e-02 8.769046515226364136e-03
1.670000000000000000e+02 7.941349506378173828e+00 -7.349535822868347168e-01 5.898733139038085938e-01 -5.475074052810668945e-03 1.753194630146026611e-01 1.478295177221298218e-01
1.680000000000000000e+02 8.691514968872070312e+00 -2.261365056037902832e-01 1.489290148019790649e-01 4.618347063660621643e-02 5.853374674916267395e-02 3.616861999034881592e-02
1.690000000000000000e+02 4.558641433715820312e+00 -7.556292414665222168e-01 -2.459727227687835693e-02 2.359226532280445099e-02 -3.015024994965642691e-04 3.903563320636749268e-02
1.700000000000000000e+02 9.022866249084472656e+00 -8.483434319496154785e-01 1.095058917999267578e+00 -2.405438385903835297e-02 3.213013708591461182e-01 1.861586868762969971e-01
1.710000000000000000e+02 6.217129707336425781e+00 -7.558866143226623535e-01 1.843359768390655518e-01 1.782824844121932983e-02 6.064926832914352417e-02 1.034019365906715393e-01
1.720000000000000000e+02 1.241536045074462891e+01 4.746519029140472412e-01 3.804927587509155273e+00 6.984388351440429688e+00 3.236794710159301758e+00 -5.766242027282714844e+00
1.730000000000000000e+02 1.029901695251464844e+01 8.176767826080322266e-02 -1.546813488006591797e+00 6.165250390768051147e-02 -4.455482959747314453e-01 1.394435316324234009e-01
1.740000000000000000e+02 1.019281387329101562e+01 1.159872531890869141e+00 5.669090151786804199e-01 7.575026154518127441e-01 3.973234891891479492e-01 -1.093405127525329590e+00
1.750000000000000000e+02 1.278721523284912109e+01 6.409617662429809570e-01 2.373131752014160156e+00 1.245707893371582031e+01 4.449063301086425781e+00 -5.304109096527099609e+00
1.760000000000000000e+02 1.317678642272949219e+01 8.583071827888488770e-01 1.714039325714111328e+00 1.418465709686279297e+01 4.769608974456787109e+00 -2.616674184799194336e+00
1.770000000000000000e+02 1.400874900817871094e+01 3.568719923496246338e-01 6.664845466613769531e+00 1.380462551116943359e+01 6.140841007232666016e+00 2.403112888336181641e+00
1.780000000000000000e+02 1.418494224548339844e+01 -7.729873061180114746e-01 1.010853958129882812e+01 1.181265449523925781e+01 6.576358318328857422e+00 -1.209221363067626953e+00
1.790000000000000000e+02 1.415941905975341797e+01 -1.065100908279418945e+00 9.767036437988281250e+00 1.204498863220214844e+01 6.543607234954833984e+00 -2.131930828094482422e+00
1.800000000000000000e+02 1.262815666198730469e+01 -1.541134953498840332e+00 6.001730442047119141e+00 1.032715606689453125e+01 4.898665904998779297e+00 5.963621616363525391e+00
1.810000000000000000e+02 1.187617111206054688e+01 -6.327340602874755859e-01 3.716593503952026367e+00 1.390802562236785889e-01 1.156702160835266113e+00 3.969817459583282471e-01
1.820000000000000000e+02 1.127297115325927734e+01 -3.603951334953308105e-01 7.390533089637756348e-01 3.246271237730979919e-02 2.314548045396804810e-01 -8.055297657847404480e-03
1.830000000000000000e+02 1.008883953094482422e+01 -1.436112821102142334e-01 1.117658317089080811e-01 -4.478806629776954651e-02 2.009332925081253052e-02 3.593653440475463867e-02
1.840000000000000000e+02 1.215293025970458984e+01 -1.229852199554443359e+00 7.601983070373535156e+00 3.505417823791503906e+00 3.332220315933227539e+00 4.684591293334960938e+00
1.850000000000000000e+02 1.284003734588623047e+01 -1.583040237426757812e+00 4.806691169738769531e+00 1.370597267150878906e+01 5.553799152374267578e+00 4.547295570373535156e+00
1.860000000000000000e+02 1.010570240020751953e+01 1.091924160718917847e-01 -1.915889739990234375e+00 -1.667939722537994385e-01 -6.248050928115844727e-01 6.916405260562896729e-02
1.870000000000000000e+02 1.108151054382324219e+01 -2.288549952208995819e-02 -5.915303230285644531e-01 1.286653876304626465e-01 -1.388594806194305420e-01 -1.372931152582168579e-01
1.880000000000000000e+02 1.090003204345703125e+01 -1.666609570384025574e-02 -9.524571299552917480e-01 6.653688848018646240e-02 -2.657760679721832275e-01 3.066932410001754761e-02
1.890000000000000000e+02 1.015582180023193359e+01 7.298316359519958496e-01 -3.525708988308906555e-02 1.951027810573577881e-01 4.795370623469352722e-02 -6.084540486335754395e-01
1.900000000000000000e+02 1.038548851013183594e+01 1.115758299827575684e+00 7.656562328338623047e-01 8.085974454879760742e-01 4.722760915756225586e-01 -1.315189599990844727e+00
1.910000000000000000e+02 1.224053192138671875e+01 3.669664859771728516e-01 4.213864326477050781e+00 4.492598056793212891e+00 2.611938714981079102e+00 -4.805674076080322266e+00
1.920000000000000000e+02 1.190624237060546875e+01 -1.889458745718002319e-01 6.392244100570678711e-01 -4.297095909714698792e-02 1.788760274648666382e-01 -3.064089119434356689e-01
1.930000000000000000e+02 1.406111335754394531e+01 -5.194262862205505371e-01 1.322756004333496094e+01 1.236569499969482422e+01 7.677976608276367188e+00 1.696154624223709106e-01
1.940000000000000000e+02 1.403624916076660156e+01 -1.500513125211000443e-02 9.207365036010742188e+00 1.334686374664306641e+01 6.766268730163574219e+00 2.177447080612182617e+00
1.950000000000000000e+02 1.323408317565917969e+01 5.908651351928710938e-01 2.151559114456176758e+00 1.657450485229492188e+01 5.617818832397460938e+00 -1.918746709823608398e+00
1.960000000000000000e+02 1.294409275054931641e+01 9.016458392143249512e-01 1.449683070182800293e+00 1.321722888946533203e+01 4.400073528289794922e+00 -4.211062431335449219e+00
1.970000000000000000e+02 1.198249721527099609e+01 1.450127735733985901e-02 2.544729232788085938e+00 8.850406408309936523e-01 1.028930902481079102e+00 -1.594388008117675781e+00
1.980000000000000000e+02 1.186943149566650391e+01 -4.162835180759429932e-01 1.103080630302429199e+00 -7.227859646081924438e-02 3.092405796051025391e-01 -1.194628998637199402e-01
1.990000000000000000e+02 1.147340679168701172e+01 -3.843383491039276123e-01 8.728466629981994629e-01 -6.341522932052612305e-02 2.428294271230697632e-01 -3.831274062395095825e-02
2.000000000000000000e+02 1.192142677307128906e+01 -8.491761088371276855e-01 5.839990139007568359e+00 3.213034570217132568e-01 1.848388075828552246e+00 1.459811091423034668e+00
2.010000000000000000e+02 1.231788539886474609e+01 -1.339974522590637207e+00 7.628310680389404297e+00 5.788362026214599609e+00 4.025002002716064453e+00 6.002835273742675781e+00
2.020000000000000000e+02 1.052105808258056641e+01 -8.128312230110168457e-01 2.075932741165161133e+00 2.774379961192607880e-02 6.311029195785522461e-01 2.733063995838165283e-01
2.030000000000000000e+02 9.990076065063476562e+00 -1.402451634407043457e+00 2.669507741928100586e+00 3.337475657463073730e-01 9.009765982627868652e-01 8.645108938217163086e-01
2.040000000000000000e+02 1.034327316284179688e+01 -1.002996802330017090e+00 2.416476964950561523e+00 2.708672359585762024e-02 7.330690622329711914e-01 4.792617261409759521e-01
2.050000000000000000e+02 1.225387668609619141e+01 -1.739530682563781738e+00 5.937167644500732422e+00 6.351373195648193359e+00 3.686562299728393555e+00 5.288254261016845703e+00
2.060000000000000000e+02 1.246014881134033203e+01 -1.447977781295776367e+00 6.705192089080810547e+00 8.274080276489257812e+00 4.493781566619873047e+00 6.367894172668457031e+00
2.070000000000000000e+02 1.141987133026123047e+01 -1.596040487289428711e+00 5.308328628540039062e+00 1.491220712661743164e+00 2.039864778518676758e+00 2.820905447006225586e+00
2.080000000000000000e+02 1.101179027557373047e+01 -1.548701405525207520e+00 4.550062179565429688e+00 7.168956398963928223e-01 1.580087423324584961e+00 1.925245642662048340e+00
2.090000000000000000e+02 1.081088352203369141e+01 -1.532318234443664551e+00 4.073773384094238281e+00 5.965024828910827637e-01 1.401082754135131836e+00 1.651679158210754395e+00
2.100000000000000000e+02 1.061295604705810547e+01 -1.497227072715759277e+00 3.665403127670288086e+00 3.869990110397338867e-01 1.215720653533935547e+00 1.329648494720458984e+00
2.110000000000000000e+02 1.016309547424316406e+01 -1.143506407737731934e+00 2.425638675689697266e+00 1.823840141296386719e-01 7.824067473411560059e-01 6.530135273933410645e-01
2.120000000000000000e+02 1.020875358581542969e+01 1.376126289367675781e+00 8.254839181900024414e-01 1.067141175270080566e+00 5.677875280380249023e-01 -1.405162572860717773e+00
2.130000000000000000e+02 1.040186691284179688e+01 1.340458154678344727e+00 9.722112417221069336e-01 9.980829954147338867e-01 5.910882949829101562e-01 -1.523172855377197266e+00
2.140000000000000000e+02 1.196455001831054688e+01 5.688422322273254395e-01 3.316439390182495117e+00 3.327519655227661133e+00 1.993187665939331055e+00 -3.862869739532470703e+00
2.150000000000000000e+02 1.259108924865722656e+01 5.804727077484130859e-01 3.165438890457153320e+00 9.906641960144042969e+00 3.921624183654785156e+00 -5.879485607147216797e+00
2.160000000000000000e+02 1.300159072875976562e+01 6.344954371452331543e-01 2.030337095260620117e+00 1.453416728973388672e+01 4.969351291656494141e+00 -4.076751232147216797e+00
2.170000000000000000e+02 1.070477962493896484e+01 4.208451882004737854e-02 -1.143430113792419434e+00 -4.265373572707176208e-03 -3.443086445331573486e-01 8.634132891893386841e-02
2.180000000000000000e+02 1.175476264953613281e+01 1.093322515487670898e+00 2.265089273452758789e+00 3.830166339874267578e+00 1.828576683998107910e+00 -3.773283720016479492e+00
2.190000000000000000e+02 1.307161998748779297e+01 -1.581536173820495605e+00 4.124372005462646484e+00 1.610995864868164062e+01 6.070299148559570312e+00 3.855860948562622070e+00
2.200000000000000000e+02 1.363767719268798828e+01 -1.493065357208251953e+00 5.780970573425292969e+00 1.523842811584472656e+01 6.305819511413574219e+00 -1.138493895530700684e+00
2.210000000000000000e+02 1.307729434967041016e+01 -1.809301018714904785e+00 3.819237947463989258e+00 1.399250411987304688e+01 5.343522548675537109e+00 3.275880575180053711e+00
2.220000000000000000e+02 1.395951080322265625e+01 -8.937214016914367676e-01 1.075734615325927734e+01 1.398285770416259766e+01 7.422061443328857422e+00 -2.567062377929687500e+00
2.230000000000000000e+02 1.201165866851806641e+01 -1.060088396072387695e+00 7.253374099731445312e+00 1.581835150718688965e+00 2.650562763214111328e+00 3.122622966766357422e+00
2.240000000000000000e+02 1.331800556182861328e+01 -1.599359035491943359e+00 4.734432220458984375e+00 1.467353725433349609e+01 5.822390556335449219e+00 1.660083770751953125e+00
2.250000000000000000e+02 1.401700496673583984e+01 -7.258230447769165039e-01 1.165257167816162109e+01 1.303567981719970703e+01 7.406475543975830078e+00 -7.253781557083129883e-01
2.260000000000000000e+02 1.428511047363281250e+01 -4.148487746715545654e-01 1.106708335876464844e+01 1.116060352325439453e+01 6.668305873870849609e+00 6.466908454895019531e-01
2.270000000000000000e+02 1.374057579040527344e+01 2.326771765947341919e-01 6.665409088134765625e+00 1.688526153564453125e+01 7.065201282501220703e+00 2.568651676177978516e+00
2.280000000000000000e+02 1.382691574096679688e+01 3.127186596393585205e-01 6.646207332611083984e+00 1.566694545745849609e+01 6.693945884704589844e+00 2.278713464736938477e+00
2.290000000000000000e+02 1.359459972381591797e+01 3.612967729568481445e-01 5.231116294860839844e+00 1.805184364318847656e+01 6.984888076782226562e+00 1.978497505187988281e+00
2.300000000000000000e+02 1.357570266723632812e+01 7.104882597923278809e-01 2.374762773513793945e+00 1.573938751220703125e+01 5.434245109558105469e+00 -3.279201388359069824e-01
2.310000000000000000e+02 1.209105110168457031e+01 2.108903527259826660e-01 3.726027727127075195e+00 2.164754867553710938e+00 1.767234802246093750e+00 -3.376937150955200195e+00
2.320000000000000000e+02 1.410547161102294922e+01 -2.509377598762512207e-01 1.080639839172363281e+01 1.210293865203857422e+01 6.872801303863525391e+00 1.078500628471374512e+00
2.330000000000000000e+02 1.176858139038085938e+01 8.220513463020324707e-01 2.765921831130981445e+00 3.159574270248413086e+00 1.777648806571960449e+00 -3.574499368667602539e+00
2.340000000000000000e+02 9.992155075073242188e+00 -1.188641428947448730e+00 2.317878246307373047e+00 5.367932096123695374e-02 7.114672660827636719e-01 6.101073622703552246e-01
2.350000000000000000e+02 1.146921253204345703e+01 -6.637320518493652344e-01 2.835022687911987305e+00 4.552033171057701111e-02 8.641629219055175781e-01 2.332068383693695068e-01
2.360000000000000000e+02 1.101805400848388672e+01 -1.280447363853454590e+00 4.095433235168457031e+00 4.628751873970031738e-01 1.367492556571960449e+00 1.408595204353332520e+00
2.370000000000000000e+02 1.106565093994140625e+01 -3.328180313110351562e-01 6.123223304748535156e-01 -4.489728808403015137e-02 1.702275127172470093e-01 -3.891876200214028358e-03
2.380000000000000000e+02 1.028692531585693359e+01 -1.816089749336242676e-01 1.949598193168640137e-01 7.423905655741691589e-03 6.071511656045913696e-02 1.242198701947927475e-02
2.390000000000000000e+02 1.026077556610107422e+01 -4.029508829116821289e-01 7.637808918952941895e-01 -3.102815244346857071e-03 2.282034307718276978e-01 4.522518068552017212e-02
2.400000000000000000e+02 1.006929302215576172e+01 -3.573146164417266846e-01 6.105263233184814453e-01 -4.680441319942474365e-02 1.691165715456008911e-01 1.773353852331638336e-02
2.410000000000000000e+02 1.022305679321289062e+01 -5.999584794044494629e-01 1.274243354797363281e+00 -6.009390577673912048e-02 3.642448484897613525e-01 5.893286690115928650e-02
2.420000000000000000e+02 1.128950309753417969e+01 -8.959110826253890991e-03 -2.767772078514099121e-01 1.533454954624176025e-01 -3.702950850129127502e-02 -2.579552531242370605e-01
2.430000000000000000e+02 1.151190662384033203e+01 -5.826582759618759155e-02 1.750978454947471619e-02 -5.202261358499526978e-02 -1.035384926944971085e-02 -2.869860827922821045e-01
2.440000000000000000e+02 1.171428298950195312e+01 -1.311374008655548096e-01 3.449056148529052734e-01 1.516475677490234375e-01 1.489659547805786133e-01 -2.375420629978179932e-01
2.450000000000000000e+02 1.059302330017089844e+01 1.304834365844726562e+00 1.114947915077209473e+00 1.300971984863281250e+00 7.247759699821472168e-01 -1.765551924705505371e+00
2.460000000000000000e+02 1.161981773376464844e+01 2.188668549060821533e-01 1.843624711036682129e+00 8.149425387382507324e-01 7.975701689720153809e-01 -1.538609862327575684e+00
2.470000000000000000e+02 1.041057109832763672e+01 -1.436361908912658691e+00 3.245563507080078125e+00 3.153316080570220947e-01 1.068268537521362305e+00 1.132775664329528809e+00
2.480000000000000000e+02 1.067040920257568359e+01 -1.289709448814392090e+00 3.460388183593750000e+00 2.778181135654449463e-01 1.121461868286132812e+00 1.126348495483398438e+00
2.490000000000000000e+02 1.228243827819824219e+01 -1.506052732467651367e+00 6.811419963836669922e+00 6.384617805480957031e+00 3.958811283111572266e+00 5.676183700561523438e+00
2.500000000000000000e+02 1.162411499023437500e+01 -1.636459589004516602e+00 5.708673954010009766e+00 2.172345161437988281e+00 2.364305734634399414e+00 3.448187589645385742e+00
2.510000000000000000e+02 1.182759666442871094e+01 -1.675476193428039551e+00 5.960872650146484375e+00 3.373132944107055664e+00 2.800201654434204102e+00 4.166976928710937500e+00
2.520000000000000000e+02 1.123274707794189453e+01 -1.261407017707824707e+00 4.600854873657226562e+00 4.595302641391754150e-01 1.518115520477294922e+00 1.602334260940551758e+00
2.530000000000000000e+02 1.248182296752929688e+01 -1.775493383407592773e+00 5.400402545928955078e+00 8.854627609252929688e+00 4.276508808135986328e+00 5.662625312805175781e+00
2.540000000000000000e+02 1.203262233734130859e+01 -1.709925055503845215e+00 6.009262084960937500e+00 4.601462364196777344e+00 3.183217287063598633e+00 4.929540157318115234e+00
2.550000000000000000e+02 1.186523532867431641e+01 -1.411611318588256836e+00 6.641640186309814453e+00 2.564234256744384766e+00 2.761762380599975586e+00 3.906240940093994141e+00
2.560000000000000000e+02 1.045237445831298828e+01 -4.717605710029602051e-01 1.089316368103027344e+00 -1.673582196235656738e-02 3.217741549015045166e-01 1.144423894584178925e-02
2.570000000000000000e+02 1.001776218414306641e+01 -9.983262419700622559e-01 2.042087793350219727e+00 -1.052009910345077515e-01 5.810660719871520996e-01 3.375109136104583740e-01
2.580000000000000000e+02 1.048968029022216797e+01 -2.274489849805831909e-01 2.789229154586791992e-01 -2.119949087500572205e-03 8.304088562726974487e-02 2.046908438205718994e-02
2.590000000000000000e+02 1.023596763610839844e+01 -7.897437214851379395e-01 1.769065737724304199e+00 4.401487112045288086e-02 5.439242124557495117e-01 2.294716238975524902e-01
2.600000000000000000e+02 1.004944610595703125e+01 -5.687558054924011230e-01 1.161880612373352051e+00 5.136416852474212646e-02 3.639734387397766113e-01 4.472900927066802979e-02
2.610000000000000000e+02 1.075875473022460938e+01 1.024190068244934082e+00 1.152912139892578125e+00 1.080410480499267578e+00 6.699967980384826660e-01 -1.663079977035522461e+00
2.620000000000000000e+02 1.013257312774658203e+01 5.231710076332092285e-01 -4.343638122081756592e-01 8.416054397821426392e-02 -1.050609797239303589e-01 -2.880020141601562500e-01
2.630000000000000000e+02 1.017537879943847656e+01 9.440250992774963379e-01 2.817854583263397217e-01 3.958301544189453125e-01 2.032846808433532715e-01 -8.063382506370544434e-01
2.640000000000000000e+02 1.167173194885253906e+01 -4.029414951801300049e-01 1.000048637390136719e+00 3.874553740024566650e-02 3.116382658481597900e-01 -6.499130278825759888e-02
2.650000000000000000e+02 1.028872108459472656e+01 2.900584638118743896e-01 -1.118880152702331543e+00 -1.140591315925121307e-02 -3.390858173370361328e-01 -1.301596313714981079e-01
2.660000000000000000e+02 1.232294845581054688e+01 1.027984380722045898e+00 2.508386135101318359e+00 7.148040294647216797e+00 2.896927833557128906e+00 -4.848918914794921875e+00
2.670000000000000000e+02 1.135753822326660156e+01 1.132840514183044434e+00 2.009397983551025391e+00 2.459762096405029297e+00 1.340748071670532227e+00 -2.906756401062011719e+00
2.680000000000000000e+02 1.094344234466552734e+01 9.707076549530029297e-01 1.454452991485595703e+00 1.257441639900207520e+00 8.135683536529541016e-01 -1.909475326538085938e+00
2.690000000000000000e+02 1.155806732177734375e+01 1.099557638168334961e+00 2.244262456893920898e+00 2.936635255813598633e+00 1.554269313812255859e+00 -3.220947504043579102e+00
2.700000000000000000e+02 1.213354301452636719e+01 1.056397438049316406e+00 2.345884561538696289e+00 5.935510158538818359e+00 2.484418392181396484e+00 -4.627847671508789062e+00
2.710000000000000000e+02 1.097360610961914062e+01 1.228546738624572754e+00 1.501742601394653320e+00 1.786593914031982422e+00 9.865009188652038574e-01 -2.281210184097290039e+00
2.720000000000000000e+02 1.086894321441650391e+01 -2.774792909622192383e-01 4.974529743194580078e-01 4.270741716027259827e-02 1.620481163263320923e-01 1.209525763988494873e-02
2.730000000000000000e+02 1.068588352203369141e+01 -2.448904961347579956e-01 3.574386239051818848e-01 -3.613554686307907104e-02 9.639092534780502319e-02 -3.822628874331712723e-03
2.740000000000000000e+02 1.076133441925048828e+01 -4.351222217082977295e-01 1.010549664497375488e+00 1.159103866666555405e-02 3.066422045230865479e-01 4.727566149085760117e-03
2.750000000000000000e+02 1.077162265777587891e+01 2.796950638294219971e-01 -2.413378506898880005e-01 2.128315418958663940e-01 -8.551890030503273010e-03 -4.331284165382385254e-01
2.760000000000000000e+02 1.232638835906982422e+01 6.465982794761657715e-01 3.532821178436279297e+00 6.750008583068847656e+00 3.084848880767822266e+00 -5.383224487304687500e+00
2.770000000000000000e+02 1.191571140289306641e+01 3.283424079418182373e-01 3.213316679000854492e+00 2.122879981994628906e+00 1.600858926773071289e+00 -3.010790586471557617e+00
2.780000000000000000e+02 1.164597892761230469e+01 5.508269667625427246e-01 2.483639240264892578e+00 1.815699219703674316e+00 1.289801478385925293e+00 -2.559687137603759766e+00
2.790000000000000000e+02 1.148544788360595703e+01 4.264446794986724854e-01 1.861409902572631836e+00 1.005891323089599609e+00 8.601903915405273438e-01 -1.818751811981201172e+00
2.800000000000000000e+02 1.090766620635986328e+01 7.262024879455566406e-01 1.065034627914428711e+00 7.946860790252685547e-01 5.579162240028381348e-01 -1.343054533004760742e+00
2.810000000000000000e+02 1.105944061279296875e+01 3.930243849754333496e-01 5.738092064857482910e-01 4.649208188056945801e-01 3.116190135478973389e-01 -8.624208569526672363e-01
2.820000000000000000e+02 1.108986377716064453e+01 6.635535955429077148e-01 1.466259479522705078e+00 8.884069919586181641e-01 7.063999176025390625e-01 -1.579386711120605469e+00
2.830000000000000000e+02 1.167148017883300781e+01 -1.358515501022338867e+00 5.928376197814941406e+00 1.482502579689025879e+00 2.223263502120971680e+00 2.797466278076171875e+00
2.840000000000000000e+02 1.124800968170166016e+01 -9.473735690116882324e-01 3.763104915618896484e+00 2.033380717039108276e-01 1.189932942390441895e+00 8.529684543609619141e-01
2.850000000000000000e+02 1.052702331542968750e+01 6.284040808677673340e-01 1.985414922237396240e-01 3.315759301185607910e-01 1.590352207422256470e-01 -7.449424266815185547e-01
2.860000000000000000e+02 1.054764842987060547e+01 8.473682403564453125e-01 6.283844113349914551e-01 6.146039962768554688e-01 3.728965222835540771e-01 -1.132328391075134277e+00
2.870000000000000000e+02 1.125984096527099609e+01 6.330142617225646973e-01 1.622112631797790527e+00 1.164283514022827148e+00 8.359187841415405273e-01 -1.901605010032653809e+00
2.880000000000000000e+02 1.063746929168701172e+01 -5.921436548233032227e-01 1.582096219062805176e+00 6.322369910776615143e-03 4.765255749225616455e-01 1.654545217752456665e-01
2.890000000000000000e+02 1.146154212951660156e+01 -1.286943078041076660e+00 5.312042713165283203e+00 9.077702164649963379e-01 1.865943908691406250e+00 2.178306579589843750e+00
2.900000000000000000e+02 1.104901790618896484e+01 -6.222083568572998047e-01 2.070309638977050781e+00 4.733073338866233826e-02 6.352921128273010254e-01 1.426295340061187744e-01
2.910000000000000000e+02 1.104159259796142578e+01 -8.941901326179504395e-01 3.128147602081298828e+00 5.277059972286224365e-02 9.542754888534545898e-01 5.903235077857971191e-01
2.920000000000000000e+02 1.384044933319091797e+01 -1.263514399528503418e+00 7.685895919799804688e+00 1.444141674041748047e+01 6.638193607330322266e+00 -1.801405072212219238e+00
2.930000000000000000e+02 1.036606788635253906e+01 8.923618197441101074e-01 4.582267999649047852e-01 5.430470705032348633e-01 3.003821671009063721e-01 -9.758294224739074707e-01
2.940000000000000000e+02 1.011555862426757812e+01 3.189585208892822266e-01 -1.000560998916625977e+00 -1.138880029320716858e-01 -3.343347012996673584e-01 -1.361733227968215942e-01
2.950000000000000000e+02 1.034906387329101562e+01 6.625320315361022949e-01 2.540639787912368774e-02 3.095749914646148682e-01 1.004944145679473877e-01 -6.533921957015991211e-01
2.960000000000000000e+02 1.030950069427490234e+01 4.655818641185760498e-01 -2.451508939266204834e-01 2.725057117640972137e-02 -6.537009775638580322e-02 -4.246295392513275146e-01
2.970000000000000000e+02 1.078364181518554688e+01 1.267492175102233887e+00 1.356716990470886230e+00 1.480916023254394531e+00 8.512899279594421387e-01 -2.025363206863403320e+00
2.980000000000000000e+02 1.049834537506103516e+01 7.243800908327102661e-02 -1.312785506248474121e+00 -3.143819794058799744e-02 -4.032671153545379639e-01 8.077093958854675293e-02
2.990000000000000000e+02 1.044963741302490234e+01 3.205461800098419189e-01 -6.449980139732360840e-01 1.164583489298820496e-01 -1.585619002580642700e-01 -2.271223366260528564e-01
3.000000000000000000e+02 1.085782146453857422e+01 4.932955801486968994e-01 5.053541064262390137e-01 4.678282141685485840e-01 2.919546961784362793e-01 -8.755348920822143555e-01
3.010000000000000000e+02 1.057274055480957031e+01 1.072281479835510254e+00 9.651407003402709961e-01 8.896255493164062500e-01 5.564298629760742188e-01 -1.445496797561645508e+00
3.020000000000000000e+02 1.112349128723144531e+01 9.184111356735229492e-01 1.638134360313415527e+00 1.560737848281860352e+00 9.596616625785827637e-01 -2.144955396652221680e+00
3.030000000000000000e+02 1.116274929046630859e+01 1.187585949897766113e+00 1.764194607734680176e+00 2.102293252944946289e+00 1.159946322441101074e+00 -2.556703329086303711e+00
3.040000000000000000e+02 1.195038127899169922e+01 8.234653472900390625e-01 2.859574079513549805e+00 4.233845710754394531e+00 2.128025770187377930e+00 -4.190844058990478516e+00
3.050000000000000000e+02 1.194562244415283203e+01 1.077186822891235352e+00 2.367181062698364258e+00 4.873750686645507812e+00 2.172279596328735352e+00 -4.182842731475830078e+00
3.060000000000000000e+02 1.212835025787353516e+01 8.225585222244262695e-01 2.942843914031982422e+00 5.418811321258544922e+00 2.508496522903442383e+00 -4.598643302917480469e+00
3.070000000000000000e+02 1.252128219604492188e+01 9.733570218086242676e-01 2.147884845733642578e+00 8.917676925659179688e+00 3.319668531417846680e+00 -5.075689792633056641e+00
3.080000000000000000e+02 1.229947757720947266e+01 8.208541274070739746e-01 2.655539512634277344e+00 6.752170562744140625e+00 2.822313070297241211e+00 -5.056999683380126953e+00
3.090000000000000000e+02 1.246124458312988281e+01 7.561078667640686035e-01 2.774962425231933594e+00 8.407721519470214844e+00 3.354805231094360352e+00 -5.455873966217041016e+00
3.100000000000000000e+02 1.273074817657470703e+01 9.268234968185424805e-01 1.790419697761535645e+00 1.078291034698486328e+01 3.771999120712280273e+00 -4.715260505676269531e+00
3.110000000000000000e+02 1.097475624084472656e+01 1.730464547872543335e-01 -2.622002959251403809e-01 2.183754146099090576e-01 -1.314746215939521790e-02 -3.248744606971740723e-01
3.120000000000000000e+02 1.174966335296630859e+01 4.067217707633972168e-01 2.712947607040405273e+00 1.634609341621398926e+00 1.304267048835754395e+00 -2.602529287338256836e+00
3.130000000000000000e+02 1.128089904785156250e+01 3.439613282680511475e-01 1.137394189834594727e+00 5.213720202445983887e-01 4.976298511028289795e-01 -1.082745313644409180e+00
3.140000000000000000e+02 1.004525566101074219e+01 -7.914704084396362305e-01 1.601730108261108398e+00 7.379678543657064438e-03 4.827329516410827637e-01 2.073843479156494141e-01
3.150000000000000000e+02 1.019890213012695312e+01 -1.405401110649108887e+00 2.910727739334106445e+00 1.067326441407203674e-01 9.052381515502929688e-01 8.984025716781616211e-01
3.160000000000000000e+02 1.360993289947509766e+01 4.918552339076995850e-01 4.122488498687744141e+00 1.720978164672851562e+01 6.399681091308593750e+00 8.713914155960083008e-01
3.170000000000000000e+02 1.050674343109130859e+01 -1.183166623115539551e+00 2.937280893325805664e+00 1.731251180171966553e-01 9.331218004226684570e-01 7.809663414955139160e-01
3.180000000000000000e+02 1.094376945495605469e+01 -1.065602183341979980e+00 3.526411056518554688e+00 1.375343501567840576e-01 1.099183559417724609e+00 8.617614507675170898e-01
3.190000000000000000e+02 1.180482292175292969e+01 1.082980111241340637e-01 2.008572578430175781e+00 6.110779047012329102e-01 7.858951091766357422e-01 -1.585048675537109375e+00
3.200000000000000000e+02 1.126201343536376953e+01 -6.480960249900817871e-01 2.448697090148925781e+00 -6.664131581783294678e-02 7.146167755126953125e-01 1.800149232149124146e-01
3.210000000000000000e+02 1.170839595794677734e+01 -9.333674907684326172e-01 5.339339256286621094e+00 4.325451254844665527e-01 1.731565237045288086e+00 1.423112750053405762e+00
3.220000000000000000e+02 1.167398834228515625e+01 -6.584140062332153320e-01 3.231185197830200195e+00 -5.133494362235069275e-02 9.539550542831420898e-01 2.912530899047851562e-01
3.230000000000000000e+02 1.180995655059814453e+01 -1.179982900619506836e+00 6.375787734985351562e+00 1.363046288490295410e+00 2.321650266647338867e+00 2.854147911071777344e+00
3.240000000000000000e+02 1.121508598327636719e+01 -1.566744685173034668e+00 4.955491065979003906e+00 1.089868307113647461e+00 1.813607811927795410e+00 2.401193857192993164e+00
3.250000000000000000e+02 1.206940460205078125e+01 -1.448589086532592773e+00 6.946818351745605469e+00 3.830214262008666992e+00 3.233109712600708008e+00 4.670143604278564453e+00
3.260000000000000000e+02 1.269910144805908203e+01 -1.818591713905334473e+00 4.934116363525390625e+00 1.009210395812988281e+01 4.507865905761718750e+00 4.801822662353515625e+00
3.270000000000000000e+02 1.389465236663818359e+01 -1.069721937179565430e+00 1.058340072631835938e+01 1.461775398254394531e+01 7.560346603393554688e+00 -2.736757993698120117e+00
3.280000000000000000e+02 1.343566894531250000e+01 4.862853586673736572e-01 3.433251380920410156e+00 1.745202445983886719e+01 6.265583038330078125e+00 1.029173284769058228e-01
3.290000000000000000e+02 1.386348152160644531e+01 1.104993373155593872e-01 8.191712379455566406e+00 1.514040279388427734e+01 6.999634265899658203e+00 2.792281389236450195e+00
3.300000000000000000e+02 1.215275096893310547e+01 5.843258500099182129e-01 3.462183952331542969e+00 4.646728038787841797e+00 2.432673692703247070e+00 -4.668066024780273438e+00
3.310000000000000000e+02 1.072621726989746094e+01 7.942163348197937012e-01 8.435570001602172852e-01 6.908792257308959961e-01 4.603308737277984619e-01 -1.241327166557312012e+00
3.320000000000000000e+02 1.083320999145507812e+01 -6.385817527770996094e-01 1.865519881248474121e+00 -3.987017273902893066e-02 5.476949214935302734e-01 1.608573347330093384e-01
3.330000000000000000e+02 1.036914062500000000e+01 -6.705156564712524414e-01 1.613006949424743652e+00 -2.837097272276878357e-04 4.838169813156127930e-01 2.095579355955123901e-01
3.340000000000000000e+02 1.085178756713867188e+01 -8.791966438293457031e-01 2.639514207839965820e+00 6.523502618074417114e-02 8.114247918128967285e-01 4.324905872344970703e-01
3.350000000000000000e+02 1.158377647399902344e+01 7.924935221672058105e-01 2.389476060867309570e+00 2.197073459625244141e+00 1.375964879989624023e+00 -2.971687555313110352e+00
3.360000000000000000e+02 1.179263782501220703e+01 5.909146070480346680e-01 2.870424509048461914e+00 2.446918725967407227e+00 1.595202922821044922e+00 -3.232654094696044922e+00
3.370000000000000000e+02 1.141501617431640625e+01 6.984031796455383301e-01 1.951643347740173340e+00 1.645210742950439453e+00 1.079056262969970703e+00 -2.313639879226684570e+00
3.380000000000000000e+02 1.129798698425292969e+01 8.612710833549499512e-01 1.971555590629577637e+00 1.705336809158325195e+00 1.103067755699157715e+00 -2.352203607559204102e+00
3.390000000000000000e+02 1.147909545898437500e+01 -9.668656587600708008e-01 4.626431465148925781e+00 2.511366307735443115e-01 1.463270306587219238e+00 1.184615015983581543e+00
3.400000000000000000e+02 1.083078384399414062e+01 -1.320556998252868652e+00 3.798574686050415039e+00 3.585213422775268555e-01 1.247128844261169434e+00 1.271985173225402832e+00
3.410000000000000000e+02 1.078087902069091797e+01 -1.154060721397399902e+00 3.431175708770751953e+00 2.418656647205352783e-01 1.101912379264831543e+00 9.474609494209289551e-01
3.420000000000000000e+02 1.066753005981445312e+01 -9.901057481765747070e-01 2.724684715270996094e+00 3.268552944064140320e-02 8.272110819816589355e-01 5.150517225265502930e-01
3.430000000000000000e+02 1.068563747406005859e+01 5.854052901268005371e-01 4.055166542530059814e-01 4.536214768886566162e-01 2.577414512634277344e-01 -8.438503742218017578e-01
3.440000000000000000e+02 1.059439277648925781e+01 4.246655702590942383e-01 -1.261781305074691772e-01 2.212629914283752441e-01 2.852545492351055145e-02 -4.967312514781951904e-01
3.450000000000000000e+02 4.702627944946289062e+01 1.461489796638488770e+00 -5.751689910888671875e+00 -6.479549407958984375e-01 -1.919893503189086914e+00 9.964371323585510254e-01
3.460000000000000000e+02 3.981679534912109375e+01 7.365328311920166016e+00 1.932088017463684082e+00 1.290761184692382812e+01 4.451910018920898438e+00 4.480386257171630859e+00
3.470000000000000000e+02 4.019849014282226562e+01 5.628282546997070312e+00 1.242342829704284668e+00 1.051465034484863281e+01 3.527097940444946289e+00 3.349959135055541992e+00
3.480000000000000000e+02 3.924496459960937500e+01 6.051677703857421875e+00 2.034560203552246094e+00 1.182489013671875000e+01 4.157835006713867188e+00 4.727250576019287109e+00
3.490000000000000000e+02 3.862280273437500000e+01 4.762920856475830078e+00 1.911522388458251953e+00 9.791152954101562500e+00 3.510802507400512695e+00 4.184481143951416016e+00
3.500000000000000000e+02 3.703493118286132812e+01 2.334371328353881836e+00 6.596546173095703125e-01 4.292130470275878906e+00 1.485535502433776855e+00 1.922185301780700684e+00
3.510000000000000000e+02 3.549761199951171875e+01 -4.645478129386901855e-01 -4.099000692367553711e-01 2.291259288787841797e+00 5.644077658653259277e-01 6.345074176788330078e-01
3.520000000000000000e+02 4.025357818603515625e+01 -1.206644344329833984e+01 4.218302071094512939e-01 1.344395923614501953e+01 4.159737110137939453e+00 -5.541358590126037598e-01
3.530000000000000000e+02 3.268841552734375000e+01 -1.806325912475585938e+01 -2.049061059951782227e+00 2.263253480195999146e-01 -5.468207001686096191e-01 1.892339140176773071e-01
3.540000000000000000e+02 3.671026611328125000e+01 -1.592429161071777344e+01 -8.027155399322509766e-01 9.548959732055664062e+00 2.623873233795166016e+00 -5.462678074836730957e-01
3.550000000000000000e+02 3.539179229736328125e+01 -2.142642784118652344e+01 5.904887318611145020e-01 1.638733291625976562e+01 5.093346595764160156e+00 -9.529570341110229492e-01
3.560000000000000000e+02 3.517683029174804688e+01 -2.014919853210449219e+01 1.633726954460144043e+00 1.439105033874511719e+01 4.807433128356933594e+00 -2.231493234634399414e+00
3.570000000000000000e+02 4.150527572631835938e+01 -1.759725952148437500e+01 1.129235267639160156e+00 1.049811077117919922e+01 3.488204002380371094e+00 -1.444305062294006348e+00
3.580000000000000000e+02 4.177535629272460938e+01 -1.621996116638183594e+01 8.125595450401306152e-01 1.259582424163818359e+01 4.022515296936035156e+00 -2.142170667648315430e+00
3.590000000000000000e+02 4.161496353149414062e+01 -1.488651561737060547e+01 4.881662130355834961e-01 1.428379344940185547e+01 4.431588172912597656e+00 -1.658759474754333496e+00
3.600000000000000000e+02 4.135649871826171875e+01 -1.073356437683105469e+01 3.736980259418487549e-01 1.562401008605957031e+01 4.799312591552734375e+00 -5.706431269645690918e-01
3.610000000000000000e+02 4.023588943481445312e+01 -1.069246673583984375e+01 6.381585001945495605e-01 1.340678882598876953e+01 4.213484287261962891e+00 -1.311194598674774170e-01
3.620000000000000000e+02 5.111590576171875000e+01 8.926171809434890747e-02 -4.081830501556396484e+00 -2.596732676029205322e-01 -1.302451133728027344e+00 1.297143220901489258e+00
3.630000000000000000e+02 5.240176010131835938e+01 -3.389624357223510742e-01 -3.807238340377807617e+00 -5.199390579946339130e-04 -1.142327427864074707e+00 9.095193147659301758e-01
3.640000000000000000e+02 5.646035003662109375e+01 -1.003724932670593262e+00 -4.618379592895507812e+00 -1.754136532545089722e-01 -1.438138008117675781e+00 6.984393000602722168e-01
3.650000000000000000e+02 5.856971359252929688e+01 1.159557461738586426e+00 -2.042863607406616211e+00 4.001353085041046143e-01 -4.928185045719146729e-01 -3.318700194358825684e-01
3.660000000000000000e+02 5.353314208984375000e+01 9.715926170349121094e+00 1.379786610603332520e+00 1.549490094184875488e+00 8.787829875946044922e-01 4.925913512706756592e-01
3.670000000000000000e+02 5.335367202758789062e+01 1.865991020202636719e+01 1.429239273071289062e+00 3.369552850723266602e+00 1.439637660980224609e+00 1.039894223213195801e+00
3.680000000000000000e+02 5.520046997070312500e+01 2.421024894714355469e+01 8.046987056732177734e-01 3.899076938629150391e+00 1.411132693290710449e+00 8.128863573074340820e-01
3.690000000000000000e+02 5.796429824829101562e+01 3.041494178771972656e+01 1.758847981691360474e-01 4.443214893341064453e+00 1.385729908943176270e+00 5.549892783164978027e-01
3.700000000000000000e+02 5.708964157104492188e+01 3.733375930786132812e+01 -3.877699971199035645e-01 4.681891918182373047e+00 1.288236498832702637e+00 3.124823570251464844e-01
3.710000000000000000e+02 5.266161727905273438e+01 3.802617645263671875e+01 -7.311461567878723145e-01 4.330530166625976562e+00 1.079815149307250977e+00 3.460517823696136475e-01
3.720000000000000000e+02 5.261350631713867188e+01 4.101593780517578125e+01 -8.356148004531860352e-01 4.340751171112060547e+00 1.051540851593017578e+00 1.201287582516670227e-01
3.730000000000000000e+02 4.845431518554687500e+01 3.820774841308593750e+01 -1.065015912055969238e+00 3.820792675018310547e+00 8.267329931259155273e-01 3.220659196376800537e-01
3.740000000000000000e+02 5.224899673461914062e+01 3.216225433349609375e+01 -2.077477127313613892e-01 4.197110176086425781e+00 1.196808695793151855e+00 7.373601198196411133e-01
3.750000000000000000e+02 4.973669052124023438e+01 2.194586563110351562e+01 9.167823791503906250e-01 4.140849113464355469e+00 1.517289519309997559e+00 1.223157405853271484e+00
3.760000000000000000e+02 4.652438354492187500e+01 1.638495445251464844e+01 1.313147306442260742e+00 5.016015529632568359e+00 1.898748755455017090e+00 1.903187155723571777e+00
3.770000000000000000e+02 4.896476745605468750e+01 1.054166030883789062e+01 1.842244148254394531e+00 2.758110284805297852e+00 1.380106329917907715e+00 1.774601101875305176e+00
3.780000000000000000e+02 4.983747100830078125e+01 6.260968446731567383e-01 -4.847026824951171875e+00 -5.490648746490478516e-01 -1.618827581405639648e+00 1.574862837791442871e+00
3.790000000000000000e+02 5.039324188232421875e+01 1.963359355926513672e+00 -3.540379047393798828e+00 2.681262791156768799e-02 -1.054069995880126953e+00 5.866643190383911133e-01
3.800000000000000000e+02 5.820134353637695312e+01 -1.006749719381332397e-01 -3.039726257324218750e+00 -2.696861512959003448e-02 -9.200084805488586426e-01 1.843467205762863159e-01
3.810000000000000000e+02 5.920426177978515625e+01 -1.626857161521911621e+00 -3.864388227462768555e+00 -2.677861750125885010e-01 -1.239652276039123535e+00 8.273080587387084961e-01
3.820000000000000000e+02 6.182581329345703125e+01 -2.716533899307250977e+00 -1.740233778953552246e+00 2.039579451084136963e-01 -4.608827531337738037e-01 2.620106041431427002e-01
3.830000000000000000e+02 6.413712310791015625e+01 -4.388160705566406250e+00 6.737217307090759277e-01 2.913032770156860352e+00 1.076026320457458496e+00 -1.506564974784851074e+00
3.840000000000000000e+02 6.594158935546875000e+01 -6.787718296051025391e+00 8.783009648323059082e-01 6.543571949005126953e+00 2.226561784744262695e+00 -2.099473714828491211e+00
3.850000000000000000e+02 6.834042358398437500e+01 -9.161546707153320312e+00 2.193212211132049561e-01 9.124977111816406250e+00 2.803289413452148438e+00 -1.771139144897460938e+00
3.860000000000000000e+02 6.861431121826171875e+01 -1.487928104400634766e+01 9.328104853630065918e-01 1.734039497375488281e+01 5.481961727142333984e+00 -2.224579811096191406e+00
3.870000000000000000e+02 6.889219665527343750e+01 -2.175635147094726562e+01 9.091401845216751099e-02 1.493536376953125000e+01 4.507883071899414062e+00 2.290321886539459229e-02
3.880000000000000000e+02 6.845405578613281250e+01 -2.676391220092773438e+01 1.263971447944641113e+00 1.141095352172851562e+01 3.802477598190307617e+00 2.554100036621093750e+00
3.890000000000000000e+02 6.689260101318359375e+01 -2.907130432128906250e+01 1.060749888420104980e+00 5.202456951141357422e+00 1.878962039947509766e+00 2.170490264892578125e+00
3.900000000000000000e+02 6.782768249511718750e+01 -3.303801345825195312e+01 -1.047664165496826172e+00 5.612050533294677734e+00 1.369315862655639648e+00 6.554300785064697266e-01
3.910000000000000000e+02 6.478234863281250000e+01 -3.102979087829589844e+01 -5.334765911102294922e-01 1.070368409156799316e+00 1.610675454139709473e-01 4.190371036529541016e-01
3.920000000000000000e+02 6.359162902832031250e+01 -3.184520339965820312e+01 -1.388354182243347168e+00 3.638972640037536621e-01 -3.073371052742004395e-01 -1.166731044650077820e-01
3.930000000000000000e+02 6.080456542968750000e+01 -3.316633987426757812e+01 -2.336825847625732422e+00 -3.531402349472045898e-01 -8.069897890090942383e-01 -2.848791778087615967e-01
3.940000000000000000e+02 5.766550445556640625e+01 -3.255830764770507812e+01 -1.972943305969238281e+00 -1.839195787906646729e-01 -6.470588445663452148e-01 3.470886945724487305e-01
3.950000000000000000e+02 5.916811752319335938e+01 -3.310670852661132812e+01 -2.377504587173461914e+00 -2.491243779659271240e-01 -7.879887223243713379e-01 1.337577495723962784e-02
3.960000000000000000e+02 5.703570938110351562e+01 -3.380294799804687500e+01 -1.361080408096313477e+00 -5.986319482326507568e-02 -4.262830615043640137e-01 -3.122051060199737549e-01
3.970000000000000000e+02 5.517880249023437500e+01 -3.111710166931152344e+01 -6.312656998634338379e-01 -6.511432677507400513e-02 -2.089140117168426514e-01 2.549157738685607910e-01
3.980000000000000000e+02 5.316220474243164062e+01 -2.906913375854492188e+01 -1.324463933706283569e-01 1.471342742443084717e-01 4.406365100294351578e-03 -2.410634793341159821e-02
3.990000000000000000e+02 4.212900924682617188e+01 -4.078718948364257812e+01 -1.546689867973327637e+00 4.289140224456787109e+00 8.227351307868957520e-01 -2.026422768831253052e-01
4.000000000000000000e+02 4.658479309082031250e+01 -3.752256774902343750e+01 -8.058701753616333008e-01 3.042046785354614258e+00 6.708530187606811523e-01 -7.306339144706726074e-01
4.010000000000000000e+02 5.159799575805664062e+01 -4.086169052124023438e+01 -1.573896110057830811e-01 1.453765988349914551e+00 3.889129161834716797e-01 -2.158723920583724976e-01
4.020000000000000000e+02 5.283334732055664062e+01 -3.734708404541015625e+01 -2.870370149612426758e-01 1.137972354888916016e+00 2.552806138992309570e-01 -5.186503529548645020e-01
4.030000000000000000e+02 5.122441482543945312e+01 -2.905917358398437500e+01 2.155305352061986923e-03 6.817242503166198730e-01 2.051638662815093994e-01 -3.482883870601654053e-01
4.040000000000000000e+02 5.298260116577148438e+01 -3.142068481445312500e+01 -3.904630243778228760e-01 6.292465925216674805e-01 7.163508236408233643e-02 -2.381587624549865723e-01
4.050000000000000000e+02 4.533821487426757812e+01 -2.338244628906250000e+01 8.370552659034729004e-01 2.113731145858764648e+00 8.852359652519226074e-01 -1.208643913269042969e+00
4.060000000000000000e+02 4.265917587280273438e+01 -2.020413208007812500e+01 3.676678836345672607e-01 6.659273147583007812e+00 2.108082294464111328e+00 -1.524288177490234375e+00
4.070000000000000000e+02 3.751526641845703125e+01 -2.310598754882812500e+01 1.800459980964660645e+00 1.117218589782714844e+01 3.891793727874755859e+00 3.177232742309570312e-01
4.080000000000000000e+02 3.477450180053710938e+01 -2.596870040893554688e+01 2.374045848846435547e+00 1.330368518829345703e+01 4.703319549560546875e+00 4.521090507507324219e+00
4.090000000000000000e+02 3.413624191284179688e+01 -2.716492080688476562e+01 2.561245441436767578e+00 9.503512382507324219e+00 3.619427204132080078e+00 4.386333942413330078e+00
4.100000000000000000e+02 3.345583724975585938e+01 -2.832346534729003906e+01 2.374925374984741211e+00 6.815110206604003906e+00 2.757010698318481445e+00 3.709955215454101562e+00
4.110000000000000000e+02 3.804901123046875000e+01 -3.642136764526367188e+01 -1.703196287155151367e+00 5.327876567840576172e+00 1.087404131889343262e+00 -1.645353883504867554e-01
4.120000000000000000e+02 3.656928634643554688e+01 -3.115906524658203125e+01 -8.315730690956115723e-01 7.016095161437988281e+00 1.855356693267822266e+00 1.742903888225555420e-01
4.130000000000000000e+02 4.460330200195312500e+01 -2.971830558776855469e+01 1.317789703607559204e-01 3.595928907394409180e+00 1.118312358856201172e+00 -1.516938924789428711e+00
4.140000000000000000e+02 4.535634994506835938e+01 -2.118612861633300781e+01 6.051857471466064453e-01 1.212107896804809570e+00 5.451881289482116699e-01 -8.759543895721435547e-01
4.150000000000000000e+02 4.347050857543945312e+01 -1.917361259460449219e+01 1.193095207214355469e+00 3.958453893661499023e+00 1.545464754104614258e+00 -2.162770986557006836e+00
4.160000000000000000e+02 4.186212921142578125e+01 -5.204538822174072266e+00 7.595670223236083984e-01 1.469356250762939453e+01 4.635938644409179688e+00 3.448417901992797852e+00
4.170000000000000000e+02 4.251402664184570312e+01 -2.484007358551025391e+00 2.158665895462036133e+00 1.527055072784423828e+01 5.228765010833740234e+00 4.649384498596191406e+00
4.180000000000000000e+02 4.411582565307617188e+01 1.246389031410217285e+00 -9.673631787300109863e-01 6.061723709106445312e+00 1.528308153152465820e+00 2.608683586120605469e+00
4.190000000000000000e+02 4.027519989013671875e+01 8.726420402526855469e+00 1.393475413322448730e+00 1.282585811614990234e+01 4.265799999237060547e+00 3.821836233139038086e+00
4.200000000000000000e+02 3.134642028808593750e+01 3.716137313842773438e+01 -2.525745630264282227e+00 -1.922435015439987183e-01 -8.153967857360839844e-01 4.873253107070922852e-01
4.210000000000000000e+02 3.409900283813476562e+01 3.628176498413085938e+01 -2.212076425552368164e+00 -2.661431431770324707e-01 -7.434659004211425781e-01 6.810489892959594727e-01
4.220000000000000000e+02 3.900492858886718750e+01 3.559885787963867188e+01 -1.342410445213317871e+00 7.823864817619323730e-01 -1.680071800947189331e-01 1.100165620446205139e-01
4.230000000000000000e+02 3.496063232421875000e+01 3.952069091796875000e+01 -1.629975080490112305e+00 -4.421236738562583923e-02 -5.022562146186828613e-01 1.838478296995162964e-01
4.240000000000000000e+02 4.151651382446289062e+01 3.319381713867187500e+01 -8.841241598129272461e-01 2.476944923400878906e+00 4.778462648391723633e-01 1.207758635282516479e-01
4.250000000000000000e+02 4.004812240600585938e+01 3.235482406616210938e+01 -2.444604039192199707e-01 1.460568308830261230e+00 3.648323416709899902e-01 -1.889985650777816772e-01
4.260000000000000000e+02 4.152880477905273438e+01 2.829449462890625000e+01 2.700450718402862549e-01 4.773403167724609375e+00 1.513034462928771973e+00 -4.328026175498962402e-01
4.270000000000000000e+02 4.291862869262695312e+01 2.712040138244628906e+01 2.953530251979827881e-01 4.500501155853271484e+00 1.438756227493286133e+00 3.267626836895942688e-02
4.280000000000000000e+02 4.169831085205078125e+01 2.549928665161132812e+01 3.422623127698898315e-02 4.911282539367675781e+00 1.483652591705322266e+00 5.481576547026634216e-02
4.290000000000000000e+02 4.281496429443359375e+01 1.697794723510742188e+01 4.946610033512115479e-01 7.127156734466552734e+00 2.286545276641845703e+00 1.296186327934265137e+00
4.300000000000000000e+02 4.292738723754882812e+01 1.840064430236816406e+01 3.194975256919860840e-01 6.490139484405517578e+00 2.042891025543212891e+00 1.004627823829650879e+00
4.310000000000000000e+02 4.112636184692382812e+01 1.286748313903808594e+01 5.165227055549621582e-01 9.971008300781250000e+00 3.146259307861328125e+00 2.080180644989013672e+00
4.320000000000000000e+02 4.088633728027343750e+01 1.149156761169433594e+01 6.085118651390075684e-01 1.082388496398925781e+01 3.429719209671020508e+00 2.429957628250122070e+00
4.330000000000000000e+02 3.538983535766601562e+01 3.580250167846679688e+01 -2.153317928314208984e+00 -3.179027140140533447e-01 -7.413662075996398926e-01 7.634961009025573730e-01
4.340000000000000000e+02 3.669746780395507812e+01 3.523088073730468750e+01 -1.822973489761352539e+00 -3.198285698890686035e-01 -6.428406238555908203e-01 7.166112661361694336e-01
4.350000000000000000e+02 3.491912841796875000e+01 3.879862725734710693e-01 -1.144269824028015137e+00 3.926334083080291748e-01 -2.254909127950668335e-01 -3.752327561378479004e-01
4.360000000000000000e+02 3.203331375122070312e+01 -3.011568307876586914e+00 1.993030428886413574e+00 -1.502832025289535522e-01 5.528241991996765137e-01 -9.002422690391540527e-01
4.370000000000000000e+02 3.110577011108398438e+01 -4.206116199493408203e+00 2.940530776977539062e+00 8.878380805253982544e-02 9.087944030761718750e-01 -1.460411787033081055e+00
4.380000000000000000e+02 2.525829696655273438e+01 -1.672120571136474609e+00 5.876873970031738281e+00 1.940466046333312988e+00 2.345201969146728516e+00 -2.512655735015869141e+00
4.390000000000000000e+02 2.415312004089355469e+01 -6.603242754936218262e-01 3.244482040405273438e+00 1.664373159408569336e+00 1.472656607627868652e+00 -2.375057697296142578e+00
4.400000000000000000e+02 2.336239242553710938e+01 -1.360975980758666992e+00 4.596985340118408203e+00 7.250354886054992676e-01 1.596606254577636719e+00 -1.994887948036193848e+00
4.410000000000000000e+02 2.223274612426757812e+01 1.414068341255187988e+00 1.067131400108337402e+00 5.114641785621643066e-01 4.735786616802215576e-01 -7.849999666213989258e-01
4.420000000000000000e+02 2.064896774291992188e+01 3.746068477630615234e+00 8.355177938938140869e-02 7.596777081489562988e-01 2.529688477516174316e-01 -1.832694113254547119e-01
4.430000000000000000e+02 1.456149768829345703e+01 5.361446738243103027e-01 5.786584854125976562e+00 1.144909191131591797e+01 5.170702934265136719e+00 1.872017621994018555e+00
4.440000000000000000e+02 1.851078605651855469e+01 5.756596565246582031e+00 -3.134146332740783691e-01 4.642655372619628906e+00 1.298772215843200684e+00 -5.216572880744934082e-01
4.450000000000000000e+02 1.938799858093261719e+01 6.265597820281982422e+00 9.695546329021453857e-02 3.198498725891113281e+00 9.886362552642822266e-01 -8.629867434501647949e-01
4.460000000000000000e+02 1.539888286590576172e+01 1.241106986999511719e+01 4.943254888057708740e-01 7.913756847381591797e+00 2.522424697875976562e+00 -1.722617626190185547e+00
4.470000000000000000e+02 1.434209346771240234e+01 1.674967575073242188e+01 8.861041069030761719e-01 9.010927200317382812e+00 2.969109296798706055e+00 -1.348095417022705078e+00
4.480000000000000000e+02 6.248983144760131836e-01 1.904992103576660156e+01 1.731875911355018616e-02 -7.776020169258117676e-01 -2.280849665403366089e-01 -1.195102110505104065e-01
4.490000000000000000e+02 1.824284911155700684e+00 1.602427673339843750e+01 3.940460458397865295e-02 -3.299581408500671387e-01 -8.716606348752975464e-02 -1.731141805648803711e-01
4.500000000000000000e+02 6.051661968231201172e-01 1.482172107696533203e+01 9.549088776111602783e-03 -1.305676698684692383e+00 -3.888382911682128906e-01 -4.401206225156784058e-02
4.510000000000000000e+02 1.618902802467346191e+00 9.008621215820312500e+00 4.383058100938796997e-02 -7.126305103302001953e-01 -2.006399780511856079e-01 8.757713437080383301e-02
4.520000000000000000e+02 9.612396240234375000e+00 2.348233938217163086e+00 8.115532398223876953e-01 1.395764112472534180e+00 6.621952056884765625e-01 -1.376193881034851074e+00
4.530000000000000000e+02 1.016767597198486328e+01 1.725716829299926758e+00 1.021218299865722656e+00 1.205258488655090332e+00 6.679430007934570312e-01 -1.629051446914672852e+00
4.540000000000000000e+02 1.297939395904541016e+01 1.216681241989135742e+00 9.872553348541259766e-01 1.138645744323730469e+01 3.712113857269287109e+00 -3.886175632476806641e+00
4.550000000000000000e+02 1.628082847595214844e+01 1.415110778808593750e+01 6.571878194808959961e-01 9.201139450073242188e+00 2.957498311996459961e+00 -2.410167932510375977e+00
4.560000000000000000e+02 1.590431785583496094e+01 1.551941204071044922e+01 7.182745337486267090e-01 9.974761962890625000e+00 3.207911014556884766e+00 -2.416220426559448242e+00
4.570000000000000000e+02 1.429155158996582031e+01 2.565209007263183594e+01 5.563375353813171387e-01 6.913264274597167969e+00 2.240880489349365234e+00 -3.879991173744201660e-02
4.580000000000000000e+02 6.500861048698425293e-01 2.610666275024414062e+01 5.568244028836488724e-03 1.242813944816589355e+00 3.745146691799163818e-01 -2.283682525157928467e-01
4.590000000000000000e+02 1.940591335296630859e+00 2.586829376220703125e+01 2.550418302416801453e-02 1.684684276580810547e+00 5.130565166473388672e-01 -6.380614042282104492e-01
4.600000000000000000e+02 1.396976661682128906e+01 2.116703796386718750e+01 4.278500676155090332e-01 8.719333648681640625e+00 2.744155168533325195e+00 -6.984332799911499023e-01
4.610000000000000000e+02 1.527582454681396484e+01 2.395790672302246094e+01 3.208564519882202148e-01 9.398570060729980469e+00 2.915827989578247070e+00 4.682002067565917969e-01
4.620000000000000000e+02 1.239802646636962891e+01 2.969232749938964844e+01 -4.192518591880798340e-01 4.674731254577636719e+00 1.276643872261047363e+00 -9.395357966423034668e-01
4.630000000000000000e+02 7.895696759223937988e-01 3.320499038696289062e+01 -1.320174988359212875e-02 3.684340000152587891e+00 1.101341485977172852e+00 -2.266846746206283569e-01
4.640000000000000000e+02 2.042373418807983398e+00 3.000045585632324219e+01 -1.835156045854091644e-02 2.857016563415527344e+00 8.515995144844055176e-01 -6.747472286224365234e-01
4.650000000000000000e+02 1.584091186523437500e+01 2.678351020812988281e+01 5.102584958076477051e-01 6.422080516815185547e+00 2.079701662063598633e+00 1.466696977615356445e+00
4.660000000000000000e+02 1.695223236083984375e+01 2.947684097290039062e+01 3.980956077575683594e-01 3.496450185775756836e+00 1.168363809585571289e+00 1.078068017959594727e+00
4.670000000000000000e+02 1.928368568420410156e+01 3.302261734008789062e+01 -3.813908696174621582e-01 5.552344322204589844e-01 5.215308070182800293e-02 -5.205954983830451965e-02
4.680000000000000000e+02 2.014524650573730469e+01 3.416961288452148438e+01 -1.019063115119934082e+00 -2.149612270295619965e-02 -3.121677637100219727e-01 -4.412701725959777832e-01
4.690000000000000000e+02 1.993481445312500000e+01 3.654927825927734375e+01 -1.458260536193847656e+00 7.066112160682678223e-01 -2.254948019981384277e-01 -1.763880848884582520e-01
4.700000000000000000e+02 2.823954200744628906e+01 3.750475692749023438e+01 -2.765553951263427734e+00 -2.178145200014114380e-01 -8.950105309486389160e-01 -1.442734897136688232e-01
4.710000000000000000e+02 1.041126823425292969e+01 -1.490803146362304688e+01 -1.715327024459838867e+00 2.381065130233764648e+00 1.997214108705520630e-01 3.299963474273681641e+00
4.720000000000000000e+02 1.067847633361816406e+01 -1.372630786895751953e+01 -1.452952980995178223e+00 2.114634513854980469e+00 1.985044628381729126e-01 3.107551097869873047e+00
4.730000000000000000e+02 3.781260013580322266e+00 -1.966636538505554199e+00 2.426991313695907593e-01 9.870760887861251831e-02 1.024220213294029236e-01 1.122304722666740417e-01
4.740000000000000000e+02 5.677355527877807617e-01 -1.069218254089355469e+01 -2.645658701658248901e-02 1.364665031433105469e+00 4.014625251293182373e-01 1.015799045562744141e-01
4.750000000000000000e+02 1.698857784271240234e+00 -1.070365905761718750e+01 -1.078407466411590576e-01 1.705269575119018555e+00 4.792286753654479980e-01 3.270808160305023193e-01
4.760000000000000000e+02 6.949992179870605469e+00 -1.952853393554687500e+01 2.299670457839965820e+00 1.241858577728271484e+01 4.415476799011230469e+00 4.697321414947509766e+00
4.770000000000000000e+02 5.763809084892272949e-01 -1.771016693115234375e+01 5.900992825627326965e-02 2.501506805419921875e-01 9.274818003177642822e-02 -1.957798451185226440e-01
4.780000000000000000e+02 8.299820899963378906e+00 -1.724353218078613281e+01 3.050886154174804688e+00 5.896276950836181641e+00 2.684148788452148438e+00 3.928192615509033203e+00
4.790000000000000000e+02 1.019040107727050781e+01 -1.627712249755859375e+01 -1.460808366537094116e-01 1.548128247261047363e+00 4.206142425537109375e-01 1.717257380485534668e+00
4.800000000000000000e+02 1.683065605163574219e+01 -1.745394325256347656e+01 -3.987355470657348633e+00 -4.363492429256439209e-01 -1.327111482620239258e+00 1.498840332031250000e+00
4.810000000000000000e+02 2.182162094116210938e+01 -1.770082855224609375e+01 -3.032631158828735352e+00 3.280200660228729248e-01 -8.113833069801330566e-01 1.401787549257278442e-01
4.820000000000000000e+02 2.639451408386230469e+01 -1.691103172302246094e+01 -2.685491085052490234e+00 6.868617236614227295e-02 -7.850414514541625977e-01 -3.460029661655426025e-01
4.830000000000000000e+02 3.047468757629394531e+01 -1.657691955566406250e+01 -2.575738191604614258e+00 -3.883725404739379883e-01 -8.892331719398498535e-01 -5.209172964096069336e-01
4.840000000000000000e+02 2.942372322082519531e+01 -1.744970703125000000e+01 -4.180049419403076172e+00 -3.014748096466064453e-01 -1.344457268714904785e+00 -3.943687975406646729e-01
4.850000000000000000e+02 3.161283493041992188e+01 -1.758925628662109375e+01 -3.830141305923461914e+00 -2.300270646810531616e-01 -1.218050599098205566e+00 1.125954166054725647e-01
4.860000000000000000e+02 3.673799133300781250e+01 -2.103720474243164062e+01 1.662564992904663086e+00 1.244260215759277344e+01 4.231550216674804688e+00 1.999510675668716431e-01
4.870000000000000000e+02 3.619858169555664062e+01 -2.381233787536621094e+01 1.776637911796569824e+00 1.475209236145019531e+01 4.958619117736816406e+00 1.145149469375610352e+00
4.880000000000000000e+02 3.244373703002929688e+01 -3.079501152038574219e+01 7.193053364753723145e-01 4.258716106414794922e+00 1.493406414985656738e+00 2.045803070068359375e+00
4.890000000000000000e+02 3.095565032958984375e+01 -3.071109962463378906e+01 9.370004534721374512e-01 2.568204164505004883e+00 1.051561355590820312e+00 1.652113318443298340e+00
4.900000000000000000e+02 2.875598526000976562e+01 -3.267568206787109375e+01 -4.008350968360900879e-01 6.199683547019958496e-01 6.573998928070068359e-02 8.809049725532531738e-01
4.910000000000000000e+02 1.730739402770996094e+01 -3.197902488708496094e+01 -2.788463592529296875e+00 -1.788923144340515137e-01 -8.902067542076110840e-01 2.941852211952209473e-01
4.920000000000000000e+02 1.454783630371093750e+01 -3.166055870056152344e+01 -3.285284757614135742e+00 -2.323556393384933472e-01 -1.055292129516601562e+00 7.214888930320739746e-01
4.930000000000000000e+02 9.304965019226074219e+00 -3.103512763977050781e+01 -3.332296848297119141e+00 -7.781258225440979004e-01 -1.233126759529113770e+00 1.055179238319396973e+00
4.940000000000000000e+02 2.091353416442871094e+00 -3.197042846679687500e+01 -3.580075800418853760e-01 7.464899539947509766e+00 2.132067441940307617e+00 3.881304562091827393e-01
4.950000000000000000e+02 7.969392299652099609e+00 -2.888229751586914062e+01 -1.400231480598449707e+00 3.478457778692245483e-02 -4.096340537071228027e-01 1.050460815429687500e+00
4.960000000000000000e+02 6.329324722290039062e+00 -2.680860137939453125e+01 2.814944386482238770e-01 7.196224689483642578e+00 2.243315696716308594e+00 -3.702100515365600586e-01
4.970000000000000000e+02 7.972874641418457031e-01 -2.898973274230957031e+01 -1.242240965366363525e-01 7.294550895690917969e+00 2.151098012924194336e+00 6.849204301834106445e-01
4.980000000000000000e+02 6.982948780059814453e-01 -3.189294815063476562e+01 -1.302229911088943481e-01 8.828088760375976562e+00 2.609359741210937500e+00 2.040908038616180420e-01
4.990000000000000000e+02 3.045224189758300781e+00 -3.757392120361328125e+01 -1.211502403020858765e-01 6.469841480255126953e+00 1.904607415199279785e+00 -5.185104608535766602e-01
5.000000000000000000e+02 8.405585289001464844e-01 -3.725988769531250000e+01 -1.150261238217353821e-01 8.184290885925292969e+00 2.420779466629028320e+00 -2.624182999134063721e-01
5.010000000000000000e+02 8.214842796325683594e+00 -4.130680465698242188e+01 5.748641490936279297e-01 2.417448997497558594e+00 8.976939320564270020e-01 -3.043799102306365967e-02
5.020000000000000000e+02 1.018733119964599609e+01 -3.670832443237304688e+01 -4.110163077712059021e-03 6.699991822242736816e-01 1.997667104005813599e-01 4.940815852023661137e-04
5.030000000000000000e+02 8.162789344787597656e+00 -3.166196250915527344e+01 -1.913392663002014160e+00 1.256322622299194336e+00 -1.971210092306137085e-01 -1.190876513719558716e-01
5.040000000000000000e+02 5.932734012603759766e+00 -2.548234748840332031e+01 2.481734901666641235e-01 1.038609409332275391e+01 3.190280199050903320e+00 6.985023617744445801e-02
5.050000000000000000e+02 5.269967079162597656e+00 -2.304075813293457031e+01 1.115329623222351074e+00 1.187485122680664062e+01 3.897054195404052734e+00 1.909152984619140625e+00
5.060000000000000000e+02 6.511735320091247559e-01 -2.466907119750976562e+01 6.108421832323074341e-02 2.684476613998413086e+00 8.236683011054992676e-01 7.697708010673522949e-01
5.070000000000000000e+02 6.458743095397949219e+00 -2.077502822875976562e+01 1.589189291000366211e+00 1.389082813262939453e+01 4.644005298614501953e+00 3.971915721893310547e+00
5.080000000000000000e+02 1.183495163917541504e+00 2.137446641921997070e+00 -5.113450065255165100e-02 -1.971136778593063354e-01 -7.447445392608642578e-02 1.929595470428466797e-01
5.090000000000000000e+02 5.313208103179931641e-01 6.367837429046630859e+00 2.328087342903017998e-03 -1.049371123313903809e+00 -3.141129016876220703e-01 7.946629822254180908e-02
5.100000000000000000e+02 5.040606975555419922e+00 2.602786302566528320e+00 -1.013300865888595581e-01 1.035220324993133545e-01 6.575839361175894737e-04 3.237102627754211426e-01
5.110000000000000000e+02 1.519194316864013672e+01 -7.791668176651000977e-01 8.224520683288574219e+00 8.097496032714843750e+00 4.896605014801025391e+00 -9.747962951660156250e-01
5.120000000000000000e+02 1.459829807281494141e+01 -1.302122473716735840e+00 8.239727973937988281e+00 1.009343051910400391e+01 5.499947547912597656e+00 -2.127940654754638672e+00
5.130000000000000000e+02 1.471002388000488281e+01 -2.176239013671875000e+00 5.199349880218505859e+00 9.299255371093750000e+00 4.349581718444824219e+00 -1.858460068702697754e+00
5.140000000000000000e+02 1.413618850708007812e+01 -1.823034286499023438e+00 5.327324390411376953e+00 1.224131679534912109e+01 5.270592212677001953e+00 -1.550986528396606445e+00
5.150000000000000000e+02 1.518236160278320312e+01 -1.799065113067626953e+00 6.051053524017333984e+00 8.212116241455078125e+00 4.278950691223144531e+00 -2.068629741668701172e+00
5.160000000000000000e+02 1.443418312072753906e+01 -1.427498340606689453e+01 -2.306227922439575195e+00 -5.110580101609230042e-02 -7.072001099586486816e-01 1.078630924224853516e+00
5.170000000000000000e+02 1.557456398010253906e+01 -1.683963966369628906e+01 -5.084900856018066406e+00 -7.574242949485778809e-01 -1.752697467803955078e+00 1.730352282524108887e+00
5.180000000000000000e+02 1.384006214141845703e+01 -2.340039491653442383e+00 3.466460466384887695e+00 1.186315155029296875e+01 4.598883628845214844e+00 3.734531253576278687e-02
5.190000000000000000e+02 1.013349533081054688e+01 -1.737883329391479492e+00 3.221511363983154297e+00 4.446595013141632080e-01 1.099851250648498535e+00 1.345126390457153320e+00
5.200000000000000000e+02 1.641847419738769531e+01 -3.606361770629882812e+01 -6.871654987335205078e-01 -5.137495994567871094e-01 -3.602745234966278076e-01 5.250866413116455078e-01
5.210000000000000000e+02 1.548823642730712891e+01 -3.897862243652343750e+01 9.009233862161636353e-02 -4.968371689319610596e-01 -1.220234557986259460e-01 3.241561055183410645e-01
5.220000000000000000e+02 2.444972610473632812e+01 -3.840433120727539062e+01 -4.574614763259887695e-01 3.542361557483673096e-01 -3.096760250627994537e-02 3.593521714210510254e-01
5.230000000000000000e+02 2.253630828857421875e+01 -3.557722473144531250e+01 -8.965665102005004883e-01 -4.039901494979858398e-02 -2.810896635055541992e-01 2.682718336582183838e-01
5.240000000000000000e+02 2.425759887695312500e+01 -3.182342720031738281e+01 -1.753091335296630859e+00 2.642195299267768860e-02 -5.180008411407470703e-01 -8.449386060237884521e-02
5.250000000000000000e+02 2.767827606201171875e+01 -4.132164382934570312e+01 -7.413031458854675293e-01 1.540881633758544922e+00 2.398735582828521729e-01 1.294973194599151611e-01
5.260000000000000000e+02 2.833042716979980469e+01 -3.472677612304687500e+01 -7.172697186470031738e-01 1.428714752197265625e+00 2.134335190057754517e-01 9.897297620773315430e-01
5.270000000000000000e+02 3.564358139038085938e+01 -3.828102874755859375e+01 -1.790099620819091797e+00 4.694822311401367188e+00 8.714168667793273926e-01 2.482370287179946899e-01
5.280000000000000000e+02 5.907979965209960938e+01 -3.841108322143554688e+01 3.293363749980926514e-01 2.501495182514190674e-01 1.738457679748535156e-01 -2.019492834806442261e-01
5.290000000000000000e+02 5.599150848388671875e+01 -3.476481628417968750e+01 -5.963083505630493164e-01 2.289204448461532593e-01 -1.102163717150688171e-01 -6.079059839248657227e-01
5.300000000000000000e+02 6.252906799316406250e+01 -4.115838623046875000e+01 5.360483527183532715e-01 1.456936001777648926e+00 5.978953242301940918e-01 1.423420161008834839e-01
5.310000000000000000e+02 6.590815734863281250e+01 -3.781424331665039062e+01 -1.406671404838562012e-01 3.566748619079589844e+00 1.027824521064758301e+00 5.943597555160522461e-01
5.320000000000000000e+02 7.796537780761718750e+01 -4.164373397827148438e+01 1.298974156379699707e-01 1.068908309936523438e+01 3.245694160461425781e+00 3.666136786341667175e-02
5.330000000000000000e+02 7.784308624267578125e+01 -3.696197128295898438e+01 -8.880250900983810425e-02 1.038589572906494141e+01 3.089127779006958008e+00 -1.548747122287750244e-01
5.340000000000000000e+02 7.930043029785156250e+01 -3.334150314331054688e+01 -5.356606561690568924e-03 1.032779121398925781e+01 3.096730232238769531e+00 -2.141485810279846191e-01
5.350000000000000000e+02 7.805946350097656250e+01 -3.042403793334960938e+01 -1.199152320623397827e-01 9.187921524047851562e+00 2.720402002334594727e+00 -7.624859213829040527e-01
5.360000000000000000e+02 7.935078430175781250e+01 -2.645167350769042969e+01 -3.094800561666488647e-02 7.419180393218994141e+00 2.216469764709472656e+00 -2.898071110248565674e-01
5.370000000000000000e+02 6.903075408935546875e+01 -2.444867134094238281e+01 1.090835213661193848e+00 1.530710983276367188e+01 4.919383525848388672e+00 1.512553334236145020e+00
5.380000000000000000e+02 7.820121765136718750e+01 -2.356036186218261719e+01 1.308619379997253418e-01 7.152340888977050781e+00 2.184960842132568359e+00 -5.371623635292053223e-01
5.390000000000000000e+02 7.940192413330078125e+01 -2.225417709350585938e+01 6.341763585805892944e-02 5.907912731170654297e+00 1.791399121284484863e+00 -1.597445756196975708e-01
5.400000000000000000e+02 6.879573059082031250e+01 -1.764867973327636719e+01 7.215779274702072144e-02 1.583213424682617188e+01 4.771287441253662109e+00 -3.364861309528350830e-01
5.410000000000000000e+02 7.817777252197265625e+01 -1.647964096069335938e+01 1.007682904601097107e-01 6.425518512725830078e+00 1.957886099815368652e+00 1.003261059522628784e-01
5.420000000000000000e+02 7.938379669189453125e+01 -1.245306682586669922e+01 1.108417380601167679e-02 5.997802257537841797e+00 1.802665948867797852e+00 1.795551031827926636e-01
5.430000000000000000e+02 6.743788146972656250e+01 -1.085659885406494141e+01 1.232490420341491699e+00 9.757667541503906250e+00 3.297047615051269531e+00 -3.331046342849731445e+00
5.440000000000000000e+02 7.821063995361328125e+01 -9.534526824951171875e+00 8.207299746572971344e-03 7.349600315093994141e+00 2.207342147827148438e+00 5.450043678283691406e-01
5.450000000000000000e+02 7.936697387695312500e+01 -5.521988391876220703e+00 -1.866856776177883148e-02 8.159433364868164062e+00 2.442229270935058594e+00 1.896710842847824097e-01
5.460000000000000000e+02 7.265801239013671875e+01 1.757591009140014648e+00 -5.570532083511352539e-01 7.309684276580810547e+00 2.025789260864257812e+00 -3.583386838436126709e-01
5.470000000000000000e+02 6.209510040283203125e+01 1.317068576812744141e+00 -1.396694064140319824e+00 2.090564489364624023e+00 2.081611007452011108e-01 -1.246692657470703125e+00
5.480000000000000000e+02 6.008534622192382812e+01 7.375811338424682617e-01 -1.879643201828002930e+00 7.838190793991088867e-01 -3.287472426891326904e-01 -6.502096652984619141e-01
5.490000000000000000e+02 6.053685379028320312e+01 -2.111717462539672852e+00 -2.931267023086547852e+00 -1.441040486097335815e-01 -9.226112961769104004e-01 7.216572165489196777e-01
5.500000000000000000e+02 7.805342102050781250e+01 -2.600890636444091797e+00 -6.716976314783096313e-02 8.515140533447265625e+00 2.534391403198242188e+00 2.916348278522491455e-01
5.510000000000000000e+02 7.937451171875000000e+01 2.881598711013793945e+00 -1.818085834383964539e-02 9.121399879455566406e+00 2.730965614318847656e+00 -7.680462673306465149e-03
5.520000000000000000e+02 7.303755187988281250e+01 1.005889987945556641e+01 -4.044973850250244141e-02 6.560620784759521484e+00 1.956051230430603027e+00 -7.729114890098571777e-01
5.530000000000000000e+02 6.733737945556640625e+01 1.843413734436035156e+01 5.603497624397277832e-01 4.853010654449462891e+00 1.624008178710937500e+00 -4.783019423484802246e-01
5.540000000000000000e+02 6.542222595214843750e+01 1.070757198333740234e+01 3.528638780117034912e-01 4.143200397491455078e+00 1.348819255828857422e+00 -1.040836334228515625e+00
5.550000000000000000e+02 7.811633300781250000e+01 4.441517353057861328e+00 -4.945538938045501709e-02 8.567461967468261719e+00 2.555402040481567383e+00 -1.301570385694503784e-01
5.560000000000000000e+02 7.935736083984375000e+01 8.438463211059570312e+00 -6.550196558237075806e-03 8.554557800292968750e+00 2.564402341842651367e+00 -8.208280056715011597e-02
5.570000000000000000e+02 7.223638153076171875e+01 1.667555618286132812e+01 2.218611240386962891e-01 5.969576835632324219e+00 1.857431411743164062e+00 -6.028105616569519043e-01
5.580000000000000000e+02 6.592858886718750000e+01 2.459551048278808594e+01 4.915188848972320557e-01 4.886427402496337891e+00 1.613383889198303223e+00 -2.224504388868808746e-02
5.590000000000000000e+02 6.639665222167968750e+01 1.968409347534179688e+01 6.168023943901062012e-01 4.722139358520507812e+00 1.601682543754577637e+00 -3.482730984687805176e-01
5.600000000000000000e+02 7.805355072021484375e+01 1.135134124755859375e+01 6.284391041845083237e-03 7.777099609375000000e+00 2.335015296936035156e+00 -2.714544832706451416e-01
5.610000000000000000e+02 7.936920166015625000e+01 1.678252983093261719e+01 -1.550010871142148972e-03 7.359829425811767578e+00 2.207483768463134766e+00 -6.900812685489654541e-02
5.620000000000000000e+02 7.188417816162109375e+01 2.288527107238769531e+01 2.395542860031127930e-01 5.793859481811523438e+00 1.810024142265319824e+00 -2.559136152267456055e-01
5.630000000000000000e+02 6.243503952026367188e+01 2.747079467773437500e+01 4.241032004356384277e-01 4.640979766845703125e+00 1.519524931907653809e+00 2.822271287441253662e-01
5.640000000000000000e+02 6.428728485107421875e+01 2.599725151062011719e+01 4.728520512580871582e-01 4.755451202392578125e+00 1.568490982055664062e+00 1.256273984909057617e-01
5.650000000000000000e+02 7.809089660644531250e+01 1.964970207214355469e+01 2.429983951151371002e-02 6.896152496337890625e+00 2.076135635375976562e+00 -1.591355651617050171e-01
5.660000000000000000e+02 7.931735229492187500e+01 2.373332405090332031e+01 6.021229550242424011e-03 6.782673835754394531e+00 2.036608695983886719e+00 -2.787342108786106110e-02
5.670000000000000000e+02 7.139395141601562500e+01 3.332178497314453125e+01 3.772690147161483765e-02 5.804252624511718750e+00 1.752593874931335449e+00 4.236106947064399719e-02
5.680000000000000000e+02 6.262250518798828125e+01 4.079236602783203125e+01 -2.403792589902877808e-01 5.117736339569091797e+00 1.463207125663757324e+00 6.882055848836898804e-02
5.690000000000000000e+02 6.386164093017578125e+01 2.927691841125488281e+01 2.845696806907653809e-01 4.898577213287353516e+00 1.554944157600402832e+00 2.213742136955261230e-01
5.700000000000000000e+02 7.655783081054687500e+01 2.240192413330078125e+01 5.165839195251464844e-02 6.531484603881835938e+00 1.974942922592163086e+00 -1.782590448856353760e-01
5.710000000000000000e+02 7.924327850341796875e+01 2.930497169494628906e+01 2.737860428169369698e-03 6.628500938415527344e+00 1.989371657371520996e+00 -8.485878817737102509e-03
5.720000000000000000e+02 7.078518676757812500e+01 3.834240722656250000e+01 -2.450484782457351685e-02 5.843872547149658203e+00 1.745810270309448242e+00 3.552949801087379456e-02
5.730000000000000000e+02 5.759708404541015625e+01 4.072519302368164062e+01 -4.688000679016113281e-01 4.771169662475585938e+00 1.290710806846618652e+00 1.101100221276283264e-01
5.740000000000000000e+02 7.900749969482421875e+01 3.223323059082031250e+01 9.891993366181850433e-03 6.595931053161621094e+00 1.981746912002563477e+00 -3.248199587687849998e-03
5.750000000000000000e+02 7.941375732421875000e+01 3.751365661621093750e+01 -8.749920874834060669e-03 6.612100601196289062e+00 1.981005191802978516e+00 -9.338111616671085358e-03
5.760000000000000000e+02 3.990494537353515625e+01 3.989837265014648438e+01 -1.431617617607116699e+00 1.447904467582702637e+00 4.886047914624214172e-03 -1.387196872383356094e-02
5.770000000000000000e+02 4.006814193725585938e+01 3.681866073608398438e+01 -1.456311941146850586e+00 1.495551705360412598e+00 1.177191827446222305e-02 6.439766287803649902e-02
5.780000000000000000e+02 2.402967071533203125e+01 3.671979141235351562e+01 -2.344702720642089844e+00 -3.710733652114868164e-01 -8.147328495979309082e-01 -6.532534360885620117e-01
5.790000000000000000e+02 2.251908874511718750e+01 3.608285522460937500e+01 -1.914179086685180664e+00 -3.343071639537811279e-01 -6.745458841323852539e-01 -6.972942948341369629e-01
5.800000000000000000e+02 1.818169593811035156e+01 3.767842864990234375e+01 -1.474042296409606934e+00 1.690798759460449219e+00 6.502693146467208862e-02 -2.734139561653137207e-02
5.810000000000000000e+02 1.243804836273193359e+01 4.122836685180664062e+01 -1.257556200027465820e+00 3.266317129135131836e+00 6.026282906532287598e-01 -9.189505875110626221e-02
5.820000000000000000e+02 2.048950433731079102e+00 3.707329940795898438e+01 -5.378795415163040161e-02 4.364657878875732422e+00 1.293261051177978516e+00 -2.960902452468872070e-01
5.830000000000000000e+02 1.659420585632324219e+01 3.164556121826171875e+01 -5.243137478828430176e-01 2.989069700241088867e+00 7.394267916679382324e-01 2.022587656974792480e-01
5.840000000000000000e+02 2.015192985534667969e+00 4.162421035766601562e+01 -2.779293432831764221e-02 4.794995784759521484e+00 1.430160760879516602e+00 -7.932966575026512146e-03
5.850000000000000000e+02 4.783118820190429688e+01 1.231861400604248047e+01 1.936432123184204102e+00 3.812237024307250977e+00 1.724600672721862793e+00 2.115462779998779297e+00
5.860000000000000000e+02 5.503953933715820312e+01 7.321650981903076172e+00 5.727358460426330566e-01 1.065163016319274902e+00 4.913696348667144775e-01 -8.986829966306686401e-02
5.870000000000000000e+02 6.607929229736328125e+01 -4.152885437011718750e+00 -3.091773092746734619e-01 5.659543991088867188e+00 1.605110049247741699e+00 -1.008077979087829590e+00
5.880000000000000000e+02 6.748960113525390625e+01 -4.625906944274902344e+00 -2.275449633598327637e-01 6.493111133575439453e+00 1.879669785499572754e+00 -8.771459460258483887e-01
5.890000000000000000e+02 6.693149566650390625e+01 -9.555579185485839844e+00 9.776008725166320801e-01 8.081724166870117188e+00 2.717797756195068359e+00 -2.846184015274047852e+00
5.900000000000000000e+02 6.518756103515625000e+01 -5.450854301452636719e+00 1.096665263175964355e+00 5.455169200897216797e+00 1.965550303459167480e+00 -1.991785407066345215e+00
5.910000000000000000e+02 6.838522338867187500e+01 -3.637183380126953125e+01 -6.281517148017883301e-01 5.537018775939941406e+00 1.472660064697265625e+00 4.486257135868072510e-01
5.920000000000000000e+02 6.230452728271484375e+01 -3.258462905883789062e+01 -1.955452322959899902e+00 4.140145704150199890e-02 -5.742152929306030273e-01 -4.505529403686523438e-01
5.930000000000000000e+02 7.169611358642578125e+01 -4.086461257934570312e+01 -2.733848989009857178e-01 7.150862693786621094e+00 2.063243389129638672e+00 4.384127631783485413e-02
5.940000000000000000e+02 6.878894805908203125e+01 -2.925410270690917969e+01 -3.673015534877777100e-01 8.720706939697265625e+00 2.506021499633789062e+00 8.331085443496704102e-01
5.950000000000000000e+02 3.889799594879150391e+00 -2.894521713256835938e+01 -1.306967139244079590e+00 6.485078811645507812e+00 1.553433537483215332e+00 1.637915611267089844e+00
5.960000000000000000e+02 8.812149047851562500e+00 -2.981394958496093750e+01 -3.177110671997070312e+00 -9.940350055694580078e-01 -1.251343727111816406e+00 1.485027670860290527e+00
5.970000000000000000e+02 2.441211509704589844e+01 -1.860739326477050781e+01 -3.453456401824951172e+00 1.367146149277687073e-03 -1.035626769065856934e+00 -3.592168390750885010e-01
5.980000000000000000e+02 2.187895584106445312e+01 -1.468048191070556641e+01 -1.724465012550354004e+00 6.275767683982849121e-01 -3.290664851665496826e-01 -2.392213940620422363e-01
5.990000000000000000e+02 1.870843696594238281e+01 -1.429123115539550781e+01 -2.164804220199584961e+00 7.027890086174011230e-01 -4.386045634746551514e-01 -5.187589675188064575e-02
6.000000000000000000e+02 2.836018371582031250e+01 -1.421459102630615234e+01 -2.343492209911346436e-01 1.121424660086631775e-01 -3.666202723979949951e-02 -7.391775846481323242e-01
6.010000000000000000e+02 2.424588584899902344e+01 -1.371402263641357422e+01 -7.921317219734191895e-01 4.292044639587402344e-01 -1.088781878352165222e-01 -6.082345843315124512e-01
6.020000000000000000e+02 3.121703147888183594e+01 -1.818868041038513184e+00 3.893226385116577148e-01 -3.295347690582275391e-01 1.793635450303554535e-02 -7.983409166336059570e-01
6.030000000000000000e+02 3.003918266296386719e+01 -1.431488132476806641e+01 9.730756282806396484e-02 1.097388714551925659e-01 6.211392953991889954e-02 -9.952672719955444336e-01
6.040000000000000000e+02 3.374598312377929688e+01 -3.980302214622497559e-01 -1.541793584823608398e+00 -4.328776895999908447e-01 -5.924013853073120117e-01 -8.752105236053466797e-01
6.050000000000000000e+02 4.216318130493164062e+01 -3.843698978424072266e+00 1.032953619956970215e+00 1.497089576721191406e+01 4.801154613494873047e+00 3.623212814331054688e+00
6.060000000000000000e+02 1.752388954162597656e+01 3.275301742553710938e+01 -6.040185093879699707e-01 2.152291059494018555e+00 4.644817411899566650e-01 8.485469222068786621e-02
6.070000000000000000e+02 5.463134384155273438e+01 2.904399108886718750e+01 2.441708147525787354e-01 4.190640449523925781e+00 1.330443263053894043e+00 7.792693972587585449e-01
6.080000000000000000e+02 4.919313049316406250e+01 3.223349380493164062e+01 -3.684305548667907715e-01 4.006456851959228516e+00 1.091407895088195801e+00 7.455005049705505371e-01
6.090000000000000000e+02 7.237082672119140625e+01 3.010193061828613281e+01 9.413767606019973755e-02 5.864906311035156250e+00 1.787713170051574707e+00 -1.525619998574256897e-02
6.100000000000000000e+02 5.413910293579101562e+01 2.280585479736328125e+01 9.764414429664611816e-01 3.786343812942504883e+00 1.428835630416870117e+00 9.031180739402770996e-01
6.110000000000000000e+02 4.784308242797851562e+01 2.421737098693847656e+01 5.229041576385498047e-01 4.378938674926757812e+00 1.470552802085876465e+00 1.001426696777343750e+00
6.120000000000000000e+02 7.245440673828125000e+01 2.503385925292968750e+01 1.849953979253768921e-01 5.881914615631103516e+00 1.820073008537292480e+00 -1.653111875057220459e-01
6.130000000000000000e+02 4.123350143432617188e+01 2.969215583801269531e+01 2.233626544475555420e-01 3.641376018524169922e+00 1.159421563148498535e+00 -6.475390791893005371e-01
6.140000000000000000e+02 4.694853210449218750e+01 1.792849349975585938e+01 1.121411323547363281e+00 4.844720363616943359e+00 1.789839506149291992e+00 1.680572271347045898e+00
6.150000000000000000e+02 7.297161865234375000e+01 1.863672256469726562e+01 2.049717903137207031e-01 6.055962562561035156e+00 1.878280401229858398e+00 -4.714914858341217041e-01
6.160000000000000000e+02 7.305010986328125000e+01 1.134019279479980469e+01 4.251583665609359741e-02 6.440178871154785156e+00 1.944808363914489746e+00 -7.563879489898681641e-01
6.170000000000000000e+02 5.124459266662597656e+00 1.137060165405273438e+01 1.707710176706314087e-01 1.445629358291625977e+00 4.849201142787933350e-01 -1.866754889488220215e-01
6.180000000000000000e+02 1.304607677459716797e+01 9.056745529174804688e+00 -4.243197739124298096e-01 6.423357486724853516e+00 1.799711227416992188e+00 -1.033379316329956055e+00
6.190000000000000000e+02 1.304990673065185547e+01 1.658415794372558594e+01 8.656541705131530762e-01 7.565236568450927734e+00 2.529267311096191406e+00 -1.108748197555541992e+00
6.200000000000000000e+02 1.337278366088867188e+01 2.756543922424316406e+01 6.691903620958328247e-02 5.537723541259765625e+00 1.681392788887023926e+00 -6.064388751983642578e-01
6.210000000000000000e+02 4.849065780639648438e+01 1.186978220939636230e+00 -5.596837997436523438e+00 -6.308953762054443359e-01 -1.868319988250732422e+00 1.527829647064208984e+00
6.220000000000000000e+02 5.373043060302734375e+01 -6.064251065254211426e-01 -4.156500816345214844e+00 -2.093511447310447693e-02 -1.253230690956115723e+00 6.506475806236267090e-01
6.230000000000000000e+02 5.508686065673828125e+01 -7.985751032829284668e-01 -4.534855842590332031e+00 -9.534626454114913940e-02 -1.389060616493225098e+00 6.098033189773559570e-01
6.240000000000000000e+02 5.783690643310546875e+01 -1.272113204002380371e+00 -4.342847347259521484e+00 -1.864736676216125488e-01 -1.358796358108520508e+00 7.869965434074401855e-01
6.250000000000000000e+02 6.303348159790039062e+01 -3.467024564743041992e+00 -4.008002579212188721e-01 1.207484960556030273e+00 2.420054078102111816e-01 -5.288417935371398926e-01
6.260000000000000000e+02 6.642694854736328125e+01 -8.228999137878417969e+00 6.294958591461181641e-01 7.037763118743896484e+00 2.300177812576293945e+00 -2.375453233718872070e+00
6.270000000000000000e+02 6.791828918457031250e+01 -1.216727256774902344e+01 1.385351300239562988e+00 1.213788795471191406e+01 4.056971549987792969e+00 -3.687900304794311523e+00
6.280000000000000000e+02 6.833216857910156250e+01 -1.350533962249755859e+01 1.344468593597412109e+00 1.522732448577880859e+01 4.971538066864013672e+00 -3.451016426086425781e+00
6.290000000000000000e+02 6.989325714111328125e+01 -1.744207572937011719e+01 4.516725242137908936e-01 1.454840373992919922e+01 4.500022888183593750e+00 -7.411603331565856934e-01
6.300000000000000000e+02 6.884869384765625000e+01 -2.038946533203125000e+01 -1.756444387137889862e-02 1.500083732604980469e+01 4.494981765747070312e+00 -8.607257157564163208e-02
6.310000000000000000e+02 6.897002410888671875e+01 -2.312101936340332031e+01 1.935643553733825684e-01 1.560950946807861328e+01 4.740922451019287109e+00 3.515289127826690674e-01
6.320000000000000000e+02 6.773193359375000000e+01 -2.791916084289550781e+01 1.243295907974243164e+00 7.967338085174560547e+00 2.763190269470214844e+00 2.747197151184082031e+00
6.330000000000000000e+02 5.221689987182617188e+01 -2.804075813293457031e+01 1.290723215788602829e-02 2.077343463897705078e-01 6.619247049093246460e-02 -1.404539495706558228e-01
6.340000000000000000e+02 5.413803863525390625e+01 -3.010903739929199219e+01 -3.185258209705352783e-01 4.557596892118453979e-02 -8.188495784997940063e-02 9.859535098075866699e-02
6.350000000000000000e+02 5.029986572265625000e+01 -2.605764770507812500e+01 2.052154988050460815e-01 3.483191132545471191e-01 1.660603880882263184e-01 -3.012043237686157227e-01
6.360000000000000000e+02 4.931284713745117188e+01 -2.511508178710937500e+01 2.888971865177154541e-01 4.471578299999237061e-01 2.208165079355239868e-01 -3.378934860229492188e-01
6.370000000000000000e+02 4.632737731933593750e+01 -2.220359039306640625e+01 4.973256886005401611e-01 8.903122544288635254e-01 4.162913858890533447e-01 -6.064007878303527832e-01
6.380000000000000000e+02 4.431044006347656250e+01 -2.450421905517578125e+01 8.524231910705566406e-01 3.410830259323120117e+00 1.278975963592529297e+00 -1.451936244964599609e+00
6.390000000000000000e+02 4.439719390869140625e+01 -2.017722511291503906e+01 8.931944966316223145e-01 2.294959545135498047e+00 9.564461708068847656e-01 -1.262352228164672852e+00
6.400000000000000000e+02 4.262247467041015625e+01 -1.819612503051757812e+01 1.485372066497802734e+00 8.276924133300781250e+00 2.928688764572143555e+00 -2.506574153900146484e+00
6.410000000000000000e+02 4.150227737426757812e+01 -1.350147247314453125e+01 2.972572743892669678e-01 1.468570709228515625e+01 4.494889259338378906e+00 -1.157189369201660156e+00
6.420000000000000000e+02 4.029081344604492188e+01 -1.345978641510009766e+01 3.988755047321319580e-01 1.288980197906494141e+01 3.986603021621704102e+00 -9.144232273101806641e-01
6.430000000000000000e+02 4.139140319824218750e+01 -7.954840660095214844e+00 7.163723707199096680e-01 1.733398628234863281e+01 5.415107250213623047e+00 1.264497756958007812e+00
6.440000000000000000e+02 4.156515121459960938e+01 -6.567049026489257812e+00 1.220030069351196289e+00 1.682709503173828125e+01 5.414137363433837891e+00 2.953907489776611328e+00
6.450000000000000000e+02 4.370430755615234375e+01 -4.501904174685478210e-02 1.281663775444030762e+00 7.510320663452148438e+00 2.637595415115356445e+00 3.635355472564697266e+00
6.460000000000000000e+02 3.200774002075195312e+01 3.860386276245117188e+01 -2.123064756393432617e+00 -2.623147964477539062e-01 -7.156139016151428223e-01 2.692128419876098633e-01
6.470000000000000000e+02 3.795058059692382812e+01 3.446056365966796875e+01 -1.289582014083862305e+00 -1.039771437644958496e-01 -4.180677533149719238e-01 5.399540066719055176e-01
6.480000000000000000e+02 4.164427566528320312e+01 2.688852500915527344e+01 1.117135658860206604e-01 4.953142642974853516e+00 1.519456863403320312e+00 -8.821720629930496216e-02
6.490000000000000000e+02 4.170883178710937500e+01 2.126210784912109375e+01 3.947499394416809082e-02 5.709550380706787109e+00 1.724707603454589844e+00 2.229072302579879761e-01
6.500000000000000000e+02 4.168350601196289062e+01 1.985147857666015625e+01 1.927255466580390930e-02 6.208033561706542969e+00 1.868191838264465332e+00 2.819133102893829346e-01
6.510000000000000000e+02 4.165485382080078125e+01 1.844742012023925781e+01 1.313360482454299927e-01 7.003254413604736328e+00 2.140377044677734375e+00 4.424452781677246094e-01
6.520000000000000000e+02 4.159191513061523438e+01 1.704758453369140625e+01 1.275610923767089844e-01 7.761780738830566406e+00 2.366802453994750977e+00 6.885781884193420410e-01
6.530000000000000000e+02 4.149689102172851562e+01 1.564816188812255859e+01 3.169576525688171387e-01 8.787673950195312500e+00 2.731389522552490234e+00 1.085018157958984375e+00
6.540000000000000000e+02 4.061547851562500000e+01 1.011191844940185547e+01 1.027958035469055176e+00 1.201124000549316406e+01 3.911759614944458008e+00 3.039722442626953125e+00
6.550000000000000000e+02 4.553118515014648438e+01 3.978445053100585938e+00 -6.003092527389526367e-01 3.461237907409667969e+00 8.582785725593566895e-01 2.822225332260131836e+00
6.560000000000000000e+02 3.790431594848632812e+01 3.511909008026123047e+00 1.471046686172485352e+00 7.144129276275634766e+00 2.584552764892578125e+00 3.209907293319702148e+00
6.570000000000000000e+02 3.603567886352539062e+01 1.278405427932739258e+00 -2.551144063472747803e-01 2.136598110198974609e+00 5.644450783729553223e-01 7.071922421455383301e-01
6.580000000000000000e+02 3.253479385375976562e+01 -1.136878490447998047e+00 -1.078599214553833008e+00 -4.894820749759674072e-01 -4.704243838787078857e-01 -9.064506292343139648e-01
6.590000000000000000e+02 2.973648643493652344e+01 -2.182837486267089844e+00 1.960815906524658203e+00 -1.309041678905487061e-01 5.489735007286071777e-01 -7.524223327636718750e-01
6.600000000000000000e+02 2.317875671386718750e+01 3.728305399417877197e-01 2.001087903976440430e+00 1.014303207397460938e+00 9.046173095703125000e-01 -1.390950918197631836e+00
6.610000000000000000e+02 1.771669578552246094e+01 5.231689453125000000e+00 -4.823339581489562988e-01 5.653337001800537109e+00 1.551300883293151855e+00 -3.518448173999786377e-01
6.620000000000000000e+02 1.877383422851562500e+01 7.522983074188232422e+00 4.065245091915130615e-01 4.694561481475830078e+00 1.530325889587402344e+00 -1.390696763992309570e+00
6.630000000000000000e+02 1.767304420471191406e+01 1.011617660522460938e+01 6.693955659866333008e-01 6.980934619903564453e+00 2.295099020004272461e+00 -2.181816816329956055e+00
6.640000000000000000e+02 1.713701820373535156e+01 1.143311786651611328e+01 8.012410402297973633e-01 8.072877883911132812e+00 2.662235736846923828e+00 -2.422427654266357422e+00
6.650000000000000000e+02 1.666971588134765625e+01 1.277965736389160156e+01 7.920961976051330566e-01 8.801347732543945312e+00 2.878033399581909180e+00 -2.427382469177246094e+00
6.660000000000000000e+02 1.556525516510009766e+01 1.689413833618164062e+01 7.504991888999938965e-01 1.104982376098632812e+01 3.540096998214721680e+00 -2.084197282791137695e+00
6.670000000000000000e+02 1.533969783782958984e+01 1.829298400878906250e+01 4.862830638885498047e-01 1.126094722747802734e+01 3.524168968200683594e+00 -1.367891669273376465e+00
6.680000000000000000e+02 1.519492530822753906e+01 2.112170410156250000e+01 1.524393111467361450e-01 1.009350490570068359e+01 3.073783159255981445e+00 -3.061160743236541748e-01
6.690000000000000000e+02 1.520953083038330078e+01 2.253619575500488281e+01 1.186090037226676941e-01 9.580484390258789062e+00 2.909728050231933594e+00 4.440814256668090820e-03
6.700000000000000000e+02 1.546862983703613281e+01 2.538234901428222656e+01 5.569202899932861328e-01 8.437319755554199219e+00 2.698272228240966797e+00 1.154040932655334473e+00
6.710000000000000000e+02 1.767948150634765625e+01 3.073293304443359375e+01 2.426117062568664551e-01 2.284552812576293945e+00 7.581493258476257324e-01 7.760042548179626465e-01
6.720000000000000000e+02 2.122333145141601562e+01 3.518833160400390625e+01 -1.489792823791503906e+00 -2.660768628120422363e-01 -5.267608761787414551e-01 -6.224495172500610352e-01
6.730000000000000000e+02 2.147613334655761719e+01 3.792812728881835938e+01 -1.633642911911010742e+00 1.903307437896728516e-01 -4.329936504364013672e-01 -1.627135127782821655e-01
6.740000000000000000e+02 2.674879074096679688e+01 3.715337371826171875e+01 -2.543884038925170898e+00 -1.818401664495468140e-01 -8.177173137664794922e-01 -4.030985534191131592e-01
6.750000000000000000e+02 2.985201644897460938e+01 3.746417617797851562e+01 -2.771511077880859375e+00 -2.554514110088348389e-01 -9.080887436866760254e-01 1.750820875167846680e-01
6.760000000000000000e+02 1.422217369079589844e+01 -1.637695312500000000e+01 -6.057387351989746094e+00 -6.767796874046325684e-01 -2.020250082015991211e+00 1.658972978591918945e+00
6.770000000000000000e+02 1.959666824340820312e+01 -1.730346107482910156e+01 -3.213047742843627930e+00 3.320799767971038818e-01 -8.642902970314025879e-01 4.843402206897735596e-01
6.780000000000000000e+02 1.928266906738281250e+01 -1.838350486755371094e+01 -3.293100118637084961e+00 -5.930756404995918274e-02 -1.005722284317016602e+00 7.575694918632507324e-01
6.790000000000000000e+02 2.182307624816894531e+01 -1.877423667907714844e+01 -3.160847425460815430e+00 8.328922092914581299e-02 -9.232674241065979004e-01 9.894360601902008057e-02
6.800000000000000000e+02 2.412730979919433594e+01 -1.752380371093750000e+01 -2.993652105331420898e+00 2.632493376731872559e-01 -8.191208243370056152e-01 -2.330020815134048462e-01
6.810000000000000000e+02 2.181658363342285156e+01 -1.667660903930664062e+01 -2.782007932662963867e+00 4.533321261405944824e-01 -6.986027359962463379e-01 9.279278665781021118e-02
6.820000000000000000e+02 2.822747802734375000e+01 -1.779891586303710938e+01 -3.837645053863525391e+00 2.671398967504501343e-02 -1.143279314041137695e+00 -6.758551001548767090e-01
6.830000000000000000e+02 3.509947967529296875e+01 -1.869289779663085938e+01 1.466319859027862549e-01 1.035419273376464844e+01 3.150247335433959961e+00 -1.681458115577697754e+00
6.840000000000000000e+02 3.274542617797851562e+01 -2.939769363403320312e+01 1.612047791481018066e+00 4.678155899047851562e+00 1.887061119079589844e+00 2.816671609878540039e+00
6.850000000000000000e+02 2.969361495971679688e+01 -3.105393028259277344e+01 -1.908475905656814575e-01 6.722384691238403320e-01 1.444172561168670654e-01 7.373133897781372070e-01
6.860000000000000000e+02 2.702760887145996094e+01 -3.149570655822753906e+01 -1.479294419288635254e+00 9.696212597191333771e-03 -4.408794641494750977e-01 1.951848343014717102e-02
6.870000000000000000e+02 2.283870887756347656e+01 -3.189928627014160156e+01 -1.906879425048828125e+00 -4.755879193544387817e-02 -5.863314867019653320e-01 -7.178460061550140381e-02
6.880000000000000000e+02 2.286474800109863281e+01 -3.368992233276367188e+01 -1.375604987144470215e+00 2.486010082066059113e-02 -4.052234590053558350e-01 1.219274848699569702e-01
6.890000000000000000e+02 2.143988418579101562e+01 -3.190459823608398438e+01 -2.035838603973388672e+00 -7.930302992463111877e-03 -6.131306290626525879e-01 -3.448039293289184570e-02
6.900000000000000000e+02 1.871247673034667969e+01 -3.356339645385742188e+01 -1.747118711471557617e+00 -2.642832398414611816e-01 -6.034206151962280273e-01 3.462411165237426758e-01
6.910000000000000000e+02 1.583714199066162109e+01 -3.340939712524414062e+01 -2.015329360961914062e+00 -3.947224318981170654e-01 -7.230155467987060547e-01 6.023555397987365723e-01
6.920000000000000000e+02 1.591941547393798828e+01 -3.186084747314453125e+01 -3.040711641311645508e+00 -1.748678237199783325e-01 -9.646738767623901367e-01 5.335241556167602539e-01
6.930000000000000000e+02 1.187285232543945312e+01 -3.118886375427246094e+01 -3.935111284255981445e+00 -3.005077838897705078e-01 -1.270685791969299316e+00 1.019249081611633301e+00
6.940000000000000000e+02 1.057642364501953125e+01 -3.097348976135253906e+01 -4.205262660980224609e+00 -7.170301079750061035e-01 -1.476687908172607422e+00 1.334964275360107422e+00
6.950000000000000000e+02 7.089879035949707031e+00 -2.790770721435546875e+01 -9.221068620681762695e-01 1.915098309516906738e+00 2.978974282741546631e-01 -2.392695099115371704e-01
6.960000000000000000e+02 5.783072113990783691e-01 -1.910738945007324219e+01 2.266546152532100677e-02 -9.993629157543182373e-02 -2.318125031888484955e-02 -9.980861842632293701e-02
6.970000000000000000e+02 1.283084869384765625e+01 -1.615639305114746094e+01 -6.058554172515869141e+00 -4.202639758586883545e-01 -1.943645477294921875e+00 1.112390160560607910e+00
6.980000000000000000e+02 9.666635513305664062e+00 1.777067661285400391e+00 6.715572476387023926e-01 9.154086709022521973e-01 4.760897755622863770e-01 -1.149075746536254883e+00
6.990000000000000000e+02 8.160749435424804688e+00 1.848153948783874512e+00 1.918120682239532471e-02 3.051809966564178467e-01 9.730866551399230957e-02 -2.655616998672485352e-01
7.000000000000000000e+02 8.149682998657226562e+00 2.572590589523315430e+00 3.811199069023132324e-01 6.507392525672912598e-01 3.095577359199523926e-01 -5.117782950401306152e-01
7.010000000000000000e+02 7.380447864532470703e+00 1.864382505416870117e+00 -2.089920938014984131e-01 2.052036225795745850e-01 -1.136540435254573822e-03 3.401762340217828751e-03
7.020000000000000000e+02 5.055148124694824219e+00 1.869106173515319824e+00 -3.681876659393310547e-01 4.948151484131813049e-02 -9.561184048652648926e-02 3.229956030845642090e-01
7.030000000000000000e+02 3.182910203933715820e+00 3.759125947952270508e+00 4.011991992592811584e-02 -6.753365695476531982e-02 -8.224122226238250732e-03 3.862703740596771240e-01
7.040000000000000000e+02 4.288574695587158203e+00 1.877768635749816895e+00 -3.104189336299896240e-01 2.013359405100345612e-02 -8.708560466766357422e-02 3.517813682556152344e-01
7.050000000000000000e+02 3.520369768142700195e+00 1.914062619209289551e+00 -2.406440675258636475e-01 -2.407616749405860901e-02 -7.941606640815734863e-02 3.625291883945465088e-01
7.060000000000000000e+02 1.969920873641967773e+00 2.064909696578979492e+00 -1.092631816864013672e-01 -1.457773596048355103e-01 -7.651216536760330200e-02 2.806666195392608643e-01
7.070000000000000000e+02 1.100822353363037109e+01 1.511198878288269043e+00 1.582013487815856934e+00 2.221117734909057617e+00 1.140939354896545410e+00 -2.566276311874389648e+00
7.080000000000000000e+02 1.119465637207031250e+01 1.481851339340209961e+00 1.682372570037841797e+00 2.700731515884399414e+00 1.314931154251098633e+00 -2.877147674560546875e+00
7.090000000000000000e+02 1.052291297912597656e+01 2.017506837844848633e+00 1.263216376304626465e+00 2.106602430343627930e+00 1.010945677757263184e+00 -2.230909347534179688e+00
7.100000000000000000e+02 1.215892696380615234e+01 1.278491377830505371e+00 2.102255582809448242e+00 6.333719253540039062e+00 2.530792474746704102e+00 -4.598290920257568359e+00
7.110000000000000000e+02 1.215822124481201172e+01 1.501669764518737793e+00 1.473919153213500977e+00 6.334097385406494141e+00 2.342404842376708984e+00 -4.220161437988281250e+00
7.120000000000000000e+02 1.098034954071044922e+01 -1.870042085647583008e+00 4.549545288085937500e+00 1.300296068191528320e+00 1.754952430725097656e+00 2.517637491226196289e+00
7.130000000000000000e+02 1.160947036743164062e+01 -1.903907299041748047e+00 5.297120094299316406e+00 2.831843137741088867e+00 2.438688993453979492e+00 3.735395908355712891e+00
7.140000000000000000e+02 9.879892349243164062e+00 -1.731342673301696777e+00 2.899102687835693359e+00 2.312959432601928711e-01 9.391195774078369141e-01 1.130522608757019043e+00
7.150000000000000000e+02 9.380285263061523438e+00 -1.735257387161254883e+00 2.349669933319091797e+00 2.127586305141448975e-01 7.687285542488098145e-01 9.354145526885986328e-01
7.160000000000000000e+02 8.625929832458496094e+00 -1.758745908737182617e+00 1.789690494537353516e+00 1.045945957303047180e-01 5.682855248451232910e-01 7.000501751899719238e-01
7.170000000000000000e+02 7.029640674591064453e+00 -1.816366434097290039e+00 1.011908650398254395e+00 7.447521388530731201e-02 3.259151577949523926e-01 4.548644125461578369e-01
7.180000000000000000e+02 7.833837509155273438e+00 -1.788000941276550293e+00 1.367753624916076660e+00 1.167162060737609863e-01 4.453409612178802490e-01 5.829766392707824707e-01
7.190000000000000000e+02 6.220503330230712891e+00 -1.845345139503479004e+00 7.290318012237548828e-01 9.994880110025405884e-02 2.486941814422607422e-01 3.646723628044128418e-01
7.200000000000000000e+02 4.596347808837890625e+00 -1.915926218032836914e+00 3.593313097953796387e-01 1.091966181993484497e-01 1.405583769083023071e-01 1.947487145662307739e-01
7.210000000000000000e+02 2.957061052322387695e+00 -2.038780450820922852e+00 1.421872526407241821e-01 1.037605032324790955e-01 7.378432899713516235e-02 5.523892864584922791e-02
7.220000000000000000e+02 3.176008701324462891e+00 -3.065267562866210938e+00 3.030849397182464600e-01 2.047235518693923950e-01 1.523425430059432983e-01 2.109119892120361328e-01
7.230000000000000000e+02 2.123010158538818359e+00 -2.127164363861083984e+00 6.855071336030960083e-02 5.294883623719215393e-02 3.644986450672149658e-02 -1.747300289571285248e-02
7.240000000000000000e+02 1.282007098197937012e+00 -2.189699649810791016e+00 3.575560078024864197e-02 -6.631681695580482483e-03 8.737175725400447845e-03 -3.819506615400314331e-02
7.250000000000000000e+02 4.299138784408569336e-01 -2.206560373306274414e+00 8.419930003583431244e-03 -1.039982438087463379e-01 -2.867349237203598022e-02 -1.814362220466136932e-02
7.260000000000000000e+02 2.102889537811279297e+00 -4.160536956787109375e+01 4.583266079425811768e-01 7.148050308227539062e+00 2.281913042068481445e+00 -1.306602656841278076e-01
7.270000000000000000e+02 1.114681482315063477e+00 -3.857862091064453125e+01 7.263049483299255371e-03 7.743167400360107422e+00 2.325129270553588867e+00 -2.966433763504028320e-01
7.280000000000000000e+02 5.824745297431945801e-01 -3.463742065429687500e+01 -9.955333173274993896e-02 8.956440925598144531e+00 2.657066345214843750e+00 -8.437775075435638428e-02
7.290000000000000000e+02 6.235368847846984863e-01 -3.328478240966796875e+01 -9.252135641872882843e-03 9.047957420349121094e+00 2.711611747741699219e+00 5.493190139532089233e-02
7.300000000000000000e+02 5.289134979248046875e+00 -3.072183036804199219e+01 -1.812499046325683594e+00 5.175334930419921875e+00 1.008850693702697754e+00 5.317568778991699219e-01
7.310000000000000000e+02 2.267677307128906250e+00 -2.722269058227539062e+01 -2.186717092990875244e-01 6.131992816925048828e+00 1.773996353149414062e+00 1.997028827667236328e+00
7.320000000000000000e+02 6.948800683021545410e-01 -2.608638381958007812e+01 3.484699130058288574e-02 4.399833202362060547e+00 1.330404162406921387e+00 8.571472167968750000e-01
7.330000000000000000e+02 5.794853687286376953e+00 -2.411988258361816406e+01 4.898430109024047852e-01 1.267289352416992188e+01 3.948820829391479492e+00 9.721475839614868164e-01
7.340000000000000000e+02 1.703166961669921875e+00 -2.164280891418457031e+01 3.984797596931457520e-01 2.729619264602661133e+00 9.384296536445617676e-01 6.751171350479125977e-01
7.350000000000000000e+02 6.056272506713867188e+00 -2.199188995361328125e+01 1.163938999176025391e+00 1.439759254455566406e+01 4.668459415435791016e+00 2.520166635513305664e+00
7.360000000000000000e+02 5.740217566490173340e-01 -2.187885284423828125e+01 8.134241402149200439e-02 1.789204180240631104e-01 7.807884365320205688e-02 2.246262580156326294e-01
7.370000000000000000e+02 5.686799287796020508e-01 -1.631247711181640625e+01 -4.574826359748840332e-02 7.580491900444030762e-01 2.136902660131454468e-01 -2.188477367162704468e-01
7.380000000000000000e+02 5.621187090873718262e-01 -1.491530227661132812e+01 -8.213623426854610443e-03 1.215027332305908203e+00 3.620441257953643799e-01 -1.483854204416275024e-01
7.390000000000000000e+02 5.619401931762695312e-01 -1.351438236236572266e+01 -5.016830936074256897e-02 1.490473866462707520e+00 4.320916831493377686e-01 -7.485807687044143677e-02
7.400000000000000000e+02 1.686479091644287109e+00 -1.351571559906005859e+01 -1.746784746646881104e-01 2.109661817550659180e+00 5.804949998855590820e-01 -8.586812764406204224e-02
7.410000000000000000e+02 5.645241737365722656e-01 -9.272871971130371094e+00 -5.977497901767492294e-03 1.053730368614196777e+00 3.143258690834045410e-01 1.413647383451461792e-01
7.420000000000000000e+02 5.506443977355957031e-01 -7.857717037200927734e+00 -2.318053739145398140e-03 6.798690557479858398e-01 2.032653093338012695e-01 1.505812853574752808e-01
7.430000000000000000e+02 3.976901769638061523e+00 -2.870347976684570312e+00 4.136340618133544922e-01 2.278994917869567871e-01 1.924600601196289062e-01 2.979707121849060059e-01
7.440000000000000000e+02 4.230257511138916016e+00 -3.714897871017456055e+00 5.398995876312255859e-01 3.892467617988586426e-01 2.787439227104187012e-01 5.241211652755737305e-01
7.450000000000000000e+02 7.115966033935546875e+01 -3.785689544677734375e+01 -5.120375752449035645e-01 7.051681995391845703e+00 1.961893320083618164e+00 7.980778068304061890e-02
7.460000000000000000e+02 5.477540969848632812e+01 -3.965364837646484375e+01 1.645430028438568115e-01 5.892271995544433594e-01 2.261310666799545288e-01 -3.009925186634063721e-01
7.470000000000000000e+02 3.185568237304687500e+01 -3.895267486572265625e+01 -1.372671008110046387e+00 3.345114946365356445e+00 5.917331576347351074e-01 5.186564922332763672e-01
7.480000000000000000e+02 1.241968345642089844e+01 -3.933880996704101562e+01 4.813030958175659180e-01 1.351072639226913452e-01 1.849231123924255371e-01 1.245991215109825134e-01
7.490000000000000000e+02 7.495574188232421875e+01 3.999599456787109375e+01 2.163476077839732170e-03 6.253797531127929688e+00 1.876788258552551270e+00 3.736282512545585632e-02
7.500000000000000000e+02 7.925930023193359375e+01 3.867906570434570312e+01 5.695390980690717697e-03 6.585277557373046875e+00 1.977291941642761230e+00 -8.976106531918048859e-03
7.510000000000000000e+02 7.821161651611328125e+01 3.753969192504882812e+01 -6.436107680201530457e-03 6.520646095275878906e+00 1.954262971878051758e+00 -6.971602793782949448e-03
7.520000000000000000e+02 7.935927581787109375e+01 3.506512832641601562e+01 -1.278472319245338440e-02 6.609006404876708984e+00 1.978866457939147949e+00 1.552619598805904388e-02
7.530000000000000000e+02 7.902707672119140625e+01 3.377410125732421875e+01 9.043437428772449493e-03 6.593662738800048828e+00 1.980811953544616699e+00 8.546960540115833282e-03
7.540000000000000000e+02 7.918904113769531250e+01 3.071925735473632812e+01 -2.640510210767388344e-03 6.609252452850341797e+00 1.981983542442321777e+00 -8.034725673496723175e-03
7.550000000000000000e+02 7.645674133300781250e+01 2.790295410156250000e+01 3.494102135300636292e-02 6.387597084045410156e+00 1.926761388778686523e+00 -4.229909554123878479e-02
7.560000000000000000e+02 7.930328369140625000e+01 2.651201438903808594e+01 6.754691712558269501e-03 6.681324481964111328e+00 2.006423711776733398e+00 -1.534624584019184113e-02
7.570000000000000000e+02 7.646895599365234375e+01 2.521835708618164062e+01 4.449689760804176331e-02 6.426064014434814453e+00 1.941168189048767090e+00 -1.079734712839126587e-01
7.580000000000000000e+02 7.931198883056640625e+01 2.512335777282714844e+01 -2.390260633546859026e-04 6.725138664245605469e+00 2.017469882965087891e+00 -2.156854234635829926e-02
7.590000000000000000e+02 7.934669494628906250e+01 2.095654106140136719e+01 7.723682560026645660e-03 6.949728965759277344e+00 2.087235689163208008e+00 -4.557046666741371155e-02
7.600000000000000000e+02 7.936273956298828125e+01 1.956708145141601562e+01 -1.100743538700044155e-03 7.065091133117675781e+00 2.119197130203247070e+00 -5.209024995565414429e-02
7.610000000000000000e+02 7.803118896484375000e+01 2.102815055847167969e+01 1.942313462495803833e-02 6.794952392578125000e+00 2.044312715530395508e+00 -1.311661452054977417e-01
7.620000000000000000e+02 7.937155914306640625e+01 1.817554473876953125e+01 8.845655247569084167e-03 7.202326774597167969e+00 2.163351774215698242e+00 -6.168650835752487183e-02
7.630000000000000000e+02 7.935196685791015625e+01 1.400470066070556641e+01 -1.310021732933819294e-03 7.722735881805419922e+00 2.316427707672119141e+00 -8.396831154823303223e-02
7.640000000000000000e+02 7.934925842285156250e+01 1.261346721649169922e+01 5.654406268149614334e-03 7.925000190734863281e+00 2.379196405410766602e+00 -8.946133404970169067e-02
7.650000000000000000e+02 7.935019683837890625e+01 1.122150993347167969e+01 -3.982603084295988083e-03 8.135424613952636719e+00 2.439432621002197266e+00 -9.050989896059036255e-02
7.660000000000000000e+02 7.936071777343750000e+01 7.049790382385253906e+00 -3.629218321293592453e-03 8.746879577636718750e+00 2.622975111007690430e+00 -7.141844183206558228e-02
7.670000000000000000e+02 7.936471557617187500e+01 5.661259651184082031e+00 -1.231864374130964279e-02 8.910761833190917969e+00 2.669533014297485352e+00 -5.318759009242057800e-02
7.680000000000000000e+02 7.809780120849609375e+01 5.823440551757812500e+00 -3.539119660854339600e-02 8.447909355163574219e+00 2.523755311965942383e+00 -1.882692128419876099e-01
7.690000000000000000e+02 7.936966705322265625e+01 4.272305488586425781e+00 -4.978175275027751923e-03 9.039823532104492188e+00 2.710453510284423828e+00 -3.512606024742126465e-02
7.700000000000000000e+02 7.936627197265625000e+01 8.931292593479156494e-02 -2.232775464653968811e-02 9.088973045349121094e+00 2.719993591308593750e+00 6.068045645952224731e-02
7.710000000000000000e+02 7.935559844970703125e+01 -1.316305160522460938e+00 -9.972161613404750824e-03 8.962277412414550781e+00 2.685691595077514648e+00 9.507410973310470581e-02
7.720000000000000000e+02 7.935347747802734375e+01 -4.121912479400634766e+00 -5.483246874064207077e-03 8.494585037231445312e+00 2.546730756759643555e+00 1.616545468568801880e-01
7.730000000000000000e+02 7.939603424072265625e+01 -8.295096397399902344e+00 -8.155087009072303772e-03 7.311358928680419922e+00 2.190961122512817383e+00 2.212929874658584595e-01
7.740000000000000000e+02 7.939320373535156250e+01 -1.106701660156250000e+01 7.670690771192312241e-03 6.395683288574218750e+00 1.921006202697753906e+00 1.999567300081253052e-01
7.750000000000000000e+02 7.937985229492187500e+01 -1.523351764678955078e+01 1.340413093566894531e-02 5.431342124938964844e+00 1.633423924446105957e+00 9.888203442096710205e-02
7.760000000000000000e+02 7.938557434082031250e+01 -1.804848289489746094e+01 1.218309719115495682e-02 5.290623188018798828e+00 1.590841889381408691e+00 -1.556743495166301727e-02
7.770000000000000000e+02 7.939186096191406250e+01 -2.365157127380371094e+01 -1.315970718860626221e-02 6.336606979370117188e+00 1.897034287452697754e+00 -2.130947560071945190e-01
7.780000000000000000e+02 7.935803222656250000e+01 -2.505209159851074219e+01 5.745656788349151611e-02 6.855195999145507812e+00 2.073795795440673828e+00 -2.659803926944732666e-01
7.790000000000000000e+02 7.937372589111328125e+01 -2.921492767333984375e+01 -6.748589128255844116e-02 8.721445083618164062e+00 2.596187829971313477e+00 -3.034207522869110107e-01
7.800000000000000000e+02 7.932865142822265625e+01 -3.195936203002929688e+01 -5.107683688402175903e-02 9.882692337036132812e+00 2.949484586715698242e+00 -2.669467031955718994e-01
7.810000000000000000e+02 7.928617858886718750e+01 -3.607189178466796875e+01 -1.804220862686634064e-02 1.082677173614501953e+01 3.242618799209594727e+00 -8.328106999397277832e-02
7.820000000000000000e+02 7.922268676757812500e+01 -3.741399383544921875e+01 -4.108250886201858521e-02 1.089076709747314453e+01 3.254905462265014648e+00 -1.996713504195213318e-02
7.830000000000000000e+02 7.901990509033203125e+01 -3.874026870727539062e+01 -2.088820934295654297e-02 1.085531520843505859e+01 3.250328063964843750e+00 2.646463923156261444e-02
7.840000000000000000e+02 7.865934753417968750e+01 -4.009372711181640625e+01 -7.578116655349731445e-02 1.074536228179931641e+01 3.200874328613281250e+00 1.018146574497222900e-01
7.850000000000000000e+02 4.963164329528808594e+00 4.027655792236328125e+01 -3.049512803554534912e-01 4.230203628540039062e+00 1.177575707435607910e+00 -3.032740354537963867e-01
7.860000000000000000e+02 2.549076843261718750e+01 3.691425323486328125e+01 -2.491119861602783203e+00 -1.376392096281051636e-01 -7.886277437210083008e-01 -5.529549717903137207e-01
7.870000000000000000e+02 4.784190750122070312e+01 4.109354400634765625e+01 -1.219102382659912109e+00 3.715790033340454102e+00 7.490062713623046875e-01 9.710751473903656006e-02
7.880000000000000000e+02 3.944763243198394775e-01 2.187524318695068359e+00 -1.125228777527809143e-02 -2.081434577703475952e-01 -6.581872701644897461e-02 6.680598855018615723e-02
7.890000000000000000e+02 2.874869346618652344e+00 2.919991970062255859e+00 -6.448253989219665527e-02 -1.114537790417671204e-01 -5.278089642524719238e-02 3.885554075241088867e-01
7.900000000000000000e+02 3.119894266128540039e+00 5.118416786193847656e+00 1.231966912746429443e-01 -9.325536340475082397e-02 8.982399478554725647e-03 3.117751777172088623e-01
7.910000000000000000e+02 5.425357222557067871e-01 9.182962417602539062e+00 4.038887098431587219e-03 -1.350133419036865234e+00 -4.038283526897430420e-01 3.055980056524276733e-02
7.920000000000000000e+02 5.782618522644042969e-01 1.199801540374755859e+01 6.566200405359268188e-03 -1.419008612632751465e+00 -4.237327277660369873e-01 -8.937432430684566498e-03
7.930000000000000000e+02 1.732757568359375000e+00 1.179175853729248047e+01 3.574873879551887512e-02 -6.374482512474060059e-01 -1.805098503828048706e-01 -1.113145146518945694e-02
7.940000000000000000e+02 6.104874610900878906e-01 1.623082160949707031e+01 6.017263978719711304e-03 -1.184723615646362305e+00 -3.536119163036346436e-01 -6.172487884759902954e-02
7.950000000000000000e+02 1.834858655929565430e+00 1.741420745849609375e+01 4.965160787105560303e-02 -1.630706042051315308e-01 -3.402569890022277832e-02 -2.380776554346084595e-01
7.960000000000000000e+02 6.152397990226745605e-01 1.763854217529296875e+01 1.236440334469079971e-02 -1.015198945999145508e+00 -3.008503317832946777e-01 -8.425429463386535645e-02
7.970000000000000000e+02 6.536758542060852051e-01 2.187817955017089844e+01 1.314581185579299927e-02 -1.032512784004211426e-01 -2.703163959085941315e-02 -1.795805096626281738e-01
7.980000000000000000e+02 6.592773795127868652e-01 2.328701591491699219e+01 8.342269808053970337e-03 3.102580010890960693e-01 9.558007866144180298e-02 -2.017139941453933716e-01
7.990000000000000000e+02 1.981426835060119629e+00 2.305099678039550781e+01 4.426423087716102600e-02 9.622098207473754883e-01 3.019421994686126709e-01 -5.529724359512329102e-01
8.000000000000000000e+02 6.572089791297912598e-01 2.469440269470214844e+01 5.812646355479955673e-03 7.604891657829284668e-01 2.298905551433563232e-01 -2.163734436035156250e-01
8.010000000000000000e+02 6.544263958930969238e-01 2.891263198852539062e+01 3.557901829481124878e-03 2.276732206344604492e+00 6.840870380401611328e-01 -2.434644997119903564e-01
8.020000000000000000e+02 7.029411196708679199e-01 3.032972908020019531e+01 6.902954541146755219e-03 2.806958675384521484e+00 8.441584706306457520e-01 -2.551722228527069092e-01
8.030000000000000000e+02 2.366160154342651367e+00 3.147344398498535156e+01 -4.923789575695991516e-02 3.279128313064575195e+00 9.689671397209167480e-01 -6.985863447189331055e-01
8.040000000000000000e+02 7.791952490806579590e-01 3.176183509826660156e+01 -1.051908917725086212e-02 3.280792474746704102e+00 9.810819625854492188e-01 -2.479248344898223877e-01
8.050000000000000000e+02 7.007631659507751465e-01 3.602989578247070312e+01 -1.603810302913188934e-02 4.352540969848632812e+00 1.300950884819030762e+00 -1.317776888608932495e-01
8.060000000000000000e+02 7.342963218688964844e-01 3.739604187011718750e+01 -1.985753513872623444e-02 4.571034908294677734e+00 1.365353226661682129e+00 -9.443447738885879517e-02
8.070000000000000000e+02 9.094330072402954102e-01 3.872131729125976562e+01 -3.513689152896404266e-03 4.719326972961425781e+00 1.414744019508361816e+00 -7.693899422883987427e-02
8.080000000000000000e+02 1.288507819175720215e+00 4.005979919433593750e+01 -4.039505496621131897e-02 4.782665252685546875e+00 1.422680974006652832e+00 -3.665784746408462524e-02
8.090000000000000000e+02 8.928146362304687500e+00 1.816514968872070312e+00 3.272468149662017822e-01 5.054515004158020020e-01 2.498095035552978516e-01 -6.305791139602661133e-01
8.100000000000000000e+02 1.016194629669189453e+01 2.209675312042236328e+00 1.064750194549560547e+00 1.764991283416748047e+00 8.489224910736083984e-01 -1.903025031089782715e+00
8.110000000000000000e+02 1.200329208374023438e+01 1.348632335662841797e+00 1.959642052650451660e+00 5.633611679077148438e+00 2.277976036071777344e+00 -4.331215858459472656e+00
8.120000000000000000e+02 1.182092475891113281e+01 1.411495923995971680e+00 1.978881359100341797e+00 4.994729518890380859e+00 2.092083215713500977e+00 -3.941969871520996094e+00
8.130000000000000000e+02 1.279222393035888672e+01 1.259224176406860352e+00 1.062402367591857910e+00 1.100996875762939453e+01 3.621711254119873047e+00 -4.099297046661376953e+00
8.140000000000000000e+02 1.162241554260253906e+01 1.473939061164855957e+00 1.801853895187377930e+00 4.015778541564941406e+00 1.745289683341979980e+00 -3.507499694824218750e+00
8.150000000000000000e+02 1.185245227813720703e+01 1.779304742813110352e+00 1.449167609214782715e+00 5.385123252868652344e+00 2.050287246704101562e+00 -3.864701986312866211e+00
8.160000000000000000e+02 1.318260478973388672e+01 1.194611072540283203e+00 8.089507222175598145e-01 1.257707595825195312e+01 4.015808105468750000e+00 -3.047888755798339844e+00
8.170000000000000000e+02 1.289687919616699219e+01 1.632344722747802734e+00 6.470637321472167969e-01 1.052890014648437500e+01 3.352789163589477539e+00 -3.263830423355102539e+00
8.180000000000000000e+02 1.361708641052246094e+01 1.130459904670715332e+00 1.700347185134887695e+00 1.375105094909667969e+01 4.635419368743896484e+00 -6.942430734634399414e-01
8.190000000000000000e+02 1.220416927337646484e+01 -2.349630594253540039e+00 4.259895801544189453e+00 6.464631080627441406e+00 3.217358112335205078e+00 4.509646415710449219e+00
8.200000000000000000e+02 9.269494056701660156e+00 -2.242389678955078125e+00 2.581901788711547852e+00 3.996050357818603516e-01 8.944520950317382812e-01 1.321137547492980957e+00
8.210000000000000000e+02 1.077120399475097656e+01 -1.820533514022827148e+00 4.218608379364013672e+00 8.842885494232177734e-01 1.530869126319885254e+00 2.069432735443115234e+00
8.220000000000000000e+02 1.119475078582763672e+01 -1.908804059028625488e+00 4.876967430114746094e+00 1.673769712448120117e+00 1.965221166610717773e+00 2.911290407180786133e+00
8.230000000000000000e+02 1.056607723236083984e+01 -1.774161934852600098e+00 3.838228464126586914e+00 6.761928796768188477e-01 1.354326486587524414e+00 1.789943456649780273e+00
8.240000000000000000e+02 9.758001327514648438e+00 -2.175243616104125977e+00 2.962631702423095703e+00 5.141502022743225098e-01 1.043034553527832031e+00 1.551074266433715820e+00
8.250000000000000000e+02 1.179091072082519531e+01 -1.928365945816040039e+00 5.364766120910644531e+00 3.866739511489868164e+00 2.769451856613159180e+00 4.280373573303222656e+00
8.260000000000000000e+02 1.146747589111328125e+01 -2.288123130798339844e+00 4.601726055145263672e+00 3.127744436264038086e+00 2.318841218948364258e+00 3.763968944549560547e+00
8.270000000000000000e+02 1.481950187683105469e+01 -1.299975216388702393e-01 8.546116828918457031e+00 9.527840614318847656e+00 5.422187328338623047e+00 6.969676613807678223e-01
8.280000000000000000e+02 1.564991950988769531e+01 -2.397374391555786133e+00 4.967689990997314453e+00 6.848515510559082031e+00 3.544861793518066406e+00 -2.051166772842407227e+00
8.290000000000000000e+02 1.589596748352050781e+01 -3.576842546463012695e-01 6.890007019042968750e+00 6.503358364105224609e+00 4.018009662628173828e+00 -3.009285628795623779e-01
8.300000000000000000e+02 1.752376556396484375e+01 1.280460119247436523e+00 3.068021059036254883e+00 5.005131721496582031e+00 2.421945810317993164e+00 -1.197923496365547180e-01
8.310000000000000000e+02 2.000730133056640625e+01 5.005735874176025391e+00 7.997311651706695557e-02 1.787011504173278809e+00 5.600953698158264160e-01 -3.217599987983703613e-01
8.320000000000000000e+02 1.433366203308105469e+01 1.166705727577209473e+00 2.835898160934448242e+00 1.207403278350830078e+01 4.472979068756103516e+00 9.072266817092895508e-01
8.330000000000000000e+02 1.315250968933105469e+01 -2.217597246170043945e+00 3.378466367721557617e+00 1.179945850372314453e+01 4.553377628326416016e+00 2.493580579757690430e+00
8.340000000000000000e+02 1.167566204071044922e+01 -2.612126111984252930e+00 4.019455432891845703e+00 4.394649982452392578e+00 2.524231672286987305e+00 3.999461650848388672e+00
8.350000000000000000e+02 5.822614192962646484e+00 1.869817852973937988e+00 -3.531390428543090820e-01 8.968614786863327026e-02 -7.903587073087692261e-02 2.664564251899719238e-01
8.360000000000000000e+02 6.598025321960449219e+00 1.869633316993713379e+00 -3.132314383983612061e-01 1.590854823589324951e-01 -4.624379053711891174e-02 1.530871242284774780e-01
8.370000000000000000e+02 1.603632330894470215e+00 7.625751495361328125e+00 4.185668379068374634e-02 -6.648850440979003906e-01 -1.869084984064102173e-01 1.478363424539566040e-01
8.380000000000000000e+02 4.983803749084472656e+00 3.341092586517333984e+00 6.931053102016448975e-02 1.800708919763565063e-01 7.481442391872406006e-02 2.826104462146759033e-01
8.390000000000000000e+02 1.274381160736083984e+00 3.427096128463745117e+00 -9.798577055335044861e-03 -3.656537830829620361e-01 -1.126357093453407288e-01 2.529753744602203369e-01
8.400000000000000000e+02 2.749087333679199219e+00 1.982266783714294434e+00 -1.747114956378936768e-01 -9.253597259521484375e-02 -8.017424494028091431e-02 3.451920449733734131e-01
8.410000000000000000e+02 2.099253892898559570e+00 3.194022655487060547e+00 -2.950152195990085602e-02 -2.472672462463378906e-01 -8.303063362836837769e-02 3.460120856761932373e-01
8.420000000000000000e+02 6.555198669433593750e+00 2.616611719131469727e+00 2.937675826251506805e-02 2.916449308395385742e-01 9.630650281906127930e-02 8.391025662422180176e-02
8.430000000000000000e+02 8.914313316345214844e+00 2.481105566024780273e+00 5.869145989418029785e-01 9.345332980155944824e-01 4.564343690872192383e-01 -9.157515168190002441e-01
8.440000000000000000e+02 6.330982685089111328e+00 -2.544644355773925781e+00 1.006844401359558105e+00 1.997175067663192749e-01 3.619685769081115723e-01 6.181167364120483398e-01
8.450000000000000000e+02 7.874880313873291016e+00 -2.387194633483886719e+00 1.663473248481750488e+00 2.276771813631057739e-01 5.673451423645019531e-01 9.022599458694458008e-01
8.460000000000000000e+02 7.109853267669677734e+00 -2.463998317718505859e+00 1.304995656013488770e+00 2.231214493513107300e-01 4.584351181983947754e-01 7.689243555068969727e-01
8.470000000000000000e+02 5.408762454986572266e+00 -1.877650976181030273e+00 5.217137932777404785e-01 9.430744498968124390e-02 1.848063766956329346e-01 2.726726830005645752e-01
8.480000000000000000e+02 4.761282920837402344e+00 -2.739413022994995117e+00 5.731731653213500977e-01 2.142103761434555054e-01 2.362150698900222778e-01 3.906208574771881104e-01
8.490000000000000000e+02 1.693106651306152344e+00 -9.269248962402343750e+00 -4.864907637238502502e-02 1.355191588401794434e+00 3.919627666473388672e-01 4.375283420085906982e-01
8.500000000000000000e+02 5.266771316528320312e-01 -6.450639247894287109e+00 1.868482865393161774e-02 3.105547130107879639e-01 9.877186268568038940e-02 1.285349279642105103e-01
8.510000000000000000e+02 3.499378442764282227e+00 -3.945615291595458984e+00 3.661816418170928955e-01 3.964288830757141113e-01 2.287831455469131470e-01 4.173827171325683594e-01
8.520000000000000000e+02 4.726385474205017090e-01 -3.623948812484741211e+00 1.603882946074008942e-02 -1.010327041149139404e-01 -2.549816109240055084e-02 2.086172252893447876e-02
8.530000000000000000e+02 7.698004722595214844e+00 -3.048689842224121094e+01 -2.369612216949462891e+00 1.901389956474304199e+00 -1.404666900634765625e-01 2.100615054368972778e-01
8.540000000000000000e+02 3.383990478515625000e+01 -1.848479080200195312e+01 1.053892225027084351e-01 4.852148056030273438e+00 1.487261176109313965e+00 -2.171966791152954102e+00
8.550000000000000000e+02 4.081216430664062500e+01 -1.893833923339843750e+01 2.431727945804595947e-01 9.300440788269042969e+00 2.863084077835083008e+00 6.697474420070648193e-02
8.560000000000000000e+02 3.912264251708984375e+01 -1.479630756378173828e+01 3.000450134277343750e-01 1.124700641632080078e+01 3.464115381240844727e+00 -3.614904284477233887e-01
8.570000000000000000e+02 2.433436012268066406e+01 -2.530449628829956055e+00 4.788867473602294922e+00 1.113331794738769531e+00 1.770659685134887695e+00 -1.494963407516479492e+00
8.580000000000000000e+02 2.821134757995605469e+01 -2.234705448150634766e+00 3.851604700088500977e+00 -3.228380531072616577e-02 1.145796298980712891e+00 -7.380359768867492676e-01
8.590000000000000000e+02 7.645227432250976562e+00 -1.547686767578125000e+01 -7.182523012161254883e-01 6.165138721466064453e+00 1.634065985679626465e+00 2.552643060684204102e+00
8.600000000000000000e+02 5.489017009735107422e+00 -2.782396316528320312e+01 -1.368370532989501953e+00 6.460639476776123047e+00 1.527680635452270508e+00 1.301046371459960938e+00
8.610000000000000000e+02 3.394800567626953125e+01 -1.699261093139648438e+01 -1.464846611022949219e+00 6.306361675262451172e+00 1.452454447746276855e+00 -2.202663898468017578e+00
8.620000000000000000e+02 3.553692626953125000e+01 -2.267816352844238281e+01 8.675712347030639648e-01 1.644603919982910156e+01 5.194083213806152344e+00 4.952107369899749756e-01
8.630000000000000000e+02 3.529614257812500000e+01 -2.479280471801757812e+01 2.033933639526367188e+00 1.671087074279785156e+01 5.623441696166992188e+00 2.827241897583007812e+00
8.640000000000000000e+02 7.544379711151123047e+00 -1.830382919311523438e+01 3.552414417266845703e+00 9.961636543273925781e+00 4.054214954376220703e+00 5.105942249298095703e+00
8.650000000000000000e+02 2.863927125930786133e+00 -1.616164016723632812e+01 -1.021170616149902344e-01 3.508810758590698242e+00 1.022008061408996582e+00 -3.717770278453826904e-01
8.660000000000000000e+02 1.297517490386962891e+01 -1.514369297027587891e+01 -3.315070867538452148e+00 -6.165742278099060059e-01 -1.179493546485900879e+00 1.547798275947570801e+00
8.670000000000000000e+02 2.837079048156738281e+01 -3.129840469360351562e+01 -1.163179755210876465e+00 2.570019960403442383e-01 -2.718532979488372803e-01 1.866132616996765137e-01
8.680000000000000000e+02 2.993410110473632812e+01 -3.252658081054687500e+01 -2.774638533592224121e-01 1.964346170425415039e+00 5.060647130012512207e-01 1.521760344505310059e+00
8.690000000000000000e+02 5.554513931274414062e+00 -2.021190452575683594e+01 1.575583338737487793e+00 1.045901012420654297e+01 3.610378026962280273e+00 2.185660600662231445e+00
8.700000000000000000e+02 3.494256973266601562e+01 -2.911252212524414062e+01 3.148555159568786621e-01 7.766961097717285156e+00 2.424545049667358398e+00 1.537182688713073730e+00
8.710000000000000000e+02 3.652291870117187500e+01 -2.566674423217773438e+01 2.002883195877075195e+00 1.080988693237304688e+01 3.843831062316894531e+00 4.648417234420776367e-01
8.720000000000000000e+02 1.148233795166015625e+01 -1.614189910888671875e+01 -3.603398799896240234e+00 1.963705942034721375e-02 -1.075128555297851562e+00 5.946107506752014160e-01
8.730000000000000000e+02 1.188643264770507812e+01 -1.390592002868652344e+01 -1.648893356323242188e+00 1.003473043441772461e+00 -1.936260610818862915e-01 2.833842515945434570e+00
8.740000000000000000e+02 1.738669776916503906e+01 -1.636468887329101562e+01 -3.806457281112670898e+00 1.689440459012985229e-01 -1.091253995895385742e+00 7.380621433258056641e-01
8.750000000000000000e+02 1.621664237976074219e+01 -1.574174594879150391e+01 -3.767623901367187500e+00 -4.658962413668632507e-02 -1.144263982772827148e+00 7.031745314598083496e-01
8.760000000000000000e+02 7.620882391929626465e-01 -2.752389144897460938e+01 -3.104043938219547272e-02 6.014298915863037109e+00 1.794977545738220215e+00 8.419533967971801758e-01
8.770000000000000000e+02 9.219419479370117188e+00 -1.464234542846679688e+01 -1.587506771087646484e+00 3.785624265670776367e+00 6.594352722167968750e-01 2.967712402343750000e+00
8.780000000000000000e+02 8.899072647094726562e+00 -1.603894233703613281e+01 4.474460184574127197e-01 4.139408111572265625e+00 1.376056194305419922e+00 2.954007625579833984e+00
8.790000000000000000e+02 5.722985267639160156e-01 -2.049596977233886719e+01 7.619828730821609497e-02 -1.723631173372268677e-01 -2.884944900870323181e-02 2.758292295038700104e-02
8.800000000000000000e+02 1.805049324035644531e+01 -1.797723007202148438e+01 -3.503759384155273438e+00 -2.065533697605133057e-01 -1.113093852996826172e+00 1.080141544342041016e+00
8.810000000000000000e+02 3.457629394531250000e+01 -3.039781379699707031e+01 -3.379790186882019043e-01 7.012583255767822266e+00 2.002381324768066406e+00 1.383060693740844727e+00
8.820000000000000000e+02 3.410449981689453125e+01 -3.176881599426269531e+01 -6.847342848777770996e-01 5.853477001190185547e+00 1.550622820854187012e+00 1.394152164459228516e+00
8.830000000000000000e+02 1.503424549102783203e+01 -3.461695480346679688e+01 -1.319200634956359863e+00 -5.045962929725646973e-01 -5.471391081809997559e-01 6.916880607604980469e-01
8.840000000000000000e+02 1.851402282714843750e+01 -1.687646102905273438e+01 -3.403937816619873047e+00 2.411879599094390869e-01 -9.488249421119689941e-01 7.145494222640991211e-01
8.850000000000000000e+02 2.054141807556152344e+01 -1.866219902038574219e+01 -3.126748561859130859e+00 1.089967265725135803e-01 -9.053255319595336914e-01 4.127781987190246582e-01
8.860000000000000000e+02 1.869089889526367188e+01 -3.198796272277832031e+01 -2.422445058822631836e+00 -3.402400761842727661e-02 -7.369406819343566895e-01 1.036183163523674011e-01
8.870000000000000000e+02 2.141960525512695312e+01 -3.343775177001953125e+01 -1.554614424705505371e+00 -9.057158976793289185e-02 -4.935558140277862549e-01 6.340435147285461426e-02
8.880000000000000000e+02 2.009959411621093750e+01 -3.352098464965820312e+01 -1.699116587638854980e+00 -1.338087916374206543e-01 -5.498775839805603027e-01 1.838029026985168457e-01
8.890000000000000000e+02 2.068963050842285156e+01 -1.758843994140625000e+01 -3.096376895904541016e+00 3.190577030181884766e-01 -8.331957459449768066e-01 3.066425323486328125e-01
8.900000000000000000e+02 2.006387329101562500e+01 -3.193752670288085938e+01 -2.136637926101684570e+00 -5.358849465847015381e-02 -6.570678949356079102e-01 2.299377880990505219e-02
8.910000000000000000e+02 2.569763374328613281e+01 -1.837574958801269531e+01 -3.658696651458740234e+00 2.087643370032310486e-02 -1.091346144676208496e+00 -5.853528976440429688e-01
8.920000000000000000e+02 2.380310630798339844e+01 -1.649458694458007812e+01 -2.501286983489990234e+00 3.252419829368591309e-01 -6.528134942054748535e-01 -1.190218180418014526e-01
8.930000000000000000e+02 2.844695663452148438e+01 -1.599625301361083984e+01 -1.485275268554687500e+00 -7.937397062778472900e-02 -4.693947732448577881e-01 -2.052078247070312500e-01
8.940000000000000000e+02 2.565989303588867188e+01 -3.167466163635253906e+01 -1.618517398834228516e+00 4.146685823798179626e-02 -4.731151759624481201e-01 -2.908405102789402008e-02
8.950000000000000000e+02 2.751280403137207031e+01 -3.310850524902343750e+01 -7.485058307647705078e-01 5.466368198394775391e-01 -6.056069955229759216e-02 5.992534160614013672e-01
8.960000000000000000e+02 2.608352279663085938e+01 -3.351313400268554688e+01 -9.782299995422363281e-01 2.631480693817138672e-01 -2.145245820283889771e-01 2.807893157005310059e-01
8.970000000000000000e+02 1.427567481994628906e+01 -1.530454063415527344e+01 -3.739969253540039062e+00 -5.594972372055053711e-01 -1.289839982986450195e+00 1.131492137908935547e+00
8.980000000000000000e+02 3.250515365600585938e+01 -1.570505809783935547e+01 -3.077558279037475586e-01 2.507013082504272461e+00 6.597771644592285156e-01 -1.962864398956298828e+00
8.990000000000000000e+02 2.527198410034179688e+01 -1.725762748718261719e+01 -3.010491847991943359e+00 9.996920078992843628e-02 -8.731567859649658203e-01 -2.227034121751785278e-01
9.000000000000000000e+02 2.697297286987304688e+01 -1.809058952331542969e+01 -3.987089395523071289e+00 -1.869662553071975708e-01 -1.252216696739196777e+00 -5.581834912300109863e-01
9.010000000000000000e+02 2.311736297607421875e+01 -1.874254226684570312e+01 -3.323559761047363281e+00 1.150340512394905090e-01 -9.625577330589294434e-01 -1.612824946641921997e-01
9.020000000000000000e+02 1.759569525718688965e+00 -1.898359107971191406e+01 2.297087907791137695e-01 2.140323638916015625e+00 7.110097408294677734e-01 -2.260596007108688354e-01
9.030000000000000000e+02 1.440694522857666016e+01 -3.321849822998046875e+01 -2.158618927001953125e+00 -3.864289820194244385e-01 -7.635143995285034180e-01 7.724314332008361816e-01
9.040000000000000000e+02 1.320371723175048828e+01 -3.142272949218750000e+01 -3.547609090805053711e+00 -2.373778522014617920e-01 -1.135496139526367188e+00 8.703853487968444824e-01
9.050000000000000000e+02 1.048857402801513672e+01 -3.273322296142578125e+01 -1.595212101936340332e+00 -3.764276206493377686e-01 -5.914919376373291016e-01 5.678588747978210449e-01
9.060000000000000000e+02 1.179789066314697266e+01 -3.273919296264648438e+01 -2.167481184005737305e+00 -4.500036835670471191e-01 -7.852454185485839844e-01 9.668416976928710938e-01
9.070000000000000000e+02 1.825028896331787109e+00 -2.295248603820800781e+01 4.888455271720886230e-01 3.649145841598510742e+00 1.241397380828857422e+00 1.257720589637756348e+00
9.080000000000000000e+02 1.305777549743652344e+01 -3.299510192871093750e+01 -2.246211767196655273e+00 -3.728122413158416748e-01 -7.857072353363037109e-01 8.536593914031982422e-01
9.090000000000000000e+02 4.553775787353515625e+01 2.671904802322387695e+00 -2.019726276397705078e+00 3.268048048019409180e+00 3.744964897632598877e-01 3.395519495010375977e+00
9.100000000000000000e+02 5.634207153320312500e+01 -3.195255279541015625e+01 -1.286904692649841309e+00 -1.948239058256149292e-01 -4.445185661315917969e-01 3.848753869533538818e-01
9.110000000000000000e+02 4.090366744995117188e+01 6.963378429412841797e+00 1.626054763793945312e+00 1.030413246154785156e+01 3.579056262969970703e+00 3.466691493988037109e+00
9.120000000000000000e+02 4.560989379882812500e+01 1.260482549667358398e+00 -2.509334325790405273e+00 2.180306673049926758e+00 -9.870824962854385376e-02 1.688139200210571289e+00
9.130000000000000000e+02 7.428317260742187500e+01 -2.453477096557617188e+01 5.121558904647827148e-01 9.535226821899414062e+00 3.014214992523193359e+00 -9.116461873054504395e-01
9.140000000000000000e+02 7.061354827880859375e+01 -2.394540596008300781e+01 1.237891912460327148e+00 1.181918525695800781e+01 3.917123079299926758e+00 1.906813830137252808e-01
9.150000000000000000e+02 2.772602653503417969e+01 4.144627761840820312e+01 -1.760284423828125000e+00 -5.760638713836669922e-01 -7.009044885635375977e-01 -4.966409504413604736e-02
9.160000000000000000e+02 4.227245712280273438e+01 3.163164901733398438e+01 -4.448449611663818359e-01 3.081631898880004883e+00 7.910360693931579590e-01 1.658649146556854248e-01
9.170000000000000000e+02 4.036128997802734375e+01 3.450764465332031250e+01 -1.129573702812194824e+00 1.771887660026550293e+00 1.926941871643066406e-01 9.881570935249328613e-02
9.180000000000000000e+02 4.075320053100585938e+01 3.106632995605468750e+01 4.094737395644187927e-02 2.504930973052978516e+00 7.637634873390197754e-01 -5.233150124549865723e-01
9.190000000000000000e+02 6.898293304443359375e+01 -6.049221992492675781e+00 -2.657840549945831299e-01 7.743954181671142578e+00 2.243451118469238281e+00 -7.196065783500671387e-01
9.200000000000000000e+02 1.287277698516845703e+01 2.429477119445800781e+01 6.058242321014404297e-01 6.639779567718505859e+00 2.173681020736694336e+00 -6.632559895515441895e-01
9.210000000000000000e+02 6.234181213378906250e+01 -1.691938042640686035e+00 -1.692415118217468262e+00 1.492635607719421387e+00 -5.993383005261421204e-02 -6.920205950736999512e-01
9.220000000000000000e+02 2.667053794860839844e+01 -2.203465223312377930e+00 5.909010410308837891e+00 1.018692970275878906e+00 2.078310966491699219e+00 -1.577190995216369629e+00
9.230000000000000000e+02 3.278315734863281250e+01 3.676317977905273438e+01 -2.337324142456054688e+00 -2.229442745447158813e-01 -7.680805325508117676e-01 5.933462977409362793e-01
9.240000000000000000e+02 4.033240890502929688e+01 -1.614743995666503906e+01 6.887722015380859375e-01 1.143386840820312500e+01 3.636792182922363281e+00 -3.331725597381591797e-01
9.250000000000000000e+02 6.874726867675781250e+01 -1.626767539978027344e+01 3.971479237079620361e-01 1.691320419311523438e+01 5.193105697631835938e+00 -8.748310208320617676e-01
9.260000000000000000e+02 7.027536010742187500e+01 -1.172853660583496094e+01 6.566535830497741699e-01 1.116219234466552734e+01 3.545653820037841797e+00 -6.364362835884094238e-01
9.270000000000000000e+02 4.264144134521484375e+01 3.004067993164062500e+01 -7.508156355470418930e-03 3.638165473937988281e+00 1.089197158813476562e+00 1.873225867748260498e-01
9.280000000000000000e+02 4.212471008300781250e+01 2.901628911495208740e-01 -8.415462970733642578e-01 1.084679412841796875e+01 3.001574277877807617e+00 1.879062414169311523e+00
9.290000000000000000e+02 4.302849578857421875e+01 -1.195338726043701172e+00 3.018557310104370117e+00 1.215933895111083984e+01 4.553369045257568359e+00 5.064009666442871094e+00
9.300000000000000000e+02 1.400103664398193359e+01 1.969499015808105469e+01 6.180355548858642578e-01 8.977294921875000000e+00 2.878599166870117188e+00 -1.021486401557922363e+00
9.310000000000000000e+02 5.961857223510742188e+01 -4.971131384372711182e-01 -2.664717197418212891e+00 1.991778463125228882e-01 -7.396618127822875977e-01 -3.468135744333267212e-02
9.320000000000000000e+02 3.978429412841796875e+01 -3.685661077499389648e+00 1.437967061996459961e+00 1.056996536254882812e+01 3.602379798889160156e+00 2.164734601974487305e+00
9.330000000000000000e+02 6.970910644531250000e+01 -2.822034645080566406e+01 -1.105936393141746521e-01 9.728226661682128906e+00 2.885289907455444336e+00 -5.726462230086326599e-02
9.340000000000000000e+02 6.588684082031250000e+01 -3.011506843566894531e+01 3.236453831195831299e-01 2.376024246215820312e+00 8.099008798599243164e-01 1.234031438827514648e+00
9.350000000000000000e+02 7.081064605712890625e+01 -3.183998680114746094e+01 -9.571883678436279297e-01 8.259432792663574219e+00 2.190673351287841797e+00 -1.709143668413162231e-01
9.360000000000000000e+02 3.041362571716308594e+01 3.915399551391601562e+01 -2.013239622116088867e+00 -4.653799831867218018e-01 -7.435858845710754395e-01 1.074978634715080261e-01
9.370000000000000000e+02 2.384061813354492188e+01 3.878442382812500000e+01 -1.773134112358093262e+00 -2.126837968826293945e-01 -5.957453846931457520e-01 -2.396287173032760620e-01
9.380000000000000000e+02 4.181114959716796875e+01 -1.942123603820800781e+01 2.985574118793010712e-02 8.179612159729003906e+00 2.462840318679809570e+00 -6.989215016365051270e-01
9.390000000000000000e+02 5.421369934082031250e+01 -3.264692306518554688e+01 -7.824241518974304199e-01 5.275760889053344727e-01 -7.645441591739654541e-02 -2.442143112421035767e-01
9.400000000000000000e+02 5.841059875488281250e+01 -3.464562988281250000e+01 -9.352310895919799805e-01 -1.394158005714416504e-01 -3.223940730094909668e-01 -4.188407063484191895e-01
9.410000000000000000e+02 4.099844741821289062e+01 2.955919742584228516e+00 -1.079595208168029785e+00 9.863267898559570312e+00 2.635101795196533203e+00 1.957751274108886719e+00
9.420000000000000000e+02 4.053411865234375000e+01 -6.498560905456542969e+00 1.531443834304809570e+00 1.357921695709228516e+01 4.533198356628417969e+00 1.627371788024902344e+00
9.430000000000000000e+02 4.142501068115234375e+01 -1.211337089538574219e+01 4.152987524867057800e-02 1.470077991485595703e+01 4.422692775726318359e+00 -9.231742620468139648e-01
9.440000000000000000e+02 4.033076477050781250e+01 -1.484785366058349609e+01 6.408097147941589355e-01 1.222422027587890625e+01 3.859508991241455078e+00 -7.788693904876708984e-01
9.450000000000000000e+02 2.243173980712890625e+01 -2.965776324272155762e-01 3.170366525650024414e+00 7.521057724952697754e-01 1.176741719245910645e+00 -1.839408278465270996e+00
9.460000000000000000e+02 6.328626632690429688e+01 -3.451675033569335938e+01 -7.393670082092285156e-01 1.266147613525390625e+00 1.580341756343841553e-01 5.932981967926025391e-01
9.470000000000000000e+02 6.441955566406250000e+01 -3.344164657592773438e+01 -9.358904361724853516e-01 1.870882749557495117e+00 2.804976701736450195e-01 8.915405869483947754e-01
9.480000000000000000e+02 1.848447227478027344e+01 3.188757705688476562e+01 -1.162593718618154526e-02 1.311234354972839355e+00 3.898825347423553467e-01 3.986923396587371826e-01
9.490000000000000000e+02 1.577375984191894531e+01 3.021437263488769531e+01 -2.334602773189544678e-01 3.924692869186401367e+00 1.107369780540466309e+00 2.730571329593658447e-01
9.500000000000000000e+02 4.134582901000976562e+01 1.425190544128417969e+01 4.989719390869140625e-01 9.639863967895507812e+00 3.041651010513305664e+00 1.662271976470947266e+00
9.510000000000000000e+02 4.267524337768554688e+01 1.555811119079589844e+01 7.146068811416625977e-01 7.620163440704345703e+00 2.500431060791015625e+00 1.654642939567565918e+00
9.520000000000000000e+02 4.251460266113281250e+01 1.413328742980957031e+01 9.060938954353332520e-01 8.115777969360351562e+00 2.706561565399169922e+00 1.931866288185119629e+00
9.530000000000000000e+02 1.594665527343750000e+01 1.097258853912353516e+01 3.359180092811584473e-01 7.549495697021484375e+00 2.365624189376831055e+00 -1.578578233718872070e+00
9.540000000000000000e+02 4.278540039062500000e+01 2.853573989868164062e+01 2.903042733669281006e-01 4.015183448791503906e+00 1.291646361351013184e+00 8.081670105457305908e-02
9.550000000000000000e+02 4.425848007202148438e+01 3.018711853027343750e+01 -1.295601725578308105e-01 3.714727163314819336e+00 1.075550079345703125e+00 4.915467202663421631e-01
9.560000000000000000e+02 1.827975845336914062e+01 3.375925827026367188e+01 -9.022473692893981934e-01 1.449236154556274414e+00 1.640966236591339111e-01 -3.548027575016021729e-02
9.570000000000000000e+02 1.634619331359863281e+01 2.815003013610839844e+01 4.362494647502899170e-01 4.736223220825195312e+00 1.551741838455200195e+00 1.318540215492248535e+00
9.580000000000000000e+02 3.222681045532226562e+01 4.000471878051757812e+01 -1.752282142639160156e+00 -3.851238489151000977e-01 -6.412218213081359863e-01 1.566377580165863037e-01
9.590000000000000000e+02 3.894825363159179688e+01 2.865233421325683594e+00 -2.534855902194976807e-01 8.843967437744140625e+00 2.577144384384155273e+00 2.018197536468505859e+00
9.600000000000000000e+02 3.963261795043945312e+01 4.268233299255371094e+00 4.023257791996002197e-01 9.905711174011230469e+00 3.092411041259765625e+00 2.801450490951538086e+00
9.610000000000000000e+02 4.210036087036132812e+01 1.131424999237060547e+01 1.185987949371337891e+00 9.221686363220214844e+00 3.122302293777465820e+00 2.900583505630493164e+00
9.620000000000000000e+02 1.505394935607910156e+01 1.389178943634033203e+01 5.562888979911804199e-01 8.496376991271972656e+00 2.715799808502197266e+00 -1.812842011451721191e+00
9.630000000000000000e+02 1.462264060974121094e+01 2.719908905029296875e+01 1.703990846872329712e-01 6.054276466369628906e+00 1.867402672767639160e+00 9.952446818351745605e-02
9.640000000000000000e+02 2.137249183654785156e+01 2.531860589981079102e+00 4.685773849487304688e-01 4.271433949470520020e-01 2.687162160873413086e-01 -2.749438583850860596e-01
9.650000000000000000e+02 1.423400592803955078e+01 2.422540903091430664e+00 3.303077518939971924e-01 1.018625354766845703e+01 3.154968500137329102e+00 -6.810878515243530273e-01
9.660000000000000000e+02 2.970105552673339844e+01 -3.687739610671997070e+00 3.046916007995605469e+00 -1.480161845684051514e-01 8.696699142456054688e-01 -1.653725862503051758e+00
9.670000000000000000e+02 2.147448921203613281e+01 7.376530170440673828e-01 2.540264606475830078e+00 8.264487385749816895e-01 1.010013937950134277e+00 -1.357949852943420410e+00
9.680000000000000000e+02 4.145874786376953125e+01 8.425657272338867188e+00 1.784039974212646484e+00 9.970086097717285156e+00 3.526237726211547852e+00 3.433308362960815430e+00
9.690000000000000000e+02 3.433568191528320312e+01 -1.232857465744018555e+00 -5.633931979537010193e-02 7.751710414886474609e-01 2.156495153903961182e-01 1.125121191143989563e-01
9.700000000000000000e+02 3.723008346557617188e+01 -9.889842271804809570e-01 -1.333142966032028198e-01 5.822813987731933594e+00 1.706849932670593262e+00 1.347921490669250488e+00
9.710000000000000000e+02 1.399521350860595703e+01 2.263696289062500000e+01 4.171105027198791504e-01 8.384214401245117188e+00 2.640397310256958008e+00 -3.184594213962554932e-01
9.720000000000000000e+02 1.820486450195312500e+01 8.806218147277832031e+00 5.225318670272827148e-01 5.923451423645019531e+00 1.933794975280761719e+00 -1.814581513404846191e+00
9.730000000000000000e+02 1.716266441345214844e+01 8.289869308471679688e+00 -1.014502122998237610e-01 6.465278148651123047e+00 1.909148335456848145e+00 -1.188089966773986816e+00
9.740000000000000000e+02 1.409151649475097656e+01 2.412759590148925781e+01 6.106495857238769531e-01 7.708014488220214844e+00 2.495599269866943359e+00 -4.119894653558731079e-02
9.750000000000000000e+02 4.301152801513671875e+01 1.983433532714843750e+01 2.137015610933303833e-01 6.077797412872314453e+00 1.887449622154235840e+00 8.057056665420532227e-01
9.760000000000000000e+02 1.510528850555419922e+01 2.873934555053710938e+01 -7.648956030607223511e-02 4.961364269256591797e+00 1.465462446212768555e+00 2.979321181774139404e-01
9.770000000000000000e+02 1.469126033782958984e+01 1.531580352783203125e+01 6.376112103462219238e-01 8.927264213562011719e+00 2.869462490081787109e+00 -1.556390762329101562e+00
9.780000000000000000e+02 3.908448410034179688e+01 3.349012756347656250e+01 -7.090682983398437500e-01 4.654054045677185059e-01 -7.309886068105697632e-02 2.076227068901062012e-01
9.790000000000000000e+02 3.755438995361328125e+01 3.648676681518554688e+01 -1.547294259071350098e+00 1.941039264202117920e-01 -4.059571027755737305e-01 2.009241878986358643e-01
9.800000000000000000e+02 1.317501544952392578e+01 1.549878716468811035e+00 4.424238801002502441e-01 1.167311382293701172e+01 3.634661436080932617e+00 -2.918899774551391602e+00
9.810000000000000000e+02 3.801039505004882812e+01 1.457850575447082520e+00 -5.817474722862243652e-01 7.008013725280761719e+00 1.927879810333251953e+00 1.621205449104309082e+00
9.820000000000000000e+02 4.172733306884765625e+01 2.268239402770996094e+01 2.230474352836608887e-02 5.340712547302246094e+00 1.608905196189880371e+00 1.616662293672561646e-01
9.830000000000000000e+02 4.172904586791992188e+01 2.410184478759765625e+01 2.756359986960887909e-02 5.080636024475097656e+00 1.532459855079650879e+00 1.141715869307518005e-01
9.840000000000000000e+02 4.309478759765625000e+01 2.573855400085449219e+01 1.521734744310379028e-01 4.800014019012451172e+00 1.485656261444091797e+00 1.818604320287704468e-01
9.850000000000000000e+02 4.232882690429687500e+01 1.271526145935058594e+01 8.990738987922668457e-01 8.791478157043457031e+00 2.907165765762329102e+00 2.356415271759033203e+00
9.860000000000000000e+02 4.596611022949218750e+01 2.421508407592773438e+01 3.619248569011688232e-01 4.613100051879882812e+00 1.492507457733154297e+00 7.506607770919799805e-01
9.870000000000000000e+02 4.307885360717773438e+01 2.128902626037597656e+01 1.297401189804077148e-01 5.615581989288330078e+00 1.723596572875976562e+00 5.987641215324401855e-01
9.880000000000000000e+02 4.313394546508789062e+01 2.277927589416503906e+01 1.316351592540740967e-01 5.258935928344726562e+00 1.617171287536621094e+00 4.675538539886474609e-01
9.890000000000000000e+02 4.991448593139648438e+01 3.916504144668579102e+00 -9.935392141342163086e-01 2.567527890205383301e-01 -2.210359126329421997e-01 6.645494699478149414e-01
9.900000000000000000e+02 3.912857437133789062e+01 -1.342307662963867188e+01 4.547806382179260254e-01 1.148593044281005859e+01 3.582213401794433594e+00 -5.487636923789978027e-01
9.910000000000000000e+02 6.676965332031250000e+01 -3.155707359313964844e+01 -8.105173707008361816e-01 4.652693271636962891e+00 1.152652740478515625e+00 1.117210149765014648e+00
9.920000000000000000e+02 6.979118347167968750e+01 -1.607244300842285156e+01 9.765523672103881836e-01 1.457057857513427734e+01 4.664139270782470703e+00 -1.221357822418212891e+00
9.930000000000000000e+02 4.134564971923828125e+01 -9.350193023681640625e+00 1.679936051368713379e-01 1.603769493103027344e+01 4.861706733703613281e+00 1.026873663067817688e-01
9.940000000000000000e+02 6.482585144042968750e+01 -3.289377450942993164e+00 -6.912330985069274902e-01 4.327147483825683594e+00 1.090774416923522949e+00 -1.228171348571777344e+00
9.950000000000000000e+02 5.285421752929687500e+01 9.916649460792541504e-01 -3.512492895126342773e+00 2.267120480537414551e-01 -9.857342839241027832e-01 7.507418394088745117e-01
9.960000000000000000e+02 5.330727767944335938e+01 2.252752065658569336e+00 -2.525651454925537109e+00 3.145782947540283203e-01 -6.633219718933105469e-01 3.688744008541107178e-01
9.970000000000000000e+02 6.360935211181640625e+01 -2.448853731155395508e+00 -1.119292259216308594e+00 2.645940780639648438e+00 4.579945206642150879e-01 -1.063645124435424805e+00
9.980000000000000000e+02 6.100542449951171875e+01 -1.040848493576049805e+00 -2.226683139801025391e+00 6.660813093185424805e-01 -4.681805670261383057e-01 -3.365300893783569336e-01
9.990000000000000000e+02 5.678999710083007812e+01 1.723426431417465210e-01 -3.238780736923217773e+00 -6.466277688741683960e-02 -9.910330176353454590e-01 3.425970673561096191e-01
1.000000000000000000e+03 5.542414093017578125e+01 4.072456955909729004e-01 -3.327271223068237305e+00 -7.503356784582138062e-02 -1.020691514015197754e+00 5.081032514572143555e-01
1.001000000000000000e+03 7.074034881591796875e+01 -2.729573822021484375e+01 4.135832488536834717e-01 9.929838180541992188e+00 3.103026390075683594e+00 -4.260010421276092529e-01
1.002000000000000000e+03 6.962767028808593750e+01 -2.586118316650390625e+01 1.266767859458923340e+00 1.259360313415527344e+01 4.158111572265625000e+00 1.069605112075805664e+00
1.003000000000000000e+03 4.100801467895507812e+01 -3.729293346405029297e+00 1.334771871566772461e+00 1.266993141174316406e+01 4.201410770416259766e+00 3.324064016342163086e+00
1.004000000000000000e+03 4.075517272949218750e+01 -5.108517169952392578e+00 1.069640517234802246e+00 1.361005401611328125e+01 4.403908252716064453e+00 2.521763086318969727e+00
1.005000000000000000e+03 4.913236999511718750e+01 2.604386568069458008e+00 -2.758647441864013672e+00 -2.212866246700286865e-01 -8.939802646636962891e-01 5.851635336875915527e-01
1.006000000000000000e+03 7.032919311523437500e+01 -2.271076965332031250e+01 7.392798066139221191e-01 1.332454872131347656e+01 4.219148635864257812e+00 6.046195626258850098e-01
1.007000000000000000e+03 6.962210845947265625e+01 -1.468208789825439453e+01 1.443623065948486328e+00 1.409696674346923828e+01 4.662177085876464844e+00 -1.371860265731811523e+00
1.008000000000000000e+03 6.564932250976562500e+01 -3.260756301879882812e+01 -8.948636651039123535e-01 2.867990493774414062e+00 5.919380187988281250e-01 1.044816374778747559e+00
1.009000000000000000e+03 3.922533035278320312e+01 7.965815067291259766e-01 -8.758860230445861816e-01 8.769986152648925781e+00 2.368229866027832031e+00 1.406996965408325195e+00
1.010000000000000000e+03 4.350460052490234375e+01 -2.119399452209472656e+01 6.889145970344543457e-01 4.147967815399169922e+00 1.451064705848693848e+00 -1.563000202178955078e+00
1.011000000000000000e+03 4.944715118408203125e+01 -2.711772918701171875e+01 3.340508341789245605e-01 8.411830067634582520e-01 3.525701463222503662e-01 -5.954790711402893066e-01
1.012000000000000000e+03 4.831073760986328125e+01 -2.417943000793457031e+01 3.360555171966552734e-01 5.051426291465759277e-01 2.523594498634338379e-01 -4.393512010574340820e-01
1.013000000000000000e+03 4.735177993774414062e+01 -2.547641372680664062e+01 6.064516901969909668e-01 1.249878048896789551e+00 5.568989515304565430e-01 -8.910149335861206055e-01
1.014000000000000000e+03 6.906667327880859375e+01 -1.189866161346435547e+01 7.953134775161743164e-01 1.192537784576416016e+01 3.816207408905029297e+00 -1.752694845199584961e+00
1.015000000000000000e+03 6.871601867675781250e+01 -1.052901458740234375e+01 4.849716424942016602e-01 1.038076591491699219e+01 3.259721279144287109e+00 -1.846126198768615723e+00
1.016000000000000000e+03 5.013542556762695312e+01 -2.991570091247558594e+01 -1.272420492023229599e-02 1.182898402214050293e+00 3.510522544384002686e-01 -6.440300345420837402e-01
1.017000000000000000e+03 6.882063293457031250e+01 -1.902184104919433594e+01 8.171065151691436768e-02 1.526516723632812500e+01 4.604063510894775391e+00 -1.422328203916549683e-01
1.018000000000000000e+03 7.245184326171875000e+01 -2.076861381530761719e+01 5.320854187011718750e-01 1.134008884429931641e+01 3.561652421951293945e+00 -4.155075252056121826e-01
1.019000000000000000e+03 5.126570129394531250e+01 -2.703649711608886719e+01 1.413354426622390747e-01 3.132843673229217529e-01 1.363859474658966064e-01 -2.113512605428695679e-01
1.020000000000000000e+03 5.073910903930664062e+01 -3.118590736389160156e+01 -1.535563021898269653e-01 1.203124523162841797e+00 3.148704767227172852e-01 -5.703961253166198730e-01
1.021000000000000000e+03 4.731347656250000000e+01 -2.320749282836914062e+01 4.311204552650451660e-01 6.130769848823547363e-01 3.132592439651489258e-01 -5.017760992050170898e-01
1.022000000000000000e+03 4.439375305175781250e+01 -2.227657318115234375e+01 7.842404842376708984e-01 3.107958078384399414e+00 1.167659640312194824e+00 -1.364404082298278809e+00
1.023000000000000000e+03 7.003944396972656250e+01 -2.010224151611328125e+01 1.781779229640960693e-01 1.402120780944824219e+01 4.259815692901611328e+00 -1.955168694257736206e-01
1.024000000000000000e+03 7.014930725097656250e+01 -2.141612243652343750e+01 1.778236478567123413e-01 1.392387580871582031e+01 4.230509757995605469e+00 3.384343907237052917e-02
1.025000000000000000e+03 7.734407806396484375e+01 -3.802100753784179688e+01 -1.638497710227966309e-01 1.022731018066406250e+01 3.019038200378417969e+00 -6.608684360980987549e-02
1.026000000000000000e+03 7.928299713134765625e+01 -3.471586990356445312e+01 -5.480733141303062439e-02 1.064337635040283203e+01 3.176570892333984375e+00 -1.483556926250457764e-01
1.027000000000000000e+03 7.811399078369140625e+01 -2.911826515197753906e+01 2.729872427880764008e-02 8.758045196533203125e+00 2.635602951049804688e+00 -8.019185662269592285e-01
1.028000000000000000e+03 7.936975860595703125e+01 -2.783977699279785156e+01 5.850262194871902466e-02 8.058088302612304688e+00 2.434977054595947266e+00 -3.215041756629943848e-01
1.029000000000000000e+03 7.611634063720703125e+01 3.343967437744140625e+01 1.833332120440900326e-03 6.326539516448974609e+00 1.898511886596679688e+00 1.741040311753749847e-02
1.030000000000000000e+03 7.944613647460937500e+01 3.624509429931640625e+01 2.817837055772542953e-03 6.627200126647949219e+00 1.989005446434020996e+00 -1.842284807935357094e-03
1.031000000000000000e+03 7.939174652099609375e+01 -2.085713958740234375e+01 -1.788299530744552612e-02 5.611516475677490234e+00 1.678089976310729980e+00 -1.011362448334693909e-01
1.032000000000000000e+03 7.805335998535156250e+01 -2.497607421875000000e+01 5.371472239494323730e-02 7.603592872619628906e+00 2.297192335128784180e+00 -6.857941746711730957e-01
1.033000000000000000e+03 7.802907562255859375e+01 -2.642364692687988281e+01 9.782925248146057129e-02 7.996138572692871094e+00 2.428190231323242188e+00 -7.866628766059875488e-01
1.034000000000000000e+03 7.796819305419921875e+01 -3.174917411804199219e+01 -3.467439115047454834e-02 9.493797302246093750e+00 2.837737083435058594e+00 -6.716717481613159180e-01
1.035000000000000000e+03 7.935770416259765625e+01 -3.058594512939453125e+01 4.439901933073997498e-02 9.333614349365234375e+00 2.813404083251953125e+00 -2.859872281551361084e-01
1.036000000000000000e+03 7.788591003417968750e+01 -3.312041854858398438e+01 -1.734519600868225098e-01 9.766094207763671875e+00 2.877792835235595703e+00 -5.855784416198730469e-01
1.037000000000000000e+03 7.536626434326171875e+01 -3.780932998657226562e+01 -3.483335077762603760e-01 9.375581741333007812e+00 2.708174467086791992e+00 -4.761739373207092285e-01
1.038000000000000000e+03 7.651103210449218750e+01 -3.911177444458007812e+01 -1.536007970571517944e-01 1.018678092956542969e+01 3.009953975677490234e+00 -1.650971323251724243e-01
1.039000000000000000e+03 7.807515716552734375e+01 1.551890277862548828e+01 1.279442757368087769e-02 7.285813331604003906e+00 2.189582347869873047e+00 -2.315963357686996460e-01
1.040000000000000000e+03 7.935973358154296875e+01 1.539370155334472656e+01 8.170136250555515289e-03 7.534044265747070312e+00 2.262664318084716797e+00 -7.729592919349670410e-02
1.041000000000000000e+03 7.932936096191406250e+01 2.234486007690429688e+01 1.471453579142689705e-03 6.855386734008789062e+00 2.057057380676269531e+00 -3.533401712775230408e-02
1.042000000000000000e+03 7.736434173583984375e+01 3.210247421264648438e+01 1.144918520003557205e-02 6.464653491973876953e+00 1.942830801010131836e+00 8.872699923813343048e-03
1.043000000000000000e+03 7.785919189453125000e+01 2.793527030944824219e+01 1.410289481282234192e-02 6.522414684295654297e+00 1.960955262184143066e+00 -3.430531919002532959e-02
1.044000000000000000e+03 7.928176879882812500e+01 2.790454864501953125e+01 -1.363483257591724396e-03 6.650574207305908203e+00 1.994763135910034180e+00 -9.572548791766166687e-03
1.045000000000000000e+03 7.791545867919921875e+01 2.518561744689941406e+01 1.870733685791492462e-02 6.593057155609130859e+00 1.983529329299926758e+00 -6.515527516603469849e-02
1.046000000000000000e+03 7.792736816406250000e+01 2.380113220214843750e+01 1.775144599378108978e-02 6.642555236816406250e+00 1.998092055320739746e+00 -8.866059035062789917e-02
1.047000000000000000e+03 7.812502288818359375e+01 1.827148628234863281e+01 1.370235811918973923e-02 7.017228126525878906e+00 2.109279155731201172e+00 -1.808582097291946411e-01
1.048000000000000000e+03 7.811242675781250000e+01 1.689299964904785156e+01 2.104987576603889465e-02 7.147204399108886719e+00 2.150476217269897461e+00 -2.051691263914108276e-01
1.049000000000000000e+03 7.805173492431640625e+01 1.413360118865966797e+01 1.672373339533805847e-02 7.439266681671142578e+00 2.236797094345092773e+00 -2.523786723613739014e-01
1.050000000000000000e+03 7.677168273925781250e+01 1.143298530578613281e+01 1.436799764633178711e-03 7.437138080596923828e+00 2.231572628021240234e+00 -4.234866201877593994e-01
1.051000000000000000e+03 7.806557464599609375e+01 9.960904121398925781e+00 -1.074985507875680923e-02 7.958779335021972656e+00 2.384408712387084961e+00 -2.696645557880401611e-01
1.052000000000000000e+03 7.935370635986328125e+01 9.828804969787597656e+00 1.293665729463100433e-03 8.347809791564941406e+00 2.504730939865112305e+00 -8.828922361135482788e-02
1.053000000000000000e+03 7.938512420654296875e+01 -1.945601844787597656e+01 4.128171503543853760e-02 5.405749797821044922e+00 1.634109497070312500e+00 -7.954466342926025391e-02
1.054000000000000000e+03 7.822237396240234375e+01 -2.217825508117675781e+01 6.608681380748748779e-02 6.869717121124267578e+00 2.080741167068481445e+00 -4.005042910575866699e-01
1.055000000000000000e+03 7.814871215820312500e+01 -1.505664062500000000e+01 1.140534207224845886e-01 6.504046916961669922e+00 1.985430121421813965e+00 2.327367067337036133e-01
1.056000000000000000e+03 7.937844848632812500e+01 -1.384055900573730469e+01 2.400037273764610291e-02 5.670722484588623047e+00 1.708416819572448730e+00 1.382396072149276733e-01
1.057000000000000000e+03 7.820229339599609375e+01 -8.180620193481445312e+00 -1.216623932123184204e-02 7.638066291809082031e+00 2.287770032882690430e+00 5.439719557762145996e-01
1.058000000000000000e+03 7.938318634033203125e+01 -6.912247180938720703e+00 1.407501404173672199e-04 7.760129928588867188e+00 2.328081130981445312e+00 2.104617059230804443e-01
1.059000000000000000e+03 7.811931610107421875e+01 2.580969631671905518e-01 -6.822751462459564209e-02 8.693545341491699219e+00 2.587595462799072266e+00 1.018563956022262573e-01
1.060000000000000000e+03 7.937407684326171875e+01 1.489338278770446777e+00 -9.994020685553550720e-03 9.142335891723632812e+00 2.739702463150024414e+00 2.290936931967735291e-02
1.061000000000000000e+03 7.682229614257812500e+01 7.322036743164062500e+00 -5.740120261907577515e-02 7.896025657653808594e+00 2.351587295532226562e+00 -3.643595576286315918e-01
1.062000000000000000e+03 7.772803497314453125e+01 2.935674858093261719e+01 8.617179468274116516e-03 6.499292373657226562e+00 1.952372789382934570e+00 -1.603957451879978180e-02
1.063000000000000000e+03 7.875167846679687500e+01 3.990682601928710938e+01 -1.638216711580753326e-02 6.545798778533935547e+00 1.958824992179870605e+00 -2.878921292722225189e-02
1.064000000000000000e+03 7.678717041015625000e+01 3.837966156005859375e+01 -2.057302929461002350e-02 6.451894760131835938e+00 1.929396510124206543e+00 -3.993798978626728058e-03
1.065000000000000000e+03 7.692849731445312500e+01 4.125888347625732422e-01 -1.783443987369537354e-01 8.377766609191894531e+00 2.459826707839965820e+00 8.982687443494796753e-02
1.066000000000000000e+03 7.814112091064453125e+01 1.669629573822021484e+00 -7.487403601408004761e-02 8.702870368957519531e+00 2.588398933410644531e+00 9.566911496222019196e-03
1.067000000000000000e+03 7.806910705566406250e+01 -4.031564712524414062e+00 -7.462602853775024414e-02 8.357549667358398438e+00 2.484877109527587891e+00 3.828163743019104004e-01
1.068000000000000000e+03 7.934957122802734375e+01 -2.719218969345092773e+00 -2.273113839328289032e-02 8.762572288513183594e+00 2.621952295303344727e+00 1.319529414176940918e-01
1.069000000000000000e+03 7.815966796875000000e+01 -6.829738140106201172e+00 -4.620263725519180298e-02 7.905788421630859375e+00 2.357875823974609375e+00 5.083291530609130859e-01
1.070000000000000000e+03 7.817930603027343750e+01 -1.090059852600097656e+01 4.922357574105262756e-02 7.071149349212646484e+00 2.136111974716186523e+00 5.227869749069213867e-01
1.071000000000000000e+03 7.939980316162109375e+01 -9.680022239685058594e+00 9.644019417464733124e-03 6.842173099517822266e+00 2.055545091629028320e+00 2.192112952470779419e-01
1.072000000000000000e+03 7.812853240966796875e+01 -1.365582370758056641e+01 7.976128906011581421e-02 6.654311180114746094e+00 2.020221710205078125e+00 3.726064264774322510e-01
1.073000000000000000e+03 7.818193054199218750e+01 -1.791705322265625000e+01 1.301404088735580444e-01 6.442411899566650391e+00 1.971765637397766113e+00 -6.837393343448638916e-02
1.074000000000000000e+03 7.938400268554687500e+01 -1.663741683959960938e+01 3.751280903816223145e-02 5.299266338348388672e+00 1.601033806800842285e+00 3.730225935578346252e-02
1.075000000000000000e+03 7.816200256347656250e+01 -1.935148620605468750e+01 6.933191418647766113e-02 6.521321773529052734e+00 1.977196097373962402e+00 -1.733777523040771484e-01
1.076000000000000000e+03 1.488229393959045410e+00 -3.998044967651367188e+01 -1.165778115391731262e-01 7.318122863769531250e+00 2.160463571548461914e+00 -3.984993696212768555e-01
1.077000000000000000e+03 1.917160153388977051e+00 2.862281990051269531e+01 6.635137833654880524e-03 2.434843778610229492e+00 7.324436902999877930e-01 -6.534636020660400391e-01
1.078000000000000000e+03 6.456671357154846191e-01 2.751270866394042969e+01 2.797395922243595123e-03 1.751777529716491699e+00 5.263724327087402344e-01 -2.367697060108184814e-01
1.079000000000000000e+03 3.161781072616577148e+00 3.705273818969726562e+01 -1.451626420021057129e-01 4.271008968353271484e+00 1.237753868103027344e+00 -4.271923303604125977e-01
1.080000000000000000e+03 7.341275811195373535e-01 3.463578033447265625e+01 -3.418080508708953857e-02 4.051604747772216797e+00 1.205227255821228027e+00 -1.800382137298583984e-01
1.081000000000000000e+03 6.497941613197326660e-01 -3.595829391479492188e+01 3.354153782129287720e-02 8.633284568786621094e+00 2.600047826766967773e+00 -1.347430944442749023e-01
1.082000000000000000e+03 6.552626132965087891e+00 -3.547859954833984375e+01 -3.121220469474792480e-01 3.085760593414306641e+00 8.320915699005126953e-01 -2.908479273319244385e-01
1.083000000000000000e+03 3.086958885192871094e+00 2.842823219299316406e+01 -7.851117290556430817e-03 2.687851667404174805e+00 8.040001392364501953e-01 -9.453073143959045410e-01
1.084000000000000000e+03 3.192579030990600586e+00 2.570455360412597656e+01 5.894379317760467529e-02 2.115488052368164062e+00 6.523295640945434570e-01 -9.433524012565612793e-01
1.085000000000000000e+03 2.418657541275024414e+00 3.306142425537109375e+01 -8.263459801673889160e-02 3.601789236068725586e+00 1.055746436119079590e+00 -6.386894583702087402e-01
1.086000000000000000e+03 4.480644226074218750e+00 3.731140136718750000e+01 -2.876257300376892090e-01 4.143090248107910156e+00 1.156639456748962402e+00 -6.291015744209289551e-01
1.087000000000000000e+03 2.421997070312500000e+00 3.806760025024414062e+01 -1.070126295089721680e-01 4.428892135620117188e+00 1.296563863754272461e+00 -2.789862155914306641e-01
1.088000000000000000e+03 3.362143278121948242e+00 3.900748825073242188e+01 -1.773483753204345703e-01 4.491063594818115234e+00 1.294114589691162109e+00 -3.264602720737457275e-01
1.089000000000000000e+03 7.651486992835998535e-01 -3.045964431762695312e+01 -1.280730366706848145e-01 8.246022224426269531e+00 2.435384750366210938e+00 4.561322629451751709e-01
1.090000000000000000e+03 4.402399063110351562e+00 -2.737241935729980469e+01 -8.119891285896301270e-01 6.893828392028808594e+00 1.824551701545715332e+00 2.056516647338867188e+00
1.091000000000000000e+03 6.400829553604125977e-01 2.046461868286132812e+01 1.215159613639116287e-02 -4.687376916408538818e-01 -1.369758248329162598e-01 -1.516096889972686768e-01
1.092000000000000000e+03 5.944457054138183594e-01 1.340947437286376953e+01 6.394381169229745865e-03 -1.383595347404479980e+00 -4.131602942943572998e-01 -2.467982843518257141e-02
1.093000000000000000e+03 1.712391138076782227e+00 -1.624427604675292969e+01 -4.796293750405311584e-02 2.127902030944824219e+00 6.239817142486572266e-01 -4.393441379070281982e-01
1.094000000000000000e+03 2.335024118423461914e+00 -3.649372100830078125e+01 -5.616392567753791809e-02 7.163326740264892578e+00 2.132148981094360352e+00 -3.766729533672332764e-01
1.095000000000000000e+03 6.081172823905944824e-01 -2.326815032958984375e+01 1.678957492113113403e-01 1.183783888816833496e+00 4.055038690567016602e-01 5.446888804435729980e-01
1.096000000000000000e+03 5.363566279411315918e-01 7.776723384857177734e+00 1.571922004222869873e-02 -1.231856465339660645e+00 -3.648411631584167480e-01 5.403645709156990051e-02
1.097000000000000000e+03 5.320974826812744141e+00 -4.030843734741210938e+01 4.240963757038116455e-01 4.649069309234619141e+00 1.521949648857116699e+00 4.943013191223144531e-02
1.098000000000000000e+03 3.961919546127319336e+00 -3.881046295166015625e+01 4.323178902268409729e-02 6.093625068664550781e+00 1.841057062149047852e+00 -2.883810400962829590e-01
1.099000000000000000e+03 2.566560506820678711e+00 -3.475534439086914062e+01 -2.269191592931747437e-01 7.055603981018066406e+00 2.048605442047119141e+00 -2.317065745592117310e-01
1.100000000000000000e+03 6.254322052001953125e+00 -2.873658180236816406e+01 -1.884646773338317871e+00 4.921176433563232422e+00 9.109588265419006348e-01 4.595302939414978027e-01
1.101000000000000000e+03 1.855604529380798340e+00 -3.332589721679687500e+01 -2.746282815933227539e-01 7.750450611114501953e+00 2.242746591567993164e+00 -7.951478473842144012e-03
1.102000000000000000e+03 5.206810474395751953e+00 -2.915463256835937500e+01 -1.800914406776428223e+00 5.641412734985351562e+00 1.152149438858032227e+00 1.157396435737609863e+00
1.103000000000000000e+03 4.473515510559082031e+00 -2.481375122070312500e+01 7.232993245124816895e-01 8.149783134460449219e+00 2.661924839019775391e+00 2.079605340957641602e+00
1.104000000000000000e+03 3.572772264480590820e+00 -2.660312843322753906e+01 -2.283667922019958496e-01 6.560106277465820312e+00 1.899521827697753906e+00 2.504533767700195312e+00
1.105000000000000000e+03 4.386015892028808594e+00 -2.225098609924316406e+01 1.286249041557312012e+00 8.550914764404296875e+00 2.951149225234985352e+00 1.912545561790466309e+00
1.106000000000000000e+03 4.023786067962646484e+00 -2.059480285644531250e+01 1.254590392112731934e+00 6.986161231994628906e+00 2.472225427627563477e+00 1.157840251922607422e+00
1.107000000000000000e+03 2.938627243041992188e+00 -1.748390579223632812e+01 1.548697948455810547e-01 3.772180080413818359e+00 1.178114891052246094e+00 -3.353110849857330322e-01
1.108000000000000000e+03 1.730925679206848145e+00 -2.033387184143066406e+01 3.244450688362121582e-01 2.241866350173950195e+00 7.698934674263000488e-01 1.771847754716873169e-01
1.109000000000000000e+03 2.811515808105468750e+00 -1.353397750854492188e+01 -4.130449295043945312e-01 2.847105026245117188e+00 7.302180528640747070e-01 6.392596662044525146e-02
1.110000000000000000e+03 5.649846196174621582e-01 -1.210733604431152344e+01 -3.224784880876541138e-02 1.537014603614807129e+00 4.514300227165222168e-01 2.898395806550979614e-02
1.111000000000000000e+03 1.692439079284667969e+00 -1.212248897552490234e+01 -1.653134822845458984e-01 1.949718594551086426e+00 5.353215336799621582e-01 1.307305246591567993e-01
1.112000000000000000e+03 1.581870794296264648e+00 -6.446875572204589844e+00 5.847995728254318237e-02 6.272680163383483887e-01 2.057244032621383667e-01 3.681737780570983887e-01
1.113000000000000000e+03 1.422039628028869629e+00 -3.607673406600952148e+00 8.107990026473999023e-02 1.021132022142410278e-01 5.495792999863624573e-02 8.193446695804595947e-02
1.114000000000000000e+03 5.047449469566345215e-01 -5.041971206665039062e+00 2.061978913843631744e-02 3.214354440569877625e-02 1.582900062203407288e-02 7.309474796056747437e-02
1.115000000000000000e+03 4.893853068351745605e-01 4.962643623352050781e+00 8.745189756155014038e-03 -8.118230104446411133e-01 -2.409233450889587402e-01 9.223077446222305298e-02
1.116000000000000000e+03 1.670997858047485352e+00 1.039461421966552734e+01 3.197617083787918091e-02 -6.910458803176879883e-01 -1.977209150791168213e-01 3.139023482799530029e-02
1.117000000000000000e+03 5.586905479431152344e-01 1.058980560302734375e+01 1.024170219898223877e-02 -1.410835981369018555e+00 -4.201782643795013428e-01 1.108897291123867035e-02
1.118000000000000000e+03 1.781204223632812500e+00 1.320208072662353516e+01 3.576635569334030151e-02 -5.580642819404602051e-01 -1.566893905401229858e-01 -6.653990596532821655e-02
1.119000000000000000e+03 1.905928611755371094e+00 2.022960853576660156e+01 6.708960980176925659e-02 3.224398493766784668e-01 1.168588399887084961e-01 -4.124040603637695312e-01
1.120000000000000000e+03 1.858689904212951660e+00 1.881453132629394531e+01 6.700361520051956177e-02 4.945652186870574951e-02 3.493804112076759338e-02 -3.135089576244354248e-01
1.121000000000000000e+03 1.968853592872619629e+00 2.445619773864746094e+01 3.724984452128410339e-02 1.304681301116943359e+00 4.025793671607971191e-01 -6.051456928253173828e-01
1.122000000000000000e+03 1.038153171539306641e+01 -2.268970012664794922e+00 3.716800928115844727e+00 9.699003100395202637e-01 1.406010389328002930e+00 2.221866846084594727e+00
1.123000000000000000e+03 1.198458385467529297e+01 -1.993552803993225098e+00 5.284724235534667969e+00 5.135262966156005859e+00 3.125996112823486328e+00 4.713294982910156250e+00
1.124000000000000000e+03 1.239606952667236328e+01 -2.110050916671752930e+00 4.390475749969482422e+00 7.539385318756103516e+00 3.578958272933959961e+00 4.590679168701171875e+00
1.125000000000000000e+03 1.219121360778808594e+01 -2.031690835952758789e+00 4.951517105102539062e+00 6.183807373046875000e+00 3.340597391128540039e+00 4.991246700286865234e+00
1.126000000000000000e+03 1.075215816497802734e+01 1.792659759521484375e+00 1.419170379638671875e+00 2.187719821929931641e+00 1.082067012786865234e+00 -2.384003877639770508e+00
1.127000000000000000e+03 1.062948799133300781e+01 1.567449450492858887e+00 1.283942222595214844e+00 1.677639126777648926e+00 8.884744048118591309e-01 -2.053550720214843750e+00
1.128000000000000000e+03 1.218372440338134766e+01 1.851009488105773926e+00 1.287143468856811523e+00 6.824421882629394531e+00 2.433469533920288086e+00 -3.871320486068725586e+00
1.129000000000000000e+03 8.610237121582031250e+00 -2.311712265014648438e+00 2.118114948272705078e+00 3.063300549983978271e-01 7.273334860801696777e-01 1.108987927436828613e+00
1.130000000000000000e+03 9.691306114196777344e+00 2.923573732376098633e+00 8.381054401397705078e-01 1.916401028633117676e+00 8.263519406318664551e-01 -1.641324162483215332e+00
1.131000000000000000e+03 1.378515529632568359e+01 -2.937053203582763672e+00 2.641595840454101562e+00 9.837062835693359375e+00 3.743597745895385742e+00 8.430784344673156738e-01
1.132000000000000000e+03 5.782067298889160156e+00 2.615611076354980469e+00 -6.324969232082366943e-02 1.882421225309371948e-01 3.749772906303405762e-02 2.191294580698013306e-01
1.133000000000000000e+03 4.343752384185791016e+00 3.263970136642456055e+00 1.871816068887710571e-02 8.416843414306640625e-02 3.086597844958305359e-02 3.563555479049682617e-01
1.134000000000000000e+03 8.170524597167968750e+00 3.374934196472167969e+00 5.486292243003845215e-01 1.109724640846252441e+00 4.975061416625976562e-01 -7.343967556953430176e-01
1.135000000000000000e+03 3.781612157821655273e+00 3.378742456436157227e+00 6.376047618687152863e-03 3.608746919780969620e-03 2.995438408106565475e-03 3.792403638362884521e-01
1.136000000000000000e+03 3.602505922317504883e+00 2.705258131027221680e+00 -1.024048328399658203e-01 -1.872240938246250153e-02 -3.633817285299301147e-02 3.943965137004852295e-01
1.137000000000000000e+03 4.317187786102294922e+00 2.607058286666870117e+00 -1.227138191461563110e-01 4.420346021652221680e-02 -2.355310879647731781e-02 3.768085241317749023e-01
1.138000000000000000e+03 5.708610534667968750e+00 3.386666774749755859e+00 1.387362182140350342e-01 3.085880577564239502e-01 1.341972798109054565e-01 1.768871843814849854e-01
1.139000000000000000e+03 7.316629409790039062e+00 3.376908302307128906e+00 3.708412647247314453e-01 7.386578917503356934e-01 3.328497409820556641e-01 -3.059451878070831299e-01
1.140000000000000000e+03 7.352806091308593750e+00 2.607126951217651367e+00 1.874919533729553223e-01 4.541676044464111328e-01 1.924978643655776978e-01 -1.725010275840759277e-01
1.141000000000000000e+03 8.991277694702148438e+00 3.213926553726196289e+00 6.846188306808471680e-01 1.517731904983520508e+00 6.607052087783813477e-01 -1.161591649055480957e+00
1.142000000000000000e+03 6.474549770355224609e+00 -3.257562875747680664e+00 1.196101069450378418e+00 3.938430547714233398e-01 4.769832491874694824e-01 9.450713396072387695e-01
1.143000000000000000e+03 2.334064483642578125e+00 -3.386461496353149414e+00 1.893151402473449707e-01 1.983367949724197388e-01 1.162955760955810547e-01 1.598078310489654541e-01
1.144000000000000000e+03 3.928540468215942383e+00 -7.910015583038330078e+00 9.473620355129241943e-02 1.522365212440490723e+00 4.851303994655609131e-01 1.120244145393371582e+00
1.145000000000000000e+03 7.219479560852050781e+00 -3.137057542800903320e+00 1.499225258827209473e+00 3.928793370723724365e-01 5.676313638687133789e-01 1.090933322906494141e+00
1.146000000000000000e+03 5.545358180999755859e+00 -2.635275840759277344e+00 7.623268961906433105e-01 2.192183583974838257e-01 2.944635748863220215e-01 5.056769847869873047e-01
1.147000000000000000e+03 5.718617916107177734e+00 -3.395338535308837891e+00 9.305997490882873535e-01 3.809719085693359375e-01 3.934714794158935547e-01 7.791040539741516113e-01
1.148000000000000000e+03 1.519565343856811523e+00 -5.049269199371337891e+00 9.828828275203704834e-02 3.148028254508972168e-01 1.239273324608802795e-01 2.391551136970520020e-01
1.149000000000000000e+03 1.105063438415527344e+01 -2.810413837432861328e+00 3.803180217742919922e+00 2.775503158569335938e+00 1.973605036735534668e+00 3.378760337829589844e+00
1.150000000000000000e+03 4.260550439357757568e-01 3.568884372711181641e+00 -5.824990570545196533e-03 -5.074281096458435059e-01 -1.539759337902069092e-01 9.804051369428634644e-02
1.151000000000000000e+03 1.425551414489746094e+01 1.801516294479370117e+00 8.425579071044921875e-01 1.095424175262451172e+01 3.539040088653564453e+00 -3.378897607326507568e-01
1.152000000000000000e+03 1.542428684234619141e+01 9.094572663307189941e-01 4.589510917663574219e+00 8.470969200134277344e+00 3.918143987655639648e+00 1.013247609138488770e+00
1.153000000000000000e+03 3.909594345092773438e+01 -1.203257274627685547e+01 7.588222026824951172e-01 1.143584251403808594e+01 3.658399343490600586e+00 -4.345628321170806885e-01
1.154000000000000000e+03 1.824373435974121094e+01 4.113951683044433594e+00 8.565254509449005127e-03 4.874056339263916016e+00 1.464786529541015625e+00 -2.859302163124084473e-01
1.155000000000000000e+03 1.701183509826660156e+01 -3.068375289440155029e-01 5.431910514831542969e+00 4.768824577331542969e+00 3.060220479965209961e+00 -8.519284725189208984e-01
1.156000000000000000e+03 1.446810436248779297e+01 -2.574926614761352539e+00 3.891735553741455078e+00 9.816720962524414062e+00 4.112536907196044922e+00 -1.390119194984436035e+00
1.157000000000000000e+03 1.937397384643554688e+01 -2.650640249252319336e+00 4.557978153228759766e+00 2.133947849273681641e+00 2.007577896118164062e+00 -2.084709644317626953e+00
1.158000000000000000e+03 2.085478401184082031e+01 -1.662173843383789062e+01 -2.840844631195068359e+00 4.550068974494934082e-01 -7.157513499259948730e-01 1.690152883529663086e-01
1.159000000000000000e+03 2.297073554992675781e+01 -1.767833137512207031e+01 -3.013900756835937500e+00 2.513092458248138428e-01 -8.287774324417114258e-01 -2.855790406465530396e-02
1.160000000000000000e+03 6.750916290283203125e+01 -6.254922389984130859e+00 3.092623651027679443e-01 6.978669643402099609e+00 2.186379671096801758e+00 -1.374445080757141113e+00
1.161000000000000000e+03 6.792068481445312500e+01 -7.771293640136718750e+00 2.772661745548248291e-01 8.130075454711914062e+00 2.522202730178833008e+00 -1.801449298858642578e+00
1.162000000000000000e+03 5.377423095703125000e+01 3.491218566894531250e+00 -1.570175051689147949e+00 3.819738328456878662e-01 -3.564603626728057861e-01 1.346983611583709717e-01
1.163000000000000000e+03 1.910437774658203125e+01 -1.579529285430908203e+01 -2.951010227203369141e+00 5.839067101478576660e-01 -7.101311087608337402e-01 1.968910843133926392e-01
1.164000000000000000e+03 2.746944808959960938e+01 -1.649652481079101562e+01 -2.692163944244384766e+00 -4.833627492189407349e-02 -8.221500515937805176e-01 -2.311729788780212402e-01
1.165000000000000000e+03 1.802952957153320312e+01 -1.531041526794433594e+01 -2.904544830322265625e+00 4.667800962924957275e-01 -7.313294410705566406e-01 2.155114859342575073e-01
1.166000000000000000e+03 2.267770767211914062e+01 -1.575998401641845703e+01 -2.228755474090576172e+00 5.102441310882568359e-01 -5.155534148216247559e-01 -1.091697365045547485e-01
1.167000000000000000e+03 1.277090644836425781e+01 2.274417686462402344e+01 6.267049312591552734e-01 7.087605953216552734e+00 2.314293146133422852e+00 -7.151738405227661133e-01
1.168000000000000000e+03 1.275254344940185547e+01 1.971631622314453125e+01 7.944569587707519531e-01 7.517155647277832031e+00 2.493483781814575195e+00 -1.055025815963745117e+00
1.169000000000000000e+03 2.450514221191406250e+01 -3.375472640991210938e+01 -1.160776615142822266e+00 9.522897005081176758e-02 -3.196642994880676270e-01 2.198598980903625488e-01
1.170000000000000000e+03 2.415462112426757812e+01 -1.516537189483642578e+01 -1.685463070869445801e+00 3.511014580726623535e-01 -4.003084897994995117e-01 -2.734066843986511230e-01
1.171000000000000000e+03 2.281521224975585938e+01 -1.666741561889648438e+01 -2.642271995544433594e+00 4.619292020797729492e-01 -6.541028618812561035e-01 -8.798851817846298218e-02
1.172000000000000000e+03 1.727587699890136719e+01 -3.352930831909179688e+01 -1.874702453613281250e+00 -3.263061344623565674e-01 -6.603025794029235840e-01 5.327541828155517578e-01
1.173000000000000000e+03 2.083838081359863281e+01 -3.480105972290039062e+01 -1.224602460861206055e+00 -1.893847137689590454e-01 -4.241961538791656494e-01 2.840569019317626953e-01
1.174000000000000000e+03 3.496564483642578125e+01 -2.017678022384643555e+00 7.663243412971496582e-01 2.034299373626708984e+00 8.401871323585510254e-01 5.353761911392211914e-01
1.175000000000000000e+03 5.152004623413085938e+01 -3.266183090209960938e+01 -4.229892492294311523e-01 1.131139159202575684e+00 2.124449759721755981e-01 -5.826564431190490723e-01
1.176000000000000000e+03 5.205099487304687500e+01 -3.020191001892089844e+01 -1.659829169511795044e-01 6.110075116157531738e-01 1.335073709487915039e-01 -3.076857030391693115e-01
1.177000000000000000e+03 4.841104507446289062e+01 -2.633089447021484375e+01 4.807083904743194580e-01 1.032181739807128906e+00 4.538670480251312256e-01 -7.458571791648864746e-01
1.178000000000000000e+03 3.802976989746093750e+01 -2.062920570373535156e+01 1.006935954093933105e+00 1.052113151550292969e+01 3.458420276641845703e+00 9.701189398765563965e-01
1.179000000000000000e+03 3.703321838378906250e+01 -2.211426734924316406e+01 1.637609004974365234e+00 1.226385593414306641e+01 4.170439720153808594e+00 4.467546641826629639e-01
1.180000000000000000e+03 1.383391475677490234e+01 1.371017837524414062e+01 4.955079853534698486e-01 7.618299007415771484e+00 2.434142112731933594e+00 -1.263929128646850586e+00
1.181000000000000000e+03 4.404202651977539062e+01 1.687329292297363281e+01 7.954913973808288574e-01 6.333737373352050781e+00 2.138768672943115234e+00 1.637143731117248535e+00
1.182000000000000000e+03 1.701270675659179688e+01 -1.473260402679443359e+01 -2.721215248107910156e+00 4.042398631572723389e-01 -6.950926184654235840e-01 2.979690134525299072e-01
1.183000000000000000e+03 2.572604370117187500e+01 -1.576432800292968750e+01 -1.977056860923767090e+00 1.532135158777236938e-01 -5.471529960632324219e-01 -2.298252880573272705e-01
1.184000000000000000e+03 4.091154098510742188e+01 -2.169517898559570312e+01 7.015236616134643555e-01 7.880226135253906250e+00 2.574524879455566406e+00 -4.813203215599060059e-01
1.185000000000000000e+03 4.527572250366210938e+01 -2.572994422912597656e+01 7.843613028526306152e-01 2.633387804031372070e+00 1.025324702262878418e+00 -1.392016291618347168e+00
1.186000000000000000e+03 7.155336761474609375e+01 -2.226781463623046875e+01 7.639041543006896973e-01 1.180886363983154297e+01 3.771830320358276367e+00 -2.145523726940155029e-01
1.187000000000000000e+03 1.779734992980957031e+01 6.974383831024169922e+00 -3.538941740989685059e-01 5.715327739715576172e+00 1.608430147171020508e+00 -8.060535192489624023e-01
1.188000000000000000e+03 1.662153053283691406e+01 9.646223068237304688e+00 1.021348088979721069e-01 7.119699954986572266e+00 2.166550397872924805e+00 -1.511034965515136719e+00
1.189000000000000000e+03 1.220360660552978516e+01 -3.424471282958984375e+01 -1.059050321578979492e+00 -4.173908233642578125e-01 -4.429323375225067139e-01 5.612428188323974609e-01
1.190000000000000000e+03 2.169154357910156250e+01 -9.570977687835693359e-01 4.175363063812255859e+00 7.144811749458312988e-01 1.466953277587890625e+00 -1.934206247329711914e+00
1.191000000000000000e+03 2.247821998596191406e+01 -1.961584448814392090e+00 4.520340919494628906e+00 6.427882313728332520e-01 1.548938751220703125e+00 -1.721948146820068359e+00
1.192000000000000000e+03 7.026282310485839844e+00 -2.964967536926269531e+01 -2.490679979324340820e+00 2.826833724975585938e+00 1.008461415767669678e-01 3.543202280998229980e-01
1.193000000000000000e+03 5.038515090942382812e+01 -2.801453590393066406e+01 1.397172510623931885e-01 7.167202234268188477e-01 2.569312453269958496e-01 -4.736102819442749023e-01
1.194000000000000000e+03 4.947929382324218750e+01 -3.377568435668945312e+01 -4.127772450447082520e-01 1.944949746131896973e+00 4.596517384052276611e-01 -8.564247488975524902e-01
1.195000000000000000e+03 4.433771896362304688e+01 1.977001190185546875e+01 4.323188662528991699e-01 5.655050277709960938e+00 1.826210737228393555e+00 1.116743445396423340e+00
1.196000000000000000e+03 4.459004592895507812e+01 2.609674835205078125e+01 2.865639626979827881e-01 4.472208023071289062e+00 1.427631497383117676e+00 4.280115067958831787e-01
1.197000000000000000e+03 1.966824722290039062e+01 3.115408182144165039e+00 8.132664561271667480e-01 2.647442340850830078e+00 1.038212656974792480e+00 -5.183128118515014648e-01
1.198000000000000000e+03 2.046654510498046875e+01 1.822014212608337402e+00 1.622199535369873047e+00 1.628208875656127930e+00 9.751225113868713379e-01 -9.573069810867309570e-01
1.199000000000000000e+03 4.632247161865234375e+01 -2.447111320495605469e+01 7.041160464286804199e-01 1.671282410621643066e+00 7.126195430755615234e-01 -1.055636644363403320e+00
1.200000000000000000e+03 4.637952804565429688e+01 -2.691242408752441406e+01 5.962541103363037109e-01 2.203339099884033203e+00 8.398779630661010742e-01 -1.271354675292968750e+00
1.201000000000000000e+03 3.833673095703125000e+01 3.804058456420898438e+01 -1.505469799041748047e+00 6.752080321311950684e-01 -2.490785121917724609e-01 5.250458791851997375e-02
1.202000000000000000e+03 4.169168472290039062e+01 -9.888250827789306641e-01 9.281368255615234375e-01 1.097669124603271484e+01 3.571448326110839844e+00 1.891371846199035645e+00
1.203000000000000000e+03 4.131305313110351562e+01 -2.342972040176391602e+00 1.925653815269470215e+00 1.171534442901611328e+01 4.092299461364746094e+00 2.924649953842163086e+00
1.204000000000000000e+03 6.154863739013671875e+01 -3.558427429199218750e+01 -3.150915801525115967e-01 4.759321808815002441e-01 4.825218766927719116e-02 2.820148468017578125e-01
1.205000000000000000e+03 4.036979293823242188e+01 -7.913761138916015625e+00 1.529078722000122070e+00 1.380731678009033203e+01 4.600918769836425781e+00 1.367116928100585938e+00
1.206000000000000000e+03 4.316850280761718750e+01 2.428971290588378906e+01 1.116447299718856812e-01 4.978394508361816406e+00 1.527011752128601074e+00 3.190495073795318604e-01
1.207000000000000000e+03 4.465461730957031250e+01 2.446480369567871094e+01 2.626701891422271729e-01 4.754979133605957031e+00 1.505294799804687500e+00 5.688215494155883789e-01
1.208000000000000000e+03 4.442332839965820312e+01 2.126690483093261719e+01 3.243042528629302979e-01 5.395535945892333984e+00 1.715952038764953613e+00 9.152270555496215820e-01
1.209000000000000000e+03 7.597223663330078125e+01 -1.628039741516113281e+01 3.978697657585144043e-01 8.173933982849121094e+00 2.571541070938110352e+00 1.049721390008926392e-01
1.210000000000000000e+03 4.336271286010742188e+01 1.114130401611328125e+01 1.528901934623718262e+00 7.546852111816406250e+00 2.722726345062255859e+00 2.890053749084472656e+00
1.211000000000000000e+03 4.354658126831054688e+01 1.258593082427978516e+01 1.380267858505249023e+00 7.268598556518554688e+00 2.594660043716430664e+00 2.574645280838012695e+00
1.212000000000000000e+03 6.981307220458984375e+01 -8.874881744384765625e+00 -2.013320662081241608e-02 9.408967971801757812e+00 2.816650390625000000e+00 -8.103120923042297363e-01
1.213000000000000000e+03 7.110785675048828125e+01 -1.854279899597167969e+01 4.637759625911712646e-01 1.299015903472900391e+01 4.036180496215820312e+00 -5.190600156784057617e-01
1.214000000000000000e+03 6.996259307861328125e+01 -1.878353309631347656e+01 1.768034249544143677e-01 1.425812435150146484e+01 4.330478191375732422e+00 -4.365595877170562744e-01
1.215000000000000000e+03 1.911184501647949219e+01 4.497456550598144531e+00 -1.039763391017913818e-01 3.644147872924804688e+00 1.062051415443420410e+00 -3.348057568073272705e-01
1.216000000000000000e+03 4.252684783935546875e+01 -2.212707519531250000e+01 6.461608409881591797e-01 5.948787689208984375e+00 1.978484511375427246e+00 -1.220016598701477051e+00
1.217000000000000000e+03 4.336568450927734375e+01 -2.330641746520996094e+01 9.122571945190429688e-01 4.329467296600341797e+00 1.572517395019531250e+00 -1.392473340034484863e+00
1.218000000000000000e+03 7.379539489746093750e+01 -3.813640213012695312e+01 -3.785302937030792236e-01 8.257410049438476562e+00 2.363663911819458008e+00 -3.712753951549530029e-01
1.219000000000000000e+03 7.684839630126953125e+01 -3.621307754516601562e+01 -2.704279124736785889e-01 9.851179122924804688e+00 2.874225378036499023e+00 -3.618398010730743408e-01
1.220000000000000000e+03 7.517726135253906250e+01 -2.362290954589843750e+01 4.392808973789215088e-01 9.068263053894042969e+00 2.852263212203979492e+00 -8.876587152481079102e-01
1.221000000000000000e+03 7.811362457275390625e+01 -2.780411720275878906e+01 -2.345255203545093536e-02 8.391909599304199219e+00 2.510537147521972656e+00 -7.847407460212707520e-01
1.222000000000000000e+03 7.542433166503906250e+01 1.427856826782226562e+01 6.493377685546875000e-02 6.831165790557861328e+00 2.068830013275146484e+00 -5.120010375976562500e-01
1.223000000000000000e+03 7.676938629150390625e+01 1.563404750823974609e+01 4.546703025698661804e-02 7.022850990295410156e+00 2.120495319366455078e+00 -3.573041856288909912e-01
1.224000000000000000e+03 7.708779907226562500e+01 -2.342589187622070312e+01 1.765836775302886963e-01 7.846431732177734375e+00 2.406904697418212891e+00 -6.825492382049560547e-01
1.225000000000000000e+03 7.674546813964843750e+01 -3.019677925109863281e+01 -8.530820906162261963e-02 9.087500572204589844e+00 2.700657844543457031e+00 -1.069723606109619141e+00
1.226000000000000000e+03 7.778314971923828125e+01 -3.451242828369140625e+01 -1.344241797924041748e-01 1.000579261779785156e+01 2.961410522460937500e+00 -4.311311542987823486e-01
1.227000000000000000e+03 7.573221588134765625e+01 -2.941192626953125000e+01 -1.231604814529418945e-01 9.103488922119140625e+00 2.694098472595214844e+00 -1.208779692649841309e+00
1.228000000000000000e+03 7.585169219970703125e+01 -2.731563758850097656e+01 1.680497527122497559e-01 8.941330909729003906e+00 2.732814073562622070e+00 -1.257468342781066895e+00
1.229000000000000000e+03 7.683974456787109375e+01 -2.467064857482910156e+01 2.256171703338623047e-01 8.175431251525878906e+00 2.520314455032348633e+00 -9.108977913856506348e-01
1.230000000000000000e+03 7.584861755371093750e+01 -2.423580741882324219e+01 3.821312487125396729e-01 8.714057922363281250e+00 2.728856801986694336e+00 -9.290786385536193848e-01
1.231000000000000000e+03 7.650086212158203125e+01 -3.284207916259765625e+01 -2.115062624216079712e-01 9.409068107604980469e+00 2.759268522262573242e+00 -7.905350327491760254e-01
1.232000000000000000e+03 7.625193023681640625e+01 -3.417164230346679688e+01 -3.801595568656921387e-01 9.449397087097167969e+00 2.720771074295043945e+00 -6.748850941658020020e-01
1.233000000000000000e+03 7.489359283447265625e+01 -2.814061737060546875e+01 -4.603319615125656128e-02 9.133073806762695312e+00 2.726112365722656250e+00 -1.348162889480590820e+00
1.234000000000000000e+03 7.656668090820312500e+01 -3.146481132507324219e+01 -2.831890285015106201e-01 9.270526885986328125e+00 2.696201562881469727e+00 -9.732465744018554688e-01
1.235000000000000000e+03 7.497367858886718750e+01 -4.031021881103515625e+01 -1.205279603600502014e-01 9.137072563171386719e+00 2.704963445663452148e+00 -3.124077320098876953e-01
1.236000000000000000e+03 7.796855163574218750e+01 2.241330528259277344e+01 2.254378236830234528e-02 6.713191986083984375e+00 2.020720720291137695e+00 -1.112026348710060120e-01
1.237000000000000000e+03 7.669406890869140625e+01 2.100401115417480469e+01 5.367889627814292908e-02 6.621231079101562500e+00 2.002472877502441406e+00 -2.122032940387725830e-01
1.238000000000000000e+03 7.509822082519531250e+01 2.226960945129394531e+01 1.052231714129447937e-01 6.322195529937744141e+00 1.928225636482238770e+00 -2.423722743988037109e-01
1.239000000000000000e+03 7.673961639404296875e+01 1.423545742034912109e+01 2.925846166908740997e-02 7.138074874877929688e+00 2.150200128555297852e+00 -3.895073831081390381e-01
1.240000000000000000e+03 7.804695129394531250e+01 1.274290943145751953e+01 3.344652010127902031e-03 7.603616237640380859e+00 2.282088279724121094e+00 -2.652381360530853271e-01
1.241000000000000000e+03 7.555185699462890625e+01 8.753216743469238281e+00 -4.905862733721733093e-02 7.374474048614501953e+00 2.197624683380126953e+00 -5.287874937057495117e-01
1.242000000000000000e+03 7.646500396728515625e+01 2.382114982604980469e+01 5.472405254840850830e-02 6.471581459045410156e+00 1.957891583442687988e+00 -1.421702504158020020e-01
1.243000000000000000e+03 7.790314483642578125e+01 2.656074523925781250e+01 1.231765467673540115e-02 6.556699275970458984e+00 1.970705032348632812e+00 -4.822158813476562500e-02
1.244000000000000000e+03 7.674942016601562500e+01 1.283003997802734375e+01 2.577454037964344025e-02 7.279275417327880859e+00 2.191514968872070312e+00 -4.134915173053741455e-01
1.245000000000000000e+03 7.817739105224609375e+01 -2.077654075622558594e+01 1.042076423764228821e-01 6.654343605041503906e+00 2.027565240859985352e+00 -3.163726329803466797e-01
1.246000000000000000e+03 7.709021759033203125e+01 -2.214247894287109375e+01 2.056044042110443115e-01 7.687564849853515625e+00 2.367950916290283203e+00 -5.842602849006652832e-01
1.247000000000000000e+03 7.768460845947265625e+01 3.074713706970214844e+01 5.749204661697149277e-03 6.499314308166503906e+00 1.951519131660461426e+00 -3.435831982642412186e-03
1.248000000000000000e+03 7.648023223876953125e+01 2.657781982421875000e+01 3.979319706559181213e-02 6.394320487976074219e+00 1.930234074592590332e+00 -7.326527684926986694e-02
1.249000000000000000e+03 7.680736541748046875e+01 8.685301780700683594e+00 -3.896544128656387329e-02 7.743329524993896484e+00 2.311309337615966797e+00 -4.033548831939697266e-01
1.250000000000000000e+03 7.348725891113281250e+01 -2.054381942749023438e+01 5.097224116325378418e-01 1.048239707946777344e+01 3.297636032104492188e+00 -4.473682343959808350e-01
1.251000000000000000e+03 7.602063751220703125e+01 -9.243465423583984375e+00 -1.933898311108350754e-03 8.138955116271972656e+00 2.441106557846069336e+00 7.998247146606445312e-01
1.252000000000000000e+03 7.687098693847656250e+01 -1.206893920898437500e+01 1.638225615024566650e-01 7.587336540222167969e+00 2.325347900390625000e+00 6.458134055137634277e-01
1.253000000000000000e+03 7.543692016601562500e+01 -2.451858758926391602e+00 -3.036639988422393799e-01 8.169322013854980469e+00 2.359697341918945312e+00 3.474366366863250732e-01
1.254000000000000000e+03 7.704234313964843750e+01 -8.111707687377929688e+00 -5.141027271747589111e-02 7.924536705017089844e+00 2.361937999725341797e+00 7.124772667884826660e-01
1.255000000000000000e+03 7.693026733398437500e+01 3.191825151443481445e+00 -1.272709965705871582e-01 8.272283554077148438e+00 2.443503618240356445e+00 -1.340420544147491455e-01
1.256000000000000000e+03 7.543911743164062500e+01 3.639134979248046875e+01 -1.880863122642040253e-02 6.280729770660400391e+00 1.878576278686523438e+00 3.317291662096977234e-02
1.257000000000000000e+03 7.831159210205078125e+01 3.601591873168945312e+01 -1.675620861351490021e-02 6.519191741943359375e+00 1.950730681419372559e+00 -1.092130085453391075e-03
1.258000000000000000e+03 7.682511901855468750e+01 1.964406013488769531e+01 5.236158892512321472e-02 6.713863849639892578e+00 2.029867649078369141e+00 -2.397818267345428467e-01
1.259000000000000000e+03 7.808650970458984375e+01 7.200726032257080078e+00 -2.910630404949188232e-02 8.296754837036132812e+00 2.480294466018676758e+00 -2.267781347036361694e-01
1.260000000000000000e+03 7.684717559814453125e+01 5.951885700225830078e+00 -8.626897633075714111e-02 8.027035713195800781e+00 2.382229804992675781e+00 -3.107929527759552002e-01
1.261000000000000000e+03 7.807740783691406250e+01 -1.172999024391174316e+00 -7.913434505462646484e-02 8.624748229980468750e+00 2.563684225082397461e+00 2.001180201768875122e-01
1.262000000000000000e+03 7.676009368896484375e+01 -2.515530586242675781e+00 -1.785018742084503174e-01 8.329376220703125000e+00 2.445262193679809570e+00 3.606237769126892090e-01
1.263000000000000000e+03 7.706330871582031250e+01 -9.394336700439453125e+00 2.066892571747303009e-02 7.795206069946289062e+00 2.344762563705444336e+00 7.343820929527282715e-01
1.264000000000000000e+03 7.703211975097656250e+01 -1.635279273986816406e+01 2.623859643936157227e-01 7.370687961578369141e+00 2.289922237396240234e+00 9.617856889963150024e-02
1.265000000000000000e+03 7.429331207275390625e+01 3.454746627807617188e+01 3.220103913918137550e-03 6.132436752319335938e+00 1.840697169303894043e+00 2.674511261284351349e-02
1.266000000000000000e+03 7.234122467041015625e+01 3.538289642333984375e+01 -1.251867972314357758e-03 5.946980476379394531e+00 1.783718585968017578e+00 4.147702455520629883e-02
1.267000000000000000e+03 7.641914367675781250e+01 3.120115470886230469e+01 1.647831685841083527e-02 6.341357707977294922e+00 1.907350778579711914e+00 8.261741138994693756e-03
1.268000000000000000e+03 7.807692718505859375e+01 8.578302383422851562e+00 -1.282465364784002304e-02 8.135481834411621094e+00 2.436797142028808594e+00 -2.529067993164062500e-01
1.269000000000000000e+03 7.679227447509765625e+01 1.005154228210449219e+01 -8.005652576684951782e-03 7.591021537780761719e+00 2.274904727935791016e+00 -4.170158505439758301e-01
1.270000000000000000e+03 7.693788146972656250e+01 -1.491989803314208984e+01 2.352417856454849243e-01 7.437538146972656250e+00 2.301833868026733398e+00 3.207290470600128174e-01
1.271000000000000000e+03 7.694815063476562500e+01 -6.814751148223876953e+00 -8.346070349216461182e-02 8.060940742492675781e+00 2.393244028091430664e+00 6.811113357543945312e-01
1.272000000000000000e+03 7.723651885986328125e+01 3.493334579467773438e+01 -9.815419092774391174e-03 6.458739280700683594e+00 1.934677124023437500e+00 -4.099648445844650269e-03
1.273000000000000000e+03 7.813577270507812500e+01 3.056465148925781250e+00 -4.850624874234199524e-02 8.656482696533203125e+00 2.582392930984497070e+00 -7.024072855710983276e-02
1.274000000000000000e+03 7.688739776611328125e+01 4.572667121887207031e+00 -1.086773946881294250e-01 8.167082786560058594e+00 2.417521715164184570e+00 -2.371247857809066772e-01
1.275000000000000000e+03 7.681804656982421875e+01 -1.039016842842102051e+00 -1.666846573352813721e-01 8.366527557373046875e+00 2.459952831268310547e+00 2.295847833156585693e-01
1.276000000000000000e+03 7.811072540283203125e+01 -5.448742866516113281e+00 -4.933902993798255920e-02 8.148041725158691406e+00 2.429610967636108398e+00 4.581052362918853760e-01
1.277000000000000000e+03 7.687288665771484375e+01 -5.440422058105468750e+00 -1.343242824077606201e-01 8.188120841979980469e+00 2.416139125823974609e+00 6.071462631225585938e-01
1.278000000000000000e+03 7.680324554443359375e+01 -3.997692823410034180e+00 -1.639236062765121460e-01 8.276973724365234375e+00 2.433915138244628906e+00 4.939559102058410645e-01
1.279000000000000000e+03 7.814189910888671875e+01 -1.227116394042968750e+01 6.190287694334983826e-02 6.844699382781982422e+00 2.071980714797973633e+00 4.468429088592529297e-01
1.280000000000000000e+03 7.696533966064453125e+01 -1.070966815948486328e+01 7.725615799427032471e-02 7.694756507873535156e+00 2.331603765487670898e+00 7.113080620765686035e-01
1.281000000000000000e+03 7.693047332763671875e+01 -1.923517608642578125e+01 2.312630563974380493e-01 7.578977108001708984e+00 2.343071937561035156e+00 -2.917075455188751221e-01
1.282000000000000000e+03 7.703667449951171875e+01 -1.777822113037109375e+01 2.287767976522445679e-01 7.395873069763183594e+00 2.287395000457763672e+00 -6.947129964828491211e-02
1.283000000000000000e+03 7.594563293457031250e+01 -1.758569717407226562e+01 3.844580650329589844e-01 8.256054878234863281e+00 2.592153787612915039e+00 -1.260481029748916626e-01
1.284000000000000000e+03 1.529347610473632812e+01 3.857314586639404297e+00 -3.933957815170288086e-01 8.353485107421875000e+00 2.388026714324951172e+00 -4.354010224342346191e-01
1.285000000000000000e+03 1.456210422515869141e+01 3.099064445495605469e+01 -6.269993185997009277e-01 4.074588775634765625e+00 1.034276843070983887e+00 -2.945743501186370850e-01
1.286000000000000000e+03 7.100539398193359375e+01 -1.723181533813476562e+01 7.537972927093505859e-01 1.296629238128662109e+01 4.116026878356933594e+00 -7.862508296966552734e-01
1.287000000000000000e+03 4.180352020263671875e+01 9.907748222351074219e+00 1.478785276412963867e+00 9.615407943725585938e+00 3.328258037567138672e+00 3.227684974670410156e+00
1.288000000000000000e+03 3.779178857803344727e+00 3.078839492797851562e+01 -9.219944477081298828e-02 3.270035028457641602e+00 9.533506631851196289e-01 -1.006517291069030762e+00
1.289000000000000000e+03 1.920415997505187988e+00 2.726341056823730469e+01 4.642155952751636505e-03 2.063101530075073242e+00 6.203230619430541992e-01 -6.433651447296142578e-01
1.290000000000000000e+03 6.314405918121337891e+00 3.275078582763671875e+01 -3.799434900283813477e-01 3.815241813659667969e+00 1.030589580535888672e+00 -1.181609749794006348e+00
1.291000000000000000e+03 2.040847778320312500e+00 3.586595535278320312e+01 -1.023992151021957397e-01 4.201515197753906250e+00 1.229734778404235840e+00 -3.543697297573089600e-01
1.292000000000000000e+03 3.263712406158447266e+00 2.428977966308593750e+01 9.936906397342681885e-02 1.857622742652893066e+00 5.870975255966186523e-01 -8.952327370643615723e-01
1.293000000000000000e+03 3.195570468902587891e+00 2.957948112487792969e+01 -4.460378363728523254e-02 2.951669454574584961e+00 8.721196651458740234e-01 -9.218106865882873535e-01
1.294000000000000000e+03 2.162126541137695312e+00 3.455539321899414062e+01 -1.026912927627563477e-01 3.952246904373168945e+00 1.154866695404052734e+00 -4.961455464363098145e-01
1.295000000000000000e+03 3.252273321151733398e+00 3.587805938720703125e+01 -2.055648714303970337e-01 4.143427371978759766e+00 1.181358695030212402e+00 -5.467321276664733887e-01
1.296000000000000000e+03 4.034671783447265625e+00 3.344452667236328125e+01 -1.746369153261184692e-01 3.703955173492431641e+00 1.058795452117919922e+00 -8.945286273956298828e-01
1.297000000000000000e+03 5.720309734344482422e+00 3.054994773864746094e+01 -1.919962316751480103e-01 3.540311336517333984e+00 1.004494547843933105e+00 -1.310497760772705078e+00
1.298000000000000000e+03 4.861388206481933594e+00 3.190721321105957031e+01 -2.004223614931106567e-01 3.577377557754516602e+00 1.013086557388305664e+00 -1.096303462982177734e+00
1.299000000000000000e+03 3.407220840454101562e+00 -3.541880416870117188e+01 -2.852263748645782471e-01 6.237981796264648438e+00 1.785826683044433594e+00 -3.598137199878692627e-01
1.300000000000000000e+03 1.669174313545227051e+00 -3.451684570312500000e+01 -4.852081090211868286e-02 7.897647380828857422e+00 2.354737997055053711e+00 -1.350341737270355225e-01
1.301000000000000000e+03 5.703134536743164062e+00 -3.350231552124023438e+01 -9.451638460159301758e-01 4.093187332153320312e+00 9.444070458412170410e-01 -2.013000696897506714e-01
1.302000000000000000e+03 2.389028072357177734e+00 -2.884766960144042969e+01 -5.681076645851135254e-01 6.698217391967773438e+00 1.839032888412475586e+00 1.586885571479797363e+00
1.303000000000000000e+03 2.277081012725830078e+00 -3.048338508605957031e+01 -5.708898305892944336e-01 7.156756401062011719e+00 1.975759983062744141e+00 8.801393508911132812e-01
1.304000000000000000e+03 1.958449125289916992e+00 2.164357185363769531e+01 4.979042708873748779e-02 6.416766643524169922e-01 2.074401229619979858e-01 -4.943519234657287598e-01
1.305000000000000000e+03 3.032995700836181641e+00 1.723323249816894531e+01 1.200591549277305603e-01 6.031240820884704590e-01 2.169549614191055298e-01 -3.658569455146789551e-01
1.306000000000000000e+03 2.958582401275634766e+00 1.301835441589355469e+01 9.581825137138366699e-02 2.187379598617553711e-01 9.436686336994171143e-02 -1.141979321837425232e-01
1.307000000000000000e+03 3.926969289779663086e+00 -1.077735710144042969e+01 -4.098370373249053955e-01 2.571086883544921875e+00 6.483749747276306152e-01 9.708757996559143066e-01
1.308000000000000000e+03 3.122485160827636719e+00 -2.415381431579589844e+01 5.373411774635314941e-01 6.033198356628417969e+00 1.971161842346191406e+00 2.164225339889526367e+00
1.309000000000000000e+03 1.687995076179504395e+00 -1.488642597198486328e+01 -1.450129449367523193e-01 2.145695209503173828e+00 6.002046465873718262e-01 -3.361939787864685059e-01
1.310000000000000000e+03 2.808704376220703125e+00 -1.215381813049316406e+01 -3.424533009529113770e-01 2.520817518234252930e+00 6.535092592239379883e-01 3.610432744026184082e-01
1.311000000000000000e+03 1.661854267120361328e+00 -7.840922355651855469e+00 1.660151965916156769e-02 9.684541225433349609e-01 2.955166995525360107e-01 4.435180425643920898e-01
1.312000000000000000e+03 5.187412261962890625e+00 -4.396513938903808594e+00 7.829968333244323730e-01 6.133637428283691406e-01 4.189081788063049316e-01 9.445527195930480957e-01
1.313000000000000000e+03 2.653272390365600586e+00 7.545929431915283203e+00 8.766549080610275269e-02 -1.987934857606887817e-01 -3.333839774131774902e-02 1.636630147695541382e-01
1.314000000000000000e+03 1.629119515419006348e+00 6.196380615234375000e+00 4.842211306095123291e-02 -5.732333064079284668e-01 -1.574433594942092896e-01 2.145042419433593750e-01
1.315000000000000000e+03 1.810677647590637207e+00 1.462039852142333984e+01 3.763534128665924072e-02 -4.538755416870117188e-01 -1.248720586299896240e-01 -1.182141900062561035e-01
1.316000000000000000e+03 3.032140016555786133e+00 1.586125564575195312e+01 9.952993690967559814e-02 4.686274826526641846e-01 1.704472154378890991e-01 -2.751468122005462646e-01
1.317000000000000000e+03 2.770157814025878906e+00 1.020308208465576172e+01 8.084164559841156006e-02 -3.488284721970558167e-02 1.378764118999242783e-02 2.018413692712783813e-02
1.318000000000000000e+03 2.810834646224975586e+00 -7.798929214477539062e+00 4.765627533197402954e-02 1.256772756576538086e+00 3.913286924362182617e-01 7.658370733261108398e-01
1.319000000000000000e+03 2.448606252670288086e+00 -5.157721519470214844e+00 2.053957134485244751e-01 4.814596176147460938e-01 2.060565948486328125e-01 4.006519019603729248e-01
1.320000000000000000e+03 4.023203849792480469e+00 -1.602568244934082031e+01 -2.229096144437789917e-01 4.754889488220214844e+00 1.359593868255615234e+00 -4.723174870014190674e-02
1.321000000000000000e+03 1.744356751441955566e+00 -1.760894584655761719e+01 9.017319232225418091e-02 2.159394979476928711e+00 6.748704314231872559e-01 -4.154474139213562012e-01
1.322000000000000000e+03 2.897685289382934570e+00 -2.245860862731933594e+01 8.338096141815185547e-01 5.313985347747802734e+00 1.844338417053222656e+00 1.481889963150024414e+00
1.323000000000000000e+03 4.629265785217285156e+00 -1.960809707641601562e+01 1.493056416511535645e+00 7.345276832580566406e+00 2.651499986648559570e+00 1.163281083106994629e+00
1.324000000000000000e+03 1.948061823844909668e+00 -2.433481788635253906e+01 3.537256121635437012e-01 4.388467311859130859e+00 1.422657847404479980e+00 1.710213780403137207e+00
1.325000000000000000e+03 3.265373945236206055e+00 -2.534491920471191406e+01 3.524038195610046387e-01 6.188632965087890625e+00 1.962311029434204102e+00 2.278836011886596680e+00
1.326000000000000000e+03 2.026936292648315430e+00 -2.575470924377441406e+01 5.803820863366127014e-02 5.234110832214355469e+00 1.587644696235656738e+00 2.038977622985839844e+00
1.327000000000000000e+03 3.260725498199462891e+00 2.142077827453613281e+01 1.334962397813796997e-01 1.329215764999389648e+00 4.388135969638824463e-01 -7.252772450447082520e-01
1.328000000000000000e+03 2.811761617660522461e+00 -9.279386520385742188e+00 -1.103102415800094604e-01 1.717125415802001953e+00 4.820445477962493896e-01 7.540007233619689941e-01
1.329000000000000000e+03 2.812075376510620117e+00 -1.486443805694580078e+01 -3.368463516235351562e-01 3.162571668624877930e+00 8.477175831794738770e-01 -2.005809247493743896e-01
1.330000000000000000e+03 4.388717651367187500e+00 -3.625239181518554688e+01 -2.579882442951202393e-01 5.512942314147949219e+00 1.576486229896545410e+00 -3.904869556427001953e-01
1.331000000000000000e+03 1.809851408004760742e+00 -3.552311325073242188e+01 -1.622557938098907471e-01 7.667232036590576172e+00 2.251492738723754883e+00 -3.147998452186584473e-01
1.332000000000000000e+03 3.016776084899902344e+00 -3.361298370361328125e+01 -3.729033172130584717e-01 6.660187721252441406e+00 1.886185288429260254e+00 -3.102546930313110352e-02
1.333000000000000000e+03 4.641045570373535156e+00 -3.291463088989257812e+01 -9.571917057037353516e-01 5.363935947418212891e+00 1.322023272514343262e+00 5.910493060946464539e-02
1.334000000000000000e+03 2.882542610168457031e+00 1.159400081634521484e+01 7.212749868631362915e-02 9.221880137920379639e-02 4.930388927459716797e-02 -4.375321418046951294e-02
1.335000000000000000e+03 4.111786365509033203e+00 1.286730098724365234e+01 1.455407738685607910e-01 9.657257795333862305e-01 3.333799839019775391e-01 -1.756495237350463867e-01
1.336000000000000000e+03 3.010573148727416992e+00 1.445327186584472656e+01 8.780069649219512939e-02 3.400734066963195801e-01 1.283622384071350098e-01 -1.977057009935379028e-01
1.337000000000000000e+03 3.135828018188476562e+00 2.000592994689941406e+01 1.554645001888275146e-01 1.058646917343139648e+00 3.642334043979644775e-01 -5.955318212509155273e-01
1.338000000000000000e+03 3.312489509582519531e+00 2.285467338562011719e+01 1.061173602938652039e-01 1.601539611816406250e+00 5.122970938682556152e-01 -8.260431289672851562e-01
1.339000000000000000e+03 3.051743507385253906e+00 1.860712242126464844e+01 1.436168402433395386e-01 8.001415729522705078e-01 2.831275165081024170e-01 -4.776569008827209473e-01
1.340000000000000000e+03 3.726818847656250000e+01 -2.477989196777343750e+01 2.335277557373046875e+00 1.072547531127929688e+01 3.918225765228271484e+00 6.187095046043395996e-01
1.341000000000000000e+03 3.537363433837890625e+01 -2.786736297607421875e+01 1.018322467803955078e+00 9.576876640319824219e+00 3.178559780120849609e+00 1.740276336669921875e+00
1.342000000000000000e+03 1.406553173065185547e+01 1.228071117401123047e+01 2.705629467964172363e-01 7.315639972686767578e+00 2.275860786437988281e+00 -1.254997014999389648e+00
1.343000000000000000e+03 7.113932037353515625e+01 -2.517804145812988281e+01 9.897442460060119629e-01 1.131480026245117188e+01 3.691363334655761719e+00 -4.157869517803192139e-01
1.344000000000000000e+03 4.027233505249023438e+01 -9.317775726318359375e+00 9.241032600402832031e-01 1.403269958496093750e+01 4.487040996551513672e+00 4.741193056106567383e-01
1.345000000000000000e+03 3.615826034545898438e+01 -1.342292308807373047e+01 5.800104737281799316e-01 7.943442344665527344e+00 2.557035923004150391e+00 -9.370148777961730957e-01
1.346000000000000000e+03 4.252321624755859375e+01 1.599121332168579102e+00 -1.494892835617065430e+00 9.690458297729492188e+00 2.458669424057006836e+00 2.531713724136352539e+00
1.347000000000000000e+03 6.937803649902343750e+01 -1.328265380859375000e+01 1.241174697875976562e+00 1.325876617431640625e+01 4.349982261657714844e+00 -1.517469882965087891e+00
1.348000000000000000e+03 7.003904724121093750e+01 -1.032888603210449219e+01 2.136456370353698730e-01 1.034133815765380859e+01 3.166495084762573242e+00 -7.008040547370910645e-01
1.349000000000000000e+03 1.390750789642333984e+01 1.097304725646972656e+01 3.290770575404167175e-02 6.968581199645996094e+00 2.100446701049804688e+00 -1.118095278739929199e+00
1.350000000000000000e+03 5.162309265136718750e+01 1.427670240402221680e+00 -3.573375225067138672e+00 2.494805008172988892e-01 -9.971684217453002930e-01 6.772035360336303711e-01
1.351000000000000000e+03 5.054798889160156250e+01 5.222223281860351562e+00 -2.200210243463516235e-01 6.559774875640869141e-01 1.307869404554367065e-01 6.694723963737487793e-01
1.352000000000000000e+03 2.756000137329101562e+01 -1.481584739685058594e+01 -8.060194253921508789e-01 -2.738618524745106697e-03 -2.426274120807647705e-01 -6.791426539421081543e-01
1.353000000000000000e+03 4.265140914916992188e+01 8.324467658996582031e+00 1.661449193954467773e+00 8.076066970825195312e+00 2.921254873275756836e+00 3.174360752105712891e+00
1.354000000000000000e+03 9.112162590026855469e+00 -3.250386428833007812e+01 -1.692907452583312988e+00 5.137872695922851562e-01 -3.537360429763793945e-01 5.011083185672760010e-02
1.355000000000000000e+03 1.636919212341308594e+01 5.353987216949462891e+00 -7.806391716003417969e-01 7.032658576965332031e+00 1.875605821609497070e+00 -4.250602424144744873e-01
1.356000000000000000e+03 1.380735588073730469e+01 2.933576965332031250e+01 -3.414575457572937012e-01 4.811312198638916016e+00 1.340956449508666992e+00 -4.937029778957366943e-01
1.357000000000000000e+03 3.681266403198242188e+01 3.165498673915863037e-01 -5.879383683204650879e-01 4.811100006103515625e+00 1.266948461532592773e+00 1.302393317222595215e+00
1.358000000000000000e+03 5.411557388305664062e+01 6.614206433296203613e-01 -3.359845876693725586e+00 9.462504088878631592e-02 -9.795662760734558105e-01 6.711934208869934082e-01
1.359000000000000000e+03 2.076533699035644531e+01 -4.200832173228263855e-02 3.429335832595825195e+00 1.194056987762451172e+00 1.387017846107482910e+00 -1.704808592796325684e+00
1.360000000000000000e+03 4.384933090209960938e+01 1.545622348785400391e+01 1.016738295555114746e+00 6.699612617492675781e+00 2.314905166625976562e+00 1.882150650024414062e+00
1.361000000000000000e+03 4.553821563720703125e+01 1.815842819213867188e+01 8.571445941925048828e-01 5.430801868438720703e+00 1.886383891105651855e+00 1.579251050949096680e+00
1.362000000000000000e+03 3.704062271118164062e+01 -1.343349075317382812e+01 3.172631859779357910e-01 9.049888610839843750e+00 2.810145616531372070e+00 -7.011095881462097168e-01
1.363000000000000000e+03 3.230696868896484375e+01 4.160980987548828125e+01 -1.720419526100158691e+00 -4.783568382263183594e-01 -6.596329212188720703e-01 6.888727843761444092e-02
1.364000000000000000e+03 1.349189758300781250e+01 1.511254978179931641e+01 7.033458352088928223e-01 7.701080799102783203e+00 2.521327972412109375e+00 -1.201393961906433105e+00
1.365000000000000000e+03 1.410496616363525391e+01 1.821564102172851562e+01 8.743540644645690918e-01 9.073454856872558594e+00 2.984342575073242188e+00 -1.266394376754760742e+00
1.366000000000000000e+03 4.303437805175781250e+01 9.718401908874511719e+00 1.747114062309265137e+00 7.846774578094482422e+00 2.878166437149047852e+00 3.182737350463867188e+00
1.367000000000000000e+03 7.137613677978515625e+01 -1.029329395294189453e+01 2.019958049058914185e-01 9.946984291076660156e+00 3.044693946838378906e+00 -3.298378735780715942e-02
1.368000000000000000e+03 2.316871261596679688e+01 4.119519042968750000e+01 -1.559223651885986328e+00 5.907330289483070374e-02 -4.500451087951660156e-01 -4.604076221585273743e-02
1.369000000000000000e+03 6.668664550781250000e+01 -3.435011291503906250e+01 -8.609603047370910645e-01 4.163030147552490234e+00 9.906210303306579590e-01 8.995833396911621094e-01
1.370000000000000000e+03 2.938200569152832031e+01 -5.026846885681152344e+00 3.500429391860961914e+00 3.148173391819000244e-01 1.144574046134948730e+00 -2.185132741928100586e+00
1.371000000000000000e+03 2.817649650573730469e+01 -3.614772081375122070e+00 3.731946706771850586e+00 4.000495672225952148e-01 1.239598870277404785e+00 -2.064751625061035156e+00
1.372000000000000000e+03 1.798956298828125000e+01 -3.491872787475585938e+01 -1.250550508499145508e+00 -4.228262305259704590e-01 -5.020130276679992676e-01 5.079636573791503906e-01
1.373000000000000000e+03 3.321377563476562500e+01 -2.081639051437377930e+00 7.136570215225219727e-01 1.066028401255607605e-01 2.460779547691345215e-01 -2.958396375179290771e-01
1.374000000000000000e+03 3.686958694458007812e+01 -8.799468040466308594e+00 2.205224275588989258e+00 7.510198593139648438e+00 2.914626836776733398e+00 -1.039208099246025085e-02
1.375000000000000000e+03 5.019381046295166016e+00 -2.126750755310058594e+01 1.742313981056213379e+00 9.580817222595214844e+00 3.396939277648925781e+00 1.863508462905883789e+00
1.376000000000000000e+03 6.071589469909667969e+00 -1.905728721618652344e+01 2.023230552673339844e+00 9.607669830322265625e+00 3.489269971847534180e+00 2.708054780960083008e+00
1.377000000000000000e+03 5.434755325317382812e+00 -1.739023780822753906e+01 4.536864459514617920e-01 7.002684116363525391e+00 2.236911296844482422e+00 8.201909661293029785e-01
1.378000000000000000e+03 3.226910781860351562e+01 -5.007598876953125000e+00 3.029454708099365234e+00 7.813518643379211426e-01 1.143242001533508301e+00 -1.085529804229736328e+00
1.379000000000000000e+03 4.314251708984375000e+01 4.107728958129882812e+00 -8.393033742904663086e-01 7.271008968353271484e+00 1.929511666297912598e+00 2.883996009826660156e+00
1.380000000000000000e+03 4.107305908203125000e+01 5.192665576934814453e+00 4.973776340484619141e-01 9.608819961547851562e+00 3.031859159469604492e+00 2.828138351440429688e+00
1.381000000000000000e+03 1.548845195770263672e+01 3.240460205078125000e+01 -8.361818194389343262e-01 3.308088779449462891e+00 7.415720820426940918e-01 -1.402965486049652100e-01
1.382000000000000000e+03 1.278302288055419922e+01 1.815302276611328125e+01 9.128457903861999512e-01 7.458003997802734375e+00 2.511255025863647461e+00 -1.083145856857299805e+00
1.383000000000000000e+03 1.688197708129882812e+01 -1.315068912506103516e+01 -1.541492342948913574e+00 7.327579259872436523e-01 -2.426203340291976929e-01 1.766445040702819824e-01
1.384000000000000000e+03 1.608368873596191406e+01 -1.405735111236572266e+01 -2.305487871170043945e+00 2.562960684299468994e-01 -6.147575378417968750e-01 4.267524480819702148e-01
1.385000000000000000e+03 3.580852031707763672e+00 -2.165935897827148438e+01 1.197197198867797852e+00 6.672281742095947266e+00 2.360843658447265625e+00 1.273927807807922363e+00
1.386000000000000000e+03 7.069235229492187500e+01 -1.450368785858154297e+01 1.290832877159118652e+00 1.240799140930175781e+01 4.109647274017333984e+00 -7.465681433677673340e-01
1.387000000000000000e+03 3.660386276245117188e+01 4.135477066040039062e+01 -1.457691669464111328e+00 4.674049317836761475e-01 -2.970860004425048828e-01 2.881953306496143341e-02
1.388000000000000000e+03 3.610816574096679688e+01 3.697008514404296875e+01 -1.689676165580749512e+00 -6.359659135341644287e-02 -5.259818434715270996e-01 4.189244508743286133e-01
1.389000000000000000e+03 4.110817337036132812e+01 1.800270318984985352e+00 -1.452836513519287109e+00 9.912179946899414062e+00 2.537802934646606445e+00 1.550813198089599609e+00
1.390000000000000000e+03 6.418817901611328125e+01 -1.271806597709655762e+00 -1.433373928070068359e+00 3.596166372299194336e+00 6.488377451896667480e-01 -1.266510605812072754e+00
1.391000000000000000e+03 4.154645156860351562e+01 -2.380174827575683594e+01 1.048491716384887695e+00 6.409732818603515625e+00 2.237467527389526367e+00 -1.038927674293518066e+00
1.392000000000000000e+03 4.407749557495117188e+01 2.865490341186523438e+01 1.873113662004470825e-01 3.997058629989624023e+00 1.255311012268066406e+00 3.943685889244079590e-01
1.393000000000000000e+03 5.646065902709960938e+01 -3.755205535888671875e+01 4.399319738149642944e-02 2.283302843570709229e-01 8.169704675674438477e-02 -4.989823997020721436e-01
1.394000000000000000e+03 5.743024444580078125e+01 -3.590149688720703125e+01 -2.288533449172973633e-01 9.824695438146591187e-02 -3.918191790580749512e-02 -4.292523562908172607e-01
1.395000000000000000e+03 1.307166385650634766e+01 2.589906692504882812e+01 3.995579481124877930e-01 6.130483150482177734e+00 1.959012269973754883e+00 -6.392950415611267090e-01
1.396000000000000000e+03 4.038503646850585938e+01 -2.002158737182617188e+01 5.125470757484436035e-01 9.042765617370605469e+00 2.866593599319458008e+00 -5.387162789702415466e-03
1.397000000000000000e+03 3.130749320983886719e+01 -3.261391067504882812e+01 -7.896432280540466309e-01 3.395402193069458008e+00 7.817277312278747559e-01 1.753169298171997070e+00
1.398000000000000000e+03 6.881388854980468750e+01 -3.173850822448730469e+01 -1.136876583099365234e+00 7.362054824829101562e+00 1.867553472518920898e+00 5.051144957542419434e-01
1.399000000000000000e+03 6.781443023681640625e+01 -3.039953994750976562e+01 -6.469596028327941895e-01 6.395671367645263672e+00 1.724613547325134277e+00 1.028056025505065918e+00
1.400000000000000000e+03 3.662823867797851562e+01 -2.842287635803222656e+01 2.833611071109771729e-01 8.944005966186523438e+00 2.768209934234619141e+00 5.159664899110794067e-02
1.401000000000000000e+03 5.709475326538085938e+01 1.373004317283630371e+00 -2.289505243301391602e+00 1.521244794130325317e-01 -6.412141919136047363e-01 1.710414700210094452e-02
1.402000000000000000e+03 5.575516891479492188e+01 1.611618995666503906e+00 -2.423433542251586914e+00 1.474716812372207642e-01 -6.827885508537292480e-01 2.261914908885955811e-01
1.403000000000000000e+03 3.998867034912109375e+01 -2.283969163894653320e+00 9.623003005981445312e-01 9.998084068298339844e+00 3.288115262985229492e+00 1.982530593872070312e+00
1.404000000000000000e+03 3.406714630126953125e+01 -2.926625251770019531e+00 1.640191912651062012e+00 1.283533453941345215e+00 8.771176338195800781e-01 1.257439106702804565e-01
1.405000000000000000e+03 7.599559783935546875e+01 -2.224562454223632812e+01 2.643675208091735840e-01 8.460668563842773438e+00 2.617510795593261719e+00 -6.851945519447326660e-01
1.406000000000000000e+03 5.567874908447265625e+01 -3.332698440551757812e+01 -9.623445272445678711e-01 2.810031473636627197e-01 -2.044024169445037842e-01 -2.058154642581939697e-01
1.407000000000000000e+03 3.376019668579101562e+01 -1.572768783569335938e+01 -6.916712522506713867e-01 4.902672767639160156e+00 1.263300538063049316e+00 -1.958204150199890137e+00
1.408000000000000000e+03 3.524970245361328125e+01 -1.710720252990722656e+01 -1.481770753860473633e+00 8.200044631958007812e+00 2.015482187271118164e+00 -1.057748198509216309e+00
1.409000000000000000e+03 2.960920906066894531e+01 -3.390037918090820312e+01 -7.431201934814453125e-01 2.087325811386108398e+00 4.032616615295410156e-01 1.377134203910827637e+00
1.410000000000000000e+03 4.689875411987304688e+01 2.823141336441040039e+00 -1.413446664810180664e+00 4.369024932384490967e-01 -2.929632365703582764e-01 2.259881973266601562e+00
1.411000000000000000e+03 3.130920600891113281e+01 -3.447818374633789062e+01 -9.498525857925415039e-01 3.118300199508666992e+00 6.505342721939086914e-01 1.273706436157226562e+00
1.412000000000000000e+03 3.293535614013671875e+01 -3.255247116088867188e+01 -9.058865308761596680e-01 4.609670162200927734e+00 1.111135005950927734e+00 1.314877390861511230e+00
1.413000000000000000e+03 4.065546035766601562e+01 5.001402497291564941e-01 -7.111335396766662598e-01 1.003708553314208984e+01 2.797785758972167969e+00 1.453620314598083496e+00
1.414000000000000000e+03 7.194797515869140625e+01 -2.644003486633300781e+01 7.708978056907653809e-01 1.041205883026123047e+01 3.354887008666992188e+00 -7.298538088798522949e-01
1.415000000000000000e+03 3.120164489746093750e+01 -1.522483444213867188e+01 -4.192141816020011902e-02 7.985347509384155273e-01 2.269840091466903687e-01 -1.413093447685241699e+00
1.416000000000000000e+03 3.262710952758789062e+01 -1.696865653991699219e+01 -1.283812642097473145e+00 1.779088139533996582e+00 1.485826671123504639e-01 -2.292606830596923828e+00
1.417000000000000000e+03 2.365530395507812500e+01 -4.326824665069580078e+00 3.980274915695190430e+00 9.768848419189453125e-01 1.487147927284240723e+00 -1.619693040847778320e+00
1.418000000000000000e+03 6.290217590332031250e+01 -5.394046306610107422e-01 -1.576953887939453125e+00 2.403775215148925781e+00 2.480463832616806030e-01 -1.176910996437072754e+00
1.419000000000000000e+03 7.176198577880859375e+01 -2.859641838073730469e+01 -2.025902867317199707e-01 9.670931816101074219e+00 2.840502500534057617e+00 -8.381080627441406250e-01
1.420000000000000000e+03 4.324144744873046875e+01 3.426048278808593750e+01 -1.070751905441284180e+00 3.046071290969848633e+00 5.925958156585693359e-01 2.996101379394531250e-01
1.421000000000000000e+03 3.643756484985351562e+01 -1.859119033813476562e+01 -2.523337602615356445e-01 1.145125484466552734e+01 3.359676361083984375e+00 4.565668404102325439e-01
1.422000000000000000e+03 6.484510803222656250e+01 1.895900256931781769e-02 -1.381807088851928711e+00 4.129580020904541016e+00 8.243318796157836914e-01 -1.325307488441467285e+00
1.423000000000000000e+03 7.121537685394287109e+00 -1.663935470581054688e+01 8.645804971456527710e-02 7.281122207641601562e+00 2.210273981094360352e+00 1.976774454116821289e+00
1.424000000000000000e+03 3.169103622436523438e+01 -1.392551612854003906e+01 6.823354363441467285e-01 1.968894004821777344e+00 7.953688502311706543e-01 -1.703477263450622559e+00
1.425000000000000000e+03 2.931117820739746094e+01 -1.529016113281250000e+01 -6.527356505393981934e-01 1.347391158342361450e-01 -1.553989499807357788e-01 -6.790042519569396973e-01
1.426000000000000000e+03 3.899270629882812500e+01 -1.926841735839843750e+01 4.371702373027801514e-01 1.007821369171142578e+01 3.154615163803100586e+00 8.505461812019348145e-01
1.427000000000000000e+03 3.652486419677734375e+01 -1.986894798278808594e+01 7.885156869888305664e-01 1.141603851318359375e+01 3.661366224288940430e+00 6.373441219329833984e-01
1.428000000000000000e+03 3.708237838745117188e+01 -2.738305854797363281e+01 1.058982253074645996e+00 8.898693084716796875e+00 2.987302541732788086e+00 1.322483737021684647e-02
1.429000000000000000e+03 3.759445571899414062e+01 -2.641818618774414062e+01 1.336803555488586426e+00 9.462990760803222656e+00 3.239938259124755859e+00 -6.384003162384033203e-02
1.430000000000000000e+03 4.168167114257812500e+01 4.507162570953369141e+00 -4.027599990367889404e-01 9.186139106750488281e+00 2.635013818740844727e+00 2.466767072677612305e+00
1.431000000000000000e+03 6.781670379638671875e+01 -3.116243839263916016e+00 -8.230130672454833984e-01 6.459990978240966797e+00 1.691093325614929199e+00 -6.796231269836425781e-01
1.432000000000000000e+03 1.165727233886718750e+01 -1.502777290344238281e+01 -1.993925929069519043e+00 3.870269358158111572e-01 -4.820697009563446045e-01 2.509756088256835938e+00
1.433000000000000000e+03 1.320549774169921875e+01 -1.400636482238769531e+01 -1.700067639350891113e+00 5.331347137689590454e-02 -4.940262436866760254e-01 1.860242128372192383e+00
1.434000000000000000e+03 1.893363952636718750e+01 3.509751892089843750e+01 -1.239537596702575684e+00 1.187842369079589844e+00 -1.550857629626989365e-02 -9.358517825603485107e-02
1.435000000000000000e+03 1.540146732330322266e+01 3.581845855712890625e+01 -1.311628103256225586e+00 2.893545389175415039e+00 4.745751321315765381e-01 -2.116333544254302979e-01
1.436000000000000000e+03 1.274167251586914062e+01 2.122910690307617188e+01 6.477301120758056641e-01 7.437448978424072266e+00 2.425553560256958008e+00 -8.837624788284301758e-01
1.437000000000000000e+03 6.570818901062011719e+00 -1.782045555114746094e+01 1.802868843078613281e+00 8.134864807128906250e+00 2.981320142745971680e+00 2.171331167221069336e+00
1.438000000000000000e+03 5.521332740783691406e+00 -1.440486621856689453e+01 -9.283254146575927734e-01 5.098393917083740234e+00 1.251020550727844238e+00 1.025838255882263184e+00
1.439000000000000000e+03 6.950311660766601562e+00 -3.213000488281250000e+01 -1.737289786338806152e+00 2.929834365844726562e+00 3.577634096145629883e-01 -6.500304490327835083e-02
1.440000000000000000e+03 2.659760093688964844e+01 -3.654703617095947266e+00 3.888552427291870117e+00 1.313016891479492188e+00 1.560470819473266602e+00 -2.026143789291381836e+00
1.441000000000000000e+03 6.539766693115234375e+01 -2.045377969741821289e+00 -1.213094115257263184e+00 4.773527145385742188e+00 1.068130016326904297e+00 -1.109066247940063477e+00
1.442000000000000000e+03 4.719601154327392578e+00 -2.601596260070800781e+01 2.812057137489318848e-01 7.864365577697753906e+00 2.443671464920043945e+00 1.933663368225097656e+00
1.443000000000000000e+03 4.810221099853515625e+01 3.480646848678588867e+00 -1.166503071784973145e+00 -6.714115291833877563e-02 -3.700932562351226807e-01 1.213961243629455566e+00
1.444000000000000000e+03 1.265590286254882812e+01 -2.202497720718383789e+00 3.778279542922973633e+00 9.474983215332031250e+00 3.975978851318359375e+00 4.673288345336914062e+00
1.445000000000000000e+03 1.229917621612548828e+01 -2.746234178543090820e+00 3.438935518264770508e+00 6.912538528442382812e+00 3.105442285537719727e+00 4.168467521667480469e+00
1.446000000000000000e+03 1.069908046722412109e+01 -2.153971910476684570e+00 4.089920520782470703e+00 1.247209668159484863e+00 1.601139068603515625e+00 2.456641435623168945e+00
1.447000000000000000e+03 1.032050228118896484e+01 -2.046357631683349609e+00 3.630172014236450195e+00 7.647083401679992676e-01 1.318464159965515137e+00 1.890337228775024414e+00
1.448000000000000000e+03 1.383979606628417969e+01 3.049330949783325195e+00 -3.727974891662597656e-01 9.127068519592285156e+00 2.626281261444091797e+00 -1.505367040634155273e+00
1.449000000000000000e+03 1.113541412353515625e+01 1.738370299339294434e+00 1.549470901489257812e+00 2.845145702362060547e+00 1.318385004997253418e+00 -2.843214273452758789e+00
1.450000000000000000e+03 1.096555519104003906e+01 1.977845311164855957e+00 1.443222045898437500e+00 2.790305852890014648e+00 1.270058393478393555e+00 -2.733442544937133789e+00
1.451000000000000000e+03 1.054317283630371094e+01 -2.447406768798828125e+00 3.753505468368530273e+00 1.357822895050048828e+00 1.533398509025573730e+00 2.516972541809082031e+00
1.452000000000000000e+03 1.364828968048095703e+01 2.412597656250000000e+00 -1.697035878896713257e-02 1.012848186492919922e+01 3.033453464508056641e+00 -1.658866047859191895e+00
1.453000000000000000e+03 1.271666431427001953e+01 -2.738064765930175781e+00 2.949255943298339844e+00 8.968016624450683594e+00 3.575181722640991211e+00 3.520315647125244141e+00
1.454000000000000000e+03 1.439896678924560547e+01 -3.074347019195556641e+00 2.933625936508178711e+00 9.414381027221679688e+00 3.704402208328247070e+00 -6.440278291702270508e-01
1.455000000000000000e+03 1.627443885803222656e+01 1.400720715522766113e+00 3.426774501800537109e+00 7.037569999694824219e+00 3.139303445816040039e+00 5.965969562530517578e-01
1.456000000000000000e+03 1.484521961212158203e+01 1.941960573196411133e+00 1.395699501037597656e+00 1.043735313415527344e+01 3.549915790557861328e+00 5.742192268371582031e-01
1.457000000000000000e+03 7.945641994476318359e+00 -3.023511409759521484e+00 1.849349260330200195e+00 4.654442071914672852e-01 6.944380402565002441e-01 1.298498272895812988e+00
1.458000000000000000e+03 8.642883300781250000e+00 -2.915450572967529297e+00 2.243938684463500977e+00 5.734940171241760254e-01 8.452298045158386230e-01 1.526213288307189941e+00
1.459000000000000000e+03 4.812514781951904297e+00 6.442493915557861328e+00 2.762681841850280762e-01 6.425279378890991211e-01 2.756388187408447266e-01 5.075564607977867126e-02
1.460000000000000000e+03 7.229576110839843750e+00 4.172682762145996094e+00 4.664669632911682129e-01 9.770488142967224121e-01 4.330547451972961426e-01 -4.078252017498016357e-01
1.461000000000000000e+03 6.493741035461425781e+00 3.383452415466308594e+00 2.367478907108306885e-01 4.861002862453460693e-01 2.168544530868530273e-01 -3.097870014607906342e-02
1.462000000000000000e+03 7.073307037353515625e+00 4.990601062774658203e+00 4.420825242996215820e-01 1.238880515098571777e+00 5.042889118194580078e-01 -4.240900278091430664e-01
1.463000000000000000e+03 3.980325937271118164e+00 5.467659950256347656e+00 1.884528547525405884e-01 2.085725963115692139e-01 1.191076338291168213e-01 2.403310835361480713e-01
1.464000000000000000e+03 1.499849557876586914e+00 4.770726680755615234e+00 3.271654620766639709e-02 -4.879972934722900391e-01 -1.365842223167419434e-01 2.633815407752990723e-01
1.465000000000000000e+03 6.636788845062255859e+00 -3.978912591934204102e+00 1.290184617042541504e+00 6.002513766288757324e-01 5.671308040618896484e-01 1.252935647964477539e+00
1.466000000000000000e+03 4.468184947967529297e+00 -4.541915416717529297e+00 5.852594375610351562e-01 6.338154077529907227e-01 3.657224476337432861e-01 8.152281045913696289e-01
1.467000000000000000e+03 5.916179656982421875e+00 -4.146234035491943359e+00 1.031300306320190430e+00 6.206633448600769043e-01 4.955890774726867676e-01 1.107408642768859863e+00
1.468000000000000000e+03 4.968100547790527344e+00 -3.552577018737792969e+00 7.098832726478576660e-01 3.944309353828430176e-01 3.312942683696746826e-01 6.507382392883300781e-01
1.469000000000000000e+03 3.824474334716796875e+00 -4.713943958282470703e+00 4.002719819545745850e-01 6.097046732902526855e-01 3.029929995536804199e-01 6.356309056282043457e-01
1.470000000000000000e+03 3.606245279312133789e+00 -6.000946044921875000e+00 3.246734440326690674e-01 8.908268213272094727e-01 3.646500706672668457e-01 8.262872099876403809e-01
1.471000000000000000e+03 2.773691892623901367e+00 -4.333092212677001953e+00 2.271898984909057617e-01 3.699376285076141357e-01 1.791382580995559692e-01 3.374654352664947510e-01
1.472000000000000000e+03 7.490230083465576172e+00 -4.560678005218505859e+00 1.504918932914733887e+00 9.872114062309265137e-01 7.476391196250915527e-01 1.774895668029785156e+00
1.473000000000000000e+03 8.058966636657714844e+00 4.247112751007080078e+00 5.361812710762023926e-01 1.485215783119201660e+00 6.064191460609436035e-01 -7.785762548446655273e-01
1.474000000000000000e+03 1.505863666534423828e+01 1.459298849105834961e+00 2.870425224304199219e+00 9.658252716064453125e+00 3.758603572845458984e+00 1.068779706954956055e+00
1.475000000000000000e+03 9.312069892883300781e+00 3.864229202270507812e+00 6.385413408279418945e-01 2.183166742324829102e+00 8.465124368667602539e-01 -1.429916977882385254e+00
1.476000000000000000e+03 1.504366779327392578e+01 -2.634624958038330078e+00 4.273240089416503906e+00 8.126635551452636719e+00 3.719962835311889648e+00 -1.734735727310180664e+00
1.477000000000000000e+03 1.855465507507324219e+01 2.766599178314208984e+00 1.246283411979675293e+00 4.086197376251220703e+00 1.599744200706481934e+00 -3.822800815105438232e-01
1.478000000000000000e+03 1.563042354583740234e+01 2.289763092994689941e-01 5.940088272094726562e+00 7.479701519012451172e+00 4.025937080383300781e+00 5.828435420989990234e-01
1.479000000000000000e+03 1.631117439270019531e+01 -2.005600452423095703e+00 5.444360733032226562e+00 5.787528038024902344e+00 3.369566679000854492e+00 -2.070094347000122070e+00
1.480000000000000000e+03 1.577943038940429688e+01 -1.369251489639282227e+00 6.563796520233154297e+00 6.658049106597900391e+00 3.966553688049316406e+00 -1.844022393226623535e+00
1.481000000000000000e+03 1.965153312683105469e+01 -1.475532245635986328e+01 -2.238154649734497070e+00 6.576980352401733398e-01 -4.741370081901550293e-01 -6.459166854619979858e-02
1.482000000000000000e+03 2.476687240600585938e+01 -1.616588973999023438e+01 -2.136704683303833008e+00 2.560064792633056641e-01 -5.642094612121582031e-01 -2.412955760955810547e-01
1.483000000000000000e+03 3.946558761596679688e+01 -6.469492912292480469e+00 1.842448711395263672e+00 1.133368396759033203e+01 3.952839851379394531e+00 1.442543745040893555e+00
1.484000000000000000e+03 3.930166244506835938e+01 -7.882155418395996094e+00 1.804214835166931152e+00 1.144705009460449219e+01 3.975379467010498047e+00 7.971199750900268555e-01
1.485000000000000000e+03 2.079765892028808594e+01 -1.574578475952148438e+01 -2.561499834060668945e+00 6.060227155685424805e-01 -5.866431593894958496e-01 5.042557790875434875e-02
1.486000000000000000e+03 2.002269935607910156e+01 -1.630424690246582031e+01 -2.831863403320312500e+00 5.363361239433288574e-01 -6.886581778526306152e-01 2.366258800029754639e-01
1.487000000000000000e+03 2.179445075988769531e+01 -1.569586658477783203e+01 -2.327123165130615234e+00 5.952926278114318848e-01 -5.195491909980773926e-01 -1.232147440314292908e-01
1.488000000000000000e+03 3.733063507080078125e+01 -5.281568050384521484e+00 2.191456317901611328e+00 7.056397438049316406e+00 2.774356126785278320e+00 7.815901041030883789e-01
1.489000000000000000e+03 2.500127029418945312e+01 -1.468685722351074219e+01 -1.031216979026794434e+00 2.431093305349349976e-01 -2.364322841167449951e-01 -3.785286247730255127e-01
1.490000000000000000e+03 5.867047500610351562e+01 2.468791723251342773e+00 -1.393645405769348145e+00 7.720484733581542969e-01 -1.864790767431259155e-01 -5.970247387886047363e-01
1.491000000000000000e+03 3.593729400634765625e+01 -1.447229290008544922e+01 -1.153886020183563232e-01 7.976063251495361328e+00 2.358202457427978516e+00 -9.611079096794128418e-01
1.492000000000000000e+03 2.667340087890625000e+01 -1.531504535675048828e+01 -1.130051136016845703e+00 1.899665966629981995e-02 -3.333163261413574219e-01 -3.072787523269653320e-01
1.493000000000000000e+03 2.338790321350097656e+01 -1.432729816436767578e+01 -1.154708981513977051e+00 4.529072642326354980e-01 -2.105405330657958984e-01 -3.722259104251861572e-01
1.494000000000000000e+03 3.906920242309570312e+01 -1.065493202209472656e+01 1.012585282325744629e+00 1.168590736389160156e+01 3.809547901153564453e+00 -3.223207965493202209e-02
1.495000000000000000e+03 2.680705261230468750e+01 -1.374151802062988281e+01 -1.043472960591316223e-01 1.912607997655868530e-01 2.607404999434947968e-02 -6.270585656166076660e-01
1.496000000000000000e+03 2.477306747436523438e+01 -3.594435882568359375e+01 -7.353133559226989746e-01 3.292449414730072021e-01 -1.218205243349075317e-01 4.030587077140808105e-01
1.497000000000000000e+03 1.093591785430908203e+01 -1.267991161346435547e+01 -1.125924825668334961e+00 2.157618522644042969e+00 3.095081150531768799e-01 3.179775476455688477e+00
1.498000000000000000e+03 1.529711437225341797e+01 -1.495187187194824219e+01 -3.281248331069946289e+00 -2.179454416036605835e-01 -1.049758076667785645e+00 6.929256916046142578e-01
1.499000000000000000e+03 5.450299453735351562e+01 1.891830086708068848e+00 -2.542604207992553711e+00 2.137852907180786133e-01 -6.986457109451293945e-01 3.623581826686859131e-01
1.500000000000000000e+03 6.809582710266113281e+00 1.593197345733642578e+01 4.178835451602935791e-01 2.905926465988159180e+00 9.971430301666259766e-01 -5.533279180526733398e-01
1.501000000000000000e+03 3.859895324707031250e+01 -2.330213069915771484e+00 7.520363926887512207e-01 8.207385063171386719e+00 2.687826395034790039e+00 1.536002159118652344e+00
1.502000000000000000e+03 4.183957290649414062e+01 -2.109047317504882812e+01 4.841220080852508545e-01 6.913076877593994141e+00 2.219159603118896484e+00 -7.507475614547729492e-01
1.503000000000000000e+03 7.188450622558593750e+01 -2.340200233459472656e+01 7.782307267189025879e-01 1.147109222412109375e+01 3.674797058105468750e+00 -3.079910576343536377e-01
1.504000000000000000e+03 4.579533004760742188e+01 2.123286056518554688e+01 5.282462835311889648e-01 5.010770320892333984e+00 1.661705017089843750e+00 1.104690790176391602e+00
1.505000000000000000e+03 4.421226501464843750e+01 1.830922889709472656e+01 5.923129320144653320e-01 6.046627521514892578e+00 1.991682171821594238e+00 1.384101867675781250e+00
1.506000000000000000e+03 4.700366210937500000e+01 2.552477645874023438e+01 3.796075284481048584e-01 4.332543849945068359e+00 1.413645386695861816e+00 8.221777677536010742e-01
1.507000000000000000e+03 1.522905349731445312e+01 1.970663833618164062e+01 2.499873787164688110e-01 1.076663970947265625e+01 3.304988145828247070e+00 -7.322322130203247070e-01
1.508000000000000000e+03 4.026068115234375000e+01 -8.731577992439270020e-01 1.304931342601776123e-01 1.010835552215576172e+01 3.071654558181762695e+00 1.592010974884033203e+00
1.509000000000000000e+03 4.448493576049804688e+01 2.280931663513183594e+01 2.563233673572540283e-01 5.090080738067626953e+00 1.603921175003051758e+00 7.181227803230285645e-01
1.510000000000000000e+03 4.575384902954101562e+01 2.276787567138671875e+01 4.228215813636779785e-01 4.864818572998046875e+00 1.586292028427124023e+00 8.987218141555786133e-01
1.511000000000000000e+03 4.322997283935546875e+01 -2.550310516357421875e+01 9.199382066726684570e-01 4.351706981658935547e+00 1.581493616104125977e+00 -1.548516392707824707e+00
1.512000000000000000e+03 4.569301223754882812e+01 1.965847778320312500e+01 6.824470162391662598e-01 5.265406608581542969e+00 1.784356117248535156e+00 1.366563320159912109e+00
1.513000000000000000e+03 7.120410919189453125e+01 -1.981718063354492188e+01 3.070438504219055176e-01 1.286168098449707031e+01 3.950617313385009766e+00 -3.458054661750793457e-01
1.514000000000000000e+03 7.133837890625000000e+01 -2.106779479980468750e+01 4.981026053428649902e-01 1.252061557769775391e+01 3.905615568161010742e+00 -6.061505153775215149e-02
1.515000000000000000e+03 7.266424560546875000e+01 -2.187799835205078125e+01 5.917090773582458496e-01 1.113092613220214844e+01 3.516790628433227539e+00 -3.804441392421722412e-01
1.516000000000000000e+03 7.547319793701171875e+01 1.284893035888671875e+01 3.703109547495841980e-02 6.971564292907714844e+00 2.102578639984130859e+00 -5.360578894615173340e-01
1.517000000000000000e+03 7.696212005615234375e+01 1.817245006561279297e+00 -1.412080675363540649e-01 8.342199325561523438e+00 2.460297346115112305e+00 -3.829753026366233826e-02
1.518000000000000000e+03 7.555410766601562500e+01 -8.673933744430541992e-01 -3.164632320404052734e-01 8.136284828186035156e+00 2.345946550369262695e+00 1.868019849061965942e-01
1.519000000000000000e+03 7.574836730957031250e+01 -1.487403297424316406e+01 4.060515463352203369e-01 8.259844779968261719e+00 2.599769115447998047e+00 2.833172082901000977e-01
1.520000000000000000e+03 7.685938262939453125e+01 -1.348570156097412109e+01 2.055307328701019287e-01 7.511974334716796875e+00 2.315251588821411133e+00 4.706436991691589355e-01
1.521000000000000000e+03 7.416143798828125000e+01 -1.169929504394531250e+01 3.570415377616882324e-01 8.985608100891113281e+00 2.802794694900512695e+00 6.531205773353576660e-01
1.522000000000000000e+03 7.299327087402343750e+01 -1.556940650939941406e+01 9.188802242279052734e-01 1.043813228607177734e+01 3.407103776931762695e+00 -1.493891328573226929e-01
1.523000000000000000e+03 7.694978332519531250e+01 -2.073191833496093750e+01 1.856624335050582886e-01 7.685386657714843750e+00 2.361314773559570312e+00 -4.178847074508666992e-01
1.524000000000000000e+03 7.554016876220703125e+01 -1.182333564758300781e+01 2.474520355463027954e-01 8.345670700073242188e+00 2.577936887741088867e+00 6.919594407081604004e-01
1.525000000000000000e+03 7.338684082031250000e+01 -1.821533203125000000e+01 6.492156386375427246e-01 1.049887084960937500e+01 3.344425916671752930e+00 -3.524237573146820068e-01
1.526000000000000000e+03 7.338114166259765625e+01 -1.943586158752441406e+01 5.082096457481384277e-01 1.055125522613525391e+01 3.317839384078979492e+00 -4.710936248302459717e-01
1.527000000000000000e+03 7.592317199707031250e+01 -8.156661033630371094e+00 -6.219884380698204041e-02 8.205798149108886719e+00 2.443079948425292969e+00 7.954677343368530273e-01
1.528000000000000000e+03 7.557349395751953125e+01 -4.025472640991210938e+00 -2.869963645935058594e-01 8.226961135864257812e+00 2.381989479064941406e+00 5.140140056610107422e-01
1.529000000000000000e+03 7.566299438476562500e+01 -5.484311103820800781e+00 -2.135114222764968872e-01 8.252507209777832031e+00 2.411698818206787109e+00 6.490727066993713379e-01
1.530000000000000000e+03 7.586396026611328125e+01 1.907612085342407227e+00 -2.427339851856231689e-01 8.054909706115722656e+00 2.343652486801147461e+00 -8.622866868972778320e-02
1.531000000000000000e+03 7.562856292724609375e+01 6.032425880432128906e+00 -1.421789973974227905e-01 7.670614719390869141e+00 2.258530855178833008e+00 -4.272589385509490967e-01
1.532000000000000000e+03 7.440847778320312500e+01 3.084396553039550781e+01 3.635465353727340698e-02 6.133030414581298828e+00 1.850815534591674805e+00 -8.407149463891983032e-03
1.533000000000000000e+03 7.509378051757812500e+01 3.212212371826171875e+01 2.639423124492168427e-02 6.204753398895263672e+00 1.869344234466552734e+00 2.183122793212532997e-03
1.534000000000000000e+03 7.576139068603515625e+01 3.266902208328247070e+00 -2.199423462152481079e-01 7.937634944915771484e+00 2.315307855606079102e+00 -2.295652776956558228e-01
1.535000000000000000e+03 7.583821105957031250e+01 5.717262029647827148e-01 -2.595502436161041260e-01 8.115894317626953125e+00 2.356903076171875000e+00 3.105213865637779236e-02
1.536000000000000000e+03 7.569256591796875000e+01 4.657422542572021484e+00 -1.844576299190521240e-01 7.797949790954589844e+00 2.284047603607177734e+00 -3.367285430431365967e-01
1.537000000000000000e+03 7.459789276123046875e+01 3.379814863204956055e+00 -3.158659934997558594e-01 7.620791435241699219e+00 2.191477537155151367e+00 -3.302169144153594971e-01
1.538000000000000000e+03 7.557918548583984375e+01 7.402734279632568359e+00 -1.037347540259361267e-01 7.508568763732910156e+00 2.221450090408325195e+00 -4.994635581970214844e-01
1.539000000000000000e+03 7.683419036865234375e+01 -2.901213645935058594e+01 -9.155831485986709595e-02 8.907317161560058594e+00 2.644727468490600586e+00 -1.100756764411926270e+00
1.540000000000000000e+03 7.292485046386718750e+01 -2.289588165283203125e+01 7.818648219108581543e-01 1.054604148864746094e+01 3.398371934890747070e+00 -4.884367585182189941e-01
1.541000000000000000e+03 7.690720367431640625e+01 1.830823898315429688e+01 4.910737648606300354e-02 6.809500694274902344e+00 2.057582378387451172e+00 -2.815338373184204102e-01
1.542000000000000000e+03 7.686395263671875000e+01 1.698476409912109375e+01 3.755376487970352173e-02 6.920210838317871094e+00 2.087329387664794922e+00 -3.213246166706085205e-01
1.543000000000000000e+03 7.538899230957031250e+01 1.577627086639404297e+01 7.996924221515655518e-02 6.710886001586914062e+00 2.037256479263305664e+00 -4.671566188335418701e-01
1.544000000000000000e+03 7.553627777099609375e+01 1.009543895721435547e+01 -2.326784841716289520e-02 7.242722034454345703e+00 2.165836334228515625e+00 -5.483328700065612793e-01
1.545000000000000000e+03 7.430563354492187500e+01 8.775607109069824219e+00 -7.607505470514297485e-02 7.016574382781982422e+00 2.082149744033813477e+00 -6.461668014526367188e-01
1.546000000000000000e+03 7.523852539062500000e+01 -2.517533874511718750e+01 3.683679997920989990e-01 8.939369201660156250e+00 2.792321205139160156e+00 -1.060679674148559570e+00
1.547000000000000000e+03 7.618631744384765625e+01 -2.569214057922363281e+01 1.706769466400146484e-01 8.558436393737792969e+00 2.618733882904052734e+00 -1.045169949531555176e+00
1.548000000000000000e+03 7.561495208740234375e+01 1.712345504760742188e+01 8.213151991367340088e-02 6.656579971313476562e+00 2.021613597869873047e+00 -4.119430780410766602e-01
1.549000000000000000e+03 7.554770660400390625e+01 1.949671554565429688e+01 8.832301199436187744e-02 6.532819747924804688e+00 1.986342787742614746e+00 -3.249655365943908691e-01
1.550000000000000000e+03 7.356018066406250000e+01 1.720469856262207031e+01 1.596262007951736450e-01 6.244758129119873047e+00 1.921315312385559082e+00 -5.172901749610900879e-01
1.551000000000000000e+03 7.532669830322265625e+01 2.084263038635253906e+01 9.827158600091934204e-02 6.417157173156738281e+00 1.954628705978393555e+00 -2.897978425025939941e-01
1.552000000000000000e+03 7.501632690429687500e+01 2.658808517456054688e+01 7.607879489660263062e-02 6.215863227844238281e+00 1.887582540512084961e+00 -8.406545966863632202e-02
1.553000000000000000e+03 7.325933837890625000e+01 2.350768470764160156e+01 1.728937774896621704e-01 6.004615306854248047e+00 1.853252649307250977e+00 -2.277957946062088013e-01
1.554000000000000000e+03 7.638297271728515625e+01 2.918889617919921875e+01 2.617396786808967590e-02 6.359488010406494141e+00 1.915698528289794922e+00 -2.329856157302856445e-02
1.555000000000000000e+03 7.373899841308593750e+01 2.602157402038574219e+01 1.266215294599533081e-01 6.052457332611083984e+00 1.853723645210266113e+00 -1.272814571857452393e-01
1.556000000000000000e+03 7.519055938720703125e+01 2.918512535095214844e+01 4.627428203821182251e-02 6.215744495391845703e+00 1.878605604171752930e+00 -2.903196401894092560e-02
1.557000000000000000e+03 7.622048950195312500e+01 -3.713613510131835938e+01 -3.409893214702606201e-01 9.907920837402343750e+00 2.870079278945922852e+00 -3.398420512676239014e-01
1.558000000000000000e+03 7.370390319824218750e+01 -3.290516281127929688e+01 -6.904157996177673340e-01 8.817519187927246094e+00 2.438130855560302734e+00 -7.928155064582824707e-01
1.559000000000000000e+03 7.469307708740234375e+01 -3.020197677612304688e+01 -3.403174281120300293e-01 9.135396957397460938e+00 2.638523817062377930e+00 -1.244255661964416504e+00
1.560000000000000000e+03 7.486425781250000000e+01 -3.362454605102539062e+01 -4.153331518173217773e-01 9.040218353271484375e+00 2.587465524673461914e+00 -7.511009573936462402e-01
1.561000000000000000e+03 7.573509216308593750e+01 -3.541632843017578125e+01 -3.849107623100280762e-01 9.391499519348144531e+00 2.701976537704467773e+00 -5.637939572334289551e-01
1.562000000000000000e+03 7.570986175537109375e+01 3.018320465087890625e+01 3.669168427586555481e-02 6.285634040832519531e+00 1.896697640419006348e+00 -1.071774866431951523e-02
1.563000000000000000e+03 4.473813247680664062e+01 1.096821308135986328e+01 1.789424777030944824e+00 5.912735939025878906e+00 2.310648202896118164e+00 2.770658254623413086e+00
1.564000000000000000e+03 4.368261337280273438e+01 1.403086185455322266e+01 1.157284140586853027e+00 7.053680896759033203e+00 2.463289499282836914e+00 2.197610139846801758e+00
1.565000000000000000e+03 2.820849037170410156e+01 -4.970617294311523438e+00 3.346420764923095703e+00 5.800619721412658691e-01 1.177944779396057129e+00 -2.255103588104248047e+00
1.566000000000000000e+03 1.711530113220214844e+01 3.401395797729492188e+01 -1.076779007911682129e+00 2.386196136474609375e+00 3.928251564502716064e-01 -6.212233006954193115e-02
1.567000000000000000e+03 1.521164321899414062e+01 7.839149951934814453e+00 -7.018560171127319336e-01 7.132528781890869141e+00 1.929201841354370117e+00 -9.367941021919250488e-01
1.568000000000000000e+03 1.567547035217285156e+01 9.173710823059082031e+00 -2.031438499689102173e-01 7.083423137664794922e+00 2.064083814620971680e+00 -1.141751170158386230e+00
1.569000000000000000e+03 7.323905944824218750e+01 -1.689228057861328125e+01 8.032132983207702637e-01 1.047916793823242188e+01 3.384714365005493164e+00 -3.318098187446594238e-01
1.570000000000000000e+03 3.916232585906982422e+00 -1.486891460418701172e+01 -5.748751759529113770e-01 4.067534923553466797e+00 1.047797918319702148e+00 1.519113928079605103e-01
1.571000000000000000e+03 4.675616741180419922e+00 2.271561622619628906e+01 2.101728469133377075e-01 2.251005172729492188e+00 7.383533716201782227e-01 -1.011610031127929688e+00
1.572000000000000000e+03 2.729089975357055664e+00 -2.146565055847167969e+01 7.896502017974853516e-01 4.644190311431884766e+00 1.630152106285095215e+00 9.958270192146301270e-01
1.573000000000000000e+03 4.185361862182617188e+00 -1.730279731750488281e+01 2.165173590183258057e-01 5.391806125640869141e+00 1.682497024536132812e+00 3.856455907225608826e-02
1.574000000000000000e+03 2.912981510162353516e+00 -2.026536941528320312e+01 8.248245716094970703e-01 4.623466968536376953e+00 1.634487390518188477e+00 4.761664569377899170e-01
1.575000000000000000e+03 4.153164386749267578e+00 -1.865582084655761719e+01 8.686006665229797363e-01 6.035270690917968750e+00 2.071161508560180664e+00 3.292526304721832275e-01
1.576000000000000000e+03 7.049623966217041016e+00 2.293485641479492188e+01 4.544674754142761230e-01 3.517159938812255859e+00 1.191488265991210938e+00 -1.263459682464599609e+00
1.577000000000000000e+03 5.491007804870605469e+00 2.569704246520996094e+01 1.308758854866027832e-01 2.992964267730712891e+00 9.371520876884460449e-01 -1.313629865646362305e+00
1.578000000000000000e+03 3.180785179138183594e+00 2.711603164672851562e+01 1.779877953231334686e-02 2.426563978195190430e+00 7.333088517189025879e-01 -9.674801230430603027e-01
1.579000000000000000e+03 4.772975444793701172e+00 2.972445297241210938e+01 -1.020869612693786621e-01 3.283551216125488281e+00 9.544392824172973633e-01 -1.230393648147583008e+00
1.580000000000000000e+03 4.183423519134521484e+00 1.844585800170898438e+01 2.256666123867034912e-01 1.474836587905883789e+00 5.101509690284729004e-01 -5.985189080238342285e-01
1.581000000000000000e+03 4.304652214050292969e+00 1.977046585083007812e+01 2.528759539127349854e-01 1.714504361152648926e+00 5.902140736579895020e-01 -7.382780909538269043e-01
1.582000000000000000e+03 4.212843418121337891e+00 1.712341499328613281e+01 2.159203737974166870e-01 1.343725800514221191e+00 4.678938686847686768e-01 -4.946613013744354248e-01
1.583000000000000000e+03 4.379625797271728516e+00 2.562478065490722656e+01 9.098366647958755493e-02 2.556256771087646484e+00 7.941721677780151367e-01 -1.152095913887023926e+00
1.584000000000000000e+03 4.516621589660644531e+00 2.423701477050781250e+01 1.712314635515213013e-01 2.391484498977661133e+00 7.688148021697998047e-01 -1.116853952407836914e+00
1.585000000000000000e+03 4.215803146362304688e+00 1.431546306610107422e+01 1.655797213315963745e-01 1.103443503379821777e+00 3.807069957256317139e-01 -2.573213577270507812e-01
1.586000000000000000e+03 3.776350498199462891e+00 -3.066789054870605469e+01 -1.073848247528076172e+00 6.244525432586669922e+00 1.551203131675720215e+00 8.192482590675354004e-01
1.587000000000000000e+03 3.477945566177368164e+00 -3.225300979614257812e+01 -7.954733371734619141e-01 6.321543216705322266e+00 1.657820940017700195e+00 2.987741827964782715e-01
1.588000000000000000e+03 4.014235019683837891e+00 2.881220054626464844e+01 -4.849330335855484009e-02 2.987777948379516602e+00 8.817853927612304688e-01 -1.119236707687377930e+00
1.589000000000000000e+03 2.817655086517333984e+00 -1.073078060150146484e+01 -2.662700712680816650e-01 2.125810146331787109e+00 5.578620433807373047e-01 5.907729864120483398e-01
1.590000000000000000e+03 3.905269861221313477e+00 -9.323133468627929688e+00 -1.962391734123229980e-01 2.053492546081542969e+00 5.571760535240173340e-01 1.087276697158813477e+00
1.591000000000000000e+03 3.895125627517700195e+00 -1.219750690460205078e+01 -6.070251464843750000e-01 3.118899822235107422e+00 7.535623908042907715e-01 6.752265691757202148e-01
1.592000000000000000e+03 2.669488191604614258e+00 8.859051704406738281e+00 9.721901267766952515e-02 -1.344493925571441650e-01 -1.116911415010690689e-02 9.244143962860107422e-02
1.593000000000000000e+03 4.034861087799072266e+00 1.139673519134521484e+01 1.215240880846977234e-01 7.999308705329895020e-01 2.764365077018737793e-01 -1.038895398378372192e-01
1.594000000000000000e+03 4.093759059906005859e+00 -3.418269348144531250e+01 -5.489182472229003906e-01 5.792314529418945312e+00 1.573018908500671387e+00 -2.058651447296142578e-01
1.595000000000000000e+03 7.052331924438476562e+00 -3.375780105590820312e+01 -8.781701326370239258e-01 2.863567590713500977e+00 5.956192612648010254e-01 -3.753221333026885986e-01
1.596000000000000000e+03 6.283592224121093750e+00 2.937975692749023438e+01 -1.256105601787567139e-01 3.551596641540527344e+00 1.027795791625976562e+00 -1.392411589622497559e+00
1.597000000000000000e+03 3.463776350021362305e+00 3.478592300415039062e+01 -2.161047756671905518e-01 3.923630475997924805e+00 1.112257719039916992e+00 -7.091879248619079590e-01
1.598000000000000000e+03 5.515419483184814453e+00 3.449862289428710938e+01 -3.714143931865692139e-01 3.876753807067871094e+00 1.051601767539978027e+00 -9.464845061302185059e-01
1.599000000000000000e+03 3.955205440521240234e+00 -1.358268070220947266e+01 -6.229358911514282227e-01 3.628953456878662109e+00 9.018052816390991211e-01 3.829108178615570068e-01
1.600000000000000000e+03 3.674215316772460938e+00 8.718277931213378906e+00 1.340768039226531982e-01 3.649178445339202881e-01 1.496983915567398071e-01 3.434728458523750305e-02
1.601000000000000000e+03 4.433265304565429688e+01 9.424401283264160156e+00 1.769932627677917480e+00 6.002353191375732422e+00 2.331685781478881836e+00 2.875927925109863281e+00
1.602000000000000000e+03 2.654384136199951172e+00 -6.396781444549560547e+00 1.698356717824935913e-01 8.405568599700927734e-01 3.031177520751953125e-01 6.398767232894897461e-01
1.603000000000000000e+03 5.586311340332031250e+00 4.216481208801269531e+00 2.410059869289398193e-01 4.535990655422210693e-01 2.083815187215805054e-01 1.117794960737228394e-01
1.604000000000000000e+03 3.200143098831176758e+00 -5.081530094146728516e+00 3.220545649528503418e-01 6.045357584953308105e-01 2.779771089553833008e-01 5.662841200828552246e-01
1.605000000000000000e+03 5.572992801666259766e+00 -3.718209075927734375e+01 -9.987742640078067780e-03 4.283192157745361328e+00 1.281961441040039062e+00 -1.446508765220642090e-01
1.606000000000000000e+03 4.874757766723632812e+01 -2.816315460205078125e+01 2.660147845745086670e-01 1.300704836845397949e+00 4.700159132480621338e-01 -8.117876648902893066e-01
1.607000000000000000e+03 4.761610794067382812e+01 -2.771600914001464844e+01 4.294106960296630859e-01 1.706648588180541992e+00 6.408177614212036133e-01 -1.045429944992065430e+00
1.608000000000000000e+03 3.799515151977539062e+01 -1.474914360046386719e+01 -5.757579579949378967e-02 1.035249328613281250e+01 3.088475227355957031e+00 -3.886420428752899170e-01
1.609000000000000000e+03 1.698988914489746094e+01 6.221262454986572266e+00 -6.683731079101562500e-01 6.406918525695800781e+00 1.721563696861267090e+00 -5.638305544853210449e-01
1.610000000000000000e+03 1.612637138366699219e+01 7.978104114532470703e+00 -5.457481741905212402e-01 6.893678188323974609e+00 1.904379010200500488e+00 -9.253087043762207031e-01
1.611000000000000000e+03 6.940156555175781250e+01 -7.437536239624023438e+00 -7.481206953525543213e-02 8.447966575622558594e+00 2.511946201324462891e+00 -7.518663406372070312e-01
1.612000000000000000e+03 4.712101745605468750e+01 1.950524330139160156e+01 9.243857264518737793e-01 4.742138385772705078e+00 1.699957251548767090e+00 1.454878449440002441e+00
1.613000000000000000e+03 2.591485786437988281e+01 -1.421246814727783203e+01 -7.498564720153808594e-01 2.134679704904556274e-01 -1.609165668487548828e-01 -6.241192817687988281e-01
1.614000000000000000e+03 1.667626190185546875e+01 3.136059522628784180e+00 8.356222510337829590e-01 6.943930625915527344e+00 2.333865880966186523e+00 1.605703830718994141e-01
1.615000000000000000e+03 3.274639511108398438e+01 -1.439333152770996094e+01 3.289285302162170410e-01 3.200461387634277344e+00 1.058816909790039062e+00 -1.685771584510803223e+00
1.616000000000000000e+03 1.870144081115722656e+01 -1.354914069175720215e+00 4.892562389373779297e+00 2.729147434234619141e+00 2.286512851715087891e+00 -1.832434177398681641e+00
1.617000000000000000e+03 2.156465911865234375e+01 -2.428217887878417969e+00 4.434885501861572266e+00 8.919182419776916504e-01 1.598041176795959473e+00 -1.879951477050781250e+00
1.618000000000000000e+03 1.609906578063964844e+01 6.818389892578125000e+00 -7.804606556892395020e-01 6.947372913360595703e+00 1.850073695182800293e+00 -7.505105733871459961e-01
1.619000000000000000e+03 1.524676418304443359e+01 6.979666233062744141e+00 -8.613471388816833496e-01 7.206268310546875000e+00 1.903476357460021973e+00 -8.853237628936767578e-01
1.620000000000000000e+03 1.231522846221923828e+01 1.486475372314453125e+01 6.406049132347106934e-01 6.727474689483642578e+00 2.210423707962036133e+00 -9.378402233123779297e-01
1.621000000000000000e+03 1.424694442749023438e+01 9.424408912658691406e+00 -3.507480025291442871e-01 6.865514278411865234e+00 1.954429864883422852e+00 -1.019659042358398438e+00
1.622000000000000000e+03 4.017425155639648438e+01 -1.737756919860839844e+01 3.424237370491027832e-01 1.092542457580566406e+01 3.380354404449462891e+00 1.406605690717697144e-01
1.623000000000000000e+03 3.906575393676757812e+01 -1.608306503295898438e+01 1.419164687395095825e-01 1.107256317138671875e+01 3.364343881607055664e+00 1.346222758293151855e-01
1.624000000000000000e+03 4.470982360839843750e+01 5.570578575134277344e+00 3.572272062301635742e-01 5.163168430328369141e+00 1.656118750572204590e+00 2.811629056930541992e+00
1.625000000000000000e+03 4.423638153076171875e+01 2.698759078979492188e+00 -2.176496982574462891e+00 6.201995849609375000e+00 1.207649588584899902e+00 2.936945676803588867e+00
1.626000000000000000e+03 1.495492935180664062e+01 1.027016448974609375e+01 -4.278339445590972900e-02 7.180637836456298828e+00 2.141356229782104492e+00 -1.215821266174316406e+00
1.627000000000000000e+03 4.990028762817382812e+01 7.159172058105468750e+00 1.037838459014892578e+00 1.392696976661682129e+00 7.291606068611145020e-01 1.188418507575988770e+00
1.628000000000000000e+03 5.100706481933593750e+01 3.278757095336914062e+00 -1.881461858749389648e+00 2.321753352880477905e-01 -4.947859644889831543e-01 2.929362356662750244e-01
1.629000000000000000e+03 8.049647331237792969e+00 -1.423028945922851562e+01 -1.244688749313354492e+00 4.734707355499267578e+00 1.047005534172058105e+00 2.739531278610229492e+00
1.630000000000000000e+03 6.522925853729248047e+00 -1.497240447998046875e+01 -9.708207249641418457e-01 5.705388069152832031e+00 1.420370221138000488e+00 1.506141781806945801e+00
1.631000000000000000e+03 7.056542205810546875e+01 -6.876821517944335938e+00 -3.123189508914947510e-01 8.577896118164062500e+00 2.479673147201538086e+00 -2.658579349517822266e-01
1.632000000000000000e+03 4.050485229492187500e+01 -2.483472061157226562e+01 1.287309288978576660e+00 6.967957019805908203e+00 2.476579904556274414e+00 -1.034199237823486328e+00
1.633000000000000000e+03 3.914368820190429688e+01 -9.282277107238769531e+00 1.535920023918151855e+00 1.144591140747070312e+01 3.894549369812011719e+00 4.985539019107818604e-01
1.634000000000000000e+03 3.692481994628906250e+01 -1.220952224731445312e+01 1.080375552177429199e+00 8.506618499755859375e+00 2.876098155975341797e+00 -6.298350095748901367e-01
1.635000000000000000e+03 2.314507293701171875e+01 -3.085407495498657227e+00 4.340792179107666016e+00 8.104749917984008789e-01 1.545380115509033203e+00 -1.643372893333435059e+00
1.636000000000000000e+03 2.503555679321289062e+01 -3.920192003250122070e+00 3.912493705749511719e+00 1.311459779739379883e+00 1.567185997962951660e+00 -1.606126785278320312e+00
1.637000000000000000e+03 4.527904510498046875e+01 1.670402908325195312e+01 1.062801122665405273e+00 5.695437908172607422e+00 2.027471780776977539e+00 1.811101555824279785e+00
1.638000000000000000e+03 1.516790580749511719e+01 -1.333789443969726562e+01 -1.627163767814636230e+00 3.427918255329132080e-01 -3.853115737438201904e-01 8.717253208160400391e-01
1.639000000000000000e+03 6.629483699798583984e+00 -3.071547317504882812e+01 -1.938852667808532715e+00 3.541144847869873047e+00 4.806876778602600098e-01 -6.484864652156829834e-02
1.640000000000000000e+03 5.749042129516601562e+01 3.830717563629150391e+00 -9.052028059959411621e-01 7.835974097251892090e-01 -3.648161143064498901e-02 -5.035254955291748047e-01
1.641000000000000000e+03 5.731455993652343750e+01 2.593920469284057617e+00 -1.546656250953674316e+00 4.401292502880096436e-01 -3.319580852985382080e-01 -2.757109105587005615e-01
1.642000000000000000e+03 3.895458221435546875e+01 -1.727312660217285156e+01 1.930238306522369385e-01 1.085206317901611328e+01 3.313526153564453125e+00 3.889987468719482422e-01
1.643000000000000000e+03 3.832382202148437500e+01 -2.161700820922851562e+01 1.500910401344299316e+00 1.017208766937255859e+01 3.501899480819702148e+00 3.404273688793182373e-01
1.644000000000000000e+03 3.899620437622070312e+01 -2.487866592407226562e+01 1.782447576522827148e+00 8.500525474548339844e+00 3.084891796112060547e+00 -5.076915025711059570e-01
1.645000000000000000e+03 7.049545288085937500e+01 -1.311857795715332031e+01 1.111301422119140625e+00 1.185905838012695312e+01 3.891108036041259766e+00 -6.153336763381958008e-01
1.646000000000000000e+03 7.390242004394531250e+01 -1.039261245727539062e+01 1.579502373933792114e-01 8.960520744323730469e+00 2.735541343688964844e+00 6.701699495315551758e-01
1.647000000000000000e+03 7.019845581054687500e+01 -4.627904891967773438e+00 -5.710486769676208496e-01 7.763618946075439453e+00 2.157771110534667969e+00 -2.571922838687896729e-01
1.648000000000000000e+03 4.477875137329101562e+01 1.252437877655029297e+01 1.605608582496643066e+00 6.059904098510742188e+00 2.299653768539428711e+00 2.530178546905517578e+00
1.649000000000000000e+03 4.481087112426757812e+01 1.396276473999023438e+01 1.447326302528381348e+00 6.062015533447265625e+00 2.252802371978759766e+00 2.284689664840698242e+00
1.650000000000000000e+03 7.194693756103515625e+01 -1.570972919464111328e+01 1.042902231216430664e+00 1.144748783111572266e+01 3.747117042541503906e+00 -4.745820164680480957e-01
1.651000000000000000e+03 7.086777496337890625e+01 -1.587698936462402344e+01 1.154726624488830566e+00 1.274927139282226562e+01 4.171199321746826172e+00 -7.976806163787841797e-01
1.652000000000000000e+03 4.188700103759765625e+01 6.268458366394042969e+00 1.125160694122314453e+00 8.747488975524902344e+00 2.961794853210449219e+00 3.019488811492919922e+00
1.653000000000000000e+03 4.544522094726562500e+01 8.721745491027832031e+00 1.682399392127990723e+00 4.792688369750976562e+00 1.942526340484619141e+00 2.698252201080322266e+00
1.654000000000000000e+03 4.417222976684570312e+01 2.742602729797363281e+01 2.759760618209838867e-01 4.232647895812988281e+00 1.352587223052978516e+00 3.785856664180755615e-01
1.655000000000000000e+03 4.891481781005859375e+01 4.607001781463623047e+00 -4.276708364486694336e-01 5.539994239807128906e-01 3.789857029914855957e-02 1.130539298057556152e+00
1.656000000000000000e+03 4.741586303710937500e+01 4.372615814208984375e+00 -1.558972597122192383e-01 1.274973750114440918e+00 3.357229530811309814e-01 2.215274572372436523e+00
1.657000000000000000e+03 4.070158767700195312e+01 4.087285995483398438e+00 -2.209679633378982544e-01 9.763792037963867188e+00 2.862847089767456055e+00 2.314664840698242188e+00
1.658000000000000000e+03 4.456010437011718750e+01 7.478421211242675781e+00 1.404564976692199707e+00 5.520069599151611328e+00 2.077390432357788086e+00 2.869858980178833008e+00
1.659000000000000000e+03 4.368229675292968750e+01 8.108569145202636719e+00 1.525463938713073730e+00 6.521100997924804688e+00 2.413969516754150391e+00 3.065827608108520508e+00
1.660000000000000000e+03 4.296235656738281250e+01 2.877413988113403320e+00 -1.476521372795104980e+00 7.985970020294189453e+00 1.952834606170654297e+00 2.590717554092407227e+00
1.661000000000000000e+03 1.791098022460937500e+01 -3.783712387084960938e+01 -2.439866364002227783e-01 -5.728029608726501465e-01 -2.450368851423263550e-01 3.778631985187530518e-01
1.662000000000000000e+03 1.959963417053222656e+01 -3.625034713745117188e+01 -7.520514726638793945e-01 -4.144179821014404297e-01 -3.499408364295959473e-01 3.483378291130065918e-01
1.663000000000000000e+03 6.924124908447265625e+01 -3.433924102783203125e+01 -9.925879240036010742e-01 6.877189636230468750e+00 1.765380501747131348e+00 3.356935381889343262e-01
1.664000000000000000e+03 3.997016525268554688e+01 2.189285278320312500e+00 -9.237764477729797363e-01 9.556844711303710938e+00 2.589920520782470703e+00 1.701425909996032715e+00
1.665000000000000000e+03 6.498877716064453125e+01 -3.523576736450195312e+01 -6.576820611953735352e-01 2.616637468338012695e+00 5.876865983009338379e-01 9.630548357963562012e-01
1.666000000000000000e+03 3.051576042175292969e+01 -5.572483539581298828e+00 3.346084117889404297e+00 4.354926347732543945e-01 1.134473085403442383e+00 -1.786143302917480469e+00
1.667000000000000000e+03 2.880113792419433594e+01 -6.048418045043945312e+00 3.210762977600097656e+00 5.248053073883056641e-01 1.120670437812805176e+00 -2.095865249633789062e+00
1.668000000000000000e+03 3.309631729125976562e+01 -3.919381856918334961e+00 2.550413131713867188e+00 1.000759959220886230e+00 1.065351963043212891e+00 -6.113621592521667480e-01
1.669000000000000000e+03 2.198484992980957031e+01 -3.487774133682250977e+00 4.277332782745361328e+00 9.188637137413024902e-01 1.558858990669250488e+00 -1.796735525131225586e+00
1.670000000000000000e+03 3.773450469970703125e+01 -2.915173530578613281e+01 3.438568115234375000e-02 7.580426692962646484e+00 2.284443616867065430e+00 -4.438172578811645508e-01
1.671000000000000000e+03 3.824856567382812500e+01 -2.799348831176757812e+01 4.210905432701110840e-01 8.010736465454101562e+00 2.529548168182373047e+00 -7.454072237014770508e-01
1.672000000000000000e+03 3.591834259033203125e+01 -1.416713237762451172e+00 2.231740802526473999e-01 3.525142431259155273e+00 1.124494910240173340e+00 1.013926506042480469e+00
1.673000000000000000e+03 1.100891017913818359e+01 1.699535560607910156e+01 8.447842001914978027e-01 5.861252307891845703e+00 2.011811017990112305e+00 -9.247646927833557129e-01
1.674000000000000000e+03 7.291277313232421875e+01 -1.430222034454345703e+01 8.521101474761962891e-01 1.024183940887451172e+01 3.328184843063354492e+00 2.352541312575340271e-02
1.675000000000000000e+03 3.609955596923828125e+01 -3.298307800292968750e+01 -1.306215286254882812e+00 6.169082164764404297e+00 1.458860039710998535e+00 3.019252717494964600e-01
1.676000000000000000e+03 7.075778198242187500e+01 -2.954910278320312500e+01 -4.393144547939300537e-01 9.048106193542480469e+00 2.582637548446655273e+00 -3.829854130744934082e-01
1.677000000000000000e+03 7.285997009277343750e+01 -2.769910812377929688e+01 8.048345148563385010e-02 9.570425033569335938e+00 2.895272493362426758e+00 -1.200888514518737793e+00
1.678000000000000000e+03 7.131092071533203125e+01 -8.877167701721191406e+00 -6.122699007391929626e-02 9.298370361328125000e+00 2.771142959594726562e+00 -1.106414478272199631e-03
1.679000000000000000e+03 7.161229705810546875e+01 -7.544147968292236328e+00 -2.649266421794891357e-01 8.830439567565917969e+00 2.569653749465942383e+00 1.049001961946487427e-01
1.680000000000000000e+03 3.655750656127929688e+01 -2.961045837402343750e+01 -3.096352815628051758e-01 8.059547424316406250e+00 2.324973583221435547e+00 1.750289946794509888e-01
1.681000000000000000e+03 4.948475265502929688e+01 5.829757690429687500e+00 4.408303201198577881e-01 9.473450779914855957e-01 4.164526164531707764e-01 1.109022259712219238e+00
1.682000000000000000e+03 3.713765716552734375e+01 -2.525336027145385742e+00 1.014181256294250488e+00 5.914698600769042969e+00 2.078663825988769531e+00 1.185041427612304688e+00
1.683000000000000000e+03 3.583530807495117188e+01 -2.528698682785034180e+00 1.122250080108642578e+00 3.833975315093994141e+00 1.486867547035217285e+00 9.459744691848754883e-01
1.684000000000000000e+03 4.610586166381835938e+01 2.982540321350097656e+01 -8.423884212970733643e-02 3.936335086822509766e+00 1.155628919601440430e+00 6.995735168457031250e-01
1.685000000000000000e+03 4.638233184814453125e+01 3.221561050415039062e+01 -4.951128661632537842e-01 3.795907497406005859e+00 9.902383685111999512e-01 6.688863635063171387e-01
1.686000000000000000e+03 4.048226928710937500e+01 -2.087205314636230469e+01 6.116334199905395508e-01 8.492440223693847656e+00 2.731221914291381836e+00 -1.161723658442497253e-01
1.687000000000000000e+03 4.118960189819335938e+01 -2.034879875183105469e+01 4.837948381900787354e-01 8.173063278198242188e+00 2.597057342529296875e+00 -4.914959967136383057e-01
1.688000000000000000e+03 1.738822937011718750e+01 3.572570037841796875e+01 -1.320940732955932617e+00 2.058777809143066406e+00 2.213511615991592407e-01 -6.738068163394927979e-02
1.689000000000000000e+03 7.174985504150390625e+01 -3.079193496704101562e+01 -8.226166367530822754e-01 8.922133445739746094e+00 2.429855108261108398e+00 -7.415130138397216797e-01
1.690000000000000000e+03 3.504991912841796875e+01 -3.658373355865478516e+00 2.013633012771606445e+00 3.130962610244750977e+00 1.543378710746765137e+00 3.998433947563171387e-01
1.691000000000000000e+03 7.179649353027343750e+01 -1.436582565307617188e+01 1.102937698364257812e+00 1.117574691772460938e+01 3.683605432510375977e+00 -2.453910410404205322e-01
1.692000000000000000e+03 6.979730224609375000e+01 -3.057792282104492188e+01 -9.555713534355163574e-01 8.267302513122558594e+00 2.193519115447998047e+00 -6.802241504192352295e-02
1.693000000000000000e+03 3.163527870178222656e+01 -6.199630260467529297e+00 3.290071487426757812e+00 9.151149392127990723e-01 1.261555910110473633e+00 -1.510321736335754395e+00
1.694000000000000000e+03 3.871527862548828125e+01 -2.255091667175292969e+01 1.510950446128845215e+00 9.874269485473632812e+00 3.415565967559814453e+00 1.123606488108634949e-01
1.695000000000000000e+03 4.568051147460937500e+01 3.505147552490234375e+01 -9.937487244606018066e-01 3.500435590744018555e+00 7.520060539245605469e-01 4.221161007881164551e-01
1.696000000000000000e+03 4.409001541137695312e+01 3.210579299926757812e+01 -5.631000995635986328e-01 3.489754676818847656e+00 8.779963850975036621e-01 5.110313296318054199e-01
1.697000000000000000e+03 6.235152435302734375e+01 -3.833607864379882812e+01 2.862691283226013184e-01 1.243846774101257324e+00 4.590347409248352051e-01 3.075833320617675781e-01
1.698000000000000000e+03 1.152728557586669922e+01 2.284234237670898438e+01 6.641012430191040039e-01 6.075334072113037109e+00 2.021830558776855469e+00 -1.029307246208190918e+00
1.699000000000000000e+03 5.214431762695312500e+01 2.721437215805053711e+00 -2.408233404159545898e+00 3.137687146663665771e-01 -6.283394098281860352e-01 3.440634012222290039e-01
1.700000000000000000e+03 1.210037708282470703e+01 2.784289932250976562e+01 -2.894706837832927704e-02 5.120908737182617188e+00 1.527588486671447754e+00 -1.027041912078857422e+00
1.701000000000000000e+03 5.734420776367187500e+00 2.436331367492675781e+01 2.160195261240005493e-01 2.929567337036132812e+00 9.436760544776916504e-01 -1.282011866569519043e+00
1.702000000000000000e+03 4.158161640167236328e+00 -2.382183837890625000e+01 1.010753989219665527e+00 7.890776634216308594e+00 2.670459270477294922e+00 1.816744565963745117e+00
1.703000000000000000e+03 4.957942962646484375e+00 -1.226171302795410156e+01 -8.067577481269836426e-01 3.601079225540161133e+00 8.382964730262756348e-01 1.092817544937133789e+00
1.704000000000000000e+03 5.029362201690673828e+00 -1.099016380310058594e+01 -6.348002552986145020e-01 3.086447715759277344e+00 7.354942560195922852e-01 1.351722717285156250e+00
1.705000000000000000e+03 1.205124473571777344e+01 -1.284961605072021484e+01 -1.075907349586486816e+00 1.291055440902709961e+00 6.454440951347351074e-02 2.653378009796142578e+00
1.706000000000000000e+03 1.117201995849609375e+01 -1.174208068847656250e+01 -8.094732761383056641e-01 2.237364053726196289e+00 4.283671975135803223e-01 2.928546667098999023e+00
1.707000000000000000e+03 6.702344512939453125e+01 -1.483614325523376465e+00 -1.192271232604980469e+00 5.772767066955566406e+00 1.374148607254028320e+00 -9.190473556518554688e-01
1.708000000000000000e+03 6.659452819824218750e+01 -2.709397077560424805e+00 -9.755756855010986328e-01 5.745704650878906250e+00 1.431038737297058105e+00 -9.200866222381591797e-01
1.709000000000000000e+03 7.320910644531250000e+01 -2.558407211303710938e+01 6.184582710266113281e-01 9.858427047729492188e+00 3.143065690994262695e+00 -9.898120760917663574e-01
1.710000000000000000e+03 7.242105102539062500e+01 -2.448358535766601562e+01 8.253446817398071289e-01 1.055678653717041016e+01 3.414639234542846680e+00 -5.046483874320983887e-01
1.711000000000000000e+03 3.337574386596679688e+01 -3.433183288574218750e+01 -1.300948023796081543e+00 4.705823898315429688e+00 1.021462798118591309e+00 1.131307363510131836e+00
1.712000000000000000e+03 6.987374114990234375e+01 -3.292302322387695312e+01 -1.180045366287231445e+00 7.441802024841308594e+00 1.878527045249938965e+00 1.425302028656005859e-01
1.713000000000000000e+03 7.273252868652343750e+01 -2.982939147949218750e+01 -4.208455979824066162e-01 9.155490875244140625e+00 2.620393753051757812e+00 -1.050160765647888184e+00
1.714000000000000000e+03 3.882814407348632812e+01 -1.835271072387695312e+01 2.135213464498519897e-01 1.080524635314941406e+01 3.305630445480346680e+00 7.937136888504028320e-01
1.715000000000000000e+03 3.555373001098632812e+01 -1.569526672363281250e+01 -5.748993158340454102e-01 8.139819145202636719e+00 2.269475936889648438e+00 -1.242090225219726562e+00
1.716000000000000000e+03 2.807674217224121094e+01 3.939690017700195312e+01 -2.045861959457397461e+00 -4.869515001773834229e-01 -7.598440051078796387e-01 -7.027576118707656860e-02
1.717000000000000000e+03 4.067195129394531250e+01 -2.677624130249023438e+01 9.079185128211975098e-01 6.365702629089355469e+00 2.182086229324340820e+00 -1.309498071670532227e+00
1.718000000000000000e+03 3.819823837280273438e+01 -2.403530120849609375e+01 1.981369256973266602e+00 1.026638793945312500e+01 3.674327135086059570e+00 4.921590164303779602e-02
1.719000000000000000e+03 8.667458534240722656e+00 -3.418390274047851562e+01 -7.731341719627380371e-01 1.141411185264587402e+00 1.104831174015998840e-01 -9.331413358449935913e-02
1.720000000000000000e+03 5.929617881774902344e+00 -1.610937881469726562e+01 -2.607653439044952393e-01 6.379544734954833984e+00 1.835633754730224609e+00 1.090361595153808594e+00
1.721000000000000000e+03 5.927135467529296875e+01 -3.614001846313476562e+01 -1.781124323606491089e-01 -3.999234363436698914e-02 -6.543143838644027710e-02 -2.675029635429382324e-01
1.722000000000000000e+03 6.352169799804687500e+01 7.654665708541870117e-01 -1.381959557533264160e+00 3.160902976989746094e+00 5.336830615997314453e-01 -1.385086536407470703e+00
1.723000000000000000e+03 1.320498657226562500e+01 -2.820849657058715820e+00 2.670317411422729492e+00 9.650652885437011719e+00 3.696290969848632812e+00 2.039069652557373047e+00
1.724000000000000000e+03 9.802160263061523438e+00 -2.630410671234130859e+00 3.122115373611450195e+00 8.920531868934631348e-01 1.204250574111938477e+00 2.033895730972290039e+00
1.725000000000000000e+03 1.089818382263183594e+01 -3.318994283676147461e+00 3.255075931549072266e+00 2.859530925750732422e+00 1.834382057189941406e+00 3.332741498947143555e+00
1.726000000000000000e+03 1.236093902587890625e+01 -3.159256219863891602e+00 2.774861812591552734e+00 7.039181232452392578e+00 2.944212913513183594e+00 3.665337085723876953e+00
1.727000000000000000e+03 1.118175697326660156e+01 -2.333920955657958984e+00 4.421409606933593750e+00 2.490953922271728516e+00 2.073709011077880859e+00 3.374084711074829102e+00
1.728000000000000000e+03 9.294039726257324219e+00 -2.808174610137939453e+00 2.698678731918334961e+00 7.616391777992248535e-01 1.038095355033874512e+00 1.819698572158813477e+00
1.729000000000000000e+03 1.170655536651611328e+01 2.162175893783569336e+00 1.146399617195129395e+00 5.209166049957275391e+00 1.906669735908508301e+00 -3.497622966766357422e+00
1.730000000000000000e+03 1.239906311035156250e+01 2.355700492858886719e+00 4.223958849906921387e-01 7.425381660461425781e+00 2.354333162307739258e+00 -3.409166336059570312e+00
1.731000000000000000e+03 1.276012229919433594e+01 2.035708904266357422e+00 4.844533503055572510e-01 9.137338638305664062e+00 2.886537790298461914e+00 -3.304612874984741211e+00
1.732000000000000000e+03 1.313715648651123047e+01 2.627336263656616211e+00 -1.400490999221801758e-01 9.151114463806152344e+00 2.703319549560546875e+00 -2.481625080108642578e+00
1.733000000000000000e+03 1.024992179870605469e+01 2.695185422897338867e+00 1.000602841377258301e+00 2.385574817657470703e+00 1.015853285789489746e+00 -2.095365762710571289e+00
1.734000000000000000e+03 9.909049987792968750e+00 3.440707445144653320e+00 7.610985040664672852e-01 2.506060123443603516e+00 9.801476001739501953e-01 -1.848338365554809570e+00
1.735000000000000000e+03 7.347772598266601562e+00 -3.832729578018188477e+00 1.566697716712951660e+00 6.674674749374389648e-01 6.702495813369750977e-01 1.452312111854553223e+00
1.736000000000000000e+03 1.039387702941894531e+01 3.137517213821411133e+00 8.045728802680969238e-01 2.976556301116943359e+00 1.134338736534118652e+00 -2.189348697662353516e+00
1.737000000000000000e+03 8.809695243835449219e+00 4.522522449493408203e+00 5.449803471565246582e-01 2.122622966766357422e+00 8.002809882164001465e-01 -1.159031152725219727e+00
1.738000000000000000e+03 1.132379150390625000e+01 3.101133584976196289e+00 6.370485424995422363e-01 4.600560665130615234e+00 1.571282744407653809e+00 -2.806410551071166992e+00
1.739000000000000000e+03 3.710449457168579102e+00 4.374954223632812500e+00 1.174842417240142822e-01 4.278951883316040039e-02 4.808212816715240479e-02 3.429925143718719482e-01
1.740000000000000000e+03 4.806465148925781250e+00 4.114299774169921875e+00 1.687872409820556641e-01 2.434815466403961182e-01 1.236806362867355347e-01 2.496368587017059326e-01
1.741000000000000000e+03 4.381848335266113281e+00 4.790278434753417969e+00 1.941385567188262939e-01 2.374942451715469360e-01 1.294898390769958496e-01 2.433060854673385620e-01
1.742000000000000000e+03 2.015523147583007812e+01 -9.196058511734008789e-01 4.329960823059082031e+00 1.525411605834960938e+00 1.756611824035644531e+00 -1.871097803115844727e+00
1.743000000000000000e+03 6.411447048187255859e+00 4.165982723236083984e+00 3.439370095729827881e-01 7.280402183532714844e-01 3.215931653976440430e-01 -1.200193613767623901e-01
1.744000000000000000e+03 3.795817375183105469e+00 6.405159473419189453e+00 1.896052658557891846e-01 2.072076648473739624e-01 1.190438792109489441e-01 1.964400559663772583e-01
1.745000000000000000e+03 1.634398460388183594e+01 1.644541919231414795e-01 5.361763000488281250e+00 6.235328197479248047e+00 3.479127407073974609e+00 -6.744980812072753906e-02
1.746000000000000000e+03 5.610266685485839844e+00 5.085880279541015625e+00 3.129407763481140137e-01 6.708490252494812012e-01 2.951369285583496094e-01 1.696536876261234283e-02
1.747000000000000000e+03 6.854246139526367188e+00 5.814945697784423828e+00 3.800145983695983887e-01 1.441534757614135742e+00 5.464648008346557617e-01 -4.091708958148956299e-01
1.748000000000000000e+03 1.825660514831542969e+01 1.394993066787719727e-01 4.366743087768554688e+00 3.398257017135620117e+00 2.329499959945678711e+00 -1.016199588775634766e+00
1.749000000000000000e+03 1.513839912414550781e+01 4.519505023956298828e+00 -7.351683974266052246e-01 7.994393348693847656e+00 2.177767515182495117e+00 -6.914244294166564941e-01
1.750000000000000000e+03 1.537633609771728516e+01 1.953909754753112793e+00 2.069438695907592773e+00 8.801789283752441406e+00 3.261368513107299805e+00 7.200196981430053711e-01
1.751000000000000000e+03 6.120439529418945312e+00 -4.842041492462158203e+00 1.033556103706359863e+00 8.290375471115112305e-01 5.587781071662902832e-01 1.370228767395019531e+00
1.752000000000000000e+03 1.374523258209228516e+01 -3.589637756347656250e+00 2.110817432403564453e+00 8.367626190185546875e+00 3.143532991409301758e+00 1.075819849967956543e+00
1.753000000000000000e+03 8.039307594299316406e+00 -3.685470104217529297e+00 1.879844784736633301e+00 7.513086199760437012e-01 7.893460392951965332e-01 1.658516764640808105e+00
1.754000000000000000e+03 1.598268032073974609e+01 4.012710094451904297e+00 -2.886902093887329102e-01 7.620612621307373047e+00 2.199576854705810547e+00 -2.186928540468215942e-01
1.755000000000000000e+03 1.426707458496093750e+01 2.987787008285522461e+00 -3.110260069370269775e-01 9.493157386779785156e+00 2.754639625549316406e+00 -1.012896656990051270e+00
1.756000000000000000e+03 1.026546478271484375e+01 3.872157335281372070e+00 5.525161623954772949e-01 3.257318019866943359e+00 1.142950296401977539e+00 -2.016040086746215820e+00
1.757000000000000000e+03 7.808476448059082031e+00 5.113795757293701172e+00 4.625523984432220459e-01 1.725866436958312988e+00 6.565256714820861816e-01 -7.186292409896850586e-01
1.758000000000000000e+03 1.494295310974121094e+01 -4.177551269531250000e+00 2.194870233535766602e+00 6.879667282104492188e+00 2.722361087799072266e+00 -4.961096048355102539e-01
1.759000000000000000e+03 2.683950614929199219e+01 -5.198849201202392578e+00 3.311755895614624023e+00 8.352969884872436523e-01 1.244115829467773438e+00 -2.080744504928588867e+00
1.760000000000000000e+03 2.242476272583007812e+01 -1.360175418853759766e+01 -9.993740916252136230e-01 6.566721200942993164e-01 -1.028105840086936951e-01 -5.507900118827819824e-01
1.761000000000000000e+03 3.307285690307617188e+01 -1.316774845123291016e+01 1.105515956878662109e+00 3.555388450622558594e+00 1.398271322250366211e+00 -1.661395549774169922e+00
1.762000000000000000e+03 1.943489456176757812e+01 -1.334077358245849609e+01 -1.332302331924438477e+00 8.322330117225646973e-01 -1.500207930803298950e-01 -3.025015592575073242e-01
1.763000000000000000e+03 3.804098510742187500e+01 -1.341643810272216797e+01 5.361767411231994629e-01 1.010711574554443359e+01 3.192987918853759766e+00 -5.545291900634765625e-01
1.764000000000000000e+03 2.535607528686523438e+01 -5.472391605377197266e+00 3.291311740875244141e+00 1.024708032608032227e+00 1.294805884361267090e+00 -1.909421801567077637e+00
1.765000000000000000e+03 3.949267196655273438e+01 -2.120093345642089844e+01 8.575693964958190918e-01 9.268304824829101562e+00 3.037762403488159180e+00 3.536188304424285889e-01
1.766000000000000000e+03 4.669179916381835938e+01 4.870837211608886719e+00 1.108474731445312500e-01 2.417583942413330078e+00 7.585294246673583984e-01 2.309286355972290039e+00
1.767000000000000000e+03 1.568618488311767578e+01 5.892088413238525391e+00 -9.445883631706237793e-01 7.277192592620849609e+00 1.899781227111816406e+00 -6.646023988723754883e-01
1.768000000000000000e+03 3.651331329345703125e+01 -1.723618125915527344e+01 -7.404397726058959961e-01 1.044406604766845703e+01 2.911087989807128906e+00 -2.076094299554824829e-01
1.769000000000000000e+03 4.659373474121093750e+01 3.957154512405395508e+00 -6.151703000068664551e-01 2.188003778457641602e+00 4.718500375747680664e-01 2.529730558395385742e+00
1.770000000000000000e+03 4.626387405395507812e+01 6.213148117065429688e+00 8.601728677749633789e-01 3.426905632019042969e+00 1.286123514175415039e+00 2.427425861358642578e+00
1.771000000000000000e+03 6.076380157470703125e+01 1.938403964042663574e+00 -1.331231832504272461e+00 1.447755336761474609e+00 3.495703637599945068e-02 -1.031622886657714844e+00
1.772000000000000000e+03 2.738695859909057617e+00 6.227253913879394531e+00 1.105577275156974792e-01 -1.813788861036300659e-01 -2.124634757637977600e-02 2.501544952392578125e-01
1.773000000000000000e+03 4.434201812744140625e+01 4.150644779205322266e+00 -6.262785196304321289e-01 5.578514575958251953e+00 1.485670924186706543e+00 3.148737668991088867e+00
1.774000000000000000e+03 3.779854965209960938e+01 -1.959060668945312500e+01 4.310144186019897461e-01 1.124050140380859375e+01 3.501454830169677734e+00 8.279847502708435059e-01
1.775000000000000000e+03 3.927736663818359375e+01 -2.021062660217285156e+01 4.986356198787689209e-01 9.969513893127441406e+00 3.140444755554199219e+00 4.498996436595916748e-01
1.776000000000000000e+03 1.272361660003662109e+01 1.119958114624023438e+01 2.864444069564342499e-02 6.404721260070800781e+00 1.930009722709655762e+00 -9.556297659873962402e-01
1.777000000000000000e+03 1.276515674591064453e+01 1.233943271636962891e+01 2.070875018835067749e-01 6.564181327819824219e+00 2.031380653381347656e+00 -9.511556029319763184e-01
1.778000000000000000e+03 1.447216033935546875e+01 -1.248650264739990234e+01 -1.052640318870544434e+00 8.225925564765930176e-01 -6.901431828737258911e-02 1.346767306327819824e+00
1.779000000000000000e+03 1.645611572265625000e+01 2.450129747390747070e+00 1.579945206642150879e+00 7.136001586914062500e+00 2.614784002304077148e+00 4.325216114521026611e-01
1.780000000000000000e+03 4.604589843750000000e+01 -2.966564559936523438e+01 1.502589136362075806e-01 2.681263208389282227e+00 8.494566082954406738e-01 -1.341599464416503906e+00
1.781000000000000000e+03 4.953339767456054688e+01 -2.885035133361816406e+01 1.411543786525726318e-01 1.117838621139526367e+00 3.776979148387908936e-01 -7.021542191505432129e-01
1.782000000000000000e+03 1.776786422729492188e+01 -1.375718688964843750e+01 -1.905834317207336426e+00 6.930229067802429199e-01 -3.638434112071990967e-01 1.956792362034320831e-02
1.783000000000000000e+03 1.832142066955566406e+01 -1.145513916015625000e+01 -3.843296468257904053e-01 1.260776758193969727e+00 2.629341185092926025e-01 -3.827474117279052734e-01
1.784000000000000000e+03 3.797305679321289062e+01 -1.205774879455566406e+01 8.212324380874633789e-01 9.976176261901855469e+00 3.239222764968872070e+00 -4.850797057151794434e-01
1.785000000000000000e+03 3.500869750976562500e+01 -1.405621433258056641e+01 2.500815689563751221e-01 6.648014068603515625e+00 2.069428682327270508e+00 -1.417172670364379883e+00
1.786000000000000000e+03 7.353498840332031250e+01 2.832359504699707031e+01 9.260050207376480103e-02 6.039784431457519531e+00 1.839715480804443359e+00 -6.046898663043975830e-02
1.787000000000000000e+03 4.755512237548828125e+01 2.232549285888671875e+01 6.406205892562866211e-01 4.557683944702148438e+00 1.559491395950317383e+00 1.121240615844726562e+00
1.788000000000000000e+03 4.610010147094726562e+01 2.698049545288085938e+01 2.559886574745178223e-01 4.226601600646972656e+00 1.344777107238769531e+00 6.866758465766906738e-01
1.789000000000000000e+03 4.713904953002929688e+01 2.104855155944824219e+01 7.216224670410156250e-01 4.698587417602539062e+00 1.626062989234924316e+00 1.241486907005310059e+00
1.790000000000000000e+03 7.378329467773437500e+01 -2.895481872558593750e+01 -1.525589078664779663e-01 9.333349227905273438e+00 2.754236936569213867e+00 -1.212286949157714844e+00
1.791000000000000000e+03 4.855228805541992188e+01 2.199342727661132812e+01 7.912452220916748047e-01 4.402069091796875000e+00 1.557994365692138672e+00 1.244114995002746582e+00
1.792000000000000000e+03 4.408242034912109375e+01 -2.695505142211914062e+01 6.274434924125671387e-01 3.768114328384399414e+00 1.318667292594909668e+00 -1.575698494911193848e+00
1.793000000000000000e+03 4.139936447143554688e+01 -2.270231437683105469e+01 1.039758205413818359e+00 6.662397861480712891e+00 2.310646772384643555e+00 -8.322947025299072266e-01
1.794000000000000000e+03 7.393325805664062500e+01 2.052428817749023438e+01 1.578633338212966919e-01 6.198566436767578125e+00 1.906928896903991699e+00 -3.494392931461334229e-01
1.795000000000000000e+03 7.486110687255859375e+01 2.381594085693359375e+01 1.040990278124809265e-01 6.245590209960937500e+00 1.904906749725341797e+00 -1.899596601724624634e-01
1.796000000000000000e+03 7.575430297851562500e+01 1.826959609985351562e+01 8.239012211561203003e-02 6.623242855072021484e+00 2.011689901351928711e+00 -3.439265191555023193e-01
1.797000000000000000e+03 7.551316833496093750e+01 1.145572853088378906e+01 1.580648869276046753e-02 7.104811191558837891e+00 2.136185407638549805e+00 -5.474825501441955566e-01
1.798000000000000000e+03 7.412709808349609375e+01 1.419398307800292969e+01 9.580375254154205322e-02 6.548277854919433594e+00 1.993224501609802246e+00 -6.008809804916381836e-01
1.799000000000000000e+03 7.609210968017578125e+01 -2.333285903930664062e+01 3.096843063831329346e-01 8.484364509582519531e+00 2.638214588165283203e+00 -7.884474396705627441e-01
1.800000000000000000e+03 7.386035156250000000e+01 -2.271038055419921875e+01 5.536407828330993652e-01 1.002065086364746094e+01 3.172287464141845703e+00 -6.519928574562072754e-01
1.801000000000000000e+03 7.578369140625000000e+01 -2.096795082092285156e+01 3.733625411987304688e-01 8.526079177856445312e+00 2.669832706451416016e+00 -5.409603118896484375e-01
1.802000000000000000e+03 7.489170074462890625e+01 -2.255575180053710938e+01 4.460698962211608887e-01 9.245370864868164062e+00 2.907432317733764648e+00 -7.413320541381835938e-01
1.803000000000000000e+03 7.435423278808593750e+01 7.440133094787597656e+00 -1.258790045976638794e-01 7.152493000030517578e+00 2.107984304428100586e+00 -6.122280955314636230e-01
1.804000000000000000e+03 7.449642944335937500e+01 4.707917690277099609e+00 -2.650237083435058594e-01 7.482542037963867188e+00 2.165255546569824219e+00 -4.486039876937866211e-01
1.805000000000000000e+03 7.437604522705078125e+01 -3.053520917892456055e-01 -4.382298886775970459e-01 7.891050815582275391e+00 2.235846281051635742e+00 5.699512362480163574e-02
1.806000000000000000e+03 7.346151733398437500e+01 1.657016277313232422e+00 -5.338512063026428223e-01 7.495932579040527344e+00 2.088624477386474609e+00 -2.891788482666015625e-01
1.807000000000000000e+03 7.495501708984375000e+01 2.528242683410644531e+01 9.396630525588989258e-02 6.220231056213378906e+00 1.894259214401245117e+00 -1.416502743959426880e-01
1.808000000000000000e+03 7.415467071533203125e+01 -8.186918258666992188e+00 -1.262208968400955200e-01 8.660994529724121094e+00 2.560432195663452148e+00 7.195856571197509766e-01
1.809000000000000000e+03 7.570622253417968750e+01 -6.907065868377685547e+00 -1.527913510799407959e-01 8.253171920776367188e+00 2.430114269256591797e+00 7.409241795539855957e-01
1.810000000000000000e+03 7.428992462158203125e+01 1.009365653991699219e+01 -2.200683206319808960e-02 6.900170326232910156e+00 2.063449144363403320e+00 -6.570296287536621094e-01
1.811000000000000000e+03 7.555429840087890625e+01 -1.336334800720214844e+01 3.952094316482543945e-01 8.353145599365234375e+00 2.624506473541259766e+00 5.367761850357055664e-01
1.812000000000000000e+03 7.224302673339843750e+01 -1.833988380432128906e+01 6.111232638359069824e-01 1.170197677612304688e+01 3.693929910659790039e+00 -5.249447822570800781e-01
1.813000000000000000e+03 7.402310943603515625e+01 -1.441758441925048828e+01 6.535981297492980957e-01 9.405299186706542969e+00 3.017669200897216797e+00 2.553948462009429932e-01
1.814000000000000000e+03 7.573123168945312500e+01 -1.042586326599121094e+01 1.108839511871337891e-01 8.217247009277343750e+00 2.498439311981201172e+00 7.865101099014282227e-01
1.815000000000000000e+03 7.289509582519531250e+01 -1.302101516723632812e+01 7.481484413146972656e-01 9.977355957031250000e+00 3.217651367187500000e+00 2.790514528751373291e-01
1.816000000000000000e+03 7.155242156982421875e+01 -3.336174249649047852e+00 -6.656810641288757324e-01 7.799468517303466797e+00 2.140136241912841797e+00 2.755674719810485840e-02
1.817000000000000000e+03 7.449900054931640625e+01 -5.516444683074951172e+00 -3.170333206653594971e-01 8.308949470520019531e+00 2.397574901580810547e+00 5.888849496841430664e-01
1.818000000000000000e+03 7.457541656494140625e+01 2.460147142410278320e+00 -3.736569583415985107e-01 7.701311588287353516e+00 2.198296308517456055e+00 -2.565082907676696777e-01
1.819000000000000000e+03 7.403537750244140625e+01 -2.683667564392089844e+01 3.834572136402130127e-01 9.448740959167480469e+00 2.949659347534179688e+00 -1.221781969070434570e+00
1.820000000000000000e+03 7.471995544433593750e+01 1.784225082397460938e+01 1.198126450181007385e-01 6.450917243957519531e+00 1.971218943595886230e+00 -4.408343732357025146e-01
1.821000000000000000e+03 7.397537231445312500e+01 1.569377708435058594e+01 1.271875798702239990e-01 6.414625644683837891e+00 1.962543964385986328e+00 -5.594543218612670898e-01
1.822000000000000000e+03 7.515084838867187500e+01 -8.757357597351074219e+00 -3.728387132287025452e-02 8.379817962646484375e+00 2.502760171890258789e+00 8.107908964157104492e-01
1.823000000000000000e+03 7.524237823486328125e+01 -1.991179847717285156e+01 3.821733295917510986e-01 8.963444709777832031e+00 2.803685426712036133e+00 -4.681919515132904053e-01
1.824000000000000000e+03 7.497478485107421875e+01 2.792804145812988281e+01 6.755971908569335938e-02 6.201952457427978516e+00 1.880853652954101562e+00 -5.848978832364082336e-02
1.825000000000000000e+03 7.413818359375000000e+01 -2.670561552047729492e+00 -4.399604797363281250e-01 8.038451194763183594e+00 2.279547214508056641e+00 3.042196929454803467e-01
1.826000000000000000e+03 7.442620849609375000e+01 6.073730468750000000e+00 -2.179718017578125000e-01 7.296886920928955078e+00 2.123674392700195312e+00 -5.561354160308837891e-01
1.827000000000000000e+03 7.341633605957031250e+01 3.285797500610351562e+01 3.368755057454109192e-02 6.053431034088134766e+00 1.826135516166687012e+00 1.860016584396362305e-02
1.828000000000000000e+03 7.362883758544921875e+01 -3.097521972656250000e+01 -5.627282857894897461e-01 9.109046936035156250e+00 2.563895463943481445e+00 -1.036673784255981445e+00
1.829000000000000000e+03 7.530625915527343750e+01 -3.142194938659667969e+01 -2.926987111568450928e-01 9.181826591491699219e+00 2.666738271713256836e+00 -1.032789587974548340e+00
1.830000000000000000e+03 7.422010040283203125e+01 1.278738594055175781e+01 6.797585636377334595e-02 6.656954288482666016e+00 2.017479181289672852e+00 -6.395360231399536133e-01
1.831000000000000000e+03 7.427352142333984375e+01 1.142223262786865234e+01 1.589211821556091309e-02 6.786442756652832031e+00 2.040700435638427734e+00 -6.594620943069458008e-01
1.832000000000000000e+03 7.518812561035156250e+01 -2.625108909606933594e+01 2.791337668895721436e-01 9.041058540344238281e+00 2.796057701110839844e+00 -1.204879879951477051e+00
1.833000000000000000e+03 4.197776794433593750e+01 -2.622552680969238281e+01 8.344185352325439453e-01 5.599643707275390625e+00 1.930218696594238281e+00 -1.463316798210144043e+00
1.834000000000000000e+03 4.261705398559570312e+01 -2.782845115661621094e+01 5.067977309226989746e-01 4.765041828155517578e+00 1.581551909446716309e+00 -1.581794977188110352e+00
1.835000000000000000e+03 9.626178741455078125e+00 2.820758056640625000e+01 -1.004116609692573547e-01 4.398898601531982422e+00 1.289546012878417969e+00 -1.421075820922851562e+00
1.836000000000000000e+03 9.895124435424804688e+00 -1.235742092132568359e+01 -1.166620135307312012e+00 2.910358428955078125e+00 5.231214761734008789e-01 3.156103610992431641e+00
1.837000000000000000e+03 5.306217670440673828e+00 -9.986801147460937500e+00 -4.158196151256561279e-01 2.653069257736206055e+00 6.711748838424682617e-01 1.604217529296875000e+00
1.838000000000000000e+03 4.334120750427246094e+00 2.692470359802246094e+01 2.735744416713714600e-02 2.747727632522583008e+00 8.325254917144775391e-01 -1.170335292816162109e+00
1.839000000000000000e+03 5.529815673828125000e+00 2.873833847045898438e+01 -7.526981830596923828e-02 3.324233293533325195e+00 9.746890068054199219e-01 -1.343024492263793945e+00
1.840000000000000000e+03 1.850370407104492188e+01 -1.282781219482421875e+01 -1.167407155036926270e+00 9.224601387977600098e-01 -7.348413020372390747e-02 -2.589463889598846436e-01
1.841000000000000000e+03 1.546072483062744141e+01 -1.179178142547607422e+01 -7.687110900878906250e-01 1.152761578559875488e+00 1.152151301503181458e-01 7.351989150047302246e-01
1.842000000000000000e+03 7.377954101562500000e+01 -3.631343460083007812e+01 -4.976074397563934326e-01 8.402373313903808594e+00 2.371429920196533203e+00 -3.754852414131164551e-01
1.843000000000000000e+03 7.520335388183593750e+01 -3.658745956420898438e+01 -4.369384646415710449e-01 9.058144569396972656e+00 2.586361646652221680e+00 -5.687628984451293945e-01
1.844000000000000000e+03 8.520135879516601562e+00 2.360535621643066406e+01 5.263706445693969727e-01 4.221468925476074219e+00 1.424351930618286133e+00 -1.342534065246582031e+00
1.845000000000000000e+03 1.183078384399414062e+01 2.611541557312011719e+01 3.093619942665100098e-01 5.474029064178466797e+00 1.735017299652099609e+00 -1.061408877372741699e+00
1.846000000000000000e+03 4.892382144927978516e+00 -1.536181163787841797e+01 -6.002092361450195312e-01 5.240465164184570312e+00 1.392076730728149414e+00 4.089959263801574707e-01
1.847000000000000000e+03 1.189718437194824219e+01 1.617017555236816406e+01 7.957140803337097168e-01 6.534761905670166016e+00 2.199142694473266602e+00 -9.435779452323913574e-01
1.848000000000000000e+03 1.142033290863037109e+01 1.831558036804199219e+01 8.563665151596069336e-01 6.274781703948974609e+00 2.139344453811645508e+00 -1.005824565887451172e+00
1.849000000000000000e+03 4.254429817199707031e+00 1.574772071838378906e+01 1.878852993249893188e-01 1.213303923606872559e+00 4.203567504882812500e-01 -3.752661347389221191e-01
1.850000000000000000e+03 4.588895797729492188e+00 2.117688179016113281e+01 2.454965114593505859e-01 2.057360410690307617e+00 6.908570528030395508e-01 -8.882819414138793945e-01
1.851000000000000000e+03 6.400015830993652344e+00 2.830438041687011719e+01 -6.716254353523254395e-02 3.479525804519653320e+00 1.023708939552307129e+00 -1.420794606208801270e+00
1.852000000000000000e+03 4.791915893554687500e+00 2.791545867919921875e+01 -1.125043351203203201e-02 3.038622856140136719e+00 9.082117080688476562e-01 -1.263354539871215820e+00
1.853000000000000000e+03 5.381469249725341797e+00 1.714370536804199219e+01 3.114531636238098145e-01 2.055998802185058594e+00 7.102355957031250000e-01 -5.885043144226074219e-01
1.854000000000000000e+03 5.460517406463623047e+00 1.417232799530029297e+01 2.421776801347732544e-01 1.890037536621093750e+00 6.396645307540893555e-01 -3.522833287715911865e-01
1.855000000000000000e+03 6.940804958343505859e+00 -1.382530593872070312e+01 -1.313495039939880371e+00 5.059359073638916016e+00 1.123759150505065918e+00 2.030423641204833984e+00
1.856000000000000000e+03 6.604697704315185547e+00 2.178397941589355469e+01 3.953464925289154053e-01 3.121428966522216797e+00 1.055032610893249512e+00 -1.120771527290344238e+00
1.857000000000000000e+03 5.220318794250488281e+00 1.837132263183593750e+01 3.241514265537261963e-01 2.057158946990966797e+00 7.143930792808532715e-01 -6.958982348442077637e-01
1.858000000000000000e+03 5.913542270660400391e+00 2.060055923461914062e+01 3.647719621658325195e-01 2.657610416412353516e+00 9.067146778106689453e-01 -9.882467985153198242e-01
1.859000000000000000e+03 7.846498489379882812e+00 3.337242889404296875e+01 -5.726754665374755859e-01 3.903474569320678711e+00 9.992396831512451172e-01 -1.165588021278381348e+00
1.860000000000000000e+03 4.620504379272460938e+01 1.109075736999511719e+01 1.902777433395385742e+00 4.613997936248779297e+00 1.955032706260681152e+00 2.477234601974487305e+00
1.861000000000000000e+03 4.739027404785156250e+01 -2.936041259765625000e+01 1.777233332395553589e-01 2.184030055999755859e+00 7.085260152816772461e-01 -1.182548165321350098e+00
1.862000000000000000e+03 4.348233222961425781e+00 -6.732038974761962891e+00 3.135916888713836670e-01 1.250175476074218750e+00 4.691301584243774414e-01 1.141853451728820801e+00
1.863000000000000000e+03 1.025691127777099609e+01 1.324443340301513672e+01 3.711193799972534180e-01 4.949870109558105469e+00 1.596296787261962891e+00 -6.744693517684936523e-01
1.864000000000000000e+03 3.856475591659545898e+00 9.988038063049316406e+00 1.395583599805831909e-01 6.043620705604553223e-01 2.231761217117309570e-01 -3.225943073630332947e-02
1.865000000000000000e+03 4.798811435699462891e+00 9.529311180114746094e+00 1.714584827423095703e-01 1.083726048469543457e+00 3.765553534030914307e-01 -1.178015097975730896e-01
1.866000000000000000e+03 4.588288307189941406e+00 8.582137107849121094e+00 1.790455728769302368e-01 7.932457923889160156e-01 2.916873991489410400e-01 -2.521181479096412659e-02
1.867000000000000000e+03 5.404603958129882812e+00 8.703182220458984375e+00 2.293633520603179932e-01 1.354043602943420410e+00 4.750220775604248047e-01 -1.629805415868759155e-01
1.868000000000000000e+03 5.933689117431640625e+00 -1.349835014343261719e+01 -1.074414491653442383e+00 4.633342742919921875e+00 1.067678451538085938e+00 1.502554774284362793e+00
1.869000000000000000e+03 7.204872608184814453e+00 -1.258435916900634766e+01 -1.185753226280212402e+00 4.162658214569091797e+00 8.930714726448059082e-01 2.423476696014404297e+00
1.870000000000000000e+03 3.216696166992187500e+01 -1.280319786071777344e+01 1.362566590309143066e+00 2.435839414596557617e+00 1.139521837234497070e+00 -1.678603529930114746e+00
1.871000000000000000e+03 4.885612010955810547e+00 -8.141553878784179688e+00 6.508757174015045166e-02 1.867500662803649902e+00 5.797764658927917480e-01 1.454548954963684082e+00
1.872000000000000000e+03 4.972410202026367188e+00 -5.813870906829833984e+00 5.927510857582092285e-01 9.829392433166503906e-01 4.727070927619934082e-01 1.188225150108337402e+00
1.873000000000000000e+03 5.489155960083007812e+01 3.120941400527954102e+00 -1.638007164001464844e+00 3.613593876361846924e-01 -3.829943537712097168e-01 5.705191567540168762e-02
1.874000000000000000e+03 5.324015426635742188e+01 5.185086250305175781e+00 -4.010612368583679199e-01 5.476717352867126465e-01 4.398316144943237305e-02 1.586719602346420288e-01
1.875000000000000000e+03 6.348472118377685547e+00 3.783717346191406250e+01 -5.361818671226501465e-01 3.972710609436035156e+00 1.030958652496337891e+00 -6.104972362518310547e-01
1.876000000000000000e+03 4.442786216735839844e+00 3.567829895019531250e+01 -3.053683936595916748e-01 3.949694395065307617e+00 1.093297839164733887e+00 -7.498131990432739258e-01
1.877000000000000000e+03 4.945525360107421875e+01 2.058724975585937500e+01 1.055031776428222656e+00 4.146078109741210938e+00 1.560333013534545898e+00 1.345229387283325195e+00
1.878000000000000000e+03 1.418404769897460938e+01 8.173735618591308594e+00 -6.502794027328491211e-01 6.913563251495361328e+00 1.878985166549682617e+00 -1.021679997444152832e+00
1.879000000000000000e+03 7.007519721984863281e+00 -1.027404880523681641e+01 -5.394971370697021484e-01 3.060500144958496094e+00 7.563009262084960938e-01 2.362121582031250000e+00
1.880000000000000000e+03 9.534377098083496094e+00 -1.341619586944580078e+01 -1.330288290977478027e+00 3.213537931442260742e+00 5.649748444557189941e-01 3.324284315109252930e+00
1.881000000000000000e+03 4.024542236328125000e+01 -2.301083564758300781e+01 1.246500372886657715e+00 8.053860664367675781e+00 2.790108203887939453e+00 -4.746583402156829834e-01
1.882000000000000000e+03 5.606286239624023438e+01 2.826582431793212891e+00 -1.644375085830688477e+00 3.689602315425872803e-01 -3.826244473457336426e-01 -5.520576983690261841e-02
1.883000000000000000e+03 5.425605392456054688e+01 4.718101024627685547e+00 -6.949303150177001953e-01 5.222857594490051270e-01 -5.179336294531822205e-02 -3.629392758011817932e-02
1.884000000000000000e+03 1.367485809326171875e+01 8.674413681030273438e+00 -5.534640550613403320e-01 6.695663452148437500e+00 1.842659831047058105e+00 -1.037541747093200684e+00
1.885000000000000000e+03 1.345067882537841797e+01 9.931338310241699219e+00 -2.581374943256378174e-01 6.614409923553466797e+00 1.906881690025329590e+00 -1.018953204154968262e+00
1.886000000000000000e+03 1.270764064788818359e+01 2.949182271957397461e+00 -2.579545974731445312e-02 7.864891052246093750e+00 2.351728677749633789e+00 -2.793482303619384766e+00
1.887000000000000000e+03 4.499077224731445312e+01 1.532607936859130859e+01 1.226013183593750000e+00 5.910478115081787109e+00 2.140947341918945312e+00 2.021205186843872070e+00
1.888000000000000000e+03 1.592488098144531250e+01 2.603684186935424805e+00 1.068155765533447266e+00 8.027435302734375000e+00 2.728677272796630859e+00 3.385455310344696045e-01
1.889000000000000000e+03 1.703109550476074219e+01 4.679512023925781250e+00 -4.619738459587097168e-01 6.517992496490478516e+00 1.816805601119995117e+00 -2.386333644390106201e-01
1.890000000000000000e+03 6.261197662353515625e+01 2.585404157638549805e+00 -1.043688654899597168e+00 2.633457660675048828e+00 4.769307374954223633e-01 -1.402859449386596680e+00
1.891000000000000000e+03 6.152652740478515625e+01 1.080618500709533691e-01 -1.718438267707824707e+00 1.487112998962402344e+00 -6.939759105443954468e-02 -9.368131756782531738e-01
1.892000000000000000e+03 3.782446670532226562e+01 -1.064206790924072266e+01 1.517540931701660156e+00 9.382027626037597656e+00 3.269870758056640625e+00 -1.690178960561752319e-01
1.893000000000000000e+03 3.602334213256835938e+01 -1.250716304779052734e+01 8.545297384262084961e-01 7.451733589172363281e+00 2.491878986358642578e+00 -9.112787842750549316e-01
1.894000000000000000e+03 3.458557510375976562e+01 -1.514988803863525391e+01 -3.996070623397827148e-01 6.264365673065185547e+00 1.759427547454833984e+00 -1.752399921417236328e+00
1.895000000000000000e+03 4.583733367919921875e+01 1.396707344055175781e+01 1.570330023765563965e+00 5.372737407684326172e+00 2.082920312881469727e+00 2.244633436203002930e+00
1.896000000000000000e+03 4.850552749633789062e+01 2.654891204833984375e+01 3.546710312366485596e-01 4.164325714111328125e+00 1.355698943138122559e+00 9.162407517433166504e-01
1.897000000000000000e+03 4.605949783325195312e+01 1.509541320800781250e+01 1.454753637313842773e+00 5.262129306793212891e+00 2.015064716339111328e+00 2.096061468124389648e+00
1.898000000000000000e+03 7.211926269531250000e+01 -1.704708099365234375e+01 8.683615922927856445e-01 1.161291980743408203e+01 3.744384527206420898e+00 -4.978221058845520020e-01
1.899000000000000000e+03 3.980290985107421875e+01 -1.854136085510253906e+01 4.874672889709472656e-01 1.031955814361572266e+01 3.242107629776000977e+00 2.058981359004974365e-01
1.900000000000000000e+03 3.774167251586914062e+01 -1.726280021667480469e+01 -2.569494545459747314e-01 1.077556610107421875e+01 3.155585050582885742e+00 5.440140366554260254e-01
1.901000000000000000e+03 7.152162933349609375e+01 -1.166644191741943359e+01 5.772573351860046387e-01 1.043127250671386719e+01 3.302558898925781250e+00 1.954518444836139679e-02
1.902000000000000000e+03 6.815602779388427734e+00 2.476673316955566406e+01 2.515326738357543945e-01 3.409279346466064453e+00 1.098243594169616699e+00 -1.403291463851928711e+00
1.903000000000000000e+03 6.148056793212890625e+01 3.113028526306152344e+00 -9.105234146118164062e-01 2.079835176467895508e+00 3.507935106754302979e-01 -1.233334898948669434e+00
1.904000000000000000e+03 6.055204391479492188e+01 3.612903833389282227e+00 -8.062368631362915039e-01 1.703424572944641113e+00 2.691563069820404053e-01 -1.147690176963806152e+00
1.905000000000000000e+03 1.327970027923583984e+01 -1.286119365692138672e+01 -1.224667549133300781e+00 8.953105211257934570e-01 -9.880711883306503296e-02 1.966964006423950195e+00
1.906000000000000000e+03 9.434683799743652344e+00 -9.742186546325683594e+00 -2.989514768123626709e-01 2.895177602767944336e+00 7.788678407669067383e-01 2.983751058578491211e+00
1.907000000000000000e+03 6.711283874511718750e+01 -4.093945312500000000e+01 -1.623670943081378937e-02 4.302472591400146484e+00 1.285870790481567383e+00 1.624338924884796143e-01
1.908000000000000000e+03 5.979345321655273438e+01 4.895263671875000000e+00 -4.150629937648773193e-01 1.583742618560791016e+00 3.506038784980773926e-01 -9.979734420776367188e-01
1.909000000000000000e+03 5.862914657592773438e+01 3.727292299270629883e+00 -8.503396511077880859e-01 1.084973335266113281e+00 7.039010524749755859e-02 -7.280195355415344238e-01
1.910000000000000000e+03 4.370987319946289062e+01 6.264700412750244141e+00 8.758841156959533691e-01 6.421027183532714844e+00 2.189073324203491211e+00 2.933979272842407227e+00
1.911000000000000000e+03 4.660799026489257812e+01 9.620567321777343750e+00 1.800231575965881348e+00 4.000576019287109375e+00 1.740242242813110352e+00 2.424970149993896484e+00
1.912000000000000000e+03 7.346248626708984375e+01 -2.370277976989746094e+01 6.591253876686096191e-01 1.007151699066162109e+01 3.219192743301391602e+00 -7.703089714050292969e-01
1.913000000000000000e+03 5.223424911499023438e+01 5.876891613006591797e+00 6.440842151641845703e-02 7.193283438682556152e-01 2.351210266351699829e-01 3.726091086864471436e-01
1.914000000000000000e+03 2.904194641113281250e+01 -1.340840911865234375e+01 6.660979986190795898e-01 4.745313823223114014e-01 3.421888053417205811e-01 -1.078651666641235352e+00
1.915000000000000000e+03 2.760565948486328125e+01 -1.330178165435791016e+01 3.728400468826293945e-01 1.762618422508239746e-01 1.647305637598037720e-01 -9.605522155761718750e-01
1.916000000000000000e+03 7.369503021240234375e+01 -2.161242675781250000e+01 5.680666565895080566e-01 1.010505294799804688e+01 3.201935768127441406e+00 -5.454857945442199707e-01
1.917000000000000000e+03 2.102438735961914062e+01 -1.592900633811950684e+00 4.395143985748291016e+00 9.857987761497497559e-01 1.614282727241516113e+00 -1.889688014984130859e+00
1.918000000000000000e+03 2.027857017517089844e+01 -3.138011693954467773e+00 4.355959892272949219e+00 1.577614307403564453e+00 1.780072212219238281e+00 -2.018430471420288086e+00
1.919000000000000000e+03 4.576642990112304688e+01 5.173008441925048828e+00 2.544429004192352295e-01 3.672898054122924805e+00 1.178202271461486816e+00 2.752464532852172852e+00
1.920000000000000000e+03 4.268798065185546875e+01 5.270513534545898438e+00 7.364284247159957886e-02 7.690234661102294922e+00 2.329163312911987305e+00 2.948156595230102539e+00
1.921000000000000000e+03 5.569863128662109375e+01 5.657367229461669922e+00 -1.772993505001068115e-01 7.967278361320495605e-01 1.858285367488861084e-01 -2.762189805507659912e-01
1.922000000000000000e+03 5.636287689208984375e+01 4.065497875213623047e+00 -9.097288250923156738e-01 6.119063496589660645e-01 -8.934674412012100220e-02 -2.948392927646636963e-01
1.923000000000000000e+03 1.706675148010253906e+01 2.010719299316406250e+00 2.253337621688842773e+00 5.860465049743652344e+00 2.434140682220458984e+00 4.903306066989898682e-02
1.924000000000000000e+03 1.971944999694824219e+01 8.330673575401306152e-01 2.977256298065185547e+00 2.234155178070068359e+00 1.563423395156860352e+00 -1.185801625251770020e+00
1.925000000000000000e+03 7.166682434082031250e+01 -1.302316379547119141e+01 9.126192927360534668e-01 1.084507560729980469e+01 3.527308702468872070e+00 -9.577786922454833984e-02
1.926000000000000000e+03 7.281130218505859375e+01 -1.168774890899658203e+01 4.818399548530578613e-01 9.747246742248535156e+00 3.068726062774658203e+00 3.781491219997406006e-01
1.927000000000000000e+03 1.361123085021972656e+01 3.478749084472656250e+01 -1.166727066040039062e+00 3.544641017913818359e+00 7.133741378784179688e-01 -5.159199833869934082e-01
1.928000000000000000e+03 1.576888561248779297e+01 3.392227935791015625e+01 -1.107641339302062988e+00 3.004456043243408203e+00 5.690444111824035645e-01 -1.913710236549377441e-01
1.929000000000000000e+03 9.108057022094726562e+00 2.136275672912597656e+01 6.914978623390197754e-01 4.581613540649414062e+00 1.581933379173278809e+00 -1.164022564888000488e+00
1.930000000000000000e+03 1.260957145690917969e+01 1.357934856414794922e+01 4.454781413078308105e-01 6.666093349456787109e+00 2.133471488952636719e+00 -9.596368670463562012e-01
1.931000000000000000e+03 3.919542694091796875e+01 -2.343928909301757812e+01 1.644723653793334961e+00 8.762513160705566406e+00 3.122170925140380859e+00 -1.567130535840988159e-01
1.932000000000000000e+03 2.904001426696777344e+01 -8.067183494567871094e+00 2.894180297851562500e+00 6.403086781501770020e-01 1.060346722602844238e+00 -1.918387651443481445e+00
1.933000000000000000e+03 2.991037750244140625e+01 -6.898570060729980469e+00 3.265632867813110352e+00 7.245686650276184082e-01 1.197060465812683105e+00 -2.026203870773315430e+00
1.934000000000000000e+03 3.962236022949218750e+01 -5.073698043823242188e+00 1.626787185668945312e+00 1.101586723327636719e+01 3.792796373367309570e+00 1.845546960830688477e+00
1.935000000000000000e+03 3.404853820800781250e+01 -4.687942028045654297e+00 2.683368444442749023e+00 2.190428018569946289e+00 1.462138891220092773e+00 -2.678562700748443604e-01
1.936000000000000000e+03 3.841160202026367188e+01 -6.480903148651123047e+00 2.112843990325927734e+00 9.384246826171875000e+00 3.449127197265625000e+00 9.670473337173461914e-01
1.937000000000000000e+03 3.876055908203125000e+01 -7.800747156143188477e-01 -1.617387831211090088e-01 8.112814903259277344e+00 2.385322809219360352e+00 1.457595825195312500e+00
1.938000000000000000e+03 1.150086688995361328e+01 1.981545639038085938e+01 8.415728807449340820e-01 6.388103961944580078e+00 2.168903112411499023e+00 -1.049585103988647461e+00
1.939000000000000000e+03 6.547901153564453125e+00 1.740964317321777344e+01 4.463763535022735596e-01 2.816651105880737305e+00 9.789082407951354980e-01 -6.929535269737243652e-01
1.940000000000000000e+03 3.892362213134765625e+01 -3.172663307189941406e+01 -8.379408717155456543e-01 6.323702335357666016e+00 1.645728349685668945e+00 -7.863410711288452148e-01
1.941000000000000000e+03 3.923031234741210938e+01 -2.984015274047851562e+01 -2.892918586730957031e-01 6.821028232574462891e+00 1.959520816802978516e+00 -1.061416387557983398e+00
1.942000000000000000e+03 4.167553710937500000e+01 3.576129531860351562e+01 -1.296561360359191895e+00 2.378743886947631836e+00 3.246547579765319824e-01 1.059524044394493103e-01
1.943000000000000000e+03 3.415729141235351562e+01 -6.336784362792968750e+00 2.935202360153198242e+00 2.961828947067260742e+00 1.769109368324279785e+00 -5.189574360847473145e-01
1.944000000000000000e+03 2.698670196533203125e+01 -9.207876205444335938e+00 2.207491874694824219e+00 4.609197974205017090e-01 8.005234599113464355e-01 -1.708936333656311035e+00
1.945000000000000000e+03 2.375327110290527344e+01 -9.268259048461914062e+00 1.722756862640380859e+00 7.538027763366699219e-01 7.429679036140441895e-01 -1.455523490905761719e+00
1.946000000000000000e+03 3.857200241088867188e+01 -2.700699806213378906e+01 1.019796848297119141e+00 7.942063331604003906e+00 2.688558101654052734e+00 -9.019631743431091309e-01
1.947000000000000000e+03 7.181084442138671875e+01 4.104785537719726562e+01 -2.837989851832389832e-02 5.948218345642089844e+00 1.775951504707336426e+00 1.382779423147439957e-02
1.948000000000000000e+03 8.885029792785644531e+00 1.769214439392089844e+01 6.882491707801818848e-01 4.316778182983398438e+00 1.501508235931396484e+00 -8.550543785095214844e-01
1.949000000000000000e+03 1.151554584503173828e+01 2.130760383605957031e+01 7.355387806892395020e-01 6.280220985412597656e+00 2.104727983474731445e+00 -1.036824584007263184e+00
1.950000000000000000e+03 3.909027481079101562e+01 -2.630539512634277344e+01 1.263279557228088379e+00 7.820053577423095703e+00 2.724999904632568359e+00 -7.964080572128295898e-01
1.951000000000000000e+03 5.580078601837158203e+00 -3.221809768676757812e+01 -1.186283349990844727e+00 4.531001091003417969e+00 1.003415346145629883e+00 -1.278842985630035400e-02
1.952000000000000000e+03 5.229940891265869141e+00 -3.484646224975585938e+01 -5.503834486007690430e-01 4.591228008270263672e+00 1.212253451347351074e+00 -2.435682862997055054e-01
1.953000000000000000e+03 7.321363830566406250e+01 -6.668886184692382812e+00 -3.283431231975555420e-01 8.554012298583984375e+00 2.467700958251953125e+00 4.943573772907257080e-01
1.954000000000000000e+03 7.016389465332031250e+01 -5.840970039367675781e+00 -3.803308010101318359e-01 8.119338989257812500e+00 2.321702480316162109e+00 -3.717606663703918457e-01
1.955000000000000000e+03 1.083416938781738281e+01 2.804032897949218750e+01 -6.892284750938415527e-02 4.727922916412353516e+00 1.397699952125549316e+00 -1.293079137802124023e+00
1.956000000000000000e+03 9.692245483398437500e+00 2.988987350463867188e+01 -3.364621400833129883e-01 4.288487434387207031e+00 1.185607552528381348e+00 -1.368948578834533691e+00
1.957000000000000000e+03 1.162059116363525391e+01 2.444721984863281250e+01 5.486007928848266602e-01 5.790516853332519531e+00 1.901735305786132812e+00 -1.038728475570678711e+00
1.958000000000000000e+03 1.025229930877685547e+01 2.289588356018066406e+01 6.266403198242187500e-01 5.179547309875488281e+00 1.741856336593627930e+00 -1.208305835723876953e+00
1.959000000000000000e+03 4.521135330200195312e+01 2.821973609924316406e+01 1.979683488607406616e-01 4.064140319824218750e+00 1.278632640838623047e+00 5.660220384597778320e-01
1.960000000000000000e+03 4.761915588378906250e+01 2.844235420227050781e+01 1.097335070371627808e-01 4.062491416931152344e+00 1.251667499542236328e+00 8.213843107223510742e-01
1.961000000000000000e+03 6.580708312988281250e+01 1.109730839729309082e+00 -1.214061498641967773e+00 4.671028614044189453e+00 1.037090063095092773e+00 -1.311758279800415039e+00
1.962000000000000000e+03 6.525605773925781250e+01 2.351684570312500000e+00 -1.077796816825866699e+00 4.240633487701416016e+00 9.488509297370910645e-01 -1.407377123832702637e+00
1.963000000000000000e+03 1.560202503204345703e+01 3.825803756713867188e+01 -1.410394668579101562e+00 2.581377267837524414e+00 3.512947857379913330e-01 -1.095160916447639465e-01
1.964000000000000000e+03 7.197674560546875000e+01 -3.563094329833984375e+01 -7.570799589157104492e-01 7.692324161529541016e+00 2.080573320388793945e+00 -1.260331869125366211e-01
1.965000000000000000e+03 7.429523468017578125e+01 -3.484053421020507812e+01 -5.998615622520446777e-01 8.705944061279296875e+00 2.431824684143066406e+00 -6.151543855667114258e-01
1.966000000000000000e+03 1.343111991882324219e+01 -3.561191558837890625e+01 -6.924256682395935059e-01 -2.972409129142761230e-01 -2.968999743461608887e-01 4.777164757251739502e-01
1.967000000000000000e+03 4.103746414184570312e+01 -2.825020408630371094e+01 2.770960628986358643e-01 6.041266441345214844e+00 1.895508885383605957e+00 -1.428488135337829590e+00
1.968000000000000000e+03 1.242130470275878906e+01 3.148168563842773438e+01 -7.356562614440917969e-01 4.290294647216796875e+00 1.066391468048095703e+00 -8.768262863159179688e-01
1.969000000000000000e+03 7.303271293640136719e+00 2.968582153320312500e+01 -1.989839375019073486e-01 3.784137725830078125e+00 1.075546145439147949e+00 -1.440636396408081055e+00
1.970000000000000000e+03 2.803638458251953125e+01 -3.885001373291015625e+01 -7.813400626182556152e-01 1.650631546974182129e+00 2.607874572277069092e-01 5.457265377044677734e-01
1.971000000000000000e+03 3.232220077514648438e+01 -4.133041763305664062e+01 -1.488973379135131836e+00 3.516669750213623047e+00 6.083089113235473633e-01 2.027995288372039795e-01
1.972000000000000000e+03 3.137251663208007812e+01 -3.658994293212890625e+01 -1.232107877731323242e+00 3.262932300567626953e+00 6.092473268508911133e-01 9.537268280982971191e-01
1.973000000000000000e+03 1.209125518798828125e+01 -3.225713491439819336e+00 3.011982440948486328e+00 6.175430297851562500e+00 2.756223917007446289e+00 3.926175355911254883e+00
1.974000000000000000e+03 1.079395580291748047e+01 2.928994417190551758e+00 8.689204454421997070e-01 3.486243963241577148e+00 1.306549310684204102e+00 -2.560567617416381836e+00
1.975000000000000000e+03 1.066857814788818359e+01 2.575853109359741211e+00 1.052322387695312500e+00 2.942137718200683594e+00 1.198338031768798828e+00 -2.504442691802978516e+00
1.976000000000000000e+03 9.811819076538085938e+00 4.331271171569824219e+00 5.093827247619628906e-01 3.003275156021118164e+00 1.053797364234924316e+00 -1.702961206436157227e+00
1.977000000000000000e+03 1.029817199707031250e+01 -2.670956134796142578e+00 3.536216259002685547e+00 1.273826837539672852e+00 1.443012952804565430e+00 2.464469909667968750e+00
1.978000000000000000e+03 1.114758014678955078e+01 2.736869096755981445e+00 8.931804895401000977e-01 4.083889961242675781e+00 1.493121147155761719e+00 -2.896612405776977539e+00
1.979000000000000000e+03 1.168920230865478516e+01 2.891556739807128906e+00 5.750408172607421875e-01 5.351515293121337891e+00 1.777966737747192383e+00 -3.064384937286376953e+00
1.980000000000000000e+03 8.704792976379394531e+00 -3.544428348541259766e+00 2.220734357833862305e+00 9.127811193466186523e-01 9.400546550750732422e-01 1.914902091026306152e+00
1.981000000000000000e+03 1.145266723632812500e+01 2.490686655044555664e+00 9.926541447639465332e-01 4.644587039947509766e+00 1.691172361373901367e+00 -3.149850606918334961e+00
1.982000000000000000e+03 1.478584766387939453e+01 3.095586061477661133e+00 -6.675035506486892700e-02 9.205231666564941406e+00 2.741544485092163086e+00 -4.340068995952606201e-01
1.983000000000000000e+03 8.161564826965332031e+00 -4.372872352600097656e+00 1.781521916389465332e+00 1.116882324218750000e+00 8.695212602615356445e-01 2.013699054718017578e+00
1.984000000000000000e+03 1.005668163299560547e+01 -2.930360078811645508e+00 3.203452110290527344e+00 1.358713030815124512e+00 1.368649482727050781e+00 2.444761514663696289e+00
1.985000000000000000e+03 1.460196399688720703e+01 7.049966812133789062e+00 -8.609961271286010742e-01 7.172868728637695312e+00 1.893561720848083496e+00 -9.826085567474365234e-01
1.986000000000000000e+03 6.790899276733398438e+00 -4.719383716583251953e+00 1.249593019485473633e+00 8.991679549217224121e-01 6.446282863616943359e-01 1.560821056365966797e+00
1.987000000000000000e+03 1.480959415435791016e+01 2.508731603622436523e+00 4.745713770389556885e-01 9.686196327209472656e+00 3.048230409622192383e+00 -1.846948713064193726e-01
1.988000000000000000e+03 1.596250820159912109e+01 2.020617246627807617e+00 2.150022268295288086e+00 7.882950782775878906e+00 3.009891986846923828e+00 5.153644084930419922e-01
1.989000000000000000e+03 4.681635856628417969e+00 7.536226749420166016e+00 2.306711226701736450e-01 7.427173852920532227e-01 2.920165657997131348e-01 9.316418319940567017e-03
1.990000000000000000e+03 1.028517150878906250e+01 4.697338104248046875e+00 3.395859897136688232e-01 3.691212654113769531e+00 1.209239602088928223e+00 -1.880391836166381836e+00
1.991000000000000000e+03 6.343077182769775391e+00 4.922215938568115234e+00 3.989432752132415771e-01 8.917354941368103027e-01 3.872036337852478027e-01 -1.934674084186553955e-01
1.992000000000000000e+03 6.092104911804199219e+00 5.640062332153320312e+00 3.451548516750335693e-01 9.970974922180175781e-01 4.026757180690765381e-01 -1.649424880743026733e-01
1.993000000000000000e+03 1.632389068603515625e+01 -3.690699100494384766e+00 3.504024982452392578e+00 5.349422454833984375e+00 2.656034231185913086e+00 -1.827733635902404785e+00
1.994000000000000000e+03 1.568957424163818359e+01 -3.493278503417968750e+00 3.457996606826782227e+00 6.473890304565429688e+00 2.979566097259521484e+00 -1.601455450057983398e+00
1.995000000000000000e+03 5.741508483886718750e+00 -6.308784008026123047e+00 6.251605153083801270e-01 1.342996835708618164e+00 5.904472470283508301e-01 1.575352072715759277e+00
1.996000000000000000e+03 1.316829490661621094e+01 -3.455544948577880859e+00 2.140926122665405273e+00 8.178913116455078125e+00 3.095951795578002930e+00 2.116249084472656250e+00
1.997000000000000000e+03 1.435145187377929688e+01 -3.631396770477294922e+00 2.319216966629028320e+00 8.178290367126464844e+00 3.149252176284790039e+00 -3.917979449033737183e-02
1.998000000000000000e+03 5.528455257415771484e+00 -5.136311054229736328e+00 7.856018543243408203e-01 9.022773504257202148e-01 5.063637495040893555e-01 1.232481956481933594e+00
1.999000000000000000e+03 6.120054721832275391e+00 -5.532685279846191406e+00 8.771297931671142578e-01 1.110733747482299805e+00 5.963590741157531738e-01 1.560647964477539062e+00
2.000000000000000000e+03 8.498752593994140625e+00 5.336780548095703125e+00 4.272306263446807861e-01 2.263792037963867188e+00 8.073067665100097656e-01 -9.656104445457458496e-01
2.001000000000000000e+03 2.128486251831054688e+01 -1.293310356140136719e+01 -8.142430782318115234e-01 7.889783382415771484e-01 -7.579415570944547653e-03 -5.693098306655883789e-01
2.002000000000000000e+03 1.777127838134765625e+01 -8.526107072830200195e-01 5.226289749145507812e+00 3.699959516525268555e+00 2.677874803543090820e+00 -1.484142184257507324e+00
2.003000000000000000e+03 4.951416778564453125e+01 2.340653038024902344e+01 7.082483768463134766e-01 4.209973335266113281e+00 1.475466489791870117e+00 1.106567502021789551e+00
2.004000000000000000e+03 1.028224182128906250e+01 -1.144615840911865234e+01 -7.689173221588134766e-01 2.672131538391113281e+00 5.709642767906188965e-01 3.122477531433105469e+00
2.005000000000000000e+03 6.111787319183349609e+00 -1.126490020751953125e+01 -8.495189547538757324e-01 3.515180110931396484e+00 7.996983528137207031e-01 1.906340360641479492e+00
2.006000000000000000e+03 8.387317657470703125e+00 -1.294849681854248047e+01 -1.383284091949462891e+00 3.935328006744384766e+00 7.656131386756896973e-01 2.885435581207275391e+00
2.007000000000000000e+03 1.253173828125000000e+01 1.018739700317382812e+01 -1.514169871807098389e-01 6.211057186126708984e+00 1.817892074584960938e+00 -9.499121308326721191e-01
2.008000000000000000e+03 2.072451972961425781e+01 -1.475713729858398438e+01 -1.984399080276489258e+00 6.988910436630249023e-01 -3.856524229049682617e-01 -1.996953934431076050e-01
2.009000000000000000e+03 1.496391773223876953e+01 -1.108353328704833984e+01 -4.217627048492431641e-01 1.557322859764099121e+00 3.406680822372436523e-01 1.068242192268371582e+00
2.010000000000000000e+03 1.485383033752441406e+01 8.689439773559570312e+00 -5.298629999160766602e-01 7.030780792236328125e+00 1.950275421142578125e+00 -9.724426865577697754e-01
2.011000000000000000e+03 7.420684051513671875e+01 -1.318468761444091797e+01 5.607336163520812988e-01 9.156512260437011719e+00 2.915173768997192383e+00 4.340902566909790039e-01
2.012000000000000000e+03 1.672304153442382812e+01 3.963341474533081055e+00 -1.449885591864585876e-02 6.963905334472656250e+00 2.084821939468383789e+00 -1.020994037389755249e-01
2.013000000000000000e+03 1.525313854217529297e+01 5.169392585754394531e+00 -9.296935796737670898e-01 7.638081073760986328e+00 2.012516260147094727e+00 -7.789793610572814941e-01
2.014000000000000000e+03 6.092008590698242188e+01 4.838237285614013672e+00 -4.508558511734008789e-01 2.059985160827636719e+00 4.827387630939483643e-01 -1.193398714065551758e+00
2.015000000000000000e+03 2.035329627990722656e+01 -1.389335060119628906e+01 -1.594582319259643555e+00 7.814506292343139648e-01 -2.439394891262054443e-01 -3.284186124801635742e-01
2.016000000000000000e+03 1.707810974121093750e+01 -1.556853055953979492e+00 5.528278827667236328e+00 4.457969188690185547e+00 2.995874404907226562e+00 -1.921793818473815918e+00
2.017000000000000000e+03 1.607489967346191406e+01 -3.028040885925292969e+00 4.162434577941894531e+00 6.074853420257568359e+00 3.071186542510986328e+00 -1.973407506942749023e+00
2.018000000000000000e+03 1.032328796386718750e+01 2.458588409423828125e+01 4.737951457500457764e-01 5.034387111663818359e+00 1.652454614639282227e+00 -1.286472678184509277e+00
2.019000000000000000e+03 1.609705734252929688e+01 -1.248885250091552734e+01 -1.106929063796997070e+00 9.302089810371398926e-01 -5.301601812243461609e-02 4.748060703277587891e-01
2.020000000000000000e+03 5.376985549926757812e+01 6.242594242095947266e+00 1.234341412782669067e-01 7.754625678062438965e-01 2.696690261363983154e-01 7.769465446472167969e-02
2.021000000000000000e+03 5.528812408447265625e+01 4.365348339080810547e+00 -8.673569560050964355e-01 5.540339946746826172e-01 -9.399687498807907104e-02 -1.362711042165756226e-01
2.022000000000000000e+03 2.733928680419921875e+01 -7.630558013916015625e+00 2.840981006622314453e+00 5.735102891921997070e-01 1.024347305297851562e+00 -1.936705827713012695e+00
2.023000000000000000e+03 2.063987922668457031e+01 -2.344872474670410156e+00 4.479726314544677734e+00 1.265147089958190918e+00 1.723461985588073730e+00 -1.988095760345458984e+00
2.024000000000000000e+03 1.838682556152343750e+01 -3.193740367889404297e+00 4.354880332946777344e+00 3.043540000915527344e+00 2.219526052474975586e+00 -2.148871421813964844e+00
2.025000000000000000e+03 9.626873016357421875e+00 1.558898925781250000e+01 5.843162536621093750e-01 4.747070312500000000e+00 1.599415898323059082e+00 -7.468949556350708008e-01
2.026000000000000000e+03 4.910219192504882812e+01 2.489902114868164062e+01 5.478954911231994629e-01 4.210136413574218750e+00 1.427409648895263672e+00 9.964904189109802246e-01
2.027000000000000000e+03 4.211481094360351562e+01 3.520972728729248047e+00 -9.797686934471130371e-01 9.075837135314941406e+00 2.428820610046386719e+00 2.486980676651000977e+00
2.028000000000000000e+03 3.985093307495117188e+01 -2.211075782775878906e+01 1.241985201835632324e+00 8.387011528015136719e+00 2.888699054718017578e+00 -9.016337245702743530e-02
2.029000000000000000e+03 7.271070098876953125e+01 -3.193418884277343750e+01 -7.115200161933898926e-01 8.795603752136230469e+00 2.425225257873535156e+00 -7.169958949089050293e-01
2.030000000000000000e+03 7.440917968750000000e+01 -3.195578956604003906e+01 -4.701887965202331543e-01 9.028131484985351562e+00 2.567382812500000000e+00 -9.789257645606994629e-01
2.031000000000000000e+03 6.913561820983886719e+00 3.115209579467773438e+01 -3.082715868949890137e-01 3.765819311141967773e+00 1.037264227867126465e+00 -1.333746910095214844e+00
2.032000000000000000e+03 8.501170158386230469e+00 2.834169387817382812e+01 -8.289257436990737915e-02 4.103817462921142578e+00 1.206277489662170410e+00 -1.496573328971862793e+00
2.033000000000000000e+03 3.769001770019531250e+01 -1.846938514709472656e+01 1.271274685859680176e-01 1.074919223785400391e+01 3.262895822525024414e+00 6.997099518775939941e-01
2.034000000000000000e+03 4.801195144653320312e+01 5.238489151000976562e+00 3.040268421173095703e-01 1.073187947273254395e+00 4.131644368171691895e-01 1.712968349456787109e+00
2.035000000000000000e+03 7.102532958984375000e+01 2.414780426025390625e+01 2.573202252388000488e-01 5.677196502685546875e+00 1.780355095863342285e+00 -2.138437777757644653e-01
2.036000000000000000e+03 7.038169097900390625e+01 1.723176002502441406e+01 3.417982459068298340e-01 5.534004688262939453e+00 1.762740850448608398e+00 -5.920163393020629883e-01
2.037000000000000000e+03 7.263628387451171875e+01 1.532080554962158203e+01 1.717550158500671387e-01 6.113285541534423828e+00 1.885512232780456543e+00 -6.495351195335388184e-01
2.038000000000000000e+03 5.966848754882812500e+01 3.775228261947631836e+00 -7.877979874610900879e-01 1.321962356567382812e+00 1.602493226528167725e-01 -9.129475951194763184e-01
2.039000000000000000e+03 5.986285781860351562e+01 2.758427858352661133e+00 -1.177074551582336426e+00 1.184135913848876953e+00 2.118398202583193779e-03 -9.073793292045593262e-01
2.040000000000000000e+03 7.174320983886718750e+01 1.008411121368408203e+01 -2.024627290666103363e-02 6.153039932250976562e+00 1.839838027954101562e+00 -8.693519830703735352e-01
2.041000000000000000e+03 7.303043365478515625e+01 8.758754730224609375e+00 -8.969718217849731445e-02 6.675852298736572266e+00 1.975846529006958008e+00 -7.502586841583251953e-01
2.042000000000000000e+03 6.922180938720703125e+01 -5.894303917884826660e-01 -1.055468201637268066e+00 6.614809513092041016e+00 1.667802333831787109e+00 -6.393107175827026367e-01
2.043000000000000000e+03 6.743608093261718750e+01 -5.203505158424377441e-01 -1.191040754318237305e+00 5.843490600585937500e+00 1.395735025405883789e+00 -9.357152581214904785e-01
2.044000000000000000e+03 7.291207885742187500e+01 -7.882929325103759766e+00 -1.735435277223587036e-01 8.817220687866210938e+00 2.593103170394897461e+00 4.763324856758117676e-01
2.045000000000000000e+03 7.393917083740234375e+01 -1.545168113708496094e+01 8.102548718452453613e-01 9.724349975585937500e+00 3.160381317138671875e+00 2.917625568807125092e-02
2.046000000000000000e+03 7.420630645751953125e+01 -1.656704139709472656e+01 6.369812488555908203e-01 9.694532394409179688e+00 3.099454164505004883e+00 -1.012423858046531677e-01
2.047000000000000000e+03 1.121057605743408203e+01 3.356540679931640625e+01 -8.904044032096862793e-01 4.002329826354980469e+00 9.335776567459106445e-01 -9.066235423088073730e-01
2.048000000000000000e+03 7.206299781799316406e+00 3.546160507202148438e+01 -5.826866626739501953e-01 3.942636013031005859e+00 1.007984757423400879e+00 -9.254520535469055176e-01
2.049000000000000000e+03 7.470729064941406250e+01 -9.825070381164550781e+00 7.717924565076828003e-02 8.651775360107421875e+00 2.618686437606811523e+00 7.845129370689392090e-01
2.050000000000000000e+03 7.380870056152343750e+01 -9.308077812194824219e+00 3.113721311092376709e-02 8.876323699951171875e+00 2.672238111495971680e+00 6.765516996383666992e-01
2.051000000000000000e+03 7.439147949218750000e+01 -4.145395755767822266e+00 -3.708365857601165771e-01 8.178808212280273438e+00 2.342391490936279297e+00 4.695542454719543457e-01
2.052000000000000000e+03 6.942092895507812500e+01 2.684362411499023438e+00 -7.975598573684692383e-01 6.185173988342285156e+00 1.616284251213073730e+00 -8.881065845489501953e-01
2.053000000000000000e+03 7.145555114746093750e+01 -5.838539600372314453e-01 -7.892857789993286133e-01 7.283200740814208984e+00 1.948174476623535156e+00 -2.700935602188110352e-01
2.054000000000000000e+03 7.356793212890625000e+01 -1.317286133766174316e+00 -5.311006903648376465e-01 7.859097480773925781e+00 2.198399066925048828e+00 9.537038207054138184e-02
2.055000000000000000e+03 6.905530548095703125e+01 -3.267809867858886719e+00 -7.489248514175415039e-01 7.032794475555419922e+00 1.885160803794860840e+00 -4.824718534946441650e-01
2.056000000000000000e+03 6.247874259948730469e+00 -9.353675842285156250e+00 -2.000658512115478516e-01 2.537647247314453125e+00 7.012743949890136719e-01 2.048834323883056641e+00
2.057000000000000000e+03 4.115216827392578125e+01 -2.994605445861816406e+01 -1.316988915205001831e-01 5.645665645599365234e+00 1.654190063476562500e+00 -1.421087384223937988e+00
2.058000000000000000e+03 6.336792945861816406e+00 -8.563604354858398438e+00 3.487976640462875366e-02 2.286774635314941406e+00 6.964963674545288086e-01 2.055416584014892578e+00
2.059000000000000000e+03 5.547644615173339844e+00 -9.206843376159667969e+00 -1.847263127565383911e-01 2.399788856506347656e+00 6.645187139511108398e-01 1.793467879295349121e+00
2.060000000000000000e+03 7.136206817626953125e+01 2.651582336425781250e+01 1.984821259975433350e-01 5.738521099090576172e+00 1.781100988388061523e+00 -1.162527874112129211e-01
2.061000000000000000e+03 7.206058502197265625e+01 2.869670867919921875e+01 1.346889138221740723e-01 5.824706554412841797e+00 1.787818551063537598e+00 -4.481948912143707275e-02
2.062000000000000000e+03 8.065502166748046875e+00 2.259752655029296875e+01 4.925283193588256836e-01 3.915891885757446289e+00 1.322525978088378906e+00 -1.284044861793518066e+00
2.063000000000000000e+03 5.335791587829589844e+00 2.693630599975585938e+01 4.860238358378410339e-02 3.078626394271850586e+00 9.381686449050903320e-01 -1.340998053550720215e+00
2.064000000000000000e+03 5.526877880096435547e+00 1.569633865356445312e+01 3.104120492935180664e-01 2.063938617706298828e+00 7.123051881790161133e-01 -4.678786993026733398e-01
2.065000000000000000e+03 1.082324981689453125e+01 1.583033180236816406e+01 6.561779975891113281e-01 5.540084838867187500e+00 1.858878850936889648e+00 -8.338988423347473145e-01
2.066000000000000000e+03 3.794465255737304688e+01 -9.216889381408691406e+00 1.797121644020080566e+00 9.346853256225585938e+00 3.343192577362060547e+00 1.384013593196868896e-01
2.067000000000000000e+03 3.461877441406250000e+01 -1.238928413391113281e+01 1.128610849380493164e+00 5.400013446807861328e+00 1.958587288856506348e+00 -1.371022343635559082e+00
2.068000000000000000e+03 6.548393726348876953e+00 2.591894912719726562e+01 1.676994115114212036e-01 3.362894773483276367e+00 1.059178233146667480e+00 -1.433205485343933105e+00
2.069000000000000000e+03 6.364670276641845703e+00 2.712591171264648438e+01 5.291986837983131409e-02 3.406792879104614258e+00 1.037913799285888672e+00 -1.441242933273315430e+00
2.070000000000000000e+03 7.293704223632812500e+01 -3.410956954956054688e+01 -6.646528840065002441e-01 8.519570350646972656e+00 2.356475114822387695e+00 -4.635643362998962402e-01
2.071000000000000000e+03 6.642304420471191406e+00 1.378111648559570312e+01 2.936600148677825928e-01 2.622814655303955078e+00 8.749424219131469727e-01 -4.232521355152130127e-01
2.072000000000000000e+03 5.225241184234619141e+00 1.273655319213867188e+01 1.847413182258605957e-01 1.603851199150085449e+00 5.365777611732482910e-01 -2.544867992401123047e-01
2.073000000000000000e+03 7.305054664611816406e+00 1.472154521942138672e+01 3.619255721569061279e-01 3.078217029571533203e+00 1.032042741775512695e+00 -5.252332091331481934e-01
2.074000000000000000e+03 5.358367919921875000e+00 1.943184280395507812e+01 3.297539651393890381e-01 2.243695974349975586e+00 7.720350027084350586e-01 -8.142637610435485840e-01
2.075000000000000000e+03 7.428699493408203125e+00 6.747774124145507812e+00 3.160707652568817139e-01 2.068059444427490234e+00 7.152390480041503906e-01 -5.853730440139770508e-01
2.076000000000000000e+03 5.462460041046142578e+00 1.018529701232910156e+01 1.680236160755157471e-01 1.471409797668457031e+00 4.918300211429595947e-01 -1.841093301773071289e-01
2.077000000000000000e+03 5.651172637939453125e+00 7.651805400848388672e+00 2.586007714271545410e-01 1.271551728248596191e+00 4.590457379817962646e-01 -1.590673625469207764e-01
2.078000000000000000e+03 6.111818790435791016e+00 9.225512504577636719e+00 2.220973819494247437e-01 1.753880739212036133e+00 5.927934050559997559e-01 -2.696477770805358887e-01
2.079000000000000000e+03 4.155244064331054688e+01 -2.491183662414550781e+01 1.211503624916076660e+00 5.980325222015380859e+00 2.157548666000366211e+00 -1.254016995429992676e+00
2.080000000000000000e+03 3.991886520385742188e+01 -2.568388557434082031e+01 1.178545355796813965e+00 7.392755508422851562e+00 2.571390151977539062e+00 -1.105954289436340332e+00
2.081000000000000000e+03 4.821533679962158203e+00 -9.234506607055664062e+00 -2.200863510370254517e-01 2.303651094436645508e+00 6.250694394111633301e-01 1.458399295806884766e+00
2.082000000000000000e+03 5.230131149291992188e+00 -7.164261341094970703e+00 3.410393297672271729e-01 1.559982180595397949e+00 5.703064203262329102e-01 1.524781465530395508e+00
2.083000000000000000e+03 1.178231716156005859e+01 3.582613372802734375e+01 -1.104098439216613770e+00 3.662965297698974609e+00 7.676600813865661621e-01 -6.436496973037719727e-01
2.084000000000000000e+03 6.322659492492675781e+00 1.250182437896728516e+01 2.163035571575164795e-01 2.289543390274047852e+00 7.517541050910949707e-01 -3.397711813449859619e-01
2.085000000000000000e+03 6.808050155639648438e+00 8.569357872009277344e+00 2.390987277030944824e-01 2.035131692886352539e+00 6.822691559791564941e-01 -3.682486414909362793e-01
2.086000000000000000e+03 6.046561717987060547e+00 -1.239809322357177734e+01 -1.067860007286071777e+00 4.140876770019531250e+00 9.219050407409667969e-01 1.659851312637329102e+00
2.087000000000000000e+03 9.984380722045898438e+00 -1.026519203186035156e+01 -4.045280516147613525e-01 2.790855884552001953e+00 7.158983349800109863e-01 3.045058012008666992e+00
2.088000000000000000e+03 5.300558090209960938e+01 6.864782810211181641e+00 5.214477181434631348e-01 8.705404996871948242e-01 4.175964891910552979e-01 2.926020026206970215e-01
2.089000000000000000e+03 1.113625431060791016e+01 1.462141513824462891e+01 5.699679255485534668e-01 5.665630817413330078e+00 1.870679616928100586e+00 -7.791896462440490723e-01
2.090000000000000000e+03 4.998291492462158203e+00 -1.348433780670166016e+01 -9.244633913040161133e-01 4.360470771789550781e+00 1.030802249908447266e+00 7.988882660865783691e-01
2.091000000000000000e+03 6.391170120239257812e+01 2.189522504806518555e+00 -1.121809124946594238e+00 3.466481447219848633e+00 7.034016847610473633e-01 -1.444713950157165527e+00
2.092000000000000000e+03 1.856147384643554688e+01 1.350965499877929688e+00 2.767841100692749023e+00 3.660453319549560547e+00 1.928488373756408691e+00 -6.916889548301696777e-01
2.093000000000000000e+03 1.749519157409667969e+01 2.883142948150634766e+00 1.248553395271301270e+00 5.678627967834472656e+00 2.078154325485229492e+00 -3.427582606673240662e-02
2.094000000000000000e+03 5.146077346801757812e+01 7.855840682983398438e+00 1.028786182403564453e+00 1.196633338928222656e+00 6.676258444786071777e-01 7.560483217239379883e-01
2.095000000000000000e+03 4.602730941772460938e+01 1.265493392944335938e+01 1.762706398963928223e+00 5.073825836181640625e+00 2.050959587097167969e+00 2.381570339202880859e+00
2.096000000000000000e+03 3.787118530273437500e+01 -1.602776145935058594e+01 -2.619538009166717529e-01 1.061027431488037109e+01 3.104496240615844727e+00 -3.782857581973075867e-02
2.097000000000000000e+03 2.624789619445800781e+01 -1.266188907623291016e+01 4.786005020141601562e-01 2.324921488761901855e-01 2.133277952671051025e-01 -1.017870783805847168e+00
2.098000000000000000e+03 2.623080062866210938e+01 -1.091037178039550781e+01 1.460110068321228027e+00 4.341739714145660400e-01 5.682851672172546387e-01 -1.349176049232482910e+00
2.099000000000000000e+03 4.931225204467773438e+01 1.856026268005371094e+01 1.286852240562438965e+00 4.098366737365722656e+00 1.615565776824951172e+00 1.509071230888366699e+00
2.100000000000000000e+03 4.748825073242187500e+01 1.129022121429443359e+01 1.891923666000366211e+00 3.747134447097778320e+00 1.691717386245727539e+00 2.173282861709594727e+00
2.101000000000000000e+03 4.714723205566406250e+01 1.318819046020507812e+01 1.833863258361816406e+00 4.326328277587890625e+00 1.848057508468627930e+00 2.187552690505981445e+00
2.102000000000000000e+03 1.030443954467773438e+01 2.136479568481445312e+01 7.356900572776794434e-01 5.358237266540527344e+00 1.828178286552429199e+00 -1.151988267898559570e+00
2.103000000000000000e+03 2.314669036865234375e+01 -1.179563331604003906e+01 1.675213575363159180e-01 6.688143014907836914e-01 2.509006857872009277e-01 -9.354475140571594238e-01
2.104000000000000000e+03 3.847505569458007812e+01 -5.119618892669677734e+00 1.895135283470153809e+00 8.921134948730468750e+00 3.244881153106689453e+00 1.350411653518676758e+00
2.105000000000000000e+03 3.657965087890625000e+01 -1.093127536773681641e+01 1.539358139038085938e+00 7.763110637664794922e+00 2.790740728378295898e+00 -5.364714860916137695e-01
2.106000000000000000e+03 3.713795852661132812e+01 -3.959546566009521484e+00 1.702894210815429688e+00 6.315253734588623047e+00 2.405444383621215820e+00 1.000845670700073242e+00
2.107000000000000000e+03 3.850355148315429688e+01 -3.749647378921508789e+00 1.503582477569580078e+00 8.401950836181640625e+00 2.971659898757934570e+00 1.484031558036804199e+00
2.108000000000000000e+03 4.623915863037109375e+01 7.796764850616455078e+00 1.454123377799987793e+00 3.781304836273193359e+00 1.570628404617309570e+00 2.512621641159057617e+00
2.109000000000000000e+03 4.725111389160156250e+01 8.460397720336914062e+00 1.645077347755432129e+00 3.149879217147827148e+00 1.438486933708190918e+00 2.246387481689453125e+00
2.110000000000000000e+03 7.488123416900634766e+00 2.401557731628417969e+01 3.862909078598022461e-01 3.710983037948608398e+00 1.229182124137878418e+00 -1.363043427467346191e+00
2.111000000000000000e+03 2.700487518310546875e+01 -6.552780151367187500e+00 3.070504903793334961e+00 6.645699739456176758e-01 1.120522499084472656e+00 -2.124199628829956055e+00
2.112000000000000000e+03 7.267800903320312500e+01 -9.108404159545898438e+00 -4.670252650976181030e-02 9.132236480712890625e+00 2.725660085678100586e+00 4.732859134674072266e-01
2.113000000000000000e+03 7.268139648437500000e+01 -1.037571048736572266e+01 2.085551172494888306e-01 9.437678337097167969e+00 2.893869876861572266e+00 4.696404933929443359e-01
2.114000000000000000e+03 3.825492095947265625e+01 -7.839616298675537109e+00 2.149331092834472656e+00 9.439152717590332031e+00 3.476545095443725586e+00 6.872807145118713379e-01
2.115000000000000000e+03 3.405904006958007812e+01 -1.348514270782470703e+01 7.311289310455322266e-01 4.759891510009765625e+00 1.647306084632873535e+00 -1.630783438682556152e+00
2.116000000000000000e+03 3.228408050537109375e+01 -8.947057723999023438e+00 2.888063430786132812e+00 2.231798887252807617e+00 1.535958647727966309e+00 -1.477662324905395508e+00
2.117000000000000000e+03 4.960430908203125000e+01 9.383251190185546875e+00 1.695567011833190918e+00 2.142217397689819336e+00 1.151335358619689941e+00 1.540669083595275879e+00
2.118000000000000000e+03 5.112061691284179688e+01 6.555723190307617188e+00 5.992455482482910156e-01 8.980285525321960449e-01 4.491822421550750732e-01 6.875825524330139160e-01
2.119000000000000000e+03 1.099170494079589844e+01 2.980613899230957031e+01 -3.985093235969543457e-01 4.495881080627441406e+00 1.229211568832397461e+00 -1.220393538475036621e+00
2.120000000000000000e+03 1.104238796234130859e+01 3.161565017700195312e+01 -6.573965549468994141e-01 4.283371448516845703e+00 1.087792396545410156e+00 -1.118821859359741211e+00
2.121000000000000000e+03 6.810057830810546875e+01 -1.830858230590820312e+00 -1.045936346054077148e+00 6.375170230865478516e+00 1.598770141601562500e+00 -7.196839451789855957e-01
2.122000000000000000e+03 4.686720275878906250e+01 7.047068119049072266e+00 1.287295341491699219e+00 3.079483270645141602e+00 1.310033559799194336e+00 2.400899887084960938e+00
2.123000000000000000e+03 4.541632461547851562e+01 6.797177314758300781e+00 1.240716218948364258e+00 4.478373527526855469e+00 1.715726971626281738e+00 2.673910140991210938e+00
2.124000000000000000e+03 2.179999542236328125e+01 -1.006805419921875000e+01 9.319268465042114258e-01 9.814082980155944824e-01 5.740005373954772949e-01 -1.185229897499084473e+00
2.125000000000000000e+03 5.770306777954101562e+01 5.022671699523925781e+00 -3.993898630142211914e-01 1.085954189300537109e+00 2.059693187475204468e-01 -6.233708262443542480e-01
2.126000000000000000e+03 1.456462192535400391e+01 3.332383728027343750e+01 -1.075617194175720215e+00 3.514607191085815430e+00 7.316969633102416992e-01 -3.569408357143402100e-01
2.127000000000000000e+03 2.523889732360839844e+01 -1.319675636291503906e+01 -4.729095846414566040e-02 3.410240113735198975e-01 8.811990916728973389e-02 -7.157921791076660156e-01
2.128000000000000000e+03 2.242417716979980469e+01 -4.619666576385498047e+00 3.810953378677368164e+00 9.864892363548278809e-01 1.439232826232910156e+00 -1.740237236022949219e+00
2.129000000000000000e+03 2.393525695800781250e+01 -5.685426712036132812e+00 3.303261280059814453e+00 1.040827274322509766e+00 1.303226590156555176e+00 -1.690154194831848145e+00
2.130000000000000000e+03 6.891738128662109375e+01 -4.649235725402832031e+00 -4.339745640754699707e-01 7.338493824005126953e+00 2.071355819702148438e+00 -6.263293027877807617e-01
2.131000000000000000e+03 7.112150573730468750e+01 -5.934255123138427734e+00 -4.338050782680511475e-01 8.340303421020507812e+00 2.371949434280395508e+00 4.065481945872306824e-02
2.132000000000000000e+03 8.137413978576660156e+00 -3.613867568969726562e+01 -1.097583174705505371e-01 2.100073337554931641e+00 5.970944762229919434e-01 -2.663662135601043701e-01
2.133000000000000000e+03 4.713248062133789062e+01 5.735337734222412109e+00 5.881350040435791016e-01 2.373470544815063477e+00 8.884816169738769531e-01 2.315064668655395508e+00
2.134000000000000000e+03 3.583808135986328125e+01 -4.532219886779785156e+00 2.204729795455932617e+00 4.474750995635986328e+00 2.003844261169433594e+00 5.039104819297790527e-01
2.135000000000000000e+03 3.540648651123046875e+01 -6.089634418487548828e+00 2.657341957092285156e+00 4.408963203430175781e+00 2.119891405105590820e+00 3.177767619490623474e-02
2.136000000000000000e+03 1.357911682128906250e+01 3.208406448364257812e+01 -8.508560061454772949e-01 4.008645534515380859e+00 9.473368525505065918e-01 -6.318663358688354492e-01
2.137000000000000000e+03 7.361087799072265625e+01 6.624206900596618652e-01 -5.290316939353942871e-01 7.649552345275878906e+00 2.136156082153320312e+00 -1.415258795022964478e-01
2.138000000000000000e+03 1.987008476257324219e+01 3.989804458618164062e+01 -1.471673727035522461e+00 9.339477419853210449e-01 -1.613177955150604248e-01 -2.559807151556015015e-02
2.139000000000000000e+03 7.426770019531250000e+01 1.914334487915039062e+01 1.409613788127899170e-01 6.289072990417480469e+00 1.929010391235351562e+00 -4.054073989391326904e-01
2.140000000000000000e+03 7.164984893798828125e+01 1.800565910339355469e+01 2.669775784015655518e-01 5.812828540802001953e+00 1.823941826820373535e+00 -5.341838002204895020e-01
2.141000000000000000e+03 3.112606620788574219e+01 -7.514196872711181641e+00 3.166861295700073242e+00 1.148817181587219238e+00 1.294703602790832520e+00 -1.699144482612609863e+00
2.142000000000000000e+03 6.750049591064453125e+01 8.711088895797729492e-01 -1.125060558319091797e+00 5.629098892211914062e+00 1.351211428642272949e+00 -1.061305284500122070e+00
2.143000000000000000e+03 7.312721252441406250e+01 7.428629875183105469e+00 -1.713228076696395874e-01 6.791181087493896484e+00 1.985957503318786621e+00 -7.147225737571716309e-01
2.144000000000000000e+03 3.483407592773437500e+01 -5.396406650543212891e+00 2.691162824630737305e+00 3.396367788314819336e+00 1.826259136199951172e+00 -8.392986655235290527e-02
2.145000000000000000e+03 3.732176971435546875e+01 -7.739213943481445312e+00 2.279314517974853516e+00 8.180993080139160156e+00 3.138092279434204102e+00 3.592683076858520508e-01
2.146000000000000000e+03 7.443901824951171875e+01 -6.889989376068115234e+00 -2.124286144971847534e-01 8.444494247436523438e+00 2.469619750976562500e+00 6.956538558006286621e-01
2.147000000000000000e+03 4.312715148925781250e+01 -3.162295341491699219e+01 -4.834108948707580566e-01 4.576808452606201172e+00 1.228019237518310547e+00 -1.330407381057739258e+00
2.148000000000000000e+03 7.274045562744140625e+01 2.729294586181640625e+01 1.393924802541732788e-01 5.910723686218261719e+00 1.815034866333007812e+00 -8.754074573516845703e-02
2.149000000000000000e+03 7.389747619628906250e+01 2.960912704467773438e+01 6.899405270814895630e-02 6.087918281555175781e+00 1.847073674201965332e+00 -2.998398430645465851e-02
2.150000000000000000e+03 5.017973709106445312e+01 2.717871665954589844e+01 3.577100932598114014e-01 4.110429286956787109e+00 1.340441823005676270e+00 9.329612851142883301e-01
2.151000000000000000e+03 6.596035766601562500e+01 -8.440357446670532227e-01 -1.310903310775756836e+00 5.070041179656982422e+00 1.127741336822509766e+00 -1.146140694618225098e+00
2.152000000000000000e+03 3.954766082763671875e+01 -2.715780639648437500e+01 6.737766861915588379e-01 7.391378402709960938e+00 2.419546365737915039e+00 -1.161655187606811523e+00
2.153000000000000000e+03 4.802238464355468750e+01 1.385921764373779297e+01 1.787150979042053223e+00 3.983587026596069336e+00 1.731221318244934082e+00 1.989376664161682129e+00
2.154000000000000000e+03 2.161939811706542969e+01 -3.758649063110351562e+01 -4.975365102291107178e-01 -1.827753335237503052e-01 -2.040935456752777100e-01 2.724771499633789062e-01
2.155000000000000000e+03 4.178647613525390625e+01 -3.434350585937500000e+01 -1.069439649581909180e+00 4.844319343566894531e+00 1.132463932037353516e+00 -1.028821587562561035e+00
2.156000000000000000e+03 1.270553779602050781e+01 -3.258327722549438477e+00 2.406843423843383789e+00 7.652396202087402344e+00 3.017771959304809570e+00 3.003811597824096680e+00
2.157000000000000000e+03 1.203769874572753906e+01 2.620045900344848633e+00 5.999707579612731934e-01 6.331433773040771484e+00 2.079421281814575195e+00 -3.304868221282958984e+00
2.158000000000000000e+03 1.095517635345458984e+01 3.261416673660278320e+00 6.696893572807312012e-01 3.963924646377563477e+00 1.390084147453308105e+00 -2.610165357589721680e+00
2.159000000000000000e+03 1.165672206878662109e+01 -3.185204267501831055e+00 3.324532270431518555e+00 4.679348945617675781e+00 2.401164531707763672e+00 3.812439203262329102e+00
2.160000000000000000e+03 9.941973686218261719e+00 -3.389118432998657227e+00 2.916150331497192383e+00 1.588242411613464355e+00 1.351317882537841797e+00 2.613435506820678711e+00
2.161000000000000000e+03 9.347500801086425781e+00 -3.421192169189453125e+00 2.604981422424316406e+00 1.156335949897766113e+00 1.128395199775695801e+00 2.221868038177490234e+00
2.162000000000000000e+03 1.450187778472900391e+01 4.306076049804687500e+00 -7.277871370315551758e-01 8.209867477416992188e+00 2.244624137878417969e+00 -1.005769729614257812e+00
2.163000000000000000e+03 1.043853092193603516e+01 -2.930356502532958984e+00 3.423550844192504883e+00 1.864846229553222656e+00 1.586519122123718262e+00 2.847636222839355469e+00
2.164000000000000000e+03 1.062072563171386719e+01 4.253595352172851562e+00 3.924466073513031006e-01 3.928636789321899414e+00 1.296324968338012695e+00 -2.135303735733032227e+00
2.165000000000000000e+03 1.411974620819091797e+01 7.243516921997070312e+00 -8.147237300872802734e-01 7.028023719787597656e+00 1.863990068435668945e+00 -1.075642108917236328e+00
2.166000000000000000e+03 1.386259651184082031e+01 6.697906494140625000e+00 -8.620629906654357910e-01 7.035162925720214844e+00 1.851930022239685059e+00 -1.183651924133300781e+00
2.167000000000000000e+03 4.810098648071289062e+00 5.430637836456298828e+00 2.570010125637054443e-01 4.696103036403656006e-01 2.179833948612213135e-01 1.247077882289886475e-01
2.168000000000000000e+03 5.779087066650390625e+00 6.540698528289794922e+00 3.350646495819091797e-01 1.093960046768188477e+00 4.287073910236358643e-01 -1.386052966117858887e-01
2.169000000000000000e+03 1.063711929321289062e+01 3.500228881835937500e+00 6.506027579307556152e-01 3.573725461959838867e+00 1.267298460006713867e+00 -2.298802852630615234e+00
2.170000000000000000e+03 1.186132526397705078e+01 3.389757871627807617e+00 2.386403232812881470e-01 5.854271888732910156e+00 1.827873587608337402e+00 -2.854141235351562500e+00
2.171000000000000000e+03 1.269820690155029297e+01 8.285851478576660156e+00 -5.322334766387939453e-01 6.250441551208496094e+00 1.715462327003479004e+00 -1.132764816284179688e+00
2.172000000000000000e+03 1.537156295776367188e+01 2.574987649917602539e+00 8.322355151176452637e-01 8.868998527526855469e+00 2.910370349884033203e+00 3.107686936855316162e-01
2.173000000000000000e+03 6.877403259277343750e+00 -5.512846469879150391e+00 1.031143307685852051e+00 1.251959085464477539e+00 6.849307417869567871e-01 1.809479117393493652e+00
2.174000000000000000e+03 8.347178459167480469e+00 -5.090079784393310547e+00 1.623962402343750000e+00 1.485909223556518555e+00 9.329615235328674316e-01 2.332954883575439453e+00
2.175000000000000000e+03 6.655846118927001953e+00 6.691465377807617188e+00 3.366096317768096924e-01 1.593691349029541016e+00 5.790902972221374512e-01 -3.528122603893280029e-01
2.176000000000000000e+03 7.583414554595947266e+00 5.936726570129394531e+00 3.818966448307037354e-01 1.879115581512451172e+00 6.783036589622497559e-01 -6.296959519386291504e-01
2.177000000000000000e+03 1.344401073455810547e+01 3.344686985015869141e+00 -4.547454416751861572e-01 8.675318717956542969e+00 2.466171979904174805e+00 -1.848013997077941895e+00
2.178000000000000000e+03 1.382753849029541016e+01 -4.272311210632324219e+00 1.698823928833007812e+00 7.252046585083007812e+00 2.685261011123657227e+00 1.087094902992248535e+00
2.179000000000000000e+03 1.641049957275390625e+01 -4.487201213836669922e+00 2.859073400497436523e+00 5.012603282928466797e+00 2.361502885818481445e+00 -1.499832868576049805e+00
2.180000000000000000e+03 3.683487653732299805e+00 7.525214195251464844e+00 1.694525927305221558e-01 2.567252516746520996e-01 1.278533488512039185e-01 1.106559634208679199e-01
2.181000000000000000e+03 6.475723266601562500e+00 -6.809300899505615234e+00 6.278120279312133789e-01 1.626775026321411133e+00 6.763761043548583984e-01 1.922981977462768555e+00
2.182000000000000000e+03 8.262631416320800781e+00 6.109217643737792969e+00 3.530812859535217285e-01 2.380666017532348633e+00 8.201241493225097656e-01 -8.607488870620727539e-01
2.183000000000000000e+03 1.916500473022460938e+01 -1.194175338745117188e+01 -5.463800430297851562e-01 1.080237388610839844e+00 1.601572036743164062e-01 -4.782895445823669434e-01
2.184000000000000000e+03 1.260937976837158203e+01 4.991008758544921875e+00 -5.769842267036437988e-01 6.760527610778808594e+00 1.855062961578369141e+00 -1.940527677536010742e+00
2.185000000000000000e+03 1.453800773620605469e+01 7.625433444976806641e+00 -7.679313421249389648e-01 7.053551197052001953e+00 1.885686039924621582e+00 -9.820393919944763184e-01
2.186000000000000000e+03 1.887110137939453125e+01 -4.147734642028808594e+00 3.748985052108764648e+00 2.609277725219726562e+00 1.907478809356689453e+00 -2.019876003265380859e+00
2.187000000000000000e+03 1.576406097412109375e+01 4.746775150299072266e+00 -6.740432977676391602e-01 7.605360031127929688e+00 2.079395055770874023e+00 -4.503770172595977783e-01
2.188000000000000000e+03 1.501790618896484375e+01 6.194709300994873047e+00 -9.687032103538513184e-01 7.336335659027099609e+00 1.910289764404296875e+00 -8.863414525985717773e-01
2.189000000000000000e+03 7.285911560058593750e+01 -3.135517120361328125e+00 -5.682883262634277344e-01 7.938387870788574219e+00 2.211030006408691406e+00 1.983936131000518799e-01
2.190000000000000000e+03 6.038342952728271484e+00 1.142465591430664062e+01 2.133582830429077148e-01 1.998297333717346191e+00 6.634966731071472168e-01 -2.914934456348419189e-01
2.191000000000000000e+03 1.157680606842041016e+01 1.230551719665527344e+01 2.216387242078781128e-01 5.782774448394775391e+00 1.801323890686035156e+00 -8.089123368263244629e-01
2.192000000000000000e+03 1.162502670288085938e+01 1.124466705322265625e+01 5.780274048447608948e-02 5.716361999511718750e+00 1.732249379158020020e+00 -8.410570025444030762e-01
2.193000000000000000e+03 8.972851753234863281e+00 1.085089492797851562e+01 1.696638762950897217e-01 3.911514282226562500e+00 1.224353432655334473e+00 -6.135471463203430176e-01
2.194000000000000000e+03 1.673313713073730469e+01 -2.729465723037719727e+00 4.674635410308837891e+00 5.084834098815917969e+00 2.927840948104858398e+00 -2.185284614562988281e+00
2.195000000000000000e+03 1.678431510925292969e+01 8.084632754325866699e-01 4.232057094573974609e+00 5.986199855804443359e+00 3.065477132797241211e+00 1.213626861572265625e-01
2.196000000000000000e+03 1.536397838592529297e+01 3.200584888458251953e+00 9.134581685066223145e-02 8.537201881408691406e+00 2.588564157485961914e+00 -1.653478890657424927e-01
2.197000000000000000e+03 1.140657138824462891e+01 1.343629264831542969e+01 3.922228217124938965e-01 5.802071094512939453e+00 1.858288168907165527e+00 -7.681307792663574219e-01
2.198000000000000000e+03 5.679755210876464844e+00 -8.348640441894531250e+00 4.690051451325416565e-02 2.129020452499389648e+00 6.527763009071350098e-01 1.825448632240295410e+00
2.199000000000000000e+03 5.999102115631103516e+00 -7.545806407928466797e+00 3.299854993820190430e-01 1.854593157768249512e+00 6.553735733032226562e-01 1.853210687637329102e+00
2.200000000000000000e+03 1.919285202026367188e+01 -3.115738928318023682e-01 4.268399715423583984e+00 2.547504663467407227e+00 2.044771432876586914e+00 -1.478288292884826660e+00
2.201000000000000000e+03 7.341862487792968750e+01 -5.492842674255371094e+00 -3.671867251396179199e-01 8.329063415527343750e+00 2.388562917709350586e+00 4.738970398902893066e-01
2.202000000000000000e+03 1.417355251312255859e+01 3.450149059295654297e+00 -4.552834331989288330e-01 8.897496223449707031e+00 2.532663822174072266e+00 -1.172128438949584961e+00
2.203000000000000000e+03 1.218233394622802734e+01 -1.100866889953613281e+01 -4.922516047954559326e-01 2.176235914230346680e+00 5.051953196525573730e-01 2.500786066055297852e+00
2.204000000000000000e+03 7.753827095031738281e+00 -1.006720161437988281e+01 -4.796857535839080811e-01 3.022789955139160156e+00 7.629312872886657715e-01 2.566598415374755859e+00
2.205000000000000000e+03 2.579283523559570312e+01 -6.889519691467285156e+00 2.880373477935791016e+00 7.783917784690856934e-01 1.097629547119140625e+00 -1.914220571517944336e+00
2.206000000000000000e+03 2.229216575622558594e+01 -1.069484424591064453e+01 6.636169552803039551e-01 8.802008628845214844e-01 4.631453752517700195e-01 -1.076963424682617188e+00
2.207000000000000000e+03 2.187518692016601562e+01 -1.171346092224121094e+01 7.609283924102783203e-02 8.111315369606018066e-01 2.661673128604888916e-01 -8.824715018272399902e-01
2.208000000000000000e+03 2.350822067260742188e+01 -1.279613304138183594e+01 -1.882838308811187744e-01 5.514481663703918457e-01 1.089492961764335632e-01 -7.320812344551086426e-01
2.209000000000000000e+03 7.836093425750732422e+00 1.892784690856933594e+01 5.664931535720825195e-01 3.667154073715209961e+00 1.270094156265258789e+00 -9.281846284866333008e-01
2.210000000000000000e+03 7.297479248046875000e+01 1.264132595062255859e+01 9.646994620561599731e-02 6.357891559600830078e+00 1.936308503150939941e+00 -7.142440676689147949e-01
2.211000000000000000e+03 1.691382217407226562e+01 -1.166503906250000000e+01 -6.505501270294189453e-01 1.267217278480529785e+00 1.850001513957977295e-01 1.050579175353050232e-01
2.212000000000000000e+03 1.978920555114746094e+01 -3.760107040405273438e+00 4.101686477661132812e+00 1.929952740669250488e+00 1.809491753578186035e+00 -2.068170547485351562e+00
2.213000000000000000e+03 1.628291893005371094e+01 -1.105253314971923828e+01 -3.844739198684692383e-01 1.553072214126586914e+00 3.505795001983642578e-01 3.444541096687316895e-01
2.214000000000000000e+03 1.213373279571533203e+01 -1.188255214691162109e+01 -8.117331266403198242e-01 1.797844052314758301e+00 2.958332598209381104e-01 2.628446817398071289e+00
2.215000000000000000e+03 1.313029479980468750e+01 -1.183969211578369141e+01 -7.000796198844909668e-01 1.518151640892028809e+00 2.454215884208679199e-01 2.087909698486328125e+00
2.216000000000000000e+03 1.765077590942382812e+01 -1.227226257324218750e+01 -9.126557707786560059e-01 1.064286112785339355e+00 4.548908770084381104e-02 -8.681263029575347900e-02
2.217000000000000000e+03 1.831194877624511719e+01 -1.021555805206298828e+01 2.413978874683380127e-01 1.608400583267211914e+00 5.549395084381103516e-01 -5.171538591384887695e-01
2.218000000000000000e+03 3.540517044067382812e+01 -1.310129070281982422e+01 7.299041152000427246e-01 6.652206897735595703e+00 2.214633226394653320e+00 -1.111923336982727051e+00
2.219000000000000000e+03 2.134326553344726562e+01 -4.890974521636962891e+00 3.673934936523437500e+00 1.247627854347229004e+00 1.476468801498413086e+00 -1.829431414604187012e+00
2.220000000000000000e+03 2.377762794494628906e+01 -6.979649066925048828e+00 2.744010448455810547e+00 9.545837640762329102e-01 1.109578251838684082e+00 -1.732299804687500000e+00
2.221000000000000000e+03 3.739636611938476562e+01 -6.547586917877197266e+00 2.293200254440307617e+00 7.702144145965576172e+00 2.998603343963623047e+00 6.041531562805175781e-01
2.222000000000000000e+03 7.341305541992187500e+01 3.328200101852416992e+00 -4.390764534473419189e-01 7.282308101654052734e+00 2.052969455718994141e+00 -4.658455252647399902e-01
2.223000000000000000e+03 6.920370483398437500e+01 -1.925209760665893555e+00 -9.381440281867980957e-01 6.866561889648437500e+00 1.778525352478027344e+00 -5.112242102622985840e-01
2.224000000000000000e+03 7.258396148681640625e+01 -1.830664873123168945e+00 -6.572169065475463867e-01 7.736629962921142578e+00 2.123823881149291992e+00 4.885210841894149780e-02
2.225000000000000000e+03 5.049024581909179688e+01 2.531647872924804688e+01 5.626460313796997070e-01 4.111261844635009766e+00 1.402172327041625977e+00 1.011234045028686523e+00
2.226000000000000000e+03 2.021886062622070312e+01 -4.315726280212402344e+00 3.856360673904418945e+00 1.750299692153930664e+00 1.681998133659362793e+00 -1.984421133995056152e+00
2.227000000000000000e+03 2.098049354553222656e+01 -3.912822246551513672e+00 4.081350803375244141e+00 1.278324246406555176e+00 1.607902407646179199e+00 -1.953984498977661133e+00
2.228000000000000000e+03 8.148323059082031250e+00 -1.101523685455322266e+01 -8.394901156425476074e-01 3.387687921524047852e+00 7.644593715667724609e-01 2.815682649612426758e+00
2.229000000000000000e+03 6.918512821197509766e+00 -9.379326820373535156e+00 -2.663685083389282227e-01 2.731505393981933594e+00 7.395411133766174316e-01 2.288697957992553711e+00
2.230000000000000000e+03 5.669186782836914062e+01 5.315423965454101562e+00 -3.069409132003784180e-01 9.123746156692504883e-01 1.816301047801971436e-01 -4.356498122215270996e-01
2.231000000000000000e+03 5.713535690307617188e+01 6.535667896270751953e+00 1.513841599225997925e-01 1.226412534713745117e+00 4.133390188217163086e-01 -5.261238813400268555e-01
2.232000000000000000e+03 2.602622985839843750e+01 -9.746919631958007812e+00 1.898805618286132812e+00 4.701431691646575928e-01 7.106845974922180176e-01 -1.595298290252685547e+00
2.233000000000000000e+03 2.739515495300292969e+01 -1.116512393951416016e+01 1.472702145576477051e+00 3.246682584285736084e-01 5.392111539840698242e-01 -1.384082317352294922e+00
2.234000000000000000e+03 7.364793395996093750e+01 2.196323394775390625e+01 1.617253422737121582e-01 6.114062309265136719e+00 1.882736325263977051e+00 -2.999157905578613281e-01
2.235000000000000000e+03 7.324498748779296875e+01 6.081158161163330078e+00 -2.495647221803665161e-01 6.940997600555419922e+00 2.007429838180541992e+00 -6.684466004371643066e-01
2.236000000000000000e+03 6.816113281250000000e+01 2.397013902664184570e+00 -9.234645366668701172e-01 5.698459148406982422e+00 1.432498335838317871e+00 -1.065158724784851074e+00
2.237000000000000000e+03 7.186990356445312500e+01 1.122318935394287109e+01 7.533447444438934326e-02 6.146957397460937500e+00 1.866687655448913574e+00 -8.097816705703735352e-01
2.238000000000000000e+03 7.323741912841796875e+01 -4.393568515777587891e+00 -4.692823290824890137e-01 8.141156196594238281e+00 2.301562309265136719e+00 3.653629124164581299e-01
2.239000000000000000e+03 7.243656158447265625e+01 2.010263252258300781e+01 2.330324649810791016e-01 5.919516563415527344e+00 1.845764756202697754e+00 -4.038355052471160889e-01
2.240000000000000000e+03 7.147085571289062500e+01 -1.929103732109069824e+00 -7.424144148826599121e-01 7.522733688354492188e+00 2.034095764160156250e+00 -1.080707162618637085e-01
2.241000000000000000e+03 2.068534660339355469e+01 -1.135809135437011719e+01 -9.637029841542243958e-03 1.017203092575073242e+00 3.022698163986206055e-01 -8.043118119239807129e-01
2.242000000000000000e+03 7.180886077880859375e+01 -3.305945968627929688e+01 -9.222656488418579102e-01 8.278795242309570312e+00 2.206959009170532227e+00 -4.770263135433197021e-01
2.243000000000000000e+03 8.982648849487304688e+00 1.883227729797363281e+01 6.818819642066955566e-01 4.394564628601074219e+00 1.522934079170227051e+00 -9.466322660446166992e-01
2.244000000000000000e+03 6.140061855316162109e+00 1.868419075012207031e+01 4.085861742496490479e-01 2.667620658874511719e+00 9.228619933128356934e-01 -7.930181622505187988e-01
2.245000000000000000e+03 6.202540206909179688e+01 4.421111106872558594e+00 -5.513990521430969238e-01 2.542350292205810547e+00 5.972853899002075195e-01 -1.320587038993835449e+00
2.246000000000000000e+03 6.095185089111328125e+01 6.255167007446289062e+00 -9.484272450208663940e-02 2.233233451843261719e+00 6.415171623229980469e-01 -1.149278283119201660e+00
2.247000000000000000e+03 3.270549011230468750e+01 -6.795358657836914062e+00 3.126641511917114258e+00 1.743475794792175293e+00 1.461035251617431641e+00 -1.168309688568115234e+00
2.248000000000000000e+03 6.306200790405273438e+01 3.845583200454711914e+00 -7.268466949462890625e-01 3.075706005096435547e+00 7.046577930450439453e-01 -1.411327362060546875e+00
2.249000000000000000e+03 7.284933471679687500e+01 1.396555137634277344e+01 1.331791877746582031e-01 6.249544620513916016e+00 1.914817094802856445e+00 -6.853291392326354980e-01
2.250000000000000000e+03 7.171070098876953125e+01 1.240587139129638672e+01 1.140520572662353516e-01 6.056892871856689453e+00 1.851283431053161621e+00 -7.968187928199768066e-01
2.251000000000000000e+03 6.206727981567382812e+00 1.057264041900634766e+01 1.782897114753723145e-01 2.005035400390625000e+00 6.549975872039794922e-01 -2.962148487567901611e-01
2.252000000000000000e+03 1.210223674774169922e+01 8.507082939147949219e+00 -4.013399779796600342e-01 5.890804290771484375e+00 1.646839261054992676e+00 -1.113152265548706055e+00
2.253000000000000000e+03 3.227544403076171875e+01 -7.840794086456298828e+00 3.087350845336914062e+00 1.809662818908691406e+00 1.469104051589965820e+00 -1.407257080078125000e+00
2.254000000000000000e+03 2.724587821960449219e+01 -1.236021709442138672e+01 8.921141028404235840e-01 3.458607494831085205e-01 3.713924586772918701e-01 -1.044278740882873535e+00
2.255000000000000000e+03 9.918320655822753906e+00 8.135332107543945312e+00 -1.655399799346923828e-02 4.215482711791992188e+00 1.259678721427917480e+00 -1.013033866882324219e+00
2.256000000000000000e+03 8.235925674438476562e+00 3.152989959716796875e+01 -4.289894998073577881e-01 3.967949151992797852e+00 1.061687946319580078e+00 -1.326886057853698730e+00
2.257000000000000000e+03 2.815599441528320312e+01 -1.266194725036621094e+01 8.526455163955688477e-01 2.127361446619033813e-01 3.196144998073577881e-01 -1.136398553848266602e+00
2.258000000000000000e+03 3.064773178100585938e+01 -1.319100952148437500e+01 1.188431501388549805e+00 1.022968053817749023e+00 6.634198427200317383e-01 -1.612725257873535156e+00
2.259000000000000000e+03 4.786706924438476562e+01 1.006797409057617188e+01 1.883842110633850098e+00 3.258527517318725586e+00 1.542710900306701660e+00 2.063601732254028320e+00
2.260000000000000000e+03 4.849026107788085938e+01 1.969876098632812500e+01 1.058439731597900391e+00 4.359349250793457031e+00 1.625336766242980957e+00 1.435056090354919434e+00
2.261000000000000000e+03 5.072302246093750000e+01 2.370506286621093750e+01 7.567370533943176270e-01 4.081215858459472656e+00 1.451385855674743652e+00 1.073446154594421387e+00
2.262000000000000000e+03 7.093206024169921875e+01 1.938433456420898438e+01 3.161095678806304932e-01 5.644275665283203125e+00 1.788115620613098145e+00 -4.556677341461181641e-01
2.263000000000000000e+03 6.405728149414062500e+01 3.479904890060424805e+00 -8.213852047920227051e-01 3.516494035720825195e+00 8.085326552391052246e-01 -1.443680763244628906e+00
2.264000000000000000e+03 7.610319614410400391e+00 2.618651580810546875e+01 1.783606708049774170e-01 3.820781946182250977e+00 1.199742794036865234e+00 -1.478443741798400879e+00
2.265000000000000000e+03 4.840873718261718750e+01 2.305459976196289062e+01 6.677696108818054199e-01 4.343894004821777344e+00 1.503499150276184082e+00 1.104955673217773438e+00
2.266000000000000000e+03 6.728605651855468750e+01 2.903064537048339844e+01 2.411616146564483643e-01 5.263052463531494141e+00 1.651264190673828125e+00 6.457334756851196289e-02
2.267000000000000000e+03 7.220506286621093750e+01 2.157552337646484375e+01 2.401936054229736328e-01 5.852653503417968750e+00 1.827854156494140625e+00 -3.326902687549591064e-01
2.268000000000000000e+03 3.285489273071289062e+01 -1.204382801055908203e+01 1.517460703849792480e+00 3.252140760421752930e+00 1.430880427360534668e+00 -1.537159800529479980e+00
2.269000000000000000e+03 6.802860260009765625e+01 6.684099137783050537e-02 -1.149842500686645508e+00 6.030521392822265625e+00 1.464203596115112305e+00 -8.752790093421936035e-01
2.270000000000000000e+03 9.496036529541015625e+00 -1.099142456054687500e+01 -7.215793728828430176e-01 2.960624456405639648e+00 6.717135310173034668e-01 3.055572509765625000e+00
2.271000000000000000e+03 1.063478755950927734e+01 -1.065542697906494141e+01 -5.152482986450195312e-01 2.656280755996704102e+00 6.423097252845764160e-01 2.965647697448730469e+00
2.272000000000000000e+03 7.266321563720703125e+01 5.231157541275024414e-01 -6.470395326614379883e-01 7.464958667755126953e+00 2.045375585556030273e+00 -2.218064516782760620e-01
2.273000000000000000e+03 2.991137695312500000e+01 -9.278230667114257812e+00 2.727462768554687500e+00 9.177904725074768066e-01 1.093575954437255859e+00 -1.838642597198486328e+00
2.274000000000000000e+03 3.626377105712890625e+01 -5.617384433746337891e+00 2.410226345062255859e+00 5.627068996429443359e+00 2.411188602447509766e+00 4.057952761650085449e-01
2.275000000000000000e+03 7.154565429687500000e+01 7.277550101280212402e-01 -7.592199444770812988e-01 7.122065544128417969e+00 1.908853769302368164e+00 -4.044597148895263672e-01
2.276000000000000000e+03 4.827035522460937500e+01 1.740531539916992188e+01 1.348299264907836914e+00 4.313622474670410156e+00 1.698576569557189941e+00 1.684917092323303223e+00
2.277000000000000000e+03 4.523122024536132812e+01 -2.823247718811035156e+01 4.292357563972473145e-01 3.064076662063598633e+00 1.047993779182434082e+00 -1.448705673217773438e+00
2.278000000000000000e+03 4.295951461791992188e+01 -2.968562698364257812e+01 -2.737740799784660339e-02 4.570253372192382812e+00 1.362862825393676758e+00 -1.503139257431030273e+00
2.279000000000000000e+03 7.133052825927734375e+01 3.797578573226928711e+00 -5.536296963691711426e-01 6.657071113586425781e+00 1.831032395362854004e+00 -7.312182784080505371e-01
2.280000000000000000e+03 6.697785949707031250e+01 1.857294678688049316e+00 -1.059375762939453125e+00 5.238413810729980469e+00 1.253711462020874023e+00 -1.191372632980346680e+00
2.281000000000000000e+03 1.969784545898437500e+01 -1.813383698463439941e+00 4.556699752807617188e+00 1.938164830207824707e+00 1.948459386825561523e+00 -1.960891366004943848e+00
2.282000000000000000e+03 1.843430709838867188e+01 -2.337114572525024414e+00 4.765671730041503906e+00 2.984842538833618164e+00 2.325154304504394531e+00 -2.072791337966918945e+00
2.283000000000000000e+03 7.122321319580078125e+01 5.703756809234619141e+00 -3.913474977016448975e-01 6.412660598754882812e+00 1.806393980979919434e+00 -8.570896983146667480e-01
2.284000000000000000e+03 7.024716949462890625e+01 3.606300354003906250e+01 -3.187662363052368164e-02 5.764356136322021484e+00 1.719743967056274414e+00 5.685245990753173828e-02
2.285000000000000000e+03 6.553880310058593750e+01 3.095924758911132812e+01 1.821415871381759644e-01 5.147845268249511719e+00 1.598996043205261230e+00 1.589225530624389648e-01
2.286000000000000000e+03 7.725149631500244141e+00 1.366999530792236328e+01 3.392133414745330811e-01 3.304482460021972656e+00 1.093108773231506348e+00 -5.118232965469360352e-01
2.287000000000000000e+03 8.311283111572265625e+00 2.697244453430175781e+01 9.874630719423294067e-02 4.063038349151611328e+00 1.248535394668579102e+00 -1.503694295883178711e+00
2.288000000000000000e+03 5.873371505737304688e+01 4.891514301300048828e+00 -4.409398734569549561e-01 1.294228553771972656e+00 2.559866011142730713e-01 -7.864232659339904785e-01
2.289000000000000000e+03 7.158354949951171875e+01 1.366492652893066406e+01 1.679778248071670532e-01 5.940509796142578125e+00 1.832546353340148926e+00 -7.724103927612304688e-01
2.290000000000000000e+03 3.490532684326171875e+01 -6.772035598754882812e+00 2.802932024002075195e+00 3.950035333633422852e+00 2.025890350341796875e+00 -3.535950183868408203e-01
2.291000000000000000e+03 5.798197555541992188e+01 6.074832916259765625e+00 -2.391447685658931732e-02 1.284910678863525391e+00 3.782988488674163818e-01 -6.552127599716186523e-01
2.292000000000000000e+03 2.467496490478515625e+01 -1.229479789733886719e+01 2.896288633346557617e-01 4.361331164836883545e-01 2.177285850048065186e-01 -9.777728915214538574e-01
2.293000000000000000e+03 1.015281391143798828e+01 1.864220428466796875e+01 7.870401144027709961e-01 5.258800029754638672e+00 1.813752055168151855e+00 -9.781067967414855957e-01
2.294000000000000000e+03 8.022365570068359375e+00 1.633411979675292969e+01 5.580634474754333496e-01 3.693160295486450195e+00 1.275367140769958496e+00 -6.812258958816528320e-01
2.295000000000000000e+03 7.192734718322753906e+00 -1.134816741943359375e+01 -9.474006295204162598e-01 3.567396640777587891e+00 7.859988212585449219e-01 2.407675743103027344e+00
2.296000000000000000e+03 4.126895523071289062e+01 -3.193737030029296875e+01 -6.960724592208862305e-01 5.335970401763916016e+00 1.391969442367553711e+00 -1.328300476074218750e+00
2.297000000000000000e+03 4.466484451293945312e+01 -3.158790969848632812e+01 -2.906514704227447510e-01 3.540817260742187500e+00 9.750497341156005859e-01 -1.313905954360961914e+00
2.298000000000000000e+03 8.460495948791503906e+00 2.986210823059082031e+01 -2.826707065105438232e-01 4.035473346710205078e+00 1.125840783119201660e+00 -1.428854346275329590e+00
2.299000000000000000e+03 7.430778503417968750e+00 2.835984611511230469e+01 -6.161666661500930786e-02 3.760378837585449219e+00 1.109628677368164062e+00 -1.491091012954711914e+00
2.300000000000000000e+03 6.825503540039062500e+01 -7.604050040245056152e-01 -1.149805307388305664e+00 6.270864009857177734e+00 1.536317706108093262e+00 -7.939581871032714844e-01
2.301000000000000000e+03 7.028771209716796875e+01 -3.309240341186523438e+00 -7.077736258506774902e-01 7.504802227020263672e+00 2.039108514785766602e+00 -2.489423155784606934e-01
2.302000000000000000e+03 7.503812408447265625e+01 -1.628820419311523438e+01 4.943396151065826416e-01 8.779239654541015625e+00 2.782073736190795898e+00 -4.324559587985277176e-03
2.303000000000000000e+03 7.489101409912109375e+01 -1.730225563049316406e+01 5.830178856849670410e-01 9.112873077392578125e+00 2.908767223358154297e+00 -1.572353243827819824e-01
2.304000000000000000e+03 7.036329650878906250e+01 2.827110671997070312e+01 1.889372318983078003e-01 5.639233112335205078e+00 1.748451113700866699e+00 -3.984379768371582031e-02
2.305000000000000000e+03 1.058898067474365234e+01 2.631966590881347656e+01 2.317179143428802490e-01 4.912799358367919922e+00 1.543355107307434082e+00 -1.308397531509399414e+00
2.306000000000000000e+03 4.858189392089843750e+01 1.461692810058593750e+01 1.731655240058898926e+00 3.882436037063598633e+00 1.684227347373962402e+00 1.846042394638061523e+00
2.307000000000000000e+03 1.027073287963867188e+01 1.995984649658203125e+01 7.808675169944763184e-01 5.378990650177001953e+00 1.847957491874694824e+00 -1.080823302268981934e+00
2.308000000000000000e+03 2.460666084289550781e+01 -9.177138328552246094e+00 1.883629679679870605e+00 6.794930100440979004e-01 7.689368128776550293e-01 -1.563224792480468750e+00
2.309000000000000000e+03 5.042006301879882812e+01 8.335550308227539062e+00 1.346653580665588379e+00 1.585928797721862793e+00 8.797746896743774414e-01 1.163024425506591797e+00
2.310000000000000000e+03 7.392158985137939453e+00 2.718962097167968750e+01 3.576372563838958740e-02 3.722383499145507812e+00 1.127444148063659668e+00 -1.487003803253173828e+00
2.311000000000000000e+03 7.122393798828125000e+01 3.131966209411621094e+01 9.640417248010635376e-02 5.767326831817626953e+00 1.759119272232055664e+00 2.001832798123359680e-02
2.312000000000000000e+03 6.922921752929687500e+01 3.039502906799316406e+01 1.499722003936767578e-01 5.532860279083251953e+00 1.704849839210510254e+00 3.625935316085815430e-02
2.313000000000000000e+03 4.756347274780273438e+01 6.596796035766601562e+00 1.049061417579650879e+00 2.209313869476318359e+00 9.775125384330749512e-01 2.030919790267944336e+00
2.314000000000000000e+03 4.846799468994140625e+01 6.294697761535644531e+00 7.907878160476684570e-01 1.497490525245666504e+00 6.864835023880004883e-01 1.632430195808410645e+00
2.315000000000000000e+03 4.763530349731445312e+01 1.478964710235595703e+01 1.673660635948181152e+00 4.336139202117919922e+00 1.802940011024475098e+00 2.013749837875366211e+00
2.316000000000000000e+03 5.019657897949218750e+01 1.735978698730468750e+01 1.501867890357971191e+00 3.723853588104248047e+00 1.567716479301452637e+00 1.494053006172180176e+00
2.317000000000000000e+03 4.873955154418945312e+01 1.307138824462890625e+01 1.900457501411437988e+00 3.535615682601928711e+00 1.630821943283081055e+00 1.892779946327209473e+00
2.318000000000000000e+03 5.073714447021484375e+01 1.609488677978515625e+01 1.673957109451293945e+00 3.362622737884521484e+00 1.510973930358886719e+00 1.440435767173767090e+00
2.319000000000000000e+03 1.676035881042480469e+01 4.106993484497070312e+01 -1.454551458358764648e+00 1.985456705093383789e+00 1.592715531587600708e-01 -2.026304043829441071e-02
2.320000000000000000e+03 9.522941589355468750e+00 3.367021942138671875e+01 -7.409861087799072266e-01 3.976080894470214844e+00 9.705284237861633301e-01 -1.074326634407043457e+00
2.321000000000000000e+03 9.378685951232910156e+00 -4.037437438964843750e+00 2.358955860137939453e+00 1.569760084152221680e+00 1.178614854812622070e+00 2.527261495590209961e+00
2.322000000000000000e+03 1.220881557464599609e+01 -3.923830747604370117e+00 2.216849565505981445e+00 5.968523502349853516e+00 2.455611944198608398e+00 3.122207880020141602e+00
2.323000000000000000e+03 1.046334743499755859e+01 -3.364745855331420898e+00 3.190404891967773438e+00 2.238342761993408203e+00 1.628624320030212402e+00 3.031888008117675781e+00
2.324000000000000000e+03 1.228236579895019531e+01 3.192306280136108398e+00 4.088098928332328796e-02 6.804490566253662109e+00 2.053611516952514648e+00 -2.875782728195190430e+00
2.325000000000000000e+03 1.329759693145751953e+01 -4.505197525024414062e+00 1.554058551788330078e+00 6.692764282226562500e+00 2.474046707153320312e+00 1.797904014587402344e+00
2.326000000000000000e+03 8.786631584167480469e+00 -4.182928085327148438e+00 2.091761112213134766e+00 1.272951602935791016e+00 1.009413838386535645e+00 2.247184038162231445e+00
2.327000000000000000e+03 7.654125690460205078e+00 -5.327653884887695312e+00 1.336162924766540527e+00 1.401939153671264648e+00 8.214306235313415527e-01 2.136974334716796875e+00
2.328000000000000000e+03 7.070198059082031250e+00 -6.255098342895507812e+00 8.832072615623474121e-01 1.570802688598632812e+00 7.362029552459716797e-01 2.055350303649902344e+00
2.329000000000000000e+03 9.428234100341796875e+00 4.922194957733154297e+00 4.301975071430206299e-01 2.921760797500610352e+00 1.005587458610534668e+00 -1.467181086540222168e+00
2.330000000000000000e+03 1.368832111358642578e+01 7.596764564514160156e+00 -7.439680099487304688e-01 6.788699150085449219e+00 1.813419342041015625e+00 -1.115966200828552246e+00
2.331000000000000000e+03 6.592964649200439453e+00 7.674974918365478516e+00 2.952872514724731445e-01 1.782178521156311035e+00 6.232397556304931641e-01 -3.446767330169677734e-01
2.332000000000000000e+03 7.546121597290039062e+00 -6.748235225677490234e+00 7.474465966224670410e-01 1.911420464515686035e+00 7.976601123809814453e-01 2.335097074508666992e+00
2.333000000000000000e+03 1.540572929382324219e+01 -3.984328031539916992e+00 2.731751680374145508e+00 6.548022747039794922e+00 2.783932209014892578e+00 -1.209201812744140625e+00
2.334000000000000000e+03 1.492008113861083984e+01 -3.704990863800048828e+00 2.674854040145874023e+00 7.559285163879394531e+00 3.070241689682006836e+00 -8.651769757270812988e-01
2.335000000000000000e+03 8.456810951232910156e+00 8.244324684143066406e+00 1.620241105556488037e-01 3.158081293106079102e+00 9.960316419601440430e-01 -7.234821319580078125e-01
2.336000000000000000e+03 7.437213420867919922e+00 7.573338985443115234e+00 2.870476245880126953e-01 2.360879421234130859e+00 7.943781018257141113e-01 -5.474431514739990234e-01
2.337000000000000000e+03 1.144028091430664062e+01 3.537208795547485352e+00 3.387403190135955811e-01 5.013214111328125000e+00 1.605586409568786621e+00 -2.686433315277099609e+00
2.338000000000000000e+03 1.244383621215820312e+01 3.800250053405761719e+00 -2.320594787597656250e-01 6.859173774719238281e+00 1.988134264945983887e+00 -2.496274232864379883e+00
2.339000000000000000e+03 1.389297771453857422e+01 3.902475595474243164e+00 -6.916471719741821289e-01 8.372467041015625000e+00 2.304245948791503906e+00 -1.463284730911254883e+00
2.340000000000000000e+03 1.704289245605468750e+01 -3.560018301010131836e+00 3.831612110137939453e+00 4.502807140350341797e+00 2.500325918197631836e+00 -2.020702123641967773e+00
2.341000000000000000e+03 1.321826362609863281e+01 7.963455200195312500e+00 -6.273618340492248535e-01 6.555736541748046875e+00 1.778512477874755859e+00 -1.131816506385803223e+00
2.342000000000000000e+03 1.362833213806152344e+01 4.455664157867431641e+00 -7.368540167808532715e-01 7.882693290710449219e+00 2.143751859664916992e+00 -1.590916991233825684e+00
2.343000000000000000e+03 1.364715671539306641e+01 6.150201797485351562e+00 -8.727169632911682129e-01 7.086786270141601562e+00 1.864220738410949707e+00 -1.293302774429321289e+00
2.344000000000000000e+03 8.429236412048339844e+00 1.043932437896728516e+01 1.631318330764770508e-01 3.497401952743530273e+00 1.098160147666931152e+00 -5.963115096092224121e-01
2.345000000000000000e+03 2.639728736877441406e+01 -8.088924407958984375e+00 2.565186500549316406e+00 5.562323927879333496e-01 9.364256858825683594e-01 -1.870591759681701660e+00
2.346000000000000000e+03 3.125275230407714844e+01 -1.205663394927978516e+01 1.547403931617736816e+00 1.701860666275024414e+00 9.747793674468994141e-01 -1.625058174133300781e+00
2.347000000000000000e+03 9.081768035888671875e+00 2.269369697570800781e+01 5.530250668525695801e-01 4.494406223297119141e+00 1.514229416847229004e+00 -1.295585632324218750e+00
2.348000000000000000e+03 7.175097656250000000e+01 1.964573860168457031e+00 -6.719343066215515137e-01 7.001009941101074219e+00 1.898722648620605469e+00 -5.234051942825317383e-01
2.349000000000000000e+03 7.235430908203125000e+01 2.866363525390625000e+00 -5.654160976409912109e-01 7.072013378143310547e+00 1.951979279518127441e+00 -5.352252125740051270e-01
2.350000000000000000e+03 1.466990089416503906e+01 5.475257396697998047e+00 -9.706137776374816895e-01 7.640571594238281250e+00 2.000987291336059570e+00 -9.543666839599609375e-01
2.351000000000000000e+03 1.441627693176269531e+01 6.438239574432373047e+00 -9.423491954803466797e-01 7.310489654541015625e+00 1.910442113876342773e+00 -1.033728241920471191e+00
2.352000000000000000e+03 1.884678268432617188e+01 -1.074297523498535156e+01 3.687373176217079163e-02 1.363140463829040527e+00 4.200042486190795898e-01 -5.643201470375061035e-01
2.353000000000000000e+03 1.965873336791992188e+01 -1.107656764984130859e+01 -1.042757369577884674e-02 1.256813049316406250e+00 3.739156424999237061e-01 -7.255240678787231445e-01
2.354000000000000000e+03 7.334928989410400391e+00 1.045567893981933594e+01 1.821185201406478882e-01 2.728222370147705078e+00 8.731023073196411133e-01 -3.935754895210266113e-01
2.355000000000000000e+03 7.142147064208984375e+01 -4.723232269287109375e+00 -5.444061160087585449e-01 8.063532829284667969e+00 2.255738258361816406e+00 4.581068456172943115e-02
2.356000000000000000e+03 1.409379673004150391e+01 -1.156408882141113281e+01 -6.606106162071228027e-01 1.494529724121093750e+00 2.501757442951202393e-01 1.585125803947448730e+00
2.357000000000000000e+03 1.220385265350341797e+01 -1.022872734069824219e+01 -3.040770888328552246e-01 2.533913135528564453e+00 6.689507961273193359e-01 2.501577854156494141e+00
2.358000000000000000e+03 2.429349517822265625e+01 -1.143128299713134766e+01 7.631505727767944336e-01 5.445196628570556641e-01 3.923010826110839844e-01 -1.088782072067260742e+00
2.359000000000000000e+03 2.262358856201171875e+01 -6.817495346069335938e+00 2.824361801147460938e+00 1.095101714134216309e+00 1.175839066505432129e+00 -1.642481088638305664e+00
2.360000000000000000e+03 8.925278663635253906e+00 -4.798958778381347656e+00 1.873474121093750000e+00 1.669256567955017090e+00 1.062819242477416992e+00 2.510484695434570312e+00
2.361000000000000000e+03 1.137906837463378906e+01 -1.090778064727783203e+01 -5.263905525207519531e-01 2.404001474380493164e+00 5.632832646369934082e-01 2.850471496582031250e+00
2.362000000000000000e+03 1.751261901855468750e+01 -2.399791955947875977e+00 4.886965751647949219e+00 3.985625505447387695e+00 2.661777496337890625e+00 -2.078498601913452148e+00
2.363000000000000000e+03 1.772435760498046875e+01 -3.297150850296020508e+00 4.126547336578369141e+00 3.689579248428344727e+00 2.344837903976440430e+00 -2.119886159896850586e+00
2.364000000000000000e+03 1.230702781677246094e+01 9.289415359497070312e+00 -3.273683190345764160e-01 6.021260261535644531e+00 1.708167552947998047e+00 -1.020896673202514648e+00
2.365000000000000000e+03 1.469133281707763672e+01 3.685546398162841797e+00 -5.266594886779785156e-01 8.648477554321289062e+00 2.436545610427856445e+00 -7.961640357971191406e-01
2.366000000000000000e+03 1.700611877441406250e+01 -1.023400306701660156e+01 6.376229971647262573e-02 1.811611533164978027e+00 5.626121163368225098e-01 -6.603880226612091064e-02
2.367000000000000000e+03 2.037517547607421875e+01 -5.114575386047363281e+00 3.460662126541137695e+00 1.662084341049194336e+00 1.536823987960815430e+00 -1.908907055854797363e+00
2.368000000000000000e+03 1.910484313964843750e+01 -3.419045925140380859e+00 4.268256187438964844e+00 2.447969675064086914e+00 2.014867782592773438e+00 -2.130113601684570312e+00
2.369000000000000000e+03 1.762787628173828125e+01 -1.087924289703369141e+01 -1.559165269136428833e-01 1.528535485267639160e+00 4.117856621742248535e-01 -2.286079823970794678e-01
2.370000000000000000e+03 1.990391731262207031e+01 -1.024265003204345703e+01 5.096721053123474121e-01 1.299316167831420898e+00 5.426964759826660156e-01 -8.786843419075012207e-01
2.371000000000000000e+03 7.205228424072265625e+01 4.908551216125488281e+00 -4.224140346050262451e-01 6.741617679595947266e+00 1.895761132240295410e+00 -7.175543308258056641e-01
2.372000000000000000e+03 7.368242740631103516e+00 9.151400566101074219e+00 1.793526411056518555e-01 2.564646482467651367e+00 8.231996893882751465e-01 -4.457738995552062988e-01
2.373000000000000000e+03 1.148984909057617188e+01 9.360567092895507812e+00 -1.993556320667266846e-01 5.519321441650390625e+00 1.595989704132080078e+00 -9.622916579246520996e-01
2.374000000000000000e+03 2.479618644714355469e+01 -7.614567756652832031e+00 2.614193916320800781e+00 7.983831763267517090e-01 1.023773074150085449e+00 -1.772516250610351562e+00
2.375000000000000000e+03 7.041282653808593750e+01 1.207823085784912109e+01 1.414410173892974854e-01 5.685614109039306641e+00 1.748116612434387207e+00 -8.983225822448730469e-01
2.376000000000000000e+03 7.163668823242187500e+01 8.742365837097167969e+00 -1.068612858653068542e-01 6.229845523834228516e+00 1.836895227432250977e+00 -8.820880055427551270e-01
2.377000000000000000e+03 6.958717346191406250e+01 1.837759971618652344e+01 3.993107378482818604e-01 5.345967769622802734e+00 1.723583579063415527e+00 -5.192712545394897461e-01
2.378000000000000000e+03 6.995654296875000000e+01 1.547961616516113281e+01 3.310803472995758057e-01 5.434620857238769531e+00 1.729710459709167480e+00 -7.145296335220336914e-01
2.379000000000000000e+03 2.264067268371582031e+01 -5.741765975952148438e+00 3.339078187942504883e+00 1.033837556838989258e+00 1.311874747276306152e+00 -1.694292426109313965e+00
2.380000000000000000e+03 9.560421943664550781e+00 -5.096718788146972656e+00 1.886314511299133301e+00 2.200945854187011719e+00 1.226178050041198730e+00 2.855275630950927734e+00
2.381000000000000000e+03 2.290228271484375000e+01 -9.003621101379394531e+00 1.652845740318298340e+00 9.206591844558715820e-01 7.720514535903930664e-01 -1.437741994857788086e+00
2.382000000000000000e+03 3.500503921508789062e+01 -8.711434364318847656e+00 2.607534646987915039e+00 4.860099315643310547e+00 2.240290164947509766e+00 -5.307726860046386719e-01
2.383000000000000000e+03 7.904076099395751953e+00 1.111024475097656250e+01 2.195734232664108276e-01 3.229830741882324219e+00 1.034821271896362305e+00 -5.012542009353637695e-01
2.384000000000000000e+03 7.848647117614746094e+00 2.510056495666503906e+01 2.769030630588531494e-01 3.904494047164916992e+00 1.254419088363647461e+00 -1.436062097549438477e+00
2.385000000000000000e+03 9.033758163452148438e+00 2.490058898925781250e+01 3.623847365379333496e-01 4.373513221740722656e+00 1.420769453048706055e+00 -1.396585583686828613e+00
2.386000000000000000e+03 2.911248207092285156e+01 -1.043629360198974609e+01 2.137594223022460938e+00 6.045023202896118164e-01 8.226289749145507812e-01 -1.616322755813598633e+00
2.387000000000000000e+03 6.901268005371093750e+01 1.336086559295654297e+01 3.011735379695892334e-01 5.218797683715820312e+00 1.655991435050964355e+00 -8.613819479942321777e-01
2.388000000000000000e+03 8.891474723815917969e+00 -1.184487915039062500e+01 -9.920212030410766602e-01 3.292809486389160156e+00 6.902365088462829590e-01 3.036029815673828125e+00
2.389000000000000000e+03 1.040500259399414062e+01 -9.653258323669433594e+00 -2.077338844537734985e-01 2.821531772613525391e+00 7.841393947601318359e-01 2.940873861312866211e+00
2.390000000000000000e+03 3.644527816772460938e+01 -6.714465618133544922e+00 2.495727300643920898e+00 6.236637115478515625e+00 2.619709253311157227e+00 2.133327722549438477e-01
2.391000000000000000e+03 9.068149566650390625e+00 2.006771850585937500e+01 6.734245419502258301e-01 4.499722480773925781e+00 1.551944017410278320e+00 -1.070993185043334961e+00
2.392000000000000000e+03 7.864910602569580078e+00 2.011546707153320312e+01 5.926588773727416992e-01 3.735803842544555664e+00 1.298538804054260254e+00 -1.032264590263366699e+00
2.393000000000000000e+03 3.693351745605468750e+01 -1.466557025909423828e+01 3.236312046647071838e-02 9.235588073730468750e+00 2.780385255813598633e+00 -7.064440846443176270e-01
2.394000000000000000e+03 7.748300552368164062e+00 1.764382362365722656e+01 5.882886052131652832e-01 3.615235090255737305e+00 1.261057138442993164e+00 -8.132218718528747559e-01
2.395000000000000000e+03 7.970900058746337891e+00 9.745807647705078125e+00 1.537314653396606445e-01 3.044883728027343750e+00 9.595845937728881836e-01 -5.280085802078247070e-01
2.396000000000000000e+03 6.747032165527343750e+00 9.842190742492675781e+00 1.863750517368316650e-01 2.257713794708251953e+00 7.332266569137573242e-01 -3.372460305690765381e-01
2.397000000000000000e+03 7.258033752441406250e+01 -6.908154487609863281e-01 -6.288865804672241211e-01 7.567440986633300781e+00 2.081566333770751953e+00 -1.060442551970481873e-01
2.398000000000000000e+03 7.042089080810546875e+01 9.856683611869812012e-01 -8.897549510002136230e-01 6.731179714202880859e+00 1.752427458763122559e+00 -6.230053901672363281e-01
2.399000000000000000e+03 6.218962478637695312e+01 6.675193309783935547e+00 -6.581953167915344238e-02 2.800417423248291016e+00 8.203793764114379883e-01 -1.236969947814941406e+00
2.400000000000000000e+03 9.884400367736816406e+00 1.744237136840820312e+01 7.743768692016601562e-01 5.031418323516845703e+00 1.741738557815551758e+00 -8.798268437385559082e-01
2.401000000000000000e+03 6.651732635498046875e+01 2.991257905960083008e+00 -9.244914054870605469e-01 4.925939559936523438e+00 1.200434446334838867e+00 -1.293097615242004395e+00
2.402000000000000000e+03 6.937056732177734375e+01 1.298704624176025391e+00 -9.701994657516479492e-01 6.388247013092041016e+00 1.625414371490478516e+00 -7.990723252296447754e-01
2.403000000000000000e+03 3.478032302856445312e+01 -1.053202152252197266e+01 1.965294122695922852e+00 5.204181671142578125e+00 2.150842666625976562e+00 -9.867206215858459473e-01
2.404000000000000000e+03 3.561865997314453125e+01 -6.880672931671142578e+00 2.643342971801757812e+00 5.171633243560791016e+00 2.344492912292480469e+00 -1.096208579838275909e-02
2.405000000000000000e+03 1.048408508300781250e+01 1.218531990051269531e+01 2.313119918107986450e-01 5.036074638366699219e+00 1.580215930938720703e+00 -6.960744261741638184e-01
2.406000000000000000e+03 6.741215229034423828e+00 1.110608291625976562e+01 2.063931375741958618e-01 2.401655435562133789e+00 7.824145555496215820e-01 -3.431639075279235840e-01
2.407000000000000000e+03 4.996426773071289062e+01 1.121540069580078125e+01 1.837989211082458496e+00 2.516378641128540039e+00 1.306310296058654785e+00 1.527217745780944824e+00
2.408000000000000000e+03 6.869873046875000000e+01 2.722332954406738281e+01 2.720444798469543457e-01 5.385746955871582031e+00 1.697337388992309570e+00 -2.925997599959373474e-02
2.409000000000000000e+03 9.962271690368652344e+00 1.437415695190429688e+01 4.664339423179626465e-01 4.866820335388183594e+00 1.599976301193237305e+00 -7.011108398437500000e-01
2.410000000000000000e+03 8.438912391662597656e+00 1.517190551757812500e+01 4.494147598743438721e-01 3.859036445617675781e+00 1.292535305023193359e+00 -6.255173683166503906e-01
2.411000000000000000e+03 1.154246711730957031e+01 -1.018562030792236328e+01 -2.974726259708404541e-01 2.608477830886840820e+00 6.933015584945678711e-01 2.696144580841064453e+00
2.412000000000000000e+03 7.032907104492187500e+01 -1.934265375137329102e+00 -8.647677302360534668e-01 7.228147983551025391e+00 1.909013986587524414e+00 -3.046734333038330078e-01
2.413000000000000000e+03 9.155471801757812500e+00 1.668485641479492188e+01 6.895228624343872070e-01 4.518250465393066406e+00 1.562331914901733398e+00 -7.784083485603332520e-01
2.414000000000000000e+03 5.854124832153320312e+01 6.826401710510253906e+00 1.940603852272033691e-01 1.571028470993041992e+00 5.295266509056091309e-01 -7.429042458534240723e-01
2.415000000000000000e+03 5.259698486328125000e+01 8.028707504272460938e+00 9.819725751876831055e-01 1.147622346878051758e+00 6.388784646987915039e-01 5.302366614341735840e-01
2.416000000000000000e+03 7.100872802734375000e+01 1.609705543518066406e+01 2.782154381275177002e-01 5.690575122833251953e+00 1.790637135505676270e+00 -6.603356599807739258e-01
2.417000000000000000e+03 7.139913940429687500e+01 1.491185665130615234e+01 2.201992273330688477e-01 5.827117443084716797e+00 1.814194917678833008e+00 -7.253770232200622559e-01
2.418000000000000000e+03 2.331877899169921875e+01 -8.049246788024902344e+00 2.274602174758911133e+00 8.927382230758666992e-01 9.502021074295043945e-01 -1.610678195953369141e+00
2.419000000000000000e+03 5.038304901123046875e+01 1.226648521423339844e+01 1.897436022758483887e+00 2.642716407775878906e+00 1.362045764923095703e+00 1.469383597373962402e+00
2.420000000000000000e+03 5.200959014892578125e+01 2.542368316650390625e+01 6.145581007003784180e-01 4.038193702697753906e+00 1.395825505256652832e+00 9.751508235931396484e-01
2.421000000000000000e+03 7.090831756591796875e+01 2.192990493774414062e+01 3.021425902843475342e-01 5.636145591735839844e+00 1.781486511230468750e+00 -3.245221376419067383e-01
2.422000000000000000e+03 6.990565490722656250e+01 2.070534515380859375e+01 3.656146824359893799e-01 5.447690963745117188e+00 1.743991613388061523e+00 -3.782953917980194092e-01
2.423000000000000000e+03 6.992950439453125000e+01 2.558346557617187500e+01 2.734180390834808350e-01 5.532271385192871094e+00 1.741706848144531250e+00 -1.292887330055236816e-01
2.424000000000000000e+03 6.978498840332031250e+01 2.310784721374511719e+01 3.406773805618286133e-01 5.447013378143310547e+00 1.736307263374328613e+00 -2.501764893531799316e-01
2.425000000000000000e+03 3.089239120483398438e+01 -1.015998554229736328e+01 2.344114542007446289e+00 1.490826606750488281e+00 1.150482296943664551e+00 -1.657072782516479492e+00
2.426000000000000000e+03 2.962635803222656250e+01 -1.238570022583007812e+01 1.307605385780334473e+00 5.398727059364318848e-01 5.542434453964233398e-01 -1.313828706741333008e+00
2.427000000000000000e+03 3.197230339050292969e+01 -1.098873519897460938e+01 2.244796991348266602e+00 2.290755271911621094e+00 1.360665678977966309e+00 -1.617763519287109375e+00
2.428000000000000000e+03 4.933910751342773438e+01 1.212610721588134766e+01 1.916324138641357422e+00 3.062586784362792969e+00 1.493673205375671387e+00 1.736741662025451660e+00
2.429000000000000000e+03 5.015652084350585938e+01 1.459689235687255859e+01 1.787035584449768066e+00 3.280880451202392578e+00 1.520374774932861328e+00 1.561388015747070312e+00
2.430000000000000000e+03 9.630991935729980469e+00 3.168011474609375000e+01 -5.687186717987060547e-01 4.133941173553466797e+00 1.069566726684570312e+00 -1.242597222328186035e+00
2.431000000000000000e+03 5.051352310180664062e+01 1.972462081909179688e+01 1.205479621887207031e+00 3.891899108886718750e+00 1.529213547706604004e+00 1.307753086090087891e+00
2.432000000000000000e+03 5.222515487670898438e+01 2.276012992858886719e+01 9.547856450080871582e-01 3.879150390625000000e+00 1.450180768966674805e+00 1.048662304878234863e+00
2.433000000000000000e+03 6.923844146728515625e+01 1.632657623291015625e+01 3.995877504348754883e-01 5.273097991943359375e+00 1.701805710792541504e+00 -6.505598425865173340e-01
2.434000000000000000e+03 5.688028335571289062e+01 8.409760475158691406e+00 7.369819283485412598e-01 1.531744003295898438e+00 6.806177496910095215e-01 -3.558650910854339600e-01
2.435000000000000000e+03 5.130957031250000000e+01 1.770516014099121094e+01 1.491514205932617188e+00 3.539255619049072266e+00 1.509230971336364746e+00 1.325514554977416992e+00
2.436000000000000000e+03 7.078932189941406250e+01 1.076211643218994141e+01 5.659743025898933411e-02 5.870455741882324219e+00 1.778115987777709961e+00 -9.047489166259765625e-01
2.437000000000000000e+03 7.021170043945312500e+01 8.433181762695312500e+00 -1.345385909080505371e-01 5.831064224243164062e+00 1.708957672119140625e+00 -1.000558137893676758e+00
2.438000000000000000e+03 6.606694793701171875e+01 4.183481693267822266e+00 -7.460213303565979004e-01 4.521043300628662109e+00 1.132506489753723145e+00 -1.376398444175720215e+00
2.439000000000000000e+03 6.362395477294921875e+01 4.986739158630371094e+00 -5.132126212120056152e-01 3.383798837661743164e+00 8.611758947372436523e-01 -1.382323265075683594e+00
2.440000000000000000e+03 2.402268218994140625e+01 -1.058705139160156250e+01 1.089769601821899414e+00 6.444817781448364258e-01 5.202754139900207520e-01 -1.316227316856384277e+00
2.441000000000000000e+03 5.208420944213867188e+01 2.729026031494140625e+01 3.971429765224456787e-01 4.074759006500244141e+00 1.341570496559143066e+00 9.294765591621398926e-01
2.442000000000000000e+03 4.963464736938476562e+01 2.944753456115722656e+01 3.530954942107200623e-02 4.067142486572265625e+00 1.230735540390014648e+00 8.675343990325927734e-01
2.443000000000000000e+03 7.856729507446289062e+00 2.137814521789550781e+01 5.208711624145507812e-01 3.746829271316528320e+00 1.280310153961181641e+00 -1.165503859519958496e+00
2.444000000000000000e+03 4.406466674804687500e+01 -3.341161727905273438e+01 -7.163037657737731934e-01 4.003448009490966797e+00 9.861432909965515137e-01 -1.169918060302734375e+00
2.445000000000000000e+03 7.443534088134765625e+01 -2.036164665222167969e+01 4.647926390171051025e-01 9.608435630798339844e+00 3.021968364715576172e+00 -5.131953954696655273e-01
2.446000000000000000e+03 7.292787170410156250e+01 3.136801528930664062e+01 5.187521874904632568e-02 5.981819152832031250e+00 1.810108423233032227e+00 1.435537263751029968e-02
2.447000000000000000e+03 6.753561401367187500e+01 3.252663040161132812e+01 1.024025827646255493e-01 5.410459995269775391e+00 1.653858780860900879e+00 1.053394898772239685e-01
2.448000000000000000e+03 4.764093017578125000e+01 7.471847534179687500e+00 1.364377140998840332e+00 2.565941333770751953e+00 1.179095506668090820e+00 2.081754207611083984e+00
2.449000000000000000e+03 4.844154357910156250e+01 8.828581809997558594e+00 1.646192908287048340e+00 2.522255182266235352e+00 1.250534415245056152e+00 1.825418233871459961e+00
2.450000000000000000e+03 5.169085311889648438e+01 2.084683227539062500e+01 1.142181754112243652e+00 3.809079885482788086e+00 1.485378503799438477e+00 1.166303753852844238e+00
2.451000000000000000e+03 6.885974884033203125e+01 4.590876102447509766e-01 -1.047319173812866211e+00 6.310161113739013672e+00 1.578852653503417969e+00 -8.046303391456604004e-01
2.452000000000000000e+03 3.327724075317382812e+01 -5.723159790039062500e+00 3.025778532028198242e+00 1.933453798294067383e+00 1.487769722938537598e+00 -8.173314332962036133e-01
2.453000000000000000e+03 7.456452941894531250e+01 -1.838698196411132812e+01 5.339300036430358887e-01 9.525312423706054688e+00 3.017772912979125977e+00 -3.524416089057922363e-01
2.454000000000000000e+03 6.559143066406250000e+01 3.477301406860351562e+01 1.295460946857929230e-02 5.268986225128173828e+00 1.584582328796386719e+00 1.676197052001953125e-01
2.455000000000000000e+03 7.339091491699218750e+01 3.755165100097656250e+01 -2.389626577496528625e-02 6.051866531372070312e+00 1.808391094207763672e+00 3.780054673552513123e-02
2.456000000000000000e+03 8.090283393859863281e+00 4.114438247680664062e+01 -7.009424567222595215e-01 3.896575450897216797e+00 9.586898684501647949e-01 -1.780071407556533813e-01
2.457000000000000000e+03 9.369158744812011719e+00 3.592549514770507812e+01 -8.846311569213867188e-01 3.837120532989501953e+00 8.857467770576477051e-01 -8.198762536048889160e-01
2.458000000000000000e+03 5.493911743164062500e+01 8.655010223388671875e+00 9.506513476371765137e-01 1.322216749191284180e+00 6.818604469299316406e-01 5.277417600154876709e-02
2.459000000000000000e+03 5.394839859008789062e+01 7.258445739746093750e+00 6.448442935943603516e-01 9.993160963058471680e-01 4.932481050491333008e-01 1.516736149787902832e-01
2.460000000000000000e+03 1.228066921234130859e+01 3.850275421142578125e+01 -1.204739570617675781e+00 3.361074686050415039e+00 6.469005346298217773e-01 -3.669457733631134033e-01
2.461000000000000000e+03 1.087128829956054688e+01 -4.666519165039062500e+00 2.131013631820678711e+00 3.368314504623413086e+00 1.649798393249511719e+00 3.222204208374023438e+00
2.462000000000000000e+03 1.046728324890136719e+01 -3.935146808624267578e+00 2.669280052185058594e+00 2.628910541534423828e+00 1.589457154273986816e+00 3.129615306854248047e+00
2.463000000000000000e+03 1.290618610382080078e+01 -4.037303447723388672e+00 1.885936021804809570e+00 6.913959026336669922e+00 2.639968633651733398e+00 2.364411830902099609e+00
2.464000000000000000e+03 1.252395439147949219e+01 -3.703759670257568359e+00 2.220904111862182617e+00 6.719736576080322266e+00 2.682192325592041016e+00 3.010072231292724609e+00
2.465000000000000000e+03 1.332502841949462891e+01 6.959292411804199219e+00 -7.518500685691833496e-01 6.723749160766601562e+00 1.791569709777832031e+00 -1.260173320770263672e+00
2.466000000000000000e+03 1.195640468597412109e+01 3.952847242355346680e+00 -6.964328140020370483e-02 5.993480682373046875e+00 1.777151107788085938e+00 -2.551277637481689453e+00
2.467000000000000000e+03 1.206677055358886719e+01 -3.648330450057983398e+00 2.568796634674072266e+00 5.972301959991455078e+00 2.562329530715942383e+00 3.463167190551757812e+00
2.468000000000000000e+03 9.939739227294921875e+00 -3.962087869644165039e+00 2.564905166625976562e+00 1.964572072029113770e+00 1.358843207359313965e+00 2.803025007247924805e+00
2.469000000000000000e+03 1.100520896911621094e+01 3.630927562713623047e+00 4.756389856338500977e-01 4.251185894012451172e+00 1.418047428131103516e+00 -2.462094783782958984e+00
2.470000000000000000e+03 1.115251541137695312e+01 -4.247177124023437500e+00 2.363290786743164062e+00 3.729117393493652344e+00 1.827722430229187012e+00 3.307389974594116211e+00
2.471000000000000000e+03 8.083799362182617188e+00 6.806408882141113281e+00 2.962162494659423828e-01 2.495430946350097656e+00 8.374941945075988770e-01 -7.793188095092773438e-01
2.472000000000000000e+03 1.296528911590576172e+01 3.622654676437377930e+00 -4.692339897155761719e-01 7.876710414886474609e+00 2.222242832183837891e+00 -2.279847621917724609e+00
2.473000000000000000e+03 1.148995494842529297e+01 4.038840293884277344e+00 1.486533433198928833e-01 5.244501590728759766e+00 1.617946505546569824e+00 -2.500651121139526367e+00
2.474000000000000000e+03 1.168916797637939453e+01 5.617447853088378906e+00 -3.140554428100585938e-01 5.605443954467773438e+00 1.587416529655456543e+00 -1.862928628921508789e+00
2.475000000000000000e+03 7.735856056213378906e+00 -6.084255218505859375e+00 1.082066774368286133e+00 1.684318780899047852e+00 8.299156427383422852e-01 2.290041446685791016e+00
2.476000000000000000e+03 8.360291481018066406e+00 -6.251774311065673828e+00 1.127432107925415039e+00 1.929309010505676270e+00 9.170222878456115723e-01 2.548791885375976562e+00
2.477000000000000000e+03 1.414689922332763672e+01 5.842404365539550781e+00 -9.733406901359558105e-01 7.395874977111816406e+00 1.926760315895080566e+00 -1.191240668296813965e+00
2.478000000000000000e+03 1.252717304229736328e+01 4.421029567718505859e+00 -4.684358835220336914e-01 6.843704223632812500e+00 1.912580490112304688e+00 -2.220937967300415039e+00
2.479000000000000000e+03 8.137309074401855469e+00 7.458719730377197266e+00 2.363757044076919556e-01 2.709658145904541016e+00 8.838101625442504883e-01 -7.536522746086120605e-01
2.480000000000000000e+03 9.135987281799316406e+00 5.633823394775390625e+00 3.352327346801757812e-01 2.938810586929321289e+00 9.822129607200622559e-01 -1.240482091903686523e+00
2.481000000000000000e+03 1.075591564178466797e+01 4.987392902374267578e+00 1.247174218297004700e-01 4.413562297821044922e+00 1.361483812332153320e+00 -1.980253934860229492e+00
2.482000000000000000e+03 1.440162372589111328e+01 -4.216265201568603516e+00 1.926095843315124512e+00 7.257620334625244141e+00 2.755114793777465820e+00 1.909025609493255615e-01
2.483000000000000000e+03 1.102609825134277344e+01 4.059737205505371094e+00 3.117740154266357422e-01 4.437392711639404297e+00 1.424749970436096191e+00 -2.338109016418457031e+00
2.484000000000000000e+03 6.648712158203125000e+00 -7.967819690704345703e+00 2.707296907901763916e-01 2.122589826583862305e+00 7.179958224296569824e-01 2.160673379898071289e+00
2.485000000000000000e+03 1.510079956054687500e+01 -4.720278263092041016e+00 1.952152490615844727e+00 6.252811431884765625e+00 2.461489200592041016e+00 -4.098415076732635498e-01
2.486000000000000000e+03 8.865736961364746094e+00 -1.036305713653564453e+01 -5.229306817054748535e-01 2.981419324874877930e+00 7.375466227531433105e-01 2.981957674026489258e+00
2.487000000000000000e+03 1.419522380828857422e+01 4.882899284362792969e+00 -9.192332029342651367e-01 7.863439559936523438e+00 2.083261966705322266e+00 -1.213899016380310059e+00
2.488000000000000000e+03 1.240473651885986328e+01 5.765601158142089844e+00 -5.760249495506286621e-01 6.303091526031494141e+00 1.718119978904724121e+00 -1.691584944725036621e+00
2.489000000000000000e+03 1.818357276916503906e+01 -3.858202219009399414e+00 3.793705701828002930e+00 3.282124996185302734e+00 2.122749090194702148e+00 -2.040303707122802734e+00
2.490000000000000000e+03 1.157480144500732422e+01 1.025960731506347656e+01 -8.892777562141418457e-02 5.613664627075195312e+00 1.657420992851257324e+00 -8.932804465293884277e-01
2.491000000000000000e+03 9.786269187927246094e+00 1.011216735839843750e+01 5.651124566793441772e-02 4.335560798645019531e+00 1.317621588706970215e+00 -7.506020069122314453e-01
2.492000000000000000e+03 1.570566368103027344e+01 -4.579089164733886719e+00 2.424159765243530273e+00 5.810423374176025391e+00 2.470374822616577148e+00 -1.079440951347351074e+00
2.493000000000000000e+03 1.648125457763671875e+01 -5.312458992004394531e+00 2.204759359359741211e+00 4.534781932830810547e+00 2.021862268447875977e+00 -1.149741888046264648e+00
2.494000000000000000e+03 6.919039249420166016e+00 -8.578667640686035156e+00 9.334541112184524536e-02 2.387588977813720703e+00 7.442802786827087402e-01 2.316663026809692383e+00
2.495000000000000000e+03 2.262959289550781250e+01 -9.885647773742675781e+00 1.306234002113342285e+00 9.133473038673400879e-01 6.658743619918823242e-01 -1.333627223968505859e+00
2.496000000000000000e+03 1.380450248718261719e+01 -1.074527359008789062e+01 -3.387490212917327881e-01 1.988439440727233887e+00 4.949071109294891357e-01 1.725162148475646973e+00
2.497000000000000000e+03 1.163771057128906250e+01 -9.581857681274414062e+00 -1.286451518535614014e-01 2.821732044219970703e+00 8.079260587692260742e-01 2.681837797164916992e+00
2.498000000000000000e+03 7.591723442077636719e+00 8.406518936157226562e+00 2.113428711891174316e-01 2.599770069122314453e+00 8.433338999748229980e-01 -5.138468742370605469e-01
2.499000000000000000e+03 7.068035125732421875e+01 2.482319355010986328e+00 -7.440291047096252441e-01 6.612220287322998047e+00 1.760457277297973633e+00 -7.210239171981811523e-01
2.500000000000000000e+03 6.915011882781982422e+00 1.956478500366210938e+01 5.131900906562805176e-01 3.199461936950683594e+00 1.113795638084411621e+00 -9.364359378814697266e-01
2.501000000000000000e+03 6.451486206054687500e+01 4.499985218048095703e+00 -6.249759793281555176e-01 3.748909473419189453e+00 9.371800422668457031e-01 -1.404279470443725586e+00
2.502000000000000000e+03 1.793985366821289062e+01 -7.515990734100341797e+00 1.551119804382324219e+00 2.516476392745971680e+00 1.220278859138488770e+00 -9.818416237831115723e-01
2.503000000000000000e+03 1.780666923522949219e+01 -9.507233619689941406e+00 5.197327136993408203e-01 1.952174186706542969e+00 7.415720820426940918e-01 -4.638028442859649658e-01
2.504000000000000000e+03 7.517918586730957031e+00 -9.292403221130371094e+00 -2.127438187599182129e-01 2.763481616973876953e+00 7.652213573455810547e-01 2.513889789581298828e+00
2.505000000000000000e+03 8.398229598999023438e+00 -9.640807151794433594e+00 -3.333850800991058350e-01 2.966620206832885742e+00 7.899705767631530762e-01 2.822184562683105469e+00
2.506000000000000000e+03 4.845888900756835938e+01 1.155248832702636719e+01 1.897354006767272949e+00 3.273092269897460938e+00 1.551133871078491211e+00 1.947112560272216797e+00
2.507000000000000000e+03 5.163882064819335938e+01 1.222062301635742188e+01 1.791406512260437012e+00 2.372732877731323242e+00 1.249241828918457031e+00 1.142658710479736328e+00
2.508000000000000000e+03 2.069176673889160156e+01 -8.629218101501464844e+00 1.621807813644409180e+00 1.403848528861999512e+00 9.076969027519226074e-01 -1.321602821350097656e+00
2.509000000000000000e+03 2.085783576965332031e+01 -1.033180141448974609e+01 6.657512784004211426e-01 1.103743553161621094e+00 5.308484435081481934e-01 -1.006151556968688965e+00
2.510000000000000000e+03 8.824668884277343750e+00 1.404966831207275391e+01 3.927810192108154297e-01 4.074883937835693359e+00 1.340299367904663086e+00 -5.886815190315246582e-01
2.511000000000000000e+03 9.739179611206054688e+00 9.127738952636718750e+00 6.887297611683607101e-03 4.195475101470947266e+00 1.260708808898925781e+00 -8.582425117492675781e-01
2.512000000000000000e+03 1.061630439758300781e+01 1.117530441284179688e+01 1.000533699989318848e-01 5.021058559417724609e+00 1.536333680152893066e+00 -7.537349462509155273e-01
2.513000000000000000e+03 7.031819152832031250e+01 1.340159797668457031e+01 2.188628017902374268e-01 5.597181797027587891e+00 1.744813323020935059e+00 -8.383983373641967773e-01
2.514000000000000000e+03 6.897164916992187500e+01 1.175967216491699219e+01 1.984230726957321167e-01 5.244817733764648438e+00 1.632972240447998047e+00 -9.468052983283996582e-01
2.515000000000000000e+03 3.644223785400390625e+01 -7.848427772521972656e+00 2.453275680541992188e+00 6.556426048278808594e+00 2.702910661697387695e+00 1.196776609867811203e-02
2.516000000000000000e+03 2.794833755493164062e+01 -8.700663566589355469e+00 2.581685066223144531e+00 6.016948223114013672e-01 9.550139307975769043e-01 -1.897920370101928711e+00
2.517000000000000000e+03 1.942771148681640625e+01 -5.178570270538330078e+00 3.262670993804931641e+00 2.245885610580444336e+00 1.652567028999328613e+00 -1.869329929351806641e+00
2.518000000000000000e+03 2.151274299621582031e+01 -5.863420486450195312e+00 3.209858417510986328e+00 1.267985820770263672e+00 1.343353271484375000e+00 -1.758782744407653809e+00
2.519000000000000000e+03 8.095012664794921875e+00 1.257966899871826172e+01 2.926836907863616943e-01 3.469366073608398438e+00 1.128614902496337891e+00 -5.094009041786193848e-01
2.520000000000000000e+03 2.548456382751464844e+01 -8.645562171936035156e+00 2.227435827255249023e+00 6.200003623962402344e-01 8.542308807373046875e-01 -1.712013363838195801e+00
2.521000000000000000e+03 2.243749618530273438e+01 -7.808541297912597656e+00 2.256026744842529297e+00 1.054816365242004395e+00 9.932529330253601074e-01 -1.569610476493835449e+00
2.522000000000000000e+03 1.093602085113525391e+01 -9.990822792053222656e+00 -2.545559406280517578e-01 2.701104164123535156e+00 7.339645028114318848e-01 2.902167081832885742e+00
2.523000000000000000e+03 8.707298278808593750e+00 -5.709229469299316406e+00 1.391372799873352051e+00 1.933073043823242188e+00 9.973337054252624512e-01 2.586976766586303711e+00
2.524000000000000000e+03 3.107419013977050781e+01 -8.926347732543945312e+00 2.904599189758300781e+00 1.381718516349792480e+00 1.285895347595214844e+00 -1.715426325798034668e+00
2.525000000000000000e+03 2.791157913208007812e+01 -9.886316299438476562e+00 2.248812198638916016e+00 5.116952061653137207e-01 8.281521797180175781e-01 -1.679382562637329102e+00
2.526000000000000000e+03 2.857538032531738281e+01 -1.166221523284912109e+01 1.576782107353210449e+00 5.224707126617431641e-01 6.297758221626281738e-01 -1.351810097694396973e+00
2.527000000000000000e+03 5.783040237426757812e+01 7.604707717895507812e+00 4.493801593780517578e-01 1.515104532241821289e+00 5.893453955650329590e-01 -5.856531858444213867e-01
2.528000000000000000e+03 5.327370834350585938e+01 1.109453582763671875e+01 1.601304769515991211e+00 1.891015052795410156e+00 1.047695875167846680e+00 6.743602156639099121e-01
2.529000000000000000e+03 3.549348449707031250e+01 -1.157178401947021484e+01 1.587232351303100586e+00 6.289894580841064453e+00 2.363137960433959961e+00 -9.024826288223266602e-01
2.530000000000000000e+03 6.862648773193359375e+01 1.955502128601074219e+01 4.578329622745513916e-01 5.185224056243896484e+00 1.692917108535766602e+00 -4.339786767959594727e-01
2.531000000000000000e+03 6.838457489013671875e+01 1.732213211059570312e+01 4.695508182048797607e-01 5.090822696685791016e+00 1.668112039566040039e+00 -5.976014137268066406e-01
2.532000000000000000e+03 3.589675521850585938e+01 -9.707160949707031250e+00 2.171080112457275391e+00 6.490113258361816406e+00 2.598357915878295898e+00 -4.562838375568389893e-01
2.533000000000000000e+03 7.189392852783203125e+01 7.312427520751953125e+00 -2.236145585775375366e-01 6.456321239471435547e+00 1.869812011718750000e+00 -8.396012783050537109e-01
2.534000000000000000e+03 7.070635223388671875e+01 6.942355155944824219e+00 -2.889370024204254150e-01 6.123485088348388672e+00 1.750364422798156738e+00 -9.496431946754455566e-01
2.535000000000000000e+03 3.022055435180664062e+01 -1.125518703460693359e+01 2.083257913589477539e+00 1.102341890335083008e+00 9.556799530982971191e-01 -1.614554166793823242e+00
2.536000000000000000e+03 3.555561447143554688e+01 -7.876111507415771484e+00 2.594130039215087891e+00 5.431874752044677734e+00 2.407801389694213867e+00 -2.171186655759811401e-01
2.537000000000000000e+03 3.398920440673828125e+01 -9.413262367248535156e+00 2.621783256530761719e+00 3.968262910842895508e+00 1.977013826370239258e+00 -1.022790431976318359e+00
2.538000000000000000e+03 6.731159973144531250e+01 1.620716094970703125e+01 5.269066691398620605e-01 4.805404663085937500e+00 1.599693298339843750e+00 -6.527146100997924805e-01
2.539000000000000000e+03 5.978670501708984375e+01 6.101708412170410156e+00 -9.035333991050720215e-02 1.788349509239196777e+00 5.093988180160522461e-01 -9.837198853492736816e-01
2.540000000000000000e+03 6.274807739257812500e+01 5.545875072479248047e+00 -3.550903499126434326e-01 2.939558744430541992e+00 7.753405570983886719e-01 -1.338386535644531250e+00
2.541000000000000000e+03 5.948180198669433594e+00 2.291016769409179688e+01 3.400493860244750977e-01 2.861641883850097656e+00 9.605073928833007812e-01 -1.204337000846862793e+00
2.542000000000000000e+03 6.842835235595703125e+01 1.319162607192993164e+00 -1.022088885307312012e+00 5.954989910125732422e+00 1.479870319366455078e+00 -9.417424798011779785e-01
2.543000000000000000e+03 1.064577293395996094e+01 1.020629882812500000e+01 -1.841149106621742249e-02 4.965801715850830078e+00 1.484217047691345215e+00 -8.308817744255065918e-01
2.544000000000000000e+03 6.948340606689453125e+01 1.005903434753417969e+01 4.187431186437606812e-02 5.469090938568115234e+00 1.653289556503295898e+00 -9.994240403175354004e-01
2.545000000000000000e+03 6.567101287841796875e+01 2.756434059143066406e+01 3.509780764579772949e-01 5.007472515106201172e+00 1.607535243034362793e+00 9.665305167436599731e-02
2.546000000000000000e+03 6.858400726318359375e+01 2.447046279907226562e+01 3.697593510150909424e-01 5.287831306457519531e+00 1.697277188301086426e+00 -1.416778266429901123e-01
2.547000000000000000e+03 7.032241821289062500e+01 -4.877985715866088867e-01 -9.226022362709045410e-01 6.956302642822265625e+00 1.810110211372375488e+00 -4.724221825599670410e-01
2.548000000000000000e+03 6.335770797729492188e+01 7.303753852844238281e+00 -5.922119133174419403e-03 3.375798940658569336e+00 1.010963082313537598e+00 -1.251241922378540039e+00
2.549000000000000000e+03 9.491271018981933594e+00 1.197551345825195312e+01 2.282264977693557739e-01 4.335329055786132812e+00 1.369066715240478516e+00 -6.203801631927490234e-01
2.550000000000000000e+03 4.943164825439453125e+01 1.394157218933105469e+01 1.833145737648010254e+00 3.351389408111572266e+00 1.555360555648803711e+00 1.714537024497985840e+00
2.551000000000000000e+03 5.233291244506835938e+01 9.393831253051757812e+00 1.436313867568969727e+00 1.548534631729125977e+00 8.954545259475708008e-01 7.613533735275268555e-01
2.552000000000000000e+03 5.877492141723632812e+01 8.482065200805664062e+00 6.038135886192321777e-01 1.921539902687072754e+00 7.576060295104980469e-01 -6.844276785850524902e-01
2.553000000000000000e+03 2.345404624938964844e+01 -1.007974624633789062e+01 1.252407550811767578e+00 7.815126776695251465e-01 6.101760864257812500e-01 -1.333149075508117676e+00
2.554000000000000000e+03 9.362128257751464844e+00 2.657104873657226562e+01 1.815305799245834351e-01 4.439459800720214844e+00 1.386297106742858887e+00 -1.449154019355773926e+00
2.555000000000000000e+03 5.126390075683593750e+01 9.020388603210449219e+00 1.477753520011901855e+00 1.639726877212524414e+00 9.352441430091857910e-01 1.005636334419250488e+00
2.556000000000000000e+03 6.867075347900390625e+01 2.194022750854492188e+01 4.254304170608520508e-01 5.232423782348632812e+00 1.697356224060058594e+00 -2.793491184711456299e-01
2.557000000000000000e+03 7.437046813964843750e+01 -1.945914840698242188e+01 4.950114488601684570e-01 9.686017036437988281e+00 3.054308652877807617e+00 -3.870641291141510010e-01
2.558000000000000000e+03 6.546689605712890625e+01 5.320776939392089844e+00 -4.842675030231475830e-01 4.160039424896240234e+00 1.102731466293334961e+00 -1.375848650932312012e+00
2.559000000000000000e+03 5.176020050048828125e+01 1.646114730834960938e+01 1.633834838867187500e+00 3.260813236236572266e+00 1.468394398689270020e+00 1.276037812232971191e+00
2.560000000000000000e+03 8.974173545837402344e+00 3.845307159423828125e+01 -8.400883674621582031e-01 3.851006507873535156e+00 9.032754898071289062e-01 -5.517483353614807129e-01
2.561000000000000000e+03 5.116508102416992188e+01 1.488421249389648438e+01 1.754509687423706055e+00 3.087859630584716797e+00 1.452710747718811035e+00 1.368134379386901855e+00
2.562000000000000000e+03 7.028745269775390625e+01 1.456525611877441406e+01 2.727446556091308594e-01 5.548404693603515625e+00 1.746344804763793945e+00 -7.734415531158447266e-01
2.563000000000000000e+03 5.305373764038085938e+01 2.365423202514648438e+01 8.510790467262268066e-01 3.896171569824218750e+00 1.424175143241882324e+00 9.720200896263122559e-01
2.564000000000000000e+03 5.103420639038085938e+01 2.218490791320800781e+01 9.610550403594970703e-01 3.979820013046264648e+00 1.482262492179870605e+00 1.156762123107910156e+00
2.565000000000000000e+03 1.031356811523437500e+01 -5.012420654296875000e+00 1.885383009910583496e+00 2.851719617843627930e+00 1.421130776405334473e+00 3.062131881713867188e+00
2.566000000000000000e+03 1.145323371887207031e+01 -3.950582027435302734e+00 2.585390567779541016e+00 4.191839694976806641e+00 2.033169031143188477e+00 3.477319478988647461e+00
2.567000000000000000e+03 1.092343330383300781e+01 -3.836526393890380859e+00 2.768424510955810547e+00 3.209495782852172852e+00 1.793376088142395020e+00 3.311755657196044922e+00
2.568000000000000000e+03 1.041839790344238281e+01 -8.740961074829101562e+00 1.022713333368301392e-01 2.933903694152832031e+00 9.108524918556213379e-01 2.918336629867553711e+00
2.569000000000000000e+03 1.218303108215332031e+01 -4.997019767761230469e+00 1.530320525169372559e+00 5.018991470336914062e+00 1.964793562889099121e+00 2.774784088134765625e+00
2.570000000000000000e+03 1.306616115570068359e+01 4.305222511291503906e+00 -6.267191171646118164e-01 7.565628528594970703e+00 2.081672906875610352e+00 -1.952717304229736328e+00
2.571000000000000000e+03 1.343262577056884766e+01 4.968541145324707031e+00 -8.421571850776672363e-01 7.420323848724365234e+00 1.973449945449829102e+00 -1.627061247825622559e+00
2.572000000000000000e+03 1.251942729949951172e+01 -4.538372039794921875e+00 1.662565588951110840e+00 5.805617332458496094e+00 2.240454912185668945e+00 2.674930334091186523e+00
2.573000000000000000e+03 1.355074882507324219e+01 -5.066752433776855469e+00 1.333573698997497559e+00 6.142830848693847656e+00 2.242921352386474609e+00 1.460635542869567871e+00
2.574000000000000000e+03 9.974823951721191406e+00 5.249460697174072266e+00 2.760821580886840820e-01 3.597636938095092773e+00 1.162115693092346191e+00 -1.639155745506286621e+00
2.575000000000000000e+03 1.238253021240234375e+01 7.606772899627685547e+00 -5.385537743568420410e-01 6.073959350585937500e+00 1.660621643066406250e+00 -1.254561543464660645e+00
2.576000000000000000e+03 1.143380641937255859e+01 8.567653656005859375e+00 -2.835440337657928467e-01 5.410887241363525391e+00 1.538203001022338867e+00 -1.097182035446166992e+00
2.577000000000000000e+03 1.315678310394287109e+01 6.368531227111816406e+00 -7.739068269729614258e-01 6.704588890075683594e+00 1.779204607009887695e+00 -1.392424583435058594e+00
2.578000000000000000e+03 1.146438694000244141e+01 4.630378723144531250e+00 -5.536308139562606812e-02 5.260555744171142578e+00 1.561557769775390625e+00 -2.222267866134643555e+00
2.579000000000000000e+03 1.199556922912597656e+01 4.590847015380859375e+00 -2.402012497186660767e-01 6.012918472290039062e+00 1.731815099716186523e+00 -2.240092039108276367e+00
2.580000000000000000e+03 7.518767356872558594e+00 -8.589718818664550781e+00 4.934220761060714722e-02 2.537631034851074219e+00 7.760919928550720215e-01 2.464401721954345703e+00
2.581000000000000000e+03 8.012898445129394531e+00 -8.981101036071777344e+00 -4.385783150792121887e-02 2.676391124725341797e+00 7.897599935531616211e-01 2.646861314773559570e+00
2.582000000000000000e+03 1.098597145080566406e+01 4.509502410888671875e+00 1.710732132196426392e-01 4.554455757141113281e+00 1.417658686637878418e+00 -2.149014234542846680e+00
2.583000000000000000e+03 7.130782127380371094e+00 -7.389780521392822266e+00 4.974173605442047119e-01 2.046194791793823242e+00 7.630836963653564453e-01 2.272252321243286133e+00
2.584000000000000000e+03 1.047678661346435547e+01 5.511192321777343750e+00 9.334044903516769409e-02 4.238585472106933594e+00 1.299577832221984863e+00 -1.739311337471008301e+00
2.585000000000000000e+03 1.192445278167724609e+01 7.859297752380371094e+00 -4.516619741916656494e-01 5.773291110992431641e+00 1.596488714218139648e+00 -1.227637052536010742e+00
2.586000000000000000e+03 1.133014488220214844e+01 6.101431846618652344e+00 -2.682159245014190674e-01 5.219425678253173828e+00 1.485362887382507324e+00 -1.678523302078247070e+00
2.587000000000000000e+03 7.858871459960937500e+00 -7.863132953643798828e+00 3.817820847034454346e-01 2.337929010391235352e+00 8.159133195877075195e-01 2.554107427597045898e+00
2.588000000000000000e+03 8.897693634033203125e+00 6.384867668151855469e+00 2.604875266551971436e-01 2.996278285980224609e+00 9.770297408103942871e-01 -1.026170492172241211e+00
2.589000000000000000e+03 1.401848411560058594e+01 -4.902038574218750000e+00 1.436142086982727051e+00 6.329230785369873047e+00 2.329611778259277344e+00 9.455301761627197266e-01
2.590000000000000000e+03 8.618420600891113281e+00 7.065175056457519531e+00 2.330734133720397949e-01 2.914607524871826172e+00 9.443042278289794922e-01 -8.875331878662109375e-01
2.591000000000000000e+03 1.581221199035644531e+01 -5.291708946228027344e+00 1.967914342880249023e+00 5.153973579406738281e+00 2.136566400527954102e+00 -7.980981469154357910e-01
2.592000000000000000e+03 1.635494232177734375e+01 -9.775238990783691406e+00 1.956864595413208008e-01 2.174412727355957031e+00 7.110297679901123047e-01 1.635412275791168213e-01
2.593000000000000000e+03 1.719190788269042969e+01 -4.485987186431884766e+00 3.200943946838378906e+00 4.047964572906494141e+00 2.174672603607177734e+00 -1.820805191993713379e+00
2.594000000000000000e+03 1.304162025451660156e+01 4.862491607666015625e+00 -7.217028141021728516e-01 7.197935581207275391e+00 1.942869782447814941e+00 -1.820540666580200195e+00
2.595000000000000000e+03 9.164554595947265625e+00 1.296853256225585938e+01 3.284299969673156738e-01 4.226958751678466797e+00 1.366616606712341309e+00 -5.963525772094726562e-01
2.596000000000000000e+03 8.611908912658691406e+00 1.163859272003173828e+01 2.116889953613281250e-01 3.744891405105590820e+00 1.186974167823791504e+00 -5.644482374191284180e-01
2.597000000000000000e+03 1.999622154235839844e+01 -9.476434707641601562e+00 9.640369415283203125e-01 1.373549699783325195e+00 7.012760043144226074e-01 -1.013761758804321289e+00
2.598000000000000000e+03 1.723635101318359375e+01 -5.441057682037353516e+00 2.482140302658081055e+00 3.719229221343994141e+00 1.860410928726196289e+00 -1.383122920989990234e+00
2.599000000000000000e+03 2.061457824707031250e+01 -7.796509265899658203e+00 2.022850990295410156e+00 1.523319959640502930e+00 1.063851237297058105e+00 -1.462142467498779297e+00
2.600000000000000000e+03 1.300307369232177734e+01 -1.095255088806152344e+01 -4.907506704330444336e-01 2.062597274780273438e+00 4.715539813041687012e-01 2.156755685806274414e+00
2.601000000000000000e+03 1.288944625854492188e+01 -1.015753841400146484e+01 -2.152092456817626953e-01 2.463134527206420898e+00 6.743776202201843262e-01 2.155850887298583984e+00
2.602000000000000000e+03 1.217181587219238281e+01 -9.526618957519531250e+00 -6.581742316484451294e-02 2.789923667907714844e+00 8.172318935394287109e-01 2.448756456375122070e+00
2.603000000000000000e+03 1.906106567382812500e+01 -1.004557418823242188e+01 4.678784012794494629e-01 1.604544401168823242e+00 6.217268705368041992e-01 -7.856501340866088867e-01
2.604000000000000000e+03 1.701426315307617188e+01 -6.304121017456054688e+00 1.872217178344726562e+00 3.621328592300415039e+00 1.648063778877258301e+00 -1.030069589614868164e+00
2.605000000000000000e+03 8.949525833129882812e+00 -6.332380771636962891e+00 1.160987019538879395e+00 2.229719400405883789e+00 1.017211914062500000e+00 2.741248130798339844e+00
2.606000000000000000e+03 8.965106964111328125e+00 -9.112357139587402344e+00 -5.363620817661285400e-02 2.787789583206176758e+00 8.202459812164306641e-01 2.921938419342041016e+00
2.607000000000000000e+03 8.796841621398925781e+00 9.213250160217285156e+00 9.723334014415740967e-02 3.555074453353881836e+00 1.095692276954650879e+00 -6.931900382041931152e-01
2.608000000000000000e+03 3.292637252807617188e+01 -1.015189361572265625e+01 2.360029935836791992e+00 2.896543741226196289e+00 1.576972126960754395e+00 -1.381146311759948730e+00
2.609000000000000000e+03 3.371962356567382812e+01 -7.422352790832519531e+00 2.939433574676513672e+00 2.994487047195434570e+00 1.780176162719726562e+00 -8.720915913581848145e-01
2.610000000000000000e+03 1.572152423858642578e+01 -1.048184013366699219e+01 -1.920089274644851685e-01 1.843187689781188965e+00 4.953536093235015869e-01 5.655224919319152832e-01
2.611000000000000000e+03 1.523758983612060547e+01 -9.928956031799316406e+00 4.721516370773315430e-02 2.214472055435180664e+00 6.785061359405517578e-01 8.350413441658020020e-01
2.612000000000000000e+03 6.600180053710937500e+01 7.199147224426269531e+00 -1.788398325443267822e-01 4.358242034912109375e+00 1.253820657730102539e+00 -1.282680749893188477e+00
2.613000000000000000e+03 6.811987304687500000e+01 9.151818275451660156e+00 3.180186031386256218e-03 5.085204124450683594e+00 1.526515245437622070e+00 -1.105714440345764160e+00
2.614000000000000000e+03 1.954253005981445312e+01 -4.381002426147460938e+00 3.751785755157470703e+00 2.180212497711181641e+00 1.779599547386169434e+00 -2.046453952789306641e+00
2.615000000000000000e+03 2.046793556213378906e+01 -6.001493930816650391e+00 3.018419742584228516e+00 1.640125989913940430e+00 1.397563695907592773e+00 -1.760365009307861328e+00
2.616000000000000000e+03 5.689890670776367188e+01 1.055948543548583984e+01 1.157261967658996582e+00 1.924017906188964844e+00 9.243839979171752930e-01 -1.533466279506683350e-01
2.617000000000000000e+03 6.759745025634765625e+01 1.369859409332275391e+01 4.161916375160217285e-01 4.839923858642578125e+00 1.576834559440612793e+00 -8.274959325790405273e-01
2.618000000000000000e+03 6.755391693115234375e+01 2.076527404785156250e+01 5.148825645446777344e-01 5.000886440277099609e+00 1.654730677604675293e+00 -3.350355327129364014e-01
2.619000000000000000e+03 6.823104095458984375e+01 1.520102405548095703e+01 4.394195377826690674e-01 5.005679607391357422e+00 1.633529782295227051e+00 -7.357444167137145996e-01
2.620000000000000000e+03 9.722019195556640625e+00 1.103810405731201172e+01 1.381448954343795776e-01 4.413004875183105469e+00 1.365345001220703125e+00 -6.667716503143310547e-01
2.621000000000000000e+03 6.735498809814453125e+01 1.189247226715087891e+01 3.055326342582702637e-01 4.770925045013427734e+00 1.522937297821044922e+00 -9.727281332015991211e-01
2.622000000000000000e+03 5.948091125488281250e+01 7.352385044097900391e+00 2.897593379020690918e-01 1.903886914253234863e+00 6.580938696861267090e-01 -8.715653419494628906e-01
2.623000000000000000e+03 2.494371604919433594e+01 -1.011139869689941406e+01 1.475291490554809570e+00 5.663331151008605957e-01 6.124873757362365723e-01 -1.415350198745727539e+00
2.624000000000000000e+03 1.638813209533691406e+01 -7.521531105041503906e+00 1.105629444122314453e+00 3.304698705673217773e+00 1.323098421096801758e+00 -2.954000830650329590e-01
2.625000000000000000e+03 6.957413482666015625e+01 6.295612335205078125e+00 -3.825376927852630615e-01 5.791989326477050781e+00 1.622835516929626465e+00 -1.045172095298767090e+00
2.626000000000000000e+03 6.776345062255859375e+01 3.616156101226806641e+00 -7.951351404190063477e-01 5.384263515472412109e+00 1.376738548278808594e+00 -1.162248373031616211e+00
2.627000000000000000e+03 5.375725936889648438e+01 8.414948463439941406e+00 9.585998058319091797e-01 1.212093353271484375e+00 6.512079238891601562e-01 2.588059902191162109e-01
2.628000000000000000e+03 5.193172836303710938e+01 1.077188205718994141e+01 1.683513998985290527e+00 1.997042536735534668e+00 1.104166984558105469e+00 1.002487897872924805e+00
2.629000000000000000e+03 2.411397171020507812e+01 -8.461915969848632812e+00 2.135164737701416016e+00 8.098796010017395020e-01 8.835132718086242676e-01 -1.610414147377014160e+00
2.630000000000000000e+03 5.592081069946289062e+01 9.411163330078125000e+00 1.060446500778198242e+00 1.571349740028381348e+00 7.895388603210449219e-01 -6.877749413251876831e-02
2.631000000000000000e+03 5.482211685180664062e+01 9.930743217468261719e+00 1.268506765365600586e+00 1.640374064445495605e+00 8.726642727851867676e-01 1.916920095682144165e-01
2.632000000000000000e+03 5.232212448120117188e+01 1.800984573364257812e+01 1.479007482528686523e+00 3.381339788436889648e+00 1.458104133605957031e+00 1.160045742988586426e+00
2.633000000000000000e+03 9.030188560485839844e+00 1.010818386077880859e+01 1.063306331634521484e-01 3.894189596176147461e+00 1.200156092643737793e+00 -6.554977893829345703e-01
2.634000000000000000e+03 6.723509979248046875e+01 4.866145610809326172e+00 -6.045902371406555176e-01 5.042604446411132812e+00 1.331404328346252441e+00 -1.252244114875793457e+00
2.635000000000000000e+03 6.487858581542968750e+01 6.507643222808837891e+00 -2.505520880222320557e-01 3.898912906646728516e+00 1.094508290290832520e+00 -1.332478046417236328e+00
2.636000000000000000e+03 5.070240783691406250e+01 1.019971561431884766e+01 1.701791405677795410e+00 2.038923978805541992e+00 1.122214555740356445e+00 1.246170282363891602e+00
2.637000000000000000e+03 5.155342483520507812e+01 1.884232902526855469e+01 1.381504058837890625e+00 3.637354850769042969e+00 1.505657672882080078e+00 1.277208685874938965e+00
2.638000000000000000e+03 5.361234664916992188e+01 2.507089424133300781e+01 7.100033760070800781e-01 3.961099624633789062e+00 1.401330947875976562e+00 9.193390011787414551e-01
2.639000000000000000e+03 5.212617874145507812e+01 2.953855895996093750e+01 9.318738430738449097e-02 4.125545978546142578e+00 1.265619993209838867e+00 8.505979776382446289e-01
2.640000000000000000e+03 4.643130874633789062e+01 -3.168512916564941406e+01 -1.524063944816589355e-01 2.784791469573974609e+00 7.897155284881591797e-01 -1.329318523406982422e+00
2.641000000000000000e+03 6.893391418457031250e+01 7.709493160247802734e+00 -1.944230347871780396e-01 5.445437908172607422e+00 1.575304508209228516e+00 -1.088782072067260742e+00
2.642000000000000000e+03 6.375613021850585938e+01 6.086461544036865234e+00 -2.681369185447692871e-01 3.473390817642211914e+00 9.615761637687683105e-01 -1.357494235038757324e+00
2.643000000000000000e+03 6.705134582519531250e+01 8.062642097473144531e+00 -9.426352381706237793e-02 4.714163780212402344e+00 1.385969996452331543e+00 -1.198818206787109375e+00
2.644000000000000000e+03 7.027550506591796875e+01 4.896287918090820312e+00 -5.255059003829956055e-01 6.179681777954101562e+00 1.696252703666687012e+00 -9.210517406463623047e-01
2.645000000000000000e+03 4.914563751220703125e+01 -3.178125762939453125e+01 -1.911184340715408325e-01 1.917690277099609375e+00 5.179715752601623535e-01 -9.005149006843566895e-01
2.646000000000000000e+03 5.814514923095703125e+01 -4.106815338134765625e+01 5.366167426109313965e-01 3.672576248645782471e-01 2.711623013019561768e-01 -1.149994954466819763e-01
2.647000000000000000e+03 3.709994506835937500e+01 -4.100120544433593750e+01 -1.872337818145751953e+00 4.715085506439208984e+00 8.528243899345397949e-01 1.148917619138956070e-02
2.648000000000000000e+03 1.991018867492675781e+01 -3.984877777099609375e+01 -9.234898537397384644e-02 -4.596555829048156738e-01 -1.656013727188110352e-01 1.792472749948501587e-01
2.649000000000000000e+03 4.897175598144531250e+01 -3.045388603210449219e+01 1.939094997942447662e-02 1.615895628929138184e+00 4.905859827995300293e-01 -9.238920807838439941e-01
2.650000000000000000e+03 1.174875736236572266e+01 -4.169816970825195312e+00 2.232460260391235352e+00 4.807377338409423828e+00 2.111951351165771484e+00 3.348185777664184570e+00
2.651000000000000000e+03 1.125369453430175781e+01 5.235612869262695312e+00 -1.131942048668861389e-01 5.101312160491943359e+00 1.496435284614562988e+00 -1.961850762367248535e+00
2.652000000000000000e+03 9.525937080383300781e+00 6.716393947601318359e+00 1.247675046324729919e-01 3.669985294342041016e+00 1.138425827026367188e+00 -1.198744177818298340e+00
2.653000000000000000e+03 1.283188247680664062e+01 7.267354965209960938e+00 -6.695052981376647949e-01 6.394573688507080078e+00 1.717520594596862793e+00 -1.282405257225036621e+00
2.654000000000000000e+03 1.064799594879150391e+01 6.713881969451904297e+00 -1.238008365035057068e-01 4.675591945648193359e+00 1.365537285804748535e+00 -1.455806136131286621e+00
2.655000000000000000e+03 1.159690666198730469e+01 -5.106214046478271484e+00 1.639498472213745117e+00 4.306441783905029297e+00 1.783782124519348145e+00 3.050996780395507812e+00
2.656000000000000000e+03 9.449256896972656250e+00 -4.602311611175537109e+00 2.098517417907714844e+00 1.896187424659729004e+00 1.198411464691162109e+00 2.708277940750122070e+00
2.657000000000000000e+03 8.207464218139648438e+00 -7.063078880310058594e+00 7.148699760437011719e-01 2.182196617126464844e+00 8.691199421882629395e-01 2.574942827224731445e+00
2.658000000000000000e+03 1.022622489929199219e+01 -6.240723609924316406e+00 1.211706280708312988e+00 2.933263301849365234e+00 1.243490815162658691e+00 2.981888532638549805e+00
2.659000000000000000e+03 1.302310943603515625e+01 5.913060188293457031e+00 -7.450051307678222656e-01 6.776759624481201172e+00 1.809526324272155762e+00 -1.524271249771118164e+00
2.660000000000000000e+03 1.043297195434570312e+01 -4.508800983428955078e+00 2.260943651199340820e+00 2.808466196060180664e+00 1.520823001861572266e+00 3.090268611907958984e+00
2.661000000000000000e+03 1.473274326324462891e+01 -5.942301750183105469e+00 1.238345980644226074e+00 5.150941371917724609e+00 1.916786193847656250e+00 4.375708401203155518e-01
2.662000000000000000e+03 8.499680519104003906e+00 -8.415662765502929688e+00 1.656925678253173828e-01 2.663803815841674805e+00 8.488488793373107910e-01 2.778771162033081055e+00
2.663000000000000000e+03 9.717283248901367188e+00 5.914752006530761719e+00 1.880825459957122803e-01 3.601517438888549805e+00 1.136880040168762207e+00 -1.425670146942138672e+00
2.664000000000000000e+03 1.024222469329833984e+01 6.101519584655761719e+00 4.853633418679237366e-02 4.118866920471191406e+00 1.250220894813537598e+00 -1.521475076675415039e+00
2.665000000000000000e+03 1.273055744171142578e+01 6.234596252441406250e+00 -6.932904720306396484e-01 6.484979629516601562e+00 1.737506747245788574e+00 -1.510286808013916016e+00
2.666000000000000000e+03 1.213246536254882812e+01 5.221007347106933594e+00 -4.474575519561767578e-01 6.113306999206542969e+00 1.699754834175109863e+00 -1.982937455177307129e+00
2.667000000000000000e+03 1.063312435150146484e+01 9.285640716552734375e+00 -1.010460034012794495e-01 4.913520812988281250e+00 1.443742394447326660e+00 -9.358436465263366699e-01
2.668000000000000000e+03 1.466045856475830078e+01 -5.385180950164794922e+00 1.433383584022521973e+00 5.707215785980224609e+00 2.142179965972900391e+00 3.670154511928558350e-01
2.669000000000000000e+03 1.424927520751953125e+01 -7.491514205932617188e+00 6.022106409072875977e-01 3.963759660720825195e+00 1.369791150093078613e+00 1.134281277656555176e+00
2.670000000000000000e+03 1.119661998748779297e+01 -9.455891609191894531e+00 -9.884983301162719727e-02 2.827185869216918945e+00 8.185008168220520020e-01 2.787275791168212891e+00
2.671000000000000000e+03 1.795029258728027344e+01 -4.569983482360839844e+00 3.325704574584960938e+00 3.457752704620361328e+00 2.035037279129028320e+00 -1.873596787452697754e+00
2.672000000000000000e+03 1.581493568420410156e+01 -5.980244636535644531e+00 1.636549472808837891e+00 4.582692623138427734e+00 1.865772604942321777e+00 -4.943080544471740723e-01
2.673000000000000000e+03 1.093601608276367188e+01 5.762177944183349609e+00 -9.894335269927978516e-02 4.791941642761230469e+00 1.407899498939514160e+00 -1.745338916778564453e+00
2.674000000000000000e+03 1.926436614990234375e+01 -9.274512290954589844e+00 9.410575032234191895e-01 1.635373711585998535e+00 7.729293704032897949e-01 -9.094654321670532227e-01
2.675000000000000000e+03 1.357200050354003906e+01 -9.992398262023925781e+00 -1.784187853336334229e-01 2.473338842391967773e+00 6.884760260581970215e-01 1.810865521430969238e+00
2.676000000000000000e+03 1.125398349761962891e+01 -4.906676292419433594e+00 1.858465790748596191e+00 3.953025817871093750e+00 1.743447422981262207e+00 3.153798580169677734e+00
2.677000000000000000e+03 1.863421440124511719e+01 -4.907641410827636719e+00 3.243555784225463867e+00 2.706010341644287109e+00 1.784869790077209473e+00 -1.854048967361450195e+00
2.678000000000000000e+03 9.519009590148925781e+00 -8.630971908569335938e+00 1.108557432889938354e-01 2.831720590591430664e+00 8.827728629112243652e-01 2.946917057037353516e+00
2.679000000000000000e+03 9.936783790588378906e+00 -9.199001312255859375e+00 -4.194211214780807495e-02 2.817683219909667969e+00 8.327223658561706543e-01 2.983312368392944336e+00
2.680000000000000000e+03 1.422833824157714844e+01 -9.747064590454101562e+00 -5.669975187629461288e-03 2.495020627975463867e+00 7.468052506446838379e-01 1.428783774375915527e+00
2.681000000000000000e+03 1.455751037597656250e+01 -1.039764213562011719e+01 -2.344848364591598511e-01 2.080646276473999023e+00 5.538484454154968262e-01 1.284144043922424316e+00
2.682000000000000000e+03 1.857954788208007812e+01 -8.858860015869140625e+00 1.024719834327697754e+00 1.967968702316284180e+00 8.978065252304077148e-01 -8.852522373199462891e-01
2.683000000000000000e+03 2.146908378601074219e+01 -8.545582771301269531e+00 1.734557151794433594e+00 1.256794095039367676e+00 8.974053859710693359e-01 -1.423090219497680664e+00
2.684000000000000000e+03 1.812908172607421875e+01 -8.274403572082519531e+00 1.236400485038757324e+00 2.292445898056030273e+00 1.058653950691223145e+00 -8.910393714904785156e-01
2.685000000000000000e+03 5.624568557739257812e+01 1.534498214721679688e+01 1.508706450462341309e+00 2.734618902206420898e+00 1.272997617721557617e+00 4.083128869533538818e-01
2.686000000000000000e+03 6.907440948486328125e+01 4.169645309448242188e+00 -6.546664237976074219e-01 5.877948284149169922e+00 1.566984534263610840e+00 -1.027174234390258789e+00
2.687000000000000000e+03 6.662634277343750000e+01 6.071085929870605469e+00 -3.849732875823974609e-01 4.644092559814453125e+00 1.277735829353332520e+00 -1.300098419189453125e+00
2.688000000000000000e+03 2.153095054626464844e+01 -7.727415561676025391e+00 2.212846279144287109e+00 1.282866597175598145e+00 1.048713803291320801e+00 -1.519790291786193848e+00
2.689000000000000000e+03 5.965384674072265625e+01 9.400860786437988281e+00 7.008169889450073242e-01 2.249183893203735352e+00 8.850002884864807129e-01 -7.308111786842346191e-01
2.690000000000000000e+03 5.784526443481445312e+01 9.475069046020507812e+00 8.973751068115234375e-01 1.870535373687744141e+00 8.303731083869934082e-01 -4.328308403491973877e-01
2.691000000000000000e+03 5.283545684814453125e+01 1.687468528747558594e+01 1.586706399917602539e+00 3.162633180618286133e+00 1.424801945686340332e+00 1.097965955734252930e+00
2.692000000000000000e+03 2.156045532226562500e+01 -6.817302703857421875e+00 2.728495836257934570e+00 1.256846427917480469e+00 1.195602655410766602e+00 -1.644158244132995605e+00
2.693000000000000000e+03 1.969271469116210938e+01 -7.977993011474609375e+00 1.749863624572753906e+00 1.792874097824096680e+00 1.062821269035339355e+00 -1.288458228111267090e+00
2.694000000000000000e+03 6.632427978515625000e+01 1.720897865295410156e+01 6.323553323745727539e-01 4.601085662841796875e+00 1.570032358169555664e+00 -5.118269920349121094e-01
2.695000000000000000e+03 6.295167922973632812e+01 8.641665458679199219e+00 2.596326768398284912e-01 3.232532262802124023e+00 1.047649502754211426e+00 -1.153899312019348145e+00
2.696000000000000000e+03 5.881369400024414062e+01 1.036790180206298828e+01 9.476867318153381348e-01 2.205479145050048828e+00 9.459497928619384766e-01 -5.042566061019897461e-01
2.697000000000000000e+03 5.147000122070312500e+01 1.361950683593750000e+01 1.840269446372985840e+00 2.724943161010742188e+00 1.369563817977905273e+00 1.284137606620788574e+00
2.698000000000000000e+03 5.036806106567382812e+01 1.351273822784423828e+01 1.854958176612854004e+00 2.965738296508789062e+00 1.446208953857421875e+00 1.511724114418029785e+00
2.699000000000000000e+03 5.258683776855468750e+01 1.976599311828613281e+01 1.287022709846496582e+00 3.603224992752075195e+00 1.467074394226074219e+00 1.125355601310729980e+00
2.700000000000000000e+03 6.183414459228515625e+01 7.972588539123535156e+00 2.460463643074035645e-01 2.757414340972900391e+00 9.010381698608398438e-01 -1.107067584991455078e+00
2.701000000000000000e+03 6.480783843994140625e+01 1.779093360900878906e+01 7.458437085151672363e-01 4.327182292938232422e+00 1.521907806396484375e+00 -4.016073346138000488e-01
2.702000000000000000e+03 5.296842193603515625e+01 2.172587203979492188e+01 1.071446061134338379e+00 3.754718542098999023e+00 1.447849392890930176e+00 1.030785322189331055e+00
2.703000000000000000e+03 5.425852966308593750e+01 1.286917209625244141e+01 1.633290767669677734e+00 2.256108760833740234e+00 1.166819930076599121e+00 5.998153090476989746e-01
2.704000000000000000e+03 5.470043945312500000e+01 1.138106727600097656e+01 1.482774257659912109e+00 1.909636020660400391e+00 1.017723083496093750e+00 3.717131018638610840e-01
2.705000000000000000e+03 5.102085876464843750e+01 -3.567853164672851562e+01 -4.244664907455444336e-01 1.636022329330444336e+00 3.634667396545410156e-01 -7.423175573348999023e-01
2.706000000000000000e+03 6.121997451782226562e+01 2.552171134948730469e+01 5.941556096076965332e-01 4.368399620056152344e+00 1.488766670227050781e+00 3.293889760971069336e-01
2.707000000000000000e+03 6.598707580566406250e+01 1.410413932800292969e+01 5.672144293785095215e-01 4.400825977325439453e+00 1.490412116050720215e+00 -7.856953144073486328e-01
2.708000000000000000e+03 6.431497955322265625e+01 1.441797542572021484e+01 7.415314912796020508e-01 3.956369638442993164e+00 1.409370303153991699e+00 -6.584408879280090332e-01
2.709000000000000000e+03 4.197400665283203125e+01 -3.737067031860351562e+01 -1.442254900932312012e+00 4.541843414306640625e+00 9.298765063285827637e-01 -6.279011368751525879e-01
2.710000000000000000e+03 4.657316970825195312e+01 -3.428018569946289062e+01 -5.865128040313720703e-01 3.014353752136230469e+00 7.283523082733154297e-01 -1.099786520004272461e+00
2.711000000000000000e+03 1.066439914703369141e+01 -5.172748565673828125e+00 1.776978850364685059e+00 3.183575868606567383e+00 1.488166332244873047e+00 3.086282491683959961e+00
2.712000000000000000e+03 9.173857688903808594e+00 -5.350204944610595703e+00 1.659862637519836426e+00 2.017014503479003906e+00 1.103063106536865234e+00 2.719364643096923828e+00
2.713000000000000000e+03 1.006994247436523438e+01 -5.403982162475585938e+00 1.596311807632446289e+00 2.710943698883056641e+00 1.292176604270935059e+00 2.957073450088500977e+00
2.714000000000000000e+03 1.008533382415771484e+01 -8.242147445678710938e+00 3.319158554077148438e-01 2.861595153808593750e+00 9.580533504486083984e-01 2.939412832260131836e+00
2.715000000000000000e+03 1.035603237152099609e+01 7.468624114990234375e+00 -1.054498329758644104e-01 4.418157100677490234e+00 1.293812155723571777e+00 -1.221609354019165039e+00
2.716000000000000000e+03 1.275233840942382812e+01 -5.651092052459716797e+00 1.144442081451416016e+00 5.105640411376953125e+00 1.875024795532226562e+00 2.303746938705444336e+00
2.717000000000000000e+03 1.212538146972656250e+01 -4.323689937591552734e+00 1.934803962707519531e+00 5.473916530609130859e+00 2.222616195678710938e+00 3.054896593093872070e+00
2.718000000000000000e+03 1.247155094146728516e+01 -5.309499263763427734e+00 1.311361312866210938e+00 5.148937225341796875e+00 1.938089609146118164e+00 2.560376644134521484e+00
2.719000000000000000e+03 1.379449844360351562e+01 -6.146983146667480469e+00 9.711579680442810059e-01 5.055626392364501953e+00 1.808035373687744141e+00 1.348532080650329590e+00
2.720000000000000000e+03 9.950966835021972656e+00 -4.505878925323486328e+00 2.255017757415771484e+00 2.256647825241088867e+00 1.353499650955200195e+00 2.934295415878295898e+00
2.721000000000000000e+03 1.014028358459472656e+01 6.814940452575683594e+00 -7.739261724054813385e-03 4.211933135986328125e+00 1.261258125305175781e+00 -1.305935025215148926e+00
2.722000000000000000e+03 9.183809280395507812e+00 7.601451873779296875e+00 9.455309063196182251e-02 3.572681427001953125e+00 1.100170373916625977e+00 -9.625434279441833496e-01
2.723000000000000000e+03 1.243043136596679688e+01 6.656131267547607422e+00 -5.928353071212768555e-01 6.203724384307861328e+00 1.683266639709472656e+00 -1.456301450729370117e+00
2.724000000000000000e+03 9.132075309753417969e+00 -7.945024490356445312e+00 4.161556363105773926e-01 2.626329660415649414e+00 9.127455949783325195e-01 2.859991073608398438e+00
2.725000000000000000e+03 1.080430316925048828e+01 -9.143174171447753906e+00 9.141413494944572449e-03 2.844353199005126953e+00 8.560484051704406738e-01 2.875008344650268555e+00
2.726000000000000000e+03 1.641435813903808594e+01 -6.036502361297607422e+00 1.854547858238220215e+00 4.234022140502929688e+00 1.826570987701416016e+00 -8.584772944450378418e-01
2.727000000000000000e+03 8.944153785705566406e+00 -7.136659622192382812e+00 7.385767698287963867e-01 2.465087652206420898e+00 9.610993266105651855e-01 2.817388772964477539e+00
2.728000000000000000e+03 1.278422927856445312e+01 5.486057758331298828e+00 -7.203099131584167480e-01 6.719720363616943359e+00 1.799823164939880371e+00 -1.710242509841918945e+00
2.729000000000000000e+03 1.524991989135742188e+01 -5.944006443023681641e+00 1.400000810623168945e+00 4.938115596771240234e+00 1.901434898376464844e+00 -1.618645712733268738e-02
2.730000000000000000e+03 1.371576881408691406e+01 -5.597822189331054688e+00 1.132439970970153809e+00 5.595029830932617188e+00 2.018240928649902344e+00 1.365062713623046875e+00
2.731000000000000000e+03 1.425786590576171875e+01 -6.012341022491455078e+00 1.071664571762084961e+00 5.170548915863037109e+00 1.872664093971252441e+00 9.129923582077026367e-01
2.732000000000000000e+03 1.070635318756103516e+01 8.452448844909667969e+00 -1.622512638568878174e-01 4.922624588012695312e+00 1.428112030029296875e+00 -1.036599636077880859e+00
2.733000000000000000e+03 1.276698589324951172e+01 -9.422423362731933594e+00 -6.334954500198364258e-02 2.879879951477050781e+00 8.449591398239135742e-01 2.218714714050292969e+00
2.734000000000000000e+03 1.204283618927001953e+01 6.134045600891113281e+00 -5.058973431587219238e-01 5.950679779052734375e+00 1.633434653282165527e+00 -1.666108369827270508e+00
2.735000000000000000e+03 1.582349109649658203e+01 -9.387328147888183594e+00 2.551840543746948242e-01 2.477381944656372070e+00 8.197698593139648438e-01 4.293376803398132324e-01
2.736000000000000000e+03 1.540242767333984375e+01 -8.901449203491210938e+00 3.416029214859008789e-01 2.742854595184326172e+00 9.253372550010681152e-01 6.248849630355834961e-01
2.737000000000000000e+03 1.123100090026855469e+01 -8.724236488342285156e+00 1.239397749304771423e-01 3.014617681503295898e+00 9.415671825408935547e-01 2.762300491333007812e+00
2.738000000000000000e+03 1.132122135162353516e+01 -5.953852176666259766e+00 1.230639815330505371e+00 3.790059089660644531e+00 1.506209611892700195e+00 2.950240850448608398e+00
2.739000000000000000e+03 1.399253940582275391e+01 -9.133598327636718750e+00 1.048361659049987793e-01 2.932549476623535156e+00 9.112156629562377930e-01 1.507035970687866211e+00
2.740000000000000000e+03 1.338892364501953125e+01 -9.260324478149414062e+00 6.339148432016372681e-02 2.906754255294799805e+00 8.910437226295471191e-01 1.843458294868469238e+00
2.741000000000000000e+03 1.204004478454589844e+01 7.036950588226318359e+00 -5.160307884216308594e-01 5.858272075653076172e+00 1.602672338485717773e+00 -1.408616185188293457e+00
2.742000000000000000e+03 1.087343215942382812e+01 7.768233299255371094e+00 -2.356154620647430420e-01 4.919305801391601562e+00 1.405107021331787109e+00 -1.206028580665588379e+00
2.743000000000000000e+03 1.731834411621093750e+01 -8.646846771240234375e+00 8.287579417228698730e-01 2.496108531951904297e+00 9.974599480628967285e-01 -4.576767683029174805e-01
2.744000000000000000e+03 1.870579528808593750e+01 -7.232771873474121094e+00 1.905628800392150879e+00 2.261231660842895508e+00 1.250058174133300781e+00 -1.264137148857116699e+00
2.745000000000000000e+03 6.569875335693359375e+01 1.233794021606445312e+01 4.692106544971466064e-01 4.250810146331787109e+00 1.416006207466125488e+00 -9.312216639518737793e-01
2.746000000000000000e+03 1.958559417724609375e+01 -7.047999858856201172e+00 2.210575819015502930e+00 2.006105422973632812e+00 1.265004396438598633e+00 -1.501490473747253418e+00
2.747000000000000000e+03 5.380809020996093750e+01 1.427090454101562500e+01 1.691585540771484375e+00 2.562210559844970703e+00 1.276138782501220703e+00 8.066552877426147461e-01
2.748000000000000000e+03 5.295505905151367188e+01 1.249731063842773438e+01 1.715800285339355469e+00 2.234584093093872070e+00 1.185115218162536621e+00 8.672257661819458008e-01
2.749000000000000000e+03 1.807012176513671875e+01 -5.422216415405273438e+00 2.781664133071899414e+00 3.137864828109741211e+00 1.775858640670776367e+00 -1.668912768363952637e+00
2.750000000000000000e+03 1.647275733947753906e+01 -8.964835166931152344e+00 5.613912343978881836e-01 2.485608100891113281e+00 9.140997529029846191e-01 -4.020423162728548050e-03
2.751000000000000000e+03 5.740483093261718750e+01 1.268718338012695312e+01 1.323982119560241699e+00 2.380083799362182617e+00 1.111219763755798340e+00 -3.795967251062393188e-02
2.752000000000000000e+03 5.261758422851562500e+01 1.388223552703857422e+01 1.767302155494689941e+00 2.601447820663452148e+00 1.310624957084655762e+00 1.030590772628784180e+00
2.753000000000000000e+03 6.777363586425781250e+01 6.876764774322509766e+00 -2.874006330966949463e-01 5.081423759460449219e+00 1.438206911087036133e+00 -1.187853813171386719e+00
2.754000000000000000e+03 5.396706771850585938e+01 1.742514610290527344e+01 1.514562487602233887e+00 3.139719247817993164e+00 1.396284580230712891e+00 9.128742814064025879e-01
2.755000000000000000e+03 5.520067596435546875e+01 1.804743766784667969e+01 1.436570644378662109e+00 3.185723543167114258e+00 1.386688232421875000e+00 7.563897371292114258e-01
2.756000000000000000e+03 5.222170257568359375e+01 1.520655822753906250e+01 1.728387117385864258e+00 2.938821792602539062e+00 1.400162696838378906e+00 1.177818417549133301e+00
2.757000000000000000e+03 6.690356445312500000e+01 1.022482681274414062e+01 1.845361739397048950e-01 4.654371261596679688e+00 1.451672315597534180e+00 -1.080820202827453613e+00
2.758000000000000000e+03 6.722145080566406250e+01 2.596674346923828125e+01 3.724739849567413330e-01 5.139235019683837891e+00 1.653512597084045410e+00 -2.885127812623977661e-02
2.759000000000000000e+03 6.450299072265625000e+01 1.611138725280761719e+01 7.715304493904113770e-01 4.131618022918701172e+00 1.470944523811340332e+00 -5.414965152740478516e-01
2.760000000000000000e+03 6.108072662353515625e+01 9.639354705810546875e+00 6.457757949829101562e-01 2.670663118362426758e+00 9.949316978454589844e-01 -8.760753870010375977e-01
2.761000000000000000e+03 6.605303192138671875e+01 1.577263927459716797e+01 6.273999214172363281e-01 4.485663414001464844e+00 1.533918976783752441e+00 -6.295318603515625000e-01
2.762000000000000000e+03 6.842605590820312500e+01 5.570321559906005859e+00 -4.792160987854003906e-01 5.438827037811279297e+00 1.487883329391479492e+00 -1.139935493469238281e+00
2.763000000000000000e+03 5.285953140258789062e+01 -3.420825195312500000e+01 -4.949597716331481934e-01 1.002541780471801758e+00 1.522745937108993530e-01 -6.139878034591674805e-01
2.764000000000000000e+03 6.405484008789062500e+01 1.264875507354736328e+01 6.589009761810302734e-01 3.784708023071289062e+00 1.333082675933837891e+00 -8.222345113754272461e-01
2.765000000000000000e+03 5.700965499877929688e+01 2.807953834533691406e+01 3.956162631511688232e-01 4.228147983551025391e+00 1.387129306793212891e+00 6.567727923393249512e-01
2.766000000000000000e+03 5.603471755981445312e+01 3.428551483154296875e+01 -2.328370809555053711e-01 4.502109050750732422e+00 1.280781626701354980e+00 5.101339221000671387e-01
2.767000000000000000e+03 6.059836959838867188e+01 8.831823348999023438e+00 5.127214789390563965e-01 2.436451196670532227e+00 8.847517967224121094e-01 -9.024201631546020508e-01
2.768000000000000000e+03 6.042988967895507812e+01 1.030263042449951172e+01 7.685521841049194336e-01 2.631253242492675781e+00 1.019941687583923340e+00 -7.411192655563354492e-01
2.769000000000000000e+03 5.450094604492187500e+01 1.611540794372558594e+01 1.591525912284851074e+00 2.885296106338500977e+00 1.343046665191650391e+00 7.826126217842102051e-01
2.770000000000000000e+03 5.382416152954101562e+01 2.063561820983886719e+01 1.213691234588623047e+00 3.589197874069213867e+00 1.440866708755493164e+00 9.731699824333190918e-01
2.771000000000000000e+03 6.631598663330078125e+01 2.197334480285644531e+01 5.725136995315551758e-01 4.808972835540771484e+00 1.614445924758911133e+00 -1.845051199197769165e-01
2.772000000000000000e+03 6.540766906738281250e+01 2.075094223022460938e+01 6.590902209281921387e-01 4.602343082427978516e+00 1.578429937362670898e+00 -2.089415639638900757e-01
2.773000000000000000e+03 6.482449340820312500e+01 2.313919067382812500e+01 6.038572192192077637e-01 4.650137901306152344e+00 1.576198458671569824e+00 -3.370172157883644104e-02
2.774000000000000000e+03 6.341143035888671875e+01 3.309428405761718750e+01 7.540670782327651978e-02 5.036097049713134766e+00 1.533451080322265625e+00 2.434614300727844238e-01
2.775000000000000000e+03 1.040793323516845703e+01 -5.671288967132568359e+00 1.471862673759460449e+00 2.997684955596923828e+00 1.340864300727844238e+00 3.031181812286376953e+00
2.776000000000000000e+03 9.610409736633300781e+00 -5.587184906005859375e+00 1.532895326614379883e+00 2.403247117996215820e+00 1.180842757225036621e+00 2.855459213256835938e+00
2.777000000000000000e+03 9.598195075988769531e+00 -6.240319252014160156e+00 1.193634510040283203e+00 2.564436197280883789e+00 1.127421259880065918e+00 2.895454645156860352e+00
2.778000000000000000e+03 1.148460388183593750e+01 -7.472293853759765625e+00 5.869916081428527832e-01 3.435114145278930664e+00 1.206631660461425781e+00 2.762496948242187500e+00
2.779000000000000000e+03 9.820623397827148438e+00 -7.657702922821044922e+00 5.496546030044555664e-01 2.822261095046997070e+00 1.011574745178222656e+00 2.943584203720092773e+00
2.780000000000000000e+03 1.101439476013183594e+01 6.500729560852050781e+00 -1.905585229396820068e-01 4.980511188507080078e+00 1.436985850334167480e+00 -1.558205127716064453e+00
2.781000000000000000e+03 1.332567405700683594e+01 -5.731329441070556641e+00 1.089526176452636719e+00 5.389280796051025391e+00 1.943642139434814453e+00 1.704649090766906738e+00
2.782000000000000000e+03 1.642081451416015625e+01 -6.697760105133056641e+00 1.486640930175781250e+00 3.688327074050903320e+00 1.552490472793579102e+00 -5.662653446197509766e-01
2.783000000000000000e+03 1.203251838684082031e+01 -8.861546516418457031e+00 9.240996092557907104e-02 3.101275920867919922e+00 9.581058025360107422e-01 2.501318454742431641e+00
2.784000000000000000e+03 1.241514301300048828e+01 -6.043401241302490234e+00 1.010066390037536621e+00 4.632609367370605469e+00 1.692802667617797852e+00 2.477093696594238281e+00
2.785000000000000000e+03 1.493557071685791016e+01 -8.488533973693847656e+00 4.232409298419952393e-01 3.135434627532958984e+00 1.067602753639221191e+00 8.391638994216918945e-01
2.786000000000000000e+03 1.271420192718505859e+01 -8.099419593811035156e+00 3.621642887592315674e-01 3.531729459762573242e+00 1.168168067932128906e+00 2.192987680435180664e+00
2.787000000000000000e+03 1.260816097259521484e+01 -8.726945877075195312e+00 1.716175675392150879e-01 3.178044557571411133e+00 1.004898667335510254e+00 2.263874769210815430e+00
2.788000000000000000e+03 1.449867820739746094e+01 -8.923498153686523438e+00 2.275659441947937012e-01 2.928885936737060547e+00 9.469355940818786621e-01 1.168653726577758789e+00
2.789000000000000000e+03 1.577074718475341797e+01 -6.651127815246582031e+00 1.267264246940612793e+00 4.080717086791992188e+00 1.604394435882568359e+00 -1.266663372516632080e-01
2.790000000000000000e+03 5.554398727416992188e+01 1.337882518768310547e+01 1.557324409484863281e+00 2.348290443420410156e+00 1.171684503555297852e+00 3.956458568572998047e-01
2.791000000000000000e+03 5.570495986938476562e+01 1.666862297058105469e+01 1.485551238059997559e+00 2.976377248764038086e+00 1.338578581809997559e+00 5.905376672744750977e-01
2.792000000000000000e+03 5.959991073608398438e+01 1.701313400268554688e+01 1.210077643394470215e+00 3.290036916732788086e+00 1.350034356117248535e+00 3.021251037716865540e-02
2.793000000000000000e+03 1.943300819396972656e+01 -6.107394695281982422e+00 2.762536525726318359e+00 2.174450159072875977e+00 1.481096029281616211e+00 -1.718549966812133789e+00
2.794000000000000000e+03 1.758760452270507812e+01 -6.832027435302734375e+00 1.843150138854980469e+00 3.070695638656616211e+00 1.474153757095336914e+00 -1.044619202613830566e+00
2.795000000000000000e+03 5.611050415039062500e+01 1.191147041320800781e+01 1.397167801856994629e+00 2.064925670623779297e+00 1.038628101348876953e+00 1.255387961864471436e-01
2.796000000000000000e+03 5.806108856201171875e+01 1.144440364837646484e+01 1.154800653457641602e+00 2.260273456573486328e+00 1.024522185325622559e+00 -2.698384821414947510e-01
2.797000000000000000e+03 6.622673034667968750e+01 8.979118347167968750e+00 6.788146495819091797e-02 4.439297199249267578e+00 1.352153539657592773e+00 -1.180374503135681152e+00
2.798000000000000000e+03 6.181088638305664062e+01 1.026002216339111328e+01 6.688511967658996582e-01 2.880503892898559570e+00 1.064806461334228516e+00 -8.761808872222900391e-01
2.799000000000000000e+03 5.459150695800781250e+01 1.940130615234375000e+01 1.332482814788818359e+00 3.391055345535278320e+00 1.417061448097229004e+00 8.709046244621276855e-01
2.800000000000000000e+03 6.152703094482421875e+01 8.964018821716308594e+00 4.429672658443450928e-01 2.733031034469604492e+00 9.527994990348815918e-01 -1.007087588310241699e+00
2.801000000000000000e+03 6.034093475341796875e+01 1.276420593261718750e+01 1.033769369125366211e+00 2.886466026306152344e+00 1.176070570945739746e+00 -4.741612970829010010e-01
2.802000000000000000e+03 5.919455718994140625e+01 1.217255592346191406e+01 1.112088680267333984e+00 2.564812183380126953e+00 1.103070259094238281e+00 -3.814105093479156494e-01
2.803000000000000000e+03 5.979209518432617188e+01 1.116017723083496094e+01 9.458833932876586914e-01 2.541005134582519531e+00 1.046066522598266602e+00 -5.667222738265991211e-01
2.804000000000000000e+03 6.409030151367187500e+01 9.187880516052246094e+00 2.585102617740631104e-01 3.653319835662841797e+00 1.173549056053161621e+00 -1.131394624710083008e+00
2.805000000000000000e+03 6.738381195068359375e+01 2.324213981628417969e+01 4.654436707496643066e-01 5.051361560821533203e+00 1.655041575431823730e+00 -1.683629155158996582e-01
2.806000000000000000e+03 6.339194488525390625e+01 1.994830131530761719e+01 8.266994953155517578e-01 4.190636634826660156e+00 1.505200743675231934e+00 -1.423927545547485352e-01
2.807000000000000000e+03 5.919207382202148438e+01 2.681653594970703125e+01 5.233528017997741699e-01 4.294821739196777344e+00 1.445452332496643066e+00 4.943575561046600342e-01
2.808000000000000000e+03 5.520247650146484375e+01 2.164506149291992188e+01 1.103175401687622070e+00 3.635758399963378906e+00 1.421680092811584473e+00 8.145819902420043945e-01
2.809000000000000000e+03 6.544068145751953125e+01 8.236586570739746094e+00 -1.737965649226680398e-04 4.108000755310058594e+00 1.232348084449768066e+00 -1.233565330505371094e+00
2.810000000000000000e+03 5.037056350708007812e+01 -3.783050537109375000e+01 -4.098745584487915039e-01 1.824129462242126465e+00 4.242764711380004883e-01 -6.550661921501159668e-01
2.811000000000000000e+03 6.195763397216796875e+01 1.176101016998291016e+01 7.963405251502990723e-01 3.156677722930908203e+00 1.185905456542968750e+00 -7.580088376998901367e-01
2.812000000000000000e+03 4.891278457641601562e+01 3.524233245849609375e+01 -7.869235277175903320e-01 3.923780918121337891e+00 9.410572648048400879e-01 5.503304600715637207e-01
2.813000000000000000e+03 5.810599899291992188e+01 2.463086891174316406e+01 7.541292309761047363e-01 4.018544673919677734e+00 1.431802153587341309e+00 5.635122060775756836e-01
2.814000000000000000e+03 5.247350311279296875e+01 3.504027557373046875e+01 -5.058753490447998047e-01 4.275671005249023438e+00 1.130938649177551270e+00 5.672010779380798340e-01
2.815000000000000000e+03 5.524065780639648438e+01 3.153510665893554688e+01 -2.095380425453186035e-02 4.333831310272216797e+00 1.293863296508789062e+00 6.634122133255004883e-01
2.816000000000000000e+03 5.412239837646484375e+01 2.687797546386718750e+01 4.833914637565612793e-01 4.063287734985351562e+00 1.364003777503967285e+00 8.583657741546630859e-01
2.817000000000000000e+03 6.171980667114257812e+01 3.109932899475097656e+01 1.671323031187057495e-01 4.786680221557617188e+00 1.486143827438354492e+00 3.432393968105316162e-01
2.818000000000000000e+03 6.933699798583984375e+01 3.415772628784179688e+01 3.984418138861656189e-02 5.609854698181152344e+00 1.694909691810607910e+00 8.150947093963623047e-02
2.819000000000000000e+03 1.208735084533691406e+01 -5.722184181213378906e+00 1.217826724052429199e+00 4.527010440826416016e+00 1.723451137542724609e+00 2.700886487960815430e+00
2.820000000000000000e+03 1.086675167083740234e+01 -5.813886165618896484e+00 1.347055315971374512e+00 3.394059181213378906e+00 1.422334313392639160e+00 3.016156196594238281e+00
2.821000000000000000e+03 1.336114025115966797e+01 -6.176186084747314453e+00 9.184864759445190430e-01 4.962541103363037109e+00 1.764308333396911621e+00 1.700198888778686523e+00
2.822000000000000000e+03 1.275927448272705078e+01 -6.357149600982666016e+00 8.850679993629455566e-01 4.621628761291503906e+00 1.652009010314941406e+00 2.234225988388061523e+00
2.823000000000000000e+03 1.103175163269042969e+01 -7.100832462310791016e+00 7.353399991989135742e-01 3.356074810028076172e+00 1.227424502372741699e+00 2.871833562850952148e+00
2.824000000000000000e+03 1.435042953491210938e+01 -6.476916313171386719e+00 9.568390846252441406e-01 4.801523685455322266e+00 1.727508783340454102e+00 9.258407354354858398e-01
2.825000000000000000e+03 1.502519130706787109e+01 -7.104988574981689453e+00 8.756629824638366699e-01 4.097354888916015625e+00 1.491905331611633301e+00 5.278236865997314453e-01
2.826000000000000000e+03 1.597709274291992188e+01 -8.322438240051269531e+00 7.027106881141662598e-01 2.959991931915283203e+00 1.098810791969299316e+00 1.251768171787261963e-01
2.827000000000000000e+03 1.719642448425292969e+01 -7.655140876770019531e+00 1.229869723320007324e+00 3.002492666244506836e+00 1.269708752632141113e+00 -6.395913362503051758e-01
2.828000000000000000e+03 1.246586799621582031e+01 -6.752292633056640625e+00 7.789906859397888184e-01 4.276395797729492188e+00 1.516615867614746094e+00 2.361180543899536133e+00
2.829000000000000000e+03 1.483771705627441406e+01 -9.389081001281738281e+00 1.339258402585983276e-01 2.637001037597656250e+00 8.312780261039733887e-01 1.003179788589477539e+00
2.830000000000000000e+03 1.366518688201904297e+01 -8.271710395812988281e+00 3.311437666416168213e-01 3.484401226043701172e+00 1.144663572311401367e+00 1.640591025352478027e+00
2.831000000000000000e+03 9.651254653930664062e+00 -6.988095760345458984e+00 8.368443846702575684e-01 2.701674461364746094e+00 1.061555624008178711e+00 2.910509109497070312e+00
2.832000000000000000e+03 1.065767765045166016e+01 -7.941774845123291016e+00 4.491083025932312012e-01 3.080110073089599609e+00 1.058765530586242676e+00 2.905945777893066406e+00
2.833000000000000000e+03 1.119567871093750000e+01 -7.967410564422607422e+00 4.347137212753295898e-01 3.243423938751220703e+00 1.103441357612609863e+00 2.770478010177612305e+00
2.834000000000000000e+03 1.168740940093994141e+01 -8.324060440063476562e+00 2.989501655101776123e-01 3.233161926269531250e+00 1.059633612632751465e+00 2.631825685501098633e+00
2.835000000000000000e+03 5.690670394897460938e+01 1.718121528625488281e+01 1.407528638839721680e+00 3.075138807296752930e+00 1.344800233840942383e+00 4.474210739135742188e-01
2.836000000000000000e+03 6.308949279785156250e+01 1.823671913146972656e+01 8.895628452301025391e-01 4.002425193786621094e+00 1.467596411705017090e+00 -2.412281930446624756e-01
2.837000000000000000e+03 6.124489974975585938e+01 1.684330177307128906e+01 1.071413516998291016e+00 3.523000478744506836e+00 1.378324151039123535e+00 -1.915247291326522827e-01
2.838000000000000000e+03 6.443968963623046875e+01 7.792679309844970703e+00 3.776849480345845222e-03 3.762350082397460938e+00 1.129838109016418457e+00 -1.250159263610839844e+00
2.839000000000000000e+03 6.268073272705078125e+01 1.070235824584960938e+01 6.045742630958557129e-01 3.258848428726196289e+00 1.159026861190795898e+00 -9.157294631004333496e-01
2.840000000000000000e+03 5.865343093872070312e+01 1.336718177795410156e+01 1.240037202835083008e+00 2.666562795639038086e+00 1.171980023384094238e+00 -1.800704300403594971e-01
2.841000000000000000e+03 5.501754379272460938e+01 1.476291847229003906e+01 1.595672726631164551e+00 2.621836900711059570e+00 1.265252828598022461e+00 5.900198221206665039e-01
2.842000000000000000e+03 6.103809356689453125e+01 1.369294929504394531e+01 1.024725198745727539e+00 3.123470544815063477e+00 1.244458794593811035e+00 -4.597711861133575439e-01
2.843000000000000000e+03 5.603974533081054688e+01 2.020074844360351562e+01 1.225803017616271973e+00 3.476170063018798828e+00 1.410591959953308105e+00 7.061220407485961914e-01
2.844000000000000000e+03 5.817240142822265625e+01 1.478842830657958984e+01 1.342519879341125488e+00 2.810516834259033203e+00 1.245911002159118652e+00 3.981756791472434998e-02
2.845000000000000000e+03 5.748286819458007812e+01 1.603406333923339844e+01 1.388453602790832520e+00 2.934578180313110352e+00 1.296909570693969727e+00 2.425195723772048950e-01
2.846000000000000000e+03 6.311621475219726562e+01 2.430812454223632812e+01 6.257879734039306641e-01 4.492310523986816406e+00 1.535429596900939941e+00 1.419775933027267456e-01
2.847000000000000000e+03 5.674199295043945312e+01 2.286897468566894531e+01 9.527119398117065430e-01 3.800654411315917969e+00 1.426009893417358398e+00 6.577846407890319824e-01
2.848000000000000000e+03 6.016924667358398438e+01 2.340739059448242188e+01 8.110740780830383301e-01 4.077034473419189453e+00 1.466432571411132812e+00 3.496553599834442139e-01
2.849000000000000000e+03 6.799519348144531250e+01 3.593528366088867188e+01 -2.705010399222373962e-02 5.513231277465820312e+00 1.645854473114013672e+00 1.007458865642547607e-01
2.850000000000000000e+03 6.219585037231445312e+01 2.249717330932617188e+01 7.812063097953796387e-01 4.225251197814941406e+00 1.501937270164489746e+00 1.148287877440452576e-01
2.851000000000000000e+03 1.675101470947265625e+01 -4.126253128051757812e+01 3.005227744579315186e-01 -5.781673789024353027e-01 -8.329337835311889648e-02 1.065988168120384216e-01
2.852000000000000000e+03 9.388890266418457031e+00 -3.897913360595703125e+01 4.601339995861053467e-01 1.571535110473632812e+00 6.095007061958312988e-01 -1.331850737333297729e-01
2.853000000000000000e+03 1.249572658538818359e+01 -3.721662902832031250e+01 -5.288218334317207336e-02 -4.249543882906436920e-03 -1.713951863348484039e-02 2.850605845451354980e-01
2.854000000000000000e+03 1.173355007171630859e+01 -6.184436798095703125e+00 1.065142273902893066e+00 4.067522525787353516e+00 1.539799451828002930e+00 2.778792142868041992e+00
2.855000000000000000e+03 1.145541572570800781e+01 -5.491139411926269531e+00 1.433114767074584961e+00 4.038880825042724609e+00 1.641598701477050781e+00 2.965634107589721680e+00
2.856000000000000000e+03 1.393351840972900391e+01 -6.658721446990966797e+00 8.170139789581298828e-01 4.673662662506103516e+00 1.647202968597412109e+00 1.274483084678649902e+00
2.857000000000000000e+03 1.076586532592773438e+01 -6.692791461944580078e+00 9.590939283370971680e-01 3.238708257675170898e+00 1.259340643882751465e+00 2.944617271423339844e+00
2.858000000000000000e+03 1.142018222808837891e+01 -6.669559001922607422e+00 9.205703139305114746e-01 3.644166707992553711e+00 1.369421124458312988e+00 2.841086626052856445e+00
2.859000000000000000e+03 1.047634410858154297e+01 -7.414550304412841797e+00 6.589191555976867676e-01 3.032140493392944336e+00 1.107317924499511719e+00 2.920028686523437500e+00
2.860000000000000000e+03 1.071870803833007812e+01 -6.273828506469726562e+00 1.161204457283020020e+00 3.282405376434326172e+00 1.333082914352416992e+00 3.012630701065063477e+00
2.861000000000000000e+03 1.027068328857421875e+01 -6.850038528442382812e+00 8.931134343147277832e-01 2.995846986770629883e+00 1.166688203811645508e+00 2.970872879028320312e+00
2.862000000000000000e+03 1.520479488372802734e+01 -6.541098594665527344e+00 1.132933378219604492e+00 4.490112304687500000e+00 1.686913728713989258e+00 2.030695974826812744e-01
2.863000000000000000e+03 1.445654678344726562e+01 -8.173287391662597656e+00 4.871377944946289062e-01 3.465869188308715820e+00 1.185902118682861328e+00 1.117656111717224121e+00
2.864000000000000000e+03 1.316685581207275391e+01 -8.567791938781738281e+00 2.186646014451980591e-01 3.341790676116943359e+00 1.068136572837829590e+00 1.913837552070617676e+00
2.865000000000000000e+03 1.311407279968261719e+01 -7.523621082305908203e+00 4.947567284107208252e-01 3.966708660125732422e+00 1.338439583778381348e+00 1.951494216918945312e+00
2.866000000000000000e+03 1.409229660034179688e+01 -8.623047828674316406e+00 2.770290672779083252e-01 3.205277681350708008e+00 1.044692039489746094e+00 1.399444699287414551e+00
2.867000000000000000e+03 1.208760547637939453e+01 -7.793572902679443359e+00 4.324296712875366211e-01 3.577682495117187500e+00 1.203033685684204102e+00 2.469060420989990234e+00
2.868000000000000000e+03 1.563943004608154297e+01 -7.318609237670898438e+00 9.415514469146728516e-01 3.746080636978149414e+00 1.406289696693420410e+00 1.182985976338386536e-01
2.869000000000000000e+03 6.288484573364257812e+01 1.650955963134765625e+01 9.131866693496704102e-01 3.821202278137207031e+00 1.420316696166992188e+00 -3.630310297012329102e-01
2.870000000000000000e+03 6.117432785034179688e+01 1.515600967407226562e+01 1.056380510330200195e+00 3.337310314178466797e+00 1.318107247352600098e+00 -3.336279690265655518e-01
2.871000000000000000e+03 5.806694030761718750e+01 1.897056198120117188e+01 1.234928011894226074e+00 3.400657176971435547e+00 1.390675544738769531e+00 3.502826392650604248e-01
2.872000000000000000e+03 5.657479095458984375e+01 1.862883949279785156e+01 1.328470945358276367e+00 3.275045156478881836e+00 1.381054878234863281e+00 5.611082315444946289e-01
2.873000000000000000e+03 6.083486175537109375e+01 1.181957721710205078e+01 9.112434983253479004e-01 2.921120882034301758e+00 1.149709343910217285e+00 -6.052212715148925781e-01
2.874000000000000000e+03 5.985752105712890625e+01 1.381561279296875000e+01 1.154816269874572754e+00 2.915176153182983398e+00 1.220997691154479980e+00 -2.868242859840393066e-01
2.875000000000000000e+03 6.394636154174804688e+01 2.159128189086914062e+01 7.192060351371765137e-01 4.429363250732421875e+00 1.544570803642272949e+00 -6.873308122158050537e-02
2.876000000000000000e+03 6.501699066162109375e+01 1.939987754821777344e+01 7.134956717491149902e-01 4.463281631469726562e+00 1.553033232688903809e+00 -2.939987480640411377e-01
2.877000000000000000e+03 5.682884597778320312e+01 1.403280353546142578e+01 1.458406925201416016e+00 2.518738985061645508e+00 1.193143844604492188e+00 1.929575651884078979e-01
2.878000000000000000e+03 5.967496871948242188e+01 2.113270568847656250e+01 9.956585764884948730e-01 3.802786111831665039e+00 1.439533352851867676e+00 3.036309778690338135e-01
2.879000000000000000e+03 6.243377304077148438e+01 1.310177803039550781e+01 8.409077525138854980e-01 3.405854225158691406e+00 1.274028658866882324e+00 -6.540424227714538574e-01
2.880000000000000000e+03 6.271689224243164062e+01 1.480860233306884766e+01 8.996366262435913086e-01 3.640818357467651367e+00 1.362136483192443848e+00 -5.154114365577697754e-01
2.881000000000000000e+03 5.773150634765625000e+01 2.098407363891601562e+01 1.090763807296752930e+00 3.642682075500488281e+00 1.420033812522888184e+00 5.050147771835327148e-01
2.882000000000000000e+03 5.614045715332031250e+01 2.597172546386718750e+01 6.240783333778381348e-01 4.047638416290283203e+00 1.401515007019042969e+00 7.436864972114562988e-01
2.883000000000000000e+03 7.101288795471191406e+00 -3.816379165649414062e+01 2.568981945514678955e-01 2.683631896972656250e+00 8.821589946746826172e-01 -1.748735308647155762e-01
2.884000000000000000e+03 1.209930133819580078e+01 -6.483020305633544922e+00 9.181021451950073242e-01 4.193434238433837891e+00 1.533460855484008789e+00 2.575119256973266602e+00
2.885000000000000000e+03 1.108864974975585938e+01 -6.401280879974365234e+00 1.042548298835754395e+00 3.520659208297729492e+00 1.368962287902832031e+00 2.916853904724121094e+00
2.886000000000000000e+03 1.476158523559570312e+01 -7.656621456146240234e+00 6.601267457008361816e-01 3.760440826416015625e+00 1.326170206069946289e+00 7.980104088783264160e-01
2.887000000000000000e+03 1.457364749908447266e+01 -6.841416358947753906e+00 8.486911654472351074e-01 4.420205593109130859e+00 1.580669045448303223e+00 7.878192663192749023e-01
2.888000000000000000e+03 1.351015758514404297e+01 -6.999054908752441406e+00 7.018485665321350098e-01 4.371227741241455078e+00 1.521922945976257324e+00 1.646052598953247070e+00
2.889000000000000000e+03 1.360312652587890625e+01 -7.763232231140136719e+00 4.681147336959838867e-01 3.782170057296752930e+00 1.275085449218750000e+00 1.651231765747070312e+00
2.890000000000000000e+03 1.402847766876220703e+01 -7.925210475921630859e+00 4.726642072200775146e-01 3.696217536926269531e+00 1.250664591789245605e+00 1.292805314064025879e+00
2.891000000000000000e+03 1.534444618225097656e+01 -7.947008132934570312e+00 7.275713682174682617e-01 3.425836563110351562e+00 1.246022343635559082e+00 4.567154347896575928e-01
2.892000000000000000e+03 5.813500595092773438e+01 1.722772407531738281e+01 1.317691922187805176e+00 3.150058746337890625e+00 1.340325236320495605e+00 2.320864945650100708e-01
2.893000000000000000e+03 6.163090515136718750e+01 2.059182739257812500e+01 9.107701182365417480e-01 3.996613502502441406e+00 1.472215056419372559e+00 6.227833032608032227e-02
2.894000000000000000e+03 6.137450408935546875e+01 1.867618370056152344e+01 1.019206643104553223e+00 3.743064403533935547e+00 1.428681254386901855e+00 -3.344735875725746155e-02
2.895000000000000000e+03 1.246765804290771484e+01 -4.147018432617187500e+01 6.241507530212402344e-01 1.044838950037956238e-01 2.185904085636138916e-01 1.484714727848768234e-02
2.896000000000000000e+03 1.420006084442138672e+01 -7.076635360717773438e+00 7.666694521903991699e-01 4.239419460296630859e+00 1.501826643943786621e+00 1.119936823844909668e+00
2.897000000000000000e+03 1.384915065765380859e+01 -7.326673984527587891e+00 6.191639900207519531e-01 4.117746829986572266e+00 1.421073317527770996e+00 1.425197124481201172e+00
2.898000000000000000e+03 1.313918781280517578e+01 -6.657205581665039062e+00 7.651330828666687012e-01 4.539364814758300781e+00 1.591349363327026367e+00 1.867134332656860352e+00
2.899000000000000000e+03 1.228821945190429688e+01 -7.210617542266845703e+00 6.169754862785339355e-01 3.884979724884033203e+00 1.350586533546447754e+00 2.431794881820678711e+00
2.900000000000000000e+03 1.275461101531982422e+01 -7.101091384887695312e+00 6.365659832954406738e-01 4.083061218261718750e+00 1.415888071060180664e+00 2.167466402053833008e+00
2.901000000000000000e+03 5.964490127563476562e+01 1.524176120758056641e+01 1.215100646018981934e+00 3.058251857757568359e+00 1.282005667686462402e+00 -1.234211847186088562e-01
2.902000000000000000e+03 5.967159652709960938e+01 1.896303939819335938e+01 1.141309499740600586e+00 3.545692205429077148e+00 1.406100511550903320e+00 1.698756963014602661e-01
2.903000000000000000e+03 1.460359573364257812e+01 -3.708302688598632812e+01 -1.991153359413146973e-01 -4.122302234172821045e-01 -1.834036707878112793e-01 4.641673564910888672e-01
2.904000000000000000e+03 6.034684371948242188e+01 2.898430061340332031e+01 3.225136995315551758e-01 4.529800415039062500e+00 1.455694198608398438e+00 4.306925237178802490e-01
2.905000000000000000e+03 6.080186843872070312e+01 3.553543853759765625e+01 -1.325902938842773438e-01 4.892575263977050781e+00 1.427995443344116211e+00 2.871697843074798584e-01
2.906000000000000000e+03 5.915915679931640625e+01 3.289008331298828125e+01 -1.915553212165832520e-02 4.646208763122558594e+00 1.388116002082824707e+00 4.404692947864532471e-01
2.907000000000000000e+03 4.710345458984375000e+01 -4.087916564941406250e+01 -8.704465627670288086e-01 2.974738597869873047e+00 6.312876343727111816e-01 -2.421702891588211060e-01
2.908000000000000000e+03 4.172405624389648438e+01 3.760103607177734375e+01 -1.386498093605041504e+00 2.322851657867431641e+00 2.809060513973236084e-01 3.464253991842269897e-02
2.909000000000000000e+03 6.738776397705078125e+01 4.112788391113281250e+01 -8.711089938879013062e-02 5.535736560821533203e+00 1.634587764739990234e+00 1.751595176756381989e-02
2.910000000000000000e+03 6.744377136230468750e+01 3.839597320556640625e+01 -7.358849048614501953e-02 5.518513202667236328e+00 1.633477449417114258e+00 6.900810450315475464e-02
2.911000000000000000e+03 3.544153594970703125e+01 -3.483415603637695312e+01 -1.621679663658142090e+00 5.369208335876464844e+00 1.124258637428283691e+00 5.174928903579711914e-01
2.912000000000000000e+03 2.323581695556640625e+01 -4.109492874145507812e+01 -2.036754637956619263e-01 1.148536577820777893e-01 -2.664653956890106201e-02 1.375061869621276855e-01
2.913000000000000000e+03 6.370458602905273438e+01 3.755246734619140625e+01 -1.321866065263748169e-01 5.156837940216064453e+00 1.507395386695861816e+00 1.564678549766540527e-01
2.914000000000000000e+03 4.463475799560546875e+01 3.798090362548828125e+01 -1.302572965621948242e+00 3.060451507568359375e+00 5.273635387420654297e-01 1.773388087749481201e-01
2.915000000000000000e+03 4.330233383178710938e+01 4.098799514770507812e+01 -1.426361799240112305e+00 2.514230251312255859e+00 3.263605833053588867e-01 3.274942934513092041e-02
2.916000000000000000e+03 3.634127426147460938e+01 3.830256271362304688e+01 -1.567172884941101074e+00 1.156413778662681580e-01 -4.354594349861145020e-01 2.000373899936676025e-01
2.917000000000000000e+03 5.452619552612304688e+01 -3.590430068969726562e+01 -3.183465301990509033e-01 6.223896145820617676e-01 9.121292829513549805e-02 -5.122303366661071777e-01
2.918000000000000000e+03 1.042478752136230469e+01 1.649721503257751465e+00 1.140563130378723145e+00 1.509214997291564941e+00 7.949334383010864258e-01 -1.817246556282043457e+00
2.919000000000000000e+03 1.081796741485595703e+01 1.540575146675109863e+00 1.418906092643737793e+00 1.993116259574890137e+00 1.023606657981872559e+00 -2.346802949905395508e+00
2.920000000000000000e+03 1.141142272949218750e+01 1.513395786285400391e+00 1.786569476127624512e+00 3.334225177764892578e+00 1.536238431930541992e+00 -3.227823019027709961e+00
2.921000000000000000e+03 1.232769298553466797e+01 1.483679294586181641e+00 1.198614001274108887e+00 7.027043819427490234e+00 2.467697381973266602e+00 -3.938376903533935547e+00
2.922000000000000000e+03 1.231853485107421875e+01 1.255399346351623535e+00 1.911805391311645508e+00 7.342184066772460938e+00 2.776196956634521484e+00 -4.747827053070068359e+00
2.923000000000000000e+03 1.246851825714111328e+01 1.418598294258117676e+00 1.263656139373779297e+00 8.139216423034667969e+00 2.820861816406250000e+00 -4.269137859344482422e+00
2.924000000000000000e+03 1.261569309234619141e+01 1.323534250259399414e+00 1.399414181709289551e+00 9.061519622802734375e+00 3.138280153274536133e+00 -4.189790248870849609e+00
2.925000000000000000e+03 1.361930942535400391e+01 1.729756355285644531e+00 6.387714743614196777e-01 1.133774566650390625e+01 3.592955112457275391e+00 -1.369182467460632324e+00
2.926000000000000000e+03 1.035705757141113281e+01 -1.746604442596435547e+00 3.505730867385864258e+00 4.814221560955047607e-01 1.196145892143249512e+00 1.521187067031860352e+00
2.927000000000000000e+03 1.008196258544921875e+01 -2.104627847671508789e+00 3.323773384094238281e+00 6.532777547836303711e-01 1.193115353584289551e+00 1.741815924644470215e+00
2.928000000000000000e+03 1.141035079956054688e+01 -1.918884515762329102e+00 5.158196449279785156e+00 2.165630817413330078e+00 2.197148084640502930e+00 3.355082988739013672e+00
2.929000000000000000e+03 1.168979549407958984e+01 -2.130170822143554688e+00 4.950416564941406250e+00 3.782051324844360352e+00 2.619740486145019531e+00 4.075035095214843750e+00
2.930000000000000000e+03 1.190120220184326172e+01 -2.308937549591064453e+00 4.518769741058349609e+00 5.040275096893310547e+00 2.867713451385498047e+00 4.387244224548339844e+00
2.931000000000000000e+03 7.797032928466796875e+01 4.155479431152343750e+01 2.962665446102619171e-02 6.534567832946777344e+00 1.969258308410644531e+00 -8.337029255926609039e-03
2.932000000000000000e+03 3.592123413085937500e+01 -2.669902229309082031e+01 1.300050020217895508e+00 1.133837318420410156e+01 3.791527032852172852e+00 1.102578043937683105e+00
2.933000000000000000e+03 1.091838264465332031e+01 -2.255635738372802734e+00 4.264945983886718750e+00 1.772942185401916504e+00 1.811366438865661621e+00 2.834464788436889648e+00
2.934000000000000000e+03 1.014194202423095703e+01 -2.426857471466064453e+00 3.479055881500244141e+00 9.978177547454833984e-01 1.343062043190002441e+00 2.180253982543945312e+00
2.935000000000000000e+03 1.050960254669189453e+01 -2.062939405441284180e+00 3.892914056777954102e+00 8.648134469985961914e-01 1.427318215370178223e+00 2.076888084411621094e+00
2.936000000000000000e+03 2.996102571487426758e+00 -1.888206100463867188e+01 5.698891878128051758e-01 4.300865650177001953e+00 1.461226463317871094e+00 1.117755752056837082e-02
2.937000000000000000e+03 3.823460388183593750e+01 -2.559097671508789062e+01 1.479352235794067383e+00 9.103975296020507812e+00 3.174998283386230469e+00 -5.405410528182983398e-01
2.938000000000000000e+03 1.644213867187500000e+01 -8.979675769805908203e-01 6.420685291290283203e+00 5.537348747253417969e+00 3.587410211563110352e+00 -1.298566579818725586e+00
2.939000000000000000e+03 3.547401666641235352e+00 -2.314704895019531250e+01 1.188119053840637207e+00 6.918580532073974609e+00 2.432009935379028320e+00 1.764438629150390625e+00
2.940000000000000000e+03 1.244236946105957031e+01 1.709202408790588379e+00 1.212597966194152832e+00 8.135198593139648438e+00 2.804338932037353516e+00 -4.237860679626464844e+00
2.941000000000000000e+03 1.138020706176757812e+01 1.898649930953979492e+00 1.544312834739685059e+00 3.776498556137084961e+00 1.596243500709533691e+00 -3.326796293258666992e+00
2.942000000000000000e+03 1.120428180694580078e+01 2.202056407928466797e+00 1.280983209609985352e+00 3.821655750274658203e+00 1.530791640281677246e+00 -3.093466281890869141e+00
2.943000000000000000e+03 1.074813938140869141e+01 2.252449274063110352e+00 1.223186492919921875e+00 2.753854513168334961e+00 1.193112254142761230e+00 -2.520908117294311523e+00
2.944000000000000000e+03 1.075171184539794922e+01 -2.653789043426513672e+00 3.799263477325439453e+00 1.946148276329040527e+00 1.723623514175415039e+00 2.972648859024047852e+00
2.945000000000000000e+03 1.193153762817382812e+01 -2.914402723312377930e+00 3.513954162597656250e+00 5.363723754882812500e+00 2.663303375244140625e+00 4.005746841430664062e+00
2.946000000000000000e+03 1.138923645019531250e+01 -2.955980777740478516e+00 3.655961036682128906e+00 3.697092771530151367e+00 2.205916166305541992e+00 3.675569772720336914e+00
2.947000000000000000e+03 3.373460769653320312e+01 -1.464894294738769531e+01 1.604985147714614868e-01 4.334033489227294922e+00 1.348359704017639160e+00 -1.870717525482177734e+00
2.948000000000000000e+03 3.973144149780273438e+01 -2.424837303161621094e+01 1.551285743713378906e+00 8.249515533447265625e+00 2.940240383148193359e+00 -5.815557837486267090e-01
2.949000000000000000e+03 2.435822963714599609e+00 4.321257114410400391e+00 5.191222578287124634e-02 -2.396098971366882324e-01 -5.630930140614509583e-02 3.501115143299102783e-01
2.950000000000000000e+03 7.788249969482421875e+01 -3.582830810546875000e+01 -1.876699179410934448e-01 1.022783660888671875e+01 3.012049913406372070e+00 -2.924582958221435547e-01
2.951000000000000000e+03 2.593253135681152344e+01 3.844319152832031250e+01 -2.126650333404541016e+00 -2.506169378757476807e-01 -7.131801843643188477e-01 -3.805932402610778809e-01
2.952000000000000000e+03 1.122740173339843750e+01 -3.343482732772827148e+00 3.221647739410400391e+00 3.571958303451538086e+00 2.038081884384155273e+00 3.504584789276123047e+00
2.953000000000000000e+03 1.226813697814941406e+01 -3.453140020370483398e+00 2.505715370178222656e+00 6.503095149993896484e+00 2.702643156051635742e+00 3.450881958007812500e+00
2.954000000000000000e+03 3.371007919311523438e+01 3.814654159545898438e+01 -1.983174562454223633e+00 -2.796873450279235840e-01 -6.788585782051086426e-01 3.964396715164184570e-01
2.955000000000000000e+03 3.496406936645507812e+01 3.744911956787109375e+01 -1.875459671020507812e+00 -2.605698406696319580e-01 -6.408088207244873047e-01 5.145646929740905762e-01
2.956000000000000000e+03 3.398014068603515625e+01 -3.614574432373046875e+01 -1.545178890228271484e+00 4.569077968597412109e+00 9.071696996688842773e-01 6.489255428314208984e-01
2.957000000000000000e+03 5.268338394165039062e+01 3.985525608062744141e+00 -1.219587683677673340e+00 4.082818329334259033e-01 -2.433917671442031860e-01 1.523302048444747925e-01
2.958000000000000000e+03 3.872974777221679688e+01 -3.395185852050781250e+01 -1.419141411781311035e+00 5.716940402984619141e+00 1.289339661598205566e+00 -4.670242965221405029e-01
2.959000000000000000e+03 2.674292373657226562e+01 -3.545457077026367188e+01 -7.111858725547790527e-01 8.138158917427062988e-01 3.078899346292018890e-02 5.814210176467895508e-01
2.960000000000000000e+03 1.186735153198242188e+01 -3.427717208862304688e+00 2.973066329956054688e+00 5.309376716613769531e+00 2.484732866287231445e+00 3.728819370269775391e+00
2.961000000000000000e+03 1.146381092071533203e+01 -3.468824148178100586e+00 3.101057767868041992e+00 4.165287494659423828e+00 2.179903507232666016e+00 3.650177955627441406e+00
2.962000000000000000e+03 1.743839073181152344e+01 4.275882244110107422e-01 4.337247848510742188e+00 4.504240036010742188e+00 2.652446508407592773e+00 -6.939547061920166016e-01
2.963000000000000000e+03 1.097169303894042969e+01 2.445257663726806641e+00 1.153583645820617676e+00 3.507948875427246094e+00 1.398459792137145996e+00 -2.827298164367675781e+00
2.964000000000000000e+03 2.342273521423339844e+01 -1.559933948516845703e+01 -1.929043054580688477e+00 4.364029765129089355e-01 -4.477920234203338623e-01 -2.441402524709701538e-01
2.965000000000000000e+03 5.141931533813476562e+00 -1.864536857604980469e+01 1.435320734977722168e+00 7.605852603912353516e+00 2.712352037429809570e+00 1.016148447990417480e+00
2.966000000000000000e+03 1.047767448425292969e+01 -3.458577346801757812e+01 -8.112260103225708008e-01 2.814732193946838379e-01 -1.589258462190628052e-01 1.895377635955810547e-01
2.967000000000000000e+03 2.853162956237792969e+01 -3.654280853271484375e+01 -7.516624927520751953e-01 1.644492268562316895e+00 2.678489387035369873e-01 8.953275084495544434e-01
2.968000000000000000e+03 1.125391292572021484e+01 -3.676607608795166016e+00 2.871881484985351562e+00 3.802405595779418945e+00 2.002286195755004883e+00 3.511638641357421875e+00
2.969000000000000000e+03 4.858601760864257812e+01 -2.926897430419921875e+01 1.413304805755615234e-01 1.533320069313049316e+00 5.023951530456542969e-01 -8.864257931709289551e-01
2.970000000000000000e+03 1.261854171752929688e+01 3.308663940429687500e+01 -9.395473003387451172e-01 3.946596622467041016e+00 9.021147489547729492e-01 -7.826532125473022461e-01
2.971000000000000000e+03 1.453649997711181641e+01 -4.804284095764160156e+00 1.641624093055725098e+00 6.396529197692871094e+00 2.411446094512939453e+00 2.976400852203369141e-01
2.972000000000000000e+03 1.745348548889160156e+01 3.896333694458007812e+00 1.482898294925689697e-01 5.791000843048095703e+00 1.781787276268005371e+00 -1.571156531572341919e-01
2.973000000000000000e+03 3.955340576171875000e+01 -2.834183311462402344e+01 3.919456899166107178e-01 6.955063819885253906e+00 2.204102754592895508e+00 -1.202952861785888672e+00
2.974000000000000000e+03 4.053593063354492188e+01 -2.390128135681152344e+01 1.324418067932128906e+00 7.194255828857421875e+00 2.555602073669433594e+00 -7.904838919639587402e-01
2.975000000000000000e+03 5.161251449584960938e+01 4.585793018341064453e+00 -6.664186716079711914e-01 4.323856234550476074e-01 -7.020990550518035889e-02 3.988538980484008789e-01
2.976000000000000000e+03 7.685842132568359375e+01 -2.781061363220214844e+01 7.061470299959182739e-02 8.659202575683593750e+00 2.618945121765136719e+00 -1.140538573265075684e+00
2.977000000000000000e+03 7.679824829101562500e+01 -2.665446662902832031e+01 1.198973879218101501e-01 8.462589263916015625e+00 2.574745893478393555e+00 -1.040924310684204102e+00
2.978000000000000000e+03 7.071017456054687500e+01 -3.428351211547851562e+01 -9.187430143356323242e-01 7.503721714019775391e+00 1.975493669509887695e+00 8.682534098625183105e-02
2.979000000000000000e+03 1.167092990875244141e+01 -3.678033590316772461e+00 2.777377605438232422e+00 4.774153709411621094e+00 2.265459299087524414e+00 3.605728626251220703e+00
2.980000000000000000e+03 1.190848827362060547e+01 -3.863973855972290039e+00 2.466493844985961914e+00 5.165089130401611328e+00 2.289474964141845703e+00 3.441416740417480469e+00
2.981000000000000000e+03 1.505545902252197266e+01 -3.195617914199829102e+00 3.451558589935302734e+00 7.707839965820312500e+00 3.347819566726684570e+00 -1.460835218429565430e+00
2.982000000000000000e+03 1.150794982910156250e+01 -4.517737388610839844e+00 2.054684400558471680e+00 4.334712505340576172e+00 1.916819095611572266e+00 3.269747972488403320e+00
2.983000000000000000e+03 7.232180786132812500e+01 -1.958235359191894531e+01 4.997197985649108887e-01 1.163895225524902344e+01 3.641601562500000000e+00 -3.746362328529357910e-01
2.984000000000000000e+03 1.598881530761718750e+01 3.243101119995117188e+00 4.404852688312530518e-01 7.911787986755371094e+00 2.505681991577148438e+00 1.273980885744094849e-01
2.985000000000000000e+03 5.471242904663085938e+01 5.957540035247802734e+00 -4.497459530830383301e-02 7.631746530532836914e-01 2.154600173234939575e-01 -8.274874836206436157e-02
2.986000000000000000e+03 1.285675048828125000e+01 -4.900860309600830078e+00 1.441344499588012695e+00 5.873828887939453125e+00 2.194551944732666016e+00 2.292679071426391602e+00
2.987000000000000000e+03 1.312656211853027344e+01 -5.318467140197753906e+00 1.216849923133850098e+00 5.714220046997070312e+00 2.079320907592773438e+00 1.953035593032836914e+00
2.988000000000000000e+03 1.416271018981933594e+01 -5.476593494415283203e+00 1.278858780860900879e+00 5.690705776214599609e+00 2.090869426727294922e+00 8.945590853691101074e-01
2.989000000000000000e+03 1.521165657043457031e+01 -5.327596664428710938e+00 1.688517212867736816e+00 5.555777072906494141e+00 2.173288345336914062e+00 -2.422400265932083130e-01
2.990000000000000000e+03 2.054834747314453125e+01 -6.908890724182128906e+00 2.516730070114135742e+00 1.613910079002380371e+00 1.239192008972167969e+00 -1.623863697052001953e+00
2.991000000000000000e+03 6.177861213684082031e+00 -1.024621772766113281e+01 -5.728157162666320801e-01 3.010501146316528320e+00 7.313055992126464844e-01 1.982700824737548828e+00
2.992000000000000000e+03 2.809028816223144531e+01 -6.952718734741210938e+00 3.151543617248535156e+00 6.072551608085632324e-01 1.127639651298522949e+00 -2.127038717269897461e+00
2.993000000000000000e+03 1.186255455017089844e+01 -4.743020534515380859e+00 1.751908063888549805e+00 4.786206722259521484e+00 1.961434483528137207e+00 3.044970273971557617e+00
2.994000000000000000e+03 4.169013977050781250e+00 3.823052883148193359e+00 8.587934076786041260e-02 8.460970222949981689e-02 5.114671215415000916e-02 3.353604972362518311e-01
2.995000000000000000e+03 4.293145179748535156e+00 -5.305268287658691406e+00 5.278304815292358398e-01 8.209331035614013672e-01 4.046290516853332520e-01 9.311501383781433105e-01
2.996000000000000000e+03 2.215709114074707031e+01 -8.703243255615234375e+00 1.745139956474304199e+00 1.048311710357666016e+00 8.380355238914489746e-01 -1.454381346702575684e+00
2.997000000000000000e+03 4.287325286865234375e+01 7.181310176849365234e+00 1.401852726936340332e+00 7.724328041076660156e+00 2.737854242324829102e+00 3.059037446975708008e+00
2.998000000000000000e+03 3.377860260009765625e+01 -1.136590576171875000e+01 1.878799796104431152e+00 4.138359069824218750e+00 1.805147647857666016e+00 -1.344971060752868652e+00
2.999000000000000000e+03 2.282159042358398438e+01 -1.500663852691650391e+01 -1.721980214118957520e+00 5.778486728668212891e-01 -3.432394564151763916e-01 -3.103781044483184814e-01
3.000000000000000000e+03 4.789833068847656250e+01 -3.109322547912597656e+01 -1.521047949790954590e-01 2.269883632659912109e+00 6.353336572647094727e-01 -1.073473811149597168e+00
3.001000000000000000e+03 1.183994197845458984e+01 -5.377491474151611328e+00 1.389988303184509277e+00 4.467169761657714844e+00 1.757147312164306641e+00 2.884340524673461914e+00
3.002000000000000000e+03 1.302663993835449219e+01 -5.977346420288085938e+00 9.759309887886047363e-01 5.014899730682373047e+00 1.797249197959899902e+00 2.032786607742309570e+00
3.003000000000000000e+03 4.246965789794921875e+01 -2.429102706909179688e+01 9.879124164581298828e-01 5.399841785430908203e+00 1.916326165199279785e+00 -1.396945953369140625e+00
3.004000000000000000e+03 7.246951293945312500e+01 -5.144453525543212891e+00 -4.592319726943969727e-01 8.213448524475097656e+00 2.326264858245849609e+00 2.893279194831848145e-01
3.005000000000000000e+03 6.664673614501953125e+01 1.557644009590148926e-01 -1.266268014907836914e+00 5.290792465209960938e+00 1.207357406616210938e+00 -1.126430869102478027e+00
3.006000000000000000e+03 3.318518829345703125e+01 -8.412529945373535156e+00 2.894012212753295898e+00 2.798131942749023438e+00 1.707643270492553711e+00 -1.130334615707397461e+00
3.007000000000000000e+03 2.015088844299316406e+01 -1.239333152770996094e+01 -6.696990132331848145e-01 9.763460755348205566e-01 9.199412167072296143e-02 -5.985714793205261230e-01
3.008000000000000000e+03 7.471586608886718750e+01 -2.136682319641113281e+01 4.681794345378875732e-01 9.532938957214355469e+00 3.000335454940795898e+00 -5.785692334175109863e-01
3.009000000000000000e+03 5.881180572509765625e+01 5.943838596343994141e+00 -9.122093021869659424e-02 1.496031761169433594e+00 4.214432537555694580e-01 -8.150417208671569824e-01
3.010000000000000000e+03 7.209373474121093750e+01 -6.336971759796142578e+00 -3.694068193435668945e-01 8.410551071166992188e+00 2.412343263626098633e+00 2.220922559499740601e-01
3.011000000000000000e+03 2.159147071838378906e+01 -9.260856628417968750e+00 1.370142817497253418e+00 1.116607546806335449e+00 7.460250854492187500e-01 -1.287266016006469727e+00
3.012000000000000000e+03 1.143071079254150391e+01 7.885193347930908203e+00 -3.367067277431488037e-01 5.379995822906494141e+00 1.512986779212951660e+00 -1.219150900840759277e+00
3.013000000000000000e+03 9.959916114807128906e+00 -4.991183757781982422e+00 1.931871056556701660e+00 2.423131465911865234e+00 1.306500673294067383e+00 2.936101675033569336e+00
3.014000000000000000e+03 1.104940414428710938e+01 -5.347564697265625000e+00 1.608261466026306152e+00 3.574461221694946289e+00 1.554816722869873047e+00 3.091169834136962891e+00
3.015000000000000000e+03 4.869729614257812500e+01 7.522101402282714844e+00 1.337859988212585449e+00 1.922790169715881348e+00 9.781950712203979492e-01 1.643191933631896973e+00
3.016000000000000000e+03 1.380847740173339844e+01 5.333403110504150391e+00 -9.044324159622192383e-01 7.478228092193603516e+00 1.972138643264770508e+00 -1.365812897682189941e+00
3.017000000000000000e+03 7.529924011230468750e+01 -3.253746795654296875e+01 -4.880668222904205322e-01 9.175656318664550781e+00 2.606276988983154297e+00 -9.218909144401550293e-01
3.018000000000000000e+03 1.988215065002441406e+01 -8.780750274658203125e+00 1.344476222991943359e+00 1.615552663803100586e+00 8.880086541175842285e-01 -1.171457290649414062e+00
3.019000000000000000e+03 2.078347206115722656e+01 -9.437407493591308594e+00 1.095279335975646973e+00 1.282352089881896973e+00 7.132894396781921387e-01 -1.167132616043090820e+00
3.020000000000000000e+03 2.568783950805664062e+01 -1.177975177764892578e+01 8.242171406745910645e-01 3.917253315448760986e-01 3.647827506065368652e-01 -1.055952310562133789e+00
3.021000000000000000e+03 7.573406982421875000e+01 -1.888475418090820312e+01 3.665460646152496338e-01 8.467523574829101562e+00 2.650220870971679688e+00 -2.712685465812683105e-01
3.022000000000000000e+03 5.615656280517578125e+01 7.068198204040527344e+00 4.031847119331359863e-01 1.157838702201843262e+00 4.683070480823516846e-01 -2.884295880794525146e-01
3.023000000000000000e+03 3.467025375366210938e+01 -7.738605976104736328e+00 2.777112483978271484e+00 4.025138854980468750e+00 2.040675401687622070e+00 -5.628938674926757812e-01
3.024000000000000000e+03 2.318186187744140625e+01 -1.085443305969238281e+01 8.044111132621765137e-01 7.232890129089355469e-01 4.583100378513336182e-01 -1.163785457611083984e+00
3.025000000000000000e+03 1.315778446197509766e+01 5.272836685180664062e+00 -7.648769617080688477e-01 7.089547157287597656e+00 1.897401094436645508e+00 -1.634587883949279785e+00
3.026000000000000000e+03 1.341281604766845703e+01 5.672033309936523438e+00 -8.576102852821350098e-01 7.065373897552490234e+00 1.862329006195068359e+00 -1.489665865898132324e+00
3.027000000000000000e+03 4.680786895751953125e+01 2.327107620239257812e+01 5.253153443336486816e-01 4.569042682647705078e+00 1.528307318687438965e+00 9.967647194862365723e-01
3.028000000000000000e+03 5.193414688110351562e+01 2.392752265930175781e+01 7.903829216957092285e-01 3.985849142074584961e+00 1.432869672775268555e+00 1.044783115386962891e+00
3.029000000000000000e+03 1.083613967895507812e+01 7.217554092407226562e+00 -1.895562410354614258e-01 4.878927707672119141e+00 1.406811475753784180e+00 -1.335985302925109863e+00
3.030000000000000000e+03 2.524807739257812500e+01 -1.102044105529785156e+01 1.148681879043579102e+00 4.472793340682983398e-01 4.787883758544921875e-01 -1.310567855834960938e+00
3.031000000000000000e+03 1.068900489807128906e+01 6.234911918640136719e+00 -1.028035357594490051e-01 4.624269485473632812e+00 1.356439709663391113e+00 -1.559998989105224609e+00
3.032000000000000000e+03 1.168150901794433594e+01 6.544854164123535156e+00 -3.869833052158355713e-01 5.609028816223144531e+00 1.566613674163818359e+00 -1.575158476829528809e+00
3.033000000000000000e+03 1.164216899871826172e+01 7.393596172332763672e+00 -3.909665048122406006e-01 5.516522407531738281e+00 1.537666678428649902e+00 -1.333057522773742676e+00
3.034000000000000000e+03 1.129360103607177734e+01 6.955254554748535156e+00 -3.102622926235198975e-01 5.227312088012695312e+00 1.475115060806274414e+00 -1.448975563049316406e+00
3.035000000000000000e+03 7.476715850830078125e+01 -1.514118385314941406e+01 5.960483551025390625e-01 8.968353271484375000e+00 2.869320392608642578e+00 2.243118435144424438e-01
3.036000000000000000e+03 1.885091781616210938e+01 -8.086573600769042969e+00 1.506627559661865234e+00 1.978234767913818359e+00 1.045458674430847168e+00 -1.080594539642333984e+00
3.037000000000000000e+03 1.842277717590332031e+01 -6.322879791259765625e+00 2.362541437149047852e+00 2.728961944580078125e+00 1.527451038360595703e+00 -1.477239847183227539e+00
3.038000000000000000e+03 6.501876068115234375e+01 3.597978353500366211e+00 -8.231115937232971191e-01 4.034765243530273438e+00 9.634960293769836426e-01 -1.420298814773559570e+00
3.039000000000000000e+03 1.087739562988281250e+01 -8.369377136230468750e+00 2.718352079391479492e-01 3.009205818176269531e+00 9.843122959136962891e-01 2.844208002090454102e+00
3.040000000000000000e+03 7.253106117248535156e+00 1.191069698333740234e+01 2.367498576641082764e-01 2.864072084426879883e+00 9.302465915679931641e-01 -4.042813181877136230e-01
3.041000000000000000e+03 7.489920043945312500e+01 8.252312541007995605e-01 -3.166153132915496826e-01 7.909425735473632812e+00 2.277842998504638672e+00 -3.341967612504959106e-02
3.042000000000000000e+03 7.414575958251953125e+01 1.257374644279479980e+00 -4.320729672908782959e-01 7.746580600738525391e+00 2.194352149963378906e+00 -1.446555107831954956e-01
3.043000000000000000e+03 7.501624298095703125e+01 1.854330301284790039e+00 -3.375802934169769287e-01 7.853577136993408203e+00 2.254799127578735352e+00 -1.264830529689788818e-01
3.044000000000000000e+03 7.385736083984375000e+01 2.361191749572753906e+00 -4.377656579017639160e-01 7.527215003967285156e+00 2.126834869384765625e+00 -3.058083951473236084e-01
3.045000000000000000e+03 1.474093246459960938e+01 -6.439980983734130859e+00 1.055760383605957031e+00 4.683142662048339844e+00 1.721670985221862793e+00 5.641129612922668457e-01
3.046000000000000000e+03 1.181168079376220703e+01 -6.966708660125732422e+00 7.474390268325805664e-01 3.777455806732177734e+00 1.357468485832214355e+00 2.659470796585083008e+00
3.047000000000000000e+03 1.153728580474853516e+01 -9.108898162841796875e+00 5.063798278570175171e-02 2.936832189559936523e+00 8.962410688400268555e-01 2.688331127166748047e+00
3.048000000000000000e+03 4.672967910766601562e+01 1.435930633544921875e+01 1.615521788597106934e+00 4.827514648437500000e+00 1.932910919189453125e+00 2.129592418670654297e+00
3.049000000000000000e+03 7.439084625244140625e+01 1.916767716407775879e+00 -4.372893273830413818e-01 7.744423866271972656e+00 2.192140340805053711e+00 -2.050275504589080811e-01
3.050000000000000000e+03 5.333761978149414062e+01 1.561466026306152344e+01 1.664877772331237793e+00 2.879922628402709961e+00 1.363440155982971191e+00 9.672747850418090820e-01
3.051000000000000000e+03 6.064339828491210938e+01 7.658612251281738281e+00 2.896854877471923828e-01 2.323214769363403320e+00 7.838701009750366211e-01 -1.000506520271301270e+00
3.052000000000000000e+03 4.881828689575195312e+01 1.566427135467529297e+01 1.647188186645507812e+00 3.848357439041137695e+00 1.648663640022277832e+00 1.760304093360900879e+00
3.053000000000000000e+03 4.773762512207031250e+01 1.602981948852539062e+01 1.506036281585693359e+00 4.474079132080078125e+00 1.794034600257873535e+00 1.906844854354858398e+00
3.054000000000000000e+03 6.239175033569335938e+01 9.597638130187988281e+00 4.677983522415161133e-01 3.138731002807617188e+00 1.081958770751953125e+00 -9.885575175285339355e-01
3.055000000000000000e+03 6.523391723632812500e+01 9.334674835205078125e+00 2.062728255987167358e-01 4.060114383697509766e+00 1.279916167259216309e+00 -1.134294509887695312e+00
3.056000000000000000e+03 4.925756454467773438e+01 1.662353515625000000e+01 1.553650021553039551e+00 3.892135620117187500e+00 1.633735656738281250e+00 1.653973340988159180e+00
3.057000000000000000e+03 4.977594757080078125e+01 1.566754245758056641e+01 1.673233389854431152e+00 3.542310476303100586e+00 1.564663171768188477e+00 1.582150936126708984e+00
3.058000000000000000e+03 4.835055541992187500e+01 2.087233543395996094e+01 8.797282576560974121e-01 4.436997890472412109e+00 1.595017790794372559e+00 1.314865231513977051e+00
3.059000000000000000e+03 7.324639129638671875e+01 4.697412490844726562e+00 -3.793138861656188965e-01 7.088348388671875000e+00 2.012710332870483398e+00 -5.925740599632263184e-01
3.060000000000000000e+03 7.215401458740234375e+01 6.057995796203613281e+00 -2.945242524147033691e-01 6.654252052307128906e+00 1.907918453216552734e+00 -7.580384016036987305e-01
3.061000000000000000e+03 6.126022720336914062e+01 1.098792171478271484e+01 7.545858025550842285e-01 2.853949546813964844e+00 1.082560658454895020e+00 -7.879558801651000977e-01
3.062000000000000000e+03 6.392494201660156250e+01 1.083913135528564453e+01 4.965991079807281494e-01 3.653859138488769531e+00 1.245137453079223633e+00 -9.863007664680480957e-01
3.063000000000000000e+03 6.928975677490234375e+01 1.462156295776367188e+01 3.436002433300018311e-01 5.271254539489746094e+00 1.684456467628479004e+00 -7.819056510925292969e-01
3.064000000000000000e+03 9.561179161071777344e+00 6.168214082717895508e-01 -9.165463447570800781e-01 6.760746985673904419e-02 -2.546816468238830566e-01 -2.939547598361968994e-01
3.065000000000000000e+03 9.880032539367675781e+00 5.626614093780517578e-01 -7.010087966918945312e-01 8.422265946865081787e-02 -1.850358396768569946e-01 -2.911160886287689209e-01
3.066000000000000000e+03 7.182114124298095703e+00 1.147541522979736328e+00 -7.676888704299926758e-01 8.346940577030181885e-02 -2.052658349275588989e-01 1.074158251285552979e-01
3.067000000000000000e+03 7.526113033294677734e+00 4.115009307861328125e-01 -1.505716681480407715e+00 2.217353694140911102e-02 -4.450629651546478271e-01 5.184064432978630066e-02
3.068000000000000000e+03 4.884379386901855469e+00 1.217839002609252930e+00 -5.768020153045654297e-01 1.112218759953975677e-02 -1.697039455175399780e-01 2.591283321380615234e-01
3.069000000000000000e+03 1.977165579795837402e+00 2.782279849052429199e-01 -1.553950607776641846e-01 4.506504628807306290e-04 -4.648332297801971436e-02 5.636709928512573242e-02
3.070000000000000000e+03 2.714960336685180664e+00 2.699612379074096680e-01 -3.344961106777191162e-01 -4.293047823011875153e-03 -1.016367450356483459e-01 6.077970191836357117e-02
3.071000000000000000e+03 1.564333677291870117e+00 9.451203346252441406e-01 -1.189821586012840271e-01 -5.161447077989578247e-02 -5.117898806929588318e-02 1.308583170175552368e-01
3.072000000000000000e+03 1.042679429054260254e+00 1.127995371818542480e+00 -6.604138016700744629e-02 -7.973189651966094971e-02 -4.373198375105857849e-02 1.032784283161163330e-01
3.073000000000000000e+03 2.083025217056274414e+00 7.786890268325805664e-01 -2.008605152368545532e-01 -1.856890879571437836e-02 -6.582882255315780640e-02 1.425715237855911255e-01
3.074000000000000000e+03 6.511783003807067871e-01 3.879953026771545410e-01 -1.398221496492624283e-02 -4.705953877419233322e-03 -5.606450606137514114e-03 9.472115896642208099e-03
3.075000000000000000e+03 3.694885373115539551e-01 9.572699069976806641e-01 -1.062033325433731079e-02 -3.582120314240455627e-02 -1.393246091902256012e-02 2.577530965209007263e-02
3.076000000000000000e+03 4.310049057006835938e+00 3.433699309825897217e-01 -7.816991806030273438e-01 -1.056861225515604019e-02 -2.376803308725357056e-01 1.012829691171646118e-01
3.077000000000000000e+03 3.495476722717285156e+00 7.874110937118530273e-01 -4.738236069679260254e-01 -1.416968833655118942e-02 -1.463979780673980713e-01 2.071217447519302368e-01
3.078000000000000000e+03 5.977795124053955078e+00 4.040979444980621338e-01 -1.203595519065856934e+00 1.268361043184995651e-02 -3.572735786437988281e-01 9.889491647481918335e-02
3.079000000000000000e+03 5.167751312255859375e+00 3.968410789966583252e-01 -9.908732771873474121e-01 4.156984854489564896e-03 -2.960148751735687256e-01 1.124680861830711365e-01
3.080000000000000000e+03 6.401142597198486328e+00 1.144097924232482910e+00 -7.653140425682067871e-01 4.958945512771606445e-02 -2.147173881530761719e-01 1.868284940719604492e-01
3.081000000000000000e+03 6.754217147827148438e+00 4.075415134429931641e-01 -1.378617644309997559e+00 8.306526578962802887e-03 -4.110933244228363037e-01 7.503610849380493164e-02
3.082000000000000000e+03 8.290045738220214844e+00 4.184383153915405273e-01 -1.582217812538146973e+00 -2.565272711217403412e-02 -4.823611676692962646e-01 2.816867828369140625e-02
3.083000000000000000e+03 8.727041244506835938e+00 1.158438324928283691e+00 -3.641805052757263184e-01 1.699825376272201538e-01 -5.825938656926155090e-02 -2.318864911794662476e-01
3.084000000000000000e+03 8.965923309326171875e+00 3.453355431556701660e-01 -1.636880278587341309e+00 6.996248383074998856e-03 -4.889652132987976074e-01 6.286507844924926758e-02
3.085000000000000000e+03 9.933238029479980469e+00 7.665475606918334961e-01 -2.089618146419525146e-01 1.547344177961349487e-01 -1.626822352409362793e-02 -5.539699196815490723e-01
3.086000000000000000e+03 9.562136650085449219e+00 9.899879693984985352e-01 5.316960625350475311e-03 2.133501768112182617e-01 6.560014188289642334e-02 -5.117605924606323242e-01
3.087000000000000000e+03 9.891249656677246094e+00 1.144691824913024902e+00 2.689959704875946045e-01 3.316010832786560059e-01 1.801791191101074219e-01 -7.905733585357666016e-01
3.088000000000000000e+03 9.795081138610839844e+00 1.374845862388610840e+00 4.667837321758270264e-01 5.597288012504577637e-01 3.079537749290466309e-01 -9.710417985916137695e-01
3.089000000000000000e+03 9.941503524780273438e+00 9.507601857185363770e-01 2.368669807910919189e-01 2.177793681621551514e-01 1.363939046859741211e-01 -6.818020939826965332e-01
3.090000000000000000e+03 9.296594619750976562e+00 1.121383666992187500e+00 -1.416707485914230347e-01 2.637731432914733887e-01 3.663071990013122559e-02 -4.319868385791778564e-01
3.091000000000000000e+03 9.461864471435546875e+00 3.155647814273834229e-01 -1.657546520233154297e+00 -2.499392069876194000e-02 -5.047621130943298340e-01 1.674528466537594795e-03
3.092000000000000000e+03 7.958559513092041016e+00 1.151500940322875977e+00 -6.703841090202331543e-01 7.835362851619720459e-02 -1.776091456413269043e-01 -7.372327148914337158e-03
3.093000000000000000e+03 5.586549282073974609e+00 1.136841058731079102e+00 -7.012585401535034180e-01 3.841374069452285767e-02 -1.988534331321716309e-01 2.411534041166305542e-01
3.094000000000000000e+03 2.040617704391479492e+00 1.260461091995239258e+00 -1.628260314464569092e-01 -7.573178410530090332e-02 -7.156734168529510498e-02 2.110678404569625854e-01
3.095000000000000000e+03 3.482308387756347656e+00 2.830720841884613037e-01 -5.390670895576477051e-01 -7.270669564604759216e-03 -1.639013290405273438e-01 7.776112109422683716e-02
3.096000000000000000e+03 3.495733022689819336e+00 1.264338970184326172e+00 -3.644818663597106934e-01 -3.313165158033370972e-02 -1.192840561270713806e-01 3.046183288097381592e-01
3.097000000000000000e+03 9.843547821044921875e+00 3.493962287902832031e-01 -1.136982798576354980e+00 8.994879573583602905e-02 -3.141101896762847900e-01 -2.664921991527080536e-02
3.098000000000000000e+03 9.725203514099121094e+00 1.323020309209823608e-01 -1.897212982177734375e+00 3.857237845659255981e-02 -5.575921535491943359e-01 8.394158631563186646e-02
3.099000000000000000e+03 1.284730792045593262e+00 3.252168595790863037e-01 -4.577406868338584900e-02 -1.731862314045429230e-02 -1.892780885100364685e-02 2.719300054013729095e-02
3.100000000000000000e+03 2.746940135955810547e+00 7.710210680961608887e-01 -3.053032457828521729e-01 -1.945760846138000488e-02 -9.742825478315353394e-02 1.795070171356201172e-01
3.101000000000000000e+03 2.740641355514526367e+00 1.261059880256652832e+00 -2.620548307895660400e-01 -4.336407035589218140e-02 -9.162566810846328735e-02 2.656089961528778076e-01
3.102000000000000000e+03 4.241245746612548828e+00 1.285153150558471680e+00 -4.360679388046264648e-01 1.177023909986019135e-02 -1.272893100976943970e-01 2.985348105430603027e-01
3.103000000000000000e+03 4.294826984405517578e+00 8.685230016708374023e-01 -6.213923096656799316e-01 -7.751084049232304096e-04 -1.866502314805984497e-01 2.378165572881698608e-01
3.104000000000000000e+03 9.722191810607910156e+00 8.359173536300659180e-01 -1.394900977611541748e-01 1.450518667697906494e-01 1.668529002927243710e-03 -5.488865375518798828e-01
3.105000000000000000e+03 9.260293006896972656e+00 7.720319628715515137e-01 -6.603337526321411133e-01 2.130949646234512329e-01 -1.341716498136520386e-01 -2.976580858230590820e-01
3.106000000000000000e+03 1.286254596710205078e+01 -4.710350036621093750e-01 2.676125144958496094e+01 2.182545900344848633e+00 8.683138847351074219e+00 4.687995433807373047e+00
3.107000000000000000e+03 1.286338329315185547e+01 -4.904856383800506592e-01 2.767459297180175781e+01 7.993937015533447266e+00 1.070055961608886719e+01 1.374446392059326172e+01
3.108000000000000000e+03 1.286799144744873047e+01 -5.094010829925537109e-01 2.729225158691406250e+01 1.531906414031982422e+01 1.278339481353759766e+01 1.779123115539550781e+01
3.109000000000000000e+03 1.287619304656982422e+01 -5.270575284957885742e-01 2.524478530883789062e+01 2.356170463562011719e+01 1.464194679260253906e+01 2.029912757873535156e+01
3.110000000000000000e+03 1.288767623901367188e+01 -5.427791476249694824e-01 2.285320472717285156e+01 3.173838233947753906e+01 1.637747573852539062e+01 2.063058280944824219e+01
3.111000000000000000e+03 1.290200042724609375e+01 -5.559644699096679688e-01 1.990407371520996094e+01 3.943962097167968750e+01 1.780310821533203125e+01 1.911071968078613281e+01
3.112000000000000000e+03 1.291861724853515625e+01 -5.661087632179260254e-01 1.762039566040039062e+01 4.575286865234375000e+01 1.901198005676269531e+01 1.588132667541503906e+01
3.113000000000000000e+03 1.293689060211181641e+01 -5.728238224983215332e-01 1.611408996582031250e+01 5.009977722167968750e+01 1.986416053771972656e+01 1.143146228790283203e+01
3.114000000000000000e+03 1.295612239837646484e+01 -5.758527517318725586e-01 1.629479598999023438e+01 5.243297958374023438e+01 2.061833381652832031e+01 6.254180431365966797e+00
3.115000000000000000e+03 1.297557640075683594e+01 -5.750796198844909668e-01 1.731689071655273438e+01 5.225786209106445312e+01 2.087242698669433594e+01 1.426714897155761719e+00
3.116000000000000000e+03 1.299450683593750000e+01 -5.705339908599853516e-01 2.004725074768066406e+01 5.040587234497070312e+01 2.113593673706054688e+01 -2.617357730865478516e+00
3.117000000000000000e+03 1.301218986511230469e+01 -5.623897910118103027e-01 2.364683532714843750e+01 4.733961868286132812e+01 2.129593658447265625e+01 -5.305033206939697266e+00
3.118000000000000000e+03 1.302794933319091797e+01 -5.509587526321411133e-01 2.706761550903320312e+01 4.321503448486328125e+01 2.108479499816894531e+01 -6.675788402557373047e+00
3.119000000000000000e+03 1.304118156433105469e+01 -5.366782546043395996e-01 3.061301803588867188e+01 3.974376296997070312e+01 2.110703468322753906e+01 -6.389666557312011719e+00
3.120000000000000000e+03 1.305138015747070312e+01 -5.200948715209960938e-01 3.349906158447265625e+01 3.665290069580078125e+01 2.104558944702148438e+01 -4.924298763275146484e+00
3.121000000000000000e+03 1.305815601348876953e+01 -5.018432140350341797e-01 3.567043685913085938e+01 3.434249877929687500e+01 2.100387954711914062e+01 -2.366158723831176758e+00
3.122000000000000000e+03 1.306124782562255859e+01 -4.826216697692871094e-01 3.644831848144531250e+01 3.317178726196289062e+01 2.088603210449218750e+01 3.274942934513092041e-01
3.123000000000000000e+03 1.306053924560546875e+01 -4.631658494472503662e-01 3.645137023925781250e+01 3.398003005981445312e+01 2.112942123413085938e+01 3.654849290847778320e+00
3.124000000000000000e+03 1.305605602264404297e+01 -4.442203640937805176e-01 3.497042465209960938e+01 3.541363143920898438e+01 2.111521720886230469e+01 6.591720104217529297e+00
3.125000000000000000e+03 1.304796981811523438e+01 -4.265102446079254150e-01 3.230352401733398438e+01 3.824282836914062500e+01 2.116390609741210938e+01 8.939935684204101562e+00
3.126000000000000000e+03 1.303659057617187500e+01 -4.107132554054260254e-01 2.900202560424804688e+01 4.216615676879882812e+01 2.135045433044433594e+01 1.002695846557617188e+01
3.127000000000000000e+03 1.302235412597656250e+01 -3.974338769912719727e-01 2.444755935668945312e+01 4.638187789916992188e+01 2.124883079528808594e+01 9.809100151062011719e+00
3.128000000000000000e+03 1.300580406188964844e+01 -3.871803581714630127e-01 2.019782257080078125e+01 5.014778900146484375e+01 2.110368347167968750e+01 7.956694126129150391e+00
3.129000000000000000e+03 1.298757457733154297e+01 -3.803450763225555420e-01 1.627910995483398438e+01 5.315182495117187500e+01 2.082927894592285156e+01 4.338067054748535156e+00
3.130000000000000000e+03 1.296836280822753906e+01 -3.771896064281463623e-01 1.325216484069824219e+01 5.421764373779296875e+01 2.024094390869140625e+01 -3.038401603698730469e-01
3.131000000000000000e+03 1.294890499114990234e+01 -3.778347373008728027e-01 1.174904537200927734e+01 5.317829513549804688e+01 1.947820281982421875e+01 -5.774644374847412109e+00
3.132000000000000000e+03 1.292994499206542969e+01 -3.822557330131530762e-01 1.155350303649902344e+01 4.976895904541015625e+01 1.839673805236816406e+01 -1.089445877075195312e+01
3.133000000000000000e+03 1.291220855712890625e+01 -3.902834355831146240e-01 1.304169750213623047e+01 4.403717041015625000e+01 1.712366104125976562e+01 -1.536851882934570312e+01
3.134000000000000000e+03 1.289637374877929688e+01 -4.016106128692626953e-01 1.489521121978759766e+01 3.663636398315429688e+01 1.545947265625000000e+01 -1.826925849914550781e+01
3.135000000000000000e+03 1.288304805755615234e+01 -4.158037900924682617e-01 1.808045387268066406e+01 2.786347007751464844e+01 1.378317737579345703e+01 -1.918890571594238281e+01
3.136000000000000000e+03 1.287273979187011719e+01 -4.323198199272155762e-01 2.049316787719726562e+01 1.858067131042480469e+01 1.172215175628662109e+01 -1.806878280639648438e+01
3.137000000000000000e+03 1.286584472656250000e+01 -4.505266249179840088e-01 2.478273200988769531e+01 7.606913089752197266e+00 9.716893196105957031e+00 -1.197053527832031250e+01
