# el_label, x, y, sXX, sYY, sZZ, sXY
1.000000000000000000e+00 1.628620338439941406e+01 -1.255944609642028809e+00 -4.099265635013580322e-01 -1.060863677412271500e-02 -1.261605620384216309e-01 5.142223834991455078e-02
2.000000000000000000e+00 1.779829025268554688e+01 -2.059187889099121094e+00 -2.326107770204544067e-01 -1.336257532238960266e-02 -7.379201054573059082e-02 7.480198889970779419e-02
3.000000000000000000e+00 1.623538208007812500e+01 -1.994474172592163086e+00 -3.069631755352020264e-01 -1.899092458188533783e-02 -9.778622537851333618e-02 9.117980301380157471e-02
4.000000000000000000e+00 1.858121871948242188e+01 -2.091711521148681641e+00 -1.855198591947555542e-01 -1.908031292259693146e-02 -6.138005107641220093e-02 6.576599180698394775e-02
5.000000000000000000e+00 1.856809425354003906e+01 -1.350533485412597656e+00 -2.556292116641998291e-01 -7.328727282583713531e-03 -7.888738811016082764e-02 2.642920985817909241e-02
6.000000000000000000e+00 1.704577255249023438e+01 -1.287305474281311035e+00 -3.477804660797119141e-01 -3.815924981608986855e-03 -1.054789200425148010e-01 4.095913469791412354e-02
7.000000000000000000e+00 1.701626777648925781e+01 -2.026717901229858398e+00 -2.741051316261291504e-01 -1.418713480234146118e-02 -8.648768067359924316e-02 8.623100817203521729e-02
8.000000000000000000e+00 1.780648040771484375e+01 -1.318892598152160645e+00 -2.961015105247497559e-01 -4.386508371680974960e-03 -9.014640003442764282e-02 3.570807352662086487e-02
9.000000000000000000e+00 2.016102409362792969e+01 -1.984116315841674805e+00 -1.255552768707275391e-01 -1.155211962759494781e-02 -4.113221913576126099e-02 3.709955140948295593e-02
1.000000000000000000e+01 1.932956504821777344e+01 -1.326877713203430176e+00 -2.047231346368789673e-01 -7.115441840142011642e-03 -6.355157494544982910e-02 1.164705492556095123e-02
1.100000000000000000e+01 2.095439147949218750e+01 -1.900163888931274414e+00 -1.006036028265953064e-01 -8.073439821600914001e-03 -3.260311484336853027e-02 1.740049757063388824e-02
1.200000000000000000e+01 1.936882019042968750e+01 -2.066858530044555664e+00 -1.507874578237533569e-01 -1.527295634150505066e-02 -4.981812462210655212e-02 5.645909160375595093e-02
1.300000000000000000e+01 2.174835014343261719e+01 -1.814883351325988770e+00 -8.348999172449111938e-02 -1.141472067683935165e-02 -2.847141399979591370e-02 6.479626055806875229e-03
1.400000000000000000e+01 2.161623764038085938e+01 -1.084643244743347168e+00 -1.061644256114959717e-01 -3.982551395893096924e-03 -3.304409235715866089e-02 -7.650666404515504837e-03
1.500000000000000000e+01 2.009082221984863281e+01 -1.247412800788879395e+00 -1.523027420043945312e-01 -9.405412711203098297e-04 -4.597298428416252136e-02 1.701425178907811642e-03
1.600000000000000000e+01 2.085324478149414062e+01 -1.166737556457519531e+00 -1.222398281097412109e-01 -2.899989718571305275e-03 -3.754194453358650208e-02 -1.924791722558438778e-03
1.700000000000000000e+01 2.379194641113281250e+01 -9.929092526435852051e-01 -7.982526719570159912e-02 1.004386786371469498e-02 -2.093441970646381378e-02 7.250708062201738358e-03
1.800000000000000000e+01 2.349235153198242188e+01 -1.466013431549072266e+00 -1.020710915327072144e-01 7.931689731776714325e-03 -2.824182063341140747e-02 -8.413983508944511414e-03
1.900000000000000000e+01 2.485333633422851562e+01 -1.035431027412414551e+00 -1.083841845393180847e-01 -1.534906495362520218e-02 -3.711997345089912415e-02 4.135444760322570801e-02
2.000000000000000000e+01 2.443948364257812500e+01 -6.615749597549438477e-01 -3.477765992283821106e-02 -2.599502215161919594e-03 -1.121314801275730133e-02 1.372605562210083008e-02
2.100000000000000000e+01 2.403339767456054688e+01 -2.786582112312316895e-01 -1.591202802956104279e-02 -2.093566145049408078e-04 -4.836415406316518784e-03 1.874786219559609890e-03
2.200000000000000000e+01 2.327892684936523438e+01 -5.916076898574829102e-01 -5.063726380467414856e-02 1.365206087939441204e-03 -1.478161755949258804e-02 -1.909748883917927742e-03
2.300000000000000000e+01 2.244556808471679688e+01 -9.079747796058654785e-01 -8.321604132652282715e-02 1.085533061996102333e-03 -2.463915199041366577e-02 -8.103713393211364746e-03
2.400000000000000000e+01 2.261844444274902344e+01 -1.630605101585388184e+00 -8.523309975862503052e-02 4.785628058016300201e-03 -2.413424104452133179e-02 -3.755062818527221680e-03
2.500000000000000000e+01 2.424050903320312500e+01 -1.300757288932800293e+00 -1.231755837798118591e-01 2.222099713981151581e-02 -3.028637543320655823e-02 -1.907227997435256839e-04
2.600000000000000000e+01 2.299460601806640625e+01 8.182935714721679688e-01 -2.490309498170972802e-06 -1.094922140509879682e-06 -1.075569457498204429e-06 -2.315562142030103132e-06
2.700000000000000000e+01 2.290218925476074219e+01 -4.239485040307044983e-02 -1.106358453739630932e-07 -2.345910388612537645e-06 -7.369638410636980552e-07 5.068508244221447967e-07
2.800000000000000000e+01 2.196019172668457031e+01 6.625256538391113281e-01 1.125029393733711913e-05 4.492584594117943197e-06 4.722863650385988876e-06 6.045817372068995610e-06
2.900000000000000000e+01 2.221916389465332031e+01 -2.854320704936981201e-01 1.783372226782375947e-06 2.515413143555633724e-06 1.289635520151932724e-06 -6.175911266836919822e-07
3.000000000000000000e+01 2.357227516174316406e+01 2.119392603635787964e-01 7.447567327290016692e-07 1.163275442195299547e-06 5.724096467929484788e-07 4.626306235877564177e-07
3.100000000000000000e+01 2.249470710754394531e+01 4.821806550025939941e-01 -1.857939764704497065e-06 -8.093168162304209545e-07 -8.001769629117916338e-07 9.510884524388529826e-07
3.200000000000000000e+01 2.204356956481933594e+01 1.772505939006805420e-01 -5.118920853419695050e-06 1.129826614487683401e-06 -1.196728362629073672e-06 -2.997059709741733968e-06
3.300000000000000000e+01 2.032857894897460938e+01 3.672832548618316650e-01 3.945609023503493518e-06 4.339869974501198158e-06 2.485643790350877680e-06 2.325312607354135253e-06
3.400000000000000000e+01 2.136629676818847656e+01 3.529261425137519836e-02 5.248959496384486556e-06 5.846767336947777949e-08 1.592228159097430762e-06 2.475725295880693011e-06
3.500000000000000000e+01 2.012214088439941406e+01 -5.437968373298645020e-01 -1.265328819499700330e-06 -3.847645530186127871e-06 -1.533892259431013372e-06 -3.718523373663629172e-07
3.600000000000000000e+01 2.122879219055175781e+01 5.218483209609985352e-01 -6.725319963152287528e-06 -3.253655904700281098e-06 -2.993692760355770588e-06 -3.143551566608948633e-06
3.700000000000000000e+01 1.938433074951171875e+01 2.124629318714141846e-01 -2.345031134609598666e-06 -5.106403023091843352e-06 -2.235430201835697517e-06 -1.455025653740449343e-06
3.800000000000000000e+01 1.936666107177734375e+01 -5.335462689399719238e-01 1.055857751453004312e-06 2.716363042054581456e-06 1.131666181208856869e-06 1.042979192789061926e-06
3.900000000000000000e+01 2.077547073364257812e+01 -5.444256067276000977e-01 1.028036876959959045e-06 4.003793037554714829e-06 1.509548951617034618e-06 9.375054901283874642e-07
4.000000000000000000e+01 2.149132919311523438e+01 -4.403701424598693848e-01 -2.424569174763746560e-06 -2.722669250942999497e-06 -1.544171482237288728e-06 -2.353182537717657397e-07
4.100000000000000000e+01 2.057812309265136719e+01 -1.356525272130966187e-01 -2.666558430064469576e-06 -4.028233604458364425e-07 -9.208145002048695460e-07 -2.637522356963017955e-06
4.200000000000000000e+01 1.707793617248535156e+01 -5.109162330627441406e-01 -6.336831006592547055e-07 -5.979899015073897317e-06 -1.984074742722441442e-06 -5.179148274692124687e-07
4.300000000000000000e+01 1.633993148803710938e+01 -4.782602787017822266e-01 6.645316830145020504e-07 5.840018729941220954e-06 1.951365220520528965e-06 3.899535556683986215e-07
4.400000000000000000e+01 1.781616592407226562e+01 -5.415064096450805664e-01 6.150376066216267645e-07 5.489471277542179450e-06 1.831352619774406776e-06 6.961190592846833169e-07
4.500000000000000000e+01 1.854128074645996094e+01 1.711868941783905029e-01 1.927961875480832532e-06 6.889979431434767321e-06 2.645382437549415044e-06 1.862235308180970605e-06
4.600000000000000000e+01 1.855440711975097656e+01 -5.699911117553710938e-01 -5.343401880963938311e-07 -4.259295565134380013e-06 -1.438090748706599697e-06 -9.659893294156063348e-07
4.700000000000000000e+01 1.639075088500976562e+01 2.602692842483520508e-01 -1.854268816714466084e-06 -6.732291240041377023e-06 -2.575967982920701616e-06 -6.218101589183788747e-07
4.800000000000000000e+01 1.710744285583496094e+01 2.284961640834808350e-01 1.723843638501421083e-06 6.757541541446698830e-06 2.544415565353119746e-06 9.956393114407546818e-07
4.900000000000000000e+01 1.782435607910156250e+01 1.987887471914291382e-01 -1.530955842099501751e-06 -6.665884484391426668e-06 -2.459051984260440804e-06 -1.622867330297594890e-06
5.000000000000000000e+01 1.421318435668945312e+01 5.040000677108764648e-01 2.066755541818565689e-06 5.606725153484148905e-06 2.302044322277652100e-06 6.588909400306874886e-07
5.100000000000000000e+01 1.412459087371826172e+01 -2.306861728429794312e-01 -7.575516747237998061e-07 -4.336229721957352012e-06 -1.528134362160926685e-06 -5.452009759210341144e-07
5.200000000000000000e+01 1.338628387451171875e+01 -1.375386416912078857e-01 6.087094561735284515e-07 3.981341706094099209e-06 1.377015337311604526e-06 5.139530685482895933e-07
5.300000000000000000e+01 1.486306858062744141e+01 -3.233485221862792969e-01 7.486389108635194134e-07 4.727159193862462416e-06 1.642739448470820207e-06 4.586232762449071743e-07
5.400000000000000000e+01 1.566856193542480469e+01 3.219058215618133545e-01 2.249523959108046256e-06 6.429687346098944545e-06 2.603763505248934962e-06 3.556875185495300684e-07
5.500000000000000000e+01 1.560165977478027344e+01 -4.155019819736480713e-01 -7.678513611608650535e-07 -5.282288384478306398e-06 -1.815041969166486524e-06 -3.560229799859371269e-07
5.600000000000000000e+01 1.348572158813476562e+01 5.957868695259094238e-01 -1.986090410355245695e-06 -5.317011527949944139e-06 -2.190930672441027127e-06 -8.010716214812418912e-07
5.700000000000000000e+01 1.494081592559814453e+01 4.126985073089599609e-01 -2.227429831691551954e-06 -6.045464033377356827e-06 -2.481868023096467368e-06 -5.524868811335181817e-07
5.800000000000000000e+01 1.115022563934326172e+01 2.165033817291259766e-01 -6.424331786547554657e-07 -2.940061904155299999e-06 -1.074748524843016639e-06 -3.142278899304074002e-07
5.900000000000000000e+01 1.122651290893554688e+01 9.537453055381774902e-01 1.436724346604023594e-06 4.252037797414232045e-06 1.706628609099425375e-06 5.148641548657906242e-07
6.000000000000000000e+01 1.040434932708740234e+01 3.321511745452880859e-01 6.039702498128463048e-07 2.754821707640076056e-06 1.007637592920218594e-06 3.761176117222930770e-07
6.100000000000000000e+01 1.189680099487304688e+01 9.631319344043731689e-02 5.115761609886249062e-07 3.181190550094470382e-06 1.107830030377954245e-06 4.087523564066941617e-07
6.200000000000000000e+01 1.274307727813720703e+01 7.053368687629699707e-01 1.783611992323130835e-06 4.925480425299610943e-06 2.012727691180771217e-06 5.986905762256355956e-07
6.300000000000000000e+01 1.264393043518066406e+01 -2.822761237621307373e-02 -7.437897693307604641e-07 -3.520397285683429800e-06 -1.279256139241624624e-06 -4.350002882347325794e-07
6.400000000000000000e+01 1.046920776367187500e+01 1.071231842041015625e+00 -2.368500418015173636e-06 -3.879689757013693452e-06 -1.874457097983395215e-06 -5.169536052562762052e-07
6.500000000000000000e+01 1.198451900482177734e+01 8.317164182662963867e-01 -1.934117108248756267e-06 -4.564169103105086833e-06 -1.949485749719315208e-06 -5.774625151389045641e-07
6.600000000000000000e+01 8.874713897705078125e+00 3.907073438167572021e-01 2.890708969971456099e-07 2.692044290597550571e-06 8.943345619627507403e-07 2.044430118530726759e-07
6.700000000000000000e+01 9.645540237426757812e+00 3.903963863849639893e-01 -5.482938263412506785e-07 -2.763690645224414766e-06 -9.935953357853577472e-07 -4.468189729323057691e-07
6.800000000000000000e+01 7.374577522277832031e+00 1.131132245063781738e+00 -1.581742935741203837e-06 -2.932053348558838479e-06 -1.354138930764747784e-06 -2.168497985621797852e-07
6.900000000000000000e+01 7.331357002258300781e+00 3.911322057247161865e-01 2.152416698208980961e-07 2.236107093267492019e-06 7.354046260843460914e-07 1.905081035147304647e-07
7.000000000000000000e+01 5.045433998107910156e+00 1.131745219230651855e+00 9.849017033047857694e-07 2.175632971557206474e-06 9.481604479333327617e-07 1.815688079886967898e-07
7.100000000000000000e+01 2.715631723403930664e+00 1.131616950035095215e+00 -9.658441513238358311e-07 -1.405019816047570202e-06 -7.112591902114218101e-07 2.731307624515011412e-08
7.200000000000000000e+01 2.699708461761474609e+00 3.916168808937072754e-01 2.880305771668645320e-07 7.800823595971451141e-07 3.204338838713738369e-07 2.446195068728229671e-08
7.300000000000000000e+01 1.939137935638427734e+00 1.131583452224731445e+00 8.433131597485044040e-07 1.102060423363582231e-06 5.836120635649422184e-07 3.039059448539660480e-09
7.400000000000000000e+01 1.927764058113098145e+00 3.915834426879882812e-01 -2.929278934971080162e-07 -5.099878990222350694e-07 -2.408747263871191535e-07 -9.381878607328530961e-10
7.500000000000000000e+01 1.156864285469055176e+00 3.912966847419738770e-01 3.106174233380443184e-07 2.758032735528104240e-07 1.759262033829145366e-07 4.988404356254250160e-08
7.600000000000000000e+01 3.880036771297454834e-01 1.130522727966308594e+00 6.525395406242751051e-07 2.335490592031419510e-07 2.658265714217122877e-07 -3.367310341673146468e-08
7.700000000000000000e+01 3.857289254665374756e-01 3.905227184295654297e-01 -1.888398344362940406e-07 -9.220740793125514756e-08 -8.431417342080749222e-08 -4.786817697777223657e-08
7.800000000000000000e+01 4.243989944458007812e+00 3.916435539722442627e-01 2.674767927146604052e-07 1.316939801654370967e-06 4.753249527311709244e-07 8.011688379383485881e-08
7.900000000000000000e+01 3.472155570983886719e+00 3.916060328483581543e-01 -3.767459020309615880e-07 -1.060312683875963558e-06 -4.311175700877356576e-07 -1.729080345569400379e-08
8.000000000000000000e+01 4.269012451171875000e+00 1.131643533706665039e+00 -1.166851689049508423e-06 -1.922561068568029441e-06 -9.268238159165775869e-07 -2.008555632926345424e-08
8.100000000000000000e+01 5.015861988067626953e+00 3.917452692985534668e-01 -5.089898422738770023e-07 -1.561745420985971577e-06 -6.212205789779545739e-07 -6.534408214520226466e-08
8.200000000000000000e+01 5.788088321685791016e+00 3.919011354446411133e-01 2.293730005931138294e-07 1.793774345060228370e-06 6.069441838008060586e-07 1.385532897302255151e-07
8.300000000000000000e+01 6.598729610443115234e+00 1.131563067436218262e+00 1.070145344783668406e-06 2.698499429243383929e-06 1.130593432208115701e-06 2.446001019507093588e-07
8.400000000000000000e+01 6.560058593750000000e+00 3.915631175041198730e-01 -6.443796678468061145e-07 -2.014356596191646531e-06 -7.976208848958776798e-07 -1.312813537879264913e-07
8.500000000000000000e+01 8.103197097778320312e+00 3.908808529376983643e-01 -7.406957820421666838e-07 -2.432315113765071146e-06 -9.519033028482226655e-07 -2.078609497857542010e-07
8.600000000000000000e+01 8.150966644287109375e+00 1.130880832672119141e+00 1.168853486888110638e-06 3.208303724022698589e-06 1.313147095061140135e-06 3.095564693467167672e-07
8.700000000000000000e+01 8.927033424377441406e+00 1.130707383155822754e+00 -1.747326450640684925e-06 -3.256154514019726776e-06 -1.501044266660755966e-06 -4.419039782987965737e-07
8.800000000000000000e+01 9.702409744262695312e+00 1.130396366119384766e+00 7.521841212110302877e-07 3.411156967558781616e-06 1.249002252734499052e-06 6.320496481748705264e-07
8.900000000000000000e+01 5.822209835052490234e+00 1.131901144981384277e+00 -1.387368001815048046e-06 -2.423498926873435266e-06 -1.143260078606544994e-06 -1.037862205066630850e-07
9.000000000000000000e+01 3.492628335952758789e+00 1.131605982780456543e+00 9.098311011257464997e-07 1.645597194510628469e-06 7.666284886909124907e-07 8.826549446894205175e-08
9.100000000000000000e+01 1.163688659667968750e+00 1.131296634674072266e+00 -8.719902098164311610e-07 -7.258564096446207259e-07 -4.793540142600249965e-07 5.104110201159528515e-08
9.200000000000000000e+01 1.328147125244140625e+01 -9.107246994972229004e-01 -5.156655907630920410e-01 -1.031124684959650040e-02 -1.577930599451065063e-01 7.260162383317947388e-02
9.300000000000000000e+01 1.470345211029052734e+01 -1.836183547973632812e+00 -3.792819678783416748e-01 -1.054987218230962753e-02 -1.169495582580566406e-01 8.241504430770874023e-02
9.400000000000000000e+01 1.318203258514404297e+01 -1.644050240516662598e+00 -4.120906591415405273e-01 -4.735232330858707428e-03 -1.250477731227874756e-01 6.781639903783798218e-02
9.500000000000000000e+01 1.478120040893554688e+01 -1.100136518478393555e+00 -4.748172760009765625e-01 -8.923397399485111237e-03 -1.451222002506256104e-01 7.127219438552856445e-02
9.600000000000000000e+01 1.546425342559814453e+01 -1.930399060249328613e+00 -3.430130183696746826e-01 -1.735739037394523621e-02 -1.081111282110214233e-01 8.552783727645874023e-02
9.700000000000000000e+01 1.553115558624267578e+01 -1.192991256713867188e+00 -4.536912143230438232e-01 -1.348150614649057388e-02 -1.401518136262893677e-01 6.532560288906097412e-02
9.800000000000000000e+01 1.403127861022949219e+01 -1.006039500236511230e+00 -4.971851408481597900e-01 -8.893912658095359802e-03 -1.518237143754959106e-01 7.141604274511337280e-02
9.900000000000000000e+01 1.394268608093261719e+01 -1.740725755691528320e+00 -4.006361067295074463e-01 -5.511978641152381897e-03 -1.218444332480430603e-01 7.865943759679794312e-02
1.000000000000000000e+02 1.159435653686523438e+01 -2.131494045257568359e+00 -3.540171384811401367e-01 3.325240314006805420e-02 -9.622941911220550537e-02 2.337776869535446167e-02
1.010000000000000000e+02 3.680570125579833984e+00 -1.888748168945312500e+00 -1.117386296391487122e-01 -1.829620450735092163e-02 -3.901045024394989014e-02 -1.031212210655212402e-01
1.020000000000000000e+02 3.527050912380218506e-01 -9.154840469360351562e+00 -2.781533636152744293e-03 -7.800138592720031738e-01 -2.348386198282241821e-01 -5.900121107697486877e-02
1.030000000000000000e+02 1.091718387603759766e+01 -1.642988967895507812e+01 2.216287374496459961e+00 2.623503506183624268e-01 7.435913085937500000e-01 6.151440143585205078e-01
1.040000000000000000e+02 1.014403533935546875e+01 -1.657627677917480469e+01 2.438730716705322266e+00 3.262540996074676514e-01 8.294954299926757812e-01 8.263418674468994141e-01
1.050000000000000000e+02 1.251357841491699219e+01 -1.628203010559082031e+01 2.046169996261596680e+00 1.367162764072418213e-01 6.548658609390258789e-01 5.407187342643737793e-02
1.060000000000000000e+02 1.488597679138183594e+01 -1.686032485961914062e+01 7.754449248313903809e-01 5.983750149607658386e-02 2.505847215652465820e-01 -1.984606087207794189e-01
1.070000000000000000e+02 1.716968345642089844e+01 -1.475109577178955078e+01 6.113417148590087891e-01 -1.072040349245071411e-01 1.512413024902343750e-01 2.194565534591674805e-01
1.080000000000000000e+02 1.776080322265625000e+01 -2.764686822891235352e+00 -1.649994999170303345e-01 -2.504491992294788361e-02 -5.701332539319992065e-02 1.091639176011085510e-01
1.090000000000000000e+02 1.616290283203125000e+01 -2.690571784973144531e+00 -2.337798178195953369e-01 -1.742247678339481354e-02 -7.536068558692932129e-02 1.144795194268226624e-01
1.100000000000000000e+02 1.537389087677001953e+01 -2.624163866043090820e+00 -2.657478153705596924e-01 -1.237070467323064804e-02 -8.343555778264999390e-02 1.093700602650642395e-01
1.110000000000000000e+02 1.459900379180908203e+01 -2.532007932662963867e+00 -2.957983314990997314e-01 -4.610623698681592941e-03 -9.012268483638763428e-02 9.685545414686203003e-02
1.120000000000000000e+02 1.145570945739746094e+01 -2.815265655517578125e+00 -3.043973147869110107e-01 5.641543492674827576e-02 -7.439456135034561157e-02 1.901479065418243408e-02
1.130000000000000000e+02 1.022335433959960938e+01 -1.353602886199951172e+01 6.529642343521118164e-01 8.461301922798156738e-01 4.497283399105072021e-01 4.750928580760955811e-01
1.140000000000000000e+02 1.181882762908935547e+01 -1.486144447326660156e+01 1.296715617179870605e+00 4.561731517314910889e-01 5.258666276931762695e-01 4.825435876846313477e-01
1.150000000000000000e+02 1.044781923294067383e+00 -1.079698467254638672e+01 -4.846960771828889847e-03 -8.875245451927185059e-01 -2.677114605903625488e-01 -1.873608827590942383e-01
1.160000000000000000e+02 3.488864302635192871e-01 -1.799314689636230469e+01 1.685559749603271484e-02 -2.216316938400268555e+00 -6.598384380340576172e-01 2.605168614536523819e-03
1.170000000000000000e+02 6.787755012512207031e+00 -2.025456809997558594e+01 6.449569463729858398e-01 3.411818742752075195e+00 1.217032790184020996e+00 1.293531298637390137e+00
1.180000000000000000e+02 3.544728755950927734e-01 -1.638412666320800781e+01 1.623344235122203827e-02 -2.130509614944458008e+00 -6.342828869819641113e-01 -3.971167281270027161e-02
1.190000000000000000e+02 8.303773880004882812e+00 -1.742793846130371094e+01 2.492275714874267578e+00 2.310644865036010742e+00 1.440876126289367676e+00 1.948876023292541504e+00
1.200000000000000000e+02 8.623863220214843750e+00 -1.663516998291015625e+01 2.172410488128662109e+00 1.722779512405395508e+00 1.168557047843933105e+00 1.310219645500183105e+00
1.210000000000000000e+02 7.445928573608398438e+00 -1.876483917236328125e+01 1.142821669578552246e+00 3.365835189819335938e+00 1.352596998214721680e+00 1.740956664085388184e+00
1.220000000000000000e+02 5.541742801666259766e+00 -2.167419242858886719e+01 4.614169001579284668e-01 2.077119112014770508e+00 7.615607976913452148e-01 8.503640294075012207e-01
1.230000000000000000e+02 6.300332069396972656e+00 -2.183996772766113281e+01 3.110820055007934570e-01 3.078691244125366211e+00 1.016932010650634766e+00 8.049846291542053223e-01
1.240000000000000000e+02 6.142774105072021484e+00 -2.350527191162109375e+01 5.195599049329757690e-02 2.051279544830322266e+00 6.309706568717956543e-01 3.193970620632171631e-01
1.250000000000000000e+02 3.942944705486297607e-01 -2.838776397705078125e+01 -1.002184487879276276e-02 1.582498908042907715e+00 4.717431366443634033e-01 1.151680126786231995e-01
1.260000000000000000e+02 8.147734642028808594e+00 -2.877444839477539062e+01 -1.083827137947082520e+00 -9.356223940849304199e-01 -6.058348417282104492e-01 9.975202083587646484e-01
1.270000000000000000e+02 6.483027458190917969e+00 -2.685117149353027344e+01 -5.871467590332031250e-01 -6.235895752906799316e-01 -3.632209002971649170e-01 6.378594040870666504e-01
1.280000000000000000e+02 3.814757466316223145e-01 -3.001720619201660156e+01 -9.884520433843135834e-03 1.915149807929992676e+00 5.715795755386352539e-01 5.336737632751464844e-02
1.290000000000000000e+02 9.360435485839843750e+00 -2.986076164245605469e+01 -1.820183396339416504e+00 -1.034500241279602051e+00 -8.564051389694213867e-01 1.177991747856140137e+00
1.300000000000000000e+02 8.736025810241699219e+00 -2.933080482482910156e+01 -1.284840822219848633e+00 -1.024217844009399414e+00 -6.927176117897033691e-01 1.111826896667480469e+00
1.310000000000000000e+02 1.007138538360595703e+01 -3.028009796142578125e+01 -2.142794847488403320e+00 -6.521166563034057617e-01 -8.384734392166137695e-01 9.580833315849304199e-01
1.320000000000000000e+02 4.402663707733154297e-01 -3.648204421997070312e+01 1.055034436285495758e-02 1.798415303230285645e+00 5.426896810531616211e-01 -2.686150558292865753e-02
1.330000000000000000e+02 1.252960920333862305e+00 -3.486705780029296875e+01 -9.336169809103012085e-03 1.622568130493164062e+00 4.839695990085601807e-01 -6.427493691444396973e-02
1.340000000000000000e+02 4.673147201538085938e+00 -3.821837997436523438e+01 6.014924123883247375e-02 6.466767191886901855e-01 2.120477855205535889e-01 -1.087744534015655518e-01
1.350000000000000000e+02 1.127124118804931641e+01 -3.611406326293945312e+01 -1.871027648448944092e-01 -3.509791195392608643e-01 -1.614245623350143433e-01 1.825836449861526489e-01
1.360000000000000000e+02 1.402420425415039062e+01 -3.121103096008300781e+01 -1.226533412933349609e+00 -7.046602666378021240e-02 -3.890998065471649170e-01 2.606449127197265625e-01
1.370000000000000000e+02 9.743249893188476562e+00 -3.093023872375488281e+01 -1.314336299896240234e+00 -7.430102825164794922e-01 -6.172040104866027832e-01 6.440969109535217285e-01
1.380000000000000000e+02 1.804936981201171875e+01 -3.781961441040039062e+01 -2.148152440786361694e-01 -1.854376345872879028e-01 -1.200758665800094604e-01 1.006880626082420349e-01
1.390000000000000000e+02 1.672915840148925781e+01 -3.584809875488281250e+01 -4.393487274646759033e-01 -2.106076031923294067e-01 -1.949868947267532349e-01 1.336310207843780518e-01
1.400000000000000000e+02 1.885318565368652344e+01 -3.162128639221191406e+01 -1.034345746040344238e+00 -8.111224509775638580e-03 -3.127371072769165039e-01 -2.490522898733615875e-02
1.410000000000000000e+02 1.723391532897949219e+01 -3.164971160888671875e+01 -1.153070449829101562e+00 -2.770302630960941315e-02 -3.542320430278778076e-01 7.835330814123153687e-02
1.420000000000000000e+02 2.206163978576660156e+01 -3.693370819091796875e+01 -2.729855775833129883e-01 7.217635214328765869e-02 -6.024276465177536011e-02 1.129342839121818542e-01
1.430000000000000000e+02 1.998094367980957031e+01 -3.615353775024414062e+01 -3.656615912914276123e-01 -8.200097829103469849e-02 -1.342987716197967529e-01 8.542355895042419434e-02
1.440000000000000000e+02 2.942837524414062500e+01 -3.080608367919921875e+01 4.991133809089660645e-01 4.238436818122863770e-01 2.768871188163757324e-01 5.856574773788452148e-01
1.450000000000000000e+02 2.536987113952636719e+01 -3.130865478515625000e+01 -8.996309041976928711e-01 3.864848986268043518e-02 -2.582947313785552979e-01 -4.704754427075386047e-02
1.460000000000000000e+02 2.870375442504882812e+01 -3.907812118530273438e+01 -5.884122252464294434e-01 1.652071714401245117e+00 3.190978765487670898e-01 4.066586196422576904e-01
1.470000000000000000e+02 3.095098114013671875e+01 -3.693410873413085938e+01 -7.708434462547302246e-01 2.440943717956542969e+00 5.010300874710083008e-01 7.899169921875000000e-01
1.480000000000000000e+02 3.094002914428710938e+01 -3.010473442077636719e+01 1.799588322639465332e+00 1.644869804382324219e+00 1.033337473869323730e+00 1.625147223472595215e+00
1.490000000000000000e+02 2.978948593139648438e+01 -3.162331581115722656e+01 2.967863380908966064e-01 1.149876952171325684e+00 4.339989721775054932e-01 1.106070518493652344e+00
1.500000000000000000e+02 3.723478698730468750e+01 -3.842121887207031250e+01 -1.377338171005249023e+00 3.626292467117309570e+00 6.746862530708312988e-01 8.708368241786956787e-02
1.510000000000000000e+02 4.179953384399414062e+01 -4.096843338012695312e+01 -1.289529204368591309e+00 3.072109699249267578e+00 5.347741246223449707e-01 -1.080978736281394958e-01
1.520000000000000000e+02 4.673651504516601562e+01 -2.206618499755859375e+01 -1.983000151813030243e-02 2.003533244132995605e-01 5.415699630975723267e-02 -7.612672448158264160e-02
1.530000000000000000e+02 4.447949981689453125e+01 -1.978241920471191406e+01 7.553435564041137695e-01 1.685248732566833496e+00 7.321776747703552246e-01 -1.128067374229431152e+00
1.540000000000000000e+02 4.293817901611328125e+01 -1.788842773437500000e+01 1.796462774276733398e+00 7.277162551879882812e+00 2.722087621688842773e+00 -3.339820146560668945e+00
1.550000000000000000e+02 4.254320907592773438e+01 -1.716354179382324219e+01 1.816147565841674805e+00 1.076412963867187500e+01 3.774083137512207031e+00 -3.632541656494140625e+00
1.560000000000000000e+02 3.519845581054687500e+01 -2.102016639709472656e+01 1.794620752334594727e-01 8.771701812744140625e+00 2.685349225997924805e+00 4.478476941585540771e-02
1.570000000000000000e+02 3.477765274047851562e+01 -1.977563858032226562e+01 -5.231958627700805664e-01 5.172916889190673828e+00 1.394916296005249023e+00 -8.991239964962005615e-02
1.580000000000000000e+02 3.550374984741210938e+01 -2.036710929870605469e+01 -9.047603607177734375e-02 7.354812622070312500e+00 2.179301023483276367e+00 6.291406154632568359e-01
1.590000000000000000e+02 3.508520507812500000e+01 -2.253951644897460938e+01 3.093738853931427002e-02 1.022573947906494141e+01 3.077003002166748047e+00 4.487116038799285889e-01
1.600000000000000000e+02 3.541369247436523438e+01 -2.522222328186035156e+01 2.008062839508056641e+00 1.013460350036621094e+01 3.642799854278564453e+00 2.052984714508056641e+00
1.610000000000000000e+02 3.483427810668945312e+01 -2.491808891296386719e+01 1.724498867988586426e+00 1.333058166503906250e+01 4.516523838043212891e+00 3.423046350479125977e+00
1.620000000000000000e+02 3.223465347290039062e+01 -2.906421089172363281e+01 2.323037385940551758e+00 3.316791534423828125e+00 1.691948652267456055e+00 2.651040554046630859e+00
1.630000000000000000e+02 3.399857330322265625e+01 -2.841202735900878906e+01 1.477884769439697266e+00 5.966311454772949219e+00 2.233258962631225586e+00 2.385839700698852539e+00
1.640000000000000000e+02 3.514868545532226562e+01 -2.808477783203125000e+01 9.687929153442382812e-01 6.761256694793701172e+00 2.319015026092529297e+00 1.651440739631652832e+00
1.650000000000000000e+02 4.519450759887695312e+01 -3.960937500000000000e+01 -1.020084857940673828e+00 2.396140575408935547e+00 4.128167331218719482e-01 -2.364196181297302246e-01
1.660000000000000000e+02 4.350244522094726562e+01 -3.710846328735351562e+01 -1.079247713088989258e+00 2.912346363067626953e+00 5.499295592308044434e-01 -4.261406958103179932e-01
1.670000000000000000e+02 5.133958053588867188e+01 -2.948195266723632812e+01 -4.378903508186340332e-01 1.493794322013854980e-01 -8.655328303575515747e-02 9.100677073001861572e-02
1.680000000000000000e+02 5.178023910522460938e+01 -2.720255088806152344e+01 -3.547197580337524414e-01 -2.806492447853088379e-01 -1.906106919050216675e-01 3.147169351577758789e-01
1.690000000000000000e+02 5.012252807617187500e+01 -2.545858573913574219e+01 -2.430151700973510742e-01 -2.126776278018951416e-01 -1.367078423500061035e-01 2.274582087993621826e-01
1.700000000000000000e+02 4.831710052490234375e+01 -4.116336822509765625e+01 -7.755690217018127441e-01 1.622931599617004395e+00 2.542087733745574951e-01 -1.171789690852165222e-01
1.710000000000000000e+02 5.303391265869140625e+01 -3.715692138671875000e+01 -6.302306056022644043e-01 3.828549087047576904e-01 -7.421271502971649170e-02 -4.801163971424102783e-01
1.720000000000000000e+02 5.576805114746093750e+01 -3.125057029724121094e+01 -1.333253979682922363e+00 -6.689179539680480957e-01 -6.006515622138977051e-01 8.325105309486389160e-01
1.730000000000000000e+02 5.344986724853515625e+01 -2.894084930419921875e+01 -5.136011242866516113e-01 -3.706862926483154297e-01 -2.652862370014190674e-01 4.214911162853240967e-01
1.740000000000000000e+02 5.755088424682617188e+01 -3.675587081909179688e+01 -5.929615497589111328e-01 -4.713791012763977051e-01 -3.193021714687347412e-01 -4.176727235317230225e-01
1.750000000000000000e+02 6.024060058593750000e+01 -3.712177276611328125e+01 -3.222994208335876465e-01 -3.753856420516967773e-01 -2.093055099248886108e-01 -2.162746489048004150e-01
1.760000000000000000e+02 5.800429534912109375e+01 -3.246872329711914062e+01 -3.349483489990234375e+00 -3.071995675563812256e-01 -1.097004890441894531e+00 5.033878087997436523e-01
1.770000000000000000e+02 5.582300949096679688e+01 -3.261547088623046875e+01 -1.869649529457092285e+00 -2.540826797485351562e-01 -6.371196508407592773e-01 2.086767256259918213e-01
1.780000000000000000e+02 5.724623489379882812e+01 -3.443567276000976562e+01 -1.712364912033081055e+00 -4.393412470817565918e-01 -6.455118656158447266e-01 -3.337367773056030273e-01
1.790000000000000000e+02 5.641684722900390625e+01 -3.178966140747070312e+01 -2.150741577148437500e+00 -6.873725056648254395e-01 -8.514342308044433594e-01 9.454737305641174316e-01
1.800000000000000000e+02 6.496225738525390625e+01 -3.541791152954101562e+01 -8.911206722259521484e-01 2.043520450592041016e+00 3.457199633121490479e-01 5.853841900825500488e-01
1.810000000000000000e+02 6.373949813842773438e+01 -3.133382415771484375e+01 -2.769835710525512695e+00 -5.744958519935607910e-01 -1.003299474716186523e+00 -1.235108613967895508e+00
1.820000000000000000e+02 6.220271682739257812e+01 -3.212699890136718750e+01 -3.888005733489990234e+00 -5.968655943870544434e-01 -1.345461368560791016e+00 -1.257813096046447754e+00
1.830000000000000000e+02 6.058842086791992188e+01 -3.252339935302734375e+01 -4.404348850250244141e+00 -4.797337055206298828e-01 -1.465224742889404297e+00 -8.333144783973693848e-01
1.840000000000000000e+02 6.827735900878906250e+01 -3.528075027465820312e+01 -1.001897573471069336e+00 5.388887405395507812e+00 1.316097021102905273e+00 4.571140408515930176e-01
1.850000000000000000e+02 7.959271240234375000e+01 -3.400743484497070312e+01 -2.104906365275382996e-02 1.315673923492431641e+01 3.940707206726074219e+00 -1.290515214204788208e-01
1.860000000000000000e+02 7.880432128906250000e+01 -3.072000885009765625e+01 -4.201350361108779907e-02 1.160133266448974609e+01 3.467795848846435547e+00 -5.504426956176757812e-01
1.870000000000000000e+02 7.962264251708984375e+01 -2.680605506896972656e+01 1.672591199167072773e-03 9.838869094848632812e+00 2.952162504196166992e+00 -2.588427662849426270e-01
1.880000000000000000e+02 7.889499664306640625e+01 -2.348448753356933594e+01 3.005091845989227295e-02 8.282862663269042969e+00 2.493874073028564453e+00 -5.807992815971374512e-01
1.890000000000000000e+02 7.963196563720703125e+01 -2.038714790344238281e+01 8.106155321002006531e-03 6.464030265808105469e+00 1.941640853881835938e+00 -1.571360230445861816e-01
1.900000000000000000e+02 6.846138763427734375e+01 -1.509399700164794922e+01 6.268250346183776855e-01 1.917701339721679688e+01 5.941151618957519531e+00 -2.434650897979736328e+00
1.910000000000000000e+02 6.858213806152343750e+01 -1.670921897888183594e+01 2.160593867301940918e-01 1.796517372131347656e+01 5.454370021820068359e+00 -6.002340912818908691e-01
1.920000000000000000e+02 6.860703277587890625e+01 -2.153796005249023438e+01 3.804977238178253174e-02 1.484918689727783203e+01 4.466170787811279297e+00 -9.216487407684326172e-02
1.930000000000000000e+02 6.856095123291015625e+01 -2.396738243103027344e+01 4.979033470153808594e-01 1.614070701599121094e+01 4.991583347320556641e+00 7.138531804084777832e-01
1.940000000000000000e+02 6.926579284667968750e+01 -2.322206687927246094e+01 4.090472757816314697e-01 1.431943988800048828e+01 4.418546199798583984e+00 3.763990402221679688e-01
1.950000000000000000e+02 6.763880920410156250e+01 -2.709826660156250000e+01 9.507247209548950195e-01 7.520988464355468750e+00 2.541513919830322266e+00 2.533925771713256836e+00
1.960000000000000000e+02 6.629114532470703125e+01 -3.150960540771484375e+01 -1.634342312812805176e+00 2.952584505081176758e+00 3.954727053642272949e-01 4.868874251842498779e-01
1.970000000000000000e+02 6.727537536621093750e+01 -2.783820533752441406e+01 1.068547487258911133e+00 5.863643646240234375e+00 2.079657316207885742e+00 2.216158866882324219e+00
1.980000000000000000e+02 7.864714050292968750e+01 -3.777607727050781250e+01 -1.894658431410789490e-02 1.292991256713867188e+01 3.873289823532104492e+00 -1.224949732422828674e-01
1.990000000000000000e+02 7.889912414550781250e+01 -1.624589538574218750e+01 5.233792215585708618e-02 6.119220256805419922e+00 1.851467370986938477e+00 -1.363498568534851074e-01
2.000000000000000000e+02 7.963562774658203125e+01 -1.315991306304931641e+01 9.045943617820739746e-03 5.366996288299560547e+00 1.612812757492065430e+00 4.277646914124488831e-02
2.010000000000000000e+02 6.673465728759765625e+01 -7.985617637634277344e+00 9.403473138809204102e-01 8.881472587585449219e+00 2.946546077728271484e+00 -3.056572914123535156e+00
2.020000000000000000e+02 6.695745086669921875e+01 -1.049455356597900391e+01 1.765837073326110840e+00 1.043257427215576172e+01 3.659523487091064453e+00 -4.229069232940673828e+00
2.030000000000000000e+02 7.890797424316406250e+01 -9.017272949218750000e+00 1.162336673587560654e-02 6.662707805633544922e+00 2.002299308776855469e+00 2.919585406780242920e-01
2.040000000000000000e+02 7.963526916503906250e+01 -5.943679332733154297e+00 -3.158062230795621872e-03 7.157591819763183594e+00 2.146330118179321289e+00 1.096808761358261108e-01
2.050000000000000000e+02 7.412131500244140625e+01 2.642932176589965820e+00 -3.962160050868988037e-01 7.435120582580566406e+00 2.111671447753906250e+00 -3.038797378540039062e-01
2.060000000000000000e+02 6.291279602050781250e+01 7.897265434265136719e+00 -5.430471524596214294e-02 3.570295572280883789e+00 1.054797291755676270e+00 -1.721175312995910645e+00
2.070000000000000000e+02 4.730258941650390625e+01 2.566707801818847656e+01 6.870766878128051758e-01 5.213552474975585938e+00 1.770188689231872559e+00 4.241920113563537598e-01
2.080000000000000000e+02 4.137246322631835938e+01 2.784958457946777344e+01 3.709517419338226318e-01 7.461705684661865234e+00 2.349797248840332031e+00 -6.648859977722167969e-01
2.090000000000000000e+02 4.140261459350585938e+01 2.702991485595703125e+01 1.122727766633033752e-01 6.950692653656005859e+00 2.118889570236206055e+00 -2.371757328510284424e-01
2.100000000000000000e+02 4.139712524414062500e+01 2.460364723205566406e+01 1.940900646150112152e-02 6.420049667358398438e+00 1.931837558746337891e+00 3.126449650153517723e-03
2.110000000000000000e+02 4.136344146728515625e+01 1.819795417785644531e+01 4.656157270073890686e-02 8.303741455078125000e+00 2.505090951919555664e+00 2.576568424701690674e-01
2.120000000000000000e+02 4.638734436035156250e+01 1.233381175994873047e+01 2.016105890274047852e+00 5.011261463165283203e+00 2.108210325241088867e+00 2.181010246276855469e+00
2.130000000000000000e+02 5.317956924438476562e+01 1.382059454917907715e+00 -3.599417448043823242e+00 3.925836980342864990e-01 -9.620501399040222168e-01 3.478980660438537598e-01
2.140000000000000000e+02 6.139141464233398438e+01 -2.732303142547607422e+00 -8.567527532577514648e-01 2.759075164794921875e-01 -1.742535829544067383e-01 -5.156733840703964233e-02
2.150000000000000000e+02 6.405323028564453125e+01 -4.656697750091552734e+00 2.246599912643432617e+00 4.363177776336669922e+00 1.982933282852172852e+00 -2.982381105422973633e+00
2.160000000000000000e+02 6.459608459472656250e+01 -5.297390937805175781e+00 2.477127313613891602e+00 6.224920749664306641e+00 2.610614299774169922e+00 -3.597717761993408203e+00
2.170000000000000000e+02 6.540879821777343750e+01 -6.754708290100097656e+00 1.559508323669433594e+00 8.672966957092285156e+00 3.069742679595947266e+00 -3.338279724121093750e+00
2.180000000000000000e+02 6.732862854003906250e+01 -9.519668579101562500e+00 1.049723744392395020e+00 1.011641120910644531e+01 3.349840402603149414e+00 -3.308772802352905273e+00
2.190000000000000000e+02 6.692002105712890625e+01 -4.776363849639892578e+00 5.068712830543518066e-01 7.411983489990234375e+00 2.375656366348266602e+00 -1.607533574104309082e+00
2.200000000000000000e+02 7.890606689453125000e+01 -2.604998350143432617e+00 -2.033373527228832245e-02 7.904461860656738281e+00 2.365238428115844727e+00 1.972506493330001831e-01
2.210000000000000000e+02 7.963265991210937500e+01 1.273530840873718262e+00 -4.426709841936826706e-03 8.400452613830566406e+00 2.518807649612426758e+00 2.587496675550937653e-02
2.220000000000000000e+02 7.311710357666015625e+01 8.892924308776855469e+00 -1.620408892631530762e-01 6.477874755859375000e+00 1.894750237464904785e+00 -8.536287546157836914e-01
2.230000000000000000e+02 6.812152099609375000e+01 1.606181335449218750e+01 4.004224538803100586e-01 4.892239570617675781e+00 1.587798595428466797e+00 -1.020602345466613770e+00
2.240000000000000000e+02 5.411145401000976562e+01 2.426285171508789062e+01 1.048055291175842285e+00 4.307498931884765625e+00 1.606666326522827148e+00 4.134656190872192383e-01
2.250000000000000000e+02 4.831882095336914062e+01 3.178328323364257812e+01 2.534176409244537354e-01 4.746321201324462891e+00 1.499921560287475586e+00 4.014762639999389648e-01
2.260000000000000000e+02 4.045632934570312500e+01 3.101294898986816406e+01 8.152872920036315918e-01 4.610798835754394531e+00 1.627825856208801270e+00 -1.632671117782592773e+00
2.270000000000000000e+02 4.007841873168945312e+01 3.176055526733398438e+01 1.019953370094299316e+00 3.837446451187133789e+00 1.457219958305358887e+00 -1.692815423011779785e+00
2.280000000000000000e+02 4.104032897949218750e+01 2.946786880493164062e+01 6.374849081039428711e-01 5.944722652435302734e+00 1.974662303924560547e+00 -1.631317973136901855e+00
2.290000000000000000e+02 4.126369857788085938e+01 3.144811820983886719e+01 5.931293368339538574e-01 4.461083412170410156e+00 1.516263842582702637e+00 -1.047185897827148438e+00
2.300000000000000000e+02 7.889554595947265625e+01 4.612894058227539062e+00 -1.961533166468143463e-02 8.154703140258789062e+00 2.440526485443115234e+00 -6.364711374044418335e-02
2.310000000000000000e+02 7.962854766845703125e+01 8.491028785705566406e+00 -2.263706875964999199e-03 7.943684101104736328e+00 2.382426023483276367e+00 -4.962110519409179688e-02
2.320000000000000000e+02 7.361946105957031250e+01 1.677690124511718750e+01 1.263510733842849731e-01 5.825497150421142578e+00 1.785554528236389160e+00 -7.116026878356933594e-01
2.330000000000000000e+02 6.524392700195312500e+01 2.317138099670410156e+01 6.427103877067565918e-01 4.573710918426513672e+00 1.564926385879516602e+00 -4.556688368320465088e-01
2.340000000000000000e+02 5.629216384887695312e+01 3.011699485778808594e+01 5.347629189491271973e-01 4.584079265594482422e+00 1.535652637481689453e+00 2.934808731079101562e-01
2.350000000000000000e+02 5.029402923583984375e+01 3.763325500488281250e+01 -2.456742525100708008e-01 4.683215141296386719e+00 1.331262230873107910e+00 2.185186743736267090e-01
2.360000000000000000e+02 4.357738876342773438e+01 3.727930831909179688e+01 -4.538723826408386230e-01 3.845903635025024414e+00 1.017609357833862305e+00 -8.399197459220886230e-02
2.370000000000000000e+02 3.261501693725585938e+01 3.666273498535156250e+01 -3.256779611110687256e-01 4.751119390130043030e-02 -8.345003426074981689e-02 1.112814396619796753e-01
2.380000000000000000e+02 3.088734626770019531e+01 3.843521499633789062e+01 -5.914152413606643677e-02 -7.224994152784347534e-02 -3.941744193434715271e-02 1.229702308773994446e-01
2.390000000000000000e+02 2.922833061218261719e+01 3.707663726806640625e+01 -1.794483959674835205e-01 1.147900184150785208e-04 -5.380008369684219360e-02 1.530266087502241135e-02
2.400000000000000000e+02 2.114791488647460938e+01 3.771124267578125000e+01 1.633325242437422276e-03 3.903399454429745674e-03 1.661017420701682568e-03 1.223601051606237888e-03
2.410000000000000000e+02 1.667394995689392090e+00 3.795938873291015625e+01 -5.462822446133941412e-05 4.370308015495538712e-04 1.147207658505067229e-04 -1.474054879508912563e-04
2.420000000000000000e+02 4.117449522018432617e-01 3.397669601440429688e+01 -6.608850526390597224e-05 2.860233944375067949e-04 6.598046456929296255e-05 -5.819549642183119431e-06
2.430000000000000000e+02 1.134769678115844727e+00 3.062906455993652344e+01 4.425323277246206999e-05 1.012001011986285448e-04 4.363599873613566160e-05 -5.163110108696855605e-05
2.440000000000000000e+02 3.715212941169738770e-01 2.836096954345703125e+01 3.813784132944419980e-05 4.269773853593505919e-05 2.425067395961377770e-05 -1.986006282095331699e-05
2.450000000000000000e+02 1.081077098846435547e+00 2.339701652526855469e+01 -4.135496055823750794e-06 -3.996019131591310725e-06 -2.439454647173988633e-06 3.595414682422415353e-06
2.460000000000000000e+02 1.303922653198242188e+01 1.876447677612304688e+01 1.690647186478599906e-04 7.042634388199076056e-05 7.184731657616794109e-05 -3.278629083069972694e-05
2.470000000000000000e+02 1.767195510864257812e+01 8.938134193420410156e+00 4.091917799087241292e-05 1.478599187976215035e-05 1.671155041549354792e-05 2.341061917832121253e-05
2.480000000000000000e+02 1.578293609619140625e+01 1.695130729675292969e+01 -1.783058978617191315e-04 -4.718909622170031071e-06 -5.490744297276251018e-05 -2.860605854948516935e-05
2.490000000000000000e+02 1.563759040832519531e+01 1.776847839355468750e+01 1.871351414592936635e-04 -1.500899088568985462e-05 5.163784589967690408e-05 1.477825480833416805e-05
2.500000000000000000e+02 1.547618103027343750e+01 2.184840011596679688e+01 -3.566053055692464113e-04 -2.552413570811040699e-05 -1.146388385677710176e-04 2.357850689804763533e-06
2.510000000000000000e+02 1.583083724975585938e+01 2.590108108520507812e+01 5.136952968314290047e-04 6.620695057790726423e-05 1.739706785883754492e-04 -1.121132663683965802e-04
2.520000000000000000e+02 1.668200111389160156e+01 2.821964454650878906e+01 -3.982423804700374603e-04 1.198647660203278065e-04 -8.351328870048746467e-05 3.221439546905457973e-04
2.530000000000000000e+02 1.701581764221191406e+01 2.897593498229980469e+01 6.534489803016185760e-04 3.754125209525227547e-04 3.086584620177745819e-04 -3.741007094504311681e-05
2.540000000000000000e+02 1.913014793395996094e+01 3.255345153808593750e+01 5.404233234003186226e-04 5.586609477177262306e-04 3.297252987977117300e-04 1.206353888846933842e-03
2.550000000000000000e+02 1.898424148559570312e+01 3.389995956420898438e+01 8.513496140949428082e-04 -1.892978907562792301e-04 1.986155257327482104e-04 8.844754192978143692e-04
2.560000000000000000e+02 2.213877487182617188e+01 3.695354080200195312e+01 -4.950860748067498207e-04 -1.380599918775260448e-03 -5.627057980746030807e-04 -4.390850663185119629e-03
2.570000000000000000e+02 7.887905883789062500e+01 1.182961082458496094e+01 -2.351189730688929558e-03 7.266237258911132812e+00 2.179165840148925781e+00 -1.812019348144531250e-01
2.580000000000000000e+02 7.962142944335937500e+01 1.570841312408447266e+01 8.236830808527884074e-07 6.765448570251464844e+00 2.029634952545166016e+00 -5.931121855974197388e-02
2.590000000000000000e+02 7.438446807861328125e+01 2.318580055236816406e+01 1.244117841124534607e-01 5.530583858489990234e+00 1.696498751640319824e+00 -4.001002311706542969e-01
2.600000000000000000e+02 6.684684753417968750e+01 3.113163757324218750e+01 2.839112877845764160e-01 4.938187599182128906e+00 1.566629648208618164e+00 -1.228793561458587646e-01
2.610000000000000000e+02 5.414128112792968750e+01 3.532566070556640625e+01 7.532754540443420410e-02 4.759801387786865234e+00 1.450538635253906250e+00 2.900327146053314209e-01
2.620000000000000000e+02 5.292795562744140625e+01 4.104071426391601562e+01 -2.370923310518264771e-01 4.803951740264892578e+00 1.370057821273803711e+00 6.097301095724105835e-02
2.630000000000000000e+02 7.885374450683593750e+01 1.904546928405761719e+01 6.880747620016336441e-03 6.225424289703369141e+00 1.869691491127014160e+00 -1.469979733228683472e-01
2.640000000000000000e+02 7.961484527587890625e+01 2.211976432800292969e+01 1.224573818035423756e-03 5.916122436523437500e+00 1.775204062461853027e+00 -3.901243954896926880e-02
2.650000000000000000e+02 7.282279968261718750e+01 3.162450218200683594e+01 1.091895699501037598e-01 5.217537403106689453e+00 1.598018169403076172e+00 -1.535521745681762695e-01
2.660000000000000000e+02 6.498542022705078125e+01 3.553706741333007812e+01 1.722216457128524780e-01 4.959515094757080078e+00 1.539521098136901855e+00 -5.312236025929450989e-03
2.670000000000000000e+02 5.758586502075195312e+01 4.103636932373046875e+01 -4.852661117911338806e-02 4.891025543212890625e+00 1.452749729156494141e+00 4.327473789453506470e-02
2.680000000000000000e+02 7.881503295898437500e+01 2.624145317077636719e+01 5.802206695079803467e-03 5.573641777038574219e+00 1.673833250999450684e+00 -7.377894222736358643e-02
2.690000000000000000e+02 7.958407592773437500e+01 2.935268592834472656e+01 1.348766498267650604e-03 5.419150352478027344e+00 1.626149654388427734e+00 -1.665207371115684509e-02
2.700000000000000000e+02 7.354798126220703125e+01 3.827923583984375000e+01 3.431336954236030579e-02 5.202428817749023438e+00 1.571022748947143555e+00 -2.974477410316467285e-02
2.710000000000000000e+02 6.242995071411132812e+01 4.076971817016601562e+01 5.253208056092262268e-02 4.978649139404296875e+00 1.509354472160339355e+00 1.902631297707557678e-02
2.720000000000000000e+02 7.870701599121093750e+01 3.282386779785156250e+01 3.721110057085752487e-03 5.320983886718750000e+00 1.597411394119262695e+00 -2.642511203885078430e-02
2.730000000000000000e+02 7.966919708251953125e+01 3.655880355834960938e+01 7.669582264497876167e-04 5.263276576995849609e+00 1.579213023185729980e+00 -3.017001785337924957e-03
2.740000000000000000e+02 7.898708343505859375e+01 3.806568145751953125e+01 4.550865560304373503e-04 5.253259181976318359e+00 1.576114296913146973e+00 -6.067803129553794861e-03
2.750000000000000000e+02 3.585854768753051758e-01 2.032234382629394531e+01 -3.920601102436194196e-06 -1.683115624473430216e-05 -6.225527158676413819e-06 1.324981582229156629e-07
2.760000000000000000e+02 1.070525169372558594e+00 1.616134452819824219e+01 -3.173803406752995215e-06 -8.139437341014854610e-06 -3.393972292542457581e-06 3.489727077976567671e-06
2.770000000000000000e+02 9.456449508666992188e+00 7.403923988342285156e+00 -1.189167778647970408e-05 -8.042914487305097282e-06 -5.980377864034380764e-06 1.216449345520231873e-05
2.780000000000000000e+02 1.640227317810058594e+01 3.052303791046142578e+00 -6.944173946976661682e-06 -1.385193354508373886e-05 -6.238832156668649986e-06 1.591795125932549126e-06
2.790000000000000000e+02 1.770832633972167969e+01 1.071925830841064453e+01 -6.617246981477364898e-05 -1.389031240250915289e-05 -2.401883466518484056e-05 -2.936774217232596129e-05
2.800000000000000000e+02 3.563888370990753174e-01 1.469350051879882812e+01 6.534657586598768830e-06 -4.791555511474143714e-06 5.229305770626524463e-07 -1.628612608328694478e-06
2.810000000000000000e+02 1.059662461280822754e+00 8.931045532226562500e+00 -4.005969458376057446e-06 2.664135934082878521e-07 -1.121866830544604454e-06 -5.952733204139804002e-07
2.820000000000000000e+02 9.719767570495605469e+00 1.814687848091125488e+00 -2.666740556378499605e-06 -3.669275429274421185e-06 -1.900804818433243781e-06 3.369727252788834448e-08
2.830000000000000000e+02 1.127666282653808594e+01 1.646111488342285156e+00 -3.385803665878484026e-06 -5.086613782623317093e-06 -2.541725280025275424e-06 -1.095452404342722730e-07
2.840000000000000000e+02 1.427900886535644531e+01 1.218011021614074707e+00 -3.706098141265101731e-06 -7.077122518239775673e-06 -3.234966243326198310e-06 -4.642404860533133615e-07
2.850000000000000000e+02 1.776902389526367188e+01 1.550806164741516113e+00 -2.836755129465018399e-06 -1.085612711904104799e-05 -4.107864697289187461e-06 -1.716440806376340333e-06
2.860000000000000000e+02 1.711212921142578125e+01 9.303674697875976562e-01 -2.690891051315702498e-06 -9.041012162924744189e-06 -3.519570782373193651e-06 -7.815702360858267639e-07
2.870000000000000000e+02 2.113242912292480469e+01 3.454535245895385742e+00 -1.906585202959831804e-05 -3.629785396697116084e-06 -6.808691068727057427e-06 -8.311566489282995462e-06
2.880000000000000000e+02 2.243931961059570312e+01 1.444903492927551270e+00 7.172587629611371085e-06 2.027719801844796166e-06 2.760092229436850175e-06 3.773794787775841542e-06
2.890000000000000000e+02 4.963274478912353516e+00 2.571742773056030273e+00 2.724632167883100919e-06 1.117400984185223933e-06 1.152609911514446139e-06 -1.674513754323925241e-07
2.900000000000000000e+02 3.477496206760406494e-01 6.666026592254638672e+00 -2.856344735846505500e-06 -3.286238552391296253e-07 -9.554905773256905377e-07 2.645126357947447104e-07
2.910000000000000000e+02 1.055728316307067871e+00 8.132880210876464844e+00 4.002259174740174785e-06 -1.672772441452252679e-06 6.988460654611117207e-07 8.931153274716052692e-07
2.920000000000000000e+02 2.452734184265136719e+01 3.655788803100585938e+01 -5.477088037878274918e-03 2.390054287388920784e-03 -9.261101367883384228e-04 1.856082235462963581e-03
2.930000000000000000e+02 3.709368515014648438e+01 3.458040618896484375e+01 2.557011321187019348e-02 3.560366630554199219e-01 1.144820302724838257e-01 -2.140771001577377319e-01
2.940000000000000000e+02 3.907846832275390625e+01 3.310600662231445312e+01 7.562912106513977051e-01 1.865130305290222168e+00 7.864264249801635742e-01 -1.164257764816284180e+00
2.950000000000000000e+02 4.125027465820312500e+01 1.579037380218505859e+01 8.342729508876800537e-02 9.747955322265625000e+00 2.949414730072021484e+00 8.785091638565063477e-01
2.960000000000000000e+02 4.052930831909179688e+01 1.102083969116210938e+01 6.292460560798645020e-01 1.275901985168457031e+01 4.016479492187500000e+00 2.707464218139648438e+00
2.970000000000000000e+02 4.852131271362304688e+01 1.913441538810729980e+00 -5.377285480499267578e+00 -4.044342637062072754e-01 -1.734515905380249023e+00 1.606396138668060303e-01
2.980000000000000000e+02 5.250054550170898438e+01 7.576897740364074707e-02 -4.353277206420898438e+00 2.213479280471801758e-01 -1.239578723907470703e+00 9.344057440757751465e-01
2.990000000000000000e+02 5.288547134399414062e+01 -7.925912737846374512e-01 -4.330595016479492188e+00 -3.046084893867373466e-03 -1.300092339515686035e+00 7.447921037673950195e-01
3.000000000000000000e+02 5.522023773193359375e+01 -1.107051610946655273e+00 -4.960229396820068359e+00 -8.280222117900848389e-02 -1.512909412384033203e+00 5.661519169807434082e-01
3.010000000000000000e+02 5.834546661376953125e+01 -1.678860783576965332e+00 -3.931210041046142578e+00 -1.810688674449920654e-01 -1.233683705329895020e+00 7.808288931846618652e-01
3.020000000000000000e+02 3.998397827148437500e+01 8.660867691040039062e+00 1.522385239601135254e+00 1.495741081237792969e+01 4.943938732147216797e+00 4.448918342590332031e+00
3.030000000000000000e+02 4.516563415527343750e+01 2.235668420791625977e+00 -3.615412712097167969e+00 2.572408437728881836e+00 -3.129013180732727051e-01 2.569535493850708008e+00
3.040000000000000000e+02 4.263874053955078125e+01 -2.835829496383666992e+00 1.396595716476440430e+00 1.493774127960205078e+01 4.900300979614257812e+00 3.823700904846191406e+00
3.050000000000000000e+02 4.427620315551757812e+01 9.372381865978240967e-02 -7.578576803207397461e-01 3.626134395599365234e+00 8.604830503463745117e-01 1.410227417945861816e+00
3.060000000000000000e+02 3.882202911376953125e+01 5.646133899688720703e+00 2.699721336364746094e+00 1.292162513732910156e+01 4.686403751373291016e+00 5.784531593322753906e+00
3.070000000000000000e+02 3.658704376220703125e+01 2.260144710540771484e+00 1.073385477066040039e+00 3.695549488067626953e+00 1.430680513381958008e+00 2.100699663162231445e+00
3.080000000000000000e+02 3.482975006103515625e+01 5.465852022171020508e-01 -1.400181770324707031e+00 5.389134585857391357e-02 -4.038871228694915771e-01 -5.310835242271423340e-01
3.090000000000000000e+02 4.188550567626953125e+01 -5.972854137420654297e+00 8.965200781822204590e-01 1.532461071014404297e+01 4.866339206695556641e+00 3.565842628479003906e+00
3.100000000000000000e+02 4.243939208984375000e+01 -3.631120204925537109e+00 7.808722853660583496e-01 1.454449272155761719e+01 4.597609519958496094e+00 3.213681936264038086e+00
3.110000000000000000e+02 3.415854644775390625e+01 7.903033494949340820e-02 -2.065183639526367188e+00 -4.368908703327178955e-01 -7.506223917007446289e-01 -1.034128546714782715e+00
3.120000000000000000e+02 4.027433395385742188e+01 -1.242354679107666016e+01 4.228544831275939941e-01 1.209682655334472656e+01 3.755904436111450195e+00 -5.421272516250610352e-01
3.130000000000000000e+02 3.288181304931640625e+01 -1.828882980346679688e+01 -4.266298770904541016e+00 -6.908078789710998535e-01 -1.487131953239440918e+00 1.766170024871826172e+00
3.140000000000000000e+02 3.605380630493164062e+01 -1.978103446960449219e+01 -1.111490607261657715e+00 6.827135562896728516e+00 1.714693427085876465e+00 1.582463741302490234e+00
3.150000000000000000e+02 3.414879608154296875e+01 -1.480924010276794434e+00 -1.056264281272888184e+00 9.733417034149169922e-01 -2.487677522003650665e-02 5.515538528561592102e-02
3.160000000000000000e+02 3.200712966918945312e+01 -1.090201973915100098e+00 -3.157313108444213867e+00 -6.940387487411499023e-01 -1.155405521392822266e+00 -1.357653737068176270e+00
3.170000000000000000e+02 2.722675323486328125e+01 -1.881023049354553223e+00 -8.405984044075012207e-01 -2.225560881197452545e-02 -2.588562071323394775e-01 -9.381527453660964966e-02
3.180000000000000000e+02 2.642910385131835938e+01 -1.853562474250793457e+00 -5.890243649482727051e-01 -1.837041415274143219e-02 -1.822184324264526367e-01 -3.812427073717117310e-02
3.190000000000000000e+02 2.439147567749023438e+01 -1.905746340751647949e+00 -1.457927972078323364e-01 4.773505497723817825e-03 -4.230578616261482239e-02 -3.787884116172790527e-02
3.200000000000000000e+02 2.507860755920410156e+01 -1.728179335594177246e+00 -2.049871832132339478e-01 4.804946947842836380e-03 -6.005467101931571960e-02 -1.571469753980636597e-02
3.210000000000000000e+02 2.569141197204589844e+01 -1.744019269943237305e+00 -3.445842862129211426e-01 -2.334333024919033051e-02 -1.103782802820205688e-01 4.491388332098722458e-03
3.220000000000000000e+02 2.104869461059570312e+01 -3.296740055084228516e+00 -1.144885178655385971e-02 -4.612755402922630310e-02 -1.727292127907276154e-02 5.204875022172927856e-02
3.230000000000000000e+02 2.194530868530273438e+01 -1.520995712280273438e+01 2.172891646623611450e-01 -1.404256224632263184e-01 2.305906265974044800e-02 3.425290584564208984e-01
3.240000000000000000e+02 2.084852600097656250e+01 -1.888756561279296875e+01 1.169068086892366409e-02 -4.349938128143548965e-03 2.202222589403390884e-03 1.849019899964332581e-02
3.250000000000000000e+02 2.317538642883300781e+01 -1.892729949951171875e+01 -1.598918437957763672e-01 -4.268672782927751541e-03 -4.924815520644187927e-02 2.677550166845321655e-02
3.260000000000000000e+02 2.395363235473632812e+01 -1.887618064880371094e+01 -2.416103035211563110e-01 1.512345205992460251e-02 -6.794605404138565063e-02 1.575855351984500885e-02
3.270000000000000000e+02 3.092196083068847656e+01 -1.768957901000976562e+01 -4.765652656555175781e+00 -5.704611539840698242e-01 -1.600834250450134277e+00 7.049236297607421875e-01
3.280000000000000000e+02 3.218182754516601562e+01 -1.795171546936035156e+01 -4.850008487701416016e+00 -7.909230589866638184e-01 -1.692279458045959473e+00 1.601356625556945801e+00
3.290000000000000000e+02 2.879366493225097656e+01 -1.663652420043945312e+01 -1.445394277572631836e+00 -6.693620979785919189e-02 -4.536991417407989502e-01 8.622723221778869629e-01
3.300000000000000000e+02 2.860051345825195312e+01 -1.469275760650634766e+01 5.903840996325016022e-03 -3.141560554504394531e-01 -9.247566014528274536e-02 9.994903206825256348e-01
3.310000000000000000e+02 2.935092926025390625e+01 -1.508823299407958984e+01 -1.945782005786895752e-01 -3.370034396648406982e-01 -1.594744920730590820e-01 1.032263040542602539e+00
3.320000000000000000e+02 2.884090042114257812e+01 -1.830578923225402832e+00 -1.674139738082885742e+00 -1.129333525896072388e-01 -5.361219048500061035e-01 -3.453879654407501221e-01
3.330000000000000000e+02 2.101911735534667969e+01 -2.608404874801635742e+00 -6.092763692140579224e-02 -2.845007181167602539e-02 -2.681331150233745575e-02 3.637150302529335022e-02
3.340000000000000000e+02 4.001650619506835938e+01 5.132140159606933594e+00 1.198630332946777344e+00 1.127070426940917969e+01 3.740800619125366211e+00 3.540344238281250000e+00
3.350000000000000000e+02 4.497307586669921875e+01 6.315913796424865723e-01 -3.509953260421752930e+00 1.463774204254150391e+00 -6.138537526130676270e-01 -1.101842746138572693e-01
3.360000000000000000e+02 4.191789627075195312e+01 -1.478314971923828125e+01 4.376126229763031006e-01 1.413520526885986328e+01 4.371845245361328125e+00 -2.027019739151000977e+00
3.370000000000000000e+02 4.161586761474609375e+01 -1.157167530059814453e+01 1.574284285306930542e-01 1.449081134796142578e+01 4.394472122192382812e+00 -1.092240929603576660e+00
3.380000000000000000e+02 4.087702941894531250e+01 -1.077511405944824219e+01 5.812155008316040039e-01 1.372385215759277344e+01 4.291520595550537109e+00 -2.119963020086288452e-01
3.390000000000000000e+02 4.154751205444335938e+01 -8.358120918273925781e+00 1.666950434446334839e-01 1.678387641906738281e+01 5.085171699523925781e+00 4.937540292739868164e-01
3.400000000000000000e+02 1.425179767608642578e+01 -1.597886085510253906e+01 1.093378782272338867e+00 2.016512304544448853e-02 3.340631723403930664e-01 3.935724031180143356e-03
3.410000000000000000e+02 1.728943061828613281e+01 -1.712086486816406250e+01 3.771332800388336182e-01 -4.219417273998260498e-02 1.004817262291908264e-01 -2.559900470077991486e-02
3.420000000000000000e+02 6.288469791412353516e+00 -2.598315811157226562e+01 -1.340522319078445435e-01 9.430476278066635132e-02 -1.192424260079860687e-02 3.436850905418395996e-01
3.430000000000000000e+02 2.273082733154296875e+01 -1.437734317779541016e+01 2.757151126861572266e-01 -1.966132223606109619e-01 2.373056672513484955e-02 4.382946789264678955e-01
3.440000000000000000e+02 1.538462543487548828e+01 -1.481318473815917969e+01 8.398885726928710938e-01 -1.626956090331077576e-02 2.470857053995132446e-01 2.447658777236938477e-01
3.450000000000000000e+02 4.341926574707031250e+01 -3.012958908081054688e+01 -2.764475941658020020e-01 2.984960556030273438e+00 8.125538825988769531e-01 -7.154701948165893555e-01
3.460000000000000000e+02 6.740268707275390625e+01 -2.892230987548828125e+01 -4.126450121402740479e-01 5.287830352783203125e+00 1.462555646896362305e+00 9.733880162239074707e-01
3.470000000000000000e+02 6.283658599853515625e+01 4.865385293960571289e-01 -1.267013788223266602e+00 3.371125221252441406e+00 6.312333941459655762e-01 -1.840412855148315430e+00
3.480000000000000000e+02 6.126324081420898438e+01 -1.353770941495895386e-01 -1.531742811203002930e+00 1.869675636291503906e+00 1.013798564672470093e-01 -1.391670465469360352e+00
3.490000000000000000e+02 4.993604660034179688e+01 2.238139957189559937e-01 -6.118793487548828125e+00 -7.956502437591552734e-01 -2.074333190917968750e+00 2.113903522491455078e+00
3.500000000000000000e+02 5.547401046752929688e+01 -4.663625657558441162e-01 -4.221549987792968750e+00 -7.998439669609069824e-02 -1.290460348129272461e+00 4.857321679592132568e-01
3.510000000000000000e+02 7.406579589843750000e+01 3.415619850158691406e+00 -3.785586357116699219e-01 7.337733268737792969e+00 2.087752342224121094e+00 -3.890388607978820801e-01
3.520000000000000000e+02 5.802936935424804688e+01 6.953380107879638672e+00 1.086334604769945145e-02 1.815538525581359863e+00 5.479205846786499023e-01 -1.323181986808776855e+00
3.530000000000000000e+02 5.662162399291992188e+01 7.045645713806152344e+00 1.001836284995079041e-01 1.503948330879211426e+00 4.812395870685577393e-01 -1.096033692359924316e+00
3.540000000000000000e+02 4.688562393188476562e+01 1.131949710845947266e+01 2.096848011016845703e+00 4.320116519927978516e+00 1.925089359283447266e+00 2.075352907180786133e+00
3.550000000000000000e+02 4.037019729614257812e+01 7.697118759155273438e+00 2.070368051528930664e+00 1.307586574554443359e+01 4.543870449066162109e+00 4.486458301544189453e+00
3.560000000000000000e+02 3.916818618774414062e+01 6.376482009887695312e+00 2.729417324066162109e+00 1.437833976745605469e+01 5.132327079772949219e+00 5.890449523925781250e+00
3.570000000000000000e+02 4.685643005371093750e+01 2.333750963211059570e+00 -4.421538352966308594e+00 -8.673112392425537109e-01 -1.586654901504516602e+00 8.809839487075805664e-01
3.580000000000000000e+02 7.280593109130859375e+01 1.136496734619140625e+01 -3.210239857435226440e-02 6.157561302185058594e+00 1.837637662887573242e+00 -9.060869216918945312e-01
3.590000000000000000e+02 6.166803359985351562e+01 6.250780582427978516e+00 -3.174245953559875488e-01 3.026941537857055664e+00 8.128551244735717773e-01 -1.783396601676940918e+00
3.600000000000000000e+02 4.664542388916015625e+01 1.958711242675781250e+01 9.475303888320922852e-01 5.694480895996093750e+00 1.992603302001953125e+00 1.172407865524291992e+00
3.610000000000000000e+02 4.582996368408203125e+01 1.961550903320312500e+01 8.044517040252685547e-01 6.023138523101806641e+00 2.048277139663696289e+00 1.153246164321899414e+00
3.620000000000000000e+02 7.351212310791015625e+01 1.759572792053222656e+01 1.424666196107864380e-01 5.752070426940917969e+00 1.768361091613769531e+00 -6.862242817878723145e-01
3.630000000000000000e+02 6.740441894531250000e+01 1.834045028686523438e+01 5.205082893371582031e-01 4.741668224334716797e+00 1.578652977943420410e+00 -8.591774702072143555e-01
3.640000000000000000e+02 5.365705490112304688e+01 1.799032402038574219e+01 1.576630234718322754e+00 3.591897010803222656e+00 1.550558209419250488e+00 4.351155757904052734e-01
3.650000000000000000e+02 7.359248352050781250e+01 2.327499580383300781e+01 1.571514010429382324e-01 5.456950664520263672e+00 1.684230566024780273e+00 -4.294972717761993408e-01
3.660000000000000000e+02 6.540437316894531250e+01 2.560697937011718750e+01 5.526490807533264160e-01 4.684824943542480469e+00 1.571242332458496094e+00 -3.195105493068695068e-01
3.670000000000000000e+02 5.353610992431640625e+01 2.651753997802734375e+01 8.501861095428466797e-01 4.488972187042236328e+00 1.601747512817382812e+00 4.430662989616394043e-01
3.680000000000000000e+02 4.708425140380859375e+01 2.383152389526367188e+01 6.953774094581604004e-01 5.414037704467773438e+00 1.832824587821960449e+00 5.656166672706604004e-01
3.690000000000000000e+02 7.243073272705078125e+01 3.301939773559570312e+01 1.052236557006835938e-01 5.186753273010253906e+00 1.587593078613281250e+00 -1.185956448316574097e-01
3.700000000000000000e+02 6.137040328979492188e+01 3.052560997009277344e+01 4.558511078357696533e-01 4.677179813385009766e+00 1.539909243583679199e+00 4.818342998623847961e-02
3.710000000000000000e+02 4.622518920898437500e+01 3.252907562255859375e+01 1.436873525381088257e-01 4.680638313293457031e+00 1.447297692298889160e+00 2.736048698425292969e-01
3.720000000000000000e+02 1.350287151336669922e+01 3.242140197753906250e+01 6.031797965988516808e-04 4.183262644801288843e-04 3.064518095925450325e-04 1.343633903161389753e-05
3.730000000000000000e+02 1.355530071258544922e+01 3.154480743408203125e+01 8.343582885572686791e-05 -3.320695832371711731e-04 -7.459012704202905297e-05 -4.623724380508065224e-04
3.740000000000000000e+02 1.348986721038818359e+01 2.285317993164062500e+01 -1.367337099509313703e-04 1.469117341912351549e-05 -3.661276059574447572e-05 1.415753831679467112e-05
3.750000000000000000e+02 1.352749729156494141e+01 2.364569664001464844e+01 1.428200921509414911e-04 -7.244158496177988127e-06 4.067277768626809120e-05 -2.203900294261984527e-06
3.760000000000000000e+02 1.936613845825195312e+01 3.828816986083984375e+01 -2.624864922836422920e-03 -2.670611254870891571e-03 -1.588642830029129982e-03 -2.480139082763344049e-04
3.770000000000000000e+02 1.096184730529785156e+01 3.702534866333007812e+01 -3.683310351334512234e-04 3.752833290491253138e-04 2.085681899188784882e-06 -9.129715908784419298e-05
3.780000000000000000e+02 1.491435337066650391e+01 2.435468864440917969e+01 -3.065657801926136017e-04 3.879652649629861116e-05 -8.033077028812840581e-05 1.970649282156955451e-05
3.790000000000000000e+02 1.404589366912841797e+01 1.756841468811035156e+01 8.844488183967769146e-05 -4.461409844225272536e-05 1.314923429163172841e-05 4.365536733530461788e-05
3.800000000000000000e+02 1.377178573608398438e+01 1.165507984161376953e+01 -2.526895968912867829e-06 -1.361800968879833817e-05 -4.843471742788096890e-06 -5.012322617403697222e-06
3.810000000000000000e+02 1.014908218383789062e+01 -1.929904222488403320e+00 -3.510248363018035889e-01 4.737162590026855469e-02 -9.109596908092498779e-02 -1.042365282773971558e-02
3.820000000000000000e+02 9.388216018676757812e+00 -1.875365614891052246e+00 -3.379674553871154785e-01 4.570466279983520508e-02 -8.767883479595184326e-02 -3.042076900601387024e-02
3.830000000000000000e+02 8.583033561706542969e+00 -1.864624619483947754e+00 -3.161067068576812744e-01 4.024353250861167908e-02 -8.275895565748214722e-02 -5.012631788849830627e-02
3.840000000000000000e+02 6.950041294097900391e+00 -1.857567071914672852e+00 -2.588467299938201904e-01 2.207551151514053345e-02 -7.103136181831359863e-02 -9.310407191514968872e-02
3.850000000000000000e+02 5.312640190124511719e+00 -1.869943261146545410e+00 -1.873728185892105103e-01 3.010500455275177956e-03 -5.530869588255882263e-02 -1.134934276342391968e-01
3.860000000000000000e+02 4.496038913726806641e+00 -1.881064534187316895e+00 -1.491501033306121826e-01 -8.354596793651580811e-03 -4.725141078233718872e-02 -1.127794384956359863e-01
3.870000000000000000e+02 1.098601460456848145e+00 -6.780567169189453125e+00 -1.104133855551481247e-02 -3.717754483222961426e-01 -1.148450374603271484e-01 -1.315578967332839966e-01
3.880000000000000000e+02 1.126780867576599121e+00 -5.961222171783447266e+00 -1.012004073709249496e-02 -2.908605635166168213e-01 -9.029418230056762695e-02 -1.198837086558341980e-01
3.890000000000000000e+02 1.821693897247314453e+00 -6.853188037872314453e+00 -2.371191605925559998e-02 -3.105687797069549561e-01 -1.002842038869857788e-01 -1.977583020925521851e-01
3.900000000000000000e+02 4.043309688568115234e-01 -2.701691150665283203e+00 -4.086907953023910522e-03 -5.291533842682838440e-02 -1.710067316889762878e-02 -2.023483440279960632e-02
3.910000000000000000e+02 4.091733992099761963e-01 -1.900053858757019043e+00 -4.065308719873428345e-03 -2.067376486957073212e-02 -7.421721704304218292e-03 -1.220912486314773560e-02
3.920000000000000000e+02 4.481425285339355469e-01 -4.200997543334960938e+01 9.279476944357156754e-05 1.567568898200988770e+00 4.702984988689422607e-01 2.081717830151319504e-04
3.930000000000000000e+02 4.984453320503234863e-01 -4.112797164916992188e+01 1.553994044661521912e-02 1.570062875747680664e+00 4.756808578968048096e-01 -6.566224619746208191e-03
3.940000000000000000e+02 3.758498728275299072e-01 -4.040130996704101562e+01 -1.563887856900691986e-02 1.587926626205444336e+00 4.716863334178924561e-01 -1.708559878170490265e-02
3.950000000000000000e+02 4.930916726589202881e-01 -3.892930603027343750e+01 -2.986309351399540901e-03 1.659304857254028320e+00 4.968955516815185547e-01 -1.996314898133277893e-02
3.960000000000000000e+02 3.731873333454132080e-01 -3.970611953735351562e+01 1.372764259576797485e-02 1.628238558769226074e+00 4.925898909568786621e-01 -1.265962421894073486e-02
3.970000000000000000e+02 4.873146414756774902e-01 -3.728190612792968750e+01 -1.567496731877326965e-02 1.746131539344787598e+00 5.191369652748107910e-01 -3.075801022350788116e-02
3.980000000000000000e+02 4.294340610504150391e-01 -3.567567443847656250e+01 -3.767989343032240868e-03 1.855931520462036133e+00 5.556490421295166016e-01 -3.292806446552276611e-02
3.990000000000000000e+02 4.222663938999176025e-01 -3.486691284179687500e+01 -2.172960899770259857e-03 1.914009809494018555e+00 5.735510587692260742e-01 -2.728898450732231140e-02
4.000000000000000000e+02 4.117629230022430420e-01 -3.405720901489257812e+01 -2.941315760836005211e-03 1.964210033416748047e+00 5.883806347846984863e-01 -2.248442731797695160e-02
4.010000000000000000e+02 4.018270373344421387e-01 -3.324874496459960938e+01 -2.782632596790790558e-03 2.005549192428588867e+00 6.008299589157104492e-01 -1.673108339309692383e-02
4.020000000000000000e+02 3.939977288246154785e-01 -3.244097900390625000e+01 -8.539142087101936340e-03 2.031523466110229492e+00 6.068953275680541992e-01 -5.513120908290147781e-03
4.030000000000000000e+02 1.188414454460144043e+00 -3.322824096679687500e+01 -2.594127506017684937e-02 1.693107366561889648e+00 5.001498460769653320e-01 -3.830936551094055176e-02
4.040000000000000000e+02 3.872162699699401855e-01 -3.163406372070312500e+01 -5.763899069279432297e-03 2.031463861465454102e+00 6.077100038528442383e-01 9.437291882932186127e-03
4.050000000000000000e+02 1.144512176513671875e+00 -2.915143394470214844e+01 -6.506820023059844971e-02 1.455737352371215820e+00 4.172007441520690918e-01 2.254755049943923950e-01
4.060000000000000000e+02 3.877797424793243408e-01 -2.920300674438476562e+01 -1.946092396974563599e-02 1.778669238090515137e+00 5.277624726295471191e-01 8.353495597839355469e-02
4.070000000000000000e+02 1.175501108169555664e+00 -2.830638694763183594e+01 -6.712245941162109375e-02 1.284390330314636230e+00 3.651803731918334961e-01 3.122317492961883545e-01
4.080000000000000000e+02 3.904109597206115723e-01 -2.757625770568847656e+01 -1.358292717486619949e-02 1.332404494285583496e+00 3.956464529037475586e-01 1.388839036226272583e-01
4.090000000000000000e+02 6.192449092864990234e+00 -2.515098190307617188e+01 -4.327811300754547119e-02 8.257017731666564941e-01 2.347270995378494263e-01 2.398255020380020142e-01
4.100000000000000000e+02 2.538972616195678711e+00 -2.622962951660156250e+01 -1.627116203308105469e-01 6.846589446067810059e-01 1.565841883420944214e-01 8.222036361694335938e-01
4.110000000000000000e+02 1.056260704994201660e+00 -2.585534477233886719e+01 -2.361578494310379028e-02 5.795964598655700684e-01 1.667942106723785400e-01 4.797069430351257324e-01
4.120000000000000000e+02 1.029794812202453613e+00 -2.036753273010253906e+01 6.583188474178314209e-02 -1.329325318336486816e+00 -3.790480196475982666e-01 2.518998384475708008e-01
4.130000000000000000e+02 6.519040584564208984e+00 -2.103306770324707031e+01 4.072644412517547607e-01 3.297725677490234375e+00 1.111497044563293457e+00 1.051512122154235840e+00
4.140000000000000000e+02 1.068452477455139160e+00 -2.192731475830078125e+01 5.003023520112037659e-02 -8.877602815628051758e-01 -2.513190209865570068e-01 4.071949422359466553e-01
4.150000000000000000e+02 1.756041526794433594e+00 -1.564251232147216797e+01 6.008968129754066467e-02 -1.107779860496520996e+00 -3.143070340156555176e-01 -1.848377585411071777e-01
4.160000000000000000e+02 3.518416285514831543e-01 -1.719064712524414062e+01 2.036620164290070534e-03 -2.197872877120971680e+00 -6.587508916854858398e-01 -1.814375817775726318e-02
4.170000000000000000e+02 3.567435443401336670e-01 -1.557802486419677734e+01 -1.439705025404691696e-03 -2.020755767822265625e+00 -6.066586375236511230e-01 -5.569560080766677856e-02
4.180000000000000000e+02 3.580306768417358398e-01 -1.477386093139648438e+01 8.006032556295394897e-03 -1.884422540664672852e+00 -5.629249811172485352e-01 -6.341218203306198120e-02
4.190000000000000000e+02 3.590067028999328613e-01 -1.396966743469238281e+01 -1.078044413588941097e-03 -1.731251120567321777e+00 -5.196987390518188477e-01 -7.068942487239837646e-02
4.200000000000000000e+02 3.587274849414825439e-01 -1.316573619842529297e+01 3.064688062295317650e-03 -1.567528009414672852e+00 -4.693389832973480225e-01 -7.301029562950134277e-02
4.210000000000000000e+02 3.568919301033020020e-01 -1.236277294158935547e+01 -2.600669162347912788e-03 -1.400509715080261230e+00 -4.209331274032592773e-01 -7.310302555561065674e-02
4.220000000000000000e+02 3.538166880607604980e-01 -1.156128120422363281e+01 3.603487275540828705e-04 -1.235148072242736816e+00 -3.704363107681274414e-01 -7.060526311397552490e-02
4.230000000000000000e+02 1.760272264480590820e+00 -1.241626834869384766e+01 -7.421283517032861710e-03 -8.470425009727478027e-01 -2.563391327857971191e-01 -2.899777591228485107e-01
4.240000000000000000e+02 3.513078689575195312e-01 -1.075960159301757812e+01 -2.804826479405164719e-03 -1.074841856956481934e+00 -3.232940137386322021e-01 -6.739127635955810547e-02
4.250000000000000000e+02 3.562791943550109863e-01 -8.350282669067382812e+00 -9.498725994490087032e-04 -6.492220759391784668e-01 -1.950515955686569214e-01 -5.479954555630683899e-02
4.260000000000000000e+02 3.605695068836212158e-01 -7.545862674713134766e+00 -2.515198430046439171e-03 -5.293790102005004883e-01 -1.595682650804519653e-01 -5.057303607463836670e-02
4.270000000000000000e+02 3.673709928989410400e-01 -6.739133834838867188e+00 -8.921976550482213497e-04 -4.203996956348419189e-01 -1.263875663280487061e-01 -4.682814702391624451e-02
4.280000000000000000e+02 3.760592341423034668e-01 -5.930218219757080078e+00 -2.594103571027517319e-03 -3.225054442882537842e-01 -9.752986580133438110e-02 -4.277848079800605774e-02
4.290000000000000000e+02 3.851158916950225830e-01 -5.121331214904785156e+00 -1.682324451394379139e-03 -2.362290769815444946e-01 -7.137342542409896851e-02 -3.824956342577934265e-02
4.300000000000000000e+02 3.930788040161132812e-01 -4.313165187835693359e+00 -3.125738119706511497e-03 -1.620832532644271851e-01 -4.956269636750221252e-02 -3.309736773371696472e-02
4.310000000000000000e+02 3.992974460124969482e-01 -3.506290674209594727e+00 -2.718880074098706245e-03 -1.006081327795982361e-01 -3.099810518324375153e-02 -2.716912142932415009e-02
4.320000000000000000e+02 7.957192993164062500e+01 -4.205774307250976562e+01 1.545025408267974854e-02 1.391074752807617188e+01 4.177859306335449219e+00 1.787305437028408051e-02
4.330000000000000000e+02 7.948847961425781250e+01 -4.121156311035156250e+01 -5.581310018897056580e-02 1.393109416961669922e+01 4.162584304809570312e+00 -2.836103551089763641e-03
4.340000000000000000e+02 5.281501770019531250e+01 -3.928414154052734375e+01 -3.642805218696594238e-01 4.069409072399139404e-01 1.279811933636665344e-02 -3.429451286792755127e-01
4.350000000000000000e+02 3.190315628051757812e+01 -3.890459823608398438e+01 -1.013415694236755371e+00 2.721744775772094727e+00 5.124987363815307617e-01 4.410994946956634521e-01
4.360000000000000000e+02 8.990353584289550781e+00 -3.887586212158203125e+01 7.886515557765960693e-02 -4.291856661438941956e-02 1.078397594392299652e-02 2.254053205251693726e-02
4.370000000000000000e+02 1.607551693916320801e+00 -4.177792739868164062e+01 2.063091658055782318e-02 1.359256148338317871e+00 4.139661192893981934e-01 -3.084856085479259491e-02
4.380000000000000000e+02 7.957511138916015625e+01 4.204166412353515625e+01 5.462437984533607960e-04 5.240169525146484375e+00 1.572214722633361816e+00 -6.213440210558474064e-04
4.390000000000000000e+02 7.951084899902343750e+01 4.116943740844726562e+01 -1.064816140569746494e-03 5.241161346435546875e+00 1.572028875350952148e+00 -5.816324264742434025e-04
4.400000000000000000e+02 7.903625488281250000e+01 3.876886367797851562e+01 8.875756175257265568e-04 5.249265670776367188e+00 1.575045943260192871e+00 -5.648872815072536469e-03
4.410000000000000000e+02 7.598819732666015625e+01 3.921706390380859375e+01 1.130659319460391998e-02 5.235764026641845703e+00 1.574121236801147461e+00 -2.011158131062984467e-02
4.420000000000000000e+02 7.964039611816406250e+01 3.960707473754882812e+01 2.339776983717456460e-04 5.242701530456542969e+00 1.572880625724792480e+00 -1.425252296030521393e-03
4.430000000000000000e+02 7.967990112304687500e+01 3.808178329467773438e+01 5.295659066177904606e-04 5.250938892364501953e+00 1.575440526008605957e+00 -2.074601827189326286e-03
4.440000000000000000e+02 7.968621063232421875e+01 3.731639862060546875e+01 -3.407422918826341629e-04 5.256324291229248047e+00 1.576794981956481934e+00 -2.267192583531141281e-03
4.450000000000000000e+02 7.959952545166015625e+01 3.501888275146484375e+01 6.106310756877064705e-04 5.281107902526855469e+00 1.584515571594238281e+00 -5.102194845676422119e-03
4.460000000000000000e+02 7.958827972412109375e+01 3.421444320678710938e+01 4.944551037624478340e-04 5.292460441589355469e+00 1.587886452674865723e+00 -6.143324542790651321e-03
4.470000000000000000e+02 7.957820129394531250e+01 3.340392684936523438e+01 1.092440448701381683e-03 5.306369781494140625e+00 1.592238664627075195e+00 -7.867963984608650208e-03
4.480000000000000000e+02 7.957422637939453125e+01 3.178320884704589844e+01 9.223606903105974197e-04 5.341352939605712891e+00 1.602682590484619141e+00 -1.060720812529325485e-02
4.490000000000000000e+02 7.957940673828125000e+01 3.097301864624023438e+01 9.210392599925398827e-04 5.363408565521240234e+00 1.609298944473266602e+00 -1.235387660562992096e-02
4.500000000000000000e+02 7.873934936523437500e+01 3.032868957519531250e+01 5.365733057260513306e-03 5.386804103851318359e+00 1.617650985717773438e+00 -4.198653250932693481e-02
4.510000000000000000e+02 7.959448242187500000e+01 2.773867988586425781e+01 1.703748363070189953e-03 5.492017269134521484e+00 1.648116350173950195e+00 -2.090784721076488495e-02
4.520000000000000000e+02 7.959939575195312500e+01 2.693237113952636719e+01 5.523863947018980980e-04 5.535759449005126953e+00 1.660893559455871582e+00 -2.296629175543785095e-02
4.530000000000000000e+02 7.960403442382812500e+01 2.612797927856445312e+01 1.776003511622548103e-03 5.584657192230224609e+00 1.675929903984069824e+00 -2.551208622753620148e-02
4.540000000000000000e+02 7.960804748535156250e+01 2.532467460632324219e+01 7.552275201305747032e-04 5.639189243316650391e+00 1.691983342170715332e+00 -2.794004417955875397e-02
4.550000000000000000e+02 7.961116027832031250e+01 2.452284622192382812e+01 1.614873181097209454e-03 5.699314117431640625e+00 1.710278749465942383e+00 -3.050689399242401123e-02
4.560000000000000000e+02 7.883592987060546875e+01 2.463632392883300781e+01 6.270654965192079544e-03 5.680743217468261719e+00 1.706104159355163574e+00 -8.859071135520935059e-02
4.570000000000000000e+02 7.961389923095703125e+01 2.292117118835449219e+01 1.556118601001799107e-03 5.837706565856933594e+00 1.751778721809387207e+00 -3.615344688296318054e-02
4.580000000000000000e+02 7.961646270751953125e+01 2.051922988891601562e+01 1.193492673337459564e-03 6.091981410980224609e+00 1.827952504158020020e+00 -4.485051706433296204e-02
4.590000000000000000e+02 7.961728668212890625e+01 1.971765899658203125e+01 1.625167555175721645e-03 6.189599514007568359e+00 1.857367396354675293e+00 -4.786593094468116760e-02
4.600000000000000000e+02 7.961793518066406250e+01 1.891614341735839844e+01 9.606457897461950779e-04 6.293418407440185547e+00 1.888313770294189453e+00 -5.048474296927452087e-02
4.610000000000000000e+02 7.961867523193359375e+01 1.811441421508789062e+01 1.628725556656718254e-03 6.403343200683593750e+00 1.921491622924804688e+00 -5.331531539559364319e-02
4.620000000000000000e+02 7.885623168945312500e+01 1.824372291564941406e+01 5.891205742955207825e-03 6.325696945190429688e+00 1.899476408958435059e+00 -1.545205116271972656e-01
4.630000000000000000e+02 7.962040710449218750e+01 1.651078605651855469e+01 1.576532376930117607e-03 6.639892578125000000e+00 1.992440700531005859e+00 -5.789623036980628967e-02
4.640000000000000000e+02 7.962338256835937500e+01 1.410628414154052734e+01 -2.244650095235556364e-04 7.027374267578125000e+00 2.108144998550415039e+00 -6.158688291907310486e-02
4.650000000000000000e+02 7.962420654296875000e+01 1.330432128906250000e+01 4.827337106689810753e-04 7.162076473236083984e+00 2.148767709732055664e+00 -6.198414415121078491e-02
4.660000000000000000e+02 7.962486267089843750e+01 1.250162601470947266e+01 -5.080959526821970940e-04 7.297821044921875000e+00 2.189193964004516602e+00 -6.183267757296562195e-02
4.670000000000000000e+02 7.962583923339843750e+01 1.169978809356689453e+01 -3.765553992707282305e-04 7.433310508728027344e+00 2.229880094528198242e+00 -6.089790165424346924e-02
4.680000000000000000e+02 7.962657165527343750e+01 1.089826107025146484e+01 -9.931018576025962830e-04 7.567356586456298828e+00 2.269908905029296875e+00 -5.938607826828956604e-02
4.690000000000000000e+02 7.962723541259765625e+01 1.009606456756591797e+01 -1.193019677884876728e-03 7.698121547698974609e+00 2.309078693389892578e+00 -5.698934569954872131e-02
4.700000000000000000e+02 7.888415527343750000e+01 1.022578239440917969e+01 -5.470884498208761215e-03 7.509600639343261719e+00 2.251239061355590820e+00 -1.721734553575515747e-01
4.710000000000000000e+02 7.963005065917968750e+01 6.888486385345458984e+00 -3.245267085731029510e-03 8.154847145080566406e+00 2.445480346679687500e+00 -3.864399343729019165e-02
4.720000000000000000e+02 7.963040161132812500e+01 6.086929798126220703e+00 -3.071148646995425224e-03 8.242651939392089844e+00 2.471874237060546875e+00 -3.189965337514877319e-02
4.730000000000000000e+02 7.963058471679687500e+01 5.284540176391601562e+00 -3.995871171355247498e-03 8.315774917602539062e+00 2.493533611297607422e+00 -2.403118833899497986e-02
4.740000000000000000e+02 7.963114166259765625e+01 4.482807159423828125e+00 -3.857079893350601196e-03 8.372684478759765625e+00 2.510648250579833984e+00 -1.558113563805818558e-02
4.750000000000000000e+02 7.963150787353515625e+01 3.681128740310668945e+00 -4.915854427963495255e-03 8.410983085632324219e+00 2.521820068359375000e+00 -5.778423044830560684e-03
4.760000000000000000e+02 7.889710235595703125e+01 3.811674833297729492e+00 -2.041656710207462311e-02 8.199336051940917969e+00 2.453675985336303711e+00 -3.892804682254791260e-02
4.770000000000000000e+02 7.963235473632812500e+01 2.076365709304809570e+00 -5.596261005848646164e-03 8.426177024841308594e+00 2.526174068450927734e+00 1.512478850781917572e-02
4.780000000000000000e+02 7.963341522216796875e+01 -3.282236456871032715e-01 -4.483186174184083939e-03 8.278590202331542969e+00 2.482232093811035156e+00 4.840018227696418762e-02
4.790000000000000000e+02 7.963349914550781250e+01 -1.130036711692810059e+00 -5.613963585346937180e-03 8.181608200073242188e+00 2.452798128128051758e+00 5.988781526684761047e-02
4.800000000000000000e+02 7.963372039794921875e+01 -1.932658791542053223e+00 -3.924006130546331406e-03 8.061521530151367188e+00 2.417279243469238281e+00 7.017196714878082275e-02
4.810000000000000000e+02 7.963420104980468750e+01 -2.734564542770385742e+00 -5.130446515977382660e-03 7.918646335601806641e+00 2.374054908752441406e+00 8.060404658317565918e-02
4.820000000000000000e+02 7.963438415527343750e+01 -3.536390542984008789e+00 -2.903390442952513695e-03 7.754873275756835938e+00 2.325590848922729492e+00 8.922627568244934082e-02
4.830000000000000000e+02 7.890687561035156250e+01 -3.406577825546264648e+00 -1.953819021582603455e-02 7.784832954406738281e+00 2.329588413238525391e+00 2.236612439155578613e-01
4.840000000000000000e+02 7.963508605957031250e+01 -5.141099929809570312e+00 -1.457100152038037777e-03 7.371790409088134766e+00 2.211099863052368164e+00 1.039355024695396423e-01
4.850000000000000000e+02 7.963536834716796875e+01 -7.545088291168212891e+00 -1.342850155197083950e-03 6.699337482452392578e+00 2.009398460388183594e+00 1.151957511901855469e-01
4.860000000000000000e+02 7.963514709472656250e+01 -8.347107887268066406e+00 1.728230970911681652e-03 6.463508605957031250e+00 1.939571142196655273e+00 1.144434958696365356e-01
4.870000000000000000e+02 7.963493347167968750e+01 -9.149252891540527344e+00 1.851450884714722633e-03 6.231092453002929688e+00 1.869883179664611816e+00 1.107234209775924683e-01
4.880000000000000000e+02 7.963487243652343750e+01 -9.951601028442382812e+00 4.543964751064777374e-03 6.009302616119384766e+00 1.804153919219970703e+00 1.033659577369689941e-01
4.890000000000000000e+02 7.963507843017578125e+01 -1.075366783142089844e+01 5.119257140904664993e-03 5.805251598358154297e+00 1.743111252784729004e+00 9.275666624307632446e-02
4.900000000000000000e+02 7.890741729736328125e+01 -1.062390136718750000e+01 2.596259675920009613e-02 6.351763248443603516e+00 1.913317799568176270e+00 2.471397966146469116e-01
4.910000000000000000e+02 7.963565063476562500e+01 -1.235723972320556641e+01 8.378066122531890869e-03 5.477357387542724609e+00 1.645720601081848145e+00 6.209576129913330078e-02
4.920000000000000000e+02 7.963495635986328125e+01 -1.476286792755126953e+01 1.104909833520650864e-02 5.279246807098388672e+00 1.587088823318481445e+00 -2.671788446605205536e-03
4.930000000000000000e+02 7.963368988037109375e+01 -1.556592845916748047e+01 1.141569297760725021e-02 5.309483528137207031e+00 1.596269726753234863e+00 -2.746826037764549255e-02
4.940000000000000000e+02 7.963207244873046875e+01 -1.636935615539550781e+01 1.095986925065517426e-02 5.389986991882324219e+00 1.620284080505371094e+00 -5.175949260592460632e-02
4.950000000000000000e+02 7.963101196289062500e+01 -1.717341232299804688e+01 1.058289036154747009e-02 5.518039226531982422e+00 1.658586621284484863e+00 -7.505941390991210938e-02
4.960000000000000000e+02 7.963097381591796875e+01 -1.797712516784667969e+01 1.049491669982671738e-02 5.692121982574462891e+00 1.710785150527954102e+00 -9.768836945295333862e-02
4.970000000000000000e+02 7.889643859863281250e+01 -1.705616378784179688e+01 4.800201952457427979e-02 6.237102985382080078e+00 1.885531544685363770e+00 -1.993696242570877075e-01
4.980000000000000000e+02 7.963159179687500000e+01 -1.958336639404296875e+01 9.224708192050457001e-03 6.168691635131835938e+00 1.853374838829040527e+00 -1.390274614095687866e-01
4.990000000000000000e+02 7.963256072998046875e+01 -2.198882293701171875e+01 8.408493362367153168e-03 7.156168460845947266e+00 2.149373054504394531e+00 -1.915874928236007690e-01
5.000000000000000000e+02 7.963180541992187500e+01 -2.279114913940429688e+01 7.402765098959207535e-03 7.549821376800537109e+00 2.267167091369628906e+00 -2.075490206480026245e-01
5.010000000000000000e+02 7.963076782226562500e+01 -2.359354019165039062e+01 7.543883286416530609e-03 7.970566749572753906e+00 2.393433094024658203e+00 -2.226422280073165894e-01
5.020000000000000000e+02 7.962943267822265625e+01 -2.439617156982421875e+01 5.998101085424423218e-03 8.415629386901855469e+00 2.526488304138183594e+00 -2.356768995523452759e-01
5.030000000000000000e+02 7.889103698730468750e+01 -2.428834724426269531e+01 2.562071382999420166e-02 8.647660255432128906e+00 2.601984500885009766e+00 -6.132086515426635742e-01
5.040000000000000000e+02 7.962589263916015625e+01 -2.600216293334960938e+01 3.858018200844526291e-03 9.356713294982910156e+00 2.808171510696411133e+00 -2.548432946205139160e-01
5.050000000000000000e+02 7.961538696289062500e+01 -2.840908241271972656e+01 -1.875327434390783310e-03 1.078247451782226562e+01 3.234179973602294922e+00 -2.546423375606536865e-01
5.060000000000000000e+02 7.961022186279296875e+01 -2.921229553222656250e+01 -4.570923745632171631e-03 1.122768688201904297e+01 3.366934776306152344e+00 -2.460120767354965210e-01
5.070000000000000000e+02 7.960581207275390625e+01 -3.001585006713867188e+01 -6.565787829458713531e-03 1.164274692535400391e+01 3.490854501724243164e+00 -2.329991012811660767e-01
5.080000000000000000e+02 7.960282897949218750e+01 -3.081670951843261719e+01 -9.685731492936611176e-03 1.202281093597412109e+01 3.603937387466430664e+00 -2.147904634475708008e-01
5.090000000000000000e+02 7.960077667236328125e+01 -3.161584281921386719e+01 -3.252387279644608498e-03 1.236981296539306641e+01 3.709968090057373047e+00 -2.016211003065109253e-01
5.100000000000000000e+02 7.879876708984375000e+01 -3.151369094848632812e+01 -4.254327341914176941e-02 1.187348651885986328e+01 3.549283027648925781e+00 -4.944541156291961670e-01
5.110000000000000000e+02 7.959657287597656250e+01 -3.321154403686523438e+01 -1.798468292690813541e-03 1.293905448913574219e+01 3.881176948547363281e+00 -1.555765718221664429e-01
5.120000000000000000e+02 7.959220123291015625e+01 -3.559640502929687500e+01 -1.013264711946249008e-02 1.346070384979248047e+01 4.035171508789062500e+00 -8.795169740915298462e-02
5.130000000000000000e+02 7.959255218505859375e+01 -3.639590454101562500e+01 -8.509594015777111053e-03 1.356535625457763672e+01 4.067054271697998047e+00 -6.946681439876556396e-02
5.140000000000000000e+02 7.957961273193359375e+01 -3.719532775878906250e+01 -4.008894786238670349e-03 1.364719104766845703e+01 4.092954635620117188e+00 -5.809060856699943542e-02
5.150000000000000000e+02 7.954187011718750000e+01 -3.799467086791992188e+01 -6.624500732868909836e-03 1.370891189575195312e+01 4.110686302185058594e+00 -4.739029705524444580e-02
5.160000000000000000e+02 7.949770355224609375e+01 -3.879085159301757812e+01 1.343829091638326645e-02 1.377252101898193359e+01 4.135787963867187500e+00 -5.704221129417419434e-02
5.170000000000000000e+02 7.949259948730468750e+01 -4.040504837036132812e+01 8.036744780838489532e-03 1.390459442138671875e+01 4.173789501190185547e+00 -5.103518813848495483e-02
5.180000000000000000e+02 4.051335453987121582e-01 4.207216262817382812e+01 -5.949523983872495592e-05 6.191947613842785358e-04 1.679098495515063405e-04 -7.150072633521631360e-05
5.190000000000000000e+02 4.524258673191070557e-01 4.124518585205078125e+01 1.940363872563466430e-04 5.628013168461620808e-04 2.270513068651780486e-04 2.172852509829681367e-05
5.200000000000000000e+02 7.353200435638427734e+00 3.698959350585937500e+01 -1.250170171260833740e-04 -1.631855120649561286e-04 -8.646075730212032795e-05 -2.970441710203886032e-04
5.210000000000000000e+02 2.847871971130371094e+01 3.699399185180664062e+01 -1.411082148551940918e-01 -6.275437306612730026e-03 -4.421509429812431335e-02 1.109953969717025757e-02
5.220000000000000000e+02 4.546634292602539062e+01 3.929973983764648438e+01 -5.010117888450622559e-01 4.140466213226318359e+00 1.091836333274841309e+00 2.995210327208042145e-02
5.230000000000000000e+02 7.894793701171875000e+01 3.938108062744140625e+01 8.677928708493709564e-04 5.245495796203613281e+00 1.573909044265747070e+00 -4.414746072143316269e-03
5.240000000000000000e+02 7.854356384277343750e+01 4.192388916015625000e+01 5.559031851589679718e-04 5.240444660186767578e+00 1.572300195693969727e+00 6.850321078673005104e-04
5.250000000000000000e+02 3.814180195331573486e-01 1.894637107849121094e+00 -1.161077989308978431e-06 -2.827076173161913175e-08 -3.568046338386920979e-07 1.003699665602653113e-07
5.260000000000000000e+02 1.147962331771850586e+00 1.882599711418151855e+00 1.265776177206134889e-06 2.515033337147087877e-08 3.872779643643298186e-07 -9.273243506413564319e-08
5.270000000000000000e+02 3.409956455230712891e+00 2.593173980712890625e+00 2.351967395952669904e-06 5.661600539497158024e-07 8.754382179176900536e-07 -3.669628600988517064e-09
5.280000000000000000e+02 4.184703350067138672e+00 2.581595420837402344e+00 -2.827775688274414279e-06 -8.487947980029275641e-07 -1.102971168620570097e-06 3.219113295926945284e-07
5.290000000000000000e+02 3.532263934612274170e-01 4.276880741119384766e+00 2.348005864405422471e-06 -3.499243561577713990e-08 6.939040417819342110e-07 -1.463024545955704525e-07
5.300000000000000000e+02 1.049856781959533691e+00 6.549973487854003906e+00 3.811476517512346618e-06 -8.146022878463554662e-07 8.990622291094041429e-07 2.765919475677947048e-07
5.310000000000000000e+02 3.473923802375793457e-01 5.868000030517578125e+00 2.809784291457617655e-06 -2.886415018110710662e-07 7.563428425783058628e-07 -1.893100147754012141e-07
5.320000000000000000e+02 3.510220050811767578e-01 8.265046119689941406e+00 -2.385725110798375681e-06 -5.291012712405063212e-07 -8.744478918742970563e-07 5.121916402117676625e-08
5.330000000000000000e+02 3.527178764343261719e-01 9.067179679870605469e+00 1.802644533199782018e-06 -1.446552687411895022e-06 1.068275707893917570e-07 4.149378582951612771e-07
5.340000000000000000e+02 3.541457951068878174e-01 9.870102882385253906e+00 -1.038854520629683975e-06 -9.229734700966218952e-07 -5.885484029022336472e-07 -3.952463885070756078e-07
5.350000000000000000e+02 3.550787866115570068e-01 1.067386531829833984e+01 -8.706515508549728111e-09 -2.456165702824364416e-06 -7.394616545752796810e-07 1.082813128050474916e-06
5.360000000000000000e+02 3.555012345314025879e-01 1.147752857208251953e+01 1.169366555586748291e-06 -1.665114950810675509e-06 -1.487244958298106212e-07 -9.460494538870989345e-07
5.370000000000000000e+02 1.066451907157897949e+00 1.133938407897949219e+01 2.316386144229909405e-06 -3.873509740515146405e-06 -4.671370845699129859e-07 2.911728188337292522e-06
5.380000000000000000e+02 3.560533523559570312e-01 1.308551406860351562e+01 3.892851964337751269e-06 -2.914372771556372754e-06 2.935438487838837318e-07 -1.415148972228053026e-06
5.390000000000000000e+02 3.565398156642913818e-01 1.549657917022705078e+01 -7.598026968480553478e-06 -7.997720786079298705e-06 -4.678724508266896009e-06 2.705082806642167270e-06
5.400000000000000000e+02 3.569017350673675537e-01 1.630024909973144531e+01 8.205980520870070904e-06 -7.356637979683000594e-06 2.548027850934886374e-07 -1.395660774505813606e-06
5.410000000000000000e+02 3.574041724205017090e-01 1.710431098937988281e+01 -8.436647476628422737e-06 -1.071866245183628052e-05 -5.746593160438351333e-06 2.387561835348606110e-06
5.420000000000000000e+02 3.577538728713989258e-01 1.790873527526855469e+01 8.035992323129903525e-06 -1.050567789206979796e-05 -7.409056479446007870e-07 -5.444650241770432331e-07
5.430000000000000000e+02 3.579429686069488525e-01 1.871310997009277344e+01 -7.138406999729340896e-06 -1.388687360304174945e-05 -6.307584044407121837e-06 1.470224901822803076e-06
5.440000000000000000e+02 3.590440750122070312e-01 2.192920875549316406e+01 9.711452548799570650e-07 -1.827469168347306550e-05 -5.191063792153727263e-06 -1.828333097364520654e-06
5.450000000000000000e+02 3.595140278339385986e-01 2.273209571838378906e+01 -3.514822310535237193e-06 -1.607116246304940432e-05 -5.875795523024862632e-06 2.285347363795153797e-06
5.460000000000000000e+02 3.603848814964294434e-01 2.353577804565429688e+01 7.245732376759406179e-06 -1.621014052943792194e-05 -2.689322400328819640e-06 -4.463160166778834537e-06
5.470000000000000000e+02 3.614702820777893066e-01 2.433990287780761719e+01 -1.011883068713359535e-05 -1.134112608269788325e-05 -6.437986939999973401e-06 2.684321316337445751e-06
5.480000000000000000e+02 3.625808656215667725e-01 2.514398574829101562e+01 1.506874741608044133e-05 -7.656241905351635069e-06 2.223751835117582232e-06 -8.300825356855057180e-06
5.490000000000000000e+02 1.083919882774353027e+00 2.420155525207519531e+01 9.908416359394323081e-06 -7.367530088231433183e-06 7.622659268236020580e-07 -1.293713467021007091e-05
5.500000000000000000e+02 3.660557270050048828e-01 2.675247383117675781e+01 2.535200655984226614e-05 1.080658967111958191e-05 1.084757877833908424e-05 -1.363175761071033776e-05
5.510000000000000000e+02 3.744803369045257568e-01 2.916413879394531250e+01 -4.258292028680443764e-05 6.616352766286581755e-05 7.074181667121592909e-06 7.071539585012942553e-07
5.520000000000000000e+02 3.769897818565368652e-01 2.996761322021484375e+01 4.944605097989551723e-05 8.909947791835293174e-05 4.156365685048513114e-05 -2.435653550492133945e-05
5.530000000000000000e+02 3.784549832344055176e-01 3.076925849914550781e+01 -5.020339449401944876e-05 1.233059738297015429e-04 2.193077489209827036e-05 -4.406519110489170998e-06
5.540000000000000000e+02 3.811061680316925049e-01 3.157013511657714844e+01 5.258867531665600836e-05 1.540484081488102674e-04 6.199112249305471778e-05 -2.752902764768805355e-05
5.550000000000000000e+02 1.136941432952880859e+00 3.142180061340332031e+01 -3.448135248618200421e-05 1.550052984384819865e-04 3.615718378568999469e-05 -4.271180659998208284e-05
5.560000000000000000e+02 3.995789587497711182e-01 3.317633438110351562e+01 5.848229920957237482e-05 2.412683534203097224e-04 8.992519724415615201e-05 -3.770355397136881948e-05
5.570000000000000000e+02 4.378736913204193115e-01 3.557559967041015625e+01 -8.707695815246552229e-05 3.855421673506498337e-04 8.953955693868920207e-05 -5.468262770591536537e-06
5.580000000000000000e+02 4.715064465999603271e-01 3.638568878173828125e+01 9.909173240885138512e-05 4.400562320370227098e-04 1.617443922441452742e-04 -5.310666165314614773e-05
5.590000000000000000e+02 5.200844407081604004e-01 3.720422744750976562e+01 -8.862556569511070848e-05 5.141171277500689030e-04 1.276474649785086513e-04 -3.354782529640942812e-05
5.600000000000000000e+02 5.327988862991333008e-01 3.802867507934570312e+01 3.912392276106402278e-05 5.379180074669420719e-04 1.731125666992738843e-04 -9.931366548698861152e-06
5.610000000000000000e+02 4.899747371673583984e-01 3.885135269165039062e+01 -1.480169612477766350e-05 5.727614625357091427e-04 1.673879305599257350e-04 -2.688939093786757439e-05
5.620000000000000000e+02 4.306251704692840576e-01 4.045092391967773438e+01 -1.811529073165729642e-04 6.437493138946592808e-04 1.387789234286174178e-04 6.876167026348412037e-05
5.630000000000000000e+02 1.050296974182128906e+01 1.753289461135864258e+00 3.055174147448269650e-06 4.446558250492671505e-06 2.250519628432812169e-06 -2.296866625783877680e-07
5.640000000000000000e+02 8.150282859802246094e+00 1.840228319168090820e+00 -2.795814907585736364e-06 -2.332452140763052739e-06 -1.538480091767269187e-06 2.009780075695744017e-07
5.650000000000000000e+02 8.933455467224121094e+00 1.830882668495178223e+00 2.232390897916047834e-06 2.992165718751493841e-06 1.567367007737630047e-06 -4.327864289166427625e-08
5.660000000000000000e+02 5.687004089355468750e+00 3.256943702697753906e+00 3.994256076111923903e-06 1.566531750540889334e-06 1.668236336627160199e-06 -5.807333991469931789e-07
5.670000000000000000e+02 6.587530136108398438e+00 1.851885557174682617e+00 -2.491017767169978470e-06 -1.505253294453723356e-06 -1.198881363961845636e-06 2.450257170494296588e-07
5.680000000000000000e+02 5.027140617370605469e+00 1.859137415885925293e+00 -2.130473603756399825e-06 -8.463933909297338687e-07 -8.930601325118914247e-07 2.030526218277373118e-07
5.690000000000000000e+02 4.248469352722167969e+00 1.861663818359375000e+00 1.692273713160830084e-06 5.809673098156054039e-07 6.819723239459563047e-07 7.280486435945476842e-09
5.700000000000000000e+02 3.471078872680664062e+00 1.864778399467468262e+00 -1.783782636266550981e-06 -4.136180393743416062e-07 -6.592201771127292886e-07 1.421577735527534969e-07
5.710000000000000000e+02 2.694814920425415039e+00 1.869024753570556641e+00 1.482252514506399166e-06 2.000666654566884972e-07 5.046957198828749824e-07 1.274910044202215431e-08
5.720000000000000000e+02 1.920018553733825684e+00 1.874671339988708496e+00 -1.448945795345935039e-06 -1.360561867613796494e-07 -4.755005704737413907e-07 9.296056191487878095e-08
5.730000000000000000e+02 1.280772972106933594e+01 1.418024301528930664e+00 -3.195620820406475104e-06 -6.031616976542863995e-06 -2.768171270872699097e-06 -2.964301017982506892e-07
5.740000000000000000e+02 1.355286598205566406e+01 1.313436865806579590e+00 3.109111275989562273e-06 6.667874458798905835e-06 2.933095629487070255e-06 3.672746800020831870e-07
5.750000000000000000e+02 1.499775218963623047e+01 1.124096512794494629e+00 3.985509010817622766e-06 7.547386758233187720e-06 3.459868821664713323e-06 1.608874384828595794e-07
5.760000000000000000e+02 1.571031379699707031e+01 1.034578204154968262e+00 -4.015352715214248747e-06 -8.026317118492443115e-06 -3.612500904637272470e-06 -5.765368182863994662e-09
5.770000000000000000e+02 1.641397666931152344e+01 9.695211648941040039e-01 3.313009983685333282e-06 8.634580808575265110e-06 3.584277237678179517e-06 1.923291961247741710e-07
5.780000000000000000e+02 1.781234741210937500e+01 8.990227580070495605e-01 2.402891595920664258e-06 9.346500519313849509e-06 3.524817657307721674e-06 1.714469931357598398e-06
5.790000000000000000e+02 1.998357582092285156e+01 5.569882869720458984e+00 3.592977373045869172e-05 6.823826879553962499e-06 1.282607991015538573e-05 1.521015383332269266e-05
5.800000000000000000e+02 1.884397315979003906e+01 2.892120361328125000e+00 -3.824461145995883271e-06 -1.226864151249174029e-05 -4.827930752071551979e-06 -6.450904947996605188e-06
5.810000000000000000e+02 2.196751594543457031e+01 2.074069023132324219e+00 -1.071565475285751745e-05 -2.509349769752589054e-06 -3.967501470469869673e-06 -5.314633654052158818e-06
5.820000000000000000e+02 2.177186775207519531e+01 1.242397665977478027e+00 -8.531308594683650881e-06 -3.718511379702249542e-06 -3.674946128739975393e-06 -5.020405296818353236e-06
5.830000000000000000e+02 2.137007331848144531e+01 1.893923282623291016e+00 9.697312634671106935e-06 4.291383447707630694e-06 4.196608642814680934e-06 6.813073923694901168e-06
5.840000000000000000e+02 2.097277259826660156e+01 2.582404136657714844e+00 -1.221844649990089238e-05 -5.437505024019628763e-06 -5.296785275277215987e-06 -8.658105798531323671e-06
5.850000000000000000e+02 1.929907417297363281e+01 8.995903730392456055e-01 3.577282996047870256e-06 6.639450930379098281e-06 3.065020109715987928e-06 3.348263362568104640e-06
5.860000000000000000e+02 1.851720046997070312e+01 8.747710585594177246e-01 -3.396293777768732980e-06 -8.837818313622847199e-06 -3.670233581942738965e-06 -2.515022288207546808e-06
5.870000000000000000e+02 1.944405746459960938e+01 5.370244026184082031e+00 -2.464412136760074645e-05 -9.896580195345450193e-06 -1.036221055983332917e-05 -1.680906279943883419e-05
5.880000000000000000e+02 1.892874336242675781e+01 7.724748134613037109e+00 -4.641422856366261840e-05 -9.910943845170550048e-06 -1.689755117695312947e-05 -2.071591188723687083e-05
5.890000000000000000e+02 1.860222816467285156e+01 8.463159561157226562e+00 4.971291491528972983e-05 1.028402948577422649e-05 1.799908386601600796e-05 2.238793604192323983e-05
5.900000000000000000e+02 1.800477218627929688e+01 9.965279579162597656e+00 5.973840598016977310e-05 1.231161058967700228e-05 2.161500560760032386e-05 2.705522820178885013e-05
5.910000000000000000e+02 1.829922485351562500e+01 9.212920188903808594e+00 -5.414946645032614470e-05 -1.188702117360662669e-05 -1.981094646907877177e-05 -2.428066545689944178e-05
5.920000000000000000e+02 1.742295646667480469e+01 1.147987842559814453e+01 7.495410682167857885e-05 1.287966006202623248e-05 2.635012970131356269e-05 3.249800283811055124e-05
5.930000000000000000e+02 1.690719604492187500e+01 1.302183723449707031e+01 9.657946793595328927e-05 1.179301852971548215e-05 3.251174348406493664e-05 3.798714169533923268e-05
5.940000000000000000e+02 1.667957496643066406e+01 1.380379009246826172e+01 -1.116891435231082141e-04 -1.814651659515220672e-05 -3.895070040016435087e-05 -4.059162893099710345e-05
5.950000000000000000e+02 1.645442390441894531e+01 1.458311176300048828e+01 1.286825136048719287e-04 1.143850477092200890e-05 4.203630305710248649e-05 4.576392893795855343e-05
5.960000000000000000e+02 1.621942710876464844e+01 1.536186790466308594e+01 -1.463633961975574493e-04 -1.731516204017680138e-05 -4.910356437903828919e-05 -4.585352144204080105e-05
5.970000000000000000e+02 1.598793411254882812e+01 1.614889717102050781e+01 1.638226385693997145e-04 -2.948127075796946883e-06 4.826235090149566531e-05 4.367910514702089131e-05
5.980000000000000000e+02 1.530013370513916016e+01 1.597789001464843750e+01 -1.066702170646749437e-04 -5.901676559005863965e-06 -3.377156826900318265e-05 -4.944822285324335098e-05
5.990000000000000000e+02 1.548293685913085938e+01 1.940774917602539062e+01 2.117886615451425314e-04 -1.584092569828499109e-05 5.878432057215832174e-05 6.696113359794253483e-06
6.000000000000000000e+02 1.546510982513427734e+01 2.022753334045410156e+01 -2.487054152879863977e-04 -2.372808194195386022e-05 -8.173004607670009136e-05 -7.618848030688241124e-06
6.010000000000000000e+02 1.548583030700683594e+01 2.265580177307128906e+01 4.102042003069072962e-04 -2.524050250940490514e-05 1.154891069745644927e-04 -1.112531390390358865e-05
6.020000000000000000e+02 1.551225662231445312e+01 2.346516227722167969e+01 -4.582660330925136805e-04 -2.239049172203522176e-05 -1.441969652660191059e-04 2.391491761954966933e-05
6.030000000000000000e+02 1.555974388122558594e+01 2.427885055541992188e+01 4.996588104404509068e-04 -2.340248101972974837e-05 1.428768882760778069e-04 -4.408565655467100441e-05
6.040000000000000000e+02 1.565613079071044922e+01 2.509517097473144531e+01 -4.991456517018377781e-04 2.004424823098815978e-05 -1.437304163118824363e-04 1.136447463068179786e-04
6.050000000000000000e+02 1.737892341613769531e+01 2.971870040893554688e+01 -2.822124515660107136e-04 2.421154931653290987e-04 -1.202908242703415453e-05 5.614580586552619934e-04
6.060000000000000000e+02 1.704817199707031250e+01 3.087934303283691406e+01 -2.464932003931608051e-05 1.047119658323936164e-04 2.401879282842855901e-05 6.283837137743830681e-04
6.070000000000000000e+02 1.778042793273925781e+01 3.044280433654785156e+01 8.825933327898383141e-04 6.665390683338046074e-04 4.647397145163267851e-04 8.334750600624829531e-05
6.080000000000000000e+02 1.866123390197753906e+01 3.186091232299804688e+01 1.023038057610392570e-03 1.055614906363189220e-03 6.235959008336067200e-04 2.737892500590533018e-04
6.090000000000000000e+02 2.017535591125488281e+01 3.381448364257812500e+01 5.989082856103777885e-04 9.552650735713541508e-04 4.662520077545195818e-04 2.159091411158442497e-03
6.100000000000000000e+02 2.074547386169433594e+01 3.439804077148437500e+01 5.192884244024753571e-03 2.209657570347189903e-03 2.220762427896261215e-03 9.284627594752237201e-05
6.110000000000000000e+02 2.206575775146484375e+01 3.539296722412109375e+01 8.053141646087169647e-03 4.288142547011375427e-03 3.702385118231177330e-03 -1.230325317010283470e-03
6.120000000000000000e+02 2.280905342102050781e+01 3.585925292968750000e+01 3.364273114129900932e-03 -4.735321737825870514e-03 -4.113146278541535139e-04 7.173870224505662918e-03
6.130000000000000000e+02 2.361928939819335938e+01 3.628683853149414062e+01 -1.323515549302101135e-03 6.202874705195426941e-03 1.463807770051062107e-03 4.552937112748622894e-03
6.140000000000000000e+02 2.693980789184570312e+01 3.694867324829101562e+01 -5.526287108659744263e-02 5.887710023671388626e-03 -1.481254864484071732e-02 1.082399487495422363e-02
6.150000000000000000e+02 2.777580642700195312e+01 3.693607330322265625e+01 -8.135968446731567383e-02 4.110751207917928696e-03 -2.317467890679836273e-02 4.001819994300603867e-03
6.160000000000000000e+02 3.080527114868164062e+01 3.713091659545898438e+01 -2.516518235206604004e-01 -2.393770217895507812e-02 -8.267685770988464355e-02 7.830485701560974121e-02
6.170000000000000000e+02 3.175475883483886719e+01 3.685936737060546875e+01 -2.952463328838348389e-01 -7.927307486534118652e-02 -1.123558208346366882e-01 1.147749423980712891e-01
6.180000000000000000e+02 3.459945678710937500e+01 3.639323043823242188e+01 -2.934728860855102539e-01 -2.640859596431255341e-02 -9.596444666385650635e-02 1.032437235116958618e-01
6.190000000000000000e+02 3.539505386352539062e+01 3.587316131591796875e+01 -3.060390949249267578e-01 -4.686147905886173248e-03 -9.321757405996322632e-02 1.052367016673088074e-01
6.200000000000000000e+02 3.592674636840820312e+01 3.533726882934570312e+01 -3.063995838165283203e-01 -3.670795261859893799e-02 -1.029322594404220581e-01 3.989422321319580078e-02
6.210000000000000000e+02 3.642020797729492188e+01 3.491200637817382812e+01 -9.809777885675430298e-02 6.342323869466781616e-02 -1.040236279368400574e-02 4.247257485985755920e-02
6.220000000000000000e+02 3.780669784545898438e+01 3.419371032714843750e+01 3.364917933940887451e-01 8.159334659576416016e-01 3.457275927066802979e-01 -5.668464899063110352e-01
6.230000000000000000e+02 3.961385345458984375e+01 3.246161270141601562e+01 9.725682735443115234e-01 2.734509468078613281e+00 1.112123250961303711e+00 -1.500829935073852539e+00
6.240000000000000000e+02 4.076293945312500000e+01 3.024479484558105469e+01 5.771597623825073242e-01 5.019557476043701172e+00 1.679015159606933594e+00 -1.614892840385437012e+00
6.250000000000000000e+02 4.126029968261718750e+01 2.866940498352050781e+01 6.409608125686645508e-01 7.214732170104980469e+00 2.356708049774169922e+00 -1.317656159400939941e+00
6.260000000000000000e+02 4.140460586547851562e+01 2.621682548522949219e+01 3.770737349987030029e-02 6.571501255035400391e+00 1.982762694358825684e+00 -9.096822142601013184e-02
6.270000000000000000e+02 4.218177795410156250e+01 2.629452323913574219e+01 1.649397462606430054e-01 6.483971595764160156e+00 1.994673371315002441e+00 -2.409474700689315796e-01
6.280000000000000000e+02 4.140214157104492188e+01 2.540836524963378906e+01 1.792254298925399780e-02 6.450694561004638672e+00 1.940585136413574219e+00 -3.566102311015129089e-02
6.290000000000000000e+02 4.137670898437500000e+01 2.139929580688476562e+01 1.428419817239046097e-02 6.833402633666992188e+00 2.054306030273437500e+00 9.310911595821380615e-02
6.300000000000000000e+02 4.137362289428710938e+01 2.059961509704589844e+01 7.298109587281942368e-03 7.062075138092041016e+00 2.120811939239501953e+00 1.169404163956642151e-01
6.310000000000000000e+02 4.137104415893554688e+01 1.979924583435058594e+01 2.423529140651226044e-02 7.362821578979492188e+00 2.216117143630981445e+00 1.525314450263977051e-01
6.320000000000000000e+02 4.136675262451171875e+01 1.899920654296875000e+01 9.947465732693672180e-03 7.710169792175292969e+00 2.316035270690917969e+00 1.900383532047271729e-01
6.330000000000000000e+02 4.203068923950195312e+01 1.737627792358398438e+01 3.540193736553192139e-01 8.310229301452636719e+00 2.599274635314941406e+00 8.602033257484436035e-01
6.340000000000000000e+02 4.130311965942382812e+01 1.659049415588378906e+01 1.085860952734947205e-01 9.217625617980957031e+00 2.797863721847534180e+00 7.730568051338195801e-01
6.350000000000000000e+02 4.119172668457031250e+01 1.498663425445556641e+01 4.292685985565185547e-01 1.090064048767089844e+01 3.398972749710083008e+00 1.312965393066406250e+00
6.360000000000000000e+02 4.095314788818359375e+01 1.339392757415771484e+01 4.285680949687957764e-01 1.096628475189208984e+01 3.418455839157104492e+00 2.088028907775878906e+00
6.370000000000000000e+02 4.108691406250000000e+01 1.418679428100585938e+01 4.781490564346313477e-01 1.106658172607421875e+01 3.463419198989868164e+00 1.862397551536560059e+00
6.380000000000000000e+02 4.084101486206054688e+01 9.280736923217773438e+00 1.683956980705261230e+00 1.252277278900146484e+01 4.262018680572509766e+00 3.796888351440429688e+00
6.390000000000000000e+02 4.037458038330078125e+01 1.022931385040283203e+01 8.964238762855529785e-01 1.382508468627929688e+01 4.416452407836914062e+00 3.177228450775146484e+00
6.400000000000000000e+02 3.974530410766601562e+01 7.889813423156738281e+00 1.835974216461181641e+00 1.516839218139648438e+01 5.101309776306152344e+00 4.972374916076660156e+00
6.410000000000000000e+02 3.947697830200195312e+01 7.125740528106689453e+00 2.324319362640380859e+00 1.520697021484375000e+01 5.259387016296386719e+00 5.533280372619628906e+00
6.420000000000000000e+02 3.804746246337890625e+01 4.221067428588867188e+00 2.827754735946655273e+00 1.007299900054931641e+01 3.870226144790649414e+00 5.079641819000244141e+00
6.430000000000000000e+02 3.759646224975585938e+01 3.541124582290649414e+00 2.514594078063964844e+00 7.710648059844970703e+00 3.067572593688964844e+00 4.272172451019287109e+00
6.440000000000000000e+02 3.604736328125000000e+01 1.645110964775085449e+00 3.652273416519165039e-01 2.308435916900634766e+00 8.020989894866943359e-01 1.139566779136657715e+00
6.450000000000000000e+02 3.546472549438476562e+01 1.066568732261657715e+00 -5.076466798782348633e-01 1.001646637916564941e+00 1.482000052928924561e-01 2.334997057914733887e-01
6.460000000000000000e+02 3.346470260620117188e+01 -3.508702218532562256e-01 -2.540331602096557617e+00 -6.823322772979736328e-01 -9.667991399765014648e-01 -1.329064369201660156e+00
6.470000000000000000e+02 3.274931335449218750e+01 -7.452475428581237793e-01 -2.920061826705932617e+00 -7.743833065032958984e-01 -1.108333468437194824e+00 -1.448675751686096191e+00
6.480000000000000000e+02 3.123664474487304688e+01 -1.366046428680419922e+00 -3.048291921615600586e+00 -4.788485169410705566e-01 -1.058142185211181641e+00 -1.074639558792114258e+00
6.490000000000000000e+02 2.964685058593750000e+01 -1.721018671989440918e+00 -2.097948312759399414e+00 -1.556083410978317261e-01 -6.760670542716979980e-01 -5.281054973602294922e-01
6.500000000000000000e+02 2.269073867797851562e+01 -2.340555667877197266e+00 -6.556934118270874023e-02 -1.678355596959590912e-02 -2.470586821436882019e-02 -1.415434293448925018e-02
6.510000000000000000e+02 1.938211059570312500e+01 -2.763780355453491211e+00 -9.972111135721206665e-02 -2.976658381521701813e-02 -3.884631022810935974e-02 8.213255554437637329e-02
6.520000000000000000e+02 2.020075798034667969e+01 -2.692003011703491211e+00 -7.786444574594497681e-02 -2.582619525492191315e-02 -3.110719285905361176e-02 6.182729080319404602e-02
6.530000000000000000e+02 1.696049880981445312e+01 -2.731174945831298828e+00 -2.002268284559249878e-01 -2.108186483383178711e-02 -6.639260798692703247e-02 1.158889457583427429e-01
6.540000000000000000e+02 1.306710815429687500e+01 -2.340136766433715820e+00 -3.379070758819580078e-01 1.355651952326297760e-02 -9.730517119169235229e-02 6.541460007429122925e-02
6.550000000000000000e+02 1.087167263031005859e+01 -2.027347564697265625e+00 -3.593527078628540039e-01 4.295811429619789124e-02 -9.491837769746780396e-02 4.949270281940698624e-03
6.560000000000000000e+02 1.232007122039794922e+01 -2.238383054733276367e+00 -3.489474356174468994e-01 2.113104239106178284e-02 -9.834492206573486328e-02 4.565555229783058167e-02
6.570000000000000000e+02 4.849949264526367188e+01 8.280084133148193359e-01 -7.559575557708740234e+00 -6.521328091621398926e-01 -2.463512659072875977e+00 2.255255699157714844e+00
6.580000000000000000e+02 4.727625274658203125e+01 1.652289748191833496e+00 -8.100513458251953125e+00 -1.227904200553894043e+00 -2.798525333404541016e+00 7.720530629158020020e-01
6.590000000000000000e+02 5.138177108764648438e+01 -3.934503793716430664e-01 -4.287076473236083984e+00 -2.734846770763397217e-01 -1.368168354034423828e+00 1.433426856994628906e+00
6.600000000000000000e+02 5.212261581420898438e+01 -6.306956410408020020e-01 -4.103285312652587891e+00 -7.581382989883422852e-02 -1.253729701042175293e+00 1.014365196228027344e+00
6.610000000000000000e+02 5.365979003906250000e+01 -9.072969555854797363e-01 -4.688669681549072266e+00 -5.924166738986968994e-02 -1.424373388290405273e+00 6.017978191375732422e-01
6.620000000000000000e+02 5.600310516357421875e+01 -1.212116718292236328e+00 -5.003631591796875000e+00 -1.371910274028778076e-01 -1.542246818542480469e+00 6.462478637695312500e-01
6.630000000000000000e+02 5.471902084350585938e+01 -3.494781851768493652e-01 -4.252772808074951172e+00 -2.415242791175842285e-02 -1.283077597618103027e+00 5.158182978630065918e-01
6.640000000000000000e+02 5.678588104248046875e+01 -1.343266844749450684e+00 -4.770006179809570312e+00 -1.558160185813903809e-01 -1.477746725082397461e+00 7.365065217018127441e-01
6.650000000000000000e+02 5.912319183349609375e+01 -1.880132675170898438e+00 -3.382007598876953125e+00 -1.491328030824661255e-01 -1.059342145919799805e+00 7.097806334495544434e-01
6.660000000000000000e+02 5.989948654174804688e+01 -2.105163335800170898e+00 -2.773045063018798828e+00 -1.483004242181777954e-01 -8.764036893844604492e-01 5.973710417747497559e-01
6.670000000000000000e+02 6.315001678466796875e+01 -3.014621257781982422e+00 1.804977506399154663e-01 2.869661092758178711e+00 9.150476455688476562e-01 -1.622007131576538086e+00
6.680000000000000000e+02 6.211762237548828125e+01 -3.107388257980346680e+00 1.134981438517570496e-01 7.755985856056213379e-01 2.667290270328521729e-01 -6.505147814750671387e-01
6.690000000000000000e+02 6.280967330932617188e+01 -3.554774284362792969e+00 1.132478833198547363e+00 1.793339729309082031e+00 8.777455687522888184e-01 -1.451097011566162109e+00
6.700000000000000000e+02 6.456379699707031250e+01 -4.111549854278564453e+00 9.563121199607849121e-01 5.367587566375732422e+00 1.897169828414916992e+00 -2.327548503875732422e+00
6.710000000000000000e+02 6.504904937744140625e+01 -6.007278919219970703e+00 2.233093738555908203e+00 8.116107940673828125e+00 3.104760408401489258e+00 -3.716471195220947266e+00
6.720000000000000000e+02 6.570761871337890625e+01 -7.514565467834472656e+00 1.124112963676452637e+00 8.307726860046386719e+00 2.829551935195922852e+00 -3.113643646240234375e+00
6.730000000000000000e+02 6.631045532226562500e+01 -9.019481658935546875e+00 1.377706170082092285e+00 8.743026733398437500e+00 3.036219835281372070e+00 -3.525273561477661133e+00
6.740000000000000000e+02 6.758796691894531250e+01 -1.197916793823242188e+01 1.883195281028747559e+00 1.314090251922607422e+01 4.507229328155517578e+00 -4.749211311340332031e+00
6.750000000000000000e+02 6.787701416015625000e+01 -1.273354339599609375e+01 1.850935339927673340e+00 1.493085670471191406e+01 5.034537792205810547e+00 -4.955145359039306641e+00
6.760000000000000000e+02 6.728070831298828125e+01 -1.123284816741943359e+01 1.894775271415710449e+00 1.175632381439208984e+01 4.095329761505126953e+00 -4.546963691711425781e+00
6.770000000000000000e+02 6.813735961914062500e+01 -1.350103187561035156e+01 1.883494138717651367e+00 1.772031593322753906e+01 5.881143093109130859e+00 -4.681202411651611328e+00
6.780000000000000000e+02 6.859156799316406250e+01 -1.751534843444824219e+01 1.088638789951801300e-02 1.667343902587890625e+01 5.005297183990478516e+00 -3.292773962020874023e-01
6.790000000000000000e+02 6.854671478271484375e+01 -1.590112590789794922e+01 5.539865493774414062e-01 1.917663383483886719e+01 5.919185638427734375e+00 -1.447053432464599609e+00
6.800000000000000000e+02 6.924362945556640625e+01 -1.666869544982910156e+01 6.534459590911865234e-01 1.647628784179687500e+01 5.138920307159423828e+00 -1.370716929435729980e+00
6.810000000000000000e+02 6.932582092285156250e+01 -2.074331474304199219e+01 8.091737329959869385e-02 1.453102970123291016e+01 4.383584022521972656e+00 -3.303465843200683594e-01
6.820000000000000000e+02 6.860035705566406250e+01 -2.234492301940917969e+01 2.662620134651660919e-02 1.473874664306640625e+01 4.429611682891845703e+00 -1.784986443817615509e-02
6.830000000000000000e+02 6.858783721923828125e+01 -2.315375518798828125e+01 5.177238956093788147e-02 1.497861385345458984e+01 4.509115695953369141e+00 7.266840338706970215e-02
6.840000000000000000e+02 6.846125793457031250e+01 -2.478179931640625000e+01 1.114047050476074219e+00 1.583685970306396484e+01 5.085272312164306641e+00 2.253444671630859375e+00
6.850000000000000000e+02 6.795589447021484375e+01 -2.634271812438964844e+01 9.926711916923522949e-01 9.223632812500000000e+00 3.064891338348388672e+00 2.915714263916015625e+00
6.860000000000000000e+02 6.629486083984375000e+01 -2.916758346557617188e+01 1.047584693878889084e-02 1.783715248107910156e+00 5.382573604583740234e-01 7.208661437034606934e-01
6.870000000000000000e+02 6.682366943359375000e+01 -2.853176498413085938e+01 6.792920827865600586e-01 3.562645196914672852e+00 1.272581219673156738e+00 1.597908854484558105e+00
6.880000000000000000e+02 6.299330902099609375e+01 -3.179857635498046875e+01 -3.439595460891723633e+00 -6.940850615501403809e-01 -1.240104198455810547e+00 -1.325283288955688477e+00
6.890000000000000000e+02 6.139756011962890625e+01 -3.232761764526367188e+01 -4.092955112457275391e+00 -4.059352874755859375e-01 -1.349667072296142578e+00 -1.150776863098144531e+00
6.900000000000000000e+02 5.974669647216796875e+01 -3.267707824707031250e+01 -4.410022735595703125e+00 -3.691700696945190430e-01 -1.433757901191711426e+00 -3.078045248985290527e-01
6.910000000000000000e+02 5.717097854614257812e+01 -3.219589233398437500e+01 -2.900704622268676758e+00 -5.259727239608764648e-01 -1.028003215789794922e+00 7.855387330055236816e-01
6.920000000000000000e+02 5.518488311767578125e+01 -3.065833663940429688e+01 -8.653076887130737305e-01 -5.331804156303405762e-01 -4.195464253425598145e-01 6.694818139076232910e-01
6.930000000000000000e+02 5.234542465209960938e+01 -2.777672767639160156e+01 -3.893739879131317139e-01 -3.054081499576568604e-01 -2.084346413612365723e-01 3.435887098312377930e-01
6.940000000000000000e+02 5.165891647338867188e+01 -2.832239723205566406e+01 -3.616244792938232422e-01 -9.452237933874130249e-02 -1.368440538644790649e-01 2.182428240776062012e-01
6.950000000000000000e+02 5.121825408935546875e+01 -2.662784385681152344e+01 -3.169941008090972900e-01 -2.728480100631713867e-01 -1.769526451826095581e-01 2.812810540199279785e-01
6.960000000000000000e+02 5.066777420043945312e+01 -2.604419517517089844e+01 -2.660612165927886963e-01 -2.438260912895202637e-01 -1.529661864042282104e-01 2.601059079170227051e-01
6.970000000000000000e+02 4.900584793090820312e+01 -2.431600570678710938e+01 -2.110762000083923340e-01 -1.425473093986511230e-01 -1.060870513319969177e-01 1.771353185176849365e-01
6.980000000000000000e+02 4.956880569458007812e+01 -2.488257980346679688e+01 -2.217056602239608765e-01 -1.755734980106353760e-01 -1.191837489604949951e-01 2.082781493663787842e-01
6.990000000000000000e+02 4.725626373291015625e+01 -2.368280792236328125e+01 -2.138695446774363518e-03 4.186185896396636963e-01 1.249439716339111328e-01 -1.630343943834304810e-01
7.000000000000000000e+02 4.501782226562500000e+01 -2.136545372009277344e+01 1.978806853294372559e-01 1.577808737754821777e+00 5.327067971229553223e-01 -7.093210220336914062e-01
7.010000000000000000e+02 4.669120788574218750e+01 -2.311933326721191406e+01 3.966038674116134644e-02 5.953799486160278320e-01 1.905120909214019775e-01 -2.567751407623291016e-01
7.020000000000000000e+02 4.617004776000976562e+01 -2.149778366088867188e+01 8.106640726327896118e-02 3.847882151603698730e-01 1.397563964128494263e-01 -2.080437988042831421e-01
7.030000000000000000e+02 4.560638809204101562e+01 -2.092578125000000000e+01 2.181206494569778442e-01 6.444965004920959473e-01 2.587851285934448242e-01 -3.987473845481872559e-01
7.040000000000000000e+02 4.392462158203125000e+01 -1.919373321533203125e+01 1.194577097892761230e+00 2.892093420028686523e+00 1.226001143455505371e+00 -1.789183735847473145e+00
7.050000000000000000e+02 4.225664901733398438e+01 -1.638807106018066406e+01 1.208654403686523438e+00 1.311419677734375000e+01 4.296855449676513672e+00 -3.005862236022949219e+00
7.060000000000000000e+02 4.180028915405273438e+01 -1.397841548919677734e+01 5.181189179420471191e-01 1.503074169158935547e+01 4.664658069610595703e+00 -1.498551964759826660e+00
7.070000000000000000e+02 4.173346710205078125e+01 -1.317215824127197266e+01 1.659861207008361816e-01 1.441158676147460938e+01 4.373271942138671875e+00 -9.112645387649536133e-01
7.080000000000000000e+02 4.168525314331054688e+01 -1.237032604217529297e+01 -1.014505177736282349e-01 1.362201976776123047e+01 4.056170940399169922e+00 -9.361779093742370605e-01
7.090000000000000000e+02 4.091676330566406250e+01 -1.158900356292724609e+01 2.399862259626388550e-01 1.351627159118652344e+01 4.126877307891845703e+00 -3.360126316547393799e-01
7.100000000000000000e+02 4.155570983886718750e+01 -1.076924896240234375e+01 3.333185315132141113e-01 1.562128543853759766e+01 4.786381244659423828e+00 -7.224781513214111328e-01
7.110000000000000000e+02 4.158631896972656250e+01 -7.552094459533691406e+00 8.266871571540832520e-01 1.852676200866699219e+01 5.806034564971923828e+00 1.659483432769775391e+00
7.120000000000000000e+02 4.170342254638671875e+01 -6.753764629364013672e+00 1.173490047454833984e+00 1.771318626403808594e+01 5.666002750396728516e+00 3.185992479324340820e+00
7.130000000000000000e+02 4.207775497436523438e+01 -5.198783397674560547e+00 7.071646451950073242e-01 1.420441436767578125e+01 4.473473548889160156e+00 3.317818641662597656e+00
7.140000000000000000e+02 4.226142120361328125e+01 -4.419832229614257812e+00 6.167094707489013672e-01 1.403501796722412109e+01 4.395518302917480469e+00 3.119755983352661133e+00
7.150000000000000000e+02 4.290402984619140625e+01 -2.049769639968872070e+00 2.101053953170776367e+00 1.361130809783935547e+01 4.713708400726318359e+00 4.533640384674072266e+00
7.160000000000000000e+02 4.575120925903320312e+01 9.840235710144042969e-01 -7.827015399932861328e+00 -2.344323247671127319e-01 -2.418434381484985352e+00 -1.261986970901489258e+00
7.170000000000000000e+02 1.411483097076416016e+01 -1.660284423828125000e+01 1.061623930931091309e+00 7.400067895650863647e-02 3.406873941421508789e-01 -2.004270553588867188e-01
7.180000000000000000e+02 1.635399436950683594e+01 -1.751311492919921875e+01 3.544870615005493164e-01 2.353433519601821899e-02 1.134064197540283203e-01 -1.149426400661468506e-01
7.190000000000000000e+02 1.781169700622558594e+01 -1.812820816040039062e+01 1.923482567071914673e-01 -2.154053421691060066e-03 5.705826357007026672e-02 -4.169381782412528992e-02
7.200000000000000000e+02 1.855751800537109375e+01 -1.838139724731445312e+01 1.413246691226959229e-01 -1.872422173619270325e-03 4.183567315340042114e-02 -1.685322262346744537e-02
7.210000000000000000e+02 2.162035369873046875e+01 -1.895514297485351562e+01 -3.121553733944892883e-02 -4.542837385088205338e-03 -1.072751265019178391e-02 2.412056922912597656e-02
7.220000000000000000e+02 2.386241531372070312e+01 -1.818146514892578125e+01 -2.496661990880966187e-01 5.149380303919315338e-03 -7.335504144430160522e-02 1.127746179699897766e-01
7.230000000000000000e+02 2.239242172241210938e+01 -1.821974372863769531e+01 -7.688988745212554932e-02 -1.064951252192258835e-02 -2.626181952655315399e-02 9.299031645059585571e-02
7.240000000000000000e+02 2.472830200195312500e+01 -1.878397941589355469e+01 -3.586539328098297119e-01 -2.500388538464903831e-03 -1.083462908864021301e-01 7.201377768069505692e-03
7.250000000000000000e+02 2.550087547302246094e+01 -1.866040992736816406e+01 -5.152137875556945801e-01 1.889107935130596161e-02 -1.488968133926391602e-01 -1.941806636750698090e-02
7.260000000000000000e+02 2.705320739746093750e+01 -1.837297630310058594e+01 -1.043397784233093262e+00 1.464923936873674393e-02 -3.086245656013488770e-01 -6.294555962085723877e-02
7.270000000000000000e+02 2.783607292175292969e+01 -1.824134445190429688e+01 -1.431694269180297852e+00 -4.173706099390983582e-02 -4.420294165611267090e-01 -2.994151227176189423e-02
7.280000000000000000e+02 2.835313224792480469e+01 -1.745433425903320312e+01 -1.575599670410156250e+00 1.701435260474681854e-02 -4.675755798816680908e-01 3.242869377136230469e-01
7.290000000000000000e+02 2.939492607116699219e+01 -1.799575614929199219e+01 -2.270523548126220703e+00 -2.862837538123130798e-02 -6.897456049919128418e-01 -8.843417465686798096e-02
7.300000000000000000e+02 3.358872604370117188e+01 -1.867673492431640625e+01 -3.842486143112182617e+00 -5.358417034149169922e-01 -1.313498377799987793e+00 1.523119926452636719e+00
7.310000000000000000e+02 3.424065017700195312e+01 -1.917350959777832031e+01 -2.263677358627319336e+00 9.655390977859497070e-01 -3.894414603710174561e-01 6.968886256217956543e-01
7.320000000000000000e+02 3.514330291748046875e+01 -2.176071929931640625e+01 8.711001276969909668e-02 9.788022994995117188e+00 2.962539672851562500e+00 3.157194852828979492e-01
7.330000000000000000e+02 3.504646682739257812e+01 -2.332544898986816406e+01 2.172863483428955078e-01 1.156232452392578125e+01 3.533883094787597656e+00 6.677783131599426270e-01
7.340000000000000000e+02 3.498686218261718750e+01 -2.411885452270507812e+01 8.158676624298095703e-01 1.336837387084960938e+01 4.255272388458251953e+00 1.665320158004760742e+00
7.350000000000000000e+02 3.418453216552734375e+01 -2.643418121337890625e+01 2.148213624954223633e+00 8.222239494323730469e+00 3.111135959625244141e+00 4.037695407867431641e+00
7.360000000000000000e+02 3.378918075561523438e+01 -2.715821647644042969e+01 2.488094806671142578e+00 7.227369308471679688e+00 2.914639234542846680e+00 3.873504638671875000e+00
7.370000000000000000e+02 3.333532333374023438e+01 -2.784421539306640625e+01 2.730898857116699219e+00 5.828068256378173828e+00 2.567690134048461914e+00 3.646399259567260742e+00
7.380000000000000000e+02 3.162005424499511719e+01 -2.961799240112304688e+01 2.163618087768554688e+00 2.521029710769653320e+00 1.405394315719604492e+00 2.179776668548583984e+00
7.390000000000000000e+02 3.020283126831054688e+01 -3.050672531127929688e+01 1.216726064682006836e+00 9.197672605514526367e-01 6.409479975700378418e-01 1.045715093612670898e+00
7.400000000000000000e+02 2.700251388549804688e+01 -3.117599678039550781e+01 -7.392077445983886719e-01 5.284822732210159302e-02 -2.059078514575958252e-01 6.203812733292579651e-02
7.410000000000000000e+02 2.456134986877441406e+01 -3.137923240661621094e+01 -9.491831064224243164e-01 -1.291374769061803818e-02 -2.886290550231933594e-01 -6.761095672845840454e-02
7.420000000000000000e+02 2.618404579162597656e+01 -3.123183631896972656e+01 -8.366361856460571289e-01 2.341219410300254822e-02 -2.439672052860260010e-01 7.961480878293514252e-03
7.430000000000000000e+02 2.209636306762695312e+01 -3.166029739379882812e+01 -1.022365689277648926e+00 -7.080196402966976166e-03 -3.088337481021881104e-01 -6.999462842941284180e-02
7.440000000000000000e+02 2.126419258117675781e+01 -3.165148735046386719e+01 -1.011424660682678223e+00 -3.069106489419937134e-02 -3.126347064971923828e-01 -4.755832627415657043e-02
7.450000000000000000e+02 2.045162773132324219e+01 -3.161530303955078125e+01 -9.678383469581604004e-01 6.166321225464344025e-03 -2.885016202926635742e-01 -2.444665692746639252e-02
7.460000000000000000e+02 1.642081069946289062e+01 -3.158982276916503906e+01 -1.159402608871459961e+00 -4.491439461708068848e-02 -3.612951040267944336e-01 1.276906430721282959e-01
7.470000000000000000e+02 1.711006164550781250e+01 -3.249960327148437500e+01 -9.696026444435119629e-01 -9.085363149642944336e-02 -3.181368708610534668e-01 9.561696648597717285e-02
7.480000000000000000e+02 1.804682922363281250e+01 -3.165611076354980469e+01 -1.121139764785766602e+00 -3.752987831830978394e-02 -3.476009070873260498e-01 1.633724756538867950e-02
7.490000000000000000e+02 1.561386299133300781e+01 -3.148639869689941406e+01 -1.177972555160522461e+00 -4.430021718144416809e-02 -3.666818439960479736e-01 1.784401237964630127e-01
7.500000000000000000e+02 1.323538303375244141e+01 -3.106392669677734375e+01 -1.288857221603393555e+00 -7.498080283403396606e-02 -4.091514348983764648e-01 2.971536219120025635e-01
7.510000000000000000e+02 1.164478397369384766e+01 -3.076000595092773438e+01 -1.606983184814453125e+00 -1.569036543369293213e-01 -5.291660428047180176e-01 4.442713260650634766e-01
7.520000000000000000e+02 1.084965419769287109e+01 -3.055965423583984375e+01 -1.892136216163635254e+00 -2.816212177276611328e-01 -6.521272659301757812e-01 6.235055923461914062e-01
7.530000000000000000e+02 7.552132129669189453e+00 -2.821767425537109375e+01 -1.031503438949584961e+00 -8.849511146545410156e-01 -5.749363303184509277e-01 9.653367400169372559e-01
7.540000000000000000e+02 6.932318210601806641e+00 -2.761857223510742188e+01 -9.386196732521057129e-01 -8.990059494972229004e-01 -5.512876510620117188e-01 8.585042357444763184e-01
7.550000000000000000e+02 6.152370929718017578e+00 -2.432935333251953125e+01 1.931864954531192780e-02 1.428588509559631348e+00 4.343721270561218262e-01 2.388791739940643311e-01
7.560000000000000000e+02 6.170718193054199219e+00 -2.267028236389160156e+01 1.983273029327392578e-01 2.727535963058471680e+00 8.777589797973632812e-01 5.375812649726867676e-01
7.570000000000000000e+02 3.435319364070892334e-01 -1.958746337890625000e+01 1.437032409012317657e-02 -2.072926759719848633e+00 -6.175669431686401367e-01 5.583258345723152161e-02
7.580000000000000000e+02 1.046782374382019043e+00 -2.114377403259277344e+01 5.853238329291343689e-02 -1.126478910446166992e+00 -3.203839659690856934e-01 3.355282545089721680e-01
7.590000000000000000e+02 7.102674007415771484e+00 -1.950219917297363281e+01 7.333019971847534180e-01 3.317393541336059570e+00 1.215208649635314941e+00 1.501907706260681152e+00
7.600000000000000000e+02 1.170440101623535156e+01 -1.630446434020996094e+01 2.248411417007446289e+00 1.720472872257232666e-01 7.261376380920410156e-01 3.860102593898773193e-01
7.610000000000000000e+02 2.036284637451171875e+01 4.865703582763671875e+00 -3.020777330675628036e-05 -5.577602223638677970e-06 -1.073561270459322259e-05 -1.294040430366294459e-05
7.620000000000000000e+02 1.927353477478027344e+01 6.999559879302978516e+00 4.390299727674573660e-05 9.039227734319865704e-06 1.588266786711756140e-05 1.920501745189540088e-05
7.630000000000000000e+02 2.075061225891113281e+01 4.164084911346435547e+00 2.454744026181288064e-05 4.743429144582478330e-06 8.787260412645991892e-06 1.048933245328953490e-05
7.640000000000000000e+02 1.881439590454101562e+01 4.297909736633300781e+00 4.136066763749113306e-06 1.544297265354543924e-05 5.873711870663100854e-06 1.397327378072077408e-05
7.650000000000000000e+02 1.072651672363281250e+01 -2.729595661163330078e+00 -3.066521584987640381e-01 6.478119641542434692e-02 -7.256128638982772827e-02 -4.428067710250616074e-03
7.660000000000000000e+02 1.062780857086181641e+01 -3.422327041625976562e+00 -2.652121484279632568e-01 9.024663269519805908e-02 -5.248965322971343994e-02 -1.006876863539218903e-02
7.670000000000000000e+02 9.997567176818847656e+00 -2.659095287322998047e+00 -3.058235943317413330e-01 6.842533499002456665e-02 -7.121947407722473145e-02 -2.829779684543609619e-02
7.680000000000000000e+02 1.431383132934570312e+01 1.908634543418884277e+00 4.875137165072374046e-06 8.752079338592011482e-06 4.088165042048785836e-06 4.067408951868856093e-07
7.690000000000000000e+02 1.572289466857910156e+01 1.722826361656188965e+00 5.751322532887570560e-06 9.450708603253588080e-06 4.560609340842347592e-06 -2.566290220329392469e-07
7.700000000000000000e+02 1.502668285369873047e+01 1.812937498092651367e+00 -5.842467999173095450e-06 -9.086518730327952653e-06 -4.478696155274519697e-06 -3.194753332991240313e-07
7.710000000000000000e+02 1.204421234130859375e+01 1.532383680343627930e+00 2.755030664047808386e-06 5.691122623829869553e-06 2.533845872676465660e-06 -7.931059364807424572e-09
7.720000000000000000e+02 2.152760505676269531e+01 2.746689319610595703e+00 1.448956390959210694e-05 2.936135388154070824e-06 5.227710062172263861e-06 6.655338893324369565e-06
7.730000000000000000e+02 1.383231830596923828e+01 -2.436320543289184570e+00 -3.209163248538970947e-01 3.456797217950224876e-03 -9.523785859346389771e-02 8.325415104627609253e-02
7.740000000000000000e+02 1.448235893249511719e+01 -3.192512035369873047e+00 -2.313339114189147949e-01 8.029247634112834930e-03 -6.699139624834060669e-02 1.118484437465667725e-01
7.750000000000000000e+02 1.371270751953125000e+01 -3.099269151687622070e+00 -2.569314837455749512e-01 2.106342092156410217e-02 -7.076041400432586670e-02 9.096441417932510376e-02
7.760000000000000000e+02 1.219392967224121094e+01 -2.909311532974243164e+00 -2.926738262176513672e-01 4.577635973691940308e-02 -7.406923919916152954e-02 4.310970753431320190e-02
7.770000000000000000e+02 1.294883346557617188e+01 -3.004653453826904297e+00 -2.776043117046356201e-01 3.244531527161598206e-02 -7.354769855737686157e-02 6.896303594112396240e-02
7.780000000000000000e+02 1.688548278808593750e+01 -3.400848865509033203e+00 -1.376970559358596802e-01 -2.347650565207004547e-02 -4.835206642746925354e-02 1.394209116697311401e-01
7.790000000000000000e+02 8.105206489562988281e+00 2.515817165374755859e+00 3.347896608829614706e-06 3.051808562304358929e-06 1.919911483128089458e-06 -6.151702223178290296e-07
7.800000000000000000e+02 1.358093452453613281e+01 2.007119178771972656e+00 -4.441833880264312029e-06 -8.482842531520873308e-06 -3.877402832586085424e-06 -3.837338340417772997e-07
7.810000000000000000e+02 1.128642082214355469e+01 2.305138349533081055e+00 4.020440428575966507e-06 6.234115971892606467e-06 3.076366965615306981e-06 -8.600140404269041028e-07
7.820000000000000000e+02 1.282902812957763672e+01 2.106758594512939453e+00 3.854609531117603183e-06 7.805168934282846749e-06 3.497933448670664802e-06 -2.912269110311171971e-07
7.830000000000000000e+02 5.806940555572509766e+00 1.855838775634765625e+00 1.921829607454128563e-06 1.178436718873854261e-06 9.300798637923435308e-07 -5.850012740893362206e-08
7.840000000000000000e+02 7.368571758270263672e+00 1.846958279609680176e+00 2.150325826733023860e-06 1.975590521396952681e-06 1.237774881701625418e-06 -1.512151897031799308e-07
7.850000000000000000e+02 6.529962062835693359e+00 2.549295902252197266e+00 3.098481329288915731e-06 1.923646095747244544e-06 1.506638227510848083e-06 -3.984815464264102047e-07
7.860000000000000000e+02 1.070185899734497070e+00 4.207132816314697266e+00 -2.751736928985337727e-06 -2.582260663075430784e-07 -9.029889156408898998e-07 1.497214157097914722e-07
7.870000000000000000e+02 2.638901233673095703e+00 2.608293294906616211e+00 -2.282953346366412006e-06 -4.951095888827694580e-07 -8.334188805747544393e-07 1.435655008208414074e-07
7.880000000000000000e+02 1.872451901435852051e+00 2.627425670623779297e+00 1.931736278493190184e-06 2.619979682094708551e-07 6.581202569577726535e-07 3.518452018624884658e-08
7.890000000000000000e+02 3.683879673480987549e-01 2.686334133148193359e+00 1.634284558349463623e-06 6.774314442736795172e-08 5.106082880956819281e-07 -4.675600706605109735e-08
7.900000000000000000e+02 1.113699793815612793e+00 2.652469396591186523e+00 -1.755844323270139284e-06 -2.639067702148167882e-07 -6.059253223611449357e-07 5.565227212400714052e-08
7.910000000000000000e+02 9.695314407348632812e+00 2.450746297836303711e+00 3.433722213230794296e-06 4.494241693464573473e-06 2.378389126533875242e-06 -8.806377422843070235e-07
7.920000000000000000e+02 7.316339492797851562e+00 2.534734487533569336e+00 -3.819598532572854310e-06 -2.320634166608215310e-06 -1.842069877966423519e-06 6.609238312194065657e-07
7.930000000000000000e+02 1.049533271789550781e+01 2.389686822891235352e+00 -4.386049113236367702e-06 -5.285236511554103345e-06 -2.901385869336081669e-06 8.646493938613275532e-07
7.940000000000000000e+02 2.354987335205078125e+01 -2.116156101226806641e+00 -9.469290077686309814e-02 4.968123976141214371e-03 -2.691743336617946625e-02 -2.972777374088764191e-02
7.950000000000000000e+02 2.359898948669433594e+01 -2.876063108444213867e+00 -5.929366499185562134e-02 -3.252243623137474060e-02 -2.754483185708522797e-02 -6.435658037662506104e-02
7.960000000000000000e+02 1.856686019897460938e+01 -2.788354158401489258e+00 -1.301964372396469116e-01 -2.598644047975540161e-02 -4.685486480593681335e-02 1.002868786454200745e-01
7.970000000000000000e+02 1.527267932891845703e+01 -3.279134511947631836e+00 -2.024086713790893555e-01 -3.374166786670684814e-03 -6.173485144972801208e-02 1.260120272636413574e-01
7.980000000000000000e+02 1.607744026184082031e+01 -3.349157333374023438e+00 -1.699668914079666138e-01 -1.407601870596408844e-02 -5.521287396550178528e-02 1.378548294305801392e-01
7.990000000000000000e+02 1.770166397094726562e+01 -3.435751914978027344e+00 -1.050760671496391296e-01 -3.066436573863029480e-02 -4.072212800383567810e-02 1.379343122243881226e-01
8.000000000000000000e+02 2.996013832092285156e+01 3.716136169433593750e+01 -2.180541902780532837e-01 -4.710401967167854309e-02 -7.954746484756469727e-02 6.312209367752075195e-02
8.010000000000000000e+02 2.689491653442382812e+01 3.808172225952148438e+01 -4.056674614548683167e-02 -8.999772369861602783e-03 -1.486995629966259003e-02 3.598849102854728699e-02
8.020000000000000000e+02 2.910164451599121094e+01 -1.730047225952148438e+01 -1.988818168640136719e+00 9.603565186262130737e-02 -5.678347945213317871e-01 4.280686080455780029e-01
8.030000000000000000e+02 4.650759506225585938e+01 1.205641508102416992e+00 -1.066595268249511719e+01 -1.063995003700256348e+00 -3.518984317779541016e+00 1.494145095348358154e-01
8.040000000000000000e+02 4.781820297241210938e+01 1.133383750915527344e+00 -9.286310195922851562e+00 -9.366815686225891113e-01 -3.066897630691528320e+00 1.734700441360473633e+00
8.050000000000000000e+02 4.164908599853515625e+01 -1.654754257202148438e+01 1.163365840911865234e+00 1.113295173645019531e+01 3.688895225524902344e+00 -1.693088054656982422e+00
8.060000000000000000e+02 3.545449447631835938e+01 -1.723693466186523438e+01 -1.803566932678222656e+00 4.959081649780273438e+00 9.466544389724731445e-01 1.378313153982162476e-01
8.070000000000000000e+02 5.576313972473144531e+00 -2.611864280700683594e+01 -3.791983127593994141e-01 3.646990060806274414e-01 -4.349797964096069336e-03 7.893683314323425293e-01
8.080000000000000000e+02 3.847715377807617188e+01 3.369374847412109375e+01 5.796605348587036133e-01 1.323541522026062012e+00 5.709606409072875977e-01 -8.503953218460083008e-01
8.090000000000000000e+02 2.803187751770019531e+01 -1.883582711219787598e+00 -1.239922046661376953e+00 -5.194171890616416931e-02 -3.875591456890106201e-01 -1.889507174491882324e-01
8.100000000000000000e+02 4.084298324584960938e+01 3.226308822631835938e+01 5.069176554679870605e-01 3.920237541198730469e+00 1.328146576881408691e+00 -9.121713042259216309e-01
8.110000000000000000e+02 3.985166549682617188e+01 3.385362625122070312e+01 1.695802956819534302e-01 2.732912302017211914e+00 8.707478046417236328e-01 -9.301209449768066406e-01
8.120000000000000000e+02 4.198605346679687500e+01 1.656194114685058594e+01 2.978023588657379150e-01 8.890076637268066406e+00 2.756363630294799805e+00 1.006972432136535645e+00
8.130000000000000000e+02 3.976599502563476562e+01 6.144603252410888672e+00 2.113991737365722656e+00 1.273398685455322266e+01 4.454393863677978516e+00 4.513952255249023438e+00
8.140000000000000000e+02 2.996393585205078125e+01 -2.952417612075805664e+00 -6.720414161682128906e-01 -4.312901198863983154e-01 -3.309994637966156006e-01 -7.278313636779785156e-01
8.150000000000000000e+02 3.044647598266601562e+01 -1.569680571556091309e+00 -2.601194620132446289e+00 -2.736038863658905029e-01 -8.624395728111267090e-01 -7.534968852996826172e-01
8.160000000000000000e+02 3.145090675354003906e+01 -1.927067995071411133e+00 -1.776446223258972168e+00 -5.785668492317199707e-01 -7.065039277076721191e-01 -8.782984018325805664e-01
8.170000000000000000e+02 4.160533905029296875e+01 3.062217903137207031e+01 5.104870796203613281e-01 5.133960723876953125e+00 1.693334341049194336e+00 -1.038636445999145508e+00
8.180000000000000000e+02 3.341911315917968750e+01 -1.759485816955566406e+01 -2.711932897567749023e+00 6.373445987701416016e-01 -6.223764419555664062e-01 3.963671326637268066e-01
8.190000000000000000e+02 4.214624786376953125e+01 2.800849723815917969e+01 7.181283831596374512e-01 6.274376869201660156e+00 2.097751617431640625e+00 -6.510254144668579102e-01
8.200000000000000000e+02 4.134970855712890625e+01 1.739304351806640625e+01 1.898241937160491943e-01 9.067592620849609375e+00 2.777225017547607422e+00 5.241287350654602051e-01
8.210000000000000000e+02 4.205782699584960938e+01 1.819413566589355469e+01 2.178159356117248535e-01 8.038554191589355469e+00 2.476911067962646484e+00 7.564668655395507812e-01
8.220000000000000000e+02 3.666026687622070312e+01 3.543253326416015625e+01 -2.357867956161499023e-01 4.360700547695159912e-01 6.008497998118400574e-02 -1.235664337873458862e-01
8.230000000000000000e+02 3.736647796630859375e+01 3.518820190429687500e+01 1.593479327857494354e-02 8.460646867752075195e-01 2.585998475551605225e-01 -4.659479856491088867e-01
8.240000000000000000e+02 3.454013824462890625e+01 -4.510432779788970947e-01 -1.506183505058288574e+00 7.522305250167846680e-01 -2.261859178543090820e-01 -1.486587077379226685e-01
8.250000000000000000e+02 3.360161590576171875e+01 3.661633300781250000e+01 -3.218102753162384033e-01 -6.778673827648162842e-02 -1.168790981173515320e-01 6.006931513547897339e-02
8.260000000000000000e+02 2.813583755493164062e+01 -2.526374578475952148e+00 -8.482295870780944824e-01 -1.751426309347152710e-01 -3.070116639137268066e-01 -4.463568925857543945e-01
8.270000000000000000e+02 3.710426712036132812e+01 2.890670776367187500e+00 1.825691103935241699e+00 5.432307720184326172e+00 2.177399635314941406e+00 3.169287204742431641e+00
8.280000000000000000e+02 3.845121002197265625e+01 4.926952838897705078e+00 2.735764741897583008e+00 1.169662761688232422e+01 4.329717636108398438e+00 5.484950542449951172e+00
8.290000000000000000e+02 5.887344360351562500e+01 -3.264863204956054688e+01 -3.874376535415649414e+00 -2.914965450763702393e-01 -1.249761939048767090e+00 1.555354893207550049e-01
8.300000000000000000e+02 5.981241607666015625e+01 -3.379736328125000000e+01 -2.442592620849609375e+00 -7.486190795898437500e-01 -9.573635458946228027e-01 -4.203187823295593262e-01
8.310000000000000000e+02 3.380808639526367188e+01 -8.971364498138427734e-01 -1.710616230964660645e+00 1.436337530612945557e-01 -4.700947403907775879e-01 -5.041456222534179688e-01
8.320000000000000000e+02 4.185115814208984375e+01 1.493211841583251953e+01 7.240957617759704590e-01 9.519165039062500000e+00 3.072978258132934570e+00 1.670946836471557617e+00
8.330000000000000000e+02 1.055762195587158203e+01 -3.129223442077636719e+01 -1.316626906394958496e+00 -5.348764061927795410e-01 -5.554509758949279785e-01 6.502813100814819336e-01
8.340000000000000000e+02 4.204851150512695312e+01 2.889328765869140625e+01 7.509709596633911133e-01 5.941518783569335938e+00 2.007746934890747070e+00 -6.110370755195617676e-01
8.350000000000000000e+02 4.186635589599609375e+01 2.977129554748535156e+01 5.038509368896484375e-01 5.676658153533935547e+00 1.854152798652648926e+00 -7.609781026840209961e-01
8.360000000000000000e+02 4.217182159423828125e+01 1.239367294311523438e+01 1.009599089622497559e+00 9.772954940795898438e+00 3.234766244888305664e+00 2.648274660110473633e+00
8.370000000000000000e+02 4.019550323486328125e+01 9.440799713134765625e+00 1.254325032234191895e+00 1.464051532745361328e+01 4.768452167510986328e+00 3.837611436843872070e+00
8.380000000000000000e+02 3.822166442871093750e+01 3.496991348266601562e+01 4.278949275612831116e-02 1.391550898551940918e+00 4.303021132946014404e-01 -6.863375306129455566e-01
8.390000000000000000e+02 3.062937736511230469e+01 -2.152463197708129883e+00 -1.605461478233337402e+00 -4.611926674842834473e-01 -6.199962496757507324e-01 -8.383762836456298828e-01
8.400000000000000000e+02 4.231610870361328125e+01 6.165109574794769287e-02 -1.891844630241394043e+00 9.874677658081054688e+00 2.394849777221679688e+00 1.163380742073059082e+00
8.410000000000000000e+02 2.731869316101074219e+01 -2.565800428390502930e+00 -6.417123079299926758e-01 -9.853504598140716553e-02 -2.220742106437683105e-01 -3.294754922389984131e-01
8.420000000000000000e+02 2.980110549926757812e+01 -2.324661970138549805e+00 -1.374155521392822266e+00 -3.348796069622039795e-01 -5.127105116844177246e-01 -6.984073519706726074e-01
8.430000000000000000e+02 4.162870788574218750e+01 1.330932998657226562e+01 6.503837108612060547e-01 1.038199901580810547e+01 3.309715032577514648e+00 2.180619001388549805e+00
8.440000000000000000e+02 3.764499282836914062e+01 2.525146961212158203e+00 3.262883126735687256e-01 7.257240295410156250e+00 2.275058507919311523e+00 2.576880455017089844e+00
8.450000000000000000e+02 3.304830932617187500e+01 -1.295203566551208496e+00 -1.854979395866394043e+00 -2.736435830593109131e-01 -6.385869383811950684e-01 -7.200302481651306152e-01
8.460000000000000000e+02 4.081579971313476562e+01 1.260306167602539062e+01 4.706101417541503906e-01 1.135134887695312500e+01 3.546587705612182617e+00 2.233557224273681641e+00
8.470000000000000000e+02 4.174959182739257812e+01 1.411610507965087891e+01 7.550438642501831055e-01 1.002542114257812500e+01 3.234139442443847656e+00 1.796897649765014648e+00
8.480000000000000000e+02 4.062022018432617188e+01 8.483822822570800781e+00 1.856985807418823242e+00 1.292490005493164062e+01 4.434566020965576172e+00 4.145909309387207031e+00
8.490000000000000000e+02 4.207315444946289062e+01 1.900301170349121094e+01 9.888280928134918213e-02 7.654483318328857422e+00 2.326009988784790039e+00 5.390447378158569336e-01
8.500000000000000000e+02 4.217900466918945312e+01 2.714119338989257812e+01 3.923487961292266846e-01 6.498731136322021484e+00 2.067324161529541016e+00 -4.914035499095916748e-01
8.510000000000000000e+02 3.910991287231445312e+01 3.451590728759765625e+01 9.929280728101730347e-02 2.084254741668701172e+00 6.550642848014831543e-01 -8.239904046058654785e-01
8.520000000000000000e+02 4.217395401000976562e+01 2.546398353576660156e+01 9.743116050958633423e-02 6.413469791412353516e+00 1.953270316123962402e+00 -8.230981230735778809e-02
8.530000000000000000e+02 3.711004638671875000e+01 1.857541441917419434e+00 -8.155280351638793945e-02 5.644416809082031250e+00 1.668859124183654785e+00 1.951151132583618164e+00
8.540000000000000000e+02 4.067481231689453125e+01 1.181230163574218750e+01 5.355371236801147461e-01 1.194274139404296875e+01 3.743483543395996094e+00 2.431294918060302734e+00
8.550000000000000000e+02 4.139150238037109375e+01 2.380113220214843750e+01 6.139841862022876740e-03 6.448352813720703125e+00 1.936347842216491699e+00 2.935507893562316895e-02
8.560000000000000000e+02 4.209165954589843750e+01 2.061417770385742188e+01 6.454510241746902466e-02 7.039207935333251953e+00 2.131125926971435547e+00 3.395937085151672363e-01
8.570000000000000000e+02 4.210197448730468750e+01 2.141724014282226562e+01 4.771565645933151245e-02 6.824642658233642578e+00 2.061707496643066406e+00 2.662174403667449951e-01
8.580000000000000000e+02 4.149567031860351562e+01 1.250513935089111328e+01 7.247070074081420898e-01 1.062334251403808594e+01 3.404414653778076172e+00 2.506226539611816406e+00
8.590000000000000000e+02 4.138605117797851562e+01 2.299980735778808594e+01 1.363024394959211349e-02 6.531095027923583984e+00 1.963417649269104004e+00 5.074403062462806702e-02
8.600000000000000000e+02 4.295409011840820312e+01 2.635053062438964844e+01 3.485735356807708740e-01 6.190010070800781250e+00 1.961575031280517578e+00 -2.492881119251251221e-01
8.610000000000000000e+02 4.103242492675781250e+01 1.008780574798583984e+01 1.404352903366088867e+00 1.204210472106933594e+01 4.033936977386474609e+00 3.518033027648925781e+00
8.620000000000000000e+02 4.135267257690429688e+01 1.170205783843994141e+01 8.383892178535461426e-01 1.105056571960449219e+01 3.566686391830444336e+00 2.801668167114257812e+00
8.630000000000000000e+02 4.138090515136718750e+01 2.219920730590820312e+01 5.500421859323978424e-03 6.659344196319580078e+00 1.999453425407409668e+00 7.124856114387512207e-02
8.640000000000000000e+02 4.452056121826171875e+01 2.555817985534667969e+01 4.560402929782867432e-01 5.840614795684814453e+00 1.888996601104736328e+00 7.980308681726455688e-02
8.650000000000000000e+02 4.354997634887695312e+01 2.058095550537109375e+01 2.721895873546600342e-01 6.756353378295898438e+00 2.108562946319580078e+00 7.010617256164550781e-01
8.660000000000000000e+02 4.212910461425781250e+01 2.302712440490722656e+01 4.422263056039810181e-02 6.534874439239501953e+00 1.973729133605957031e+00 1.464875489473342896e-01
8.670000000000000000e+02 9.402574539184570312e+00 -1.673113822937011719e+01 2.745217323303222656e+00 1.055796265602111816e+00 1.140304088592529297e+00 1.334152817726135254e+00
8.680000000000000000e+02 7.840451717376708984e+00 -1.805804824829101562e+01 1.752556681632995605e+00 3.126983165740966797e+00 1.463861942291259766e+00 2.067776918411254883e+00
8.690000000000000000e+02 6.824690246582031250e+01 -2.557641029357910156e+01 1.212142229080200195e+00 1.244109439849853516e+01 4.095971107482910156e+00 3.189329385757446289e+00
8.700000000000000000e+02 6.986225128173828125e+01 -2.419586181640625000e+01 1.125194191932678223e+00 1.261747074127197266e+01 4.122799396514892578e+00 1.118613183498382568e-01
8.710000000000000000e+02 7.669280529022216797e+00 -2.942092704772949219e+01 -1.032160878181457520e+00 -6.221074461936950684e-01 -4.962804913520812988e-01 7.890801429748535156e-01
8.720000000000000000e+02 8.984130859375000000e+00 -3.047234344482421875e+01 -1.364600539207458496e+00 -7.132380008697509766e-01 -6.233515739440917969e-01 6.429244875907897949e-01
8.730000000000000000e+02 3.455039596557617188e+01 -2.569263839721679688e+01 2.204571485519409180e+00 1.055673789978027344e+01 3.828392982482910156e+00 4.223409175872802734e+00
8.740000000000000000e+02 3.629926300048828125e+01 -2.474727439880371094e+01 1.797693014144897461e+00 8.605783462524414062e+00 3.121042966842651367e+00 1.498971223831176758e+00
8.750000000000000000e+02 4.057682800292968750e+01 -1.494102954864501953e+01 6.800284385681152344e-01 1.132177734375000000e+01 3.600541830062866211e+00 -8.663999438285827637e-01
8.760000000000000000e+02 5.765614700317382812e+01 -3.346159362792968750e+01 -2.363559961318969727e+00 -4.542261958122253418e-01 -8.453358411788940430e-01 -2.475879713892936707e-02
8.770000000000000000e+02 4.372383880615234375e+01 -5.873454213142395020e-01 1.295815467834472656e+00 6.623270511627197266e+00 2.375725746154785156e+00 3.126370906829833984e+00
8.780000000000000000e+02 3.641813659667968750e+01 -2.087166595458984375e+01 -1.585668623447418213e-01 7.897939205169677734e+00 2.321811676025390625e+00 1.597300052642822266e+00
8.790000000000000000e+02 1.332448959350585938e+01 -1.639871597290039062e+01 1.481801033020019531e+00 5.408736318349838257e-02 4.607664942741394043e-01 -1.736719012260437012e-01
8.800000000000000000e+02 4.089975357055664062e+01 -8.340101242065429688e+00 7.921245098114013672e-01 1.505293846130371094e+01 4.753519058227539062e+00 1.268389582633972168e+00
8.810000000000000000e+02 6.345011520385742188e+01 -4.081109523773193359e+00 1.785334110260009766e+00 2.933014392852783203e+00 1.415504574775695801e+00 -2.238600492477416992e+00
8.820000000000000000e+02 6.168737030029296875e+01 -2.090386867523193359e+00 -1.060764074325561523e+00 1.211739182472229004e+00 4.529253765940666199e-02 -8.100041747093200684e-01
8.830000000000000000e+02 6.518070220947265625e+01 -4.825372219085693359e+00 1.252775907516479492e+00 6.596478462219238281e+00 2.354776382446289062e+00 -2.386461734771728516e+00
8.840000000000000000e+02 8.755769729614257812e+00 -1.569651412963867188e+01 1.248402118682861328e+00 1.366324901580810547e+00 7.844181060791015625e-01 7.503083348274230957e-01
8.850000000000000000e+02 4.326490402221679688e+01 -1.296656370162963867e+00 2.210671424865722656e+00 1.027959823608398438e+01 3.747081041336059570e+00 4.332010269165039062e+00
8.860000000000000000e+02 4.199155426025390625e+01 -2.725764274597167969e+00 1.423561453819274902e+00 1.261345195770263672e+01 4.211103916168212891e+00 2.940868854522705078e+00
8.870000000000000000e+02 1.258036994934082031e+01 -1.566678714752197266e+01 1.557824134826660156e+00 2.439673840999603271e-01 5.405374169349670410e-01 2.777120471000671387e-01
8.880000000000000000e+02 1.094379901885986328e+01 -1.568126010894775391e+01 1.856938481330871582e+00 4.057685136795043945e-01 6.788120865821838379e-01 5.891345143318176270e-01
8.890000000000000000e+02 4.921173095703125000e+01 5.269441604614257812e-01 -6.965324878692626953e+00 -8.039511442184448242e-01 -2.330782890319824219e+00 2.093841314315795898e+00
8.900000000000000000e+02 4.800587844848632812e+01 2.380892992019653320e+00 -4.332575798034667969e+00 -7.275176644325256348e-01 -1.518028020858764648e+00 4.201320111751556396e-01
8.910000000000000000e+02 4.206590270996093750e+01 -1.558662891387939453e+01 5.696616768836975098e-01 1.355176162719726562e+01 4.236426830291748047e+00 -2.317901611328125000e+00
8.920000000000000000e+02 4.141961669921875000e+01 -1.570177364349365234e+01 7.614293098449707031e-01 1.218078422546386719e+01 3.882663965225219727e+00 -1.683779001235961914e+00
8.930000000000000000e+02 2.862939262390136719e+01 -3.099540328979492188e+01 -1.207652091979980469e-01 1.745945066213607788e-01 1.614878885447978973e-02 2.839227020740509033e-01
8.940000000000000000e+02 5.108467864990234375e+01 5.515882968902587891e-01 -4.934828758239746094e+00 7.937826216220855713e-02 -1.456635117530822754e+00 1.051035642623901367e+00
8.950000000000000000e+02 4.260660934448242188e+01 -1.051361083984375000e+00 4.052444100379943848e-01 1.060631656646728516e+01 3.303468227386474609e+00 2.125473976135253906e+00
8.960000000000000000e+02 6.065644836425781250e+01 -2.391165733337402344e+00 -1.812568545341491699e+00 2.523184381425380707e-02 -5.362010002136230469e-01 3.586060106754302979e-01
8.970000000000000000e+02 5.932306671142578125e+01 -1.278846383094787598e+00 -2.828846931457519531e+00 1.155773848295211792e-01 -8.139808773994445801e-01 1.138227954506874084e-01
8.980000000000000000e+02 6.833155059814453125e+01 -1.429052257537841797e+01 1.211337208747863770e+00 1.917272758483886719e+01 6.115219116210937500e+00 -3.541527986526489258e+00
8.990000000000000000e+02 6.794967651367187500e+01 -1.102906322479248047e+01 1.303664207458496094e+00 1.199965286254882812e+01 3.990995168685913086e+00 -3.502290010452270508e+00
9.000000000000000000e+02 3.487095236778259277e-01 -2.437245941162109375e+01 -5.488818511366844177e-03 -1.734836548566818237e-01 -5.369174107909202576e-02 1.813873797655105591e-01
9.010000000000000000e+02 4.358572769165039062e+01 5.573892593383789062e-01 -2.541996955871582031e+00 7.056628227233886719e+00 1.354389429092407227e+00 1.693019032478332520e+00
9.020000000000000000e+02 4.305499649047851562e+01 -2.414119243621826172e-01 -9.151757955551147461e-01 8.888677597045898438e+00 2.392050504684448242e+00 1.852641105651855469e+00
9.030000000000000000e+02 6.122264480590820312e+01 -3.410803604125976562e+01 -1.998357892036437988e+00 -5.903590917587280273e-01 -7.766150832176208496e-01 -3.430970311164855957e-01
9.040000000000000000e+02 6.885268402099609375e+01 -2.576652526855468750e+01 7.307830452919006348e-01 1.194972896575927734e+01 3.804153680801391602e+00 1.041633129119873047e+00
9.050000000000000000e+02 6.571215057373046875e+01 -2.975257682800292969e+01 -7.559585571289062500e-01 6.577082872390747070e-01 -2.947507426142692566e-02 -5.537664983421564102e-03
9.060000000000000000e+02 6.687552642822265625e+01 -2.962835502624511719e+01 -8.458986878395080566e-01 3.771459341049194336e+00 8.776682019233703613e-01 7.926116585731506348e-01
9.070000000000000000e+02 6.243248367309570312e+01 -3.326567077636718750e+01 -2.363364458084106445e+00 -2.202950119972229004e-01 -7.750978469848632812e-01 -4.465107619762420654e-01
9.080000000000000000e+02 6.919328308105468750e+01 -2.406677627563476562e+01 1.118815183639526367e+00 1.384914398193359375e+01 4.490387916564941406e+00 8.003954291343688965e-01
9.090000000000000000e+02 6.443326568603515625e+01 -3.082125854492187500e+01 -2.085760116577148438e+00 -3.641352653503417969e-01 -7.349686026573181152e-01 -9.485585093498229980e-01
9.100000000000000000e+02 5.065790557861328125e+01 -9.369415044784545898e-02 -5.064322471618652344e+00 -6.286936998367309570e-01 -1.707904815673828125e+00 1.828333020210266113e+00
9.110000000000000000e+02 6.894532012939453125e+01 -1.419027042388916016e+01 1.719033479690551758e+00 1.651935958862304688e+01 5.471518039703369141e+00 -2.732877254486083984e+00
9.120000000000000000e+02 4.157181167602539062e+01 -4.350199699401855469e+00 6.030821800231933594e-01 1.341518592834472656e+01 4.205480575561523438e+00 2.933485746383666992e+00
9.130000000000000000e+02 5.460410690307617188e+01 -3.008032798767089844e+01 -6.979902386665344238e-01 -4.575604796409606934e-01 -3.466652035713195801e-01 5.526067614555358887e-01
9.140000000000000000e+02 5.510042190551757812e+01 -3.199726676940917969e+01 -1.544629812240600586e+00 -1.666381508111953735e-01 -5.133803486824035645e-01 3.969124853610992432e-01
9.150000000000000000e+02 6.508879852294921875e+01 -3.029756355285644531e+01 -1.435628175735473633e+00 2.373908273875713348e-02 -4.235667288303375244e-01 -5.650545358657836914e-01
9.160000000000000000e+02 6.694365692138671875e+01 -3.212334442138671875e+01 -1.627502441406250000e+00 3.984471797943115234e+00 7.070907950401306152e-01 5.705642104148864746e-01
9.170000000000000000e+02 4.340547943115234375e+01 -1.856422615051269531e+01 1.571671962738037109e+00 4.729575157165527344e+00 1.890374064445495605e+00 -2.557274341583251953e+00
9.180000000000000000e+02 4.504394149780273438e+01 -2.035378074645996094e+01 4.240983724594116211e-01 1.023542881011962891e+00 4.342923760414123535e-01 -6.808553934097290039e-01
9.190000000000000000e+02 4.286229324340820312e+01 -1.887399291992187500e+01 5.150512456893920898e-01 6.180288314819335938e+00 2.008601903915405273e+00 -1.805801033973693848e+00
9.200000000000000000e+02 6.609554290771484375e+01 -6.404966831207275391e+00 1.608552098274230957e+00 7.847230911254882812e+00 2.836734771728515625e+00 -2.864142656326293945e+00
9.210000000000000000e+02 6.091683578491210938e+01 -1.746495008468627930e+00 -1.665317416191101074e+00 7.429381608963012695e-01 -2.767137885093688965e-01 -4.919727444648742676e-01
9.220000000000000000e+02 3.595094299316406250e+01 -2.212028121948242188e+01 3.279922306537628174e-01 8.833000183105468750e+00 2.748297691345214844e+00 9.263336658477783203e-01
9.230000000000000000e+02 5.871524429321289062e+01 -3.379889297485351562e+01 -2.393703222274780273e+00 -5.611026287078857422e-01 -8.864417672157287598e-01 -3.025302886962890625e-01
9.240000000000000000e+02 6.629648590087890625e+01 -3.028936195373535156e+01 -1.199689269065856934e+00 2.550050973892211914e+00 4.051084816455841064e-01 4.744623899459838867e-01
9.250000000000000000e+02 2.239648056030273438e+01 -1.895654869079589844e+01 -8.787773549556732178e-02 5.582076963037252426e-03 -2.468869835138320923e-02 2.464562468230724335e-02
9.260000000000000000e+02 2.093068313598632812e+01 -1.811418342590332031e+01 4.511880874633789062e-02 -2.159415185451507568e-02 7.057397160679101944e-03 6.824675947427749634e-02
9.270000000000000000e+02 4.196789550781250000e+01 -1.737628364562988281e+01 9.717546105384826660e-01 9.995005607604980469e+00 3.290028095245361328e+00 -1.596444845199584961e+00
9.280000000000000000e+02 4.237868118286132812e+01 -1.815482139587402344e+01 6.291797161102294922e-01 8.309224128723144531e+00 2.681521177291870117e+00 -1.813735961914062500e+00
9.290000000000000000e+02 3.216416931152343750e+01 -1.687703895568847656e+01 -2.047779321670532227e+00 -5.617868304252624512e-01 -7.828698754310607910e-01 7.398211359977722168e-01
9.300000000000000000e+02 3.161159896850585938e+01 -1.737086105346679688e+01 -3.891578197479248047e+00 -9.202544689178466797e-01 -1.443549871444702148e+00 1.032634019851684570e+00
9.310000000000000000e+02 4.153334426879882812e+01 -9.964019775390625000e+00 1.929050534963607788e-01 1.582016277313232422e+01 4.803920269012451172e+00 -1.419411003589630127e-01
9.320000000000000000e+02 4.086095809936523438e+01 -9.960055351257324219e+00 5.494130849838256836e-01 1.417190837860107422e+01 4.416396617889404297e+00 -2.962616644799709320e-02
9.330000000000000000e+02 6.342148590087890625e+01 -3.288161849975585938e+01 -2.222960472106933594e+00 1.560698598623275757e-01 -6.200671792030334473e-01 -2.231456786394119263e-01
9.340000000000000000e+02 6.385163497924804688e+01 -3.541260242462158203e+00 7.062764167785644531e-01 3.943114280700683594e+00 1.394817233085632324e+00 -2.040653467178344727e+00
9.350000000000000000e+02 6.600179290771484375e+01 -8.271167755126953125e+00 1.178316950798034668e+00 8.304964065551757812e+00 2.844984292984008789e+00 -3.248447895050048828e+00
9.360000000000000000e+02 5.401854324340820312e+01 -2.951470756530761719e+01 -5.929307341575622559e-01 -4.035415351390838623e-01 -2.989416718482971191e-01 4.880050420761108398e-01
9.370000000000000000e+02 5.448982620239257812e+01 -3.134816360473632812e+01 -1.133104801177978516e+00 -1.871622204780578613e-01 -3.960801064968109131e-01 4.731724262237548828e-01
9.380000000000000000e+02 5.623540115356445312e+01 -5.913961529731750488e-01 -4.103958129882812500e+00 -1.190311908721923828e-01 -1.266896843910217285e+00 4.094278216361999512e-01
9.390000000000000000e+02 4.104227066040039062e+01 -1.321030998229980469e+01 3.955442905426025391e-01 1.303193283081054688e+01 4.028243064880371094e+00 -1.216465353965759277e+00
9.400000000000000000e+02 6.567317199707031250e+01 -3.091486358642578125e+01 -1.548400640487670898e+00 1.615230202674865723e+00 2.004886232316493988e-02 1.753565371036529541e-01
9.410000000000000000e+02 6.858087158203125000e+01 -2.658465957641601562e+01 3.160809278488159180e-01 1.019948768615722656e+01 3.154670715332031250e+00 1.538928508758544922e+00
9.420000000000000000e+02 6.930491638183593750e+01 -2.238967704772949219e+01 1.501566171646118164e-01 1.425588512420654297e+01 4.321812629699707031e+00 -6.197629496455192566e-02
9.430000000000000000e+02 6.786576080322265625e+01 -2.816948509216308594e+01 7.307977229356765747e-02 6.684474945068359375e+00 2.027266502380371094e+00 1.188184618949890137e+00
9.440000000000000000e+02 6.825540161132812500e+01 -2.738416099548339844e+01 3.430292606353759766e-01 8.271368980407714844e+00 2.584319353103637695e+00 1.528219580650329590e+00
9.450000000000000000e+02 4.153680038452148438e+01 -9.160805702209472656e+00 8.053790032863616943e-02 1.577527809143066406e+01 4.756744861602783203e+00 1.855383068323135376e-01
9.460000000000000000e+02 4.019441223144531250e+01 -9.131293296813964844e+00 9.399338960647583008e-01 1.298285293579101562e+01 4.176836013793945312e+00 7.550632953643798828e-01
9.470000000000000000e+02 5.756702041625976562e+01 -1.498537182807922363e+00 -4.418957233428955078e+00 -1.801844090223312378e-01 -1.379742503166198730e+00 7.841123342514038086e-01
9.480000000000000000e+02 5.776955795288085938e+01 -9.007642269134521484e-01 -3.657181501388549805e+00 -6.488723307847976685e-02 -1.116620659828186035e+00 3.283009231090545654e-01
9.490000000000000000e+02 4.916462707519531250e+01 2.579077005386352539e+00 -3.985317707061767578e+00 -3.254130184650421143e-01 -1.293219208717346191e+00 3.148668110370635986e-01
9.500000000000000000e+02 3.513774108886718750e+01 -2.604529190063476562e+01 1.585955739021301270e+00 9.449897766113281250e+00 3.310755968093872070e+00 2.400836467742919922e+00
9.510000000000000000e+02 4.947571945190429688e+01 -2.595381546020507812e+01 -1.485322862863540649e-01 4.561067745089530945e-02 -3.087648190557956696e-02 6.731494516134262085e-02
9.520000000000000000e+02 4.139070129394531250e+01 -5.135555744171142578e+00 5.390121340751647949e-01 1.386672115325927734e+01 4.321720123291015625e+00 2.735554933547973633e+00
9.530000000000000000e+02 4.097327423095703125e+01 -1.239800643920898438e+01 2.696608379483222961e-02 1.349323558807373047e+01 4.056060314178466797e+00 -8.245191574096679688e-01
9.540000000000000000e+02 5.039329528808593750e+01 8.523249626159667969e-01 -5.366549491882324219e+00 -1.982080489397048950e-01 -1.669427275657653809e+00 1.035385727882385254e+00
9.550000000000000000e+02 4.972446441650390625e+01 1.180147409439086914e+00 -5.680189132690429688e+00 -3.085093498229980469e-01 -1.796609520912170410e+00 1.135839343070983887e+00
9.560000000000000000e+02 6.663054656982421875e+01 -9.759113311767578125e+00 1.554739356040954590e+00 9.427921295166015625e+00 3.294798135757446289e+00 -3.864591121673583984e+00
9.570000000000000000e+02 6.644328308105468750e+01 -7.191779613494873047e+00 1.220955371856689453e+00 8.404262542724609375e+00 2.887565374374389648e+00 -3.056910514831542969e+00
9.580000000000000000e+02 3.345793151855468750e+01 -2.910123443603515625e+01 1.340366721153259277e+00 5.105991363525390625e+00 1.933907389640808105e+00 2.339273214340209961e+00
9.590000000000000000e+02 3.280646133422851562e+01 -2.847268486022949219e+01 2.533461570739746094e+00 4.282907009124755859e+00 2.044910669326782227e+00 3.140010118484497070e+00
9.600000000000000000e+02 6.702455902099609375e+01 -8.762554168701171875e+00 9.548830986022949219e-01 9.401257514953613281e+00 3.106842279434204102e+00 -3.160308599472045898e+00
9.610000000000000000e+02 6.824499511718750000e+01 -1.179690647125244141e+01 1.353915214538574219e+00 1.322662639617919922e+01 4.374162673950195312e+00 -3.584840774536132812e+00
9.620000000000000000e+02 4.122394561767578125e+01 -5.917196273803710938e+00 8.047927618026733398e-01 1.464495754241943359e+01 4.634924888610839844e+00 2.281188726425170898e+00
9.630000000000000000e+02 6.859883117675781250e+01 -1.831952095031738281e+01 4.276572912931442261e-02 1.609086990356445312e+01 4.840090751647949219e+00 -2.681252360343933105e-01
9.640000000000000000e+02 6.074026107788085938e+01 -3.341443634033203125e+01 -2.907902240753173828e+00 -5.956120491027832031e-01 -1.051054239273071289e+00 -4.870616793632507324e-01
9.650000000000000000e+02 6.151514434814453125e+01 -3.324980926513671875e+01 -2.877534151077270508e+00 -5.136521458625793457e-01 -1.017355918884277344e+00 -5.954836606979370117e-01
9.660000000000000000e+02 4.605961990356445312e+01 -2.362482261657714844e+01 1.033832356333732605e-01 1.154424905776977539e+00 3.773424327373504639e-01 -4.590353667736053467e-01
9.670000000000000000e+02 4.086751937866210938e+01 -9.149703025817871094e+00 4.111692607402801514e-01 1.468571567535400391e+01 4.529065608978271484e+00 4.703646004199981689e-01
9.680000000000000000e+02 5.854113769531250000e+01 -1.083866000175476074e+00 -3.297709941864013672e+00 3.106867522001266479e-02 -9.799923896789550781e-01 2.438191324472427368e-01
9.690000000000000000e+02 4.843964004516601562e+01 -2.375396347045898438e+01 -1.791770160198211670e-01 -8.847833424806594849e-02 -8.029660582542419434e-02 1.446382552385330200e-01
9.700000000000000000e+02 4.893426132202148438e+01 -2.537019348144531250e+01 -1.095638051629066467e-01 9.930646419525146484e-02 -3.077202243730425835e-03 2.083970233798027039e-02
9.710000000000000000e+02 4.447153854370117188e+01 -2.077039718627929688e+01 2.679130733013153076e-01 2.205735683441162109e+00 7.420946359634399414e-01 -9.678635001182556152e-01
9.720000000000000000e+02 4.392802429199218750e+01 -2.016820526123046875e+01 3.278665542602539062e-01 3.136260032653808594e+00 1.039237976074218750e+00 -1.265345096588134766e+00
9.730000000000000000e+02 5.443840026855468750e+01 -1.009206414222717285e+00 -4.850816726684570312e+00 -4.440339654684066772e-02 -1.468566060066223145e+00 5.772491693496704102e-01
9.740000000000000000e+02 5.323078536987304688e+01 -9.194165468215942383e-02 -4.236836433410644531e+00 1.028003543615341187e-01 -1.240210771560668945e+00 7.820923328399658203e-01
9.750000000000000000e+02 4.176815795898437500e+01 -3.548618793487548828e+00 9.598882198333740234e-01 1.307333850860595703e+01 4.209968090057373047e+00 3.070528984069824219e+00
9.760000000000000000e+02 6.500495910644531250e+01 -3.153017807006835938e+01 -1.902226448059082031e+00 1.004788875579833984e+00 -2.692312598228454590e-01 -6.629376858472824097e-02
9.770000000000000000e+02 5.289961242675781250e+01 -2.835808372497558594e+01 -4.345456063747406006e-01 -3.351217210292816162e-01 -2.309001982212066650e-01 3.800333440303802490e-01
9.780000000000000000e+02 6.918492126464843750e+01 -1.584432983398437500e+01 1.051369905471801758e+00 1.674643898010253906e+01 5.339342594146728516e+00 -1.614050269126892090e+00
9.790000000000000000e+02 6.908747100830078125e+01 -1.501705932617187500e+01 1.290418863296508789e+00 1.708754158020019531e+01 5.513387680053710938e+00 -2.153466939926147461e+00
9.800000000000000000e+02 6.860386657714843750e+01 -1.912327384948730469e+01 1.124304160475730896e-02 1.563621234893798828e+01 4.694236755371093750e+00 -2.074445784091949463e-01
9.810000000000000000e+02 6.927605438232421875e+01 -1.748740768432617188e+01 2.390486150979995728e-01 1.606238365173339844e+01 4.890429973602294922e+00 -9.261443018913269043e-01
9.820000000000000000e+02 5.397097015380859375e+01 -2.284436970949172974e-01 -4.194603919982910156e+00 3.396981582045555115e-02 -1.248190283775329590e+00 6.358462572097778320e-01
9.830000000000000000e+02 5.001201248168945312e+01 -2.654652023315429688e+01 -2.036371380090713501e-01 -1.984406029805541039e-03 -6.168646365404129028e-02 9.971940517425537109e-02
9.840000000000000000e+02 5.178652191162109375e+01 2.890692055225372314e-01 -4.618584156036376953e+00 1.988297402858734131e-01 -1.325926303863525391e+00 9.885898232460021973e-01
9.850000000000000000e+02 5.216179656982421875e+01 -2.894776725769042969e+01 -4.568447768688201904e-01 -1.196061968803405762e-01 -1.729352921247482300e-01 2.571378648281097412e-01
9.860000000000000000e+02 6.875397491455078125e+01 -1.337362194061279297e+01 1.735104680061340332e+00 1.570553207397460938e+01 5.232191085815429688e+00 -2.888531208038330078e+00
9.870000000000000000e+02 6.851652526855468750e+01 -1.257661437988281250e+01 1.433887004852294922e+00 1.474821758270263672e+01 4.854631423950195312e+00 -3.312001943588256836e+00
9.880000000000000000e+02 5.055535125732421875e+01 -2.714070892333984375e+01 -2.485179305076599121e-01 -4.606485366821289062e-02 -8.837483823299407959e-02 1.402520686388015747e-01
9.890000000000000000e+02 5.110875320434570312e+01 -2.772929191589355469e+01 -3.010167181491851807e-01 -8.753808587789535522e-02 -1.165664419531822205e-01 1.678228378295898438e-01
9.900000000000000000e+02 6.860688781738281250e+01 -1.992758369445800781e+01 2.219119109213352203e-02 1.527332687377929688e+01 4.588655471801757812e+00 -1.704536229372024536e-01
9.910000000000000000e+02 6.929596710205078125e+01 -1.830009269714355469e+01 1.209024935960769653e-01 1.547577857971191406e+01 4.679004192352294922e+00 -6.539216041564941406e-01
9.920000000000000000e+02 4.125539016723632812e+01 -1.486307621002197266e+01 5.935060381889343262e-01 1.280292987823486328e+01 4.018930912017822266e+00 -1.257745742797851562e+00
9.930000000000000000e+02 5.266845321655273438e+01 -2.958863258361816406e+01 -5.510708093643188477e-01 -1.360112428665161133e-01 -2.061246037483215332e-01 2.950630486011505127e-01
9.940000000000000000e+02 4.787240982055664062e+01 -2.319245719909667969e+01 -1.455142050981521606e-01 -2.266583591699600220e-02 -5.045401304960250854e-02 8.793524652719497681e-02
9.950000000000000000e+02 4.838175582885742188e+01 -2.479992675781250000e+01 -7.171379774808883667e-02 1.825056821107864380e-01 3.323756530880928040e-02 -2.551375329494476318e-02
9.960000000000000000e+02 6.764055633544921875e+01 -1.027143764495849609e+01 1.156305313110351562e+00 1.100377082824707031e+01 3.648022890090942383e+00 -3.420988798141479492e+00
9.970000000000000000e+02 6.932128143310546875e+01 -1.992683219909667969e+01 6.366004049777984619e-02 1.477538776397705078e+01 4.451714515686035156e+00 -4.282288849353790283e-01
9.980000000000000000e+02 6.860799407958984375e+01 -2.073222160339355469e+01 5.391824990510940552e-03 1.500321674346923828e+01 4.502582550048828125e+00 -1.394647061824798584e-01
9.990000000000000000e+02 4.782085418701171875e+01 -2.424101257324218750e+01 -4.187932610511779785e-02 2.855567038059234619e-01 7.310321927070617676e-02 -9.090410172939300537e-02
1.000000000000000000e+03 6.932230377197265625e+01 -2.156410217285156250e+01 1.101863533258438110e-01 1.432965850830078125e+01 4.331953525543212891e+00 -2.108549326658248901e-01
1.001000000000000000e+03 4.730450057983398438e+01 -2.263049697875976562e+01 -8.753696829080581665e-02 7.231427729129791260e-02 -4.566807299852371216e-03 2.166553586721420288e-02
1.002000000000000000e+03 4.557002639770507812e+01 -2.195811271667480469e+01 1.413227617740631104e-01 1.146595597267150879e+00 3.863755166530609131e-01 -5.120356678962707520e-01
1.003000000000000000e+03 4.612810134887695312e+01 -2.254463958740234375e+01 9.053164720535278320e-02 8.274696469306945801e-01 2.754004001617431641e-01 -3.692745864391326904e-01
1.004000000000000000e+03 3.453241586685180664e-01 -2.038351249694824219e+01 1.374637149274349213e-02 -1.899679660797119141e+00 -5.657799839973449707e-01 8.888480067253112793e-02
1.005000000000000000e+03 3.285139465332031250e+01 -2.973266601562500000e+01 1.252591013908386230e+00 4.049760341644287109e+00 1.590705394744873047e+00 2.136970520019531250e+00
1.006000000000000000e+03 3.141795158386230469e+01 -3.082997894287109375e+01 8.127601742744445801e-01 2.548836469650268555e+00 1.008478999137878418e+00 1.619570255279541016e+00
1.007000000000000000e+03 3.479997253417968750e+01 -2.685013389587402344e+01 1.629703283309936523e+00 8.218928337097167969e+00 2.954589605331420898e+00 2.817691087722778320e+00
1.008000000000000000e+03 1.342699527740478516e+01 -1.578720569610595703e+01 1.378269433975219727e+00 1.074443385004997253e-01 4.457141160964965820e-01 1.407718509435653687e-01
1.009000000000000000e+03 1.047513604164123535e+00 -1.722622489929199219e+01 5.634858459234237671e-02 -1.640994071960449219e+00 -4.753936529159545898e-01 -3.982988372445106506e-02
1.010000000000000000e+03 3.016794776916503906e+01 -1.782366371154785156e+01 -3.354867696762084961e+00 -1.648213155567646027e-02 -1.011404871940612793e+00 -8.131995797157287598e-02
1.011000000000000000e+03 3.740737140178680420e-01 -2.676961517333984375e+01 -4.528609570115804672e-03 1.026602506637573242e+00 3.066221773624420166e-01 1.597785055637359619e-01
1.012000000000000000e+03 1.563139152526855469e+01 -1.717114257812500000e+01 5.371186137199401855e-01 6.398079544305801392e-02 1.803298294544219971e-01 -1.589229702949523926e-01
1.013000000000000000e+03 1.749008178710937500e+01 -1.641740226745605469e+01 4.669071137905120850e-01 -7.576210051774978638e-02 1.173435002565383911e-01 5.604499205946922302e-02
1.014000000000000000e+03 3.563944101333618164e-01 -2.596676635742187500e+01 -1.028155162930488586e-02 6.616877317428588867e-01 1.954218596220016479e-01 1.756862103939056396e-01
1.015000000000000000e+03 2.861806106567382812e+01 -1.812990570068359375e+01 -1.740823030471801758e+00 4.078004136681556702e-02 -5.100129246711730957e-01 -7.218819111585617065e-02
1.016000000000000000e+03 2.459473228454589844e+01 -1.810245513916015625e+01 -3.618417680263519287e-01 3.375270962715148926e-02 -9.842672199010848999e-02 1.176536902785301208e-01
1.017000000000000000e+03 2.378636169433593750e+01 -1.751003456115722656e+01 -2.067280411720275879e-01 9.101731702685356140e-03 -5.928789451718330383e-02 1.997954696416854858e-01
1.018000000000000000e+03 1.707703399658203125e+01 -1.783787345886230469e+01 2.580219209194183350e-01 1.579323224723339081e-02 8.214455097913742065e-02 -6.817075610160827637e-02
1.019000000000000000e+03 1.582230091094970703e+01 -1.651399230957031250e+01 6.556131243705749512e-01 -2.612792514264583588e-02 1.888455599546432495e-01 -4.019194841384887695e-02
1.020000000000000000e+03 1.965327072143554688e+01 -3.159580993652343750e+01 -9.624173045158386230e-01 -1.840034383349120617e-03 -2.892771959304809570e-01 -3.052810952067375183e-02
1.021000000000000000e+03 2.781821250915527344e+01 -3.110758399963378906e+01 -5.216541886329650879e-01 6.200323998928070068e-02 -1.378952860832214355e-01 1.474080979824066162e-01
1.022000000000000000e+03 2.894943237304687500e+01 -3.187557792663574219e+01 7.405330240726470947e-02 6.661087274551391602e-01 2.220486253499984741e-01 8.288266658782958984e-01
1.023000000000000000e+03 1.946586227416992188e+01 -1.783914184570312500e+01 1.561006903648376465e-01 -3.102855011820793152e-02 3.752164170145988464e-02 3.930344060063362122e-02
1.024000000000000000e+03 2.007993125915527344e+01 -1.875970840454101562e+01 5.411250889301300049e-02 -6.838960573077201843e-03 1.418206375092267990e-02 1.177395414561033249e-02
1.025000000000000000e+03 2.638189697265625000e+01 -3.220615768432617188e+01 -5.040029287338256836e-01 1.695230007171630859e-01 -1.003439724445343018e-01 1.649247556924819946e-01
1.026000000000000000e+03 1.931478118896484375e+01 -1.859081459045410156e+01 9.616410732269287109e-02 -8.411787450313568115e-03 2.632569707930088043e-02 -1.988507341593503952e-03
1.027000000000000000e+03 1.656453132629394531e+01 -1.682152175903320312e+01 5.080158710479736328e-01 -3.077503852546215057e-02 1.431722491979598999e-01 -3.372820466756820679e-02
1.028000000000000000e+03 2.030769348144531250e+01 -3.253015518188476562e+01 -8.821108341217041016e-01 -2.479531057178974152e-02 -2.720718383789062500e-01 -3.633367642760276794e-02
1.029000000000000000e+03 9.458647727966308594e+00 -1.577789878845214844e+01 1.431984543800354004e+00 1.196069002151489258e+00 7.884160876274108887e-01 9.556494355201721191e-01
1.030000000000000000e+03 1.517109203338623047e+01 -3.314985275268554688e+01 -8.452039957046508789e-01 -1.513928622007369995e-01 -2.989790737628936768e-01 1.989208906888961792e-01
1.031000000000000000e+03 3.567441105842590332e-01 -2.197666168212890625e+01 1.052617467939853668e-02 -1.338512182235717773e+00 -3.983957767486572266e-01 1.495322734117507935e-01
1.032000000000000000e+03 3.613814544677734375e+01 -2.146191406250000000e+01 2.647702097892761230e-01 7.978902816772460938e+00 2.473101854324340820e+00 1.325464725494384766e+00
1.033000000000000000e+03 3.506017327308654785e-01 -2.117948150634765625e+01 1.467434223741292953e-02 -1.651510715484619141e+00 -4.910508990287780762e-01 1.212373450398445129e-01
1.034000000000000000e+03 1.873601913452148438e+01 -1.763792800903320312e+01 2.151444852352142334e-01 -3.716328740119934082e-02 5.339436233043670654e-02 1.756009086966514587e-02
1.035000000000000000e+03 2.348870086669921875e+01 -3.393470382690429688e+01 -4.992718398571014404e-01 5.100980401039123535e-02 -1.344786137342453003e-01 6.597014516592025757e-02
1.036000000000000000e+03 2.723690223693847656e+01 -3.212876892089843750e+01 -3.441005647182464600e-01 2.088439166545867920e-01 -4.057699441909790039e-02 3.259365856647491455e-01
1.037000000000000000e+03 1.098519039154052734e+01 -1.488441371917724609e+01 1.338177442550659180e+00 6.540823578834533691e-01 5.976779460906982422e-01 6.360924839973449707e-01
1.038000000000000000e+03 1.017587757110595703e+01 -1.575225639343261719e+01 1.857564210891723633e+00 7.545403838157653809e-01 7.836313843727111816e-01 9.462617039680480957e-01
1.039000000000000000e+03 2.101908874511718750e+01 -1.736992454528808594e+01 8.652156591415405273e-02 -4.068769142031669617e-02 1.375016197562217712e-02 1.220297440886497498e-01
1.040000000000000000e+03 1.890749359130859375e+01 -1.691782951354980469e+01 2.860797345638275146e-01 -6.670898944139480591e-02 6.581122428178787231e-02 7.533631473779678345e-02
1.041000000000000000e+03 3.271531677246093750e+01 -1.726857566833496094e+01 -2.448717594146728516e+00 -1.824547946453094482e-01 -7.893517017364501953e-01 5.178591609001159668e-01
1.042000000000000000e+03 3.472444415092468262e-01 -2.516839408874511719e+01 6.427382118999958038e-03 2.507108747959136963e-01 7.714147120714187622e-02 1.835028529167175293e-01
1.043000000000000000e+03 1.139264011383056641e+01 -3.155770111083984375e+01 -1.273413062095642090e+00 -3.259648680686950684e-01 -4.798133671283721924e-01 5.445071458816528320e-01
1.044000000000000000e+03 1.460607814788818359e+01 -3.215340042114257812e+01 -1.048151373863220215e+00 -1.123466864228248596e-01 -3.481494188308715820e-01 2.385327965021133423e-01
1.045000000000000000e+03 1.481466197967529297e+01 -3.135662841796875000e+01 -1.204140901565551758e+00 -6.177407875657081604e-02 -3.797745108604431152e-01 2.191131561994552612e-01
1.046000000000000000e+03 1.541619491577148438e+01 -3.230738830566406250e+01 -1.020244479179382324e+00 -1.004344671964645386e-01 -3.362036645412445068e-01 1.822529435157775879e-01
1.047000000000000000e+03 2.809480285644531250e+01 -3.203711318969726562e+01 -1.442997306585311890e-01 3.758138716220855713e-01 6.945423781871795654e-02 5.343450903892517090e-01
1.048000000000000000e+03 1.953794670104980469e+01 -3.241741561889648438e+01 -9.135923385620117188e-01 -5.446318071335554123e-03 -2.757115960121154785e-01 5.334129557013511658e-03
1.049000000000000000e+03 1.876179504394531250e+01 -3.240443038940429688e+01 -9.351416230201721191e-01 -4.704317823052406311e-02 -2.946554422378540039e-01 3.973233699798583984e-02
1.050000000000000000e+03 1.070197463035583496e+00 -2.351647186279296875e+01 1.525366771966218948e-02 -3.275068402290344238e-01 -9.367595613002777100e-02 4.931023120880126953e-01
1.051000000000000000e+03 1.625168228149414062e+01 -3.244642257690429688e+01 -9.983652830123901367e-01 -8.733738958835601807e-02 -3.257108032703399658e-01 1.431443393230438232e-01
1.052000000000000000e+03 1.303562545776367188e+01 -3.186093330383300781e+01 -1.145483851432800293e+00 -1.532348394393920898e-01 -3.896156251430511475e-01 3.586517870426177979e-01
1.053000000000000000e+03 1.244121074676513672e+01 -3.092117691040039062e+01 -1.419319152832031250e+00 -1.058327332139015198e-01 -4.575455784797668457e-01 3.493890762329101562e-01
1.054000000000000000e+03 2.759678077697753906e+01 -1.759002304077148438e+01 -1.179141402244567871e+00 3.622719645500183105e-02 -3.428742587566375732e-01 2.367276400327682495e-01
1.055000000000000000e+03 2.532839012145996094e+01 -1.798948860168457031e+01 -5.195174813270568848e-01 1.932240277528762817e-02 -1.500585228204727173e-01 1.497583240270614624e-01
1.056000000000000000e+03 8.301722526550292969e+00 -2.995514297485351562e+01 -1.254833698272705078e+00 -6.656376719474792480e-01 -5.761414170265197754e-01 7.510132193565368652e-01
1.057000000000000000e+03 2.374911308288574219e+01 -3.146740531921386719e+01 -9.733870625495910645e-01 1.385568082332611084e-02 -2.878594100475311279e-01 -8.383173495531082153e-02
1.058000000000000000e+03 2.551655769348144531e+01 -3.237113952636718750e+01 -6.026932001113891602e-01 9.559533745050430298e-02 -1.521293669939041138e-01 8.850321918725967407e-02
1.059000000000000000e+03 7.051713466644287109e+00 -2.888560104370117188e+01 -8.963153362274169922e-01 -6.056802868843078613e-01 -4.505986869335174561e-01 7.124906778335571289e-01
1.060000000000000000e+03 3.453028798103332520e-01 -1.879113388061523438e+01 7.211023010313510895e-03 -2.176739215850830078e+00 -6.508585214614868164e-01 3.103336691856384277e-02
1.061000000000000000e+03 3.572209167480468750e+01 -2.361652374267578125e+01 9.842005372047424316e-01 1.030249118804931641e+01 3.386007547378540039e+00 1.681889533996582031e+00
1.062000000000000000e+03 2.627492141723632812e+01 -1.851988410949707031e+01 -7.394217252731323242e-01 -1.247209217399358749e-02 -2.255681455135345459e-01 -2.970842458307743073e-02
1.063000000000000000e+03 2.166012191772460938e+01 -1.818640518188476562e+01 -1.420858781784772873e-02 -8.958000689744949341e-03 -6.949976552277803421e-03 7.598230987787246704e-02
1.064000000000000000e+03 2.292825889587402344e+01 -3.159210014343261719e+01 -9.965903162956237793e-01 -2.716553211212158203e-02 -3.071267604827880859e-01 -8.272287249565124512e-02
1.065000000000000000e+03 2.389266586303710938e+01 -3.246219635009765625e+01 -7.337608337402343750e-01 2.729358850046992302e-03 -2.193094342947006226e-01 -1.874919608235359192e-02
1.066000000000000000e+03 1.381949710845947266e+01 -3.200183105468750000e+01 -1.097264170646667480e+00 -1.231472939252853394e-01 -3.661234378814697266e-01 2.856630980968475342e-01
1.067000000000000000e+03 2.607386779785156250e+01 -1.785962295532226562e+01 -6.995811462402343750e-01 5.063822492957115173e-02 -1.946828812360763550e-01 1.601488590240478516e-01
1.068000000000000000e+03 1.222335338592529297e+01 -3.173681068420410156e+01 -1.199416637420654297e+00 -2.211611568927764893e-01 -4.261733293533325195e-01 4.450243115425109863e-01
1.069000000000000000e+03 2.113306617736816406e+01 -3.266356658935546875e+01 -8.197908997535705566e-01 -2.497571147978305817e-02 -2.534299790859222412e-01 -3.785466775298118591e-02
1.070000000000000000e+03 2.303389930725097656e+01 -3.278191757202148438e+01 -7.285310626029968262e-01 1.216349657624959946e-02 -2.149102687835693359e-01 -2.188804000616073608e-02
1.071000000000000000e+03 7.967864227294921875e+01 3.884737396240234375e+01 -1.297482376685366035e-04 5.246392250061035156e+00 1.573878765106201172e+00 -1.603233977220952511e-03
1.072000000000000000e+03 7.903823089599609375e+01 3.736232757568359375e+01 1.054812921211123466e-03 5.257052421569824219e+00 1.577432274818420410e+00 -6.994001101702451706e-03
1.073000000000000000e+03 7.962567138671875000e+01 3.579978561401367188e+01 2.867550938390195370e-04 5.271503925323486328e+00 1.581537127494812012e+00 -4.066165070980787277e-03
1.074000000000000000e+03 7.876405334472656250e+01 3.447943878173828125e+01 3.471804782748222351e-03 5.291152477264404297e+00 1.588387250900268555e+00 -1.877830922603607178e-02
1.075000000000000000e+03 7.788100433349609375e+01 3.045248222351074219e+01 1.371946278959512711e-02 5.377774238586425781e+00 1.617448091506958008e+00 -6.772796064615249634e-02
1.076000000000000000e+03 7.957215881347656250e+01 3.259395599365234375e+01 4.830412508454173803e-04 5.322631835937500000e+00 1.596934556961059570e+00 -9.168184362351894379e-03
1.077000000000000000e+03 7.874767303466796875e+01 2.950197219848632812e+01 5.458838772028684616e-03 5.415758132934570312e+00 1.626365184783935547e+00 -4.761295020580291748e-02
1.078000000000000000e+03 7.887145233154296875e+01 1.423662471771240234e+01 2.521078102290630341e-03 6.894502162933349609e+00 2.069106817245483398e+00 -1.807059347629547119e-01
1.079000000000000000e+03 7.962240600585937500e+01 1.490731430053710938e+01 1.187471323646605015e-03 6.894849300384521484e+00 2.068810939788818359e+00 -6.078023463487625122e-02
1.080000000000000000e+03 7.885176086425781250e+01 1.984601593017578125e+01 6.612174212932586670e-03 6.130681514739990234e+00 1.841188192367553711e+00 -1.386211067438125610e-01
1.081000000000000000e+03 7.961564636230468750e+01 2.131954574584960938e+01 1.586820580996572971e-03 6.000866413116455078e+00 1.800735950469970703e+00 -4.199179634451866150e-02
1.082000000000000000e+03 7.878033447265625000e+01 2.786378669738769531e+01 5.517970770597457886e-03 5.485647201538085938e+00 1.647349476814270020e+00 -6.020344421267509460e-02
1.083000000000000000e+03 7.958875274658203125e+01 2.854501914978027344e+01 6.175721646286547184e-04 5.453202247619628906e+00 1.636146068572998047e+00 -1.842535100877285004e-02
1.084000000000000000e+03 7.958181762695312500e+01 3.016305541992187500e+01 1.052482402883470058e-03 5.389169692993164062e+00 1.617066740989685059e+00 -1.428376231342554092e-02
1.085000000000000000e+03 7.872740173339843750e+01 3.115477371215820312e+01 4.966524429619312286e-03 5.361253261566162109e+00 1.609866023063659668e+00 -3.605458512902259827e-02
1.086000000000000000e+03 7.876133728027343750e+01 2.868090820312500000e+01 6.138037424534559250e-03 5.448469161987304688e+00 1.636382102966308594e+00 -5.438323318958282471e-02
1.087000000000000000e+03 7.879852294921875000e+01 2.704985618591308594e+01 6.630537100136280060e-03 5.527013778686523438e+00 1.660093188285827637e+00 -6.697282940149307251e-02
1.088000000000000000e+03 7.732654571533203125e+01 2.239129257202148438e+01 3.349919244647026062e-02 5.792402744293212891e+00 1.747770667076110840e+00 -2.415937185287475586e-01
1.089000000000000000e+03 7.884294891357421875e+01 2.304141235351562500e+01 6.756852846592664719e-03 5.807980060577392578e+00 1.744421005249023438e+00 -1.047718897461891174e-01
1.090000000000000000e+03 7.884037017822265625e+01 2.383946228027343750e+01 7.124470081180334091e-03 5.741643905639648438e+00 1.724630594253540039e+00 -9.627292305231094360e-02
1.091000000000000000e+03 7.961295318603515625e+01 2.372204399108886719e+01 1.139037194661796093e-03 5.765500545501708984e+00 1.729991912841796875e+00 -3.329961374402046204e-02
1.092000000000000000e+03 7.884545898437500000e+01 2.224213409423828125e+01 7.256828714162111282e-03 5.880320072174072266e+00 1.766273021697998047e+00 -1.132494136691093445e-01
1.093000000000000000e+03 7.732816314697265625e+01 2.080086326599121094e+01 3.310742229223251343e-02 5.927476882934570312e+00 1.788175225257873535e+00 -2.781445682048797607e-01
1.094000000000000000e+03 7.884969329833984375e+01 2.064561462402343750e+01 7.256749551743268967e-03 6.041328430175781250e+00 1.814575433731079102e+00 -1.304048150777816772e-01
1.095000000000000000e+03 7.809642791748046875e+01 1.834012794494628906e+01 1.625000499188899994e-02 6.246197700500488281e+00 1.878734350204467773e+00 -2.465780377388000488e-01
1.096000000000000000e+03 7.886211395263671875e+01 1.664028739929199219e+01 4.554139450192451477e-03 6.541483402252197266e+00 1.963811278343200684e+00 -1.679964512586593628e-01
1.097000000000000000e+03 7.885911560058593750e+01 1.744236373901367188e+01 6.042510271072387695e-03 6.431178569793701172e+00 1.931166291236877441e+00 -1.619583666324615479e-01
1.098000000000000000e+03 7.961952972412109375e+01 1.731274795532226562e+01 5.639864830300211906e-04 6.518906593322753906e+00 1.955841302871704102e+00 -5.545949190855026245e-02
1.099000000000000000e+03 7.886834716796875000e+01 1.503711509704589844e+01 2.748002065345644951e-03 6.774088859558105469e+00 2.033051013946533203e+00 -1.778921335935592651e-01
1.100000000000000000e+03 7.886528015136718750e+01 1.583783912658691406e+01 4.456271417438983917e-03 6.656025409698486328e+00 1.998144507408142090e+00 -1.735168397426605225e-01
1.101000000000000000e+03 7.887399291992187500e+01 1.343614196777343750e+01 4.653207142837345600e-04 7.017656803131103516e+00 2.105436563491821289e+00 -1.826326549053192139e-01
1.102000000000000000e+03 7.813797760009765625e+01 1.192588520050048828e+01 -3.535663476213812828e-03 7.109884262084960938e+00 2.131904602050781250e+00 -2.906483411788940430e-01
1.103000000000000000e+03 7.888166046142578125e+01 1.102892589569091797e+01 -3.208035370334982872e-03 7.388648509979248047e+00 2.215631961822509766e+00 -1.774461567401885986e-01
1.104000000000000000e+03 7.888630676269531250e+01 9.423604011535644531e+00 -7.149533368647098541e-03 7.626103878021240234e+00 2.285686254501342773e+00 -1.637800037860870361e-01
1.105000000000000000e+03 7.796243286132812500e+01 -3.612821960449218750e+01 -9.605607390403747559e-02 1.234839057922363281e+01 3.675700187683105469e+00 -2.620205879211425781e-01
1.106000000000000000e+03 7.959069061279296875e+01 -3.480112838745117188e+01 -5.896198563277721405e-03 1.332574558258056641e+01 3.995954751968383789e+00 -1.048169508576393127e-01
1.107000000000000000e+03 7.884451293945312500e+01 -2.830916786193847656e+01 -1.649984531104564667e-02 1.058321762084960938e+01 3.170015335083007812e+00 -6.538149118423461914e-01
1.108000000000000000e+03 7.961929321289062500e+01 -2.760840797424316406e+01 -1.340847375104203820e-04 1.031653690338134766e+01 3.094920873641967773e+00 -2.585503458976745605e-01
1.109000000000000000e+03 7.817288970947265625e+01 -2.260472488403320312e+01 7.625833898782730103e-02 8.311431884765625000e+00 2.516307115554809570e+00 -8.138362765312194824e-01
1.110000000000000000e+03 7.963250732421875000e+01 -2.118892478942871094e+01 8.282435126602649689e-03 6.793498992919921875e+00 2.040534496307373047e+00 -1.742259711027145386e-01
1.111000000000000000e+03 7.818253326416015625e+01 -1.534598636627197266e+01 1.266280263662338257e-01 6.698253631591796875e+00 2.047464609146118164e+00 -1.133674457669258118e-01
1.112000000000000000e+03 7.963542938232421875e+01 -1.396187400817871094e+01 1.038716454058885574e-02 5.299247264862060547e+00 1.592890381813049316e+00 2.105402015149593353e-02
1.113000000000000000e+03 7.890883636474609375e+01 -8.214657783508300781e+00 1.918340218253433704e-03 6.833045482635498047e+00 2.050489187240600586e+00 3.002174198627471924e-01
1.114000000000000000e+03 7.963542175292968750e+01 -6.745027065277099609e+00 -1.210812988574616611e-04 6.932307243347167969e+00 2.079655885696411133e+00 1.130251437425613403e-01
1.115000000000000000e+03 7.890296936035156250e+01 -1.984758526086807251e-01 -2.475073188543319702e-02 8.157101631164550781e+00 2.439705133438110352e+00 1.093572154641151428e-01
1.116000000000000000e+03 7.963304901123046875e+01 4.719476699829101562e-01 -5.734075326472520828e-03 8.351402282714843750e+00 2.503700494766235352e+00 3.736546635627746582e-02
1.117000000000000000e+03 7.889212799072265625e+01 7.017572879791259766e+00 -1.327785290777683258e-02 7.937055587768554688e+00 2.377133369445800781e+00 -1.254354268312454224e-01
1.118000000000000000e+03 7.962924194335937500e+01 7.689169883728027344e+00 -2.267219824716448784e-03 8.054579734802246094e+00 2.415693759918212891e+00 -4.481054842472076416e-02
1.119000000000000000e+03 7.883197784423828125e+01 3.608251190185546875e+01 1.289141713641583920e-03 5.271723270416259766e+00 1.581903696060180664e+00 -1.175122149288654327e-02
1.120000000000000000e+03 7.956153106689453125e+01 4.037036132812500000e+01 1.020405208691954613e-03 5.241742134094238281e+00 1.572828769683837891e+00 8.011041791178286076e-05
1.121000000000000000e+03 7.781204223632812500e+01 3.940813064575195312e+01 3.833847353234887123e-03 5.243555545806884766e+00 1.574216842651367188e+00 -1.046879217028617859e-02
1.122000000000000000e+03 7.899693298339843750e+01 3.674401855468750000e+01 1.367277000099420547e-03 5.264629840850830078e+00 1.579799056053161621e+00 -9.778270497918128967e-03
1.123000000000000000e+03 7.789604949951171875e+01 3.649667739868164062e+01 4.427196457982063293e-03 5.265583515167236328e+00 1.581003189086914062e+00 -2.022119425237178802e-02
1.124000000000000000e+03 7.962795257568359375e+01 9.293863296508789062e+00 -1.629396225325763226e-03 7.824335575103759766e+00 2.346811771392822266e+00 -5.395067483186721802e-02
1.125000000000000000e+03 7.888805389404296875e+01 8.619928359985351562e+00 -9.334861300885677338e-03 7.737692356109619141e+00 2.318507194519042969e+00 -1.537633091211318970e-01
1.126000000000000000e+03 7.889303588867187500e+01 6.218396186828613281e+00 -1.546131633222103119e-02 8.021780014038085938e+00 2.401895761489868164e+00 -1.072498485445976257e-01
1.127000000000000000e+03 7.816628265380859375e+01 4.710361480712890625e+00 -4.598075523972511292e-02 7.964570522308349609e+00 2.375576972961425781e+00 -1.176217123866081238e-01
1.128000000000000000e+03 7.889877319335937500e+01 3.007007598876953125e+00 -2.267012931406497955e-02 8.227659225463867188e+00 2.461496591567993164e+00 -1.109096594154834747e-02
1.129000000000000000e+03 7.963189697265625000e+01 2.878508567810058594e+00 -4.242766648530960083e-03 8.429403305053710938e+00 2.527548074722290039e+00 4.043986089527606964e-03
1.130000000000000000e+03 7.890076446533203125e+01 1.401365876197814941e+00 -2.437748387455940247e-02 8.230167388916015625e+00 2.461737155914306641e+00 4.791999235749244690e-02
1.131000000000000000e+03 7.890200805664062500e+01 5.986191630363464355e-01 -2.371223270893096924e-02 8.203147888183593750e+00 2.453830718994140625e+00 7.833588868379592896e-02
1.132000000000000000e+03 7.890370941162109375e+01 -9.988672733306884766e-01 -2.303717657923698425e-02 8.091717720031738281e+00 2.420604228973388672e+00 1.395562291145324707e-01
1.133000000000000000e+03 7.818756866455078125e+01 -2.508242845535278320e+00 -5.226968973875045776e-02 7.901772022247314453e+00 2.354850769042968750e+00 2.768007516860961914e-01
1.134000000000000000e+03 7.890898895263671875e+01 -5.012751102447509766e+00 -1.428325101733207703e-02 7.501790523529052734e+00 2.246252298355102539e+00 2.659709453582763672e-01
1.135000000000000000e+03 7.963469696044921875e+01 -4.339118957519531250e+00 -4.362960346043109894e-03 7.571742057800292969e+00 2.270213603973388672e+00 9.780517965555191040e-02
1.136000000000000000e+03 7.890947723388671875e+01 -5.815537929534912109e+00 -9.375915862619876862e-03 7.342723369598388672e+00 2.200004100799560547e+00 2.812533080577850342e-01
1.137000000000000000e+03 7.819123077392578125e+01 -8.109861373901367188e+00 6.197868846356868744e-03 7.169765949249267578e+00 2.152789115905761719e+00 4.315716326236724854e-01
1.138000000000000000e+03 7.890953063964843750e+01 -7.413259506225585938e+00 -1.500266254879534245e-03 7.006088256835937500e+00 2.101376295089721680e+00 2.999660968780517578e-01
1.139000000000000000e+03 7.818502044677734375e+01 -1.212760829925537109e+01 8.888859301805496216e-02 6.694509506225585938e+00 2.035019397735595703e+00 2.394456416368484497e-01
1.140000000000000000e+03 7.890732574462890625e+01 -9.821085929870605469e+00 1.650101132690906525e-02 6.500505924224853516e+00 1.955102086067199707e+00 2.742975354194641113e-01
1.141000000000000000e+03 7.890888977050781250e+01 -1.222680282592773438e+01 3.906060010194778442e-02 6.118532180786132812e+00 1.847277760505676270e+00 1.677693873643875122e-01
1.142000000000000000e+03 7.890800476074218750e+01 -1.142553710937500000e+01 2.962105348706245422e-02 6.223250389099121094e+00 1.875861406326293945e+00 2.114822268486022949e-01
1.143000000000000000e+03 7.963539886474609375e+01 -1.155543899536132812e+01 6.935785990208387375e-03 5.625555038452148438e+00 1.689747333526611328e+00 7.923492789268493652e-02
1.144000000000000000e+03 7.890908813476562500e+01 -1.303024291992187500e+01 4.232174530625343323e-02 6.044224262237548828e+00 1.825963854789733887e+00 1.153893023729324341e-01
1.145000000000000000e+03 7.890870666503906250e+01 -1.383450317382812500e+01 4.748242348432540894e-02 6.004379272460937500e+00 1.815558552742004395e+00 5.818653851747512817e-02
1.146000000000000000e+03 7.890740966796875000e+01 -1.463437557220458984e+01 5.173122882843017578e-02 6.001538276672363281e+00 1.815980911254882812e+00 -4.888548981398344040e-03
1.147000000000000000e+03 7.889656066894531250e+01 -1.786469268798828125e+01 4.961965233087539673e-02 6.388123989105224609e+00 1.931323170661926270e+00 -2.608575224876403809e-01
1.148000000000000000e+03 7.889806365966796875e+01 -1.947467994689941406e+01 4.269359633326530457e-02 6.789506435394287109e+00 2.049659967422485352e+00 -3.685908615589141846e-01
1.149000000000000000e+03 7.889743804931640625e+01 -1.867004585266113281e+01 4.256848618388175964e-02 6.573554515838623047e+00 1.984836816787719727e+00 -3.165645301342010498e-01
1.150000000000000000e+03 7.963132476806640625e+01 -1.878025245666503906e+01 9.611244313418865204e-03 5.909941673278808594e+00 1.775865912437438965e+00 -1.191074773669242859e-01
1.151000000000000000e+03 7.889906311035156250e+01 -2.028063774108886719e+01 3.716735541820526123e-02 7.038076877593994141e+00 2.122573375701904297e+00 -4.167556166648864746e-01
1.152000000000000000e+03 7.890043640136718750e+01 -2.108368110656738281e+01 3.788865730166435242e-02 7.312187194824218750e+00 2.205022811889648438e+00 -4.620664715766906738e-01
1.153000000000000000e+03 7.890020751953125000e+01 -2.187988090515136719e+01 3.471941128373146057e-02 7.610398292541503906e+00 2.293535470962524414e+00 -5.036664009094238281e-01
1.154000000000000000e+03 7.745577239990234375e+01 -2.335970306396484375e+01 1.176875680685043335e-01 8.893505096435546875e+00 2.703357696533203125e+00 -1.089483737945556641e+00
1.155000000000000000e+03 7.888650512695312500e+01 -2.509489440917968750e+01 2.051900513470172882e-02 9.031039237976074219e+00 2.715467453002929688e+00 -6.397185325622558594e-01
1.156000000000000000e+03 7.962793731689453125e+01 -2.519954490661621094e+01 5.523313302546739578e-03 8.879008293151855469e+00 2.665359497070312500e+00 -2.466098517179489136e-01
1.157000000000000000e+03 7.886920928955078125e+01 -2.670382118225097656e+01 3.472518641501665115e-03 9.815811157226562500e+00 2.945785045623779297e+00 -6.676577925682067871e-01
1.158000000000000000e+03 7.887957763671875000e+01 -2.589757537841796875e+01 1.268367376178503036e-02 9.419452667236328125e+00 2.829641103744506836e+00 -6.577019691467285156e-01
1.159000000000000000e+03 7.804573059082031250e+01 -2.904528808593750000e+01 -6.810414046049118042e-02 1.073176574707031250e+01 3.199098587036132812e+00 -9.436410665512084961e-01
1.160000000000000000e+03 7.882930755615234375e+01 -2.911364936828613281e+01 -2.641144394874572754e-02 1.094576072692871094e+01 3.275804758071899414e+00 -6.307245492935180664e-01
1.161000000000000000e+03 7.718586730957031250e+01 -3.062687683105468750e+01 -1.959380656480789185e-01 1.095184898376464844e+01 3.226773500442504883e+00 -1.045363545417785645e+00
1.162000000000000000e+03 7.879535675048828125e+01 -3.230543136596679688e+01 -4.687537252902984619e-02 1.212466430664062500e+01 3.623336791992187500e+00 -4.525177478790283203e-01
1.163000000000000000e+03 7.959924316406250000e+01 -3.241461944580078125e+01 -1.974722184240818024e-02 1.267663478851318359e+01 3.797066211700439453e+00 -1.750986427068710327e-01
1.164000000000000000e+03 7.876737976074218750e+01 -3.387097167968750000e+01 -4.879173636436462402e-02 1.252246761322021484e+01 3.742102622985839844e+00 -3.253275752067565918e-01
1.165000000000000000e+03 7.878582000732421875e+01 -3.308924484252929688e+01 -6.518448889255523682e-02 1.234852600097656250e+01 3.685002565383911133e+00 -3.851496875286102295e-01
1.166000000000000000e+03 7.876435852050781250e+01 -3.543772125244140625e+01 -3.974728286266326904e-02 1.282421398162841797e+01 3.835340023040771484e+00 -2.147755324840545654e-01
1.167000000000000000e+03 7.843132019042968750e+01 -3.858383560180664062e+01 -1.557580567896366119e-02 1.279604625701904297e+01 3.834141254425048828e+00 -9.427465498447418213e-02
1.168000000000000000e+03 7.876531219482421875e+01 -3.700620269775390625e+01 -3.269326686859130859e-02 1.298888778686523438e+01 3.886858463287353516e+00 -1.347175538539886475e-01
1.169000000000000000e+03 7.757006072998046875e+01 -3.973938369750976562e+01 3.141340333968400955e-03 1.215729999542236328e+01 3.648132562637329102e+00 -6.615877151489257812e-02
1.170000000000000000e+03 7.843952941894531250e+01 -3.942843246459960938e+01 2.300238236784934998e-02 1.278777503967285156e+01 3.843233346939086914e+00 -1.048406884074211121e-01
1.171000000000000000e+03 7.949161529541015625e+01 -3.959480667114257812e+01 -1.345270872116088867e-02 1.383624267578125000e+01 4.146836757659912109e+00 -5.146408081054687500e-02
1.172000000000000000e+03 7.847853088378906250e+01 -4.021910476684570312e+01 -2.563727088272571564e-02 1.281783390045166016e+01 3.837658882141113281e+00 -1.065747961401939392e-01
1.173000000000000000e+03 7.852574920654296875e+01 -4.198404693603515625e+01 -3.506766259670257568e-02 1.322241497039794922e+01 3.956204175949096680e+00 -7.785272598266601562e-02
1.174000000000000000e+03 2.136727905273437500e+01 3.492853164672851562e+01 2.050729235634207726e-03 -1.155992038547992706e-03 2.684211940504610538e-04 4.014191683381795883e-03
1.175000000000000000e+03 1.963463592529296875e+01 3.320572280883789062e+01 1.891989610157907009e-03 1.502103637903928757e-03 1.018228009343147278e-03 8.098262478597462177e-04
1.176000000000000000e+03 2.157306909561157227e+00 3.594233703613281250e+01 2.218039480794686824e-05 2.738404728006571531e-04 8.880626410245895386e-05 -1.537046628072857857e-04
1.177000000000000000e+03 4.228591620922088623e-01 3.477576065063476562e+01 7.932419975986704230e-05 3.370882477611303329e-04 1.249237393494695425e-04 -4.698291741078719497e-05
1.178000000000000000e+03 3.686489462852478027e-01 2.755713081359863281e+01 -2.982750811497680843e-05 2.593670797068625689e-05 -1.167240043287165463e-06 2.436202294120448641e-06
1.179000000000000000e+03 1.893683552742004395e+00 2.970627021789550781e+01 3.661883238237351179e-05 6.128914537839591503e-05 2.937239514722023159e-05 -7.284482853719964623e-05
1.180000000000000000e+03 5.325960516929626465e-01 -3.809601593017578125e+01 1.586643420159816742e-02 1.698106288909912109e+00 5.141918063163757324e-01 -3.077139705419540405e-02
1.181000000000000000e+03 1.469394326210021973e+00 -3.719197082519531250e+01 7.573434151709079742e-03 1.478814005851745605e+00 4.459162354469299316e-01 -6.904517859220504761e-02
1.182000000000000000e+03 3.588402271270751953e-01 2.112644577026367188e+01 1.897932634165044874e-06 -1.611482912267092615e-05 -4.265068582753883675e-06 1.511278924226644449e-06
1.183000000000000000e+03 1.077417254447937012e+00 2.179376602172851562e+01 -5.954354378445714246e-07 -7.987770914041902870e-06 -2.574961854406865314e-06 4.546334366750670597e-06
1.184000000000000000e+03 1.087052106857299805e+00 2.500564384460449219e+01 -8.595231520303059369e-06 5.101619535707868636e-06 -1.048083731802762486e-06 1.045193357640528120e-06
1.185000000000000000e+03 1.091303467750549316e+00 2.580924606323242188e+01 1.675254497968126088e-05 5.218989826971665025e-06 6.591460532945347950e-06 -2.201218921982217580e-05
1.186000000000000000e+03 3.640379011631011963e-01 2.594808578491210938e+01 -1.865154808911029249e-05 1.293660375267791096e-06 -5.207366029935656115e-06 2.866969907699967735e-06
1.187000000000000000e+03 1.105153441429138184e+00 2.741833496093750000e+01 2.526380922063253820e-05 2.699315700738225132e-05 1.567708932270761579e-05 -3.408001430216245353e-05
1.188000000000000000e+03 1.114743709564208984e+00 2.822284317016601562e+01 -2.168964419979602098e-05 5.298087853589095175e-05 9.387370482727419585e-06 -1.077936849469551817e-05
1.189000000000000000e+03 1.124667525291442871e+00 2.902635192871093750e+01 3.489811206236481667e-05 5.897413575439713895e-05 2.816167398123070598e-05 -4.602169792633503675e-05
1.190000000000000000e+03 2.675762891769409180e+00 3.044062614440917969e+01 4.323038956499658525e-05 4.157775765634141862e-05 2.544244489399716258e-05 -9.220049832947552204e-05
1.191000000000000000e+03 1.156753182411193848e+00 3.222040176391601562e+01 4.318438732298091054e-05 1.727335475152358413e-04 6.477537681348621845e-05 -6.539864989463239908e-05
1.192000000000000000e+03 3.882518708705902100e-01 3.237376785278320312e+01 -5.059361865278333426e-05 1.962345995707437396e-04 4.369229645817540586e-05 -8.718426215637009591e-06
1.193000000000000000e+03 1.237639427185058594e+00 3.380838394165039062e+01 4.202132186037488282e-05 2.470960316713899374e-04 8.673521369928494096e-05 -8.993197116069495678e-05
1.194000000000000000e+03 1.196448206901550293e+00 3.301533126831054688e+01 -3.310252213850617409e-05 2.141973527614027262e-04 5.432845136965624988e-05 -4.840104156755842268e-05
1.195000000000000000e+03 1.293297648429870605e+00 3.538789367675781250e+01 5.564853199757635593e-05 3.239054058212786913e-04 1.138661755248904228e-04 -1.021149510052055120e-04
1.196000000000000000e+03 1.495970129966735840e+00 3.887174224853515625e+01 1.816966687329113483e-05 5.404596449807286263e-04 1.675888051977381110e-04 -6.324225978460162878e-05
1.197000000000000000e+03 1.587828516960144043e+00 3.703557586669921875e+01 6.173083966132253408e-05 3.245037223678082228e-04 1.158703744295053184e-04 -9.140326437773182988e-05
1.198000000000000000e+03 2.002607107162475586e+00 3.995325469970703125e+01 3.572058631107211113e-05 5.985709722153842449e-04 1.902874791994690895e-04 -1.099005457945168018e-04
1.199000000000000000e+03 1.283050894737243652e+00 3.965295028686523438e+01 -5.977285400149412453e-05 4.661626589950174093e-04 1.219169425894506276e-04 2.322921864106319845e-05
1.200000000000000000e+03 4.371196925640106201e-01 3.965760421752929688e+01 5.795299875899218023e-05 6.509865052066743374e-04 2.126818581018596888e-04 -6.619311898248270154e-05
1.201000000000000000e+03 1.278590202331542969e+00 4.034536361694335938e+01 -8.602614980190992355e-05 5.635039997287094593e-04 1.432433491572737694e-04 -1.065217875293456018e-04
1.202000000000000000e+03 1.402892589569091797e+00 4.200911712646484375e+01 3.478799771983176470e-05 5.513942451216280460e-04 1.758546713972464204e-04 1.617515517864376307e-04
1.203000000000000000e+03 1.782696366310119629e+00 -7.668692588806152344e+00 -2.479878067970275879e-02 -3.810615241527557373e-01 -1.217580959200859070e-01 -2.148758918046951294e-01
1.204000000000000000e+03 1.063300967216491699e+00 -1.560321235656738281e+01 2.890419401228427887e-02 -1.538958311080932617e+00 -4.530162215232849121e-01 -1.383811086416244507e-01
1.205000000000000000e+03 3.587555587291717529e-01 -2.277581214904785156e+01 5.154168698936700821e-03 -9.814640879631042480e-01 -2.928929626941680908e-01 1.658774763345718384e-01
1.206000000000000000e+03 5.699846267700195312e+00 -2.705075454711914062e+01 -7.341227531433105469e-01 1.662269681692123413e-01 -1.703687310218811035e-01 7.323641180992126465e-01
1.207000000000000000e+03 1.277123451232910156e+00 -3.569172286987304688e+01 4.763220495078712702e-04 1.607446432113647461e+00 4.823768436908721924e-01 -6.239088997244834900e-02
1.208000000000000000e+03 3.582254350185394287e-01 1.951762390136718750e+01 5.798035090265329927e-06 -1.369054461974883452e-05 -2.367752813370316289e-06 4.966079814039403573e-07
1.209000000000000000e+03 3.562493324279785156e-01 1.388986778259277344e+01 -5.318354396877111867e-06 -5.665676781063666567e-06 -3.295209353382233530e-06 2.424516424071043730e-06
1.210000000000000000e+03 1.068802595138549805e+00 1.455617523193359375e+01 -1.517336613687803037e-06 -6.605795988434692845e-06 -2.436939666949911043e-06 4.050496499985456467e-06
1.211000000000000000e+03 1.052057385444641113e+00 7.339058876037597656e+00 -4.081004135514376685e-06 1.119908930036217498e-07 -1.190703983411367517e-06 -7.914057675861840835e-08
1.212000000000000000e+03 3.491655588150024414e-01 7.464802265167236328e+00 2.712207788135856390e-06 -7.337739020840672310e-07 5.935301601311948616e-07 -2.740641491527640028e-08
1.213000000000000000e+03 1.508952856063842773e+00 -3.912363052368164062e+01 1.600223407149314880e-02 1.425757050514221191e+00 4.325277805328369141e-01 -7.147309184074401855e-02
1.214000000000000000e+03 1.675493121147155762e+00 -3.807743072509765625e+01 1.559304189868271351e-03 1.428127646446228027e+00 4.289060831069946289e-01 -7.138896733522415161e-02
1.215000000000000000e+03 1.167037606239318848e+00 -3.241450500488281250e+01 -2.564949542284011841e-02 1.703835487365722656e+00 5.034558176994323730e-01 -6.520116236060857773e-03
1.216000000000000000e+03 6.404419422149658203e+00 -2.833067321777343750e+01 -8.410896062850952148e-01 -3.161926865577697754e-01 -3.471846878528594971e-01 5.912542939186096191e-01
1.217000000000000000e+03 3.816628456115722656e-01 -3.082723617553710938e+01 -1.297731697559356689e-02 1.996529102325439453e+00 5.950655341148376465e-01 2.872622013092041016e-02
1.218000000000000000e+03 1.129401564598083496e+00 -3.079488945007324219e+01 -4.202033951878547668e-02 1.659001231193542480e+00 4.850942790508270264e-01 8.155667781829833984e-02
1.219000000000000000e+03 1.124381303787231445e+00 -2.998084449768066406e+01 -5.964443832635879517e-02 1.584514737129211426e+00 4.574610888957977295e-01 1.447936743497848511e-01
1.220000000000000000e+03 5.650526046752929688e+00 -2.799035835266113281e+01 -7.957020401954650879e-01 1.198558807373046875e-01 -2.027538418769836426e-01 5.872702002525329590e-01
1.221000000000000000e+03 1.723796725273132324e+00 -2.573201370239257812e+01 -6.971287727355957031e-02 5.632688999176025391e-01 1.480668038129806519e-01 7.027610540390014648e-01
1.222000000000000000e+03 1.168866634368896484e+00 -2.746647834777832031e+01 -5.715911090373992920e-02 1.089867115020751953e+00 3.098123967647552490e-01 3.886188864707946777e-01
1.223000000000000000e+03 5.426064491271972656e+00 -2.439006614685058594e+01 1.338966377079486847e-02 1.165669560432434082e+00 3.537177741527557373e-01 6.837456822395324707e-01
1.224000000000000000e+03 1.034247279167175293e+00 -2.507702827453613281e+01 -1.573366671800613403e-02 2.817857265472412109e-01 7.981561869382858276e-02 5.012082457542419434e-01
1.225000000000000000e+03 3.548324108123779297e-01 -2.357522392272949219e+01 8.110925555229187012e-03 -5.885775089263916016e-01 -1.741399765014648438e-01 1.807028353214263916e-01
1.226000000000000000e+03 5.405324935913085938e+00 -2.261318397521972656e+01 3.616814613342285156e-01 1.772475004196166992e+00 6.402469277381896973e-01 8.225379586219787598e-01
1.227000000000000000e+03 6.473834514617919922e+00 -1.922365951538085938e+01 8.866111636161804199e-01 2.602862119674682617e+00 1.046841979026794434e+00 1.205103516578674316e+00
1.228000000000000000e+03 2.324306011199951172e+00 -1.966791343688964844e+01 2.365460842847824097e-01 -5.414048433303833008e-01 -9.145762026309967041e-02 3.831770718097686768e-01
1.229000000000000000e+03 1.035662174224853516e+00 -1.881292343139648438e+01 5.680751428008079529e-02 -1.577716112136840820e+00 -4.562725722789764404e-01 9.154786169528961182e-02
1.230000000000000000e+03 2.477633953094482422e+00 -1.405370521545410156e+01 6.361403316259384155e-02 -6.405779719352722168e-01 -1.730891913175582886e-01 -3.086380064487457275e-01
1.231000000000000000e+03 1.044493436813354492e+00 -1.802725410461425781e+01 4.420113936066627502e-02 -1.626353621482849121e+00 -4.746457338333129883e-01 3.465965017676353455e-02
1.232000000000000000e+03 1.773404240608215332e+00 -1.483097553253173828e+01 5.111479386687278748e-02 -1.053363442420959473e+00 -3.006745874881744385e-01 -2.314961999654769897e-01
1.233000000000000000e+03 1.072445511817932129e+00 -1.399109554290771484e+01 1.505468320101499557e-02 -1.351136445999145508e+00 -4.008245170116424561e-01 -1.892312020063400269e-01
1.234000000000000000e+03 1.052883505821228027e+00 -1.159221839904785156e+01 -6.512077059596776962e-03 -1.005214214324951172e+00 -3.035179078578948975e-01 -1.963697373867034912e-01
1.235000000000000000e+03 1.063908576965332031e+00 -1.238685607910156250e+01 1.085093244910240173e-03 -1.121173024177551270e+00 -3.360264003276824951e-01 -2.004906237125396729e-01
1.236000000000000000e+03 3.506377339363098145e-01 -9.957785606384277344e+00 -7.034984300844371319e-04 -9.224131703376770020e-01 -2.769349813461303711e-01 -6.339093297719955444e-02
1.237000000000000000e+03 1.051770567893981934e+00 -9.202567100524902344e+00 -8.172273635864257812e-03 -6.626449227333068848e-01 -2.012451589107513428e-01 -1.654093712568283081e-01
1.238000000000000000e+03 1.044879913330078125e+00 -1.000069141387939453e+01 -1.007496379315853119e-02 -7.733088731765747070e-01 -2.350151389837265015e-01 -1.768474727869033813e-01
1.239000000000000000e+03 1.063200354576110840e+00 -8.398200988769531250e+00 -1.078310795128345490e-02 -5.581722855567932129e-01 -1.706866174936294556e-01 -1.535367220640182495e-01
1.240000000000000000e+03 1.877340197563171387e+00 -6.024547100067138672e+00 -2.798379957675933838e-02 -2.460090368986129761e-01 -8.219785243272781372e-02 -1.810232102870941162e-01
1.241000000000000000e+03 2.836111307144165039e+00 -2.695446491241455078e+00 -7.178512215614318848e-02 -5.019453912973403931e-02 -3.659389913082122803e-02 -1.183398514986038208e-01
1.242000000000000000e+03 2.863959550857543945e+00 -1.892629623413085938e+00 -7.725506275892257690e-02 -2.870122902095317841e-02 -3.178688883781433105e-02 -8.742001652717590332e-02
1.243000000000000000e+03 2.631956338882446289e+00 -6.130342483520507812e+00 -4.672044888138771057e-02 -1.885359585285186768e-01 -7.057692110538482666e-02 -2.276397049427032471e-01
1.244000000000000000e+03 1.227683782577514648e+00 -1.896951317787170410e+00 -2.014446631073951721e-02 -3.754752874374389648e-02 -1.730759814381599426e-02 -3.835417702794075012e-02
1.245000000000000000e+03 1.214759230613708496e+00 -2.697197198867797852e+00 -1.746975071728229523e-02 -6.873621791601181030e-02 -2.586179040372371674e-02 -5.870891734957695007e-02
1.246000000000000000e+03 3.490190207958221436e-01 5.072072982788085938e+00 -2.644435880938544869e-06 -2.095037672233956982e-07 -8.561818845009838697e-07 2.604408280149073107e-07
1.247000000000000000e+03 1.763200998306274414e+00 7.222417354583740234e+00 5.446962404676014557e-06 -1.677380396358785219e-06 1.130874579757801257e-06 7.403339736811176408e-07
1.248000000000000000e+03 1.051119804382324219e+00 5.764623165130615234e+00 -3.582230647225514986e-06 -1.060797885088504700e-07 -1.106493186853185762e-06 1.685809252194303554e-07
1.249000000000000000e+03 1.065416932106018066e+00 1.053616809844970703e+01 -3.196502120772493072e-06 1.027257070518317050e-07 -9.281329198529419955e-07 -1.234729552379576489e-06
1.250000000000000000e+03 1.063223600387573242e+00 9.732082366943359375e+00 3.533798462740378454e-06 -2.720701331782038324e-06 2.439291222344763810e-07 1.842573510657530278e-06
1.251000000000000000e+03 1.067638635635375977e+00 1.294741439819335938e+01 4.883499968855176121e-07 -5.150878678250592202e-06 -1.398758627146889921e-06 3.727286639332305640e-06
1.252000000000000000e+03 1.067094922065734863e+00 1.214318084716796875e+01 -1.677803425081947353e-06 -5.405309480011055712e-07 -6.655002948718902189e-07 -1.670053961788653396e-06
1.253000000000000000e+03 3.558096885681152344e-01 1.228141021728515625e+01 -2.548315478634322062e-06 -3.836790256173117086e-06 -1.915531811391701922e-06 1.817866746023355518e-06
1.254000000000000000e+03 2.497898817062377930e+00 1.672730636596679688e+01 -5.563328159041702747e-06 -9.163561571767786518e-07 -1.943905317602911964e-06 4.219485276735213120e-07
1.255000000000000000e+03 1.071738958358764648e+00 1.696619033813476562e+01 3.386273874639300629e-06 -5.777988917543552816e-06 -7.175145810833782889e-07 7.895704925431346055e-07
1.256000000000000000e+03 1.072529673576354980e+00 1.777200698852539062e+01 -3.639140459199552424e-06 -9.985576070903334767e-06 -4.087414708919823170e-06 1.938429932124563493e-06
1.257000000000000000e+03 1.073137640953063965e+00 1.857688522338867188e+01 3.315549520266358741e-06 -7.556657692475710064e-06 -1.272332497137540486e-06 2.786075583571800962e-06
1.258000000000000000e+03 1.074261546134948730e+00 1.938200950622558594e+01 -2.417325049464125186e-06 -1.221413094754097983e-05 -4.389436981000471860e-06 -1.313745769948582165e-07
1.259000000000000000e+03 1.078764796257019043e+00 2.259456443786621094e+01 4.340575742389773950e-06 -1.274714941246202216e-05 -2.521972191971144639e-06 -6.965362445043865591e-06
1.260000000000000000e+03 1.025811553001403809e+00 -1.959189414978027344e+01 5.746094882488250732e-02 -1.486122250556945801e+00 -4.285984039306640625e-01 1.734282970428466797e-01
1.261000000000000000e+03 2.046190834045410156e+01 3.589373016357421875e+01 3.289269981905817986e-03 -8.980463026091456413e-04 7.173670455813407898e-04 -9.146562078967690468e-04
1.262000000000000000e+03 2.536717605590820312e+01 3.663545227050781250e+01 -9.883782826364040375e-03 1.693656231509521604e-04 -2.914325101301074028e-03 9.990623220801353455e-04
1.263000000000000000e+03 2.308101463317871094e+01 3.757952117919921875e+01 5.962708499282598495e-03 -1.092305313795804977e-02 -1.488103531301021576e-03 6.544332951307296753e-03
1.264000000000000000e+03 1.499289417266845703e+01 2.520062255859375000e+01 3.629021812230348587e-04 -4.911173891741782427e-05 9.413713269168511033e-05 -6.797723131057864521e-07
1.265000000000000000e+03 2.100996589660644531e+01 1.087157726287841797e+00 6.682520961476257071e-06 4.297339728509541601e-06 3.293958116046269424e-06 3.690264975375612266e-06
1.266000000000000000e+03 2.609957885742187500e+01 3.676759719848632812e+01 -3.012441657483577728e-02 -6.694671232253313065e-03 -1.104572601616382599e-02 9.995931759476661682e-03
1.267000000000000000e+03 2.448920249938964844e+01 3.794330978393554688e+01 -8.923529647290706635e-03 1.027022139169275761e-03 -2.368952380493283272e-03 2.165275439620018005e-02
1.268000000000000000e+03 1.607677650451660156e+01 2.668606758117675781e+01 -4.361753817647695541e-04 2.714437505346722901e-05 -1.227093016495928168e-04 2.162752789445221424e-04
1.269000000000000000e+03 1.511698722839355469e+01 2.605878257751464844e+01 -2.956896205432713032e-04 8.630724914837628603e-05 -6.281471723923459649e-05 1.676401589065790176e-04
1.270000000000000000e+03 1.554448699951171875e+01 1.858800506591796875e+01 -1.958402135642245412e-04 -1.567857725603971630e-05 -6.345563451759517193e-05 -7.824771273590158671e-06
1.271000000000000000e+03 1.487958908081054688e+01 1.768983840942382812e+01 -1.505548425484448671e-04 1.059316218743333593e-05 -4.198850729153491557e-05 -1.866220918600447476e-05
1.272000000000000000e+03 1.821333885192871094e+01 3.115382194519042969e+01 -3.510419628582894802e-05 3.592125140130519867e-04 9.723249240778386593e-05 8.839981164783239365e-04
1.273000000000000000e+03 1.714159584045410156e+01 3.299326324462890625e+01 1.546334358863532543e-03 -1.820138422772288322e-04 4.092961316928267479e-04 -1.786579814506694674e-04
1.274000000000000000e+03 1.664913749694824219e+01 3.011108589172363281e+01 8.533618529327213764e-04 2.817164349835366011e-04 3.405234892852604389e-04 9.004858293337747455e-05
1.275000000000000000e+03 1.477666187286376953e+01 1.856306076049804688e+01 1.664759183768182993e-04 3.223745352443074808e-06 5.090989725431427360e-05 6.566031970578478649e-06
1.276000000000000000e+03 2.004005432128906250e+01 3.502951812744140625e+01 7.242895080707967281e-04 1.334317494183778763e-03 6.175821181386709213e-04 5.434839986264705658e-04
1.277000000000000000e+03 1.790868186950683594e+01 3.244384384155273438e+01 5.388926365412771702e-04 2.535152816562913358e-05 1.692732475930824876e-04 1.103917369619011879e-03
1.278000000000000000e+03 2.908267402648925781e+01 3.790831375122070312e+01 -1.141349971294403076e-01 -2.939550951123237610e-02 -4.305915161967277527e-02 8.995418995618820190e-02
1.279000000000000000e+03 2.020947265625000000e+01 3.997093915939331055e+00 -1.818410419218707830e-05 -8.447344953310675919e-06 -7.989434379851445556e-06 -1.307272941630799323e-05
1.280000000000000000e+03 1.962355422973632812e+01 6.281763553619384766e+00 -4.051733048981986940e-05 -7.994806765054818243e-06 -1.455364144931081682e-05 -1.738166974973864853e-05
1.281000000000000000e+03 1.547204875946044922e+01 2.104065132141113281e+01 3.011496446561068296e-04 -2.327410402358509600e-05 8.336266910191625357e-05 2.549206328694708645e-06
1.282000000000000000e+03 1.476274108886718750e+01 1.942825698852539062e+01 -1.956804335350170732e-04 -2.599075924081262201e-05 -6.650135765084996819e-05 -2.932561983470804989e-05
1.283000000000000000e+03 1.636789894104003906e+01 2.745603370666503906e+01 5.286318482831120491e-04 1.955450716195628047e-04 2.172530657844617963e-04 -8.156793774105608463e-05
1.284000000000000000e+03 1.799251747131347656e+01 8.188048362731933594e+00 -3.734096389962360263e-05 -1.368395714962389320e-05 -1.530747613287530839e-05 -2.102137841575313359e-05
1.285000000000000000e+03 1.833498954772949219e+01 7.452164649963378906e+00 3.454361285548657179e-05 1.188853093481156975e-05 1.392964350088732317e-05 1.919779424497392029e-05
1.286000000000000000e+03 1.532635879516601562e+01 2.690191841125488281e+01 4.324318142607808113e-04 1.222281425725668669e-04 1.663979928707703948e-04 -3.892019230988807976e-05
1.287000000000000000e+03 1.715623855590820312e+01 1.224670219421386719e+01 -8.511326450388878584e-05 -1.571805296407546848e-05 -3.024939542228821665e-05 -3.486070272629149258e-05
1.288000000000000000e+03 1.707293319702148438e+01 1.045764446258544922e+01 4.874168371316045523e-05 1.624987635295838118e-05 1.949746729223988950e-05 2.877456790884025395e-05
1.289000000000000000e+03 1.479540061950683594e+01 2.109819602966308594e+01 -2.651187242008745670e-04 -1.538511969556566328e-05 -8.415115735260769725e-05 -3.464296969468705356e-05
1.290000000000000000e+03 1.918796157836914062e+01 1.554646372795104980e+00 -3.711005547302193008e-06 -8.493178938806522638e-06 -3.661255277620512061e-06 -4.460244781512301415e-06
1.291000000000000000e+03 1.578022480010986328e+01 1.437397861480712891e+01 -8.432403410552069545e-05 -2.541252615628764033e-05 -3.292096880613826215e-05 -4.777792491950094700e-05
1.292000000000000000e+03 2.058690643310546875e+01 3.292692422866821289e+00 1.514258838142268360e-05 7.009916316746966913e-06 6.645751454925630242e-06 1.085438816517125815e-05
1.293000000000000000e+03 1.628059005737304688e+01 2.932517814636230469e+01 -1.575409260112792253e-04 9.872490045381709933e-05 -1.764480657584499568e-05 4.208356258459389210e-04
1.294000000000000000e+03 1.561809253692626953e+01 2.771965789794921875e+01 -2.721844066400080919e-04 2.190170198446139693e-05 -7.508481212425976992e-05 2.389417059021070600e-04
1.295000000000000000e+03 1.601726150512695312e+01 1.358639144897460938e+01 7.621309487149119377e-05 2.057788879028521478e-05 2.903729364334139973e-05 4.354762859293259680e-05
1.296000000000000000e+03 1.651987838745117188e+01 1.200774860382080078e+01 6.074393240851350129e-05 1.790934220480266958e-05 2.359598329348955303e-05 3.560588083928450942e-05
1.297000000000000000e+03 1.906326103210449219e+01 6.049554824829101562e+00 2.868807860068045557e-05 1.053345476975664496e-05 1.176646037492901087e-05 1.736883496050722897e-05
1.298000000000000000e+03 1.708472442626953125e+01 1.588562011718750000e+00 3.242714910811628215e-06 1.080350739357527345e-05 4.213866759528173134e-06 4.949952199240215123e-07
1.299000000000000000e+03 1.674217987060546875e+01 9.406469345092773438e+00 3.049565566470846534e-05 1.855280243034940213e-05 1.471453742851736024e-05 2.256968036817852408e-05
1.300000000000000000e+03 1.746571350097656250e+01 3.165306663513183594e+01 1.189925242215394974e-03 3.771973424591124058e-04 4.701367579400539398e-04 1.239467965206131339e-04
1.301000000000000000e+03 1.477854919433593750e+01 2.027536010742187500e+01 2.359094505663961172e-04 -9.686412340670358390e-06 6.786690937587991357e-05 3.096582440775819123e-05
1.302000000000000000e+03 1.486326885223388672e+01 2.352898216247558594e+01 3.167011309415102005e-04 -1.359956695523578674e-05 9.093047265196219087e-05 2.085316373268142343e-05
1.303000000000000000e+03 1.483130550384521484e+01 2.271553230285644531e+01 -3.002522862516343594e-04 -7.377645943051902577e-06 -9.228898125002160668e-05 -2.178582690248731524e-05
1.304000000000000000e+03 1.841078758239746094e+01 3.321682739257812500e+01 1.545405713841319084e-03 9.082846227101981640e-04 7.361071184277534485e-04 2.855562488548457623e-04
1.305000000000000000e+03 2.275487709045410156e+01 -3.036931514739990234e+00 -2.282823435962200165e-02 -3.626534715294837952e-02 -1.772807352244853973e-02 -2.256280183792114258e-02
1.306000000000000000e+03 2.184381103515625000e+01 -2.508448362350463867e+00 -5.496731773018836975e-02 -1.825795136392116547e-02 -2.196758054196834564e-02 1.251836214214563370e-02
1.307000000000000000e+03 2.189819717407226562e+01 -3.184522151947021484e+00 -8.818170055747032166e-03 -4.886075109243392944e-02 -1.730367541313171387e-02 1.379003282636404037e-02
1.308000000000000000e+03 1.853217315673828125e+01 -3.448363065719604492e+00 -7.439695298671722412e-02 -3.914519399404525757e-02 -3.406264260411262512e-02 1.243018209934234619e-01
1.309000000000000000e+03 1.937156677246093750e+01 -3.427992343902587891e+00 -4.682029411196708679e-02 -4.228717461228370667e-02 -2.673223987221717834e-02 1.075870171189308167e-01
1.310000000000000000e+03 7.768341541290283203e+00 -1.859976768493652344e+00 -2.873029112815856934e-01 2.948511578142642975e-02 -7.734534144401550293e-02 -7.275459915399551392e-02
1.311000000000000000e+03 9.249144554138183594e+00 -2.613256454467773438e+00 -2.957266271114349365e-01 6.786513328552246094e-02 -6.835844367742538452e-02 -4.999643191695213318e-02
1.312000000000000000e+03 6.864307403564453125e+00 -2.567620038986206055e+00 -2.318646609783172607e-01 3.636585548520088196e-02 -5.864964053034782410e-02 -1.200052797794342041e-01
1.313000000000000000e+03 7.668875694274902344e+00 -2.578386068344116211e+00 -2.578110992908477783e-01 4.970351234078407288e-02 -6.243227794766426086e-02 -9.870205074548721313e-02
1.314000000000000000e+03 8.469423294067382812e+00 -2.591650962829589844e+00 -2.788567543029785156e-01 5.906233191490173340e-02 -6.593833118677139282e-02 -7.547840476036071777e-02
1.315000000000000000e+03 6.131011486053466797e+00 -1.860391378402709961e+00 -2.244836539030075073e-01 1.242907717823982239e-02 -6.361637264490127563e-02 -1.069226115942001343e-01
1.316000000000000000e+03 6.060452461242675781e+00 -2.577046871185302734e+00 -2.030292749404907227e-01 2.247028052806854248e-02 -5.416769906878471375e-02 -1.373346745967864990e-01
1.317000000000000000e+03 5.256190776824951172e+00 -2.614903211593627930e+00 -1.694353520870208740e-01 3.562820376828312874e-03 -4.976175725460052490e-02 -1.465764641761779785e-01
1.318000000000000000e+03 4.451009750366210938e+00 -2.658838748931884766e+00 -1.365557163953781128e-01 -1.402905769646167755e-02 -4.517543315887451172e-02 -1.455298960208892822e-01
1.319000000000000000e+03 2.046147823333740234e+00 -1.894794344902038574e+00 -4.519975557923316956e-02 -3.644206002354621887e-02 -2.449254505336284637e-02 -6.433252990245819092e-02
1.320000000000000000e+03 1.182737708091735840e+00 -4.323173999786376953e+00 -1.291242986917495728e-02 -1.599584519863128662e-01 -5.186126381158828735e-02 -9.355881810188293457e-02
1.321000000000000000e+03 1.201441764831542969e+00 -3.507374763488769531e+00 -1.616061106324195862e-02 -1.092890352010726929e-01 -3.763489425182342529e-02 -7.732369005680084229e-02
1.322000000000000000e+03 2.362596511840820312e+01 -3.642615318298339844e+00 2.199135906994342804e-02 -7.721902430057525635e-02 -1.656829938292503357e-02 -8.736295253038406372e-02
1.323000000000000000e+03 2.440460777282714844e+01 -2.741513729095458984e+00 -1.189172118902206421e-01 -1.831759512424468994e-02 -4.117044061422348022e-02 -1.006816104054450989e-01
1.324000000000000000e+03 2.015813827514648438e+01 9.824131131172180176e-01 -4.584907401294913143e-06 -5.801108272862620652e-06 -3.115804702247260138e-06 -4.029361662105657160e-06
1.325000000000000000e+03 3.941500854492187500e+01 5.394664764404296875e+00 1.885005235671997070e+00 1.221028327941894531e+01 4.228586673736572266e+00 4.479314804077148438e+00
1.326000000000000000e+03 3.765875101089477539e+00 -4.166082000732421875e+01 6.061235815286636353e-02 9.553270339965820312e-01 3.047818243503570557e-01 -2.468371996656060219e-03
1.327000000000000000e+03 5.285197067260742188e+01 7.420955896377563477e-01 -4.076895236968994141e+00 3.080829381942749023e-01 -1.130643725395202637e+00 6.175013184547424316e-01
1.328000000000000000e+03 1.572900581359863281e+01 2.427634239196777344e+00 -7.938889211800415069e-06 -1.096725736715598032e-05 -5.671844064636388794e-06 3.552559633135388140e-07
1.329000000000000000e+03 1.640588378906250000e+01 1.646103739738464355e+00 -4.761801392305642366e-06 -1.043866541294846684e-05 -4.560140041576232761e-06 1.928805914985787240e-07
1.330000000000000000e+03 9.900148391723632812e+00 -3.365929603576660156e+00 -2.651110887527465820e-01 9.367811679840087891e-02 -5.142989009618759155e-02 -3.700785338878631592e-02
1.331000000000000000e+03 1.854599475860595703e+00 -2.913891792297363281e+01 -1.471618264913558960e-01 1.242513179779052734e+00 3.286053836345672607e-01 3.163507282733917236e-01
1.332000000000000000e+03 5.468113899230957031e+00 -2.878273200988769531e+01 -7.377399802207946777e-01 1.761221587657928467e-01 -1.684853434562683105e-01 5.179334878921508789e-01
1.333000000000000000e+03 5.150518417358398438e+01 1.199618816375732422e+00 -4.495037078857421875e+00 3.044566810131072998e-01 -1.257174015045166016e+00 5.651835203170776367e-01
1.334000000000000000e+03 5.355677795410156250e+01 5.766052603721618652e-01 -3.887816190719604492e+00 2.387775182723999023e-01 -1.094711542129516602e+00 5.723931193351745605e-01
1.335000000000000000e+03 5.427249145507812500e+01 4.392181336879730225e-01 -3.788943767547607422e+00 1.386154592037200928e-01 -1.095098495483398438e+00 4.607734978199005127e-01
1.336000000000000000e+03 1.846055412292480469e+01 1.534765839576721191e+00 3.283787236796342768e-06 1.009388415695866570e-05 4.013301349914399907e-06 3.359116817591711879e-06
1.337000000000000000e+03 1.914865112304687500e+01 3.667549133300781250e+00 -5.113490715302759781e-06 -1.432084172847680748e-05 -5.830299869558075443e-06 -1.058979887602617964e-05
1.338000000000000000e+03 1.994983291625976562e+01 1.625038743019104004e+00 5.279172910377383232e-06 7.049201940390048549e-06 3.698512500704964623e-06 5.237028290139278397e-06
1.339000000000000000e+03 2.036468696594238281e+01 2.429753541946411133e+00 8.627990609966218472e-06 7.514080152759561315e-06 4.842621365241939202e-06 8.252734005509410053e-06
1.340000000000000000e+03 1.961204147338867188e+01 -1.711062431335449219e+01 2.130777090787887573e-01 -6.066416203975677490e-02 4.572406411170959473e-02 8.650641888380050659e-02
1.341000000000000000e+03 1.906718444824218750e+01 3.644815063476562500e+01 2.779546659439802170e-03 1.245972351171076298e-03 1.207655761390924454e-03 -7.318298448808491230e-04
1.342000000000000000e+03 1.135806560516357422e+01 -3.497225522994995117e+00 -2.565338313579559326e-01 8.263019472360610962e-02 -5.217109620571136475e-02 1.851312443614006042e-02
1.343000000000000000e+03 9.157714843750000000e+00 -3.331658124923706055e+00 -2.602766752243041992e-01 9.202969819307327271e-02 -5.047409608960151672e-02 -6.590957939624786377e-02
1.344000000000000000e+03 1.359038066864013672e+01 2.696424961090087891e+00 4.605554295267211273e-06 1.040862571244360879e-05 4.504253865889040753e-06 -4.538923690233787056e-07
1.345000000000000000e+03 1.206285095214843750e+01 2.207598447799682617e+00 -4.360816546977730468e-06 -7.035098406049655750e-06 -3.418774440433480777e-06 4.008939811228628969e-07
1.346000000000000000e+03 2.984087944030761719e+01 -1.710744094848632812e+01 -2.484446763992309570e+00 -1.317920535802841187e-01 -7.848716378211975098e-01 9.450625777244567871e-01
1.347000000000000000e+03 2.445969390869140625e+01 -1.742968750000000000e+01 -3.254723250865936279e-01 2.535050967708230019e-03 -9.688118100166320801e-02 2.476451843976974487e-01
1.348000000000000000e+03 2.171676254272460938e+01 -1.744469451904296875e+01 2.221912145614624023e-02 -3.562599793076515198e-02 -4.022062756121158600e-03 1.475476920604705811e-01
1.349000000000000000e+03 4.192760086059570312e+01 1.575096607208251953e+01 4.295335710048675537e-01 9.340178489685058594e+00 2.930913448333740234e+00 1.457272171974182129e+00
1.350000000000000000e+03 4.267150115966796875e+01 1.651254844665527344e+01 5.884293317794799805e-01 8.284123420715332031e+00 2.661765813827514648e+00 1.406731486320495605e+00
1.351000000000000000e+03 1.600405883789062500e+01 -1.582637119293212891e+01 7.189771533012390137e-01 -5.147580057382583618e-02 2.002504169940948486e-01 8.176489919424057007e-02
1.352000000000000000e+03 4.034973907470703125e+01 -1.325124359130859375e+01 4.687819480895996094e-01 1.192043209075927734e+01 3.716764450073242188e+00 -7.613263130187988281e-01
1.353000000000000000e+03 4.100854873657226562e+01 7.478817462921142578e+00 2.050988674163818359e+00 1.129892539978027344e+01 4.004974365234375000e+00 3.969953298568725586e+00
1.354000000000000000e+03 1.820200729370117188e+01 -1.668415451049804688e+01 3.631081283092498779e-01 -7.610405236482620239e-02 8.610122650861740112e-02 5.541175976395606995e-02
1.355000000000000000e+03 1.801119804382324219e+01 -1.739608192443847656e+01 2.883428633213043213e-01 -3.442082554101943970e-02 7.617661356925964355e-02 1.681441091932356358e-03
1.356000000000000000e+03 2.311821365356445312e+01 -1.682571411132812500e+01 -7.982358336448669434e-02 -2.981129474937915802e-02 -3.289046138525009155e-02 2.552311122417449951e-01
1.357000000000000000e+03 2.583660507202148438e+01 -3.334037017822265625e+01 -4.088956117630004883e-01 2.481178343296051025e-01 -4.823333024978637695e-02 2.150127589702606201e-01
1.358000000000000000e+03 2.428680038452148438e+01 -1.677204895019531250e+01 -2.048299908638000488e-01 -1.829470135271549225e-02 -6.693740934133529663e-02 3.362765908241271973e-01
1.359000000000000000e+03 2.312742805480957031e+01 -1.821870231628417969e+01 -1.515045464038848877e-01 1.009384449571371078e-02 -4.242321103811264038e-02 9.633260965347290039e-02
1.360000000000000000e+03 4.119972991943359375e+01 1.089686775207519531e+01 1.065489768981933594e+00 1.156872177124023438e+01 3.790263652801513672e+00 3.161754131317138672e+00
1.361000000000000000e+03 2.019911956787109375e+01 -1.799829673767089844e+01 9.903547167778015137e-02 -2.662781439721584320e-02 2.172229811549186707e-02 5.143953487277030945e-02
1.362000000000000000e+03 4.022288513183593750e+01 -1.159860801696777344e+01 4.857763051986694336e-01 1.233844661712646484e+01 3.847266912460327148e+00 -2.384507358074188232e-01
1.363000000000000000e+03 4.253326416015625000e+01 3.100911712646484375e+01 4.322578310966491699e-01 4.888773441314697266e+00 1.596309423446655273e+00 -4.292217493057250977e-01
1.364000000000000000e+03 4.278108215332031250e+01 3.005743980407714844e+01 5.646101832389831543e-01 5.243973731994628906e+00 1.742575168609619141e+00 -3.782619535923004150e-01
1.365000000000000000e+03 2.206196975708007812e+01 -3.283938980102539062e+01 -7.442123293876647949e-01 -3.470619767904281616e-02 -2.336755543947219849e-01 -3.168897703289985657e-02
1.366000000000000000e+03 5.378951263427734375e+01 -3.197209167480468750e+01 -1.146132588386535645e+00 9.034102410078048706e-02 -3.167374730110168457e-01 1.879493147134780884e-01
1.367000000000000000e+03 5.388916015625000000e+01 -3.075567817687988281e+01 -8.278827071189880371e-01 -1.757835894823074341e-01 -3.010998964309692383e-01 4.185643494129180908e-01
1.368000000000000000e+03 1.439703464508056641e+01 -3.853910207748413086e+00 -1.744351536035537720e-01 2.522199414670467377e-02 -4.476394876837730408e-02 1.255769729614257812e-01
1.369000000000000000e+03 1.285889530181884766e+01 -3.673756122589111328e+00 -2.243963330984115601e-01 5.729835852980613708e-02 -5.012939125299453735e-02 7.601168751716613770e-02
1.370000000000000000e+03 1.205760192871093750e+01 2.878121852874755859e+00 4.901038209936814383e-06 8.517226888216100633e-06 4.025479483971139416e-06 -1.768141942193324212e-06
1.371000000000000000e+03 1.047073554992675781e+01 3.038386106491088867e+00 4.906334652332589030e-06 6.139312972663901746e-06 3.313694378448417410e-06 -2.038597358478000388e-06
1.372000000000000000e+03 1.283038711547851562e+01 2.787280797958374023e+00 -5.037535629526246339e-06 -9.402268915437161922e-06 -4.331941454438492656e-06 9.711615120977512561e-07
1.373000000000000000e+03 6.923854064941406250e+01 -2.683922195434570312e+01 8.829365670680999756e-02 1.018064785003662109e+01 3.080682277679443359e+00 3.287698626518249512e-01
1.374000000000000000e+03 3.478802490234375000e+01 -2.822288036346435547e+00 1.527018938213586807e-02 2.416458129882812500e+00 7.295185327529907227e-01 5.567622780799865723e-01
1.375000000000000000e+03 4.108710861206054688e+01 -3.473412275314331055e+00 8.227403163909912109e-01 1.195658588409423828e+01 3.833797931671142578e+00 2.446654081344604492e+00
1.376000000000000000e+03 1.936090278625488281e+01 -3.316254043579101562e+01 -8.120475411415100098e-01 -6.063163653016090393e-02 -2.618037462234497070e-01 2.465731091797351837e-02
1.377000000000000000e+03 5.745478153228759766e+00 2.561281919479370117e+00 -3.362886673130560666e-06 -1.435417061657062732e-06 -1.439491143173654564e-06 5.098767132949433289e-07
1.378000000000000000e+03 4.849363803863525391e+00 3.976790428161621094e+00 4.862815785600105301e-06 9.600576049706432968e-07 1.746862039908592124e-06 -6.664645297860261053e-07
1.379000000000000000e+03 4.126470088958740234e+00 3.295722723007202148e+00 3.469138164291507564e-06 8.080708653324109036e-07 1.283162760046252515e-06 -2.037818660483026179e-07
1.380000000000000000e+03 4.903582572937011719e+00 3.275622367858886719e+00 -4.188055299891857430e-06 -1.140187919190793764e-06 -1.598472977093479130e-06 7.217946063065028284e-07
1.381000000000000000e+03 1.784376263618469238e+00 4.906552791595458984e+00 -3.890867901645833626e-06 -1.374025657696620328e-07 -1.208481194225896616e-06 2.458214396483526798e-07
1.382000000000000000e+03 8.897336006164550781e+00 2.489647388458251953e+00 -3.963841663789935410e-06 -3.630121682363096625e-06 -2.278188958371174522e-06 7.425826993312512059e-07
1.383000000000000000e+03 6.474581241607666016e+00 3.236800193786621094e+00 -4.880409505858551711e-06 -1.951100330188637599e-06 -2.049453087238362059e-06 1.083870984075474553e-06
1.384000000000000000e+03 7.265645980834960938e+00 3.213177204132080078e+00 4.475557943806052208e-06 2.690714609343558550e-06 2.149881765944883227e-06 -1.079303046935820021e-06
1.385000000000000000e+03 8.061172485351562500e+00 3.184356451034545898e+00 -5.284687176754232496e-06 -3.210692739230580628e-06 -2.548614020270179026e-06 1.447010731681075413e-06
1.386000000000000000e+03 9.664162635803222656e+00 3.099132299423217773e+00 -5.397228051151614636e-06 -5.006053470424376428e-06 -3.120984501947532408e-06 1.804615521905361675e-06
1.387000000000000000e+03 4.883113479614257812e+01 -2.644107437133789062e+01 -9.825325012207031250e-02 3.387019634246826172e-01 7.213460654020309448e-02 -1.015962734818458557e-01
1.388000000000000000e+03 1.562412166595458984e+01 1.254190349578857422e+01 3.913080945494584739e-05 2.335456520086154342e-05 1.874561166914645582e-05 3.295804708614014089e-05
1.389000000000000000e+03 4.107833480834960938e+01 -6.711498737335205078e+00 1.415239930152893066e+00 1.492135429382324219e+01 4.900978088378906250e+00 1.765502095222473145e+00
1.390000000000000000e+03 3.668553161621093750e+01 -2.250359725952148438e+01 5.296251773834228516e-01 8.331959724426269531e+00 2.658475399017333984e+00 1.631562948226928711e+00
1.391000000000000000e+03 3.582138442993164062e+01 -2.285392761230468750e+01 4.076844751834869385e-01 9.806293487548828125e+00 3.064193487167358398e+00 1.206374645233154297e+00
1.392000000000000000e+03 7.864979267120361328e+00 -3.063098716735839844e+01 -9.908012151718139648e-01 -4.451234042644500732e-01 -4.307774007320404053e-01 4.553567171096801758e-01
1.393000000000000000e+03 6.203199005126953125e+01 -1.368261575698852539e+00 -1.211694359779357910e+00 2.091577291488647461e+00 2.639649212360382080e-01 -1.351503968238830566e+00
1.394000000000000000e+03 6.011975860595703125e+01 -1.490679860115051270e+00 -2.226725339889526367e+00 3.514383435249328613e-01 -5.625860691070556641e-01 -1.629754304885864258e-01
1.395000000000000000e+03 4.279899597167968750e+01 1.979642677307128906e+01 1.846338659524917603e-01 7.159417152404785156e+00 2.203215360641479492e+00 6.602473855018615723e-01
1.396000000000000000e+03 4.969345855712890625e+01 2.183538913726806641e+00 -4.203401565551757812e+00 -1.695109903812408447e-01 -1.311873793601989746e+00 1.092244014143943787e-01
1.397000000000000000e+03 4.909362030029296875e+01 1.530877113342285156e+00 -6.384606361389160156e+00 -2.506536543369293213e-01 -1.990577936172485352e+00 7.884565591812133789e-01
1.398000000000000000e+03 2.514390754699707031e+01 -1.730426597595214844e+01 -4.312558770179748535e-01 2.863002754747867584e-02 -1.207877621054649353e-01 2.775596380233764648e-01
1.399000000000000000e+03 3.448020935058593750e+01 -2.118196487426757812e+00 -4.712246060371398926e-01 1.768150091171264648e+00 3.890776336193084717e-01 3.855140209197998047e-01
1.400000000000000000e+03 5.573307037353515625e+01 1.918515264987945557e-01 -3.555297851562500000e+00 1.206374820321798325e-02 -1.062970161437988281e+00 2.369814962148666382e-01
1.401000000000000000e+03 7.002091217041015625e+01 -2.244943428039550781e+01 3.778023421764373779e-01 1.353848457336425781e+01 4.174885749816894531e+00 -1.281794160604476929e-01
1.402000000000000000e+03 6.771833038330078125e+01 -8.536646842956542969e+00 6.999474763870239258e-01 9.741352081298828125e+00 3.132390022277832031e+00 -2.710666894912719727e+00
1.403000000000000000e+03 6.996472167968750000e+01 -1.743844223022460938e+01 5.616277456283569336e-01 1.497905731201171875e+01 4.662205696105957031e+00 -1.252903103828430176e+00
1.404000000000000000e+03 4.329812240600585938e+01 -2.156100082397460938e+01 -1.118379309773445129e-01 4.023474216461181641e+00 1.173490881919860840e+00 -7.572722434997558594e-01
1.405000000000000000e+03 4.336805343627929688e+01 -2.054481506347656250e+01 -1.116238161921501160e-02 4.204447746276855469e+00 1.257985591888427734e+00 -1.048740029335021973e+00
1.406000000000000000e+03 5.411947727203369141e+00 -2.352760505676269531e+01 1.529443860054016113e-01 1.541062593460083008e+00 5.082020759582519531e-01 7.429869174957275391e-01
1.407000000000000000e+03 1.288119697570800781e+01 -3.265971374511718750e+01 -9.450219869613647461e-01 -2.431287318468093872e-01 -3.564452230930328369e-01 3.792161941528320312e-01
1.408000000000000000e+03 1.601129722595214844e+01 -4.010493755340576172e+00 -1.112346798181533813e-01 -8.054644800722599030e-03 -3.578679636120796204e-02 1.572672128677368164e-01
1.409000000000000000e+03 1.766171264648437500e+01 -4.104732513427734375e+00 -4.630545526742935181e-02 -3.775300830602645874e-02 -2.521753869950771332e-02 1.595799922943115234e-01
1.410000000000000000e+03 2.020942878723144531e+01 -3.375980138778686523e+00 -2.429572492837905884e-02 -4.938844218850135803e-02 -2.210525050759315491e-02 8.013539016246795654e-02
1.411000000000000000e+03 1.763375473022460938e+01 -4.774875640869140625e+00 1.290387008339166641e-02 -4.262434691190719604e-02 -8.916142396628856659e-03 1.867984682321548462e-01
1.412000000000000000e+03 1.736826705932617188e+01 9.693353652954101562e+00 -4.493516462389379740e-05 -1.724359208310488611e-05 -1.865362719399854541e-05 -2.616384517750702798e-05
1.413000000000000000e+03 1.632013702392578125e+01 3.130958747863769531e+01 1.181353698484599590e-03 9.632571163820102811e-05 3.833038208540529013e-04 2.178077993448823690e-04
1.414000000000000000e+03 5.098418807983398438e+01 -2.882734870910644531e+01 -3.491601049900054932e-01 1.028701663017272949e-01 -7.388698309659957886e-02 7.899006456136703491e-02
1.415000000000000000e+03 5.184381484985351562e+01 -3.195724868774414062e+01 -8.066911101341247559e-01 3.953829705715179443e-01 -1.233924403786659241e-01 -7.611620426177978516e-02
1.416000000000000000e+03 4.776658630371093750e+01 -2.528989601135253906e+01 8.594216778874397278e-03 5.462172031402587891e-01 1.664434224367141724e-01 -2.075787335634231567e-01
1.417000000000000000e+03 1.392907714843750000e+01 1.855411148071289062e+01 -1.553096226416528225e-04 -3.485990237095393240e-05 -5.705085641238838434e-05 -2.995511022163555026e-05
1.418000000000000000e+03 1.507068824768066406e+01 1.682051467895507812e+01 1.267029438167810440e-04 -2.653807860042434186e-05 3.004945938300807029e-05 3.906046185875311494e-05
1.419000000000000000e+03 4.216033172607421875e+01 2.464613342285156250e+01 6.500914692878723145e-02 6.410780906677246094e+00 1.942737102508544922e+00 1.079630851745605469e-02
1.420000000000000000e+03 4.290351867675781250e+01 2.385224151611328125e+01 1.287791579961776733e-01 6.379328250885009766e+00 1.952432155609130859e+00 1.455074399709701538e-01
1.421000000000000000e+03 6.801271820068359375e+01 -9.298017501831054688e+00 7.230665087699890137e-01 1.040718936920166016e+01 3.339076757431030273e+00 -2.718958139419555664e+00
1.422000000000000000e+03 3.524341201782226562e+01 4.781288281083106995e-02 -1.264286637306213379e+00 1.668300509452819824e+00 1.212041676044464111e-01 3.077112436294555664e-01
1.423000000000000000e+03 3.591189956665039062e+01 6.055607199668884277e-01 -9.608057141304016113e-01 2.877062320709228516e+00 5.748769640922546387e-01 7.718527317047119141e-01
1.424000000000000000e+03 4.214486694335937500e+01 2.383510971069335938e+01 5.548616498708724976e-02 6.453022003173828125e+00 1.952552437782287598e+00 8.370223641395568848e-02
1.425000000000000000e+03 4.371881484985351562e+01 2.552603912353515625e+01 3.469650149345397949e-01 6.054582118988037109e+00 1.920464158058166504e+00 -2.405869774520397186e-02
1.426000000000000000e+03 1.360572052001953125e+01 -3.282196426391601562e+01 -9.107666611671447754e-01 -1.935132443904876709e-01 -3.312839865684509277e-01 3.061134219169616699e-01
1.427000000000000000e+03 4.287807464599609375e+01 2.303681564331054688e+01 1.207098737359046936e-01 6.470728874206542969e+00 1.977431654930114746e+00 2.394799441099166870e-01
1.428000000000000000e+03 5.042805099487304688e+01 -2.827187728881835938e+01 -2.854343354701995850e-01 1.557977646589279175e-01 -3.889097273349761963e-02 4.694516584277153015e-02
1.429000000000000000e+03 3.814449691772460938e+01 3.216784954071044922e+00 8.423771262168884277e-01 8.845688819885253906e+00 2.906419754028320312e+00 3.099931478500366211e+00
1.430000000000000000e+03 3.860706329345703125e+01 3.931426286697387695e+00 1.402186751365661621e+00 1.013568305969238281e+01 3.461360931396484375e+00 3.634472131729125977e+00
1.431000000000000000e+03 4.283379745483398438e+01 2.141546440124511719e+01 1.317601501941680908e-01 6.743861198425292969e+00 2.062686443328857422e+00 4.278818070888519287e-01
1.432000000000000000e+03 4.211450576782226562e+01 2.222094345092773438e+01 5.048271268606185913e-02 6.659040451049804688e+00 2.012856960296630859e+00 2.047700136899948120e-01
1.433000000000000000e+03 4.208351898193359375e+01 1.980811119079589844e+01 7.652636617422103882e-02 7.297058105468750000e+00 2.212075233459472656e+00 4.241211712360382080e-01
1.434000000000000000e+03 4.278207015991210938e+01 1.898393821716308594e+01 2.613733708858489990e-01 7.412267684936523438e+00 2.302092313766479492e+00 8.390340805053710938e-01
1.435000000000000000e+03 4.284722900390625000e+01 1.226679992675781250e+01 1.327116489410400391e+00 8.826797485351562500e+00 3.046174287796020508e+00 2.716861486434936523e+00
1.436000000000000000e+03 4.281380462646484375e+01 2.060820388793945312e+01 1.492589265108108521e-01 6.928474426269531250e+00 2.123319864273071289e+00 5.347815155982971191e-01
1.437000000000000000e+03 7.820827960968017578e+00 -1.630155563354492188e+01 1.241577148437500000e+00 1.798041105270385742e+00 9.118854999542236328e-01 7.721756100654602051e-01
1.438000000000000000e+03 7.530963420867919922e+00 -1.703483772277832031e+01 1.475514769554138184e+00 1.963761925697326660e+00 1.031782984733581543e+00 8.702761530876159668e-01
1.439000000000000000e+03 6.931048583984375000e+01 -1.911216926574707031e+01 1.008860990405082703e-01 1.509209156036376953e+01 4.557893276214599609e+00 -5.342205166816711426e-01
1.440000000000000000e+03 4.202827835083007812e+01 1.157428646087646484e+01 1.183616757392883301e+00 1.002978038787841797e+01 3.364019155502319336e+00 2.988859176635742188e+00
1.441000000000000000e+03 4.662618637084960938e+01 -2.419899177551269531e+01 7.217744737863540649e-02 9.118270277976989746e-01 2.952013313770294189e-01 -3.714596629142761230e-01
1.442000000000000000e+03 1.481157302856445312e+01 2.190756416320800781e+01 2.866431022994220257e-04 -1.537222124170511961e-05 8.138126577250659466e-05 3.048180951736867428e-05
1.443000000000000000e+03 1.411037731170654297e+01 2.117279052734375000e+01 2.254079590784385800e-04 5.055870815340313129e-07 6.777406088076531887e-05 2.956058597192168236e-05
1.444000000000000000e+03 6.999584960937500000e+01 -1.826027488708496094e+01 3.023097813129425049e-01 1.475087928771972656e+01 4.515956878662109375e+00 -9.807537794113159180e-01
1.445000000000000000e+03 4.096783447265625000e+01 -7.524148941040039062e+00 1.488246679306030273e+00 1.492710876464843750e+01 4.924606800079345703e+00 1.700688719749450684e+00
1.446000000000000000e+03 5.325929260253906250e+01 -3.019326210021972656e+01 -6.680254340171813965e-01 -1.536973714828491211e-01 -2.465168386697769165e-01 3.406376540660858154e-01
1.447000000000000000e+03 7.005491638183593750e+01 -2.074848937988281250e+01 1.819774955511093140e-01 1.392586040496826172e+01 4.232351303100585938e+00 -5.162063837051391602e-01
1.448000000000000000e+03 7.080116271972656250e+01 -2.073379707336425781e+01 3.028429448604583740e-01 1.325930690765380859e+01 4.068645000457763672e+00 -7.203300595283508301e-01
1.449000000000000000e+03 2.434492111206054688e+01 -3.497894668579101562e+01 -3.526316583156585693e-01 2.273515313863754272e-01 -3.758404031395912170e-02 1.556591540575027466e-01
1.450000000000000000e+03 2.467443656921386719e+01 -3.240218734741210938e+01 -6.752086877822875977e-01 8.377101272344589233e-02 -1.774313151836395264e-01 2.291963249444961548e-02
1.451000000000000000e+03 1.704948616027832031e+01 2.248764991760253906e+00 -3.678816710817045532e-06 -1.281096319871721789e-05 -4.946934041072381660e-06 -3.316277457088290248e-07
1.452000000000000000e+03 1.869361495971679688e+01 6.740071296691894531e+00 -3.201537037966772914e-05 -1.160448300652205944e-05 -1.308595528826117516e-05 -1.812329537642654032e-05
1.453000000000000000e+03 1.678864860534667969e+01 1.123081493377685547e+01 -5.430407691164873540e-05 -1.982058347493875772e-05 -2.223739829787518829e-05 -3.224775355192832649e-05
1.454000000000000000e+03 4.831164932250976562e+01 -2.585140800476074219e+01 -3.652928769588470459e-02 4.232029914855957031e-01 1.160021126270294189e-01 -1.470248848199844360e-01
1.455000000000000000e+03 4.003748703002929688e+01 -1.593727779388427734e+01 4.452807307243347168e-01 9.921968460083007812e+00 3.110174655914306641e+00 -2.349192053079605103e-01
1.456000000000000000e+03 4.099804306030273438e+01 -1.672497177124023438e+01 6.622670292854309082e-01 1.025771236419677734e+01 3.275993824005126953e+00 -6.849824190139770508e-01
1.457000000000000000e+03 1.554109382629394531e+01 1.516654205322265625e+01 9.394989319844171405e-05 9.433943887415807694e-06 3.101515176240354776e-05 4.874637306784279644e-05
1.458000000000000000e+03 1.512426853179931641e+01 1.413872337341308594e+01 4.374803756945766509e-05 2.087633038172498345e-05 1.938730929396115243e-05 3.785310764214955270e-05
1.459000000000000000e+03 2.948472785949707031e+01 -1.644042778015136719e+01 -1.248677730560302734e+00 -2.743430733680725098e-01 -4.569062292575836182e-01 1.021233558654785156e+00
1.460000000000000000e+03 4.039155960083007812e+01 3.307318496704101562e+01 2.941320240497589111e-01 3.315306663513183594e+00 1.082831621170043945e+00 -9.255234003067016602e-01
1.461000000000000000e+03 3.849210357666015625e+01 3.595058822631835938e+01 -1.068976670503616333e-01 1.709859848022460938e+00 4.808886647224426270e-01 -6.500610113143920898e-01
1.462000000000000000e+03 7.844790649414062500e+01 4.087042617797851562e+01 2.054339041933417320e-03 5.238734245300292969e+00 1.572236657142639160e+00 -1.149919931776821613e-03
1.463000000000000000e+03 7.810126495361328125e+01 1.753949737548828125e+01 1.417321991175413132e-02 6.342656135559082031e+00 1.907048821449279785e+00 -2.576026618480682373e-01
1.464000000000000000e+03 7.716010284423828125e+01 3.838163375854492188e+01 6.510522216558456421e-03 5.247690200805664062e+00 1.576260209083557129e+00 -1.703193783760070801e-02
1.465000000000000000e+03 7.668782043457031250e+01 3.707001876831054688e+01 1.060151774436235428e-02 5.253861904144287109e+00 1.579339027404785156e+00 -2.744622156023979187e-02
1.466000000000000000e+03 7.792265319824218750e+01 2.877046394348144531e+01 1.452651619911193848e-02 5.437816619873046875e+00 1.635702967643737793e+00 -8.720991760492324829e-02
1.467000000000000000e+03 7.884745025634765625e+01 2.144407844543457031e+01 6.901785265654325485e-03 5.957977771759033203e+00 1.789463758468627930e+00 -1.218153312802314758e-01
1.468000000000000000e+03 7.808779144287109375e+01 1.994256210327148438e+01 1.769501902163028717e-02 6.067547798156738281e+00 1.825572848320007324e+00 -2.212456315755844116e-01
1.469000000000000000e+03 7.800523376464843750e+01 2.711806297302246094e+01 1.522614061832427979e-02 5.512986183166503906e+00 1.658463597297668457e+00 -1.075097545981407166e-01
1.470000000000000000e+03 7.882751464843750000e+01 2.543634796142578125e+01 6.916905287653207779e-03 5.624514579772949219e+00 1.689429521560668945e+00 -8.074260503053665161e-02
1.471000000000000000e+03 7.731573486328125000e+01 2.397631263732910156e+01 3.214308992028236389e-02 5.676245689392089844e+00 1.712516546249389648e+00 -2.054818272590637207e-01
1.472000000000000000e+03 7.808345794677734375e+01 2.153693199157714844e+01 1.814562268555164337e-02 5.909945011138916016e+00 1.778427243232727051e+00 -1.942847967147827148e-01
1.473000000000000000e+03 7.736647033691406250e+01 1.599779796600341797e+01 2.115783840417861938e-02 6.442307949066162109e+00 1.939039707183837891e+00 -3.702683746814727783e-01
1.474000000000000000e+03 7.872882843017578125e+01 3.365433502197265625e+01 2.930532209575176239e-03 5.305442333221435547e+00 1.592511773109436035e+00 -2.241882495582103729e-02
1.475000000000000000e+03 7.877568054199218750e+01 3.530122756958007812e+01 2.092084148898720741e-03 5.278886795043945312e+00 1.584293603897094727e+00 -1.429015584290027618e-02
1.476000000000000000e+03 7.837622070312500000e+01 3.720315551757812500e+01 2.830817596986889839e-03 5.259358406066894531e+00 1.578656792640686035e+00 -1.409319974482059479e-02
1.477000000000000000e+03 7.782478332519531250e+01 3.215748977661132812e+01 1.133825816214084625e-02 5.331543445587158203e+00 1.602864503860473633e+00 -5.078474059700965881e-02
1.478000000000000000e+03 7.811847686767578125e+01 1.513378047943115234e+01 8.948943577706813812e-03 6.656560897827148438e+00 1.999652981758117676e+00 -2.836051285266876221e-01
1.479000000000000000e+03 7.887630462646484375e+01 1.263121700286865234e+01 3.502394974930211902e-05 7.141932964324951172e+00 2.142590284347534180e+00 -1.826241761445999146e-01
1.480000000000000000e+03 7.814719390869140625e+01 1.032205867767333984e+01 -1.180124841630458832e-02 7.336825370788574219e+00 2.197507143020629883e+00 -2.771014273166656494e-01
1.481000000000000000e+03 7.812799835205078125e+01 1.353455924987792969e+01 3.408617805689573288e-03 6.879977703094482422e+00 2.065015792846679688e+00 -2.917581498622894287e-01
1.482000000000000000e+03 7.871073913574218750e+01 3.198660850524902344e+01 4.252182785421609879e-03 5.339487075805664062e+00 1.603121757507324219e+00 -3.115969523787498474e-02
1.483000000000000000e+03 7.813271331787109375e+01 1.272901535034179688e+01 -5.654335836879909039e-04 6.995353698730468750e+00 2.098436594009399414e+00 -2.929403185844421387e-01
1.484000000000000000e+03 7.815061950683593750e+01 9.521402359008789062e+00 -1.693476364016532898e-02 7.445816040039062500e+00 2.228664398193359375e+00 -2.664184570312500000e-01
1.485000000000000000e+03 7.881481170654296875e+01 -2.992100143432617188e+01 -3.755169734358787537e-02 1.128801631927490234e+01 3.375139474868774414e+00 -5.938355922698974609e-01
1.486000000000000000e+03 7.798827362060546875e+01 -3.222975540161132812e+01 -1.093147173523902893e-01 1.166394805908203125e+01 3.466390132904052734e+00 -6.555719971656799316e-01
1.487000000000000000e+03 7.889827728271484375e+01 -2.268177795410156250e+01 3.300620988011360168e-02 7.935271739959716797e+00 2.390483379364013672e+00 -5.437889099121093750e-01
1.488000000000000000e+03 7.815279388427734375e+01 -2.501827049255371094e+01 4.511373117566108704e-02 9.194206237792968750e+00 2.771795988082885742e+00 -9.535626769065856934e-01
1.489000000000000000e+03 7.741333770751953125e+01 -3.812612915039062500e+01 -5.656863003969192505e-02 1.208581829071044922e+01 3.608774900436401367e+00 -1.742205321788787842e-01
1.490000000000000000e+03 7.878157043457031250e+01 -3.622967147827148438e+01 -3.818381950259208679e-02 1.294060516357421875e+01 3.870726346969604492e+00 -1.754000782966613770e-01
1.491000000000000000e+03 7.802455902099609375e+01 -3.684432601928710938e+01 -6.611259281635284424e-02 1.244890213012695312e+01 3.714836835861206055e+00 -2.182033509016036987e-01
1.492000000000000000e+03 7.890393066406250000e+01 -1.543901538848876953e+01 5.162748694419860840e-02 6.040280342102050781e+00 1.827572345733642578e+00 -6.993812322616577148e-02
1.493000000000000000e+03 7.746282958984375000e+01 -1.937329483032226562e+01 1.684648245573043823e-01 7.927074909210205078e+00 2.428661823272705078e+00 -7.144715189933776855e-01
1.494000000000000000e+03 7.745676422119140625e+01 -1.126049995422363281e+01 1.314976811408996582e-01 7.258064746856689453e+00 2.216868638992309570e+00 3.611674308776855469e-01
1.495000000000000000e+03 7.890490722656250000e+01 -1.803404808044433594e+00 -2.312077954411506653e-02 8.006688117980957031e+00 2.395070075988769531e+00 1.697439849376678467e-01
1.496000000000000000e+03 7.748744964599609375e+01 -4.054001331329345703e+00 -7.206306606531143188e-02 7.810708522796630859e+00 2.321593523025512695e+00 4.147119820117950439e-01
1.497000000000000000e+03 7.889398956298828125e+01 5.414287567138671875e+00 -1.691558025777339935e-02 8.095116615295410156e+00 2.423460483551025391e+00 -8.712912350893020630e-02
1.498000000000000000e+03 7.817211914062500000e+01 3.104279279708862305e+00 -5.348921194672584534e-02 8.054978370666503906e+00 2.400446653366088867e+00 -3.822285681962966919e-02
1.499000000000000000e+03 7.803901672363281250e+01 2.630966567993164062e+01 1.615369506180286407e-02 5.556222915649414062e+00 1.671712994575500488e+00 -1.177625656127929688e-01
1.500000000000000000e+03 7.785605621337890625e+01 3.391649627685546875e+01 7.835283875465393066e-03 5.298725128173828125e+00 1.591968059539794922e+00 -3.453302010893821716e-02
1.501000000000000000e+03 7.781468200683593750e+01 3.304126358032226562e+01 9.892802685499191284e-03 5.312850952148437500e+00 1.596823096275329590e+00 -4.261299222707748413e-02
1.502000000000000000e+03 7.806016540527343750e+01 2.550676155090332031e+01 1.582395099103450775e-02 5.604717731475830078e+00 1.686162471771240234e+00 -1.292222142219543457e-01
1.503000000000000000e+03 7.809156036376953125e+01 1.914270591735839844e+01 1.651750132441520691e-02 6.154139518737792969e+00 1.851197123527526855e+00 -2.340111434459686279e-01
1.504000000000000000e+03 7.742411041259765625e+01 9.584579467773437500e+00 -2.906770817935466766e-02 7.280281543731689453e+00 2.175364017486572266e+00 -3.609323799610137939e-01
1.505000000000000000e+03 7.817842102050781250e+01 6.926605701446533203e-01 -5.924357846379280090e-02 8.080513954162597656e+00 2.406381130218505859e+00 9.754436463117599487e-02
1.506000000000000000e+03 7.749330139160156250e+01 -5.655392646789550781e+00 -4.602939635515213013e-02 7.683027744293212891e+00 2.291099548339843750e+00 4.796839356422424316e-01
1.507000000000000000e+03 7.890829467773437500e+01 -4.211724758148193359e+00 -1.559419743716716766e-02 7.649641513824462891e+00 2.290214300155639648e+00 2.459157109260559082e-01
1.508000000000000000e+03 7.818267059326171875e+01 -1.132638168334960938e+01 7.532561570405960083e-02 6.759802341461181641e+00 2.050538301467895508e+00 3.048033714294433594e-01
1.509000000000000000e+03 7.817312622070312500e+01 -1.859870910644531250e+01 1.063631474971771240e-01 7.189891815185546875e+00 2.188876390457153320e+00 -4.813905656337738037e-01
1.510000000000000000e+03 7.875492858886718750e+01 -3.465124893188476562e+01 -5.984294414520263672e-02 1.268559646606445312e+01 3.787726163864135742e+00 -2.750555276870727539e-01
1.511000000000000000e+03 7.866954803466796875e+01 4.002782440185546875e+01 2.701629884541034698e-03 5.240811824798583984e+00 1.573054075241088867e+00 -4.031287506222724915e-03
1.512000000000000000e+03 7.718193054199218750e+01 4.032007217407226562e+01 7.458940148353576660e-03 5.235846996307373047e+00 1.572991728782653809e+00 -9.082335047423839569e-03
1.513000000000000000e+03 7.796125793457031250e+01 3.471592712402343750e+01 5.930094979703426361e-03 5.288484096527099609e+00 1.588324189186096191e+00 -2.915620990097522736e-02
1.514000000000000000e+03 7.789475250244140625e+01 2.960981178283691406e+01 1.444464735686779022e-02 5.406196117401123047e+00 1.626192212104797363e+00 -7.824476063251495361e-02
1.515000000000000000e+03 7.796424865722656250e+01 2.793838310241699219e+01 1.566825248301029205e-02 5.472739219665527344e+00 1.646522283554077148e+00 -9.757389128208160400e-02
1.516000000000000000e+03 7.807352447509765625e+01 2.392466545104980469e+01 1.701756939291954041e-02 5.711442947387695312e+00 1.718538165092468262e+00 -1.540134847164154053e-01
1.517000000000000000e+03 7.810694122314453125e+01 1.673703765869140625e+01 1.329910755157470703e-02 6.443328380584716797e+00 1.936988234519958496e+00 -2.680353224277496338e-01
1.518000000000000000e+03 7.815761566162109375e+01 7.911957263946533203e+00 -2.659828215837478638e-02 7.651294708251953125e+00 2.287409067153930664e+00 -2.318714410066604614e-01
1.519000000000000000e+03 7.889014434814453125e+01 7.816373825073242188e+00 -1.115023065358400345e-02 7.841706752777099609e+00 2.349166870117187500e+00 -1.405628621578216553e-01
1.520000000000000000e+03 7.786502075195312500e+01 -3.746471405029296875e+01 -6.521519273519515991e-02 1.236293697357177734e+01 3.689316511154174805e+00 -1.667336821556091309e-01
1.521000000000000000e+03 7.885734558105468750e+01 -2.750936889648437500e+01 -5.580562632530927658e-03 1.020642948150634766e+01 3.060254812240600586e+00 -6.671393513679504395e-01
1.522000000000000000e+03 7.801856994628906250e+01 -2.985479354858398438e+01 -9.027814120054244995e-02 1.100291061401367188e+01 3.273789882659912109e+00 -8.943108320236206055e-01
1.523000000000000000e+03 7.816732788085937500e+01 -2.340625381469726562e+01 6.805719435214996338e-02 8.590833663940429688e+00 2.597667217254638672e+00 -8.674771189689636230e-01
1.524000000000000000e+03 7.817603302001953125e+01 -1.615758132934570312e+01 1.226583719253540039e-01 6.782552242279052734e+00 2.071563243865966797e+00 -2.108367085456848145e-01
1.525000000000000000e+03 7.891009521484375000e+01 -6.617028713226318359e+00 -8.142143487930297852e-03 7.176430702209472656e+00 2.150486469268798828e+00 2.933512628078460693e-01
1.526000000000000000e+03 7.818168640136718750e+01 -9.013435244560241699e-01 -5.819582194089889526e-02 8.021270751953125000e+00 2.388922452926635742e+00 1.894653737545013428e-01
1.527000000000000000e+03 7.816069793701171875e+01 6.317749977111816406e+00 -3.643985837697982788e-02 7.825948715209960938e+00 2.336852788925170898e+00 -1.827949583530426025e-01
1.528000000000000000e+03 7.816300964355468750e+01 5.513324737548828125e+00 -4.154318571090698242e-02 7.900584697723388672e+00 2.357712507247924805e+00 -1.514088809490203857e-01
1.529000000000000000e+03 7.889985656738281250e+01 2.205265760421752930e+00 -2.291386201977729797e-02 8.238507270812988281e+00 2.464678049087524414e+00 1.744779385626316071e-02
1.530000000000000000e+03 7.816955566406250000e+01 3.908350229263305664e+00 -5.049461871385574341e-02 8.016350746154785156e+00 2.389756917953491211e+00 -7.902041077613830566e-02
1.531000000000000000e+03 7.817406463623046875e+01 2.302741050720214844e+00 -5.676390230655670166e-02 8.078204154968261719e+00 2.406432151794433594e+00 5.390567239373922348e-03
1.532000000000000000e+03 7.745392608642578125e+01 3.170984506607055664e+00 -9.634003788232803345e-02 7.904448509216308594e+00 2.342432498931884766e+00 -7.458946108818054199e-02
1.533000000000000000e+03 7.818464660644531250e+01 -1.705621123313903809e+00 -5.481560528278350830e-02 7.968903064727783203e+00 2.374226331710815430e+00 2.337367534637451172e-01
1.534000000000000000e+03 7.819509887695312500e+01 -6.518728733062744141e+00 -1.646902412176132202e-02 7.402026653289794922e+00 2.215667247772216797e+00 4.193652570247650146e-01
1.535000000000000000e+03 7.819161987304687500e+01 -4.116143703460693359e+00 -4.122809693217277527e-02 7.729017734527587891e+00 2.306336879730224609e+00 3.501135408878326416e-01
1.536000000000000000e+03 7.819324493408203125e+01 -7.311476707458496094e+00 -9.371262043714523315e-03 7.287318229675292969e+00 2.183383941650390625e+00 4.296613633632659912e-01
1.537000000000000000e+03 7.818927001953125000e+01 -8.912624359130859375e+00 2.160236984491348267e-02 7.053458213806152344e+00 2.122518062591552734e+00 4.210274219512939453e-01
1.538000000000000000e+03 7.818864440917968750e+01 -1.374074745178222656e+01 1.136767268180847168e-01 6.634901523590087891e+00 2.024573564529418945e+00 7.595939934253692627e-02
1.539000000000000000e+03 7.818342590332031250e+01 -1.052360534667968750e+01 5.687493830919265747e-02 6.844293117523193359e+00 2.070350408554077148e+00 3.568094372749328613e-01
1.540000000000000000e+03 7.746991729736328125e+01 -1.287644767761230469e+01 1.840863078832626343e-01 7.206402301788330078e+00 2.217146635055541992e+00 1.822781562805175781e-01
1.541000000000000000e+03 7.747063446044921875e+01 -1.611401557922363281e+01 2.168594300746917725e-01 7.387074470520019531e+00 2.281180143356323242e+00 -2.877918481826782227e-01
1.542000000000000000e+03 7.817361450195312500e+01 -1.779315567016601562e+01 1.122643053531646729e-01 7.030123710632324219e+00 2.142716407775878906e+00 -3.978199660778045654e-01
1.543000000000000000e+03 7.817752838134765625e+01 -2.101339149475097656e+01 8.539956808090209961e-02 7.806406497955322266e+00 2.367541790008544922e+00 -6.949717998504638672e-01
1.544000000000000000e+03 7.746656799316406250e+01 -2.018019294738769531e+01 1.592670530080795288e-01 8.097277641296386719e+00 2.476963520050048828e+00 -8.012698888778686523e-01
1.545000000000000000e+03 7.816158294677734375e+01 -2.421280288696289062e+01 5.868377536535263062e-02 8.887475013732910156e+00 2.683847427368164062e+00 -9.146757125854492188e-01
1.546000000000000000e+03 7.813938903808593750e+01 -2.581892013549804688e+01 2.655075676739215851e-02 9.508622169494628906e+00 2.860551834106445312e+00 -9.810966253280639648e-01
1.547000000000000000e+03 7.809796905517578125e+01 -2.743512344360351562e+01 -1.796772144734859467e-02 1.014202594757080078e+01 3.037217378616333008e+00 -9.955329895019531250e-01
1.548000000000000000e+03 7.797655487060546875e+01 -3.299138259887695312e+01 -1.327602863311767578e-01 1.181406116485595703e+01 3.504390239715576172e+00 -5.989715456962585449e-01
1.549000000000000000e+03 7.787127685546875000e+01 -3.452452087402343750e+01 -1.136006712913513184e-01 1.206479549407958984e+01 3.585358619689941406e+00 -4.342926740646362305e-01
1.550000000000000000e+03 7.836486053466796875e+01 -4.102684402465820312e+01 -5.284516140818595886e-02 1.288741302490234375e+01 3.850370407104492188e+00 -1.116699203848838806e-01
1.551000000000000000e+03 7.004383850097656250e+01 -1.991161727905273438e+01 1.773338913917541504e-01 1.416748523712158203e+01 4.303445816040039062e+00 -6.577782630920410156e-01
1.552000000000000000e+03 4.495587539672851562e+01 -2.240875434875488281e+01 1.152735874056816101e-01 1.918614149093627930e+00 6.101663112640380859e-01 -6.711654067039489746e-01
1.553000000000000000e+03 2.511873054504394531e+01 -2.654508352279663086e+00 -2.132200151681900024e-01 -2.812849543988704681e-02 -7.240455597639083862e-02 -1.497712433338165283e-01
1.554000000000000000e+03 2.683304786682128906e+01 -1.772414779663085938e+01 -9.471275210380554199e-01 1.172030344605445862e-02 -2.806221544742584229e-01 2.299643754959106445e-01
1.555000000000000000e+03 2.586433792114257812e+01 -1.718034362792968750e+01 -5.913668274879455566e-01 8.597477339208126068e-03 -1.748308092355728149e-01 3.596315085887908936e-01
1.556000000000000000e+03 4.441924667358398438e+01 -2.179076957702636719e+01 9.534043073654174805e-02 2.479292631149291992e+00 7.723899483680725098e-01 -8.115064501762390137e-01
1.557000000000000000e+03 3.764088439941406250e+01 1.453599929809570312e+00 -8.991903662681579590e-01 7.050812244415283203e+00 1.845486521720886230e+00 1.674486756324768066e+00
1.558000000000000000e+03 3.595526516437530518e-01 3.481273174285888672e+00 -2.012529421335784718e-06 -1.328843097780918470e-07 -6.436241619667271152e-07 1.262182394157207455e-07
1.559000000000000000e+03 2.906151533126831055e+00 3.810418319702148438e+01 1.388675991620402783e-05 3.565682854969054461e-04 1.111365127144381404e-04 -4.329916191636584699e-05
1.560000000000000000e+03 1.132405400276184082e+00 2.983071517944335938e+01 -3.113391721853986382e-05 1.002681747195310891e-04 2.074027725029736757e-05 -2.377231430727988482e-05
1.561000000000000000e+03 2.588447570800781250e+00 3.191166877746582031e+01 2.333788143005222082e-05 1.433236175216734409e-04 4.999844895792193711e-05 -1.012970242300070822e-04
1.562000000000000000e+03 1.809195399284362793e+00 2.487676429748535156e+01 1.335532942903228104e-05 -2.998252313091143151e-08 3.997603926109150052e-06 -2.371307164139579982e-05
1.563000000000000000e+03 1.374397039413452148e+00 3.618883514404296875e+01 -4.704517778009176254e-05 3.794337098952382803e-04 9.971656254492700100e-05 -6.492959073511883616e-05
1.564000000000000000e+03 2.464148044586181641e+00 3.664126586914062500e+01 -4.662041828851215541e-05 4.413721035234630108e-04 1.184255088446661830e-04 -7.537530473200604320e-05
1.565000000000000000e+03 1.218578815460205078e+00 -3.404396820068359375e+01 -4.291195422410964966e-03 1.659572958946228027e+00 4.965845346450805664e-01 -5.846991762518882751e-02
1.566000000000000000e+03 1.097236514091491699e+00 2.661345672607421875e+01 -1.419928048562724143e-05 2.267290801682975143e-05 2.542088395784958266e-06 -3.199668981324066408e-06
1.567000000000000000e+03 1.270841360092163086e+00 3.460202407836914062e+01 -4.314816396799869835e-05 2.953392686322331429e-04 7.565732812508940697e-05 -5.208368020248599350e-05
1.568000000000000000e+03 1.893648505210876465e+00 3.051091003417968750e+01 -1.894586785056162626e-05 1.339189184363931417e-04 3.449191353865899146e-05 -5.712466008844785392e-05
1.569000000000000000e+03 1.273878931999206543e+00 -3.647301101684570312e+01 -7.307676714845001698e-04 1.578343629837036133e+00 4.732838571071624756e-01 -7.814952731132507324e-02
1.570000000000000000e+03 1.076659798622131348e+00 2.099213409423828125e+01 3.485236845790495863e-07 -1.360263559035956860e-05 -3.976233529101591557e-06 -2.863193458324531093e-06
1.571000000000000000e+03 1.800804018974304199e+00 2.326982688903808594e+01 8.150519533955957741e-06 -8.061176231421995908e-06 2.680309663105617801e-08 -1.360827354801585898e-05
1.572000000000000000e+03 2.516725778579711914e+00 2.315580940246582031e+01 2.288418500029365532e-06 1.120056731451768428e-05 4.046695721626747400e-06 1.796475658011331689e-06
1.573000000000000000e+03 1.816301345825195312e+00 2.567776870727539062e+01 -2.873785206247703172e-06 1.998726474994327873e-05 5.134043931320775300e-06 -5.066191988589707762e-06
1.574000000000000000e+03 2.546969413757324219e+00 2.634939002990722656e+01 6.533684427267871797e-06 3.280635792179964483e-05 1.180201252282131463e-05 -1.418989631929434836e-05
1.575000000000000000e+03 1.855678439140319824e+00 2.808672904968261719e+01 2.777582085400354117e-05 3.540644684107974172e-05 1.895468085422180593e-05 -5.712476558983325958e-05
1.576000000000000000e+03 1.876547694206237793e+00 2.889452362060546875e+01 -1.013291421259054914e-05 7.790371455485001206e-05 2.033123928413260728e-05 -3.054324042750522494e-05
1.577000000000000000e+03 1.874436378479003906e+00 3.129492187500000000e+01 4.191149128018878400e-05 1.012205175356939435e-04 4.293960228096693754e-05 -7.247110625030472875e-05
1.578000000000000000e+03 1.990427732467651367e+00 3.284095764160156250e+01 2.870649404940195382e-05 1.815395371522754431e-04 6.307380681391805410e-05 -1.078960558515973389e-04
1.579000000000000000e+03 2.151616811752319336e+00 3.445423889160156250e+01 2.171900268876925111e-05 2.266928058816120028e-04 7.452354475390166044e-05 -1.323150063399225473e-04
1.580000000000000000e+03 2.781800508499145508e+00 3.551678085327148438e+01 3.295134956715628505e-05 2.604806795716285706e-04 8.802960655884817243e-05 -9.925199992721900344e-05
1.581000000000000000e+03 1.446517109870910645e+00 4.110078811645507812e+01 -6.650053546763956547e-05 7.655625813640654087e-04 2.097186225000768900e-04 1.693963167781475931e-05
1.582000000000000000e+03 3.034531354904174805e+00 -3.808676147460937500e+01 3.767569363117218018e-02 1.033402204513549805e+00 3.213233947753906250e-01 -7.636837661266326904e-02
1.583000000000000000e+03 2.046738147735595703e+00 -3.484804534912109375e+01 -1.025141100399196148e-03 1.363246083259582520e+00 4.086662828922271729e-01 -8.542011678218841553e-02
1.584000000000000000e+03 1.075650453567504883e+00 2.018757820129394531e+01 1.793678165995515883e-06 -8.612393685325514525e-06 -2.045614564849529415e-06 4.178587005299050361e-06
1.585000000000000000e+03 1.795491814613342285e+00 2.167044067382812500e+01 4.176769380137557164e-06 -1.037309357343474403e-05 -1.858897121564950794e-06 -6.677263627352658659e-06
1.586000000000000000e+03 2.458043813705444336e+00 -1.244223117828369141e+01 1.871419372037053108e-03 -5.842844843864440918e-01 -1.747239083051681519e-01 -3.421049118041992188e-01
1.587000000000000000e+03 1.069454073905944824e+00 1.535831832885742188e+01 2.189412953157443553e-06 -3.475261792118544690e-06 -3.857546460039884550e-07 -8.717818218428874388e-07
1.588000000000000000e+03 1.787096381187438965e+00 1.764897346496582031e+01 -3.863511324198043440e-07 -3.614532488427357748e-06 -1.200265046463755425e-06 2.669931745913345367e-06
1.589000000000000000e+03 1.778049945831298828e+00 1.281802940368652344e+01 -5.325193797034444287e-06 8.303554182020889129e-07 -1.348451519334048498e-06 -2.093974671879550442e-06
1.590000000000000000e+03 1.077426671981811523e+00 -7.592669486999511719e+00 -8.012209087610244751e-03 -4.615910053253173828e-01 -1.408809721469879150e-01 -1.427437365055084229e-01
1.591000000000000000e+03 2.536057233810424805e+00 -6.962357997894287109e+00 -4.488179087638854980e-02 -2.407761961221694946e-01 -8.569739758968353271e-02 -2.477477639913558960e-01
1.592000000000000000e+03 2.439981698989868164e+00 -8.580343246459960938e+00 -4.006920009851455688e-02 -3.460870683193206787e-01 -1.158468797802925110e-01 -2.872395217418670654e-01
1.593000000000000000e+03 1.157056927680969238e+00 -5.141656875610351562e+00 -1.281394995748996735e-02 -2.204434424638748169e-01 -6.997721642255783081e-02 -1.074581518769264221e-01
1.594000000000000000e+03 3.237541198730468750e+00 -2.581169319152832031e+01 -1.895594000816345215e-01 6.621333956718444824e-01 1.417721956968307495e-01 9.742169380187988281e-01
1.595000000000000000e+03 5.479810237884521484e+00 -2.524639320373535156e+01 -1.067502722144126892e-01 7.393403053283691406e-01 1.897770017385482788e-01 6.854102015495300293e-01
1.596000000000000000e+03 1.111883163452148438e+00 -2.665023994445800781e+01 -5.472934246063232422e-02 8.556337356567382812e-01 2.402713149785995483e-01 4.465591013431549072e-01
1.597000000000000000e+03 1.698239326477050781e+00 -2.500435066223144531e+01 -1.675708033144474030e-02 3.410742580890655518e-01 9.729515016078948975e-02 7.299634218215942383e-01
1.598000000000000000e+03 1.046479940414428711e+00 -2.430265426635742188e+01 1.574003882706165314e-02 -3.131379932165145874e-02 -4.672128241509199142e-03 5.109106302261352539e-01
1.599000000000000000e+03 1.080385327339172363e+00 -2.272030639648437500e+01 3.899139165878295898e-02 -6.114817857742309570e-01 -1.717471182346343994e-01 4.727936387062072754e-01
1.600000000000000000e+03 4.501459121704101562e+00 -2.011056709289550781e+01 6.073117256164550781e-01 1.009188294410705566e+00 4.849500060081481934e-01 7.275493144989013672e-01
1.601000000000000000e+03 1.070347547531127930e+00 -1.318701457977294922e+01 3.329559986013919115e-04 -1.238305568695068359e+00 -3.713918030261993408e-01 -2.009576261043548584e-01
1.602000000000000000e+03 1.733905434608459473e+00 -1.163367462158203125e+01 -5.234814248979091644e-03 -7.760774493217468262e-01 -2.343936860561370850e-01 -2.815572023391723633e-01
1.603000000000000000e+03 1.057572960853576660e+00 4.984916687011718750e+00 3.151043983962154016e-06 -2.074852858413578360e-07 8.830675710669311229e-07 3.398855596969951876e-08
1.604000000000000000e+03 5.632291793823242188e+00 3.949705600738525391e+00 -5.787788722955156118e-06 -1.311697701567027252e-06 -2.129845825038501061e-06 1.370735844830051064e-06
1.605000000000000000e+03 1.777758002281188965e+00 1.201393032073974609e+01 5.327008693711832166e-06 -5.000384135200874880e-06 9.798727518273153692e-08 4.502853698795661330e-06
1.606000000000000000e+03 1.731589078903198242e+00 -1.645497322082519531e+01 9.177537262439727783e-02 -1.144301056861877441e+00 -3.157576918601989746e-01 -1.168144941329956055e-01
1.607000000000000000e+03 1.054325580596923828e+00 -1.641362762451171875e+01 3.252863883972167969e-02 -1.600983738899230957e+00 -4.705365300178527832e-01 -1.000528782606124878e-01
1.608000000000000000e+03 4.343118190765380859e+00 -2.208056640625000000e+01 4.109449684619903564e-01 1.065230250358581543e+00 4.428525567054748535e-01 9.124940037727355957e-01
1.609000000000000000e+03 2.495341539382934570e+00 -2.174612998962402344e+01 2.333822846412658691e-01 -8.848633617162704468e-02 4.346878454089164734e-02 7.238039374351501465e-01
1.610000000000000000e+03 1.744709849357604980e+00 -2.426259613037109375e+01 1.034781057387590408e-02 1.470753699541091919e-01 4.722695425152778625e-02 7.471574544906616211e-01
1.611000000000000000e+03 1.774244427680969238e+00 -1.321242237091064453e+01 1.510562375187873840e-02 -9.197887182235717773e-01 -2.714049220085144043e-01 -2.858534157276153564e-01
1.612000000000000000e+03 1.069588065147399902e+00 -1.479713630676269531e+01 1.360540464520454407e-02 -1.455290913581848145e+00 -4.325056374073028564e-01 -1.713743656873703003e-01
1.613000000000000000e+03 1.068241596221923828e+00 1.375222396850585938e+01 2.444233757614711067e-07 -1.712235984996368643e-06 -4.403437969813239761e-07 -1.609666583135549445e-06
1.614000000000000000e+03 1.782902121543884277e+00 1.603423309326171875e+01 -1.840733148128492758e-06 -2.122270188920083456e-06 -1.188901023851940408e-06 -6.591268686406692723e-08
1.615000000000000000e+03 1.765434265136718750e+00 8.010496139526367188e+00 -6.099621714383829385e-06 1.067059429260552861e-06 -1.509768594587512780e-06 -3.257406433476717211e-07
1.616000000000000000e+03 1.148736715316772461e+00 -3.160305976867675781e+01 -4.075643792748451233e-02 1.693870782852172852e+00 4.959343075752258301e-01 3.275976702570915222e-02
1.617000000000000000e+03 4.043765068054199219e+00 -3.014607810974121094e+01 -4.308394193649291992e-01 6.718941926956176758e-01 7.231643050909042358e-02 3.049954175949096680e-01
1.618000000000000000e+03 2.526606798171997070e+00 -2.918456840515136719e+01 -2.170506268739700317e-01 1.065083026885986328e+00 2.544097006320953369e-01 3.697944581508636475e-01
1.619000000000000000e+03 1.951083421707153320e+00 -2.825328636169433594e+01 -1.671381741762161255e-01 1.076694011688232422e+00 2.728667557239532471e-01 4.740903377532958984e-01
1.620000000000000000e+03 1.730388164520263672e+00 -1.885604095458984375e+01 1.185838133096694946e-01 -1.053898692131042480e+00 -2.805944383144378662e-01 1.799416393041610718e-01
1.621000000000000000e+03 1.778077840805053711e+00 -1.401905822753906250e+01 2.674472704529762268e-02 -9.914590716361999512e-01 -2.894143164157867432e-01 -2.690495550632476807e-01
1.622000000000000000e+03 1.757972717285156250e+00 -8.475462913513183594e+00 -1.991578191518783569e-02 -4.581455588340759277e-01 -1.434184014797210693e-01 -2.306470423936843872e-01
1.623000000000000000e+03 1.739299774169921875e+00 -9.277333259582519531e+00 -2.450641430914402008e-02 -5.369181632995605469e-01 -1.684273779392242432e-01 -2.444491386413574219e-01
1.624000000000000000e+03 1.716326832771301270e+00 -1.085253429412841797e+01 -1.619325019419193268e-02 -7.009363770484924316e-01 -2.151388972997665405e-01 -2.744953334331512451e-01
1.625000000000000000e+03 1.769408106803894043e+00 8.803480148315429688e+00 6.118189958215225488e-06 -2.931227982116979547e-06 9.560886837789439596e-07 1.802498331926472019e-06
1.626000000000000000e+03 1.775924205780029297e+00 1.040719795227050781e+01 6.076340469007845968e-06 -4.080976850673323497e-06 5.986091196064080577e-07 3.214504431525710970e-06
1.627000000000000000e+03 2.486273527145385742e+00 1.189180850982666016e+01 -1.033805619954364374e-05 3.055591832890058868e-06 -2.184739287258707918e-06 -2.280761464135139249e-06
1.628000000000000000e+03 1.778520107269287109e+00 1.362310314178466797e+01 3.958919478463940322e-06 -5.882233836018713191e-06 -5.769942390543292277e-07 5.292608875606674701e-06
1.629000000000000000e+03 1.777265191078186035e+00 1.121010494232177734e+01 -6.287272299232427031e-06 1.477118303228053264e-06 -1.443046244276047219e-06 -1.866340994638449047e-06
1.630000000000000000e+03 1.779456853866577148e+00 1.442798995971679688e+01 -3.779769940592814237e-06 -3.197272064880962716e-07 -1.229849090123025235e-06 -1.600566974957473576e-06
1.631000000000000000e+03 1.785185456275939941e+00 1.684151268005371094e+01 5.400881377681798767e-07 -6.956744982744567096e-06 -1.924996922753052786e-06 3.781671466640545987e-06
1.632000000000000000e+03 1.788509488105773926e+00 1.845329666137695312e+01 3.158833976613095729e-07 -8.611906196165364236e-06 -2.488806785549968481e-06 1.018748434944427572e-06
1.633000000000000000e+03 1.790644645690917969e+00 1.925822830200195312e+01 -4.098960104670368310e-08 -3.417662128413212486e-06 -1.037595552588754799e-06 4.972222996002528816e-06
1.634000000000000000e+03 2.509852170944213867e+00 1.914803886413574219e+01 3.890794232574990019e-06 -7.398116395052056760e-06 -1.052196694217855111e-06 -6.857770529222761979e-08
1.635000000000000000e+03 1.797604084014892578e+00 2.246904754638671875e+01 -7.146066991481347941e-07 1.215698375744977966e-06 1.503274944525401224e-07 4.714926944870967418e-06
1.636000000000000000e+03 1.794351577758789062e+00 2.086902618408203125e+01 -8.316163047084046411e-08 -2.077516683129942976e-06 -6.482035246335726697e-07 5.621582658932311460e-06
1.637000000000000000e+03 6.147453308105468750e+00 -1.999431991577148438e+01 6.766498684883117676e-01 2.522185564041137695e+00 9.596506357192993164e-01 1.038260936737060547e+00
1.638000000000000000e+03 1.693210363388061523e+00 -1.961281013488769531e+01 1.585521697998046875e-01 -9.675375819206237793e-01 -2.426956295967102051e-01 2.738279700279235840e-01
1.639000000000000000e+03 2.026083707809448242e+00 -2.696818590164184570e+00 -4.283135756850242615e-02 -6.446248292922973633e-02 -3.218815475702285767e-02 -9.238072484731674194e-02
1.640000000000000000e+03 1.937304019927978516e+00 -3.319191360473632812e+01 -4.478155076503753662e-02 1.415040612220764160e+00 4.110777378082275391e-01 -4.454182088375091553e-02
1.641000000000000000e+03 1.909626722335815430e+00 -3.237745666503906250e+01 -8.115369826555252075e-02 1.423309326171875000e+00 4.026466608047485352e-01 4.113572183996438980e-03
1.642000000000000000e+03 1.987827301025390625e+00 -3.400781250000000000e+01 -3.004832006990909576e-02 1.396488547325134277e+00 4.099320471286773682e-01 -7.244582474231719971e-02
1.643000000000000000e+03 2.091551303863525391e+00 -3.572674179077148438e+01 -4.908216185867786407e-03 1.308048009872436523e+00 3.909419476985931396e-01 -8.633088320493698120e-02
1.644000000000000000e+03 6.931346893310546875e+01 -1.063422775268554688e+01 7.142221927642822266e-01 1.178861999511718750e+01 3.750852823257446289e+00 -1.891452550888061523e+00
1.645000000000000000e+03 1.505107307434082031e+01 -1.622547531127929688e+01 8.529329299926757812e-01 1.186383608728647232e-02 2.594390213489532471e-01 -2.435354329645633698e-02
1.646000000000000000e+03 9.527918815612792969e+00 -1.495134067535400391e+01 1.174472332000732422e+00 1.024074196815490723e+00 6.595639586448669434e-01 6.637125611305236816e-01
1.647000000000000000e+03 1.958502388000488281e+01 3.443119430541992188e+01 4.296170547604560852e-03 2.903320128098130226e-04 1.375950756482779980e-03 5.317570758052170277e-04
1.648000000000000000e+03 3.903041076660156250e+01 4.659184932708740234e+00 1.738798618316650391e+00 1.122523021697998047e+01 3.889208793640136719e+00 4.212705135345458984e+00
1.649000000000000000e+03 1.626228332519531250e+01 1.279463100433349609e+01 -6.722162652295082808e-05 -2.295132435392588377e-05 -2.705188489926513284e-05 -3.965007272199727595e-05
1.650000000000000000e+03 4.019232940673828125e+01 -1.077336788177490234e+01 6.769586205482482910e-01 1.245997333526611328e+01 3.941079616546630859e+00 6.295202672481536865e-02
1.651000000000000000e+03 1.982922554016113281e+01 4.688705921173095703e+00 2.097082324326038361e-05 9.419386515219230205e-06 9.117062290897592902e-06 1.508926561655243859e-05
1.652000000000000000e+03 1.903507232666015625e+01 2.225026369094848633e+00 3.850225766655057669e-06 1.049911134032299742e-05 4.304801223042886704e-06 5.563724698731675744e-06
1.653000000000000000e+03 3.119559478759765625e+01 -1.653021621704101562e+01 -1.492886066436767578e+00 -6.856246590614318848e-01 -6.535531878471374512e-01 9.239843487739562988e-01
1.654000000000000000e+03 3.726565933227539062e+01 3.588755798339843750e+01 -5.832742527127265930e-02 9.209235310554504395e-01 2.587788403034210205e-01 -4.820396006107330322e-01
1.655000000000000000e+03 6.906050872802734375e+01 -2.492163848876953125e+01 1.367328047752380371e+00 1.305030822753906250e+01 4.325291156768798828e+00 7.888470292091369629e-01
1.656000000000000000e+03 6.995973968505859375e+01 -2.331577682495117188e+01 7.666388750076293945e-01 1.313893604278564453e+01 4.171672344207763672e+00 1.001934781670570374e-01
1.657000000000000000e+03 6.832102203369140625e+01 -1.005923748016357422e+01 8.163273334503173828e-01 1.116101074218750000e+01 3.593201398849487305e+00 -2.696352720260620117e+00
1.658000000000000000e+03 3.442984390258789062e+01 -2.764314460754394531e+01 1.715812921524047852e+00 6.801088333129882812e+00 2.555070400238037109e+00 2.646384954452514648e+00
1.659000000000000000e+03 3.545834732055664062e+01 -2.723885726928710938e+01 1.251315474510192871e+00 7.525297641754150391e+00 2.632983922958374023e+00 1.677696347236633301e+00
1.660000000000000000e+03 3.328926086425781250e+01 -3.202930068969726562e+01 -2.616663873195648193e-01 4.046215534210205078e+00 1.135364651679992676e+00 1.272550702095031738e+00
1.661000000000000000e+03 3.419796371459960938e+01 -2.978986167907714844e+01 5.262621641159057617e-01 5.280858516693115234e+00 1.742136240005493164e+00 1.543226957321166992e+00
1.662000000000000000e+03 2.089837455749511719e+01 -3.458431625366210938e+01 -5.292077064514160156e-01 -4.379198700189590454e-02 -1.718998998403549194e-01 4.306168481707572937e-02
1.663000000000000000e+03 2.250435638427734375e+01 -3.476662445068359375e+01 -4.604303836822509766e-01 3.905923664569854736e-02 -1.264113336801528931e-01 5.527674779295921326e-02
1.664000000000000000e+03 1.085338115692138672e+01 -3.335615158081054688e+01 -6.079762578010559082e-01 -4.370343387126922607e-01 -3.135031759738922119e-01 3.740697801113128662e-01
1.665000000000000000e+03 2.107750701904296875e+01 -3.986514568328857422e+00 4.953144118189811707e-02 -7.883089035749435425e-02 -8.789836429059505463e-03 6.244059652090072632e-02
1.666000000000000000e+03 2.279374504089355469e+01 -3.763230323791503906e+00 4.571193084120750427e-02 -8.255176246166229248e-02 -1.105195004492998123e-02 -3.275553882122039795e-02
1.667000000000000000e+03 1.797182464599609375e+01 5.443482875823974609e+00 9.725739801069721580e-06 1.023440472636139020e-05 5.988043085380923003e-06 1.398891527060186490e-05
1.668000000000000000e+03 1.112975025177001953e+01 -3.241734313964843750e+01 -9.125275611877441406e-01 -4.279911220073699951e-01 -4.021556079387664795e-01 4.892453551292419434e-01
1.669000000000000000e+03 3.653498077392578125e+01 1.214411735534667969e+00 -5.220188498497009277e-01 4.191021919250488281e+00 1.100700974464416504e+00 1.299180865287780762e+00
1.670000000000000000e+03 3.703742599487304688e+01 7.680894136428833008e-01 -1.073222994804382324e+00 5.701137542724609375e+00 1.388374328613281250e+00 1.325680613517761230e+00
1.671000000000000000e+03 5.700184249877929688e+01 -7.356293797492980957e-01 -3.946639776229858398e+00 -9.946619719266891479e-02 -1.213831782341003418e+00 3.697426021099090576e-01
1.672000000000000000e+03 5.597896575927734375e+01 8.621999621391296387e-01 -2.989329099655151367e+00 1.739647537469863892e-01 -8.446093201637268066e-01 -1.299523003399372101e-02
1.673000000000000000e+03 3.560136032104492188e+01 -2.440344238281250000e+01 1.768285512924194336e+00 1.044012737274169922e+01 3.662523746490478516e+00 2.013662815093994141e+00
1.674000000000000000e+03 4.987226867675781250e+01 -2.766731834411621094e+01 -2.188916057348251343e-01 2.197523713111877441e-01 2.582280721981078386e-04 -9.906837716698646545e-03
1.675000000000000000e+03 1.594093799591064453e+01 2.852555847167968750e+01 6.031265947967767715e-04 1.598869130248203874e-04 2.289040567120537162e-04 2.392091482761316001e-05
1.676000000000000000e+03 1.484888648986816406e+01 2.800375938415527344e+01 5.408050492405891418e-04 8.257469744421541691e-05 1.870139240054413676e-04 4.614271165337413549e-05
1.677000000000000000e+03 6.818719863891601562e+00 -1.847042274475097656e+01 1.188015699386596680e+00 2.442450284957885742e+00 1.089139819145202637e+00 1.298422932624816895e+00
1.678000000000000000e+03 7.180414676666259766e+00 -1.773516654968261719e+01 1.570767641067504883e+00 2.177543163299560547e+00 1.124493241310119629e+00 1.177372932434082031e+00
1.679000000000000000e+03 1.612908935546875000e+01 9.106864929199218750e+00 -1.835091279644984752e-05 -2.105146813846658915e-05 -1.182071446237387136e-05 -1.823075763240922242e-05
1.680000000000000000e+03 6.242990493774414062e+01 -2.525110483169555664e+00 -4.316504895687103271e-01 1.946634769439697266e+00 4.544953107833862305e-01 -1.222753286361694336e+00
1.681000000000000000e+03 6.278557205200195312e+01 -1.913618564605712891e+00 -7.803012728691101074e-01 2.812564373016357422e+00 6.096789240837097168e-01 -1.544067859649658203e+00
1.682000000000000000e+03 6.561296081542968750e+01 -3.217217254638671875e+01 -1.732535600662231445e+00 2.089541673660278320e+00 1.071018353104591370e-01 4.083969891071319580e-01
1.683000000000000000e+03 5.836762905120849609e+00 -2.079970359802246094e+01 5.990244746208190918e-01 2.363708496093750000e+00 8.888198733329772949e-01 9.530090093612670898e-01
1.684000000000000000e+03 4.135763168334960938e+01 3.364025115966796875e+01 2.099870890378952026e-02 3.695253849029541016e+00 1.114875793457031250e+00 -5.635057091712951660e-01
1.685000000000000000e+03 1.454203033447265625e+01 -3.376305770874023438e+01 -7.513508796691894531e-01 -2.106987833976745605e-01 -2.886148989200592041e-01 2.464082539081573486e-01
1.686000000000000000e+03 1.766056251525878906e+01 3.391841125488281250e+01 1.078514032997190952e-03 -7.196133956313133240e-04 1.076701882993802428e-04 9.995907312259078026e-04
1.687000000000000000e+03 3.964566802978515625e+01 -3.387210369110107422e+00 4.549139440059661865e-01 9.929560661315917969e+00 3.115342378616333008e+00 1.455025315284729004e+00
1.688000000000000000e+03 4.055304718017578125e+01 -5.875238418579101562e+00 1.091454148292541504e+00 1.294027137756347656e+01 4.209517478942871094e+00 1.675445199012756348e+00
1.689000000000000000e+03 1.420249748229980469e+01 2.358946228027343750e+01 -1.834713621065020561e-04 1.603895907464902848e-05 -5.022972254664637148e-05 4.071184775966685265e-06
1.690000000000000000e+03 4.934316635131835938e+01 -2.704922866821289062e+01 -1.531504392623901367e-01 2.794052660465240479e-01 3.787644580006599426e-02 -5.091849714517593384e-02
1.691000000000000000e+03 2.807742118835449219e+01 -1.679295158386230469e+01 -1.152889966964721680e+00 1.209342852234840393e-02 -3.422389626502990723e-01 6.031994819641113281e-01
1.692000000000000000e+03 3.644521474838256836e+00 -2.686450242996215820e+00 -1.044797673821449280e-01 -3.280839323997497559e-02 -4.118644818663597107e-02 -1.372182667255401611e-01
1.693000000000000000e+03 1.938377976417541504e+00 -5.191432952880859375e+00 -2.898038737475872040e-02 -1.888454705476760864e-01 -6.534775346517562866e-02 -1.630994379520416260e-01
1.694000000000000000e+03 7.585141181945800781e+00 -3.298672676086425781e+00 -2.309457808732986450e-01 6.852750480175018311e-02 -4.872548207640647888e-02 -1.211935430765151978e-01
1.695000000000000000e+03 6.038564682006835938e+00 -3.273900747299194336e+00 -1.857543885707855225e-01 3.304867446422576904e-02 -4.581171274185180664e-02 -1.625637114048004150e-01
1.696000000000000000e+03 5.261952877044677734e+00 -3.365468502044677734e+00 -1.578717827796936035e-01 8.487482555210590363e-03 -4.481529071927070618e-02 -1.746419966220855713e-01
1.697000000000000000e+03 3.645962238311767578e+00 -3.536808252334594727e+00 -9.624326229095458984e-02 -4.708148539066314697e-02 -4.299742355942726135e-02 -1.695953905582427979e-01
1.698000000000000000e+03 4.462396621704101562e+00 -3.475928068161010742e+00 -1.267114430665969849e-01 -1.999531313776969910e-02 -4.401202499866485596e-02 -1.782204359769821167e-01
1.699000000000000000e+03 1.416668033599853516e+01 2.278046226501464844e+01 2.181813324568793178e-04 -5.861488261871272698e-06 6.369595212163403630e-05 2.768150079646147788e-05
1.700000000000000000e+03 8.383350372314453125e+00 -3.315376758575439453e+00 -2.480900585651397705e-01 8.428092300891876221e-02 -4.914274066686630249e-02 -9.432570636272430420e-02
1.701000000000000000e+03 6.862765502929687500e+01 -1.083239459991455078e+01 9.196742177009582520e-01 1.200857257843017578e+01 3.878473997116088867e+00 -2.658347845077514648e+00
1.702000000000000000e+03 5.525227737426757812e+01 9.773049950599670410e-01 -3.157905101776123047e+00 1.949200481176376343e-01 -8.888955116271972656e-01 1.063041388988494873e-01
1.703000000000000000e+03 2.750487899780273438e+01 -3.418873977661132812e+01 -2.469877898693084717e-01 7.754304409027099609e-01 1.585327982902526855e-01 6.436476707458496094e-01
1.704000000000000000e+03 4.342251205444335938e+01 1.727636337280273438e+01 6.623822450637817383e-01 7.521176338195800781e+00 2.455067634582519531e+00 1.386519074440002441e+00
1.705000000000000000e+03 4.127390670776367188e+01 8.278808593750000000e+00 2.022739171981811523e+00 1.113159179687500000e+01 3.946299314498901367e+00 3.886154651641845703e+00
1.706000000000000000e+03 1.705330848693847656e+01 8.642053604125976562e+00 -2.761158248176798224e-05 -1.807744411053135991e-05 -1.370670815958874300e-05 -2.033715099969413131e-05
1.707000000000000000e+03 1.738692665100097656e+01 7.884792804718017578e+00 2.505331940483301878e-05 1.552840876684058458e-05 1.217451790580525994e-05 1.801977668947074562e-05
1.708000000000000000e+03 1.518890285491943359e+01 2.884588241577148438e+01 -1.028085316647775471e-04 5.746657279814826325e-06 -2.911856245191302150e-05 3.044247860088944435e-04
1.709000000000000000e+03 6.427192687988281250e+01 -3.217639160156250000e+01 -2.149387359619140625e+00 5.716477036476135254e-01 -4.733219146728515625e-01 -1.674979478120803833e-01
1.710000000000000000e+03 6.489228820800781250e+01 -3.288340377807617188e+01 -1.775559902191162109e+00 1.467323064804077148e+00 -9.247106313705444336e-02 3.206360340118408203e-01
1.711000000000000000e+03 3.334276580810546875e+01 -1.884640336036682129e+00 -9.919709563255310059e-01 2.818411588668823242e-01 -2.130389362573623657e-01 -2.352101653814315796e-01
1.712000000000000000e+03 1.795344734191894531e+01 -3.246678543090820312e+01 -9.490276575088500977e-01 -6.491167098283767700e-02 -3.041817843914031982e-01 6.642254441976547241e-02
1.713000000000000000e+03 5.026051330566406250e+01 1.823746442794799805e+00 -4.785453796386718750e+00 7.612624764442443848e-02 -1.412798285484313965e+00 3.163709938526153564e-01
1.714000000000000000e+03 6.497396087646484375e+01 -3.425056219100952148e+00 1.514424681663513184e-01 5.672643661499023438e+00 1.747225761413574219e+00 -1.870063900947570801e+00
1.715000000000000000e+03 1.753798675537109375e+01 6.092766761779785156e+00 -1.206339220516383648e-05 -1.274675105378264561e-05 -7.443043159582884982e-06 -1.212677670991979539e-05
1.716000000000000000e+03 1.850959587097167969e+01 5.776898860931396484e+00 -1.850189983088057488e-05 -1.179756873170845211e-05 -9.089841114473529160e-06 -1.691157194727566093e-05
1.717000000000000000e+03 1.891589927673339844e+01 5.141278743743896484e+00 1.559417432872578502e-05 1.192863237520214170e-05 8.256841283582616597e-06 1.695683022262528539e-05
1.718000000000000000e+03 1.644481086730957031e+01 1.018020629882812500e+01 -3.241841477574780583e-05 -2.121227589668706059e-05 -1.608920683793257922e-05 -2.540588502597529441e-05
1.719000000000000000e+03 2.896710586547851562e+01 -2.448858976364135742e+00 -1.099946856498718262e+00 -2.483295053243637085e-01 -4.044829308986663818e-01 -5.598272681236267090e-01
1.720000000000000000e+03 2.910644912719726562e+01 -3.097348451614379883e+00 -5.535058379173278809e-01 -3.561020791530609131e-01 -2.728823721408843994e-01 -6.561654806137084961e-01
1.721000000000000000e+03 4.187338256835937500e+01 1.075115966796875000e+01 1.415738701820373535e+00 1.030514430999755859e+01 3.516264915466308594e+00 3.304030895233154297e+00
1.722000000000000000e+03 3.911349105834960938e+01 -1.762401819229125977e+00 -6.156642436981201172e-01 8.904019355773925781e+00 2.486506462097167969e+00 1.008342862129211426e+00
1.723000000000000000e+03 1.774220657348632812e+01 7.146038055419921875e+00 -2.309094088559504598e-05 -1.439472271158592775e-05 -1.124569917010376230e-05 -1.648349825700279325e-05
1.724000000000000000e+03 5.821802139282226562e+01 -3.488311004638671875e+01 -1.489952206611633301e+00 -6.250067353248596191e-01 -6.344876885414123535e-01 -4.082622528076171875e-01
1.725000000000000000e+03 2.658405876159667969e+01 -3.310938262939453125e+01 -3.466946482658386230e-01 3.184152543544769287e-01 -8.483812212944030762e-03 3.506622612476348877e-01
1.726000000000000000e+03 2.744453811645507812e+01 -3.311907577514648438e+01 -2.292979657649993896e-01 5.137552022933959961e-01 8.533716946840286255e-02 5.369082689285278320e-01
1.727000000000000000e+03 4.113287353515625000e+01 -1.403287506103515625e+01 7.018014788627624512e-01 1.278607940673828125e+01 4.046364307403564453e+00 -1.126012563705444336e+00
1.728000000000000000e+03 1.174457645416259766e+01 -1.563419914245605469e+01 1.727887511253356934e+00 3.817364573478698730e-01 6.328871846199035645e-01 4.165222346782684326e-01
1.729000000000000000e+03 1.199637985229492188e+01 -1.405068683624267578e+01 9.997369647026062012e-01 5.006556510925292969e-01 4.501177966594696045e-01 5.132458209991455078e-01
1.730000000000000000e+03 4.338721847534179688e+01 -1.954174232482910156e+01 4.081349372863769531e-01 4.466193675994873047e+00 1.462298631668090820e+00 -1.540315151214599609e+00
1.731000000000000000e+03 4.389190673828125000e+01 -2.117214584350585938e+01 4.513549059629440308e-02 3.211156845092773438e+00 9.768877029418945312e-01 -9.527525901794433594e-01
1.732000000000000000e+03 1.519520473480224609e+01 -3.938099145889282227e+00 -1.429712325334548950e-01 7.827238179743289948e-03 -4.054319858551025391e-02 1.464518755674362183e-01
1.733000000000000000e+03 4.088643646240234375e+01 -4.286156177520751953e+00 6.516550183296203613e-01 1.237707710266113281e+01 3.908619642257690430e+00 2.406355381011962891e+00
1.734000000000000000e+03 6.811184883117675781e+00 -1.671592903137207031e+01 1.078882336616516113e+00 1.621028304100036621e+00 8.099731802940368652e-01 5.549746751785278320e-01
1.735000000000000000e+03 1.700354814529418945e+00 -2.035215950012207031e+01 1.318096965551376343e-01 -8.384824991226196289e-01 -2.120018303394317627e-01 3.949629664421081543e-01
1.736000000000000000e+03 4.252207946777343750e+01 1.485765838623046875e+01 8.634447455406188965e-01 8.894048690795898438e+00 2.927248001098632812e+00 1.845953464508056641e+00
1.737000000000000000e+03 1.439102935791015625e+01 -1.530047512054443359e+01 1.041855454444885254e+00 4.394309595227241516e-02 3.257395625114440918e-01 2.004153281450271606e-01
1.738000000000000000e+03 1.920238113403320312e+01 3.521070098876953125e+01 7.824735075701028109e-05 -5.708349053747951984e-04 -1.477762561989948153e-04 3.178098122589290142e-04
1.739000000000000000e+03 2.743322563171386719e+01 -3.275679588317871094e+00 -3.089410364627838135e-01 -2.161163687705993652e-01 -1.575172245502471924e-01 -4.646029174327850342e-01
1.740000000000000000e+03 6.891967010498046875e+01 -1.162079524993896484e+01 1.060749292373657227e+00 1.298060894012451172e+01 4.212407112121582031e+00 -2.471544265747070312e+00
1.741000000000000000e+03 2.734649848937988281e+01 -1.692953872680664062e+01 -9.819279313087463379e-01 -1.412064302712678909e-03 -2.950019836425781250e-01 5.182892680168151855e-01
1.742000000000000000e+03 1.590395069122314453e+01 3.052595710754394531e+01 1.253606606042012572e-04 -6.563316856045275927e-05 1.791824615793302655e-05 4.035767051391303539e-04
1.743000000000000000e+03 4.018105316162109375e+01 -9.950046539306640625e+00 8.060815930366516113e-01 1.270802307128906250e+01 4.054231166839599609e+00 3.170641362667083740e-01
1.744000000000000000e+03 4.865743637084960938e+01 3.055278778076171875e+00 -3.330652475357055664e+00 -2.049480974674224854e-01 -1.060680150985717773e+00 1.929805278778076172e-01
1.745000000000000000e+03 6.624886322021484375e+01 -3.280916976928710938e+01 -1.608280539512634277e+00 3.066526174545288086e+00 4.374737143516540527e-01 5.818187594413757324e-01
1.746000000000000000e+03 3.018395805358886719e+01 4.074529647827148438e+01 1.028673723340034485e-01 -4.789562895894050598e-02 1.649152301251888275e-02 7.676675170660018921e-02
1.747000000000000000e+03 1.871333885192871094e+01 -3.313649749755859375e+01 -8.240300416946411133e-01 -5.707611516118049622e-02 -2.643318474292755127e-01 5.303549766540527344e-02
1.748000000000000000e+03 6.984642791748046875e+01 -1.577046012878417969e+01 1.261497020721435547e+00 1.528244304656982422e+01 4.963181972503662109e+00 -1.683903217315673828e+00
1.749000000000000000e+03 4.260613632202148438e+01 1.568922042846679688e+01 7.303637862205505371e-01 8.563557624816894531e+00 2.788176536560058594e+00 1.599145770072937012e+00
1.750000000000000000e+03 1.354192924499511719e+01 -1.510937976837158203e+01 1.164287090301513672e+00 1.532710343599319458e-01 3.952674567699432373e-01 2.878734767436981201e-01
1.751000000000000000e+03 4.031676864624023438e+01 -7.493404865264892578e+00 1.519544959068298340e+00 1.305260467529296875e+01 4.371644973754882812e+00 1.389844655990600586e+00
1.752000000000000000e+03 1.604237556457519531e+01 -3.338996887207031250e+01 -8.138187527656555176e-01 -1.460366547107696533e-01 -2.879566252231597900e-01 1.485456973314285278e-01
1.753000000000000000e+03 1.810951614379882812e+01 -3.426613235473632812e+01 -6.460075974464416504e-01 -1.211895495653152466e-01 -2.301591485738754272e-01 8.239841461181640625e-02
1.754000000000000000e+03 3.480606842041015625e+01 -2.903116607666015625e+01 6.796854734420776367e-01 5.920861244201660156e+00 1.980164051055908203e+00 1.547682762145996094e+00
1.755000000000000000e+03 2.069373130798339844e+01 1.740514755249023438e+00 -7.947784069983754307e-06 -5.627256086881970987e-06 -4.072512183483922854e-06 -6.343607310554943979e-06
1.756000000000000000e+03 1.429387664794921875e+01 2.526301765441894531e+01 -1.152975964942015707e-04 8.462946425424888730e-05 -9.200441127177327871e-06 2.466789374011568725e-05
1.757000000000000000e+03 6.991813659667968750e+01 -1.660715866088867188e+01 9.094417095184326172e-01 1.514715671539306641e+01 4.816979408264160156e+00 -1.433184623718261719e+00
1.758000000000000000e+03 4.283606338500976562e+01 -1.989296722412109375e+01 -7.948493957519531250e-02 5.443484783172607422e+00 1.609200000762939453e+00 -1.086264610290527344e+00
1.759000000000000000e+03 2.318510770797729492e+00 -2.498461151123046875e+01 -2.740009315311908722e-02 4.383056461811065674e-01 1.232716664671897888e-01 8.883537650108337402e-01
1.760000000000000000e+03 1.829080820083618164e+00 -2.649353790283203125e+01 -1.045067980885505676e-01 7.518221735954284668e-01 1.941946148872375488e-01 6.584280729293823242e-01
1.761000000000000000e+03 1.672908973693847656e+01 3.210726547241210938e+01 1.906275138026103377e-04 1.153157427324913442e-04 9.178298205370083451e-05 6.586993113160133362e-04
1.762000000000000000e+03 1.553024864196777344e+01 2.969025802612304688e+01 7.139189401641488075e-04 6.273544568102806807e-05 2.329963172087445855e-04 6.024458343745209277e-05
1.763000000000000000e+03 3.226074600219726562e+01 -1.640998244285583496e+00 -1.868331193923950195e+00 -5.265681743621826172e-01 -7.184697985649108887e-01 -8.378256559371948242e-01
1.764000000000000000e+03 3.653958129882812500e+01 -2.319483184814453125e+01 9.614629745483398438e-01 8.626893997192382812e+00 2.876507043838500977e+00 1.604920983314514160e+00
1.765000000000000000e+03 6.692317199707031250e+01 -3.082403945922851562e+01 -1.492273211479187012e+00 3.951231241226196289e+00 7.376874089241027832e-01 5.812372565269470215e-01
1.766000000000000000e+03 3.413708877563476562e+01 -1.807048606872558594e+01 -2.547196388244628906e+00 1.762166142463684082e+00 -2.355090677738189697e-01 2.108624763786792755e-02
1.767000000000000000e+03 3.376275253295898438e+01 -1.679543685913085938e+01 -1.472058176994323730e+00 1.569281697273254395e+00 2.916705049574375153e-02 -5.979757755994796753e-02
1.768000000000000000e+03 3.081871032714843750e+01 -2.762334823608398438e+00 -7.657669782638549805e-01 -4.897042512893676758e-01 -3.766413629055023193e-01 -7.352703809738159180e-01
1.769000000000000000e+03 3.218211364746093750e+01 -3.031959533691406250e+01 1.053639888763427734e+00 3.296425342559814453e+00 1.305019617080688477e+00 1.852706789970397949e+00
1.770000000000000000e+03 3.283560943603515625e+01 -3.110739517211914062e+01 2.589162886142730713e-01 3.879109859466552734e+00 1.241407871246337891e+00 1.549644947052001953e+00
1.771000000000000000e+03 4.230302810668945312e+01 1.321213150024414062e+01 9.844941496849060059e-01 9.471252441406250000e+00 3.136723995208740234e+00 2.290366172790527344e+00
1.772000000000000000e+03 4.242001342773437500e+01 1.403015136718750000e+01 9.670100808143615723e-01 9.129630088806152344e+00 3.028992176055908203e+00 2.066635131835937500e+00
1.773000000000000000e+03 3.151967287063598633e+00 -2.444646644592285156e+01 -1.677261432632803917e-03 5.281597375869750977e-01 1.579447388648986816e-01 1.023859143257141113e+00
1.774000000000000000e+03 2.825865554809570312e+01 -3.201972961425781250e+00 -4.325336813926696777e-01 -2.764246463775634766e-01 -2.126874923706054688e-01 -5.629780888557434082e-01
1.775000000000000000e+03 6.566584777832031250e+01 -5.628325939178466797e+00 1.646794676780700684e+00 7.378029823303222656e+00 2.707447290420532227e+00 -2.540961742401123047e+00
1.776000000000000000e+03 6.583290863037109375e+01 -4.476686954498291016e+00 7.160927057266235352e-01 6.748038768768310547e+00 2.239239454269409180e+00 -1.885522961616516113e+00
1.777000000000000000e+03 2.420067787170410156e+01 3.955936431884765625e+01 8.939601480960845947e-03 -2.212217636406421661e-02 -3.954772371798753738e-03 1.275823172181844711e-02
1.778000000000000000e+03 2.567555236816406250e+01 3.762273025512695312e+01 -2.726556174457073212e-02 -7.800119463354349136e-03 -1.051970385015010834e-02 2.097133547067642212e-02
1.779000000000000000e+03 6.421670532226562500e+01 -2.940483331680297852e+00 -6.335780024528503418e-02 4.629087924957275391e+00 1.369719028472900391e+00 -1.889307022094726562e+00
1.780000000000000000e+03 5.503609657287597656e+00 -1.969359970092773438e+01 7.392014861106872559e-01 1.809204816818237305e+00 7.645218968391418457e-01 8.823729753494262695e-01
1.781000000000000000e+03 1.676150512695312500e+01 -1.612622642517089844e+01 5.752514004707336426e-01 -7.723416388034820557e-02 1.494051665067672729e-01 5.493405088782310486e-02
1.782000000000000000e+03 3.375203704833984375e+01 3.793051528930664062e+01 -2.568662911653518677e-02 9.534555673599243164e-02 2.089767903089523315e-02 3.072144091129302979e-02
1.783000000000000000e+03 4.044955825805664062e+01 -1.408753204345703125e+01 6.045760512351989746e-01 1.164124774932861328e+01 3.673747062683105469e+00 -8.846410512924194336e-01
1.784000000000000000e+03 3.166927337646484375e+01 -2.523759126663208008e+00 -8.509613871574401855e-01 -4.357325136661529541e-01 -3.860081732273101807e-01 -6.531792283058166504e-01
1.785000000000000000e+03 6.221732711791992188e+01 -3.455462265014648438e+01 -1.463588953018188477e+00 -1.189980506896972656e-01 -4.747760891914367676e-01 -6.783345341682434082e-02
1.786000000000000000e+03 1.127248191833496094e+01 2.963542461395263672e+00 -5.519907972484361380e-06 -7.152115813369164243e-06 -3.801607135756057687e-06 1.786473376341746189e-06
1.787000000000000000e+03 8.860550880432128906e+00 3.146994590759277344e+00 4.681392965721897781e-06 4.237826942699030042e-06 2.675765927051543258e-06 -1.615096266505133826e-06
1.788000000000000000e+03 4.226313018798828125e+01 -1.887552380561828613e+00 1.355563759803771973e+00 1.183869075775146484e+01 3.958276510238647461e+00 2.518599510192871094e+00
1.789000000000000000e+03 6.890711212158203125e+01 -2.768952560424804688e+01 -2.646771073341369629e-01 8.888730049133300781e+00 2.587215900421142578e+00 5.167211890220642090e-01
1.790000000000000000e+03 4.285289764404296875e+01 8.855056762695312500e-01 -2.910621166229248047e+00 8.757040977478027344e+00 1.753925919532775879e+00 1.576432108879089355e+00
1.791000000000000000e+03 3.061125373840332031e+01 -3.127054595947265625e+01 5.334940552711486816e-01 1.780137658119201660e+00 6.940895318984985352e-01 1.382280588150024414e+00
1.792000000000000000e+03 1.286882305145263672e+01 2.446148300170898438e+01 1.157647420768626034e-04 -2.936577584478072822e-05 2.591968950582668185e-05 -6.740624667145311832e-05
1.793000000000000000e+03 4.229607009887695312e+01 -1.920005035400390625e+01 -1.235030964016914368e-01 6.999996185302734375e+00 2.062947988510131836e+00 -9.628142714500427246e-01
1.794000000000000000e+03 1.450052642822265625e+01 2.712439537048339844e+01 -1.517827768111601472e-04 -3.470269803074188530e-05 -5.594564572675153613e-05 1.458941260352730751e-04
1.795000000000000000e+03 1.431992340087890625e+01 2.618284416198730469e+01 2.690697438083589077e-04 -1.314386900048702955e-04 4.128931686864234507e-05 5.230896567809395492e-05
1.796000000000000000e+03 5.668523406982421875e+01 -3.310667800903320312e+01 -2.109949588775634766e+00 -4.043607711791992188e-01 -7.542930841445922852e-01 9.911634027957916260e-02
1.797000000000000000e+03 5.613917541503906250e+01 -3.413885116577148438e+01 -1.605019688606262207e+00 -2.414205968379974365e-01 -5.539320707321166992e-01 -2.719575762748718262e-01
1.798000000000000000e+03 4.131007003784179688e+01 -2.634156703948974609e+00 9.372651576995849609e-01 1.149004840850830078e+01 3.728194236755371094e+00 2.185743093490600586e+00
1.799000000000000000e+03 8.858633041381835938e+00 -1.486610412597656250e+01 9.368354678153991699e-01 1.218941211700439453e+00 6.467329859733581543e-01 6.239336729049682617e-01
1.800000000000000000e+03 3.847159624099731445e+00 -1.968284034729003906e+01 5.066884160041809082e-01 4.947985112667083740e-01 3.004460632801055908e-01 5.734470486640930176e-01
1.801000000000000000e+03 4.796263694763183594e+00 -2.134688758850097656e+01 5.264253020286560059e-01 1.348340153694152832e+00 5.624296665191650391e-01 8.771539330482482910e-01
1.802000000000000000e+03 4.166124725341796875e+01 3.274993896484375000e+01 2.069148719310760498e-01 4.116909503936767578e+00 1.297147274017333984e+00 -6.087297201156616211e-01
1.803000000000000000e+03 5.950650787353515625e+01 -6.482931971549987793e-01 -2.388237237930297852e+00 4.765183925628662109e-01 -5.735156536102294922e-01 -4.200975894927978516e-01
1.804000000000000000e+03 3.720451354980468750e+01 -2.133065986633300781e+01 9.039098396897315979e-03 7.730842590332031250e+00 2.321964502334594727e+00 1.664780855178833008e+00
1.805000000000000000e+03 6.974011993408203125e+01 -1.492766475677490234e+01 1.635495543479919434e+00 1.511461925506591797e+01 5.025034427642822266e+00 -1.838028550148010254e+00
1.806000000000000000e+03 6.940971374511718750e+01 -1.324664211273193359e+01 1.622498154640197754e+00 1.441510581970214844e+01 4.811281204223632812e+00 -2.094398260116577148e+00
1.807000000000000000e+03 2.932779693603515625e+01 -3.287242507934570312e+01 -5.365304648876190186e-02 1.231475114822387695e+00 3.533466160297393799e-01 1.051281213760375977e+00
1.808000000000000000e+03 1.850929260253906250e+01 -4.117084503173828125e+00 -1.564338430762290955e-02 -4.939616844058036804e-02 -1.951186545193195343e-02 1.510365009307861328e-01
1.809000000000000000e+03 1.936537170410156250e+01 -4.100986003875732422e+00 1.190793700516223907e-02 -6.265304237604141235e-02 -1.522353105247020721e-02 1.274320781230926514e-01
1.810000000000000000e+03 6.033697509765625000e+01 -3.491380691528320312e+01 -1.439256191253662109e+00 -6.382796168327331543e-01 -6.232607364654541016e-01 -3.713058233261108398e-01
1.811000000000000000e+03 6.630757141113281250e+01 -5.236515522003173828e+00 1.061691522598266602e+00 7.279349327087402344e+00 2.502312421798706055e+00 -2.006185531616210938e+00
1.812000000000000000e+03 2.441965675354003906e+01 -3.541636228561401367e+00 -1.844420656561851501e-02 -8.801065385341644287e-02 -3.193645924329757690e-02 -1.558135151863098145e-01
1.813000000000000000e+03 1.204250049591064453e+01 -3.261498260498046875e+01 -9.416397809982299805e-01 -3.105843961238861084e-01 -3.756672441959381104e-01 4.404239058494567871e-01
1.814000000000000000e+03 4.471163558959960938e+01 1.303558468818664551e+00 -4.431324481964111328e+00 3.706696033477783203e+00 -2.173885554075241089e-01 1.605686306953430176e+00
1.815000000000000000e+03 3.870508575439453125e+01 2.896765947341918945e+00 -2.212473303079605103e-01 9.453448295593261719e+00 2.769660234451293945e+00 2.362841606140136719e+00
1.816000000000000000e+03 4.008595275878906250e+01 6.914896488189697266e+00 2.262009620666503906e+00 1.296639919281005859e+01 4.568522453308105469e+00 4.587743282318115234e+00
1.817000000000000000e+03 6.750530242919921875e+01 -3.009784889221191406e+01 -1.294939398765563965e+00 5.157941818237304688e+00 1.158900737762451172e+00 5.809658169746398926e-01
1.818000000000000000e+03 6.803434753417968750e+01 -2.933192634582519531e+01 -9.680520296096801758e-01 6.337135791778564453e+00 1.610725164413452148e+00 5.525244474411010742e-01
1.819000000000000000e+03 4.185345077514648438e+01 -8.405401706695556641e-01 -5.150557160377502441e-01 1.055199718475341797e+01 3.011082410812377930e+00 1.174611806869506836e+00
1.820000000000000000e+03 1.267809581756591797e+01 -1.496582221984863281e+01 1.267108321189880371e+00 3.145014643669128418e-01 4.744829535484313965e-01 3.958978056907653809e-01
1.821000000000000000e+03 4.296568679809570312e+01 2.722920036315917969e+01 5.704806447029113770e-01 6.005503177642822266e+00 1.972795128822326660e+00 -3.645633161067962646e-01
1.822000000000000000e+03 4.296496963500976562e+01 2.814434623718261719e+01 7.145425081253051758e-01 5.751423358917236328e+00 1.939789772033691406e+00 -3.481933772563934326e-01
1.823000000000000000e+03 6.950596618652343750e+01 -2.597344207763671875e+01 5.936524868011474609e-01 1.122766494750976562e+01 3.546395301818847656e+00 8.115769177675247192e-02
1.824000000000000000e+03 7.067253875732421875e+01 -2.342459297180175781e+01 8.157643675804138184e-01 1.232565021514892578e+01 3.942424297332763672e+00 -3.514214158058166504e-01
1.825000000000000000e+03 1.834308505058288574e+00 3.385104656219482422e+00 -2.609361672512022778e-06 -4.108988491680065636e-07 -9.060781280822993722e-07 1.290720632596276118e-07
1.826000000000000000e+03 1.088590264320373535e+00 3.428915262222290039e+00 2.232756287412485108e-06 1.263714040078411927e-07 7.077383088471833616e-07 2.179209879216159607e-08
1.827000000000000000e+03 4.037616729736328125e+01 5.896539688110351562e+00 1.593570828437805176e+00 1.144274711608886719e+01 3.910895347595214844e+00 3.782383680343627930e+00
1.828000000000000000e+03 4.133893585205078125e+01 -1.761519813537597656e+01 4.201810657978057861e-01 9.423539161682128906e+00 2.953116178512573242e+00 -5.628507137298583984e-01
1.829000000000000000e+03 5.431822967529296875e+01 -3.274531936645507812e+01 -1.328330159187316895e+00 6.659874320030212402e-02 -3.785194158554077148e-01 5.799267068505287170e-02
1.830000000000000000e+03 3.786437225341796875e+01 -2.330250167846679688e+01 9.352698326110839844e-01 7.221923351287841797e+00 2.447157859802246094e+00 1.450595736503601074e+00
1.831000000000000000e+03 3.579154205322265625e+01 -2.642027282714843750e+01 1.492470979690551758e+00 8.213051795959472656e+00 2.911656856536865234e+00 1.546156644821166992e+00
1.832000000000000000e+03 3.608433151245117188e+01 -2.558372879028320312e+01 1.693291902542114258e+00 8.532934188842773438e+00 3.067867755889892578e+00 1.409033775329589844e+00
1.833000000000000000e+03 2.640052318572998047e+00 -2.842031860351562500e+01 -2.796691060066223145e-01 9.706133008003234863e-01 2.072832584381103516e-01 5.353801250457763672e-01
1.834000000000000000e+03 4.546624374389648438e+01 1.604431867599487305e+00 -5.597286224365234375e+00 1.293662190437316895e+00 -1.291087150573730469e+00 1.824034214019775391e+00
1.835000000000000000e+03 4.360263061523437500e+01 6.026367664337158203e+00 7.118476033210754395e-01 6.400884628295898438e+00 2.133819580078125000e+00 2.915632963180541992e+00
1.836000000000000000e+03 2.930135345458984375e+01 3.913386917114257812e+01 -4.523768555372953415e-03 -5.353982746601104736e-02 -1.741907931864261627e-02 8.182330429553985596e-02
1.837000000000000000e+03 2.009946823120117188e+00 -3.520800352096557617e+00 -3.675707057118415833e-02 -9.975628554821014404e-02 -4.095400869846343994e-02 -1.187519356608390808e-01
1.838000000000000000e+03 2.970629501342773438e+01 -1.559831333160400391e+01 -5.525223612785339355e-01 -3.494288921356201172e-01 -2.705853879451751709e-01 1.156934857368469238e+00
1.839000000000000000e+03 3.477566909790039062e+01 -1.867037010192871094e+01 -2.756154775619506836e+00 4.331801414489746094e+00 4.726939797401428223e-01 7.565451413393020630e-02
1.840000000000000000e+03 4.617472839355468750e+01 1.915001630783081055e+00 -4.951604366302490234e+00 -5.772742033004760742e-01 -1.658663511276245117e+00 1.639770984649658203e+00
1.841000000000000000e+03 8.027680397033691406e+00 -1.550306129455566406e+01 1.055265426635742188e+00 1.518700003623962402e+00 7.721896767616271973e-01 5.791805982589721680e-01
1.842000000000000000e+03 2.193899917602539062e+01 -3.884355306625366211e+00 5.383045971393585205e-02 -7.772219926118850708e-02 -7.167521398514509201e-03 2.172128856182098389e-02
1.843000000000000000e+03 2.196072578430175781e+01 -4.598742961883544922e+00 1.310344934463500977e-01 -1.226521953940391541e-01 2.514688298106193542e-03 2.953870035707950592e-02
1.844000000000000000e+03 3.657522201538085938e+01 -1.920853614807128906e+01 -1.581305861473083496e+00 7.269204139709472656e+00 1.706369519233703613e+00 1.523946046829223633e+00
1.845000000000000000e+03 8.568268775939941406e+00 -3.116074180603027344e+01 -9.701292514801025391e-01 -5.682362318038940430e-01 -4.615096449851989746e-01 4.395629167556762695e-01
1.846000000000000000e+03 9.356735229492187500e+00 -3.165943717956542969e+01 -9.301710128784179688e-01 -6.013476848602294922e-01 -4.594556093215942383e-01 4.452452063560485840e-01
1.847000000000000000e+03 3.245925140380859375e+01 -1.634059906005859375e+01 -1.206645488739013672e+00 6.443476676940917969e-02 -3.426632285118103027e-01 4.601826965808868408e-01
1.848000000000000000e+03 3.184939956665039062e+01 -1.627384567260742188e+01 -1.322671175003051758e+00 -6.197127699851989746e-01 -5.827152132987976074e-01 7.390281558036804199e-01
1.849000000000000000e+03 6.721788787841796875e+01 -6.872836112976074219e+00 9.588310122489929199e-01 8.438846588134765625e+00 2.819303274154663086e+00 -2.433463335037231445e+00
1.850000000000000000e+03 3.594434738159179688e+01 -1.868975257873535156e+01 -2.098160743713378906e+00 6.381860256195068359e+00 1.285109877586364746e+00 9.739429950714111328e-01
1.851000000000000000e+03 3.534963607788085938e+01 -1.816910362243652344e+01 -2.423468589782714844e+00 5.224718570709228516e+00 8.403750658035278320e-01 4.856984615325927734e-01
1.852000000000000000e+03 4.582615661621093750e+01 2.536466598510742188e+00 -3.573773860931396484e+00 9.832347035408020020e-01 -7.771617770195007324e-01 2.135851383209228516e+00
1.853000000000000000e+03 2.578552055358886719e+01 -2.613337278366088867e+00 -2.868561148643493652e-01 -4.415770620107650757e-02 -9.930413961410522461e-02 -2.029124051332473755e-01
1.854000000000000000e+03 6.745417022705078125e+01 -7.743237972259521484e+00 7.857942581176757812e-01 9.125971794128417969e+00 2.973529815673828125e+00 -2.667832374572753906e+00
1.855000000000000000e+03 4.345988750457763672e+00 -3.992953872680664062e+01 7.448953390121459961e-02 7.527199983596801758e-01 2.481628656387329102e-01 -5.576317757368087769e-02
1.856000000000000000e+03 1.637236118316650391e+00 -4.063767242431640625e+01 1.281375624239444733e-02 1.364865422248840332e+00 4.133037328720092773e-01 -4.188365489244461060e-02
1.857000000000000000e+03 2.808893775939941406e+01 3.770532989501953125e+01 -6.395198404788970947e-02 -5.476033780723810196e-03 -2.082840539515018463e-02 5.254013836383819580e-02
1.858000000000000000e+03 3.273565292358398438e+01 3.774021148681640625e+01 -1.249245479702949524e-01 -1.066480726003646851e-01 -6.947178393602371216e-02 1.296735107898712158e-01
1.859000000000000000e+03 3.191418647766113281e+01 3.790341567993164062e+01 -1.601084023714065552e-01 5.165310949087142944e-02 -3.253658860921859741e-02 6.150213629007339478e-02
1.860000000000000000e+03 3.604857635498046875e+01 3.799789428710937500e+01 4.600707907229661942e-03 6.332584023475646973e-01 1.913577318191528320e-01 -2.189802229404449463e-01
1.861000000000000000e+03 3.162020492553710938e+01 3.951358795166015625e+01 6.551069766283035278e-02 6.021842360496520996e-02 3.771873563528060913e-02 4.273327440023422241e-02
1.862000000000000000e+03 4.070784378051757812e+01 6.682698249816894531e+00 1.896204829216003418e+00 1.142186927795410156e+01 3.995422124862670898e+00 3.924737215042114258e+00
1.863000000000000000e+03 4.150517272949218750e+01 9.092692375183105469e+00 1.895733594894409180e+00 1.086781597137451172e+01 3.829064846038818359e+00 3.747057676315307617e+00
1.864000000000000000e+03 1.770769119262695312e+01 2.197377681732177734e+00 2.679914359760005027e-06 1.252650235983310267e-05 4.561924924928462133e-06 2.305037469341186807e-06
1.865000000000000000e+03 1.836679267883300781e+01 2.189754724502563477e+00 -2.981778607136220671e-06 -1.182212599815102294e-05 -4.441171313374070451e-06 -4.136252300668274984e-06
1.866000000000000000e+03 9.853127479553222656e+00 -4.062477588653564453e+00 -2.314098775386810303e-01 1.225169301033020020e-01 -3.266788646578788757e-02 -4.189643263816833496e-02
1.867000000000000000e+03 1.057332515716552734e+01 -4.112267017364501953e+00 -2.257044315338134766e-01 1.192954480648040771e-01 -3.192269429564476013e-02 -8.972491137683391571e-03
1.868000000000000000e+03 5.086587905883789062e+01 1.493313074111938477e+00 -4.576349735260009766e+00 2.091689705848693848e-01 -1.310154199600219727e+00 5.196432471275329590e-01
1.869000000000000000e+03 5.216807556152343750e+01 9.477233886718750000e-01 -4.252413272857666016e+00 3.705186843872070312e-01 -1.164568424224853516e+00 6.501455307006835938e-01
1.870000000000000000e+03 2.178874969482421875e+01 -1.671347427368164062e+01 7.233615219593048096e-02 -5.813889950513839722e-02 4.259175620973110199e-03 2.089538723230361938e-01
1.871000000000000000e+03 2.241210746765136719e+01 -1.749387359619140625e+01 -4.799575358629226685e-02 -1.668422669172286987e-02 -1.940399408340454102e-02 1.557038724422454834e-01
1.872000000000000000e+03 1.639424896240234375e+01 2.332674264907836914e+00 5.991030775476247072e-06 1.213299128721700981e-05 5.437206255010096356e-06 -8.707185656930960249e-07
1.873000000000000000e+03 1.861718177795410156e+01 3.527924776077270508e+00 2.943776280517340638e-06 1.434555360901867971e-05 5.186799171497114003e-06 6.130193469289224595e-06
1.874000000000000000e+03 1.431527709960937500e+01 3.332756519317626953e+00 4.775651177624240518e-06 1.342505493084900081e-05 5.460211923491442576e-06 3.306181550755127319e-09
1.875000000000000000e+03 1.504073143005371094e+01 2.521116495132446289e+00 7.309945885936031118e-06 1.051043182087596506e-05 5.346113084669923410e-06 6.108392085479863454e-07
1.876000000000000000e+03 1.907292938232421875e+01 -1.621486091613769531e+01 3.394582271575927734e-01 -9.833145886659622192e-02 7.233802974224090576e-02 1.304558217525482178e-01
1.877000000000000000e+03 1.432774066925048828e+01 2.609078168869018555e+00 -5.689147656084969640e-06 -1.076776516129029915e-05 -4.937073754263110459e-06 -8.027164994928170927e-07
1.878000000000000000e+03 1.357075023651123047e+01 3.397454977035522461e+00 -5.109499852551380172e-06 -1.227797019964782521e-05 -5.216240879235556349e-06 1.464427896280540153e-06
1.879000000000000000e+03 1.130005741119384766e+01 -4.180100917816162109e+00 -2.152050882577896118e-01 1.111713871359825134e-01 -3.121010959148406982e-02 2.302964590489864349e-02
1.880000000000000000e+03 1.838784599304199219e+01 -1.598666572570800781e+01 4.255824685096740723e-01 -1.036735698580741882e-01 9.657266736030578613e-02 1.307429671287536621e-01
1.881000000000000000e+03 1.210072708129882812e+01 -3.583384275436401367e+00 -2.436680197715759277e-01 7.059376686811447144e-02 -5.192227661609649658e-02 4.774112254381179810e-02
1.882000000000000000e+03 3.964852905273437500e+01 -1.328346252441406250e+01 5.701600313186645508e-01 1.070695590972900391e+01 3.383134603500366211e+00 -4.800291061401367188e-01
1.883000000000000000e+03 3.957757949829101562e+01 -1.244073390960693359e+01 6.065194010734558105e-01 1.091404628753662109e+01 3.456169605255126953e+00 -2.989990711212158203e-01
1.884000000000000000e+03 1.504042434692382812e+01 3.268472671508789062e+00 -7.612505214638076723e-06 -1.305967907683225349e-05 -6.201655196491628885e-06 -2.179854845962836407e-06
1.885000000000000000e+03 2.187135887145996094e+01 -1.597718715667724609e+01 1.351094394922256470e-01 -1.007322520017623901e-01 1.031315792351961136e-02 2.907950878143310547e-01
1.886000000000000000e+03 9.117813110351562500e+00 -4.034435272216796875e+00 -2.294839173555374146e-01 1.202601864933967590e-01 -3.276711702346801758e-02 -7.309409230947494507e-02
1.887000000000000000e+03 2.031696701049804688e+01 -1.726017761230468750e+01 1.508394479751586914e-01 -5.280504003167152405e-02 2.941032312810420990e-02 1.093702688813209534e-01
1.888000000000000000e+03 2.111297607421875000e+01 -1.664386749267578125e+01 1.386312395334243774e-01 -7.364013791084289551e-02 1.949732936918735504e-02 1.932850778102874756e-01
1.889000000000000000e+03 2.849259185791015625e+01 -1.600091171264648438e+01 -7.423336505889892578e-01 -1.771340072154998779e-01 -2.758402824401855469e-01 9.370020031929016113e-01
1.890000000000000000e+03 1.984384727478027344e+01 -3.496606826782226562e+01 -5.254616141319274902e-01 -9.310252964496612549e-02 -1.855692416429519653e-01 6.527799367904663086e-02
1.891000000000000000e+03 2.003528404235839844e+01 -3.345732498168945312e+01 -7.428017854690551758e-01 -4.790557548403739929e-02 -2.372122108936309814e-01 1.337455864995718002e-02
1.892000000000000000e+03 2.491908454895019531e+01 -1.658876609802246094e+01 -3.066181242465972900e-01 -3.226138278841972351e-02 -1.016638502478599548e-01 4.215272665023803711e-01
1.893000000000000000e+03 2.652775001525878906e+01 -3.393586730957031250e+01 -3.019384741783142090e-01 4.838604032993316650e-01 5.457658320665359497e-02 4.158785343170166016e-01
1.894000000000000000e+03 2.660511207580566406e+01 -1.705698966979980469e+01 -7.373413443565368652e-01 2.379517257213592529e-02 -2.140638530254364014e-01 4.045492410659790039e-01
1.895000000000000000e+03 1.768703460693359375e+01 -1.572354221343994141e+01 5.074239969253540039e-01 -1.056222021579742432e-01 1.205405443906784058e-01 1.266012489795684814e-01
1.896000000000000000e+03 4.070751571655273438e+01 -5.082534790039062500e+00 6.911941170692443848e-01 1.280381393432617188e+01 4.048502445220947266e+00 2.069839239120483398e+00
1.897000000000000000e+03 2.310231208801269531e+01 -1.752065467834472656e+01 -1.230186745524406433e-01 -1.816746406257152557e-02 -4.235584288835525513e-02 1.839711666107177734e-01
1.898000000000000000e+03 3.567545700073242188e+01 -4.845616519451141357e-01 -1.140573382377624512e+00 3.010700702667236328e+00 5.610381960868835449e-01 7.246057391166687012e-01
1.899000000000000000e+03 5.291528701782226562e+01 -3.229246520996093750e+01 -9.834602475166320801e-01 2.844360768795013428e-01 -2.097072452306747437e-01 -1.957967132329940796e-02
1.900000000000000000e+03 5.324620437622070312e+01 -3.143272781372070312e+01 -9.101380705833435059e-01 8.625296503305435181e-02 -2.471655309200286865e-01 2.136375904083251953e-01
1.901000000000000000e+03 1.362400150299072266e+01 -3.764665603637695312e+00 -2.007408887147903442e-01 4.053503274917602539e-02 -4.806175827980041504e-02 1.038758009672164917e-01
1.902000000000000000e+03 9.625715255737304688e+00 3.760613203048706055e+00 6.116269105405081064e-06 5.569290351559175178e-06 3.505667791614541784e-06 -3.052268539249780588e-06
1.903000000000000000e+03 4.719932937622070312e+01 -2.474885177612304688e+01 4.087224230170249939e-02 7.097026705741882324e-01 2.251724749803543091e-01 -2.814837694168090820e-01
1.904000000000000000e+03 4.770761871337890625e+01 -2.632662963867187500e+01 -1.502883154898881912e-02 7.623218894004821777e-01 2.241879105567932129e-01 -2.967399656772613525e-01
1.905000000000000000e+03 3.760380172729492188e+01 -2.231686782836914062e+01 4.550969004631042480e-01 7.622774124145507812e+00 2.423361301422119141e+00 1.675151705741882324e+00
1.906000000000000000e+03 1.536975860595703125e+01 1.334193325042724609e+01 -4.117825301364064217e-05 -2.894274803111329675e-05 -2.103630140481982380e-05 -3.698020736919716001e-05
1.907000000000000000e+03 5.499688720703125000e+01 3.143942356109619141e-01 -3.660985469818115234e+00 6.106623634696006775e-02 -1.079975724220275879e+00 3.740517795085906982e-01
1.908000000000000000e+03 5.385039520263671875e+01 1.225119709968566895e+00 -3.471398353576660156e+00 3.141101300716400146e-01 -9.471864700317382812e-01 2.903173565864562988e-01
1.909000000000000000e+03 1.805316567420959473e+00 4.145426273345947266e+00 3.129128799628233537e-06 3.970549755649699364e-08 9.506503033662738744e-07 6.463314861093749641e-08
1.910000000000000000e+03 2.591160297393798828e+00 3.348990678787231445e+00 2.854102604032959789e-06 3.581095029403513763e-07 9.636636377763352357e-07 3.439700790863753355e-08
1.911000000000000000e+03 2.488909721374511719e+00 6.347448825836181641e+00 6.174070676934206858e-06 -1.385118935104401316e-06 1.436685465705522802e-06 2.379772894300913322e-07
1.912000000000000000e+03 7.216080665588378906e+00 3.890705347061157227e+00 -6.558757831953698769e-06 -2.456415131746325642e-06 -2.704551889110007323e-06 2.018989107455126941e-06
1.913000000000000000e+03 8.015624046325683594e+00 3.854536771774291992e+00 6.011955065332585946e-06 3.550001338226138614e-06 2.868586989279720001e-06 -2.248440068797208369e-06
1.914000000000000000e+03 1.770722031593322754e+00 5.670985698699951172e+00 4.377073310024570674e-06 -6.346308509819209576e-07 1.122732783187530003e-06 2.000930692247493425e-07
1.915000000000000000e+03 3.246034383773803711e+00 5.518466949462890625e+00 6.087394922360545024e-06 -6.826012963756511454e-07 1.621438059373758733e-06 -2.838330601662164554e-07
1.916000000000000000e+03 4.032581329345703125e+00 4.725418567657470703e+00 5.657436304318252951e-06 1.740066153388397652e-07 1.749432840369991027e-06 -6.004973442941263784e-07
1.917000000000000000e+03 3.355655908584594727e+00 3.319516658782958984e+00 -3.444341473368695006e-06 -6.690507916573551483e-07 -1.234017645401763730e-06 3.661143352928775130e-07
1.918000000000000000e+03 1.356675910949707031e+01 -4.430905818939208984e+00 -1.503528803586959839e-01 6.400733441114425659e-02 -2.590366266667842865e-02 1.176805868744850159e-01
1.919000000000000000e+03 2.002573776245117188e+01 3.134668111801147461e+00 -9.777483683137688786e-06 -9.770845281309448183e-06 -5.864498689334141091e-06 -1.044660257321083918e-05
1.920000000000000000e+03 1.967738723754882812e+01 3.828161954879760742e+00 1.142099063144996762e-05 1.157287624664604664e-05 6.898159881529863924e-06 1.313763914367882535e-05
1.921000000000000000e+03 1.280613994598388672e+01 3.473710775375366211e+00 5.201958174438914284e-06 1.094610979635035619e-05 4.844420345762046054e-06 -2.793889507302083075e-06
1.922000000000000000e+03 4.380163574218750000e+01 -2.220027923583984375e+01 -1.135743316262960434e-02 3.248947381973266602e+00 9.712769985198974609e-01 -7.438494563102722168e-01
1.923000000000000000e+03 6.840625000000000000e+01 -8.337484359741210938e+00 5.322439670562744141e-01 9.850710868835449219e+00 3.114886522293090820e+00 -2.212905883789062500e+00
1.924000000000000000e+03 1.644738578796386719e+01 8.331848144531250000e+00 1.678144872130360454e-05 1.825084837037138641e-05 1.050968967319931835e-05 1.587119004398118705e-05
1.925000000000000000e+03 4.272175979614257812e+01 1.733719825744628906e+01 4.495077729225158691e-01 7.997830390930175781e+00 2.534201383590698242e+00 1.151719212532043457e+00
1.926000000000000000e+03 1.300961971282958984e+01 -3.347325134277343750e+01 -7.542440891265869141e-01 -2.793493866920471191e-01 -3.100780546665191650e-01 3.331439197063446045e-01
1.927000000000000000e+03 4.352568435668945312e+01 1.976424026489257812e+01 3.291248977184295654e-01 6.932511329650878906e+00 2.178490877151489258e+00 8.599221706390380859e-01
1.928000000000000000e+03 4.275763320922851562e+01 1.816548728942871094e+01 3.833869397640228271e-01 7.642252445220947266e+00 2.407691717147827148e+00 9.786832332611083984e-01
1.929000000000000000e+03 1.849223709106445312e+01 -4.791386604309082031e+00 4.408550262451171875e-02 -6.332609057426452637e-02 -5.772177129983901978e-03 1.713808327913284302e-01
1.930000000000000000e+03 1.683154869079589844e+01 -4.067137241363525391e+00 -7.784179598093032837e-02 -2.295779809355735779e-02 -3.023987822234630585e-02 1.652229130268096924e-01
1.931000000000000000e+03 7.069802093505859375e+01 -1.818796920776367188e+01 5.120823383331298828e-01 1.388105678558349609e+01 4.317941665649414062e+00 -1.165014386177062988e+00
1.932000000000000000e+03 7.065701293945312500e+01 -1.736045837402343750e+01 7.510037422180175781e-01 1.399392795562744141e+01 4.423479557037353516e+00 -1.304385066032409668e+00
1.933000000000000000e+03 5.250683975219726562e+01 -3.095458030700683594e+01 -7.426204085350036621e-01 1.305118948221206665e-01 -1.836325675249099731e-01 1.536550372838973999e-01
1.934000000000000000e+03 4.381389236450195312e+01 3.030919075012207031e+01 4.828760623931884766e-01 5.040778636932373047e+00 1.657096385955810547e+00 -6.891254335641860962e-02
1.935000000000000000e+03 4.358472442626953125e+01 3.141454315185546875e+01 3.248442113399505615e-01 4.802245140075683594e+00 1.538126707077026367e+00 -7.861758023500442505e-02
1.936000000000000000e+03 4.024044418334960938e+01 -8.313442230224609375e+00 1.268254280090332031e+00 1.303325939178466797e+01 4.290453910827636719e+00 1.168238759040832520e+00
1.937000000000000000e+03 3.950768280029296875e+01 -1.076364326477050781e+01 8.840433955192565918e-01 1.118324184417724609e+01 3.620185613632202148e+00 2.059547901153564453e-01
1.938000000000000000e+03 1.204227542877197266e+01 -4.259288311004638672e+00 -1.982336640357971191e-01 9.950466454029083252e-02 -2.961870096623897552e-02 5.618713423609733582e-02
1.939000000000000000e+03 1.279945278167724609e+01 -4.344018936157226562e+00 -1.757376343011856079e-01 8.250585198402404785e-02 -2.796953357756137848e-02 8.924428373575210571e-02
1.940000000000000000e+03 4.372269821166992188e+01 2.637997627258300781e+01 4.709152877330780029e-01 5.916041374206542969e+00 1.916086912155151367e+00 -1.343574821949005127e-01
1.941000000000000000e+03 4.294237136840820312e+01 2.550151824951171875e+01 2.138586789369583130e-01 6.269496440887451172e+00 1.945006489753723145e+00 -8.782593160867691040e-02
1.942000000000000000e+03 2.565659523010253906e+01 -1.648739624023437500e+01 -3.997001647949218750e-01 -1.942315883934497833e-02 -1.257369965314865112e-01 4.780864119529724121e-01
1.943000000000000000e+03 4.750846481323242188e+01 -2.936997032165527344e+01 -2.039582431316375732e-01 1.279721736907958984e+00 3.227290511131286621e-01 -4.599379301071166992e-01
1.944000000000000000e+03 5.329881668090820312e+01 -3.338840866088867188e+01 -1.074743032455444336e+00 3.193103373050689697e-01 -2.266297936439514160e-01 -1.664011478424072266e-01
1.945000000000000000e+03 4.297731781005859375e+01 1.309712314605712891e+01 1.231324195861816406e+00 8.610020637512207031e+00 2.952403545379638672e+00 2.447699546813964844e+00
1.946000000000000000e+03 2.138501358032226562e+01 -3.562379837036132812e+01 -3.982444107532501221e-01 -2.588617429137229919e-02 -1.272391676902770996e-01 8.002921193838119507e-02
1.947000000000000000e+03 2.546940231323242188e+01 -3.596303558349609375e+01 -3.024747669696807861e-01 5.355952382087707520e-01 6.993613392114639282e-02 3.198066949844360352e-01
1.948000000000000000e+03 7.079818725585937500e+01 -2.161750602722167969e+01 3.731794357299804688e-01 1.303200626373291016e+01 4.021555423736572266e+00 -5.565591454505920410e-01
1.949000000000000000e+03 4.539515686035156250e+01 -2.415024185180664062e+01 1.164974048733711243e-01 1.745061635971069336e+00 5.584677457809448242e-01 -5.726827383041381836e-01
1.950000000000000000e+03 2.022018051147460938e+01 -4.058125495910644531e+00 3.364686667919158936e-02 -6.881330162286758423e-02 -1.054993085563182831e-02 1.022181063890457153e-01
1.951000000000000000e+03 2.363868141174316406e+01 -4.402034282684326172e+00 1.316082179546356201e-01 -1.446493566036224365e-01 -3.912338521331548691e-03 -9.609419107437133789e-02
1.952000000000000000e+03 4.255486679077148438e+01 1.058796405792236328e+01 1.678254008293151855e+00 9.123892784118652344e+00 3.240644216537475586e+00 3.281931877136230469e+00
1.953000000000000000e+03 1.679207611083984375e+01 -4.732666015625000000e+00 -2.128862775862216949e-02 -2.219086140394210815e-02 -1.304384693503379822e-02 1.854389607906341553e-01
1.954000000000000000e+03 4.367997741699218750e+01 2.385519218444824219e+01 2.345864623785018921e-01 6.243029117584228516e+00 1.943284630775451660e+00 2.208528667688369751e-01
1.955000000000000000e+03 4.328932952880859375e+01 1.560524845123291016e+01 9.365451335906982422e-01 7.967160224914550781e+00 2.671111583709716797e+00 1.792414784431457520e+00
1.956000000000000000e+03 4.361465454101562500e+01 2.221002006530761719e+01 2.221957147121429443e-01 6.461220741271972656e+00 2.005024909973144531e+00 4.513058662414550781e-01
1.957000000000000000e+03 4.285577774047851562e+01 2.222412490844726562e+01 1.172237619757652283e-01 6.590321540832519531e+00 2.012263536453247070e+00 3.316910266876220703e-01
1.958000000000000000e+03 4.817363739013671875e+01 -2.692000007629394531e+01 -6.935195624828338623e-02 6.633525490760803223e-01 1.782001703977584839e-01 -2.425663918256759644e-01
1.959000000000000000e+03 4.357986068725585938e+01 2.139478492736816406e+01 2.363680601119995117e-01 6.597698211669921875e+00 2.050219774246215820e+00 5.714504718780517578e-01
1.960000000000000000e+03 4.435110092163085938e+01 2.136092758178710938e+01 3.695368468761444092e-01 6.397880554199218750e+00 2.030225276947021484e+00 6.932744383811950684e-01
1.961000000000000000e+03 4.292666244506835938e+01 2.467190361022949219e+01 1.597043871879577637e-01 6.313125133514404297e+00 1.941848874092102051e+00 4.218696430325508118e-02
1.962000000000000000e+03 4.597114944458007812e+01 -2.477016067504882812e+01 1.011921018362045288e-01 1.412124395370483398e+00 4.539949595928192139e-01 -5.145708918571472168e-01
1.963000000000000000e+03 4.550249862670898438e+01 -2.302424049377441406e+01 1.200341433286666870e-01 1.490601778030395508e+00 4.831907749176025391e-01 -5.504598021507263184e-01
1.964000000000000000e+03 4.526810073852539062e+01 2.299570274353027344e+01 4.649004638195037842e-01 5.958005905151367188e+00 1.926871895790100098e+00 5.248506665229797363e-01
1.965000000000000000e+03 2.358542203903198242e+00 -1.730378532409667969e+01 1.994373053312301636e-01 -7.275106906890869141e-01 -1.584220081567764282e-01 -7.380716037005186081e-03
1.966000000000000000e+03 7.005054473876953125e+01 -2.159379005432128906e+01 2.335823923349380493e-01 1.372093105316162109e+01 4.186354160308837891e+00 -3.802284598350524902e-01
1.967000000000000000e+03 7.073657226562500000e+01 -1.901755905151367188e+01 3.507743477821350098e-01 1.371078014373779297e+01 4.218466281890869141e+00 -9.886811375617980957e-01
1.968000000000000000e+03 4.170259094238281250e+01 9.920905113220214844e+00 1.683217525482177734e+00 1.059309768676757812e+01 3.682894706726074219e+00 3.540501594543457031e+00
1.969000000000000000e+03 4.352290344238281250e+01 1.212661552429199219e+01 1.561060309410095215e+00 7.921233177185058594e+00 2.844688177108764648e+00 2.749027252197265625e+00
1.970000000000000000e+03 4.658396530151367188e+01 -2.530954742431640625e+01 8.871620148420333862e-02 1.159071445465087891e+00 3.743363022804260254e-01 -4.376358091831207275e-01
1.971000000000000000e+03 4.021603775024414062e+01 4.098908424377441406e+00 -3.364900127053260803e-02 1.049683761596679688e+01 3.138956546783447266e+00 2.655836820602416992e+00
1.972000000000000000e+03 3.115201711654663086e+00 -2.894550323486328125e+01 -3.467994630336761475e-01 9.013112187385559082e-01 1.663535386323928833e-01 4.692878127098083496e-01
1.973000000000000000e+03 1.962295889854431152e+00 -2.733762359619140625e+01 -1.492270529270172119e-01 9.168325066566467285e-01 2.302816361188888550e-01 5.910300016403198242e-01
1.974000000000000000e+03 7.002189636230468750e+01 -1.908142089843750000e+01 2.072022110223770142e-01 1.443110847473144531e+01 4.391493320465087891e+00 -7.902526259422302246e-01
1.975000000000000000e+03 4.349950027465820312e+01 1.894325065612792969e+01 4.261794388294219971e-01 7.105808258056640625e+00 2.259596347808837891e+00 1.013444304466247559e+00
1.976000000000000000e+03 4.485253906250000000e+01 -2.349313354492187500e+01 1.107832714915275574e-01 2.150737524032592773e+00 6.784562468528747559e-01 -6.364400982856750488e-01
1.977000000000000000e+03 7.077420043945312500e+01 -1.986775207519531250e+01 2.921962440013885498e-01 1.348879718780517578e+01 4.134297847747802734e+00 -8.431082367897033691e-01
1.978000000000000000e+03 7.156368255615234375e+01 -2.068152427673339844e+01 4.040958881378173828e-01 1.257771682739257812e+01 3.894543647766113281e+00 -8.881097435951232910e-01
1.979000000000000000e+03 7.721912384033203125e+01 3.516057205200195312e+01 1.068635843694210052e-02 5.276065349578857422e+00 1.586025595664978027e+00 -3.500835224986076355e-02
1.980000000000000000e+03 7.788687896728515625e+01 3.552648162841796875e+01 6.925821304321289062e-03 5.274547576904296875e+00 1.584442019462585449e+00 -2.528747916221618652e-02
1.981000000000000000e+03 7.785749816894531250e+01 3.129508590698242188e+01 1.247963495552539825e-02 5.353363990783691406e+00 1.609753012657165527e+00 -5.907918140292167664e-02
1.982000000000000000e+03 7.707235717773437500e+01 2.880219650268554688e+01 2.864022739231586456e-02 5.420124053955078125e+00 1.634629249572753906e+00 -1.197272390127182007e-01
1.983000000000000000e+03 7.715537261962890625e+01 2.794930458068847656e+01 2.860176935791969299e-02 5.456367969512939453e+00 1.645490884780883789e+00 -1.323581784963607788e-01
1.984000000000000000e+03 7.808575439453125000e+01 2.073884010314941406e+01 1.753176003694534302e-02 5.986546516418457031e+00 1.801223516464233398e+00 -2.077469974756240845e-01
1.985000000000000000e+03 7.812374114990234375e+01 1.433252620697021484e+01 5.387935321778059006e-03 6.768232822418212891e+00 2.032086133956909180e+00 -2.890320420265197754e-01
1.986000000000000000e+03 7.738978576660156250e+01 1.359696388244628906e+01 5.787828471511602402e-03 6.749894142150878906e+00 2.026704549789428711e+00 -3.922447264194488525e-01
1.987000000000000000e+03 7.741774749755859375e+01 1.038698577880859375e+01 -2.122534625232219696e-02 7.176634788513183594e+00 2.146622896194458008e+00 -3.762075901031494141e-01
1.988000000000000000e+03 7.701110076904296875e+01 3.053648376464843750e+01 2.550159022212028503e-02 5.364826679229736328e+00 1.617098569869995117e+00 -9.409631043672561646e-02
1.989000000000000000e+03 7.789350891113281250e+01 -3.533102035522460938e+01 -1.277361363172531128e-01 1.220769977569580078e+01 3.623989105224609375e+00 -3.646801412105560303e-01
1.990000000000000000e+03 7.524509429931640625e+01 -3.679298019409179688e+01 -3.782973885536193848e-01 1.052427959442138672e+01 3.043794631958007812e+00 -3.913255035877227783e-01
1.991000000000000000e+03 7.817649841308593750e+01 -2.180706787109375000e+01 8.094244450330734253e-02 8.048039436340332031e+00 2.438694715499877930e+00 -7.550792694091796875e-01
1.992000000000000000e+03 7.744846343994140625e+01 -2.416680335998535156e+01 1.013866066932678223e-01 9.124547004699707031e+00 2.767780303955078125e+00 -1.148663640022277832e+00
1.993000000000000000e+03 7.818759155273437500e+01 -1.454265880584716797e+01 1.218937784433364868e-01 6.650112152099609375e+00 2.031601667404174805e+00 -1.454680226743221283e-02
1.994000000000000000e+03 7.817304992675781250e+01 -1.940278434753417969e+01 9.582076221704483032e-02 7.376140594482421875e+00 2.241588354110717773e+00 -5.579018592834472656e-01
1.995000000000000000e+03 7.807265472412109375e+01 -2.823974800109863281e+01 -4.199760407209396362e-02 1.044341182708740234e+01 3.120424270629882812e+00 -9.790823459625244141e-01
1.996000000000000000e+03 7.726491546630859375e+01 -2.900122261047363281e+01 -1.209985092282295227e-01 1.056314563751220703e+01 3.132644176483154297e+00 -1.191468834877014160e+00
1.997000000000000000e+03 7.818003082275390625e+01 -1.042910069227218628e-01 -5.859420076012611389e-02 8.058646202087402344e+00 2.400015592575073242e+00 1.432667821645736694e-01
1.998000000000000000e+03 7.746984863281250000e+01 -8.420341610908508301e-01 -1.031705886125564575e-01 7.967290401458740234e+00 2.359236001968383789e+00 2.130629122257232666e-01
1.999000000000000000e+03 7.815961456298828125e+01 7.113706111907958984e+00 -3.165930509567260742e-02 7.742940902709960938e+00 2.313384532928466797e+00 -2.085526883602142334e-01
2.000000000000000000e+03 7.743675994873046875e+01 6.383247375488281250e+00 -6.518047302961349487e-02 7.651155948638916016e+00 2.275792598724365234e+00 -2.566172778606414795e-01
2.001000000000000000e+03 7.819235229492187500e+01 -4.915471553802490234e+00 -3.299189731478691101e-02 7.628030300140380859e+00 2.278511524200439453e+00 3.788402676582336426e-01
2.002000000000000000e+03 7.720833587646484375e+01 -3.292679214477539062e+01 -1.985967606306076050e-01 1.141681385040283203e+01 3.365465164184570312e+00 -7.259059548377990723e-01
2.003000000000000000e+03 7.799755096435546875e+01 -3.065684700012207031e+01 -1.090495064854621887e-01 1.124810695648193359e+01 3.341717243194580078e+00 -8.257871866226196289e-01
2.004000000000000000e+03 7.623125457763671875e+01 3.575481796264648438e+01 1.677203550934791565e-02 5.260897636413574219e+00 1.583300948143005371e+00 -4.094877094030380249e-02
2.005000000000000000e+03 7.818745422363281250e+01 -1.293193817138671875e+01 1.043467447161674500e-01 6.651142120361328125e+00 2.026646614074707031e+00 1.646292209625244141e-01
2.006000000000000000e+03 7.747879791259765625e+01 -1.449273204803466797e+01 2.159055918455123901e-01 7.239168167114257812e+00 2.236522197723388672e+00 -4.123002663254737854e-02
2.007000000000000000e+03 7.817535400390625000e+01 -2.020974540710449219e+01 9.228745102882385254e-02 7.580081939697265625e+00 2.301710844039916992e+00 -6.280087828636169434e-01
2.008000000000000000e+03 7.746943664550781250e+01 -2.097931098937988281e+01 1.480387300252914429e-01 8.275521278381347656e+00 2.527067899703979492e+00 -8.789273500442504883e-01
2.009000000000000000e+03 7.747541046142578125e+01 -1.529638099670410156e+01 2.247097045183181763e-01 7.300588130950927734e+00 2.257589340209960938e+00 -1.623634845018386841e-01
2.010000000000000000e+03 7.818656921386718750e+01 -9.718907356262207031e+00 4.220730811357498169e-02 6.943169593811035156e+00 2.095613002777099609e+00 3.958174288272857666e-01
2.011000000000000000e+03 7.677198791503906250e+01 -9.577291488647460938e+00 1.049994304776191711e-01 7.734789371490478516e+00 2.351936578750610352e+00 5.176028609275817871e-01
2.012000000000000000e+03 7.544792175292968750e+01 -1.950582504272460938e+01 4.039813578128814697e-01 9.467635154724121094e+00 2.961485147476196289e+00 -1.039497375488281250e+00
2.013000000000000000e+03 7.678427124023437500e+01 -1.777674293518066406e+01 2.899025380611419678e-01 8.185484886169433594e+00 2.542616367340087891e+00 -6.321536898612976074e-01
2.014000000000000000e+03 7.746853637695312500e+01 -1.776490020751953125e+01 1.960566937923431396e-01 7.623756408691406250e+00 2.345943927764892578e+00 -5.206003785133361816e-01
2.015000000000000000e+03 7.746192932128906250e+01 -1.044900989532470703e+01 1.021856442093849182e-01 7.298746109008789062e+00 2.220279455184936523e+00 4.258234500885009766e-01
2.016000000000000000e+03 7.748723602294921875e+01 -8.035556793212890625e+00 4.506546538323163986e-03 7.478701114654541016e+00 2.244962453842163086e+00 5.135113596916198730e-01
2.017000000000000000e+03 7.748296356201171875e+01 -8.836483955383300781e+00 3.670984506607055664e-02 7.411750793457031250e+00 2.234538078308105469e+00 5.047864913940429688e-01
2.018000000000000000e+03 7.817359161376953125e+01 -1.697859382629394531e+01 1.198144927620887756e-01 6.893084526062011719e+00 2.103869676589965820e+00 -3.082456886768341064e-01
2.019000000000000000e+03 7.746978759765625000e+01 -1.694560241699218750e+01 2.100028693675994873e-01 7.496438026428222656e+00 2.311932325363159180e+00 -4.078011214733123779e-01
2.020000000000000000e+03 7.747384643554687500e+01 -9.640535354614257812e+00 7.150048017501831055e-02 7.348245143890380859e+00 2.225923776626586914e+00 4.744077920913696289e-01
2.021000000000000000e+03 7.819408416748046875e+01 -5.717796802520751953e+00 -2.711455337703227997e-02 7.518257617950439453e+00 2.247342824935913086e+00 4.033107161521911621e-01
2.022000000000000000e+03 7.749024200439453125e+01 -7.240189552307128906e+00 -1.283405534923076630e-02 7.544241905212402344e+00 2.259422302246093750e+00 5.120496153831481934e-01
2.023000000000000000e+03 7.749347686767578125e+01 -6.451336383819580078e+00 -3.263107314705848694e-02 7.614838600158691406e+00 2.274662256240844727e+00 5.017436742782592773e-01
2.024000000000000000e+03 7.818972778320312500e+01 -3.310625791549682617e+00 -4.589517414569854736e-02 7.821848392486572266e+00 2.332785844802856445e+00 3.148773908615112305e-01
2.025000000000000000e+03 7.817628479003906250e+01 1.497589826583862305e+00 -5.812067911028862000e-02 8.087341308593750000e+00 2.408766269683837891e+00 5.055982619524002075e-02
2.026000000000000000e+03 7.746583557128906250e+01 -4.463790357112884521e-02 -1.060394719243049622e-01 7.978922367095947266e+00 2.361864805221557617e+00 1.562177985906600952e-01
2.027000000000000000e+03 7.747660827636718750e+01 -1.645658969879150391e+00 -9.972385317087173462e-02 7.943721771240234375e+00 2.353199243545532227e+00 2.701453566551208496e-01
2.028000000000000000e+03 7.815419006347656250e+01 8.717782974243164062e+00 -2.164496481418609619e-02 7.550684928894042969e+00 2.258711814880371094e+00 -2.506618499755859375e-01
2.029000000000000000e+03 7.743460845947265625e+01 7.180139541625976562e+00 -5.582606792449951172e-02 7.567926883697509766e+00 2.253630161285400391e+00 -2.905353903770446777e-01
2.030000000000000000e+03 7.748469543457031250e+01 -3.248627185821533203e+00 -8.420919626951217651e-02 7.864148616790771484e+00 2.333981752395629883e+00 3.722717761993408203e-01
2.031000000000000000e+03 7.746361541748046875e+01 7.545059919357299805e-01 -1.053993999958038330e-01 7.979169845581054688e+00 2.362131118774414062e+00 9.692547470331192017e-02
2.032000000000000000e+03 7.746128845214843750e+01 1.560253620147705078e+00 -1.048102527856826782e-01 7.966797828674316406e+00 2.358596324920654297e+00 3.870438039302825928e-02
2.033000000000000000e+03 7.812121582031250000e+01 -2.662562370300292969e+01 6.101908162236213684e-03 9.825314521789550781e+00 2.949424982070922852e+00 -9.962489008903503418e-01
2.034000000000000000e+03 7.643493652343750000e+01 -2.978834915161132812e+01 -2.486518025398254395e-01 1.056405925750732422e+01 3.094622135162353516e+00 -1.297422885894775391e+00
2.035000000000000000e+03 7.744139862060546875e+01 5.579058647155761719e+00 -7.367345690727233887e-02 7.728687763214111328e+00 2.296504259109497070e+00 -2.184557020664215088e-01
2.036000000000000000e+03 7.743339538574218750e+01 7.977954864501953125e+00 -4.693973809480667114e-02 7.478020668029785156e+00 2.229324340820312500e+00 -3.178313374519348145e-01
2.037000000000000000e+03 7.811286926269531250e+01 1.593506145477294922e+01 1.030547730624675751e-02 6.548665046691894531e+00 1.967691063880920410e+00 -2.767151892185211182e-01
2.038000000000000000e+03 7.738264465332031250e+01 1.439600944519042969e+01 1.215985883027315140e-02 6.644923686981201172e+00 1.997125029563903809e+00 -3.869810998439788818e-01
2.039000000000000000e+03 7.745001220703125000e+01 3.974375724792480469e+00 -8.969186246395111084e-02 7.856716156005859375e+00 2.330107212066650391e+00 -1.268397122621536255e-01
2.040000000000000000e+03 7.808116912841796875e+01 2.233354949951171875e+01 1.771202497184276581e-02 5.838468074798583984e+00 1.756853938102722168e+00 -1.806245297193527222e-01
2.041000000000000000e+03 7.814300537109375000e+01 1.112473011016845703e+01 -8.226442150771617889e-03 7.224539279937744141e+00 2.164893865585327148e+00 -2.860706746578216553e-01
2.042000000000000000e+03 7.739784240722656250e+01 1.279139137268066406e+01 8.518668473698198795e-04 6.856320858001708984e+00 2.057151794433593750e+00 -3.927618861198425293e-01
2.043000000000000000e+03 7.419252014160156250e+01 -2.276530838012695312e+01 4.546779394149780273e-01 1.028145122528076172e+01 3.220838785171508789e+00 -1.379056692123413086e+00
2.044000000000000000e+03 7.743338012695312500e+01 -2.496643257141113281e+01 7.668431848287582397e-02 9.366073608398437500e+00 2.832827568054199219e+00 -1.197427034378051758e+00
2.045000000000000000e+03 7.741167449951171875e+01 -2.576296424865722656e+01 4.609080776572227478e-02 9.609396934509277344e+00 2.896646499633789062e+00 -1.232814788818359375e+00
2.046000000000000000e+03 7.738414764404296875e+01 -2.656641387939453125e+01 9.132133796811103821e-03 9.860326766967773438e+00 2.960837841033935547e+00 -1.251967906951904297e+00
2.047000000000000000e+03 7.734805297851562500e+01 -2.737538146972656250e+01 -3.252258151769638062e-02 1.010468673706054688e+01 3.021649360656738281e+00 -1.253129720687866211e+00
2.048000000000000000e+03 7.734800720214843750e+01 1.760303306579589844e+01 2.790808677673339844e-02 6.252640724182128906e+00 1.884164690971374512e+00 -3.450431525707244873e-01
2.049000000000000000e+03 7.737512207031250000e+01 1.519672870635986328e+01 1.566261425614356995e-02 6.543029785156250000e+00 1.967607736587524414e+00 -3.801119327545166016e-01
2.050000000000000000e+03 7.741172027587890625e+01 1.118831729888916016e+01 -1.296808477491140366e-02 7.070753097534179688e+00 2.117335557937622070e+00 -3.849332928657531738e-01
2.051000000000000000e+03 7.807755279541015625e+01 2.312963485717773438e+01 1.789180375635623932e-02 5.772516250610351562e+00 1.737122416496276855e+00 -1.669080704450607300e-01
2.052000000000000000e+03 7.732797241210937500e+01 2.159756851196289062e+01 3.290146589279174805e-02 5.857553005218505859e+00 1.767136335372924805e+00 -2.599237263202667236e-01
2.053000000000000000e+03 7.806968688964843750e+01 2.471371078491210938e+01 1.716071739792823792e-02 5.655848979949951172e+00 1.701902985572814941e+00 -1.406945288181304932e-01
2.054000000000000000e+03 7.657746887207031250e+01 2.554699134826660156e+01 4.613902047276496887e-02 5.550762176513671875e+00 1.679070353507995605e+00 -2.133594006299972534e-01
2.055000000000000000e+03 7.733469390869140625e+01 1.920285415649414062e+01 3.172548115253448486e-02 6.080884456634521484e+00 1.833783030509948730e+00 -3.132691383361816406e-01
2.056000000000000000e+03 7.732974243164062500e+01 2.000302505493164062e+01 3.211729973554611206e-02 6.001529216766357422e+00 1.810093998908996582e+00 -2.958475053310394287e-01
2.057000000000000000e+03 7.734076690673828125e+01 1.840367126464843750e+01 2.925918623805046082e-02 6.164887428283691406e+00 1.858243942260742188e+00 -3.292972445487976074e-01
2.058000000000000000e+03 7.731336212158203125e+01 2.476013565063476562e+01 3.068005666136741638e-02 5.626006603240966797e+00 1.697005987167358398e+00 -1.894393265247344971e-01
2.059000000000000000e+03 7.723150634765625000e+01 2.712551116943359375e+01 2.861780673265457153e-02 5.493978977203369141e+00 1.656779050827026367e+00 -1.448710113763809204e-01
2.060000000000000000e+03 7.792147827148437500e+01 -3.374988555908203125e+01 -1.506432443857192993e-01 1.196519279479980469e+01 3.544364929199218750e+00 -5.097122192382812500e-01
2.061000000000000000e+03 7.696465301513671875e+01 -3.531349563598632812e+01 -2.194931358098983765e-01 1.154289054870605469e+01 3.397019386291503906e+00 -4.585675299167633057e-01
2.062000000000000000e+03 7.731121826171875000e+01 2.553891372680664062e+01 3.032880276441574097e-02 5.578740596771240234e+00 1.682720780372619629e+00 -1.723463237285614014e-01
2.063000000000000000e+03 7.717608642578125000e+01 -3.220696258544921875e+01 -2.185576856136322021e-01 1.129120159149169922e+01 3.321793079376220703e+00 -8.337870836257934570e-01
2.064000000000000000e+03 7.689902496337890625e+01 -3.439049148559570312e+01 -2.484104633331298828e-01 1.143731212615966797e+01 3.356670618057250977e+00 -5.885322093963623047e-01
2.065000000000000000e+03 7.798893737792968750e+01 -3.145017051696777344e+01 -1.164478510618209839e-01 1.147900676727294922e+01 3.408767700195312500e+00 -7.463795542716979980e-01
2.066000000000000000e+03 7.716928100585937500e+01 -3.143123245239257812e+01 -2.185923308134078979e-01 1.112011909484863281e+01 3.270457983016967773e+00 -9.439284205436706543e-01
2.067000000000000000e+03 7.706172180175781250e+01 -3.359566116333007812e+01 -2.539505064487457275e-01 1.140602779388427734e+01 3.345623254776000977e+00 -6.698093414306640625e-01
2.068000000000000000e+03 7.695063018798828125e+01 3.421936798095703125e+01 1.542852446436882019e-02 5.285475730895996094e+00 1.590271234512329102e+00 -4.664289206266403198e-02
2.069000000000000000e+03 7.688607788085937500e+01 3.323239517211914062e+01 1.897690258920192719e-02 5.301028728485107422e+00 1.596001744270324707e+00 -5.752241238951683044e-02
2.070000000000000000e+03 7.452497863769531250e+01 -4.083177947998046875e+01 -1.120756566524505615e-01 9.861350059509277344e+00 2.924782276153564453e+00 -1.397297233343124390e-01
2.071000000000000000e+03 7.666867828369140625e+01 -4.182606124877929688e+01 -9.169907122850418091e-02 1.153248119354248047e+01 3.432234525680541992e+00 2.316235192120075226e-02
2.072000000000000000e+03 7.736828613281250000e+01 -3.693651962280273438e+01 -1.333938837051391602e-01 1.199433898925781250e+01 3.558283567428588867e+00 -2.595810592174530029e-01
2.073000000000000000e+03 5.798001098632812500e+01 -2.681183516979217529e-01 -3.034074068069458008e+00 1.385097354650497437e-01 -8.686693310737609863e-01 -8.874018490314483643e-02
2.074000000000000000e+03 7.523724365234375000e+01 3.771268844604492188e+01 1.895115338265895844e-02 5.234860420227050781e+00 1.576143383979797363e+00 -3.106323257088661194e-02
2.075000000000000000e+03 2.525042295455932617e+00 2.475598526000976562e+01 4.889912815997377038e-06 1.902079202409368008e-05 7.173211542976787314e-06 -5.194053301238454878e-06
2.076000000000000000e+03 2.125043630599975586e+00 3.524341583251953125e+01 -1.363938372378470376e-05 2.858765947166830301e-04 8.167116175172850490e-05 -1.062153023667633533e-04
2.077000000000000000e+03 5.829166412353515625e+00 3.703778076171875000e+01 -1.037345864460803568e-04 4.039622144773602486e-04 9.006828622659668326e-05 -1.306960475631058216e-04
2.078000000000000000e+03 2.581726312637329102e+00 3.123024940490722656e+01 1.663681541685946286e-05 1.636697124922648072e-04 5.409196091932244599e-05 -1.207600653287954628e-04
2.079000000000000000e+03 2.745323181152343750e+00 -5.278983116149902344e+00 -5.448370054364204407e-02 -1.447393447160720825e-01 -5.976691469550132751e-02 -2.053892463445663452e-01
2.080000000000000000e+03 2.476398229598999023e+00 -1.323945426940917969e+01 1.881072670221328735e-02 -6.114733219146728516e-01 -1.777987778186798096e-01 -3.355384171009063721e-01
2.081000000000000000e+03 2.036045551300048828e+00 -3.663597106933593750e+01 9.018662385642528534e-03 1.333360314369201660e+00 4.027136862277984619e-01 -7.063781470060348511e-02
2.082000000000000000e+03 2.474949359893798828e+00 -1.487993621826171875e+01 8.335813134908676147e-02 -6.759436130523681641e-01 -1.777756363153457642e-01 -2.671545147895812988e-01
2.083000000000000000e+03 2.893248558044433594e+00 -3.570826721191406250e+01 4.020077642053365707e-03 1.101598739624023438e+00 3.316856324672698975e-01 -1.178183928132057190e-01
2.084000000000000000e+03 6.009569644927978516e+00 -2.911162185668945312e+01 -7.707583904266357422e-01 1.134426682256162167e-03 -2.308871895074844360e-01 5.048350691795349121e-01
2.085000000000000000e+03 1.722976922988891602e+00 -1.727045249938964844e+01 1.170466542243957520e-01 -1.135113239288330078e+00 -3.054199516773223877e-01 -3.287177160382270813e-02
2.086000000000000000e+03 1.733369588851928711e+00 -2.109753036499023438e+01 1.353711336851119995e-01 -6.832332015037536621e-01 -1.643586158752441406e-01 4.789884984493255615e-01
2.087000000000000000e+03 1.779667019844055176e+00 -2.186239814758300781e+01 1.388271898031234741e-01 -4.734082818031311035e-01 -1.003743335604667664e-01 6.117358207702636719e-01
2.088000000000000000e+03 1.819210886955261230e+00 -2.265890693664550781e+01 7.549952715635299683e-02 -2.699121534824371338e-01 -5.832379311323165894e-02 6.814341545104980469e-01
2.089000000000000000e+03 2.458119392395019531e+00 -1.893972587585449219e+01 2.538827061653137207e-01 -5.413922667503356934e-01 -8.625286817550659180e-02 2.575217783451080322e-01
2.090000000000000000e+03 2.445429801940917969e+00 -1.811852073669433594e+01 2.391275763511657715e-01 -5.927686095237731934e-01 -1.060922965407371521e-01 1.305972784757614136e-01
2.091000000000000000e+03 1.739108204841613770e+00 -1.807575225830078125e+01 1.356221735477447510e-01 -1.112714886665344238e+00 -2.931278347969055176e-01 7.053108513355255127e-02
2.092000000000000000e+03 4.564281940460205078e+00 -1.822989845275878906e+01 6.312432289123535156e-01 7.397770285606384277e-01 4.113060832023620605e-01 3.768199682235717773e-01
2.093000000000000000e+03 5.163764476776123047e+00 -2.049247550964355469e+01 6.134008169174194336e-01 1.657678604125976562e+00 6.813238263130187988e-01 8.312013149261474609e-01
2.094000000000000000e+03 1.792942881584167480e+00 2.006418037414550781e+01 1.572277255945664365e-06 -1.028786300594219938e-05 -2.614675622680806555e-06 -2.106309921146021225e-06
2.095000000000000000e+03 2.511659860610961914e+00 2.075985336303710938e+01 5.252487881080014631e-06 -8.637440259917639196e-06 -1.015485622701817192e-06 -4.345298293628729880e-06
2.096000000000000000e+03 2.389539241790771484e+00 -1.016590499877929688e+01 -3.726468607783317566e-02 -4.639987349510192871e-01 -1.503790318965911865e-01 -3.144621551036834717e-01
2.097000000000000000e+03 1.780982851982116699e+00 1.523051929473876953e+01 2.245209316242835484e-06 -6.565054718521423638e-06 -1.295953552471473813e-06 5.283994596538832411e-06
2.098000000000000000e+03 2.507204771041870117e+00 1.834297561645507812e+01 -3.313680736027890816e-06 -2.748539316144160694e-07 -1.076560465662623756e-06 3.841032139462186024e-06
2.099000000000000000e+03 2.511602163314819336e+00 1.995476722717285156e+01 -1.554806431158795021e-06 2.221373733846121468e-06 1.999701879640269908e-07 5.276122919894987717e-06
2.100000000000000000e+03 3.235270500183105469e+00 1.905199623107910156e+01 -4.942419309372780845e-06 4.978629476681817323e-06 1.086307754860627028e-08 3.371737875568214804e-06
2.101000000000000000e+03 4.685996532440185547e+00 -2.358164787292480469e+01 1.911803334951400757e-01 1.111508846282958984e+00 3.908067345619201660e-01 9.565942883491516113e-01
2.102000000000000000e+03 1.799702644348144531e+00 -2.347584915161132812e+01 6.483545154333114624e-02 -6.548635661602020264e-02 -1.952708844328299165e-04 7.417353391647338867e-01
2.103000000000000000e+03 2.344083547592163086e+00 -2.557261085510253906e+01 -1.053074449300765991e-01 5.699321031570434570e-01 1.393873840570449829e-01 8.546855449676513672e-01
2.104000000000000000e+03 1.722701907157897949e+00 -1.006725025177001953e+01 -1.880360208451747894e-02 -6.156034469604492188e-01 -1.903221011161804199e-01 -2.609678208827972412e-01
2.105000000000000000e+03 3.148223161697387695e+00 -7.904956817626953125e+00 -6.077155470848083496e-02 -2.021424323320388794e-01 -7.887419313192367554e-02 -3.013711273670196533e-01
2.106000000000000000e+03 2.361949682235717773e+00 -1.092572402954101562e+01 -1.985075324773788452e-02 -5.079003572463989258e-01 -1.583253443241119385e-01 -3.290547430515289307e-01
2.107000000000000000e+03 2.485017776489257812e+00 1.350133514404296875e+01 -9.895526090986095369e-06 2.515685537218814716e-06 -2.213952029705978930e-06 -2.410058414170634933e-06
2.108000000000000000e+03 2.492148160934448242e+00 1.591660594940185547e+01 6.075960754969855770e-06 -5.566199888562550768e-06 1.529283366608069628e-07 6.401733116945251822e-06
2.109000000000000000e+03 2.486224651336669922e+00 1.108780384063720703e+01 9.430882528249640018e-06 -5.332239197741728276e-06 1.229593067364476155e-06 4.459800038603134453e-06
2.110000000000000000e+03 2.485632419586181641e+00 1.269620990753173828e+01 9.233413948095403612e-06 -5.843544386152643710e-06 1.016960709421255160e-06 5.850130492035532370e-06
2.111000000000000000e+03 4.683866977691650391e+00 -2.446291542053222656e+01 3.716539125889539719e-03 9.154102802276611328e-01 2.757380604743957520e-01 9.491260647773742676e-01
2.112000000000000000e+03 2.503746271133422852e+00 1.753780174255371094e+01 4.069494025316089392e-06 -5.145109753357246518e-06 -3.226846558845863910e-07 3.600224317779066041e-06
2.113000000000000000e+03 2.488331556320190430e+00 1.511056232452392578e+01 -8.217140020860824734e-06 1.248039097845321521e-06 -2.090730276904650964e-06 -1.817270231185830198e-06
2.114000000000000000e+03 3.717576503753662109e+00 -2.730192375183105469e+01 -4.051431417465209961e-01 7.315986156463623047e-01 9.793663769960403442e-02 7.920143604278564453e-01
2.115000000000000000e+03 1.773405551910400391e+00 9.603117942810058594e+00 -6.511273568321485072e-06 1.547472720631049015e-06 -1.489140345256600995e-06 -1.110989273911400232e-06
2.116000000000000000e+03 4.855835437774658203e+00 -2.621331024169921875e+01 -4.527974128723144531e-01 5.884341001510620117e-01 4.069100692868232727e-02 9.059451222419738770e-01
2.117000000000000000e+03 1.838019967079162598e+00 2.728219795227050781e+01 -5.045134003012208268e-06 4.144971899222582579e-05 1.092137608793564141e-05 -1.486353903601411730e-05
2.118000000000000000e+03 2.587141990661621094e+00 2.794627952575683594e+01 6.568704066012287512e-06 5.733900252380408347e-05 1.917231202241964638e-05 -3.023996032425202429e-05
2.119000000000000000e+03 2.483744621276855469e+00 9.483100891113281250e+00 8.962260835687629879e-06 -4.432733931025722995e-06 1.358858185085409787e-06 2.665243073352030478e-06
2.120000000000000000e+03 2.485276937484741211e+00 1.028537178039550781e+01 -1.005185731628444046e-05 3.263857706770068035e-06 -2.036399791904841550e-06 -1.565056777508289088e-06
2.121000000000000000e+03 4.926730155944824219e+00 -2.706868553161621094e+01 -5.888209939002990723e-01 5.060600042343139648e-01 -2.482829801738262177e-02 7.923029065132141113e-01
2.122000000000000000e+03 1.826419353485107422e+00 -2.995929145812988281e+01 -1.194701641798019409e-01 1.326666831970214844e+00 3.621589839458465576e-01 2.221803665161132812e-01
2.123000000000000000e+03 3.682775735855102539e+00 -2.838559913635253906e+01 -4.760719239711761475e-01 7.605879306793212891e-01 8.535479009151458740e-02 5.889613032341003418e-01
2.124000000000000000e+03 1.825525403022766113e+00 2.647951507568359375e+01 2.010348725889343768e-05 1.421417164237936959e-05 1.029529812512919307e-05 -3.866584665956906974e-05
2.125000000000000000e+03 3.943258285522460938e+00 2.610184669494628906e+01 3.485931665636599064e-05 2.650752321642357856e-05 1.841005177993793041e-05 -1.920561589940916747e-05
2.126000000000000000e+03 2.535094738006591797e+00 2.555240440368652344e+01 1.810112917155493051e-05 5.031650744058424607e-06 6.939833838259801269e-06 -3.683763497974723577e-05
2.127000000000000000e+03 2.562384128570556641e+00 2.714614105224609375e+01 2.709208638407289982e-05 1.700104439805727452e-05 1.322793923463905230e-05 -5.802458690595813096e-05
2.128000000000000000e+03 1.764096617698669434e+00 6.442532539367675781e+00 -5.110989604872884229e-06 4.163301241533190478e-07 -1.408397793056792580e-06 1.472469790542163537e-07
2.129000000000000000e+03 2.482077360153198242e+00 7.117977619171142578e+00 -7.336850103456526995e-06 1.361508111585862935e-06 -1.792602574823831674e-06 3.124721104086347623e-07
2.130000000000000000e+03 1.804404139518737793e+00 2.407409667968750000e+01 -1.593095475982408971e-06 8.354931196663528681e-06 2.028550625254865736e-06 9.355599104310385883e-07
2.131000000000000000e+03 2.519520759582519531e+00 2.395743370056152344e+01 1.264517413801513612e-05 -5.395675998443039134e-06 2.174849441871629097e-06 -2.129471249645575881e-05
2.132000000000000000e+03 4.075373649597167969e+00 4.008024215698242188e+00 -4.914808869216358289e-06 -6.761684403500112239e-07 -1.677293198554252740e-06 8.161509299497993197e-07
2.133000000000000000e+03 2.480179786682128906e+00 7.899178981781005859e+00 7.863152859499678016e-06 -2.945920414276770316e-06 1.475169824516342487e-06 1.101192651731253136e-06
2.134000000000000000e+03 2.825145483016967773e+00 -3.537494182586669922e+00 -6.651385873556137085e-02 -7.601905614137649536e-02 -4.275987669825553894e-02 -1.513591855764389038e-01
2.135000000000000000e+03 2.812806844711303711e+00 -4.409356117248535156e+00 -5.792026221752166748e-02 -1.087733879685401917e-01 -5.000809580087661743e-02 -1.812480688095092773e-01
2.136000000000000000e+03 1.984675645828247070e+00 -4.356102466583251953e+00 -3.418238833546638489e-02 -1.406667977571487427e-01 -5.245475471019744873e-02 -1.423320770263671875e-01
2.137000000000000000e+03 1.848099946975708008e+00 -3.075635719299316406e+01 -1.158521622419357300e-01 1.384820222854614258e+00 3.806903958320617676e-01 1.297344267368316650e-01
2.138000000000000000e+03 2.549290180206298828e+00 -3.068838119506835938e+01 -1.833046823740005493e-01 1.149400115013122559e+00 2.898286283016204834e-01 1.700002700090408325e-01
2.139000000000000000e+03 2.064045667648315430e+00 3.362958908081054688e+01 -7.914985872048418969e-06 2.205767959821969271e-04 6.379854312399402261e-05 -8.953897486208006740e-05
2.140000000000000000e+03 3.485232353210449219e+00 3.494244384765625000e+01 -2.214247251686174423e-05 1.978410000447183847e-04 5.270955807645805180e-05 -2.023348351940512657e-04
2.141000000000000000e+03 1.891477227210998535e+00 -3.155965042114257812e+01 -7.743557542562484741e-02 1.409184932708740234e+00 3.995248377323150635e-01 6.444927304983139038e-02
2.142000000000000000e+03 6.571195602416992188e+00 -2.962080764770507812e+01 -8.016796708106994629e-01 -1.741056144237518311e-01 -2.927355766296386719e-01 4.837688207626342773e-01
2.143000000000000000e+03 3.671089887619018555e+00 -3.079868888854980469e+01 -3.292765319347381592e-01 8.200679421424865723e-01 1.472374200820922852e-01 2.051515877246856689e-01
2.144000000000000000e+03 4.228490352630615234e+00 3.426247787475585938e+01 5.040350515628233552e-05 8.116496610455214977e-05 3.947054210584610701e-05 -1.319284056080505252e-04
2.145000000000000000e+03 1.901574969291687012e+00 3.206934738159179688e+01 -9.012287591758649796e-06 1.614582870388403535e-04 4.573379919747821987e-05 -8.422187238465994596e-05
2.146000000000000000e+03 3.649880409240722656e+00 3.102808570861816406e+01 6.908697105245664716e-05 1.217249518958851695e-04 5.724357833969406784e-05 -1.421155611751601100e-04
2.147000000000000000e+03 3.596107959747314453e+00 3.362667465209960938e+01 1.847274506872054189e-05 2.136556868208572268e-04 6.963852501939982176e-05 -1.845129881985485554e-04
2.148000000000000000e+03 2.811868429183959961e+00 3.263390731811523438e+01 1.473699740017764270e-05 1.532512542326003313e-04 5.039647294324822724e-05 -1.049250058713369071e-04
2.149000000000000000e+03 2.803308725357055664e+00 -3.478916168212890625e+01 -2.692685276269912720e-02 1.137087821960449219e+00 3.330483138561248779e-01 -1.005712822079658508e-01
2.150000000000000000e+03 1.260664558410644531e+01 1.795917129516601562e+01 -1.569967134855687618e-04 -6.470285006798803806e-05 -6.650987052125856280e-05 4.143722253502346575e-05
2.151000000000000000e+03 2.725697278976440430e+00 -3.393975448608398438e+01 -4.563912749290466309e-02 1.164093017578125000e+00 3.355361819267272949e-01 -6.862733513116836548e-02
2.152000000000000000e+03 4.929540157318115234e+00 4.068302536010742188e+01 -1.202507337438873947e-04 -7.580789679195731878e-05 -5.881758988834917545e-05 -3.056450223084539175e-04
2.153000000000000000e+03 3.179102659225463867e+00 4.181895446777343750e+01 -5.368037454900331795e-05 6.266392883844673634e-04 1.718876883387565613e-04 -1.124630871345289052e-04
2.154000000000000000e+03 7.075250244140625000e+01 -2.251738739013671875e+01 5.669285058975219727e-01 1.271701049804687500e+01 3.985181570053100586e+00 -4.140684306621551514e-01
2.155000000000000000e+03 6.255897521972656250e+01 -7.060420513153076172e-01 -1.241403341293334961e+00 2.860426902770996094e+00 4.857071042060852051e-01 -1.655023694038391113e+00
2.156000000000000000e+03 6.320798110961914062e+01 -1.322383880615234375e+00 -1.012549161911010742e+00 3.461057186126708984e+00 7.345523834228515625e-01 -1.720578551292419434e+00
2.157000000000000000e+03 3.199420452117919922e+00 3.705780410766601562e+01 -8.920024265535175800e-05 3.387998731341212988e-04 7.487989205401390791e-05 -2.327106922166422009e-04
2.158000000000000000e+03 3.981453180313110352e+00 -3.631827545166015625e+01 1.192919071763753891e-02 8.125061392784118652e-01 2.473305910825729370e-01 -1.042342334985733032e-01
2.159000000000000000e+03 4.432170486450195312e+01 -2.284150314331054688e+01 7.001297920942306519e-02 2.642702817916870117e+00 8.138146996498107910e-01 -6.977615356445312500e-01
2.160000000000000000e+03 5.746465682983398438e+01 5.886185169219970703e-01 -2.663503408432006836e+00 2.750297188758850098e-01 -7.165421247482299805e-01 -3.069293200969696045e-01
2.161000000000000000e+03 1.434284591674804688e+01 1.662871170043945312e+01 -5.513577343663200736e-05 7.454821115970844403e-06 -1.430428619642043486e-05 -5.598393545369617641e-05
2.162000000000000000e+03 2.513346672058105469e+01 -3.404928588867187500e+01 -4.073227047920227051e-01 2.428976595401763916e-01 -4.932750761508941650e-02 2.016619294881820679e-01
2.163000000000000000e+03 2.435052108764648438e+01 -3.326019668579101562e+01 -5.460066199302673340e-01 8.791897445917129517e-02 -1.374262869358062744e-01 5.944857373833656311e-02
2.164000000000000000e+03 2.443566131591796875e+01 -4.313257694244384766e+00 1.246924847364425659e-01 -1.578365564346313477e-01 -9.943222627043724060e-03 -1.663379371166229248e-01
2.165000000000000000e+03 2.652186012268066406e+01 -2.590323209762573242e+00 -4.216992259025573730e-01 -7.665886729955673218e-02 -1.495074331760406494e-01 -2.375688850879669189e-01
2.166000000000000000e+03 1.811524772644042969e+01 6.441669464111328125e+00 2.159378345822915435e-05 1.240238816535566002e-05 1.019885166897438467e-05 1.597915797901805490e-05
2.167000000000000000e+03 1.650153350830078125e+01 3.838501691818237305e+00 7.038464900688268244e-06 1.367145523545332253e-05 6.212976131791947410e-06 6.437811634896206670e-07
2.168000000000000000e+03 6.900186157226562500e+01 -9.847595214843750000e+00 5.920741558074951172e-01 1.108805656433105469e+01 3.504039287567138672e+00 -2.058180570602416992e+00
2.169000000000000000e+03 1.021922969818115234e+01 -3.208818817138671875e+01 -8.901638984680175781e-01 -5.610469579696655273e-01 -4.353632628917694092e-01 4.829936921596527100e-01
2.170000000000000000e+03 1.448247432708740234e+01 1.386981105804443359e+01 -1.365058415103703737e-05 -2.267808304168283939e-05 -1.089860052161384374e-05 -2.509402293071616441e-05
2.171000000000000000e+03 3.953192138671875000e+01 -1.160025787353515625e+01 7.303022742271423340e-01 1.101877975463867188e+01 3.524724483489990234e+00 -5.446684360504150391e-02
2.172000000000000000e+03 1.632663726806640625e+01 3.346399307250976562e+01 7.357967551797628403e-04 2.499603215255774558e-05 2.282378409290686250e-04 4.914345336146652699e-04
2.173000000000000000e+03 1.487634754180908203e+01 1.494025039672851562e+01 -4.434233414940536022e-05 -1.956958112714346498e-05 -1.917357440106570721e-05 -4.372588227852247655e-05
2.174000000000000000e+03 5.647848510742187500e+01 5.949710309505462646e-02 -3.421920061111450195e+00 1.573894731700420380e-02 -1.021854400634765625e+00 1.439252048730850220e-01
2.175000000000000000e+03 4.864250183105468750e+01 -2.755310058593750000e+01 -1.320616602897644043e-01 5.922896265983581543e-01 1.380683928728103638e-01 -2.074049562215805054e-01
2.176000000000000000e+03 1.355156898498535156e+01 -3.425318908691406250e+01 -6.070131063461303711e-01 -2.952135503292083740e-01 -2.706679999828338623e-01 2.770628035068511963e-01
2.177000000000000000e+03 1.422410583496093750e+01 1.467081832885742188e+01 8.432297363469842821e-06 8.801058356766588986e-06 5.170006716070929542e-06 2.181159652536734939e-05
2.178000000000000000e+03 4.976523971557617188e+01 -2.888069915771484375e+01 -2.964978814125061035e-01 4.597565233707427979e-01 4.897758737206459045e-02 -1.121663749217987061e-01
2.179000000000000000e+03 1.341104507446289062e+01 2.127390670776367188e+01 -1.759487786330282688e-04 -1.629474900255445391e-05 -5.767305992776528001e-05 -1.160624833573820069e-05
2.180000000000000000e+03 1.413956451416015625e+01 2.197752380371093750e+01 -2.191084640799090266e-04 -4.706395429820986465e-06 -6.714445771649479866e-05 -2.645458516781218350e-05
2.181000000000000000e+03 1.443546962738037109e+01 2.918961524963378906e+01 5.534232477657496929e-04 1.453564073017332703e-05 1.703876623651012778e-04 3.952139741159044206e-05
2.182000000000000000e+03 2.022637176513671875e+01 -4.745748996734619141e+00 9.799191355705261230e-02 -9.747507423162460327e-02 1.550505112390965223e-04 1.190076693892478943e-01
2.183000000000000000e+03 3.818632507324218750e+01 1.050987124443054199e+00 -1.394337892532348633e+00 8.038232803344726562e+00 1.993168473243713379e+00 1.379891753196716309e+00
2.184000000000000000e+03 6.093030929565429688e+00 -5.388447761535644531e+00 -1.503074616193771362e-01 8.131439983844757080e-02 -2.069791965186595917e-02 -2.176508754491806030e-01
2.185000000000000000e+03 6.802656173706054688e+00 -3.263768434524536133e+00 -2.119113355875015259e-01 5.456222966313362122e-02 -4.720472916960716248e-02 -1.431599706411361694e-01
2.186000000000000000e+03 7.502175807952880859e+00 -4.046973228454589844e+00 -2.066457867622375488e-01 9.303814172744750977e-02 -3.408229351043701172e-02 -1.414641737937927246e-01
2.187000000000000000e+03 6.086222171783447266e+00 -3.914696693420410156e+00 -1.758096218109130859e-01 4.362225905060768127e-02 -3.965620696544647217e-02 -1.790278106927871704e-01
2.188000000000000000e+03 4.577794075012207031e+00 -4.356865406036376953e+00 -1.212301999330520630e-01 -1.594418846070766449e-02 -4.115231707692146301e-02 -2.113685011863708496e-01
2.189000000000000000e+03 6.737924098968505859e+00 -3.946350574493408203e+00 -1.936892271041870117e-01 7.156640291213989258e-02 -3.663684800267219543e-02 -1.641288697719573975e-01
2.190000000000000000e+03 3.819543838500976562e+01 2.165451288223266602e+00 -6.257272362709045410e-01 8.348991394042968750e+00 2.316979169845581055e+00 2.007657766342163086e+00
2.191000000000000000e+03 3.934213256835937500e+01 1.464790463447570801e+00 -1.760722160339355469e+00 9.645025253295898438e+00 2.365291118621826172e+00 1.311878085136413574e+00
2.192000000000000000e+03 3.961809539794921875e+01 4.385925292968750000e+00 7.668423652648925781e-01 1.090076828002929688e+01 3.500283241271972656e+00 3.235569238662719727e+00
2.193000000000000000e+03 4.324490356445312500e+01 1.710727214813232422e+00 -3.343344449996948242e+00 7.745229244232177734e+00 1.320565462112426758e+00 2.064393043518066406e+00
2.194000000000000000e+03 1.836486053466796875e+01 4.096518039703369141e+00 3.079926045757019892e-06 -1.834891372709535062e-05 -4.580696440825704485e-06 -6.123229468357749283e-06
2.195000000000000000e+03 1.615895271301269531e+01 1.096218490600585938e+01 3.513395131449215114e-05 2.083336221403442323e-05 1.679019442235585302e-05 2.771979052340611815e-05
2.196000000000000000e+03 1.582824611663818359e+01 9.887554168701171875e+00 1.927797711687162519e-05 2.064393265754915774e-05 1.197657275042729452e-05 1.904198870761319995e-05
2.197000000000000000e+03 1.195485210418701172e+01 -3.361824035644531250e+01 -6.586739420890808105e-01 -3.612685501575469971e-01 -3.059827387332916260e-01 3.583931624889373779e-01
2.198000000000000000e+03 3.651948165893554688e+01 -2.685962677001953125e+01 1.196391582489013672e+00 7.214648246765136719e+00 2.523311853408813477e+00 9.152545928955078125e-01
2.199000000000000000e+03 1.408149242401123047e+01 2.835024833679199219e+01 -5.086568125989288092e-05 -1.153165867435745895e-04 -4.985467967344447970e-05 2.451140026096254587e-04
2.200000000000000000e+03 1.514012718200683594e+01 -4.599061012268066406e+00 -8.927975594997406006e-02 2.189569361507892609e-02 -2.021521888673305511e-02 1.643097400665283203e-01
2.201000000000000000e+03 1.596153545379638672e+01 -4.672317981719970703e+00 -5.421413481235504150e-02 -6.240891525521874428e-04 -1.645146682858467102e-02 1.817308515310287476e-01
2.202000000000000000e+03 4.985840225219726562e+01 4.141360759735107422e+00 -1.779783368110656738e+00 2.880206108093261719e-01 -4.475288093090057373e-01 -2.922409959137439728e-02
2.203000000000000000e+03 4.751349639892578125e+01 2.928985357284545898e+00 -3.513882160186767578e+00 -7.357264757156372070e-01 -1.274882555007934570e+00 7.463127970695495605e-01
2.204000000000000000e+03 1.930947875976562500e+01 4.499026775360107422e+00 -1.333436284767230973e-05 -1.202813109557610005e-05 -7.608748092025052756e-06 -1.525735569885000587e-05
2.205000000000000000e+03 1.824393653869628906e+01 2.828797578811645508e+00 3.466461521384189837e-06 1.332765532424673438e-05 5.038235030951909721e-06 5.404877356340875849e-06
2.206000000000000000e+03 3.492892074584960938e+01 -1.017750859260559082e+00 -1.092794179916381836e+00 1.883293628692626953e+00 2.371498346328735352e-01 3.977677226066589355e-01
2.207000000000000000e+03 6.869264221191406250e+01 -9.082604408264160156e+00 5.261805653572082520e-01 1.045473480224609375e+01 3.294274568557739258e+00 -2.155072212219238281e+00
2.208000000000000000e+03 3.987302017211914062e+01 -5.838851928710937500e+00 1.213193893432617188e+00 1.145483589172363281e+01 3.800409078598022461e+00 1.448511242866516113e+00
2.209000000000000000e+03 3.956941986083984375e+01 -8.282942771911621094e+00 1.477971434593200684e+00 1.142450618743896484e+01 3.870743274688720703e+00 1.048835754394531250e+00
2.210000000000000000e+03 5.028008270263671875e+01 2.823050260543823242e+00 -3.473337650299072266e+00 1.146019771695137024e-01 -1.007620692253112793e+00 4.471531137824058533e-02
2.211000000000000000e+03 1.345586490631103516e+01 2.206251716613769531e+01 1.731836237013339996e-04 4.364377673482522368e-06 5.326440077624283731e-05 1.434099795005749911e-05
2.212000000000000000e+03 4.916338729858398438e+01 -2.821683502197265625e+01 -2.006987035274505615e-01 5.332167148590087891e-01 9.975540637969970703e-02 -1.585508435964584351e-01
2.213000000000000000e+03 4.339529037475585938e+01 3.390412807464599609e+00 -2.009371757507324219e+00 6.698324203491210938e+00 1.406685829162597656e+00 2.657067298889160156e+00
2.214000000000000000e+03 4.445829010009765625e+01 1.945952534675598145e+00 -4.081173419952392578e+00 4.737270355224609375e+00 1.968291103839874268e-01 2.489205360412597656e+00
2.215000000000000000e+03 3.733991241455078125e+01 -2.284577560424804688e+01 6.993111968040466309e-01 7.847486019134521484e+00 2.564038991928100586e+00 1.594236135482788086e+00
2.216000000000000000e+03 1.134268093109130859e+01 -1.377791976928710938e+01 8.724344372749328613e-01 6.462402939796447754e-01 4.556024074554443359e-01 5.236982703208923340e-01
2.217000000000000000e+03 9.579119682312011719e+00 -1.419604873657226562e+01 7.902996540069580078e-01 1.006313800811767578e+00 5.389840602874755859e-01 5.443319678306579590e-01
2.218000000000000000e+03 4.166217803955078125e+01 7.228146553039550781e+00 1.851379871368408203e+00 9.855138778686523438e+00 3.511955738067626953e+00 3.585947036743164062e+00
2.219000000000000000e+03 1.595815944671630859e+01 6.119929313659667969e+00 3.922071300621610135e-06 1.676855026744306087e-05 6.207186288520460948e-06 7.132635346351889893e-06
2.220000000000000000e+03 2.171962928771972656e+01 -3.393175125122070312e+01 -5.919317603111267090e-01 -2.349146455526351929e-02 -1.846269667148590088e-01 1.323558669537305832e-02
2.221000000000000000e+03 4.270588684082031250e+01 1.143111515045166016e+01 1.465230584144592285e+00 8.997121810913085938e+00 3.138705492019653320e+00 3.030129432678222656e+00
2.222000000000000000e+03 2.638501739501953125e+01 -1.637846755981445312e+01 -5.513542890548706055e-01 -4.016032069921493530e-02 -1.774543821811676025e-01 5.832903981208801270e-01
2.223000000000000000e+03 1.588728618621826172e+01 1.174739360809326172e+01 -3.744346759049221873e-05 -2.540863897593226284e-05 -1.885563142423052341e-05 -3.164166992064565420e-05
2.224000000000000000e+03 1.499699878692626953e+01 1.226558017730712891e+01 -1.839893593569286168e-05 -2.590417716419324279e-05 -1.329093447566265240e-05 -2.388481516391038895e-05
2.225000000000000000e+03 3.974785614013671875e+01 -1.413146400451660156e+01 5.704741477966308594e-01 1.053370475769042969e+01 3.331253767013549805e+00 -5.225116014480590820e-01
2.226000000000000000e+03 3.481001281738281250e+01 -1.755992889404296875e+01 -2.300337553024291992e+00 3.895035982131958008e+00 4.784095287322998047e-01 -1.004210039973258972e-01
2.227000000000000000e+03 6.918318176269531250e+01 -1.242493343353271484e+01 1.355075359344482422e+00 1.372944355010986328e+01 4.525355339050292969e+00 -2.222573518753051758e+00
2.228000000000000000e+03 6.938171386718750000e+01 -8.859377861022949219e+00 3.932168781757354736e-01 1.032116127014160156e+01 3.214313268661499023e+00 -1.610725164413452148e+00
2.229000000000000000e+03 1.437449836730957031e+01 -3.298202514648437500e+01 -8.971569538116455078e-01 -1.776917278766632080e-01 -3.224546015262603760e-01 2.521231174468994141e-01
2.230000000000000000e+03 5.722946548461914062e+01 -9.314648061990737915e-02 -3.243825435638427734e+00 4.095131531357765198e-02 -9.608622789382934570e-01 2.341036312282085419e-02
2.231000000000000000e+03 5.454433822631835938e+01 1.095668911933898926e+00 -3.287705183029174805e+00 2.441138029098510742e-01 -9.130773544311523438e-01 2.383272200822830200e-01
2.232000000000000000e+03 4.074725723266601562e+01 -1.582323646545410156e+01 7.102859616279602051e-01 1.093217086791992188e+01 3.492737054824829102e+00 -8.025842308998107910e-01
2.233000000000000000e+03 2.663591003417968750e+01 -3.339141607284545898e+00 -2.172283083200454712e-01 -1.522817313671112061e-01 -1.108530163764953613e-01 -3.785074651241302490e-01
2.234000000000000000e+03 1.403465557098388672e+01 -3.511610412597656250e+01 -4.746764302253723145e-01 -2.912889420986175537e-01 -2.297896146774291992e-01 2.261809557676315308e-01
2.235000000000000000e+03 3.951886367797851562e+01 -9.106180191040039062e+00 1.284865856170654297e+00 1.136210918426513672e+01 3.794092655181884766e+00 7.923769354820251465e-01
2.236000000000000000e+03 3.950102996826171875e+01 -9.932114601135253906e+00 1.060922503471374512e+00 1.129613494873046875e+01 3.707117319107055664e+00 5.115130543708801270e-01
2.237000000000000000e+03 6.555346679687500000e+01 -3.344601440429687500e+01 -1.563533902168273926e+00 2.285000085830688477e+00 2.164398282766342163e-01 5.776896476745605469e-01
2.238000000000000000e+03 1.702664756774902344e+01 -3.343737792968750000e+01 -8.075759410858154297e-01 -1.193639934062957764e-01 -2.780819833278656006e-01 1.166549101471900940e-01
2.239000000000000000e+03 3.548668670654296875e+01 -4.336222648620605469e+00 8.740370273590087891e-01 3.792274713516235352e+00 1.399893522262573242e+00 7.255042195320129395e-01
2.240000000000000000e+03 1.678823661804199219e+01 7.561736106872558594e+00 -1.498912115494022146e-05 -1.735785190248861909e-05 -9.704092008178122342e-06 -1.422498826286755502e-05
2.241000000000000000e+03 5.565693664550781250e+01 2.285120248794555664e+00 -2.237258672714233398e+00 4.832948744297027588e-01 -5.261891484260559082e-01 -3.895705640316009521e-01
2.242000000000000000e+03 1.971068954467773438e+01 2.306007146835327148e+00 -5.672266070178011432e-06 -9.051251254277303815e-06 -4.417055151861859486e-06 -6.884307367727160454e-06
2.243000000000000000e+03 5.837254047393798828e+00 -1.892354583740234375e+01 8.799853324890136719e-01 1.839421749114990234e+00 8.158221244812011719e-01 8.772570490837097168e-01
2.244000000000000000e+03 6.173841953277587891e+00 -1.816826248168945312e+01 1.086500167846679688e+00 1.793645620346069336e+00 8.640437126159667969e-01 8.390149474143981934e-01
2.245000000000000000e+03 4.058527755737304688e+01 -2.579592227935791016e+00 4.519666731357574463e-01 1.068377304077148438e+01 3.340721845626831055e+00 1.644953131675720215e+00
2.246000000000000000e+03 3.028828430175781250e+01 -4.277438163757324219e+00 4.358041584491729736e-01 -3.679374158382415771e-01 2.036002092063426971e-02 -5.386766791343688965e-01
2.247000000000000000e+03 3.012799072265625000e+01 -3.605316877365112305e+00 -6.590948998928070068e-02 -4.366362392902374268e-01 -1.507637202739715576e-01 -6.543643474578857422e-01
2.248000000000000000e+03 1.765668869018554688e+01 3.586468124389648438e+01 8.093363139778375626e-04 -1.522884820587933064e-03 -2.140645519830286503e-04 -9.121193579630926251e-05
2.249000000000000000e+03 1.681775856018066406e+01 3.461183166503906250e+01 1.355244894511997700e-03 -7.314543472602963448e-04 1.871371641755104065e-04 -4.747465718537569046e-04
2.250000000000000000e+03 1.695818710327148438e+01 5.691630363464355469e+00 5.471877102536382154e-06 1.153669563791481778e-05 5.102571776660624892e-06 7.342382104980060831e-06
2.251000000000000000e+03 4.309441375732421875e+01 1.392565250396728516e+01 1.162863016128540039e+00 8.407506942749023438e+00 2.871110916137695312e+00 2.192091226577758789e+00
2.252000000000000000e+03 4.680315017700195312e+00 -2.271385383605957031e+01 3.387391567230224609e-01 1.233795166015625000e+00 4.717603027820587158e-01 9.244817495346069336e-01
2.253000000000000000e+03 4.194985961914062500e+01 8.040124893188476562e+00 1.997138500213623047e+00 9.604264259338378906e+00 3.480420827865600586e+00 3.625491380691528320e+00
2.254000000000000000e+03 6.850492095947265625e+01 -2.852591896057128906e+01 -5.746855735778808594e-01 7.585242748260498047e+00 2.103167057037353516e+00 5.437248945236206055e-01
2.255000000000000000e+03 6.918754577636718750e+01 -2.890630149841308594e+01 -9.523701071739196777e-01 8.200950622558593750e+00 2.174574136734008789e+00 -1.473250682465732098e-03
2.256000000000000000e+03 2.781188011169433594e+01 -1.614221191406250000e+01 -8.070621490478515625e-01 -9.040546417236328125e-02 -2.692402899265289307e-01 8.258267045021057129e-01
2.257000000000000000e+03 2.838193130493164062e+01 -3.306026077270507812e+01 -1.249561607837677002e-01 8.032618165016174316e-01 2.034917026758193970e-01 8.079577088356018066e-01
2.258000000000000000e+03 7.392288684844970703e+00 -3.133014678955078125e+01 -7.270117998123168945e-01 -2.825242280960083008e-01 -3.028608262538909912e-01 2.966144680976867676e-01
2.259000000000000000e+03 7.215719699859619141e+00 -3.010359573364257812e+01 -9.023353457450866699e-01 -3.650959730148315430e-01 -3.802294135093688965e-01 4.991581737995147705e-01
2.260000000000000000e+03 3.355365371704101562e+01 -3.045158767700195312e+01 3.700812458992004395e-01 4.507658004760742188e+00 1.463321685791015625e+00 1.577141880989074707e+00
2.261000000000000000e+03 3.585006332397460938e+01 -2.939369201660156250e+01 2.762502133846282959e-01 5.864992618560791016e+00 1.842372894287109375e+00 8.445502519607543945e-01
2.262000000000000000e+03 3.538760375976562500e+01 -1.923639297485351562e+01 -2.186336040496826172e+00 6.164007663726806641e+00 1.193301558494567871e+00 1.147156238555908203e+00
2.263000000000000000e+03 3.680651092529296875e+01 -2.029494094848632812e+01 -5.126140117645263672e-01 7.630506038665771484e+00 2.135367631912231445e+00 1.708660125732421875e+00
2.264000000000000000e+03 1.513275241851806641e+01 3.101557922363281250e+01 7.702855509705841541e-04 -5.050154504715465009e-05 2.159352006856352091e-04 9.386090096086263657e-05
2.265000000000000000e+03 6.686594390869140625e+01 -3.353501510620117188e+01 -1.417616009712219238e+00 3.823404788970947266e+00 7.217366695404052734e-01 6.097922325134277344e-01
2.266000000000000000e+03 3.324233245849609375e+01 -1.583868885040283203e+01 -5.747081041336059570e-01 1.096814990043640137e+00 1.566320508718490601e-01 5.561637133359909058e-02
2.267000000000000000e+03 3.305672836303710938e+01 -1.657715415954589844e+01 -1.407591104507446289e+00 4.219040274620056152e-01 -2.957061231136322021e-01 2.629171609878540039e-01
2.268000000000000000e+03 7.041234588623046875e+01 -1.482580471038818359e+01 1.602447509765625000e+00 1.384923934936523438e+01 4.635506153106689453e+00 -1.493202328681945801e+00
2.269000000000000000e+03 4.336319351196289062e+01 1.644107818603515625e+01 7.847613096237182617e-01 7.749557495117187500e+00 2.560295581817626953e+00 1.567845702171325684e+00
2.270000000000000000e+03 3.452698516845703125e+01 -3.075733757019042969e+01 -2.507258206605911255e-02 5.017047882080078125e+00 1.497592687606811523e+00 1.162131190299987793e+00
2.271000000000000000e+03 3.586330032348632812e+01 -3.217220306396484375e+01 -6.706709861755371094e-01 4.778345584869384766e+00 1.232302308082580566e+00 4.841530919075012207e-01
2.272000000000000000e+03 2.615180015563964844e+00 -3.234599304199218750e+01 -1.260527819395065308e-01 1.170401215553283691e+00 3.133045136928558350e-01 1.564400829374790192e-02
2.273000000000000000e+03 1.123946285247802734e+01 3.630325317382812500e+00 6.063702130632009357e-06 8.058728781179524958e-06 4.236729182593990117e-06 -3.471032869128976017e-06
2.274000000000000000e+03 1.619288825988769531e+01 -1.512097930908203125e+01 7.160234451293945312e-01 -7.278396189212799072e-02 1.929718405008316040e-01 1.786860972642898560e-01
2.275000000000000000e+03 1.521306324005126953e+01 -1.554281139373779297e+01 8.653104901313781738e-01 -2.668097056448459625e-02 2.515888512134552002e-01 1.140536740422248840e-01
2.276000000000000000e+03 7.969968795776367188e+00 4.537320137023925781e+00 -8.348836672666948289e-06 -3.138474312436301261e-06 -3.446193204581504688e-06 3.444230515015078709e-06
2.277000000000000000e+03 1.601924133300781250e+01 3.249457931518554688e+01 1.368568628095090389e-03 -7.289466448128223419e-04 1.918866182677447796e-04 -5.676944419974461198e-05
2.278000000000000000e+03 4.291643905639648438e+01 2.909414863586425781e+01 6.575657725334167480e-01 5.544881343841552734e+00 1.860734224319458008e+00 -3.373575508594512939e-01
2.279000000000000000e+03 4.385055541992187500e+01 2.923164367675781250e+01 6.349283456802368164e-01 5.250708103179931641e+00 1.765690922737121582e+00 -1.103278324007987976e-01
2.280000000000000000e+03 5.080384063720703125e+01 2.469353914260864258e+00 -3.526809453964233398e+00 2.222955077886581421e-01 -9.913541674613952637e-01 2.013220451772212982e-03
2.281000000000000000e+03 1.407221317291259766e+01 2.035219192504882812e+01 -2.168381470255553722e-04 -1.528977009002119303e-05 -6.963837222428992391e-05 -3.062275573029182851e-05
2.282000000000000000e+03 6.209312057495117188e+01 6.932986527681350708e-02 -1.374293208122253418e+00 2.595044136047363281e+00 3.662252724170684814e-01 -1.656943559646606445e+00
2.283000000000000000e+03 6.118619155883789062e+01 -9.944055080413818359e-01 -1.556001305580139160e+00 1.438055396080017090e+00 -3.538378700613975525e-02 -1.075190663337707520e+00
2.284000000000000000e+03 3.251386260986328125e+01 -2.232213973999023438e+00 -9.339937567710876465e-01 -1.981054693460464478e-01 -3.396297693252563477e-01 -4.617093801498413086e-01
2.285000000000000000e+03 6.142990493774414062e+01 -3.584165954589843750e+01 -7.381725907325744629e-01 -1.858066618442535400e-01 -2.771937847137451172e-01 -9.016367048025131226e-02
2.286000000000000000e+03 6.351354598999023438e+01 -3.505347061157226562e+01 -1.060355186462402344e+00 8.638063073158264160e-01 -5.896465107798576355e-02 2.186073809862136841e-01
2.287000000000000000e+03 1.702881050109863281e+01 -3.452956008911132812e+01 -6.170548200607299805e-01 -1.716176569461822510e-01 -2.366017401218414307e-01 1.195391863584518433e-01
2.288000000000000000e+03 1.454032516479492188e+01 -1.456218624114990234e+01 9.175286889076232910e-01 6.466741114854812622e-02 2.946588099002838135e-01 3.050102293491363525e-01
2.289000000000000000e+03 3.790912628173828125e+01 -2.177467346191406250e+01 8.983547985553741455e-02 7.564375400543212891e+00 2.296263217926025391e+00 1.707116127014160156e+00
2.290000000000000000e+03 3.691628265380859375e+01 -2.189300155639648438e+01 1.877376288175582886e-01 8.130917549133300781e+00 2.495596647262573242e+00 1.566917777061462402e+00
2.291000000000000000e+03 1.935921478271484375e+01 -4.780661582946777344e+00 7.267668843269348145e-02 -7.963395118713378906e-02 -2.087177475914359093e-03 1.538512706756591797e-01
2.292000000000000000e+03 1.402084350585937500e+01 3.040743637084960938e+01 3.131909179501235485e-04 -5.274613431538455188e-05 7.813343836460262537e-05 4.191640982753597200e-05
2.293000000000000000e+03 7.060120391845703125e+01 -1.652134895324707031e+01 1.058872222900390625e+00 1.404094696044921875e+01 4.529945850372314453e+00 -1.454697012901306152e+00
2.294000000000000000e+03 7.052220153808593750e+01 -1.567732906341552734e+01 1.402813911437988281e+00 1.395098972320556641e+01 4.606141090393066406e+00 -1.498839616775512695e+00
2.295000000000000000e+03 8.941933631896972656e+00 -1.410183429718017578e+01 6.703648567199707031e-01 1.070205450057983398e+00 5.221710801124572754e-01 4.203502833843231201e-01
2.296000000000000000e+03 6.413934326171875000e+01 -3.377765655517578125e+01 -1.588204145431518555e+00 9.799130558967590332e-01 -1.824873387813568115e-01 3.010508418083190918e-01
2.297000000000000000e+03 3.892354202270507812e+01 -1.329522323608398438e+01 6.377602219581604004e-01 9.576698303222656250e+00 3.064337491989135742e+00 -2.345748245716094971e-01
2.298000000000000000e+03 3.664124298095703125e+01 -1.694180870056152344e+01 -1.252441048622131348e+00 6.571476459503173828e+00 1.595710635185241699e+00 5.096721649169921875e-01
2.299000000000000000e+03 6.524250793457031250e+01 -2.658504724502563477e+00 -4.203788340091705322e-01 5.763025283813476562e+00 1.602793931961059570e+00 -1.670456171035766602e+00
2.300000000000000000e+03 1.946193313598632812e+01 -3.422195053100585938e+01 -6.538468003273010254e-01 -8.542557060718536377e-02 -2.217817157506942749e-01 4.473404586315155029e-02
2.301000000000000000e+03 1.424875068664550781e+01 2.441151618957519531e+01 1.990531018236652017e-04 -1.579883610247634351e-05 5.497628080775029957e-05 3.234969699406065047e-05
2.302000000000000000e+03 6.350157928466796875e+01 -2.436483144760131836e+00 -3.803233504295349121e-01 3.622311592102050781e+00 9.725964665412902832e-01 -1.741725087165832520e+00
2.303000000000000000e+03 2.838562393188476562e+01 -3.901601076126098633e+00 -6.487373262643814087e-03 -3.648453652858734131e-01 -1.113998219370841980e-01 -5.872479677200317383e-01
2.304000000000000000e+03 6.888743591308593750e+01 -3.109206581115722656e+01 -1.564279556274414062e+00 6.868974685668945312e+00 1.591408491134643555e+00 1.328443288803100586e-01
2.305000000000000000e+03 2.109488487243652344e+01 -4.685122966766357422e+00 1.172780394554138184e-01 -1.081074029207229614e-01 2.751191379502415657e-03 8.307939767837524414e-02
2.306000000000000000e+03 2.749045610427856445e+00 -2.703423500061035156e+01 -2.333457171916961670e-01 8.054004907608032227e-01 1.716164350509643555e-01 7.556663155555725098e-01
2.307000000000000000e+03 4.745652198791503906e+00 -2.534751892089843750e+01 -1.787123829126358032e-01 7.180116176605224609e-01 1.617897748947143555e-01 9.631933569908142090e-01
2.308000000000000000e+03 2.754761886596679688e+01 -4.000184059143066406e+00 2.116971276700496674e-02 -3.023002445697784424e-01 -8.433915674686431885e-02 -5.116614103317260742e-01
2.309000000000000000e+03 4.210065841674804688e+00 -1.895101737976074219e+01 6.015877723693847656e-01 6.307123303413391113e-01 3.696900308132171631e-01 4.959200322628021240e-01
2.310000000000000000e+03 1.695924568176269531e+01 -1.543232250213623047e+01 6.160390973091125488e-01 -9.428801387548446655e-02 1.565253287553787231e-01 1.510227471590042114e-01
2.311000000000000000e+03 1.546971702575683594e+01 -1.269228553771972656e+01 6.399838924407958984e-01 5.116127803921699524e-02 2.073435485363006592e-01 4.070575237274169922e-01
2.312000000000000000e+03 3.365574598312377930e+00 -2.259713745117187500e+01 2.399857491254806519e-01 4.501217007637023926e-01 2.070322334766387939e-01 9.360797405242919922e-01
2.313000000000000000e+03 3.593215560913085938e+01 -2.836038398742675781e+01 6.436637639999389648e-01 6.468675613403320312e+00 2.133701801300048828e+00 1.029239773750305176e+00
2.314000000000000000e+03 4.177666091918945312e+01 -1.844738388061523438e+01 5.888998880982398987e-02 8.403422355651855469e+00 2.538693904876708984e+00 -6.729986071586608887e-01
2.315000000000000000e+03 4.280541992187500000e+01 -2.091538619995117188e+01 -2.254213243722915649e-01 4.915274143218994141e+00 1.406955838203430176e+00 -7.198433876037597656e-01
2.316000000000000000e+03 1.173928642272949219e+01 -3.479840850830078125e+01 -4.092161953449249268e-01 -3.709254264831542969e-01 -2.340424954891204834e-01 2.780461609363555908e-01
2.317000000000000000e+03 7.672171783447265625e+01 4.169083404541015625e+01 6.788737140595912933e-03 5.231028079986572266e+00 1.571344971656799316e+00 -3.273235168308019638e-03
2.318000000000000000e+03 7.026815795898437500e+01 -1.396869564056396484e+01 1.674003362655639648e+00 1.360488986968994141e+01 4.583667755126953125e+00 -1.469682931900024414e+00
2.319000000000000000e+03 4.214895248413085938e+01 3.192386245727539062e+01 3.125813007354736328e-01 4.499189853668212891e+00 1.443531394004821777e+00 -5.333100557327270508e-01
2.320000000000000000e+03 4.156243896484375000e+01 -1.762706398963928223e+00 5.636917948722839355e-01 1.106167221069335938e+01 3.487609386444091797e+00 1.663874030113220215e+00
2.321000000000000000e+03 4.038129043579101562e+01 -3.418288946151733398e+00 6.118635535240173340e-01 1.094733333587646484e+01 3.467759132385253906e+00 1.894584536552429199e+00
2.322000000000000000e+03 3.108909988403320312e+01 -3.211518859863281250e+01 8.390375226736068726e-02 2.366750955581665039e+00 7.351964116096496582e-01 1.412393450736999512e+00
2.323000000000000000e+03 6.971347045898437500e+01 -2.508719253540039062e+01 1.083933591842651367e+00 1.198051261901855469e+01 3.919333696365356445e+00 2.610815130174160004e-02
2.324000000000000000e+03 7.611019134521484375e+01 -2.256746673583984375e+01 2.529267668724060059e-01 9.361841201782226562e+00 2.884430408477783203e+00 -1.293833017349243164e+00
2.325000000000000000e+03 3.362482070922851562e+01 -2.524380207061767578e+00 -3.315038084983825684e-01 8.554567694664001465e-01 1.571858823299407959e-01 9.916633367538452148e-02
2.326000000000000000e+03 1.368295097351074219e+01 2.750688171386718750e+01 4.669796326197683811e-04 1.724480825942009687e-04 1.918283087434247136e-04 -2.665025749593041837e-05
2.327000000000000000e+03 1.314882087707519531e+01 2.681546211242675781e+01 -2.632547984831035137e-04 -2.330430143047124147e-04 -1.488893467467278242e-04 1.801315229386091232e-04
2.328000000000000000e+03 6.758934020996093750e+01 -3.137597465515136719e+01 -1.620958328247070312e+00 5.067931175231933594e+00 1.034091949462890625e+00 4.802959263324737549e-01
2.329000000000000000e+03 3.100558662414550781e+01 -3.399845600128173828e+00 -9.286000579595565796e-02 -3.883617520332336426e-01 -1.443665176630020142e-01 -5.879016518592834473e-01
2.330000000000000000e+03 3.188113784790039062e+01 -3.155183076858520508e+00 -1.264057010412216187e-01 -1.993935108184814453e-01 -9.773976355791091919e-02 -4.320355653762817383e-01
2.331000000000000000e+03 6.292606735229492188e+01 -3.661722183227539062e+01 -4.153616428375244141e-01 6.101034879684448242e-01 5.842255800962448120e-02 1.618686169385910034e-01
2.332000000000000000e+03 5.712590408325195312e+01 -3.546484375000000000e+01 -1.077096939086914062e+00 -4.507884383201599121e-01 -4.583655893802642822e-01 -4.589774608612060547e-01
2.333000000000000000e+03 6.987114715576171875e+01 -1.227005481719970703e+01 1.225371956825256348e+00 1.292653560638427734e+01 4.245572090148925781e+00 -1.548010945320129395e+00
2.334000000000000000e+03 4.120693969726562500e+01 -1.998510360717773438e+01 -5.278084278106689453e-01 7.287054538726806641e+00 2.027773857116699219e+00 2.051284462213516235e-01
2.335000000000000000e+03 5.511091995239257812e+01 -3.354895401000976562e+01 -1.482519268989562988e+00 -6.221186369657516479e-02 -4.634193480014801025e-01 -1.296855658292770386e-01
2.336000000000000000e+03 6.993730163574218750e+01 -2.711490631103515625e+01 -1.230529248714447021e-01 1.008017063140869141e+01 2.987135171890258789e+00 -4.239341318607330322e-01
2.337000000000000000e+03 7.019828033447265625e+01 -2.619819068908691406e+01 4.041003286838531494e-01 1.077576637268066406e+01 3.353960037231445312e+00 -5.626248717308044434e-01
2.338000000000000000e+03 5.911259460449218750e+01 -3.586844253540039062e+01 -9.309487938880920410e-01 -6.717724800109863281e-01 -4.808163940906524658e-01 -3.718450069427490234e-01
2.339000000000000000e+03 6.510247802734375000e+01 -3.423320770263671875e+01 -1.256487250328063965e+00 1.953150272369384766e+00 2.089989036321640015e-01 5.604621767997741699e-01
2.340000000000000000e+03 4.252450942993164062e+01 1.908050537109375000e+00 -2.951177597045898438e+00 8.865453720092773438e+00 1.774282693862915039e+00 1.855869531631469727e+00
2.341000000000000000e+03 4.374929046630859375e+01 2.727132797241210938e+01 6.058086156845092773e-01 5.717259407043457031e+00 1.896920442581176758e+00 -1.739199906587600708e-01
2.342000000000000000e+03 4.380491256713867188e+01 2.821812057495117188e+01 6.724758148193359375e-01 5.504493236541748047e+00 1.853090763092041016e+00 -1.519654244184494019e-01
2.343000000000000000e+03 7.700956726074218750e+01 -4.063512039184570312e+01 -7.253823429346084595e-02 1.159046459197998047e+01 3.455377817153930664e+00 1.436047255992889404e-02
2.344000000000000000e+03 3.193170738220214844e+01 -3.161434173583984375e+01 1.639513969421386719e-01 3.023346424102783203e+00 9.561893939971923828e-01 1.486909031867980957e+00
2.345000000000000000e+03 4.042156219482421875e+01 -6.677633762359619141e+00 1.481682181358337402e+00 1.298769569396972656e+01 4.340813159942626953e+00 1.536833047866821289e+00
2.346000000000000000e+03 2.598934412002563477e+00 -2.256554794311523438e+01 1.796872019767761230e-01 8.036662638187408447e-02 7.801614701747894287e-02 8.431263566017150879e-01
2.347000000000000000e+03 3.581986618041992188e+01 -3.071139526367187500e+01 -2.435196489095687866e-01 5.280170917510986328e+00 1.510995388031005859e+00 6.501088142395019531e-01
2.348000000000000000e+03 2.617028474807739258e+00 4.068373107910156250e+01 -1.756855781422927976e-04 3.130907425656914711e-04 4.122155587538145483e-05 -8.804115350358188152e-05
2.349000000000000000e+03 4.170573806762695312e+01 4.830211699008941650e-01 -2.211803674697875977e+00 1.012749958038330078e+01 2.374708890914916992e+00 9.872198700904846191e-01
2.350000000000000000e+03 3.053866958618164062e+01 -1.686758804321289062e+01 -1.875170111656188965e+00 -5.901969075202941895e-01 -7.396100759506225586e-01 1.186091065406799316e+00
2.351000000000000000e+03 4.205530548095703125e+01 3.581097793579101562e+01 -3.381720185279846191e-01 3.555806398391723633e+00 9.652903079986572266e-01 -3.345214128494262695e-01
2.352000000000000000e+03 3.976988983154296875e+01 3.552843093872070312e+01 -1.887078583240509033e-01 2.538990736007690430e+00 7.050849199295043945e-01 -6.898595094680786133e-01
2.353000000000000000e+03 1.359211921691894531e+01 2.524435043334960938e+01 4.078778874827548862e-05 -4.075024116900749505e-05 1.126400039908048711e-08 -1.186012013931758702e-05
2.354000000000000000e+03 6.683300018310546875e+01 -6.012823104858398438e+00 1.075918912887573242e+00 7.879554271697998047e+00 2.686641931533813477e+00 -2.198871374130249023e+00
2.355000000000000000e+03 6.597988128662109375e+01 -2.903838872909545898e+00 -3.465045094490051270e-01 6.370732307434082031e+00 1.807268381118774414e+00 -1.517486333847045898e+00
2.356000000000000000e+03 3.987763977050781250e+01 -1.500222015380859375e+01 5.378857851028442383e-01 1.028924942016601562e+01 3.248140573501586914e+00 -4.585058093070983887e-01
2.357000000000000000e+03 4.065657424926757812e+01 -1.788057708740234375e+01 -5.501590669155120850e-02 8.999678611755371094e+00 2.683398723602294922e+00 2.106988579034805298e-01
2.358000000000000000e+03 2.519990730285644531e+01 -4.236732482910156250e+00 1.058837920427322388e-01 -1.831840872764587402e-01 -2.319008670747280121e-02 -2.451747953891754150e-01
2.359000000000000000e+03 6.817718505859375000e+01 -3.058493804931640625e+01 -1.506919026374816895e+00 6.111052989959716797e+00 1.381240248680114746e+00 3.676418066024780273e-01
2.360000000000000000e+03 3.314440917968750000e+01 -3.299200439453125000e+01 -5.781522989273071289e-01 3.773865699768066406e+00 9.587140083312988281e-01 1.108792781829833984e+00
2.361000000000000000e+03 4.098234939575195312e+01 -8.101241588592529297e-01 -9.410588741302490234e-01 1.037223911285400391e+01 2.829354047775268555e+00 8.703457713127136230e-01
2.362000000000000000e+03 4.196849060058593750e+01 2.731248140335083008e+00 -2.327409505844116211e+00 9.230275154113769531e+00 2.070859909057617188e+00 1.955538868904113770e+00
2.363000000000000000e+03 6.960175323486328125e+01 -2.801864814758300781e+01 -5.652696490287780762e-01 9.203660964965820312e+00 2.591517210006713867e+00 -2.148384302854537964e-01
2.364000000000000000e+03 4.235791778564453125e+01 -2.409152221679687500e+01 1.164049357175827026e-01 4.184127330780029297e+00 1.290159702301025391e+00 -3.098306953907012939e-01
2.365000000000000000e+03 3.644044113159179688e+01 -2.394741249084472656e+01 1.457793593406677246e+00 8.729492187500000000e+00 3.056185722351074219e+00 1.660866260528564453e+00
2.366000000000000000e+03 4.079333496093750000e+01 -1.713558316230773926e+00 1.063711591996252537e-03 1.046724224090576172e+01 3.140491724014282227e+00 1.250236392021179199e+00
2.367000000000000000e+03 3.130632400512695312e+00 -2.777513504028320312e+01 -3.285468220710754395e-01 8.409410715103149414e-01 1.537182778120040894e-01 6.772161722183227539e-01
2.368000000000000000e+03 6.454209899902343750e+01 -2.293590068817138672e+00 -5.557875633239746094e-01 5.020750522613525391e+00 1.339488863945007324e+00 -1.777668118476867676e+00
2.369000000000000000e+03 4.928328704833984375e+01 3.645130157470703125e+00 -2.208041906356811523e+00 -5.627714842557907104e-02 -6.792957186698913574e-01 7.860227674245834351e-02
2.370000000000000000e+03 4.644225311279296875e+01 2.921727180480957031e+00 -2.997204542160034180e+00 2.171019017696380615e-01 -8.340308070182800293e-01 1.769366502761840820e+00
2.371000000000000000e+03 3.023349571228027344e+01 -3.255084228515625000e+01 4.031791177112609148e-04 1.760007262229919434e+00 5.281231403350830078e-01 1.273750305175781250e+00
2.372000000000000000e+03 3.243262863159179688e+01 -3.239994049072265625e+01 -1.886698901653289795e-01 3.345572471618652344e+00 9.470707774162292480e-01 1.386790990829467773e+00
2.373000000000000000e+03 6.750063323974609375e+01 -5.460213661193847656e+00 6.103234887123107910e-01 7.907810688018798828e+00 2.555440187454223633e+00 -1.671329498291015625e+00
2.374000000000000000e+03 4.113055801391601562e+01 -1.878895378112792969e+01 -3.167608380317687988e-01 8.306308746337890625e+00 2.396864414215087891e+00 1.017266288399696350e-01
2.375000000000000000e+03 2.281187248229980469e+01 -4.499489784240722656e+00 1.348517686128616333e-01 -1.288639903068542480e-01 1.796333468519151211e-03 -2.543591521680355072e-02
2.376000000000000000e+03 3.588234710693359375e+01 -1.767615890502929688e+01 -1.956472754478454590e+00 5.849413394927978516e+00 1.167882084846496582e+00 4.369171857833862305e-01
2.377000000000000000e+03 3.388295745849609375e+01 -1.598222637176513672e+01 -7.701479196548461914e-01 2.066680192947387695e+00 3.889596760272979736e-01 -5.754765868186950684e-02
2.378000000000000000e+03 4.309657669067382812e+01 3.249777603149414062e+01 1.417099982500076294e-01 4.461294651031494141e+00 1.380901455879211426e+00 -1.551553308963775635e-01
2.379000000000000000e+03 4.234473800659179688e+01 3.346210479736328125e+01 -2.500008419156074524e-02 4.069543361663818359e+00 1.213363051414489746e+00 -3.325010538101196289e-01
2.380000000000000000e+03 3.079808425903320312e+01 -3.359126281738281250e+01 -3.050285279750823975e-01 2.272625684738159180e+00 5.902791619300842285e-01 1.230143904685974121e+00
2.381000000000000000e+03 7.055886077880859375e+01 -2.434074020385742188e+01 9.897986054420471191e-01 1.183162975311279297e+01 3.846428632736206055e+00 -4.208466112613677979e-01
2.382000000000000000e+03 6.884870147705078125e+01 -7.475064754486083984e+00 4.132966697216033936e-01 9.370291709899902344e+00 2.935076475143432617e+00 -1.683883428573608398e+00
2.383000000000000000e+03 6.817176818847656250e+01 -7.582337856292724609e+00 6.095834374427795410e-01 9.260193824768066406e+00 2.960933208465576172e+00 -2.171375751495361328e+00
2.384000000000000000e+03 2.515970420837402344e+01 -3.467977046966552734e+00 -5.655148997902870178e-02 -9.955102950334548950e-02 -4.683075472712516785e-02 -2.218043059110641479e-01
2.385000000000000000e+03 4.417559814453125000e+01 2.642332315444946289e+00 -3.037400722503662109e+00 5.214919567108154297e+00 6.532556414604187012e-01 2.630486726760864258e+00
2.386000000000000000e+03 4.340559387207031250e+01 2.571198463439941406e+00 -3.004683017730712891e+00 6.941089153289794922e+00 1.180921792984008789e+00 2.546927213668823242e+00
2.387000000000000000e+03 4.339274597167968750e+01 4.140822887420654297e+00 -1.239788413047790527e+00 6.595566272735595703e+00 1.606733322143554688e+00 2.742631196975708008e+00
2.388000000000000000e+03 8.172710418701171875e+00 -1.471082305908203125e+01 6.858620643615722656e-01 1.261533856391906738e+00 5.842188000679016113e-01 4.178036749362945557e-01
2.389000000000000000e+03 1.281850528717041016e+01 -1.421657180786132812e+01 1.013537049293518066e+00 3.381433188915252686e-01 4.055041074752807617e-01 4.460386037826538086e-01
2.390000000000000000e+03 3.683849334716796875e+01 -2.599380111694335938e+01 1.443838357925415039e+00 7.312620639801025391e+00 2.626937866210937500e+00 9.312763214111328125e-01
2.391000000000000000e+03 3.707875061035156250e+01 -2.511118888854980469e+01 1.516567945480346680e+00 7.420367717742919922e+00 2.681080579757690430e+00 1.063069462776184082e+00
2.392000000000000000e+03 5.559602737426757812e+01 -3.541868209838867188e+01 -1.046242475509643555e+00 -1.247554495930671692e-01 -3.512993752956390381e-01 -4.672289788722991943e-01
2.393000000000000000e+03 8.097827911376953125e+00 -3.190181350708007812e+01 -6.869536042213439941e-01 -3.776293396949768066e-01 -3.193748891353607178e-01 2.703613340854644775e-01
2.394000000000000000e+03 4.055900192260742188e+01 -1.931083488464355469e+01 -5.482358932495117188e-01 8.001675605773925781e+00 2.236032009124755859e+00 6.449080109596252441e-01
2.395000000000000000e+03 9.834859848022460938e+00 -3.294547653198242188e+01 -6.102274060249328613e-01 -4.805535972118377686e-01 -3.272342979907989502e-01 3.457368612289428711e-01
2.396000000000000000e+03 5.422890090942382812e+01 -3.461676025390625000e+01 -1.077031612396240234e+00 1.586721092462539673e-01 -2.755078673362731934e-01 -3.638876378536224365e-01
2.397000000000000000e+03 3.071896171569824219e+01 -1.580425643920898438e+01 -8.164432048797607422e-01 -4.673114120960235596e-01 -3.851263821125030518e-01 1.096356153488159180e+00
2.398000000000000000e+03 3.012575531005859375e+01 -1.617813491821289062e+01 -1.239972472190856934e+00 -4.081704914569854736e-01 -4.944429099559783936e-01 1.030870795249938965e+00
2.399000000000000000e+03 6.748742675781250000e+01 -4.264325618743896484e+00 1.268516927957534790e-01 7.546332359313964844e+00 2.301955223083496094e+00 -1.334278941154479980e+00
2.400000000000000000e+03 6.641722106933593750e+01 -4.092957496643066406e+00 2.641301751136779785e-01 6.987028598785400391e+00 2.175347566604614258e+00 -1.564413905143737793e+00
2.401000000000000000e+03 3.260314178466796875e+01 4.164815902709960938e+01 1.994602978229522705e-01 1.127912327647209167e-01 9.367545694112777710e-02 -1.565405912697315216e-02
2.402000000000000000e+03 3.856419372558593750e+01 3.721832275390625000e+01 -1.658489704132080078e-01 1.802919149398803711e+00 4.911210536956787109e-01 -5.616175532341003418e-01
2.403000000000000000e+03 1.723562431335449219e+01 4.128067779541015625e+01 -1.879335381090641022e-03 -2.712330315262079239e-03 -1.377499662339687347e-03 6.182435317896306515e-04
2.404000000000000000e+03 3.305941390991210938e+01 4.016721725463867188e+01 1.121286153793334961e-01 2.091749757528305054e-02 3.991383686661720276e-02 -1.932303048670291901e-02
2.405000000000000000e+03 3.834061813354492188e+01 3.892919921875000000e+01 -9.927881509065628052e-02 1.668243169784545898e+00 4.706893265247344971e-01 -3.948950171470642090e-01
2.406000000000000000e+03 2.318236351013183594e+01 4.147349548339843750e+01 -1.263951126020401716e-04 -1.408240851014852524e-02 -4.262641072273254395e-03 -1.644488540478050709e-03
2.407000000000000000e+03 2.218800163269042969e+01 3.887003707885742188e+01 -6.163593381643295288e-03 -6.131994538009166718e-03 -3.688676282763481140e-03 -3.414280945435166359e-03
2.408000000000000000e+03 2.723136138916015625e+01 4.152881240844726562e+01 5.880117416381835938e-02 -7.158719003200531006e-02 -3.835803829133510590e-03 2.466160804033279419e-02
2.409000000000000000e+03 2.692070007324218750e+01 3.962619400024414062e+01 4.887742921710014343e-03 -3.132912144064903259e-02 -7.932413369417190552e-03 5.494172126054763794e-02
2.410000000000000000e+03 2.044775962829589844e+01 4.035245895385742188e+01 -1.536659779958426952e-03 2.234118990600109100e-03 2.092377835651859641e-04 1.655999803915619850e-03
2.411000000000000000e+03 1.764192390441894531e+01 2.823185205459594727e+00 -2.780995146167697385e-06 -1.452853575756307691e-05 -5.192859134695027024e-06 -4.287121555535122752e-06
2.412000000000000000e+03 2.120550918579101562e+01 -1.592615699768066406e+01 1.984773725271224976e-01 -1.044333428144454956e-01 2.821320854127407074e-02 2.489608973264694214e-01
2.413000000000000000e+03 2.246075057983398438e+01 -1.676885223388671875e+01 4.214471118757501245e-05 -5.276143923401832581e-02 -1.581578701734542847e-02 2.455191314220428467e-01
2.414000000000000000e+03 3.310000181198120117e+00 4.046035289764404297e+00 4.101425929547986016e-06 3.187015806815907126e-07 1.326038272964069620e-06 -1.441238453026016941e-07
2.415000000000000000e+03 1.055544185638427734e+01 -4.804365158081054688e+00 -1.906766146421432495e-01 1.516839861869812012e-01 -1.169778965413570404e-02 -4.263048060238361359e-03
2.416000000000000000e+03 1.127583217620849609e+01 -4.864991664886474609e+00 -1.763578951358795166e-01 1.443446129560470581e-01 -9.603983722627162933e-03 3.344760835170745850e-02
2.417000000000000000e+03 8.340601921081542969e+00 -4.031213760375976562e+00 -2.224130183458328247e-01 1.130931675434112549e-01 -3.279595449566841125e-02 -1.080683022737503052e-01
2.418000000000000000e+03 9.844614028930664062e+00 -4.754101753234863281e+00 -1.991126686334609985e-01 1.548862904310226440e-01 -1.326791383326053619e-02 -3.845360502600669861e-02
2.419000000000000000e+03 4.197252273559570312e+01 6.145864486694335938e+00 1.117879152297973633e+00 8.949559211730957031e+00 3.020231723785400391e+00 3.180662870407104492e+00
2.420000000000000000e+03 4.813782119750976562e+01 3.640653848648071289e+00 -2.038403749465942383e+00 -8.620212972164154053e-02 -6.373817920684814453e-01 4.468431770801544189e-01
2.421000000000000000e+03 4.700978851318359375e+01 3.452220201492309570e+00 -2.129478216171264648e+00 1.461909525096416473e-02 -6.344577670097351074e-01 1.292703390121459961e+00
2.422000000000000000e+03 1.573786544799804688e+01 3.183496236801147461e+00 1.065245669451542199e-05 1.188711939903441817e-05 6.761873009963892400e-06 3.958134300319215981e-07
2.423000000000000000e+03 3.755234909057617188e+01 -2.076985740661621094e+01 -3.397440314292907715e-01 7.657546997070312500e+00 2.195340871810913086e+00 1.818541049957275391e+00
2.424000000000000000e+03 4.031050109863281250e+01 -1.690594482421875000e+01 2.416634708642959595e-01 9.585076332092285156e+00 2.948021888732910156e+00 1.421547774225473404e-02
2.425000000000000000e+03 2.321782875061035156e+01 -1.612833595275878906e+01 -7.279491052031517029e-03 -8.011218905448913574e-02 -2.621750533580780029e-02 3.602759838104248047e-01
2.426000000000000000e+03 1.988480567932128906e+01 -1.570682907104492188e+01 3.203150331974029541e-01 -1.187543570995330811e-01 6.046820059418678284e-02 2.042812705039978027e-01
2.427000000000000000e+03 2.043309020996093750e+01 -1.654184532165527344e+01 2.028791010379791260e-01 -8.039754629135131836e-02 3.674446791410446167e-02 1.636401414871215820e-01
2.428000000000000000e+03 1.703276634216308594e+01 2.903810501098632812e+00 2.843042466338374652e-06 1.545481245557311922e-05 5.489356226462405175e-06 1.336575792265648488e-06
2.429000000000000000e+03 1.808646774291992188e+01 3.439517259597778320e+00 -6.719682005495997146e-06 -1.185433666250901297e-05 -5.572205282078357413e-06 -5.654102551488904282e-06
2.430000000000000000e+03 1.758274459838867188e+01 3.394931793212890625e+00 4.709209406428271905e-06 1.472233816457446665e-05 5.829464498674497008e-06 9.228388989868108183e-06
2.431000000000000000e+03 1.689161109924316406e+01 4.500673294067382812e+00 -3.142990181004279293e-06 4.133773472858592868e-06 2.972349761876103003e-07 7.085915967763867229e-06
2.432000000000000000e+03 4.133963012695312500e+01 6.425981521606445312e+00 1.520749449729919434e+00 1.009136390686035156e+01 3.483634233474731445e+00 3.495211839675903320e+00
2.433000000000000000e+03 1.975227737426757812e+01 -1.640032768249511719e+01 2.724102139472961426e-01 -9.096705168485641479e-02 5.443294718861579895e-02 1.510678976774215698e-01
2.434000000000000000e+03 1.923352622985839844e+01 -1.552323913574218750e+01 3.926483988761901855e-01 -1.267468631267547607e-01 7.977046072483062744e-02 1.997956484556198120e-01
2.435000000000000000e+03 2.054236412048339844e+01 -1.584102630615234375e+01 2.600955069065093994e-01 -1.149650514125823975e-01 4.353914037346839905e-02 2.308506369590759277e-01
2.436000000000000000e+03 1.857167816162109375e+01 -1.529762554168701172e+01 4.556292295455932617e-01 -1.267983317375183105e-01 9.864927083253860474e-02 1.897602975368499756e-01
2.437000000000000000e+03 1.279847717285156250e+01 2.293828773498535156e+01 1.378101878799498081e-04 -1.472058193030534312e-05 3.692687823786400259e-05 -1.417873318132478744e-05
2.438000000000000000e+03 1.501371002197265625e+01 4.060032844543457031e+00 5.076849447505082935e-06 1.709501884761266410e-05 6.651560397585853934e-06 1.304891611653147265e-06
2.439000000000000000e+03 1.426861667633056641e+01 4.077236652374267578e+00 -4.407263986649923027e-06 -1.565162892802618444e-05 -6.017668056301772594e-06 1.641043809286202304e-06
2.440000000000000000e+03 1.788621330261230469e+01 -1.503950023651123047e+01 5.407411456108093262e-01 -1.234631910920143127e-01 1.251833885908126831e-01 2.053631991147994995e-01
2.441000000000000000e+03 2.822513198852539062e+01 -1.538043117523193359e+01 -4.179060459136962891e-01 -2.234027683734893799e-01 -1.923926472663879395e-01 9.783113002777099609e-01
2.442000000000000000e+03 2.913319396972656250e+01 -1.582777976989746094e+01 -8.347426652908325195e-01 -2.426009029150009155e-01 -3.232030570507049561e-01 1.029561877250671387e+00
2.443000000000000000e+03 1.351732540130615234e+01 4.114798545837402344e+00 4.870319571637082845e-06 1.405467992299236357e-05 5.677499757439363748e-06 -3.789655465880059637e-06
2.444000000000000000e+03 2.386751365661621094e+01 -1.632021903991699219e+01 -1.119410246610641479e-01 -5.219209566712379456e-02 -4.923993721604347229e-02 3.690153658390045166e-01
2.445000000000000000e+03 2.373391342163085938e+01 -1.688123703002929688e+01 -1.517056971788406372e-01 -3.340849280357360840e-02 -5.553425475955009460e-02 2.891857326030731201e-01
2.446000000000000000e+03 2.547595214843750000e+01 -1.579391384124755859e+01 -2.353635132312774658e-01 -9.291968494653701782e-02 -9.848495572805404663e-02 5.830570459365844727e-01
2.447000000000000000e+03 4.019025421142578125e+01 -4.233213901519775391e+00 6.872293353080749512e-01 1.124304580688476562e+01 3.579082489013671875e+00 1.844581246376037598e+00
2.448000000000000000e+03 3.887707901000976562e+01 -1.243936920166015625e+01 7.594187259674072266e-01 9.677632331848144531e+00 3.131115436553955078e+00 -1.105622574687004089e-01
2.449000000000000000e+03 4.787191772460937500e+01 -2.805416297912597656e+01 -1.145547255873680115e-01 9.588804244995117188e-01 2.532977163791656494e-01 -3.509027063846588135e-01
2.450000000000000000e+03 3.636615753173828125e+00 -3.553489303588867188e+01 -1.450475584715604782e-02 9.386187195777893066e-01 2.772341966629028320e-01 -1.020843163132667542e-01
2.451000000000000000e+03 3.029827356338500977e+00 -3.676985931396484375e+01 1.005324628204107285e-02 1.043946862220764160e+00 3.162000179290771484e-01 -1.135486140847206116e-01
2.452000000000000000e+03 7.712008666992187500e+01 -3.618133544921875000e+01 -1.739784479141235352e-01 1.174173069000244141e+01 3.470325708389282227e+00 -3.786252737045288086e-01
2.453000000000000000e+03 7.565179443359375000e+01 -3.975325393676757812e+01 -1.360188424587249756e-01 1.087684345245361328e+01 3.222247362136840820e+00 -5.086167529225349426e-02
2.454000000000000000e+03 3.192138671875000000e+00 3.621012878417968750e+01 4.086488479515537620e-05 1.016543392324820161e-04 4.275576793588697910e-05 -2.662785991560667753e-04
2.455000000000000000e+03 3.636032819747924805e+00 3.975048446655273438e+01 -6.302134715951979160e-05 5.196192651055753231e-04 1.369793753838166595e-04 -9.579180186847224832e-05
2.456000000000000000e+03 1.275660133361816406e+01 4.174083709716796875e+00 -6.408205081243067980e-06 -1.228722794621717185e-05 -5.608630090137012303e-06 4.460323452804004773e-06
2.457000000000000000e+03 1.202920818328857422e+01 3.553521871566772461e+00 -6.301595931290648878e-06 -9.479762411501724273e-06 -4.734407411888241768e-06 3.047380005227751099e-06
2.458000000000000000e+03 2.458007812500000000e+01 -1.525844097137451172e+01 -2.105246996507048607e-03 -1.420129537582397461e-01 -4.323545843362808228e-02 5.561636090278625488e-01
2.459000000000000000e+03 1.430704116821289062e+01 -5.182464599609375000e+00 -7.084652036428451538e-02 6.327193975448608398e-02 -2.272376324981451035e-03 1.640444546937942505e-01
2.460000000000000000e+03 1.434199810028076172e+01 -4.516848564147949219e+00 -1.200741156935691833e-01 4.288446158170700073e-02 -2.315689623355865479e-02 1.453899145126342773e-01
2.461000000000000000e+03 4.761813640594482422e+00 5.400984764099121094e+00 7.393046871584374458e-06 -7.210462626972002909e-08 2.196282594013609923e-06 -1.382049276799079962e-06
2.462000000000000000e+03 6.421719551086425781e+00 3.922036647796630859e+00 5.560610588872805238e-06 2.002453129534842446e-06 2.268919160997029394e-06 -1.370130803479696624e-06
2.463000000000000000e+03 4.801705360412597656e+00 4.682780742645263672e+00 -6.636512352997669950e-06 -5.312862185746780597e-07 -2.150339469153550453e-06 1.528096390757127665e-06
2.464000000000000000e+03 6.881440734863281250e+01 -6.868032455444335938e+00 3.559992313385009766e-01 8.974959373474121094e+00 2.799287796020507812e+00 -1.519109129905700684e+00
2.465000000000000000e+03 2.524022579193115234e+00 4.838096618652343750e+00 4.404660103318747133e-06 -2.282826727650899556e-07 1.252913307325798087e-06 6.539913055547685872e-09
2.466000000000000000e+03 8.819174766540527344e+00 3.811568975448608398e+00 -6.843940809631021693e-06 -4.258372428012080491e-06 -3.330693971292930655e-06 2.706689201659173705e-06
2.467000000000000000e+03 7.168853759765625000e+00 4.577877521514892578e+00 7.281718808371806517e-06 2.525460558899794705e-06 2.942153741969377734e-06 -2.641241508172242902e-06
2.468000000000000000e+03 5.582624912261962891e+00 4.647733211517333984e+00 6.474569090642035007e-06 1.063217609953426290e-06 2.261336021547322161e-06 -1.456639552088745404e-06
2.469000000000000000e+03 6.372623443603515625e+00 4.614145278930664062e+00 -7.688871846767142415e-06 -1.442551138097769581e-06 -2.739426690823165700e-06 2.395324145254562609e-06
2.470000000000000000e+03 4.718128967285156250e+01 -2.579830169677734375e+01 5.370369181036949158e-02 9.273840785026550293e-01 2.943263351917266846e-01 -3.574042320251464844e-01
2.471000000000000000e+03 1.201428413391113281e+01 -4.935841560363769531e+00 -1.549971252679824829e-01 1.289780884981155396e-01 -7.805710658431053162e-03 7.033332437276840210e-02
2.472000000000000000e+03 1.276652240753173828e+01 -5.014214992523193359e+00 -1.313131749629974365e-01 1.109631359577178955e-01 -6.105011329054832458e-03 1.043097749352455139e-01
2.473000000000000000e+03 1.043473815917968750e+01 3.700388669967651367e+00 -6.766202659491682425e-06 -6.516951998492004350e-06 -3.984946488344576210e-06 3.118701215498731472e-06
2.474000000000000000e+03 8.775028228759765625e+00 4.491352081298828125e+00 7.565805844933493063e-06 4.680411166191333905e-06 3.673865194286918268e-06 -3.939972884836606681e-06
2.475000000000000000e+03 2.734646034240722656e+01 -3.538482666015625000e+01 -3.100432157516479492e-01 9.646864533424377441e-01 1.963929831981658936e-01 5.926048159599304199e-01
2.476000000000000000e+03 1.198350906372070312e+01 4.243744373321533203e+00 6.827076504123397171e-06 1.050114315148675814e-05 5.198465714784106240e-06 -5.174203579372260720e-06
2.477000000000000000e+03 5.049376678466796875e+01 -2.946734237670898438e+01 -4.031513333320617676e-01 3.542403876781463623e-01 -1.467328891158103943e-02 -2.727088145911693573e-02
2.478000000000000000e+03 5.215916442871093750e+01 -3.408041381835937500e+01 -9.147508740425109863e-01 5.073411464691162109e-01 -1.222229152917861938e-01 -3.276388645172119141e-01
2.479000000000000000e+03 3.854077911376953125e+01 -2.382566642761230469e+01 8.402296304702758789e-01 6.652382850646972656e+00 2.247783660888671875e+00 1.060524463653564453e+00
2.480000000000000000e+03 9.124627113342285156e+00 -4.720300197601318359e+00 -2.035644799470901489e-01 1.529026478528976440e-01 -1.519854646176099777e-02 -7.647825777530670166e-02
2.481000000000000000e+03 4.839192199707031250e+01 -2.879043579101562500e+01 -2.014111131429672241e-01 8.746967911720275879e-01 2.019857168197631836e-01 -3.177601397037506104e-01
2.482000000000000000e+03 1.385022544860839844e+01 1.356586170196533203e+01 1.241828044840076473e-06 9.786735063244123012e-06 3.308568921056576073e-06 6.969559308345196769e-06
2.483000000000000000e+03 4.319927215576171875e+01 1.476322078704833984e+01 1.071084976196289062e+00 8.160201072692871094e+00 2.769386053085327148e+00 1.981463193893432617e+00
2.484000000000000000e+03 4.419154739379882812e+01 1.804706954956054688e+01 7.066185474395751953e-01 6.928016185760498047e+00 2.290390253067016602e+00 1.339482903480529785e+00
2.485000000000000000e+03 4.370892333984375000e+01 2.468688011169433594e+01 2.703041732311248779e-01 6.155530929565429688e+00 1.927750468254089355e+00 1.013881787657737732e-01
2.486000000000000000e+03 3.996940994262695312e+01 -1.734408020973205566e+00 -3.992016315460205078e-01 9.800760269165039062e+00 2.820467472076416016e+00 1.031895279884338379e+00
2.487000000000000000e+03 7.746427917480468750e+01 -1.856904983520507812e+01 1.841648221015930176e-01 7.771906852722167969e+00 2.386821508407592773e+00 -6.215924024581909180e-01
2.488000000000000000e+03 7.134806060791015625e+01 -1.724742889404296875e+01 8.721345067024230957e-01 1.309242248535156250e+01 4.189367294311523438e+00 -1.305592656135559082e+00
2.489000000000000000e+03 1.760505294799804688e+01 -5.447130680084228516e+00 6.975649297237396240e-02 -4.828570038080215454e-02 6.441238801926374435e-03 2.075371593236923218e-01
2.490000000000000000e+03 4.427143859863281250e+01 1.971602821350097656e+01 4.898222386837005615e-01 6.652664661407470703e+00 2.142745971679687500e+00 9.929829835891723633e-01
2.491000000000000000e+03 4.346718978881835938e+01 1.811353302001953125e+01 5.188239216804504395e-01 7.327799797058105469e+00 2.353986978530883789e+00 1.191192746162414551e+00
2.492000000000000000e+03 7.149328613281250000e+01 -2.258712196350097656e+01 6.105655431747436523e-01 1.204015541076660156e+01 3.795216321945190430e+00 -7.291842699050903320e-01
2.493000000000000000e+03 7.722171783447265625e+01 -2.981503677368164062e+01 -1.638147830963134766e-01 1.076565074920654297e+01 3.180550813674926758e+00 -1.126384139060974121e+00
2.494000000000000000e+03 7.637925720214843750e+01 -3.061776351928710938e+01 -3.018193840980529785e-01 1.068207168579101562e+01 3.114075899124145508e+00 -1.196894526481628418e+00
2.495000000000000000e+03 7.542806243896484375e+01 3.114456367492675781e+01 5.193922668695449829e-02 5.312722206115722656e+00 1.609398365020751953e+00 -1.213323175907135010e-01
2.496000000000000000e+03 7.699086761474609375e+01 3.138608169555664062e+01 2.408406697213649750e-02 5.338279247283935547e+00 1.608708977699279785e+00 -8.033090084791183472e-02
2.497000000000000000e+03 7.606938934326171875e+01 2.972916793823242188e+01 4.553484544157981873e-02 5.364820003509521484e+00 1.623106479644775391e+00 -1.362538188695907593e-01
2.498000000000000000e+03 6.968724822998046875e+01 -9.629582405090332031e+00 4.479366242885589600e-01 1.088990211486816406e+01 3.401351690292358398e+00 -1.470219492912292480e+00
2.499000000000000000e+03 1.296341800689697266e+01 -3.516761016845703125e+01 -4.483875334262847900e-01 -3.411139547824859619e-01 -2.368504554033279419e-01 2.555325031280517578e-01
2.500000000000000000e+03 2.610737800598144531e+01 -3.485274505615234375e+01 -2.849787175655364990e-01 5.206645727157592773e-01 7.070575654506683350e-02 3.842081427574157715e-01
2.501000000000000000e+03 2.660381793975830078e+00 2.958848381042480469e+01 1.053156552188738715e-06 1.046177785610780120e-04 3.170128184137865901e-05 -5.508958929567597806e-05
2.502000000000000000e+03 4.097182750701904297e+00 3.046536636352539062e+01 5.104423689772374928e-05 -5.911997141083702445e-05 -2.422719717287691310e-06 -1.019658957375213504e-04
2.503000000000000000e+03 4.364609527587890625e+01 2.302995300292968750e+01 2.173431515693664551e-01 6.344444751739501953e+00 1.968536376953125000e+00 3.360364139080047607e-01
2.504000000000000000e+03 4.452082443237304688e+01 2.470358276367187500e+01 3.924773037433624268e-01 5.949590206146240234e+00 1.902620196342468262e+00 1.894143819808959961e-01
2.505000000000000000e+03 4.690348434448242188e+01 2.211485099792480469e+01 7.478930950164794922e-01 5.552821636199951172e+00 1.890214443206787109e+00 7.805067896842956543e-01
2.506000000000000000e+03 4.448572921752929688e+01 2.385162162780761719e+01 3.513686656951904297e-01 6.062227725982666016e+00 1.924078941345214844e+00 3.104419410228729248e-01
2.507000000000000000e+03 2.109248733520507812e+01 -5.397641658782958984e+00 1.917871683835983276e-01 -1.458912044763565063e-01 1.376878935843706131e-02 1.021137982606887817e-01
2.508000000000000000e+03 7.234777069091796875e+01 -2.161966896057128906e+01 5.158775448799133301e-01 1.167207050323486328e+01 3.656384468078613281e+00 -1.008971333503723145e+00
2.509000000000000000e+03 4.238827133178710938e+01 9.733928680419921875e+00 1.852874517440795898e+00 9.261822700500488281e+00 3.334409236907958984e+00 3.488198041915893555e+00
2.510000000000000000e+03 4.324105072021484375e+01 1.041939163208007812e+01 1.845888495445251465e+00 8.033438682556152344e+00 2.963798046112060547e+00 3.189186096191406250e+00
2.511000000000000000e+03 4.600744247436523438e+01 -2.599370002746582031e+01 8.866269886493682861e-02 1.585433006286621094e+00 5.022286772727966309e-01 -5.411117076873779297e-01
2.512000000000000000e+03 7.636830902099609375e+01 -3.227741241455078125e+01 -3.505487740039825439e-01 1.089359569549560547e+01 3.162914037704467773e+00 -9.544292092323303223e-01
2.513000000000000000e+03 7.144542694091796875e+01 -1.891009140014648438e+01 4.984472990036010742e-01 1.296177864074707031e+01 4.038067817687988281e+00 -1.114418148994445801e+00
2.514000000000000000e+03 1.353148746490478516e+01 -5.097854137420654297e+00 -1.010426133871078491e-01 8.754288405179977417e-02 -4.049918614327907562e-03 1.379931271076202393e-01
2.515000000000000000e+03 3.603297805786132812e+01 -1.711556816101074219e+01 -1.525447845458984375e+00 5.918478012084960938e+00 1.317909002304077148e+00 3.516691029071807861e-01
2.516000000000000000e+03 4.468370437622070312e+01 -2.466559791564941406e+01 1.290446072816848755e-01 2.334372758865356445e+00 7.390251755714416504e-01 -6.310021877288818359e-01
2.517000000000000000e+03 2.645210742950439453e+00 -3.313967132568359375e+01 -8.908464014530181885e-02 1.177743792533874512e+00 3.265977203845977783e-01 -3.719201311469078064e-02
2.518000000000000000e+03 5.565844535827636719e+00 -3.175521087646484375e+01 -4.456419646739959717e-01 2.891431152820587158e-01 -4.694965481758117676e-02 1.340808868408203125e-01
2.519000000000000000e+03 7.655548858642578125e+01 2.478846168518066406e+01 4.897532984614372253e-02 5.589252948760986328e+00 1.691468477249145508e+00 -2.315896004438400269e-01
2.520000000000000000e+03 7.291519165039062500e+01 -1.938180923461914062e+01 5.562914609909057617e-01 1.152959442138671875e+01 3.625765562057495117e+00 -1.146871924400329590e+00
2.521000000000000000e+03 7.658362579345703125e+01 2.163170814514160156e+01 5.214431509375572205e-02 5.801429748535156250e+00 1.756072282791137695e+00 -3.190041482448577881e-01
2.522000000000000000e+03 1.198056125640869141e+01 1.730603790283203125e+01 9.337367373518645763e-05 6.674976611975580454e-05 4.803702904609963298e-05 -6.244703399715945125e-05
2.523000000000000000e+03 1.461659908294677734e+01 1.576247501373291016e+01 4.690641435445286334e-05 -2.555672153903287835e-06 1.330522263742750511e-05 4.449357220437377691e-05
2.524000000000000000e+03 7.746334838867187500e+01 -2.256184005737304688e+01 1.311025172472000122e-01 8.674029350280761719e+00 2.641539812088012695e+00 -1.023817181587219238e+00
2.525000000000000000e+03 7.676870727539062500e+01 -2.334218597412109375e+01 1.744937449693679810e-01 9.185210227966308594e+00 2.807911396026611328e+00 -1.253968119621276855e+00
2.526000000000000000e+03 4.552260398864746094e+00 2.985676956176757812e+01 6.411428330466151237e-05 1.215719967149198055e-04 5.570588473347015679e-05 -1.504261454101651907e-04
2.527000000000000000e+03 7.659799957275390625e+01 1.763883972167968750e+01 4.328226298093795776e-02 6.161860942840576172e+00 1.861542940139770508e+00 -4.240148067474365234e-01
2.528000000000000000e+03 7.663879394531250000e+01 1.523273277282714844e+01 2.686261385679244995e-02 6.429356575012207031e+00 1.936865806579589844e+00 -4.678669571876525879e-01
2.529000000000000000e+03 7.740537261962890625e+01 1.198788261413574219e+01 -6.181727163493633270e-03 6.964647769927978516e+00 2.087539911270141602e+00 -3.911930322647094727e-01
2.530000000000000000e+03 7.669628143310546875e+01 1.042743206024169922e+01 -3.072998300194740295e-02 7.025394916534423828e+00 2.098399400711059570e+00 -4.668295085430145264e-01
2.531000000000000000e+03 7.668682098388671875e+01 1.122879886627197266e+01 -1.931159384548664093e-02 6.924833297729492188e+00 2.071656465530395508e+00 -4.787477254867553711e-01
2.532000000000000000e+03 7.139737701416015625e+01 -2.353975296020507812e+01 7.877533435821533203e-01 1.167836570739746094e+01 3.739835739135742188e+00 -7.428358197212219238e-01
2.533000000000000000e+03 4.668552017211914062e+01 -2.633301734924316406e+01 3.819082304835319519e-02 1.253723740577697754e+00 3.875743746757507324e-01 -4.617520570755004883e-01
2.534000000000000000e+03 7.671697235107421875e+01 8.020751953125000000e+00 -7.139180600643157959e-02 7.318419933319091797e+00 2.174108505249023438e+00 -4.029296338558197021e-01
2.535000000000000000e+03 7.674716949462890625e+01 3.216733694076538086e+00 -1.461402475833892822e-01 7.773831844329833984e+00 2.288307428359985352e+00 -1.202682107686996460e-01
2.536000000000000000e+03 7.675630950927734375e+01 1.600533008575439453e+00 -1.591218709945678711e-01 7.863985538482666016e+00 2.311459064483642578e+00 1.134257111698389053e-02
2.537000000000000000e+03 2.503294706344604492e+00 -2.995045089721679688e+01 -2.139633893966674805e-01 1.123750925064086914e+00 2.729362845420837402e-01 2.800758779048919678e-01
2.538000000000000000e+03 7.671882629394531250e+01 7.222846984863281250e+00 -8.468604087829589844e-02 7.407638549804687500e+00 2.196885824203491211e+00 -3.691556155681610107e-01
2.539000000000000000e+03 7.599977874755859375e+01 8.846175193786621094e+00 -7.905256748199462891e-02 7.074749469757080078e+00 2.098709106445312500e+00 -5.144792795181274414e-01
2.540000000000000000e+03 7.748223876953125000e+01 -2.447944879531860352e+00 -9.182427078485488892e-02 7.909506320953369141e+00 2.345304489135742188e+00 3.225434124469757080e-01
2.541000000000000000e+03 7.675777435302734375e+01 7.909160852432250977e-01 -1.625618636608123779e-01 7.894292831420898438e+00 2.319519281387329102e+00 8.133429288864135742e-02
2.542000000000000000e+03 7.679315185546875000e+01 -3.217603206634521484e+00 -1.260072886943817139e-01 7.912257671356201172e+00 2.335875034332275391e+00 3.976019918918609619e-01
2.543000000000000000e+03 7.680750274658203125e+01 -5.625971317291259766e+00 -7.033495604991912842e-02 7.841907501220703125e+00 2.331471920013427734e+00 5.212007761001586914e-01
2.544000000000000000e+03 3.081435203552246094e+00 -3.027067756652832031e+01 -2.725786864757537842e-01 9.718225002288818359e-01 2.097731381654739380e-01 2.595550119876861572e-01
2.545000000000000000e+03 4.929320812225341797e+00 -2.945727729797363281e+01 -6.106916666030883789e-01 4.190371036529541016e-01 -5.749637633562088013e-02 4.041125476360321045e-01
2.546000000000000000e+03 4.746245193481445312e+01 -2.736893844604492188e+01 -5.926069617271423340e-02 1.017626881599426270e+00 2.875098586082458496e-01 -3.869853615760803223e-01
2.547000000000000000e+03 7.680527496337890625e+01 -6.414482116699218750e+00 -4.704983904957771301e-02 7.814139366149902344e+00 2.330126762390136719e+00 5.426466464996337891e-01
2.548000000000000000e+03 7.678515625000000000e+01 -1.611929130554199219e+01 3.284083604812622070e-01 7.950465202331542969e+00 2.483662128448486328e+00 -3.686093091964721680e-01
2.549000000000000000e+03 7.678665161132812500e+01 -1.695558738708496094e+01 3.103702068328857422e-01 8.058572769165039062e+00 2.510682821273803711e+00 -5.092001557350158691e-01
2.550000000000000000e+03 7.674140930175781250e+01 -1.039173793792724609e+01 1.556812077760696411e-01 7.726611614227294922e+00 2.364687681198120117e+00 4.603357613086700439e-01
2.551000000000000000e+03 7.602790069580078125e+01 -1.290096569061279297e+01 3.886733055114746094e-01 8.231275558471679688e+00 2.585984468460083008e+00 1.418922990560531616e-01
2.552000000000000000e+03 7.747631072998046875e+01 -1.368748378753662109e+01 2.022777199745178223e-01 7.211215496063232422e+00 2.224047899246215820e+00 7.737482339143753052e-02
2.553000000000000000e+03 7.678425598144531250e+01 -1.529667282104492188e+01 3.347682952880859375e-01 7.858845233917236328e+00 2.458084106445312500e+00 -2.279291599988937378e-01
2.554000000000000000e+03 7.677963256835937500e+01 -1.448902511596679688e+01 3.317750096321105957e-01 7.791848182678222656e+00 2.437087059020996094e+00 -8.567069470882415771e-02
2.555000000000000000e+03 7.636046600341796875e+01 2.788272094726562500e+01 4.401937127113342285e-02 5.437546253204345703e+00 1.644469738006591797e+00 -1.648059636354446411e-01
2.556000000000000000e+03 7.701290130615234375e+01 2.967521476745605469e+01 2.664515562355518341e-02 5.390577793121337891e+00 1.625166893005371094e+00 -1.057369560003280640e-01
2.557000000000000000e+03 7.612814331054687500e+01 3.062701797485351562e+01 4.244830831885337830e-02 5.340027809143066406e+00 1.614742755889892578e+00 -1.164533644914627075e-01
2.558000000000000000e+03 7.728752899169921875e+01 2.632582664489746094e+01 2.846530266106128693e-02 5.535681247711181641e+00 1.669243931770324707e+00 -1.577198058366775513e-01
2.559000000000000000e+03 7.673725891113281250e+01 -1.204921627044677734e+01 2.479879111051559448e-01 7.728940486907958984e+00 2.393078565597534180e+00 2.840731143951416016e-01
2.560000000000000000e+03 7.746181488037109375e+01 -1.206841182708740234e+01 1.609893888235092163e-01 7.222782135009765625e+00 2.215131521224975586e+00 2.809091210365295410e-01
2.561000000000000000e+03 7.672576904296875000e+01 -1.122330665588378906e+01 2.017711997032165527e-01 7.724093914031982422e+00 2.377759456634521484e+00 3.825369477272033691e-01
2.562000000000000000e+03 7.677256774902343750e+01 -1.938709640502929688e+01 2.485117018222808838e-01 8.456533432006835938e+00 2.611513376235961914e+00 -8.463125228881835938e-01
2.563000000000000000e+03 7.677520751953125000e+01 -2.255025482177734375e+01 1.915598362684249878e-01 9.024139404296875000e+00 2.764709949493408203e+00 -1.181177020072937012e+00
2.564000000000000000e+03 7.676056671142578125e+01 -1.416501402854919434e-02 -1.605300009250640869e-01 7.914731979370117188e+00 2.326260566711425781e+00 1.490057259798049927e-01
2.565000000000000000e+03 7.613693237304687500e+01 -4.830394268035888672e+00 -1.236867755651473999e-01 7.987458229064941406e+00 2.359131336212158203e+00 4.952780306339263916e-01
2.566000000000000000e+03 7.744616699218750000e+01 4.775536537170410156e+00 -8.197710663080215454e-02 7.797885417938232422e+00 2.314772605895996094e+00 -1.739645451307296753e-01
2.567000000000000000e+03 7.749061584472656250e+01 -4.855492591857910156e+00 -6.122613325715065002e-02 7.749711990356445312e+00 2.306545734405517578e+00 4.519835412502288818e-01
2.568000000000000000e+03 7.679881286621093750e+01 -4.025457859039306641e+00 -1.105979532003402710e-01 7.892894268035888672e+00 2.334688901901245117e+00 4.478053152561187744e-01
2.569000000000000000e+03 7.664988708496093750e+01 1.443228816986083984e+01 1.852537505328655243e-02 6.525815486907958984e+00 1.963302254676818848e+00 -4.776223301887512207e-01
2.570000000000000000e+03 7.606339263916015625e+01 2.450750350952148438e+00 -2.125873416662216187e-01 7.719002723693847656e+00 2.251924514770507812e+00 -1.026178896427154541e-01
2.571000000000000000e+03 7.745800781250000000e+01 2.366553306579589844e+00 -1.009299978613853455e-01 7.942092895507812500e+00 2.352348804473876953e+00 -1.966208964586257935e-02
2.572000000000000000e+03 7.674018859863281250e+01 4.021310329437255859e+00 -1.370400786399841309e-01 7.714514255523681641e+00 2.273242235183715820e+00 -1.803182661533355713e-01
2.573000000000000000e+03 7.742995452880859375e+01 8.781195640563964844e+00 -3.823680058121681213e-02 7.381936073303222656e+00 2.203109741210937500e+00 -3.425345718860626221e-01
2.574000000000000000e+03 7.670628356933593750e+01 9.622300148010253906e+00 -4.417103528976440430e-02 7.127042770385742188e+00 2.124861478805541992e+00 -4.513230919837951660e-01
2.575000000000000000e+03 7.649791717529296875e+01 -2.896153640747070312e+01 -1.833532303571701050e-01 1.042469406127929688e+01 3.072402238845825195e+00 -1.370411992073059082e+00
2.576000000000000000e+03 7.673652648925781250e+01 -2.493334579467773438e+01 1.156033277511596680e-01 9.532967567443847656e+00 2.894571304321289062e+00 -1.378021717071533203e+00
2.577000000000000000e+03 7.251744079589843750e+01 -2.579612350463867188e+01 3.058129847049713135e-01 1.044323348999023438e+01 3.224713802337646484e+00 -1.482562184333801270e+00
2.578000000000000000e+03 7.518695068359375000e+01 1.525175285339355469e+01 5.413298681378364563e-02 6.201641559600830078e+00 1.876732349395751953e+00 -6.235807538032531738e-01
2.579000000000000000e+03 7.735713958740234375e+01 1.679920578002929688e+01 2.370632067322731018e-02 6.346280574798583984e+00 1.910996079444885254e+00 -3.584934175014495850e-01
2.580000000000000000e+03 7.657685089111328125e+01 2.320765113830566406e+01 5.238158255815505981e-02 5.686886310577392578e+00 1.721780419349670410e+00 -2.752295136451721191e-01
2.581000000000000000e+03 7.732205963134765625e+01 2.318346023559570312e+01 3.274236246943473816e-02 5.731551170349121094e+00 1.729288101196289062e+00 -2.236098051071166992e-01
2.582000000000000000e+03 7.656207275390625000e+01 2.400213050842285156e+01 5.088059976696968079e-02 5.634311199188232422e+00 1.705557465553283691e+00 -2.536440491676330566e-01
2.583000000000000000e+03 7.658678436279296875e+01 1.843923377990722656e+01 4.770939424633979797e-02 6.079904556274414062e+00 1.838284134864807129e+00 -4.057007133960723877e-01
2.584000000000000000e+03 7.677922821044921875e+01 -2.176582145690917969e+01 2.047267109155654907e-01 8.870551109313964844e+00 2.722583293914794922e+00 -1.104627490043640137e+00
2.585000000000000000e+03 7.746872711181640625e+01 -2.177060699462890625e+01 1.392378062009811401e-01 8.469199180603027344e+00 2.582531213760375977e+00 -9.540193676948547363e-01
2.586000000000000000e+03 7.661450195312500000e+01 -2.731998634338378906e+01 -4.722230881452560425e-02 1.008955478668212891e+01 3.012699604034423828e+00 -1.444571614265441895e+00
2.587000000000000000e+03 7.611352539062500000e+01 -1.617136573791503906e+01 4.462453722953796387e-01 8.488585472106933594e+00 2.680449247360229492e+00 -4.637683629989624023e-01
2.588000000000000000e+03 7.679639434814453125e+01 -7.988355636596679688e+00 1.177841052412986755e-02 7.757859230041503906e+00 2.330891132354736328e+00 5.546528697013854980e-01
2.589000000000000000e+03 7.678878784179687500e+01 -8.781664848327636719e+00 4.480142891407012939e-02 7.742548942565917969e+00 2.336205244064331055e+00 5.416041612625122070e-01
2.590000000000000000e+03 7.680053710937500000e+01 -7.197291851043701172e+00 -2.169401198625564575e-02 7.788534641265869141e+00 2.330052137374877930e+00 5.570585131645202637e-01
2.591000000000000000e+03 7.208747100830078125e+01 -1.792502784729003906e+01 7.379770874977111816e-01 1.229569911956787109e+01 3.910102844238281250e+00 -1.211100697517395020e+00
2.592000000000000000e+03 7.678958129882812500e+01 -2.418970823287963867e+00 -1.409282833337783813e-01 7.924219131469726562e+00 2.334987163543701172e+00 3.429850041866302490e-01
2.593000000000000000e+03 7.486550903320312500e+01 3.618308258056640625e+01 2.990398742258548737e-02 5.235180854797363281e+00 1.579525470733642578e+00 -4.613699391484260559e-02
2.594000000000000000e+03 7.673545074462890625e+01 4.820445537567138672e+00 -1.242998316884040833e-01 7.648092269897460938e+00 2.257137775421142578e+00 -2.363384068012237549e-01
2.595000000000000000e+03 7.676768493652343750e+01 -8.170090317726135254e-01 -1.581171900033950806e-01 7.926478862762451172e+00 2.330508470535278320e+00 2.167852073907852173e-01
2.596000000000000000e+03 7.677960968017578125e+01 -1.620193362236022949e+00 -1.502399593591690063e-01 7.930137157440185547e+00 2.333969116210937500e+00 2.807928025722503662e-01
2.597000000000000000e+03 7.597772979736328125e+01 -3.543442535400390625e+01 -3.470699489116668701e-01 1.097606277465820312e+01 3.188698053359985352e+00 -5.263932943344116211e-01
2.598000000000000000e+03 7.583147430419921875e+01 -3.439772796630859375e+01 -3.840562701225280762e-01 1.078266811370849609e+01 3.119583368301391602e+00 -6.789026856422424316e-01
2.599000000000000000e+03 7.566821289062500000e+01 -2.975022888183593750e+01 -3.408066332340240479e-01 1.038546943664550781e+01 3.013398885726928711e+00 -1.402304410934448242e+00
2.600000000000000000e+03 5.192500305175781250e+01 1.837901711463928223e+00 -3.783594846725463867e+00 4.221148192882537842e-01 -1.008443951606750488e+00 2.529030740261077881e-01
2.601000000000000000e+03 5.253776931762695312e+01 1.582690238952636719e+00 -3.763472080230712891e+00 4.188224077224731445e-01 -1.003394961357116699e+00 3.003323972225189209e-01
2.602000000000000000e+03 7.730758666992187500e+01 -2.818832969665527344e+01 -7.678794115781784058e-02 1.034305763244628906e+01 3.079880952835083008e+00 -1.231890797615051270e+00
2.603000000000000000e+03 7.655842590332031250e+01 -2.813689804077148438e+01 -1.148008480668067932e-01 1.026339817047119141e+01 3.044579029083251953e+00 -1.422294974327087402e+00
2.604000000000000000e+03 7.672290039062500000e+01 6.423486232757568359e+00 -9.857452660799026489e-02 7.493643760681152344e+00 2.218520641326904297e+00 -3.314626216888427734e-01
2.605000000000000000e+03 7.672964477539062500e+01 5.620997905731201172e+00 -1.123141944408416748e-01 7.574616432189941406e+00 2.238690614700317383e+00 -2.855139076709747314e-01
2.606000000000000000e+03 7.667913818359375000e+01 1.202576923370361328e+01 -7.596907671540975571e-03 6.824143886566162109e+00 2.044964075088500977e+00 -4.834737181663513184e-01
2.607000000000000000e+03 7.657909393310546875e+01 2.003304672241210938e+01 5.136273801326751709e-02 5.932690143585205078e+00 1.795215845108032227e+00 -3.638740479946136475e-01
2.608000000000000000e+03 7.156343078613281250e+01 -2.162670326232910156e+01 4.813729524612426758e-01 1.233235836029052734e+01 3.844119310379028320e+00 -7.979585528373718262e-01
2.609000000000000000e+03 7.666060638427734375e+01 1.363072872161865234e+01 1.144129596650600433e-02 6.623268604278564453e+00 1.990412950515747070e+00 -4.825974404811859131e-01
2.610000000000000000e+03 7.667082214355468750e+01 1.282637596130371094e+01 1.327320933341979980e-03 6.724468231201171875e+00 2.017738819122314453e+00 -4.858565628528594971e-01
2.611000000000000000e+03 4.366884231567382812e+01 -2.325312614440917969e+01 3.848896548151969910e-02 3.249578952789306641e+00 9.864203929901123047e-01 -6.177527904510498047e-01
2.612000000000000000e+03 7.658051300048828125e+01 2.083577537536621094e+01 5.164373293519020081e-02 5.864063262939453125e+00 1.774712085723876953e+00 -3.414397239685058594e-01
2.613000000000000000e+03 4.423270034790039062e+01 1.888694190979003906e+01 5.760889649391174316e-01 6.800382137298583984e+00 2.212941408157348633e+00 1.162986874580383301e+00
2.614000000000000000e+03 2.513556718826293945e+00 2.235780525207519531e+01 8.226151294365990907e-06 -8.148522283590864390e-06 2.328870785106573749e-08 -1.157047427113866434e-05
2.615000000000000000e+03 3.225161552429199219e+00 2.305861091613769531e+01 1.286993938265368342e-05 -9.063866855285596102e-06 1.141821826422528829e-06 -1.674955819908063859e-05
2.616000000000000000e+03 2.474319458007812500e+00 -7.774600982666015625e+00 -3.919292241334915161e-02 -2.934738099575042725e-01 -9.980002045631408691e-02 -2.663132548332214355e-01
2.617000000000000000e+03 4.964801311492919922e+00 -5.157310962677001953e+00 -1.237165406346321106e-01 8.830436505377292633e-03 -3.446583077311515808e-02 -2.348199486732482910e-01
2.618000000000000000e+03 2.421013593673706055e+00 -9.383637428283691406e+00 -3.281558677554130554e-02 -4.066146016120910645e-01 -1.318290531635284424e-01 -3.043766617774963379e-01
2.619000000000000000e+03 3.227431535720825195e+00 2.464454078674316406e+01 1.704832902760244906e-05 -3.883085810230113566e-06 3.949573056161170825e-06 -2.983144986501429230e-05
2.620000000000000000e+03 2.481505393981933594e+00 8.685982704162597656e+00 -9.065774975169915706e-06 2.582308752607787028e-06 -1.945039684869698249e-06 -4.814788781004608609e-07
2.621000000000000000e+03 3.186589479446411133e+00 1.257897377014160156e+01 -1.580827120051253587e-05 4.964143954566679895e-06 -3.253238219258491881e-06 -2.374180439801421016e-06
2.622000000000000000e+03 4.125584125518798828e+00 -2.904308319091796875e+01 -5.354013442993164062e-01 6.598625183105468750e-01 3.733836486935615540e-02 4.717065691947937012e-01
2.623000000000000000e+03 4.156440258026123047e+00 -2.776826095581054688e+01 -5.205662250518798828e-01 6.448405981063842773e-01 3.728232532739639282e-02 6.950321793556213379e-01
2.624000000000000000e+03 7.648030090332031250e+01 2.706843185424804688e+01 4.454048722982406616e-02 5.472555160522460938e+00 1.655128717422485352e+00 -1.775950342416763306e-01
2.625000000000000000e+03 3.224455118179321289e+00 1.743271446228027344e+01 -8.794418135948944837e-06 7.360761742347676773e-07 -2.417502628304646350e-06 3.384930096217431128e-07
2.626000000000000000e+03 3.189416408538818359e+00 1.499272155761718750e+01 1.353857987851370126e-05 -6.139532160887029022e-06 2.219714133389061317e-06 8.331709068443160504e-06
2.627000000000000000e+03 2.863684177398681641e+00 -2.519299888610839844e+01 -8.888678252696990967e-02 5.629196763038635254e-01 1.422098726034164429e-01 9.750261306762695312e-01
2.628000000000000000e+03 2.537363529205322266e+00 -2.347240066528320312e+01 8.659482747316360474e-02 2.257548570632934570e-01 9.370490163564682007e-02 9.090512394905090332e-01
2.629000000000000000e+03 3.191762924194335938e+00 -1.244153690338134766e+01 7.554019684903323650e-04 -3.044764399528503418e-01 -9.111630916595458984e-02 -3.732301592826843262e-01
2.630000000000000000e+03 2.399314641952514648e+00 -1.167592048645019531e+01 -1.455461326986551285e-02 -5.532112717628479004e-01 -1.703297644853591919e-01 -3.436614274978637695e-01
2.631000000000000000e+03 5.382063865661621094e+00 -4.103816509246826172e+00 -1.528643220663070679e-01 2.400727011263370514e-02 -3.865711763501167297e-02 -1.971499025821685791e-01
2.632000000000000000e+03 2.364024639129638672e+00 -2.032032203674316406e+01 2.389513552188873291e-01 -4.062718152999877930e-01 -5.019614100456237793e-02 4.897336363792419434e-01
2.633000000000000000e+03 3.638063430786132812e+01 1.175332441926002502e-01 -1.136894941329956055e+00 4.312902450561523438e+00 9.528023004531860352e-01 1.008696317672729492e+00
2.634000000000000000e+03 4.857674598693847656e+00 -1.934556007385253906e+01 6.839038729667663574e-01 1.177229285240173340e+00 5.583399534225463867e-01 6.656033992767333984e-01
2.635000000000000000e+03 2.440724134445190430e+00 -1.570432567596435547e+01 1.317713856697082520e-01 -7.157686352729797363e-01 -1.751991659402847290e-01 -1.983405947685241699e-01
2.636000000000000000e+03 2.380431890487670898e+00 -1.651004028320312500e+01 1.548878848552703857e-01 -7.405480742454528809e-01 -1.756980568170547485e-01 -1.062133386731147766e-01
2.637000000000000000e+03 3.165368318557739258e+00 -1.409390830993652344e+01 8.111780136823654175e-02 -3.268024623394012451e-01 -7.370539754629135132e-02 -3.236987292766571045e-01
2.638000000000000000e+03 3.553167104721069336e+00 -1.851011848449707031e+01 4.309253692626953125e-01 1.186157986521720886e-01 1.648623496294021606e-01 2.980634868144989014e-01
2.639000000000000000e+03 2.921416759490966797e+00 -1.731282806396484375e+01 2.479788661003112793e-01 -3.991346657276153564e-01 -4.534674063324928284e-02 1.154427137225866318e-02
2.640000000000000000e+03 2.444623470306396484e+00 -2.429088211059570312e+01 1.583639718592166901e-02 3.227052390575408936e-01 1.015624850988388062e-01 9.052832126617431641e-01
2.641000000000000000e+03 3.187614202499389648e+00 1.177437019348144531e+01 1.389313456456875429e-05 -6.297874278970994055e-06 2.278577994729857892e-06 5.310287178872385994e-06
2.642000000000000000e+03 3.185474157333374023e+00 1.338311862945556641e+01 1.459322629671078175e-05 -6.642995685979258269e-06 2.385069137744721957e-06 6.812620085838716477e-06
2.643000000000000000e+03 3.880361318588256836e+00 1.406524467468261719e+01 2.203413532697595656e-05 -7.867023668950423598e-06 4.250133315508719534e-06 7.311861281777964905e-06
2.644000000000000000e+03 2.485812187194824219e+00 1.430640316009521484e+01 8.156054718710947782e-06 -6.158889846119564027e-06 5.991494731460988987e-07 6.757504252163926139e-06
2.645000000000000000e+03 3.099398136138916016e+00 -8.693493843078613281e+00 -5.251628160476684570e-02 -2.347175776958465576e-01 -8.617015928030014038e-02 -3.192855119705200195e-01
2.646000000000000000e+03 3.056888341903686523e+00 -1.167507839202880859e+01 -1.165821868926286697e-02 -3.260975480079650879e-01 -1.013267263770103455e-01 -3.692012131214141846e-01
2.647000000000000000e+03 3.897578477859497070e+00 -1.336810970306396484e+01 6.923178583383560181e-02 -3.676829487085342407e-02 9.739046916365623474e-03 -3.474189341068267822e-01
2.648000000000000000e+03 3.224111557006835938e+00 2.226532745361328125e+01 3.980978817708091810e-06 1.283035817323252559e-05 5.043400960857979953e-06 2.304691633980837651e-06
2.649000000000000000e+03 3.955113887786865234e+00 1.979050636291503906e+01 -3.022138116648420691e-06 1.123435413319384679e-05 2.463664714014157653e-06 -9.192257266477099620e-07
2.650000000000000000e+03 3.239116668701171875e+00 2.543374252319335938e+01 1.662630893406458199e-05 2.575877624622080475e-05 1.271552537218667567e-05 -1.337126468570204452e-05
2.651000000000000000e+03 3.442588806152343750e+00 2.945346450805664062e+01 5.209219307289458811e-05 2.031908297794871032e-05 2.172338281525298953e-05 -1.177754093077965081e-04
2.652000000000000000e+03 3.273778438568115234e+00 2.700924873352050781e+01 1.790780333976726979e-05 4.368723966763354838e-05 1.847851308411918581e-05 -2.334504279133398086e-05
2.653000000000000000e+03 3.036425113677978516e+00 -2.125449180603027344e+01 2.962782979011535645e-01 1.396719068288803101e-01 1.307850629091262817e-01 7.289716601371765137e-01
2.654000000000000000e+03 3.666132450103759766e+00 -2.170431900024414062e+01 4.072427153587341309e-01 5.583074688911437988e-01 2.896650433540344238e-01 8.606292009353637695e-01
2.655000000000000000e+03 3.141786813735961914e+00 -1.580965805053710938e+01 2.009107023477554321e-01 -3.027788102626800537e-01 -3.056043200194835663e-02 -1.814873218536376953e-01
2.656000000000000000e+03 3.008827209472656250e+00 -1.660610961914062500e+01 2.601019442081451416e-01 -3.680154085159301758e-01 -3.237403929233551025e-02 -8.560799807310104370e-02
2.657000000000000000e+03 3.223982572555541992e+00 2.147163391113281250e+01 8.705383152118884027e-06 -7.484106390620581806e-06 3.663830625555419829e-07 -7.392690349661279470e-06
2.658000000000000000e+03 2.511651039123535156e+00 2.156127548217773438e+01 4.689973707172612194e-07 5.044034423917764798e-06 1.653909521337482147e-06 4.925058419757988304e-06
2.659000000000000000e+03 3.238126993179321289e+00 -7.114771366119384766e+00 -6.137182191014289856e-02 -1.644426584243774414e-01 -6.774434447288513184e-02 -2.814419865608215332e-01
2.660000000000000000e+03 3.233108043670654297e+00 1.824401664733886719e+01 7.606351573485881090e-06 -3.890987500199116766e-06 1.114609290198131930e-06 3.156732418574392796e-06
2.661000000000000000e+03 3.190821170806884766e+00 1.016969776153564453e+01 1.279116440855432302e-05 -6.062588909117039293e-06 2.018572786255390383e-06 3.497737679936108179e-06
2.662000000000000000e+03 3.196625232696533203e+00 1.580113887786865234e+01 -1.322300704487133771e-05 2.817820359268807806e-06 -3.121556119367596693e-06 -2.692978569029946811e-06
2.663000000000000000e+03 3.209779977798461914e+00 1.661563682556152344e+01 1.017359682009555399e-05 -3.228803507226984948e-06 2.083437948385835625e-06 7.426125193887855858e-06
2.664000000000000000e+03 3.193773746490478516e+00 9.371181488037109375e+00 -1.292687829845817760e-05 4.699006694863783196e-06 -2.468361344654113054e-06 -5.951956723038165364e-07
2.665000000000000000e+03 3.188658714294433594e+00 1.097067737579345703e+01 -1.460487328586168587e-05 5.163258265383774415e-06 -2.832484597092843615e-06 -1.848534452619787771e-06
2.666000000000000000e+03 3.196471214294433594e+00 8.579758644104003906e+00 1.111569054046412930e-05 -4.604414243658538908e-06 1.953382707142736763e-06 1.342125074188516010e-06
2.667000000000000000e+03 2.647572040557861328e+00 -3.149506568908691406e+01 -1.585164517164230347e-01 1.147625088691711426e+00 2.967326045036315918e-01 9.754946082830429077e-02
2.668000000000000000e+03 3.416159629821777344e+00 -3.159279060363769531e+01 -2.303019464015960693e-01 9.171206355094909668e-01 2.060455977916717529e-01 1.006519868969917297e-01
2.669000000000000000e+03 3.267057180404663086e+00 -3.237128067016601562e+01 -1.663797497749328613e-01 9.748308062553405762e-01 2.425353229045867920e-01 2.358663640916347504e-02
2.670000000000000000e+03 2.997749328613281250e+00 3.420335388183593750e+01 2.247672273369971663e-05 1.986946881515905261e-04 6.635142199229449034e-05 -1.331220701104030013e-04
2.671000000000000000e+03 4.128149032592773438e+00 3.582601165771484375e+01 5.408776996773667634e-05 2.339642815059050918e-04 8.641561726108193398e-05 -6.446526094805449247e-05
2.672000000000000000e+03 4.130201816558837891e+00 3.286704254150390625e+01 2.945563937828410417e-05 4.302994420868344605e-05 2.174567453039344400e-05 -1.295514230150729418e-04
2.673000000000000000e+03 3.353832721710205078e+00 2.860296630859375000e+01 1.778712430677842349e-05 6.799571565352380276e-05 2.573485107859596610e-05 -4.658477701013907790e-05
2.674000000000000000e+03 2.623057842254638672e+00 2.875902748107910156e+01 3.498811202007345855e-05 3.390011988813057542e-05 2.066646993625909090e-05 -8.337084727827459574e-05
2.675000000000000000e+03 3.923497915267944336e+00 2.298570823669433594e+01 1.188846636068774387e-05 2.314759331056848168e-05 1.051081744662951678e-05 -3.756369324037223123e-06
2.676000000000000000e+03 3.210213184356689453e+00 7.027170658111572266e+00 8.500683179590851068e-06 -2.406259682175004855e-06 1.828326958275283687e-06 7.701900450740595261e-09
2.677000000000000000e+03 3.224157571792602539e+00 2.385402297973632812e+01 9.498128747509326786e-06 2.126546314684674144e-05 9.229077477357350290e-06 -4.807769983017351478e-06
2.678000000000000000e+03 7.623880004882812500e+01 -3.641586685180664062e+01 -2.719848453998565674e-01 1.113886642456054688e+01 3.260064601898193359e+00 -3.561719059944152832e-01
2.679000000000000000e+03 3.917797088623046875e+01 3.641769886016845703e+00 2.948232591152191162e-01 1.028239154815673828e+01 3.173164367675781250e+00 2.831428527832031250e+00
2.680000000000000000e+03 4.219143676757812500e+01 8.877507209777832031e+00 1.986478924751281738e+00 9.430787086486816406e+00 3.425179958343505859e+00 3.572681903839111328e+00
2.681000000000000000e+03 4.406147384643554688e+01 1.112571811676025391e+01 1.860732436180114746e+00 7.081373691558837891e+00 2.682631969451904297e+00 2.889320135116577148e+00
2.682000000000000000e+03 1.400968170166015625e+01 1.949174499511718750e+01 2.013046469073742628e-04 1.204023556056199595e-05 6.400347047019749880e-05 2.656584001670125872e-05
2.683000000000000000e+03 1.334482288360595703e+01 2.047787475585937500e+01 1.875342131825163960e-04 2.358735400775913149e-05 6.333646888379007578e-05 3.217922085241298191e-06
2.684000000000000000e+03 6.268791198730468750e+00 -3.127715110778808594e+01 -5.735202431678771973e-01 5.912875756621360779e-02 -1.543174386024475098e-01 2.054535150527954102e-01
2.685000000000000000e+03 7.634876251220703125e+01 -3.145130729675292969e+01 -3.355230987071990967e-01 1.079111385345458984e+01 3.136677265167236328e+00 -1.083089590072631836e+00
2.686000000000000000e+03 4.418448257446289062e+01 -2.392381668090820312e+01 9.868964552879333496e-02 2.741966009140014648e+00 8.521966934204101562e-01 -6.357775926589965820e-01
2.687000000000000000e+03 4.266942596435546875e+01 -2.193803215026855469e+01 -2.011118531227111816e-01 4.637821674346923828e+00 1.331012964248657227e+00 -4.838489592075347900e-01
2.688000000000000000e+03 1.553940200805664062e+01 1.067548847198486328e+01 -1.970991797861643136e-05 -2.386510823271237314e-05 -1.307250749960076064e-05 -2.161477095796726644e-05
2.689000000000000000e+03 1.522499847412109375e+01 9.583498001098632812e+00 -1.037809397530509159e-05 -2.100631536450237036e-05 -9.415322892891708761e-06 -1.378927754558390006e-05
2.690000000000000000e+03 7.593524932861328125e+01 3.452478027343750000e+01 2.554536052048206329e-02 5.269157886505126953e+00 1.588410973548889160e+00 -5.698213353753089905e-02
2.691000000000000000e+03 7.589390563964843750e+01 3.336359405517578125e+01 3.130675107240676880e-02 5.283105850219726562e+00 1.594323873519897461e+00 -7.273484766483306885e-02
2.692000000000000000e+03 7.616244506835937500e+01 3.141046905517578125e+01 3.623925149440765381e-02 5.322082996368408203e+00 1.607496619224548340e+00 -9.706642478704452515e-02
2.693000000000000000e+03 7.692120361328125000e+01 3.227857589721679688e+01 2.158785425126552582e-02 5.317990303039550781e+00 1.601873517036437988e+00 -6.838971376419067383e-02
2.694000000000000000e+03 3.541905164718627930e+00 -3.468452835083007812e+01 -4.871949180960655212e-02 9.283165931701660156e-01 2.638791203498840332e-01 -8.506913483142852783e-02
2.695000000000000000e+03 3.822027969360351562e+01 -2.275992202758789062e+01 5.343333482742309570e-01 7.148533821105957031e+00 2.304860115051269531e+00 1.464953899383544922e+00
2.696000000000000000e+03 3.725836563110351562e+01 -2.424952125549316406e+01 1.399889469146728516e+00 7.505624771118164062e+00 2.671654224395751953e+00 1.302178859710693359e+00
2.697000000000000000e+03 2.710660362243652344e+01 -1.626486968994140625e+01 -6.286101341247558594e-01 -4.913142323493957520e-02 -2.033224552869796753e-01 6.629083156585693359e-01
2.698000000000000000e+03 1.465160465240478516e+01 1.117051029205322266e+01 -8.809487553662620485e-06 -2.183349533879663795e-05 -9.192894140142016113e-06 -1.396184688928769901e-05
2.699000000000000000e+03 5.820271301269531250e+01 4.081100225448608398e-01 -2.500876665115356445e+00 3.711068630218505859e-01 -6.389309167861938477e-01 -4.505451321601867676e-01
2.700000000000000000e+03 1.561198902130126953e+01 3.178900909423828125e+01 -1.701524161035194993e-04 -3.451012016739696264e-04 -1.545760896988213062e-04 1.585107675055041909e-04
2.701000000000000000e+03 2.600863075256347656e+01 -4.909345149993896484e+00 3.075511753559112549e-01 -2.998035252094268799e-01 2.324298257008194923e-03 -3.156455457210540771e-01
2.702000000000000000e+03 3.884107589721679688e+01 -9.073864936828613281e+00 1.481291770935058594e+00 9.957438468933105469e+00 3.431618928909301758e+00 7.813925743103027344e-01
2.703000000000000000e+03 5.873308944702148438e+01 -4.609997570514678955e-01 -2.749363183975219727e+00 2.555999159812927246e-01 -7.481289505958557129e-01 -2.012391537427902222e-01
2.704000000000000000e+03 5.892044067382812500e+01 1.904096454381942749e-01 -2.316995143890380859e+00 5.536846518516540527e-01 -5.289931297302246094e-01 -5.980808138847351074e-01
2.705000000000000000e+03 3.695221424102783203e+00 -4.470422267913818359e+00 -9.128382802009582520e-02 -6.181354075670242310e-02 -4.592921212315559387e-02 -2.075036913156509399e-01
2.706000000000000000e+03 6.770123481750488281e+00 -5.037857055664062500e+00 -1.727934032678604126e-01 1.031528413295745850e-01 -2.089217118918895721e-02 -1.860385835170745850e-01
2.707000000000000000e+03 6.368067264556884766e+00 -4.452757358551025391e+00 -1.722735464572906494e-01 7.050821930170059204e-02 -3.052959963679313660e-02 -1.860985457897186279e-01
2.708000000000000000e+03 3.602339029312133789e+00 -5.421045303344726562e+00 -8.017268031835556030e-02 -8.518303185701370239e-02 -4.960671439766883850e-02 -2.367462366819381714e-01
2.709000000000000000e+03 3.383202075958251953e+00 -6.297646522521972656e+00 -7.156767696142196655e-02 -1.254330575466156006e-01 -5.910022184252738953e-02 -2.613938152790069580e-01
2.710000000000000000e+03 7.556335449218750000e+00 -4.801478385925292969e+00 -1.888579130172729492e-01 1.249039843678474426e-01 -1.918617822229862213e-02 -1.534073948860168457e-01
2.711000000000000000e+03 4.448667907714843750e+01 2.639894866943359375e+01 5.347087979316711426e-01 5.705920696258544922e+00 1.872188806533813477e+00 9.862599894404411316e-03
2.712000000000000000e+03 1.809093666076660156e+01 -1.436292457580566406e+01 5.406610965728759766e-01 -1.354615539312362671e-01 1.215598657727241516e-01 2.599993050098419189e-01
2.713000000000000000e+03 2.618706703186035156e+01 -1.569358825683593750e+01 -2.625657916069030762e-01 -1.069806590676307678e-01 -1.108639389276504517e-01 6.628188490867614746e-01
2.714000000000000000e+03 1.049800777435302734e+01 -3.437809371948242188e+01 -3.834398090839385986e-01 -3.969315290451049805e-01 -2.341113984584808350e-01 2.661747038364410400e-01
2.715000000000000000e+03 3.816346740722656250e+01 -1.155887222290039062e+01 1.078171372413635254e+00 8.650583267211914062e+00 2.918626308441162109e+00 1.839227378368377686e-01
2.716000000000000000e+03 6.960978698730468750e+01 -1.144234085083007812e+01 9.447950720787048340e-01 1.238152027130126953e+01 3.997894763946533203e+00 -1.696555376052856445e+00
2.717000000000000000e+03 7.000663757324218750e+01 -1.042838001251220703e+01 6.052682995796203613e-01 1.137718486785888672e+01 3.594735860824584961e+00 -1.305496215820312500e+00
2.718000000000000000e+03 3.875916671752929688e+01 1.812352061271667480e+00 -1.266639232635498047e+00 9.113462448120117188e+00 2.354047060012817383e+00 1.588590860366821289e+00
2.719000000000000000e+03 3.927583694458007812e+01 2.581540822982788086e+00 -9.799525737762451172e-01 9.827105522155761719e+00 2.654145717620849609e+00 1.894411921501159668e+00
2.720000000000000000e+03 5.348554992675781250e+01 2.007300615310668945e+00 -3.120431661605834961e+00 4.342375099658966064e-01 -8.058582544326782227e-01 5.122298747301101685e-02
2.721000000000000000e+03 1.714883995056152344e+01 6.807905197143554688e+00 1.366790183965349570e-05 1.496248751209350303e-05 8.589116987423039973e-06 1.242809958057478070e-05
2.722000000000000000e+03 1.634579658508300781e+01 5.257495880126953125e+00 -2.329415565327508375e-06 -1.280612377740908414e-05 -4.540661848295712844e-06 -4.665082087740302086e-06
2.723000000000000000e+03 3.532403564453125000e+01 -1.634957551956176758e+00 -7.148131132125854492e-01 2.881963729858398438e+00 6.501451730728149414e-01 6.948846578598022461e-01
2.724000000000000000e+03 3.687039947509765625e+01 -3.864082694053649902e-01 -1.171407341957092285e+00 5.530225276947021484e+00 1.307645440101623535e+00 1.075877308845520020e+00
2.725000000000000000e+03 4.338513183593750000e+01 1.127957248687744141e+01 1.707469463348388672e+00 8.001089096069335938e+00 2.912567615509033203e+00 2.975277662277221680e+00
2.726000000000000000e+03 1.675350761413574219e+01 -5.399986267089843750e+00 3.578288480639457703e-02 -2.029589936137199402e-02 4.646094981580972672e-03 2.129614055156707764e-01
2.727000000000000000e+03 4.904500579833984375e+01 -2.956207084655761719e+01 -2.921966910362243652e-01 7.725659012794494629e-01 1.441107690334320068e-01 -2.600462138652801514e-01
2.728000000000000000e+03 1.367551231384277344e+01 -1.437676620483398438e+01 9.943411350250244141e-01 1.948826909065246582e-01 3.567671477794647217e-01 3.888193666934967041e-01
2.729000000000000000e+03 1.080548667907714844e+01 -1.357616806030273438e+01 7.702674269676208496e-01 7.304271459579467773e-01 4.502083659172058105e-01 5.109278559684753418e-01
2.730000000000000000e+03 3.018306350708007812e+01 -1.527716636657714844e+01 -2.255368679761886597e-01 -3.817019462585449219e-01 -1.821716427803039551e-01 1.045944452285766602e+00
2.731000000000000000e+03 3.756003952026367188e+01 3.124624490737915039e-01 -1.333427071571350098e+00 6.842425346374511719e+00 1.652699470520019531e+00 1.233049631118774414e+00
2.732000000000000000e+03 3.936854934692382812e+01 4.001230597496032715e-01 -1.678425908088684082e+00 9.411895751953125000e+00 2.320041179656982422e+00 9.575335979461669922e-01
2.733000000000000000e+03 1.553287982940673828e+01 8.800239562988281250e+00 1.019246337818913162e-05 1.910291211970616132e-05 8.788612831267528236e-06 1.246668034582398832e-05
2.734000000000000000e+03 1.585799407958984375e+01 8.020548820495605469e+00 -9.244779903383459896e-06 -1.913640153361484408e-05 -8.514354703947901726e-06 -1.236007483385037631e-05
2.735000000000000000e+03 5.671892929077148438e+01 7.371374368667602539e-01 -2.826518297195434570e+00 1.898817270994186401e-01 -7.909909486770629883e-01 -1.678337603807449341e-01
2.736000000000000000e+03 5.516671371459960938e+01 2.985828876495361328e+00 -1.976851820945739746e+00 5.983076691627502441e-01 -4.135632812976837158e-01 -4.748013615608215332e-01
2.737000000000000000e+03 1.332508182525634766e+01 2.875308036804199219e+01 4.018486361019313335e-04 4.938974598189815879e-05 1.353715197183191776e-04 -1.133198838942917064e-05
2.738000000000000000e+03 1.477337360382080078e+01 3.006524085998535156e+01 1.859397016232833266e-04 -9.003629384096711874e-05 2.877102451748214662e-05 2.593269455246627331e-04
2.739000000000000000e+03 1.493141174316406250e+01 1.037509536743164062e+01 9.751569450600072742e-06 1.975931809283792973e-05 8.853266081132460386e-06 1.258381053048651665e-05
2.740000000000000000e+03 3.854558944702148438e+01 -2.220990180969238281e+01 2.379847913980484009e-01 7.107790946960449219e+00 2.203732728958129883e+00 1.461350917816162109e+00
2.741000000000000000e+03 4.976963806152343750e+01 3.191246986389160156e+00 -2.938720464706420898e+00 7.334943860769271851e-02 -8.596113324165344238e-01 -1.175076737999916077e-01
2.742000000000000000e+03 1.356916427612304688e+01 2.444070243835449219e+01 -3.747913069673813879e-05 3.352975909365341067e-05 -1.184811139864905272e-06 7.165467104641720653e-05
2.743000000000000000e+03 1.283061981201171875e+01 2.370496940612792969e+01 -6.670515722362324595e-05 4.107492713956162333e-05 -7.689067388128023595e-06 8.182985766325145960e-05
2.744000000000000000e+03 4.398303604125976562e+01 1.550363826751708984e+01 1.121162772178649902e+00 7.367767810821533203e+00 2.546679019927978516e+00 1.886223912239074707e+00
2.745000000000000000e+03 4.413752365112304688e+01 1.720001411437988281e+01 8.293571472167968750e-01 7.082260608673095703e+00 2.373485326766967773e+00 1.515564322471618652e+00
2.746000000000000000e+03 7.067712402343750000e+01 -2.740611457824707031e+01 -2.751562595367431641e-01 9.996903419494628906e+00 2.916524171829223633e+00 -9.178737401962280273e-01
2.747000000000000000e+03 9.541156768798828125e+00 5.140652656555175781e+00 8.764695849095005542e-06 6.351948741212254390e-06 4.534993422566913068e-06 -6.012926860421430320e-06
2.748000000000000000e+03 5.134861755371093750e+01 2.138203144073486328e+00 -3.857074499130249023e+00 3.602598905563354492e-01 -1.049044370651245117e+00 1.131739765405654907e-01
2.749000000000000000e+03 5.085838699340820312e+01 3.514494419097900391e+00 -2.379081726074218750e+00 3.280321955680847168e-01 -6.153148412704467773e-01 -2.462040334939956665e-01
2.750000000000000000e+03 1.709541511535644531e+01 3.510563135147094727e+00 -3.744820332940435037e-06 -1.394924038322642446e-05 -5.308218078425852582e-06 -6.209848379512550309e-06
2.751000000000000000e+03 1.841772460937500000e+01 4.870273590087890625e+00 -5.702125690731918439e-06 -1.301940210396423936e-05 -5.616458111035171896e-06 -1.694290222076233476e-05
2.752000000000000000e+03 3.527641677856445312e+01 -1.660917472839355469e+01 -1.436858177185058594e+00 4.650030612945556641e+00 9.639516472816467285e-01 -4.976864159107208252e-02
2.753000000000000000e+03 3.778373336791992188e+01 -1.611703109741210938e+01 -4.509983956813812256e-01 7.651737213134765625e+00 2.160221576690673828e+00 4.067519009113311768e-01
2.754000000000000000e+03 4.483571243286132812e+01 3.183680152893066406e+01 2.207756638526916504e-01 4.771531581878662109e+00 1.497692108154296875e+00 1.415205746889114380e-01
2.755000000000000000e+03 1.293491935729980469e+01 2.799754905700683594e+01 2.556147228460758924e-05 -2.060285332845523953e-04 -5.414012048277072608e-05 1.171854746644385159e-04
2.756000000000000000e+03 1.510151100158691406e+01 -5.263454914093017578e+00 -3.525090590119361877e-02 3.580281883478164673e-02 1.655735832173377275e-04 1.887996643781661987e-01
2.757000000000000000e+03 1.591896152496337891e+01 -5.336575508117675781e+00 -1.858263509348034859e-03 8.568555116653442383e-03 2.013087505474686623e-03 2.017045915126800537e-01
2.758000000000000000e+03 4.493621444702148438e+01 1.797714805603027344e+01 8.654471039772033691e-01 6.537011623382568359e+00 2.220737695693969727e+00 1.426136136054992676e+00
2.759000000000000000e+03 6.321490859985351562e+01 -1.953620165586471558e-01 -1.246541738510131836e+00 3.637406587600708008e+00 7.172594666481018066e-01 -1.817086577415466309e+00
2.760000000000000000e+03 6.184269714355468750e+01 9.089132547378540039e-01 -1.356329321861267090e+00 2.566237688064575195e+00 3.629724979400634766e-01 -1.711919903755187988e+00
2.761000000000000000e+03 3.882669067382812500e+01 -1.074383831024169922e+01 1.092157125473022461e+00 9.892998695373535156e+00 3.295546770095825195e+00 3.209236264228820801e-01
2.762000000000000000e+03 1.490620231628417969e+01 4.875372886657714844e+00 -4.314677426009438932e-06 -1.707668525341432542e-05 -6.417408712877659127e-06 1.616353642930334900e-06
2.763000000000000000e+03 1.555560111999511719e+01 -3.533856964111328125e+01 -4.690246284008026123e-01 -2.390777617692947388e-01 -2.124307155609130859e-01 1.497767716646194458e-01
2.764000000000000000e+03 1.498417282104492188e+01 -3.457549667358398438e+01 -5.709573030471801758e-01 -2.447497099637985229e-01 -2.447121143341064453e-01 2.022222429513931274e-01
2.765000000000000000e+03 4.099867630004882812e+01 5.628885269165039062e+00 1.025940656661987305e+00 1.032913494110107422e+01 3.406522750854492188e+00 3.271044492721557617e+00
2.766000000000000000e+03 3.817834472656250000e+01 -1.240443611145019531e+01 8.912733197212219238e-01 8.590277671813964844e+00 2.844465255737304688e+00 3.115253522992134094e-02
2.767000000000000000e+03 5.914511489868164062e+01 8.591965436935424805e-01 -1.925742149353027344e+00 8.913698792457580566e-01 -3.103116750717163086e-01 -9.270225763320922852e-01
2.768000000000000000e+03 5.693486022949218750e+01 1.441408038139343262e+00 -2.335627317428588867e+00 4.086295664310455322e-01 -5.780993700027465820e-01 -4.465745687484741211e-01
2.769000000000000000e+03 2.757449340820312500e+01 -1.549103164672851562e+01 -3.378019630908966064e-01 -1.847028434276580811e-01 -1.567514389753341675e-01 8.740017414093017578e-01
2.770000000000000000e+03 4.842904090881347656e+00 -2.793485450744628906e+01 -6.588104367256164551e-01 4.811832606792449951e-01 -5.328815057873725891e-02 6.528344750404357910e-01
2.771000000000000000e+03 4.150364398956298828e+00 -2.634394264221191406e+01 -3.807355165481567383e-01 6.717947721481323242e-01 8.731776475906372070e-02 9.334991574287414551e-01
2.772000000000000000e+03 2.086381340026855469e+01 -3.365123367309570312e+01 -6.991608142852783203e-01 -4.804291576147079468e-02 -2.241611182689666748e-01 -5.727543961256742477e-03
2.773000000000000000e+03 3.964948892593383789e+00 -2.359958648681640625e+01 1.643322110176086426e-01 7.399537563323974609e-01 2.712858021259307861e-01 1.027201294898986816e+00
2.774000000000000000e+03 1.473603343963623047e+01 1.306918621063232422e+01 1.700186658126767725e-05 2.190450322814285755e-05 1.167191112472210079e-05 2.203282019763719290e-05
2.775000000000000000e+03 2.882561492919921875e+01 -1.525268173217773438e+01 -2.507042586803436279e-01 -2.922937870025634766e-01 -1.628994047641754150e-01 1.068622827529907227e+00
2.776000000000000000e+03 3.718271255493164062e+01 -4.957261085510253906e+00 1.133009672164916992e+00 6.452713489532470703e+00 2.275717020034790039e+00 9.279093742370605469e-01
2.777000000000000000e+03 1.634188652038574219e+01 3.677212524414062500e+01 -6.770346662960946560e-04 -1.076024025678634644e-03 -5.259176250547170639e-04 -8.241444593295454979e-04
2.778000000000000000e+03 2.021771430969238281e+01 -5.446590423583984375e+00 1.641107648611068726e-01 -1.224624365568161011e-01 1.249450072646141052e-02 1.475716978311538696e-01
2.779000000000000000e+03 4.232871627807617188e+01 6.936195850372314453e+00 1.557276725769042969e+00 8.557939529418945312e+00 3.034564971923828125e+00 3.314606428146362305e+00
2.780000000000000000e+03 4.265274429321289062e+01 7.762720584869384766e+00 1.860864639282226562e+00 8.301357269287109375e+00 3.048666477203369141e+00 3.349914073944091797e+00
2.781000000000000000e+03 6.749462127685546875e+01 -3.438253402709960938e+01 -1.196600556373596191e+00 4.602349758148193359e+00 1.021724820137023926e+00 4.944703578948974609e-01
2.782000000000000000e+03 3.882218551635742188e+01 -9.905426979064941406e+00 1.295089602470397949e+00 9.937756538391113281e+00 3.369853973388671875e+00 5.516698956489562988e-01
2.783000000000000000e+03 4.063535308837890625e+01 4.848207950592041016e+00 5.051963329315185547e-01 1.048399829864501953e+01 3.296758413314819336e+00 2.974405288696289062e+00
2.784000000000000000e+03 4.229114151000976562e+01 -2.025368499755859375e+01 -3.426929712295532227e-01 6.064493179321289062e+00 1.716539978981018066e+00 -5.675589442253112793e-01
2.785000000000000000e+03 4.315536117553710938e+01 -2.259773635864257812e+01 -5.927807092666625977e-02 3.927399635314941406e+00 1.160436511039733887e+00 -5.578466057777404785e-01
2.786000000000000000e+03 7.040225982666015625e+01 -2.526884269714355469e+01 8.329448699951171875e-01 1.134513092041015625e+01 3.653422832489013672e+00 -5.544923543930053711e-01
2.787000000000000000e+03 7.675977325439453125e+01 -2.414229965209960938e+01 1.492364108562469482e-01 9.356415748596191406e+00 2.851695775985717773e+00 -1.320051670074462891e+00
2.788000000000000000e+03 1.352878856658935547e+01 2.608777999877929688e+01 2.086668537231162190e-04 2.657538861967623234e-04 1.423262292519211769e-04 1.065026299329474568e-04
2.789000000000000000e+03 1.210808277130126953e+01 2.377733802795410156e+01 1.491162402089685202e-04 -5.976490501780062914e-05 2.680540092114824802e-05 -5.743584188167005777e-05
2.790000000000000000e+03 7.120246887207031250e+01 -1.556255245208740234e+01 1.373034834861755371e+00 1.295190715789794922e+01 4.297482490539550781e+00 -1.296692848205566406e+00
2.791000000000000000e+03 4.416567230224609375e+01 3.318546676635742188e+01 1.123136933892965317e-02 4.538902282714843750e+00 1.365040183067321777e+00 5.928028002381324768e-02
2.792000000000000000e+03 9.018882751464843750e+00 -1.338605117797851562e+01 4.878309667110443115e-01 9.734813570976257324e-01 4.383937120437622070e-01 3.527730703353881836e-01
2.793000000000000000e+03 9.626164436340332031e+00 -1.347997474670410156e+01 6.100313067436218262e-01 9.143701195716857910e-01 4.573204219341278076e-01 4.055206179618835449e-01
2.794000000000000000e+03 3.275688934326171875e+01 -2.866274833679199219e+00 -2.122643440961837769e-01 2.198802232742309570e-01 2.284761285409331322e-03 -1.975753903388977051e-01
2.795000000000000000e+03 3.599992752075195312e+01 -4.787890434265136719e+00 1.101118326187133789e+00 4.655394554138183594e+00 1.726953864097595215e+00 7.271059155464172363e-01
2.796000000000000000e+03 2.924962043762207031e+01 -3.772105693817138672e+00 -4.056667163968086243e-02 -4.117473661899566650e-01 -1.356942206621170044e-01 -6.470358371734619141e-01
2.797000000000000000e+03 3.259749984741210938e+01 -1.565768718719482422e+01 -5.542403459548950195e-01 3.259158432483673096e-01 -6.849735230207443237e-02 3.311462998390197754e-01
2.798000000000000000e+03 3.187938499450683594e+01 -1.550374317169189453e+01 -3.733797371387481689e-01 -2.056992202997207642e-01 -1.737236827611923218e-01 6.431753039360046387e-01
2.799000000000000000e+03 2.106456565856933594e+01 -6.132096767425537109e+00 2.655694484710693359e-01 -1.789938062429428101e-01 2.597269229590892792e-02 1.381127685308456421e-01
2.800000000000000000e+03 6.824091339111328125e+01 -5.948042869567871094e+00 4.777343273162841797e-01 8.353237152099609375e+00 2.649291515350341797e+00 -1.574443578720092773e+00
2.801000000000000000e+03 1.432239627838134766e+01 3.138493156433105469e+01 9.798025712370872498e-04 -1.827472879085689783e-04 2.391165762674063444e-04 1.963197719305753708e-04
2.802000000000000000e+03 3.926531982421875000e+01 -1.592472171783447266e+01 1.335228979587554932e-01 9.173279762268066406e+00 2.792040824890136719e+00 1.184250414371490479e-01
2.803000000000000000e+03 3.907013654708862305e+00 -2.453304100036621094e+01 -1.367676159134134650e-04 6.967806816101074219e-01 2.089931666851043701e-01 1.061370968818664551e+00
2.804000000000000000e+03 3.703540420532226562e+01 -2.927442359924316406e+01 1.340879499912261963e-01 5.717314720153808594e+00 1.755420804023742676e+00 2.673342227935791016e-01
2.805000000000000000e+03 3.731701278686523438e+01 -2.742774391174316406e+01 8.153781890869140625e-01 6.304493427276611328e+00 2.135961532592773438e+00 4.077289998531341553e-01
2.806000000000000000e+03 3.614116668701171875e+01 -2.760769653320312500e+01 9.606877565383911133e-01 6.991014957427978516e+00 2.385510921478271484e+00 1.025160551071166992e+00
2.807000000000000000e+03 3.930531692504882812e+01 -2.916098535060882568e-01 -1.496898531913757324e+00 9.188198089599609375e+00 2.307389736175537109e+00 9.459149837493896484e-01
2.808000000000000000e+03 2.673668861389160156e+01 -4.083895206451416016e+00 5.866519361734390259e-02 -2.569133043289184570e-01 -5.947443842887878418e-02 -4.161069095134735107e-01
2.809000000000000000e+03 6.386510467529296875e+01 -1.845649361610412598e+00 -7.568861842155456543e-01 4.201470375061035156e+00 1.033375263214111328e+00 -1.778556108474731445e+00
2.810000000000000000e+03 6.368652725219726562e+01 -7.869682312011718750e-01 -1.142617940902709961e+00 4.032708168029785156e+00 8.670269846916198730e-01 -1.801437854766845703e+00
2.811000000000000000e+03 4.365279006958007812e+01 1.296618080139160156e+01 1.460267543792724609e+00 7.812739372253417969e+00 2.781902074813842773e+00 2.496908664703369141e+00
2.812000000000000000e+03 4.377438354492187500e+01 1.380504608154296875e+01 1.360417008399963379e+00 7.661189079284667969e+00 2.706481933593750000e+00 2.280802249908447266e+00
2.813000000000000000e+03 2.939129829406738281e+01 -4.466478347778320312e+00 4.119896292686462402e-01 -4.196849465370178223e-01 -2.308593830093741417e-03 -5.661997795104980469e-01
2.814000000000000000e+03 5.198215007781982422e+00 -1.859335136413574219e+01 8.058105707168579102e-01 1.253528356552124023e+00 6.178016662597656250e-01 6.249418854713439941e-01
2.815000000000000000e+03 7.109254455566406250e+01 -1.470918273925781250e+01 1.537860870361328125e+00 1.278701877593994141e+01 4.297463893890380859e+00 -1.203164935111999512e+00
2.816000000000000000e+03 1.114902400970458984e+01 5.021542072296142578e+00 8.330989658134058118e-06 9.702182069304399192e-06 5.409951427282067016e-06 -6.547474640683503821e-06
2.817000000000000000e+03 1.323081684112548828e+01 1.965111351013183594e+01 -1.851825072662904859e-04 -4.000798799097537994e-05 -6.755715003237128258e-05 8.012095349840819836e-06
2.818000000000000000e+03 7.008942413330078125e+01 -1.311429405212402344e+01 1.501484990119934082e+00 1.331708335876464844e+01 4.445570468902587891e+00 -1.435825109481811523e+00
2.819000000000000000e+03 7.597875976562500000e+01 -1.120786094665527344e+01 2.834509015083312988e-01 8.208090782165527344e+00 2.547462463378906250e+00 3.735100626945495605e-01
2.820000000000000000e+03 1.438504505157470703e+01 3.257080078125000000e+01 1.152210024883970618e-04 -8.717452292330563068e-04 -2.269572578370571136e-04 -1.339212903985753655e-04
2.821000000000000000e+03 1.527795505523681641e+01 3.259650039672851562e+01 1.355443266220390797e-03 3.346364828757941723e-04 5.070238839834928513e-04 3.041110467165708542e-04
2.822000000000000000e+03 1.641205215454101562e+01 -1.442199134826660156e+01 6.984525322914123535e-01 -7.513099163770675659e-02 1.869964599609375000e-01 2.647454440593719482e-01
2.823000000000000000e+03 1.847142601013183594e+01 -5.470562458038330078e+00 1.042836159467697144e-01 -7.502906024456024170e-02 8.776366710662841797e-03 2.002084106206893921e-01
2.824000000000000000e+03 1.934347343444824219e+01 -5.470123291015625000e+00 1.353640854358673096e-01 -1.010113805532455444e-01 1.030581258237361908e-02 1.740147173404693604e-01
2.825000000000000000e+03 1.559328269958496094e+01 -1.403080463409423828e+01 7.484071850776672363e-01 -6.281896494328975677e-03 2.226375788450241089e-01 3.221683502197265625e-01
2.826000000000000000e+03 7.095206451416015625e+01 -1.384482002258300781e+01 1.522853255271911621e+00 1.262887859344482422e+01 4.245519638061523438e+00 -1.087281465530395508e+00
2.827000000000000000e+03 3.442964315414428711e+00 -2.044913101196289062e+01 4.299013614654541016e-01 3.008266985416412354e-01 2.192184180021286011e-01 6.583074331283569336e-01
2.828000000000000000e+03 3.765176010131835938e+01 -2.641860580444335938e+01 1.099812030792236328e+00 6.466235160827636719e+00 2.269814014434814453e+00 4.916408360004425049e-01
2.829000000000000000e+03 6.547156524658203125e+01 -1.920069217681884766e+00 -7.596733570098876953e-01 5.788501739501953125e+00 1.508648633956909180e+00 -1.593824028968811035e+00
2.830000000000000000e+03 4.107597827911376953e+00 -2.089717102050781250e+01 4.679081439971923828e-01 8.101186156272888184e-01 3.834080398082733154e-01 7.822644114494323730e-01
2.831000000000000000e+03 3.028597831726074219e+01 -3.535551071166992188e+01 -5.312594771385192871e-01 2.116008281707763672e+00 4.754246771335601807e-01 9.762331247329711914e-01
2.832000000000000000e+03 2.879247283935546875e+01 -3.557766723632812500e+01 -3.985815644264221191e-01 1.494533896446228027e+00 3.287856876850128174e-01 8.276964426040649414e-01
2.833000000000000000e+03 6.497388458251953125e+01 -3.706613922119140625e+01 -3.704276680946350098e-01 2.212046384811401367e+00 5.524856448173522949e-01 4.525727033615112305e-01
2.834000000000000000e+03 2.764714622497558594e+01 -4.737101554870605469e+00 3.547320961952209473e-01 -3.819231986999511719e-01 -8.157332427799701691e-03 -4.781396389007568359e-01
2.835000000000000000e+03 2.850678062438964844e+01 -4.621271133422851562e+00 3.820392191410064697e-01 -4.107573926448822021e-01 -8.615455590188503265e-03 -5.446695089340209961e-01
2.836000000000000000e+03 5.965015792846679688e+01 5.112428218126296997e-03 -2.066256523132324219e+00 8.314883112907409668e-01 -3.704304397106170654e-01 -8.091467022895812988e-01
2.837000000000000000e+03 6.113119888305664062e+01 7.161982655525207520e-01 -1.476813435554504395e+00 2.043353080749511719e+00 1.699618846178054810e-01 -1.537075161933898926e+00
2.838000000000000000e+03 5.176966094970703125e+01 -3.026897430419921875e+01 -5.797450542449951172e-01 1.613027006387710571e-01 -1.255327016115188599e-01 9.887723624706268311e-02
2.839000000000000000e+03 4.038619518280029297e+00 -2.276357841491699219e+01 2.830897569656372070e-01 7.832967042922973633e-01 3.199159502983093262e-01 9.723349809646606445e-01
2.840000000000000000e+03 6.504672050476074219e+00 -1.743026542663574219e+01 1.122919917106628418e+00 1.689539790153503418e+00 8.437379598617553711e-01 6.625531315803527832e-01
2.841000000000000000e+03 7.080702781677246094e+00 -1.599831676483154297e+01 9.469853043556213379e-01 1.478121042251586914e+00 7.275319099426269531e-01 4.028640091419219971e-01
2.842000000000000000e+03 4.173351287841796875e+01 -1.955904197692871094e+01 -4.197703599929809570e-01 7.223245620727539062e+00 2.041042566299438477e+00 -2.586142718791961670e-01
2.843000000000000000e+03 4.223171234130859375e+01 -2.127747917175292969e+01 -3.061684072017669678e-01 5.433081150054931641e+00 1.538073778152465820e+00 -3.333652019500732422e-01
2.844000000000000000e+03 3.388591003417968750e+01 -3.231044530868530273e+00 2.347053140401840210e-01 1.435422420501708984e+00 5.010383129119873047e-01 2.967555522918701172e-01
2.845000000000000000e+03 3.725143432617187500e+01 -1.972100639343261719e+01 -1.025568723678588867e+00 7.566207885742187500e+00 1.962191700935363770e+00 1.823456168174743652e+00
2.846000000000000000e+03 4.248581314086914062e+01 -2.299724578857421875e+01 -4.133484885096549988e-02 4.418256759643554688e+00 1.313076496124267578e+00 -3.210794031620025635e-01
2.847000000000000000e+03 6.870923614501953125e+01 -2.976352310180664062e+01 -1.271813869476318359e+00 7.175661563873291016e+00 1.771154284477233887e+00 1.877680718898773193e-01
2.848000000000000000e+03 7.033945465087890625e+01 -2.837412071228027344e+01 -7.348070740699768066e-01 9.392140388488769531e+00 2.597199916839599609e+00 -7.011311650276184082e-01
2.849000000000000000e+03 1.470207500457763672e+01 -1.374587249755859375e+01 8.024861812591552734e-01 9.139025956392288208e-02 2.681629359722137451e-01 3.879738748073577881e-01
2.850000000000000000e+03 4.882702255249023438e+01 4.253754138946533203e+00 -1.529768824577331543e+00 1.732700914144515991e-01 -4.069496095180511475e-01 3.482132256031036377e-01
2.851000000000000000e+03 6.804940795898437500e+01 -6.758676528930664062e+00 6.122758388519287109e-01 8.694330215454101562e+00 2.791981935501098633e+00 -1.932179570198059082e+00
2.852000000000000000e+03 1.221108436584472656e+01 -1.327574825286865234e+01 7.419201135635375977e-01 4.852775335311889648e-01 3.681592941284179688e-01 4.779490828514099121e-01
2.853000000000000000e+03 6.829673767089843750e+01 -3.194829177856445312e+01 -1.622627496719360352e+00 5.912168025970458984e+00 1.286862134933471680e+00 3.624078035354614258e-01
2.854000000000000000e+03 7.057664489746093750e+01 -1.210812473297119141e+01 1.110963582992553711e+00 1.214301776885986328e+01 3.976194381713867188e+00 -1.017475605010986328e+00
2.855000000000000000e+03 6.602029418945312500e+01 -3.412678909301757812e+01 -1.252870082855224609e+00 2.923791885375976562e+00 5.012765526771545410e-01 6.657481193542480469e-01
2.856000000000000000e+03 3.118299484252929688e+01 -4.061429977416992188e+00 4.466864764690399170e-01 -2.207147628068923950e-01 6.779151409864425659e-02 -4.289498627185821533e-01
2.857000000000000000e+03 3.207733917236328125e+01 -3.821201562881469727e+00 4.341515600681304932e-01 8.823843300342559814e-02 1.567170023918151855e-01 -2.449862807989120483e-01
2.858000000000000000e+03 6.577448272705078125e+01 -3.707330465316772461e+00 1.808693706989288330e-01 6.500686645507812500e+00 2.004466772079467773e+00 -1.707496047019958496e+00
2.859000000000000000e+03 5.411287689208984375e+01 1.864069938659667969e+00 -2.969050884246826172e+00 3.923146128654479980e-01 -7.730208635330200195e-01 5.887062847614288330e-02
2.860000000000000000e+03 2.522566223144531250e+01 -4.989237308502197266e+00 2.847053110599517822e-01 -2.605909705162048340e-01 7.234304677695035934e-03 -2.314900457859039307e-01
2.861000000000000000e+03 3.275996398925781250e+01 -1.491058158874511719e+01 1.857852339744567871e-01 8.068609237670898438e-01 2.977938354015350342e-01 2.508642077445983887e-01
2.862000000000000000e+03 1.362675380706787109e+01 1.632467651367187500e+01 -1.526077357993926853e-05 -2.111683897965122014e-05 -1.091328340407926589e-05 2.003451481868978590e-05
2.863000000000000000e+03 1.323060226440429688e+01 1.721509552001953125e+01 3.930581078748218715e-05 6.452277011703699827e-05 3.114857463515363634e-05 -3.332306732772849500e-05
2.864000000000000000e+03 3.398378372192382812e+01 -1.526752376556396484e+01 -1.902771294116973877e-01 2.213091850280761719e+00 6.068444252014160156e-01 -3.559946315363049507e-03
2.865000000000000000e+03 3.455140686035156250e+01 -1.678855705261230469e+01 -1.585191130638122559e+00 3.085544109344482422e+00 4.501059055328369141e-01 -2.275225520133972168e-01
2.866000000000000000e+03 1.250414562225341797e+01 2.731974411010742188e+01 5.011811153963208199e-04 4.013336001662537456e-05 1.623943389859050512e-04 5.113334191264584661e-05
2.867000000000000000e+03 1.260459136962890625e+01 2.634257698059082031e+01 4.467905382625758648e-04 1.140419844887219369e-04 1.682497531874105334e-04 -1.322244643233716488e-04
2.868000000000000000e+03 4.501322937011718750e+01 3.047043228149414062e+01 4.275990128517150879e-01 4.916491985321044922e+00 1.603227376937866211e+00 1.382209807634353638e-01
2.869000000000000000e+03 6.484243774414062500e+01 -1.636833429336547852e+00 -8.746242523193359375e-01 5.224730014801025391e+00 1.305031657218933105e+00 -1.708490252494812012e+00
2.870000000000000000e+03 3.975672721862792969e+00 -2.548421859741210938e+01 -2.112450450658798218e-01 6.912556886672973633e-01 1.440031975507736206e-01 1.024459481239318848e+00
2.871000000000000000e+03 5.478009796142578125e+01 1.743298411369323730e+00 -2.845486402511596680e+00 3.698088526725769043e-01 -7.427032589912414551e-01 -4.441411793231964111e-02
2.872000000000000000e+03 2.195956420898437500e+01 -5.326115131378173828e+00 2.142254114151000977e-01 -1.637968420982360840e-01 1.512857340276241302e-02 5.527703836560249329e-02
2.873000000000000000e+03 2.280911445617675781e+01 -5.243555545806884766e+00 2.358866333961486816e-01 -1.868433207273483276e-01 1.471299491822719574e-02 -9.251208044588565826e-03
2.874000000000000000e+03 3.612724304199218750e+01 -1.050665020942687988e+00 -9.443018436431884766e-01 4.128299236297607422e+00 9.551993012428283691e-01 9.138123989105224609e-01
2.875000000000000000e+03 6.910182189941406250e+01 -8.131427764892578125e+00 3.928253948688507080e-01 9.820450782775878906e+00 3.063982963562011719e+00 -1.694337368011474609e+00
2.876000000000000000e+03 4.094155883789062500e+01 9.513892233371734619e-03 -1.739530682563781738e+00 1.024384117126464844e+01 2.551293134689331055e+00 7.923175692558288574e-01
2.877000000000000000e+03 4.222523117065429688e+01 1.181912302970886230e+00 -2.855136871337890625e+00 9.505387306213378906e+00 1.995075106620788574e+00 1.430401086807250977e+00
2.878000000000000000e+03 5.595209121704101562e+01 -3.914324951171875000e+01 -1.338712126016616821e-01 -1.853288859128952026e-01 -9.576002508401870728e-02 -3.240603208541870117e-01
2.879000000000000000e+03 3.975108337402343750e+01 3.352581024169921875e+00 -5.624645352363586426e-01 1.029215431213378906e+01 2.918906927108764648e+00 2.261472463607788086e+00
2.880000000000000000e+03 3.825413131713867188e+01 -2.122338867187500000e+01 -1.621704399585723877e-01 7.503656387329101562e+00 2.202445745468139648e+00 1.662529110908508301e+00
2.881000000000000000e+03 2.363726425170898438e+01 -5.157302856445312500e+00 2.533503174781799316e-01 -2.059766203165054321e-01 1.421211380511522293e-02 -7.425533980131149292e-02
2.882000000000000000e+03 6.990512084960937500e+01 -2.931252861022949219e+01 -1.111021637916564941e+00 8.623874664306640625e+00 2.253855943679809570e+00 -4.159649908542633057e-01
2.883000000000000000e+03 8.287892341613769531e+00 -1.394931030273437500e+01 5.424333214759826660e-01 1.102484941482543945e+00 4.934754967689514160e-01 3.143593370914459229e-01
2.884000000000000000e+03 3.575536346435546875e+01 -3.377248001098632812e+01 -9.761273264884948730e-01 4.317404747009277344e+00 1.002383112907409668e+00 4.329406619071960449e-01
2.885000000000000000e+03 4.450506210327148438e+01 2.726053810119628906e+01 6.174734830856323242e-01 5.535063743591308594e+00 1.845761179924011230e+00 -2.544642053544521332e-02
2.886000000000000000e+03 4.462968826293945312e+01 2.819399642944335938e+01 6.507576704025268555e-01 5.334178447723388672e+00 1.795480847358703613e+00 6.789550388930365443e-05
2.887000000000000000e+03 8.911947250366210938e+00 -3.245003128051757812e+01 -6.350643038749694824e-01 -4.715225398540496826e-01 -3.319760560989379883e-01 3.020454943180084229e-01
2.888000000000000000e+03 3.168016052246093750e+01 -3.301145172119140625e+01 -2.952269911766052246e-01 2.842382669448852539e+00 7.641466856002807617e-01 1.322528362274169922e+00
2.889000000000000000e+03 4.010218811035156250e+01 -1.960482001304626465e-01 -1.525716900825500488e+00 9.936126708984375000e+00 2.523123025894165039e+00 7.512372732162475586e-01
2.890000000000000000e+03 7.091700744628906250e+01 -2.642694282531738281e+01 2.156039625406265259e-01 1.051143074035644531e+01 3.218110322952270508e+00 -1.019744038581848145e+00
2.891000000000000000e+03 3.681203079223632812e+01 -1.598746871948242188e+01 -6.622886061668395996e-01 6.573918819427490234e+00 1.773488998413085938e+00 2.904550433158874512e-01
2.892000000000000000e+03 3.981657409667968750e+01 -1.881681251525878906e+01 -6.045820116996765137e-01 8.340312957763671875e+00 2.320719242095947266e+00 9.710611701011657715e-01
2.893000000000000000e+03 3.943539047241210938e+01 -1.949475479125976562e+01 -7.210748195648193359e-01 7.944457530975341797e+00 2.167014837265014648e+00 1.288385033607482910e+00
2.894000000000000000e+03 4.325328445434570312e+01 3.448104858398437500e+01 -1.934295296669006348e-01 4.082051753997802734e+00 1.166586637496948242e+00 -1.333777457475662231e-01
2.895000000000000000e+03 3.427524948120117188e+01 -3.340874862670898438e+01 -8.012050986289978027e-01 4.078187465667724609e+00 9.830947518348693848e-01 8.025799393653869629e-01
2.896000000000000000e+03 4.162850570678710938e+01 5.350973606109619141e+00 5.079007744789123535e-01 9.317255020141601562e+00 2.947546958923339844e+00 3.008118152618408203e+00
2.897000000000000000e+03 6.666433715820312500e+01 -2.185144186019897461e+00 -6.939691305160522461e-01 6.572878837585449219e+00 1.763672828674316406e+00 -1.341550946235656738e+00
2.898000000000000000e+03 6.174909114837646484e+00 -3.045318984985351562e+01 -6.928749680519104004e-01 5.578385666012763977e-02 -1.911273300647735596e-01 3.236511051654815674e-01
2.899000000000000000e+03 4.269426345825195312e+01 3.434859752655029297e+00 -1.928337574005126953e+00 7.962575912475585938e+00 1.810271501541137695e+00 2.531985521316528320e+00
2.900000000000000000e+03 3.790327072143554688e+01 -2.548570823669433594e+01 1.248298168182373047e+00 6.590045928955078125e+00 2.351503372192382812e+00 6.929692625999450684e-01
2.901000000000000000e+03 2.976628303527832031e+01 -3.402499389648437500e+01 -2.833910584449768066e-01 1.723644018173217773e+00 4.320758879184722900e-01 1.099155068397521973e+00
2.902000000000000000e+03 3.156282424926757812e+01 -3.474941635131835938e+01 -6.325992941856384277e-01 2.726442813873291016e+00 6.281530857086181641e-01 1.067774415016174316e+00
2.903000000000000000e+03 4.196045684814453125e+01 -2.229768562316894531e+01 -1.891892403364181519e-01 5.223443508148193359e+00 1.510276317596435547e+00 -1.146568506956100464e-01
2.904000000000000000e+03 7.546617031097412109e+00 -3.268012619018554688e+01 -4.657985270023345947e-01 -2.095630317926406860e-01 -2.026084661483764648e-01 1.530441790819168091e-01
2.905000000000000000e+03 8.395417213439941406e+00 -3.329872894287109375e+01 -4.217112064361572266e-01 -2.969093322753906250e-01 -2.155861705541610718e-01 1.766449511051177979e-01
2.906000000000000000e+03 4.044748306274414062e+01 3.686755371093750000e+01 -3.088264763355255127e-01 2.756668806076049805e+00 7.343527078628540039e-01 -5.035166740417480469e-01
2.907000000000000000e+03 4.201785659790039062e+01 4.109610748291015625e+01 -4.364567399024963379e-01 3.210759401321411133e+00 8.322907686233520508e-01 -6.756895780563354492e-02
2.908000000000000000e+03 2.616359949111938477e+00 -3.956896591186523438e+01 2.570328302681446075e-02 1.153055906295776367e+00 3.536277413368225098e-01 -4.286213964223861694e-02
2.909000000000000000e+03 5.083570861816406250e+01 -3.113723373413085938e+01 -5.940159559249877930e-01 5.177654623985290527e-01 -2.287515625357627869e-02 -1.104713231325149536e-01
2.910000000000000000e+03 7.665252685546875000e+01 -3.888773727416992188e+01 -8.382079750299453735e-02 1.147395038604736328e+01 3.417038917541503906e+00 -1.105764955282211304e-01
2.911000000000000000e+03 7.668166351318359375e+01 -3.733274459838867188e+01 -1.535876691341400146e-01 1.145400810241699219e+01 3.390126228332519531e+00 -2.779389619827270508e-01
2.912000000000000000e+03 2.541331052780151367e+00 3.915122985839843750e+01 -5.419482113211415708e-05 2.875971549656242132e-04 7.002069469308480620e-05 -1.459777413401752710e-04
2.913000000000000000e+03 1.578264236450195312e+01 3.512974929809570312e+01 1.385116134770214558e-03 -2.509790647309273481e-04 3.402411239221692085e-04 -2.867027360480278730e-04
2.914000000000000000e+03 1.835441398620605469e+01 3.474835968017578125e+01 2.265944378450512886e-03 1.053946674801409245e-03 9.959673043340444565e-04 3.609307168517261744e-04
2.915000000000000000e+03 1.418743419647216797e+01 3.891491317749023438e+01 -3.454141842667013407e-04 -2.036573132500052452e-03 -7.145961862988770008e-04 -6.061473395675420761e-04
2.916000000000000000e+03 1.891810798645019531e+01 -3.373540878295898438e+01 -7.284730076789855957e-01 -8.225954324007034302e-02 -2.432197630405426025e-01 4.894710704684257507e-02
2.917000000000000000e+03 2.127762794494628906e+01 -1.520623397827148438e+01 2.615714073181152344e-01 -1.457696855068206787e-01 3.474051877856254578e-02 3.166881203651428223e-01
2.918000000000000000e+03 2.254532623291015625e+01 -1.603085899353027344e+01 6.944215297698974609e-02 -8.501201868057250977e-02 -4.670960363000631332e-03 3.131872415542602539e-01
2.919000000000000000e+03 1.055814838409423828e+01 -5.497446537017822266e+00 -1.574232131242752075e-01 1.903911381959915161e-01 9.890377521514892578e-03 8.364505134522914886e-03
2.920000000000000000e+03 2.807564544677734375e+01 -1.282268142700195312e+01 7.907211184501647949e-01 -4.048418104648590088e-01 1.157637909054756165e-01 8.397824764251708984e-01
2.921000000000000000e+03 1.788950920104980469e+01 4.029658794403076172e+00 1.532430906081572175e-05 9.089218110602814704e-06 7.324058060476090759e-06 1.896717662930313963e-06
2.922000000000000000e+03 6.802777099609375000e+01 -4.819516658782958984e+00 1.866161674261093140e-01 7.884149551391601562e+00 2.421229839324951172e+00 -1.264292478561401367e+00
2.923000000000000000e+03 1.939568138122558594e+01 -1.483393859863281250e+01 4.200695753097534180e-01 -1.469330787658691406e-01 8.194094151258468628e-02 2.497715353965759277e-01
2.924000000000000000e+03 2.001072502136230469e+01 -1.503370475769042969e+01 3.736629188060760498e-01 -1.505961418151855469e-01 6.692003458738327026e-02 2.646832168102264404e-01
2.925000000000000000e+03 1.875805854797363281e+01 -1.460979938507080078e+01 4.879232645034790039e-01 -1.484593749046325684e-01 1.018391624093055725e-01 2.583487927913665771e-01
2.926000000000000000e+03 3.135519027709960938e+01 -1.447797775268554688e+01 3.978759944438934326e-01 -4.720117524266242981e-02 1.052024438977241516e-01 7.520864009857177734e-01
2.927000000000000000e+03 1.619753456115722656e+01 7.237103462219238281e+00 7.958106834848877043e-06 1.750775118125602603e-05 7.639757313882000744e-06 1.045575118041597307e-05
2.928000000000000000e+03 1.577048301696777344e+01 4.042955398559570312e+00 -1.205884018418146297e-05 -1.553743459226097912e-05 -8.278881978185381740e-06 -3.550036126398481429e-06
2.929000000000000000e+03 5.136493301391601562e+01 3.123080968856811523e+00 -2.850966215133666992e+00 3.916823267936706543e-01 -7.377851605415344238e-01 -1.296884119510650635e-01
2.930000000000000000e+03 2.340808486938476562e+01 -1.538319110870361328e+01 8.512149006128311157e-02 -1.261615008115768433e-01 -1.231200527399778366e-02 4.273553788661956787e-01
2.931000000000000000e+03 2.264944267272949219e+01 -1.525182533264160156e+01 1.620465666055679321e-01 -1.444959491491317749e-01 5.265185609459877014e-03 3.962947428226470947e-01
2.932000000000000000e+03 1.200741672515869141e+01 -5.611140727996826172e+00 -1.155279502272605896e-01 1.617480218410491943e-01 1.386602129787206650e-02 8.750870823860168457e-02
2.933000000000000000e+03 9.162432670593261719e+00 -5.392711162567138672e+00 -1.784026771783828735e-01 1.887497156858444214e-01 3.104112343862652779e-03 -7.013080269098281860e-02
2.934000000000000000e+03 2.412136268615722656e+01 -1.570452308654785156e+01 -2.432478591799736023e-02 -1.103328168392181396e-01 -4.039727896451950073e-02 4.665139317512512207e-01
2.935000000000000000e+03 2.513900566101074219e+01 -1.443127918243408203e+01 1.527604013681411743e-01 -2.342724204063415527e-01 -2.445360645651817322e-02 6.693968176841735840e-01
2.936000000000000000e+03 1.534763336181640625e+01 5.857483386993408203e+00 -7.335490863624727353e-06 -1.575260648678522557e-05 -6.926429705345071852e-06 -5.391849754232680425e-06
2.937000000000000000e+03 2.363986396789550781e+01 -1.371712970733642578e+01 3.467424213886260986e-01 -2.624937593936920166e-01 2.527459338307380676e-02 5.298086404800415039e-01
2.938000000000000000e+03 1.417458820343017578e+01 4.830426692962646484e+00 3.781007080760900863e-06 1.635942317079752684e-05 6.042128916305955499e-06 -3.985132934758439660e-06
2.939000000000000000e+03 3.884503936767578125e+01 -1.158856487274169922e+01 9.216604232788085938e-01 9.826764106750488281e+00 3.224527359008789062e+00 8.735594898462295532e-02
2.940000000000000000e+03 6.041712188720703125e+01 6.479863524436950684e-01 -1.633772134780883789e+00 1.496992349624633789e+00 -4.103393480181694031e-02 -1.312503099441528320e+00
2.941000000000000000e+03 7.007938385009765625e+01 -8.630011558532714844e+00 2.772683501243591309e-01 1.016642951965332031e+01 3.133109331130981445e+00 -1.108377933502197266e+00
2.942000000000000000e+03 1.343616294860839844e+01 4.841384887695312500e+00 -5.431948920886497945e-06 -1.577266630192752928e-05 -6.361384293995797634e-06 5.730085831601172686e-06
2.943000000000000000e+03 3.849133014678955078e+00 -1.608283424377441406e+01 3.303405344486236572e-01 7.698907703161239624e-02 1.221988871693611145e-01 -1.184502616524696350e-01
2.944000000000000000e+03 1.894818115234375000e+01 -1.391086292266845703e+01 4.956571459770202637e-01 -1.623806059360504150e-01 9.998296201229095459e-02 3.024833798408508301e-01
2.945000000000000000e+03 3.981905364990234375e+01 -2.565202474594116211e+00 1.069389134645462036e-01 9.825861930847167969e+00 2.979840278625488281e+00 1.330528020858764648e+00
2.946000000000000000e+03 4.713062286376953125e+01 -2.676143074035644531e+01 -2.832800615578889847e-03 1.074162006378173828e+00 3.213987648487091064e-01 -4.028825163841247559e-01
2.947000000000000000e+03 4.699003982543945312e+01 -2.852235603332519531e+01 -1.159620359539985657e-01 1.381020188331604004e+00 3.795174360275268555e-01 -4.978884756565093994e-01
2.948000000000000000e+03 3.949673414230346680e+00 6.950579643249511719e+00 -1.057513600244419649e-05 2.368829882470890880e-06 -2.461891654093051329e-06 1.946834117916296236e-06
2.949000000000000000e+03 4.300331115722656250e+01 6.574379444122314453e+00 1.228159666061401367e+00 7.405147552490234375e+00 2.589992284774780273e+00 3.076420545578002930e+00
2.950000000000000000e+03 3.998558759689331055e+00 5.454932212829589844e+00 -7.386763627437176183e-06 3.427860235660773469e-07 -2.113193204422714189e-06 1.474487248742661905e-06
2.951000000000000000e+03 3.273773431777954102e+00 4.777933597564697266e+00 -5.385134500102140009e-06 -1.336094612724991748e-07 -1.655623123042460065e-06 7.454630122083472088e-07
2.952000000000000000e+03 5.539325714111328125e+00 5.358242511749267578e+00 -8.632250683149322867e-06 -2.760320114703063155e-07 -2.672484697541221976e-06 2.588070628917193972e-06
2.953000000000000000e+03 6.328943252563476562e+00 5.320981502532958984e+00 8.362637345271650702e-06 1.223038680109311827e-06 2.875702875826391391e-06 -2.733164819801459089e-06
2.954000000000000000e+03 4.308643722534179688e+01 9.539014816284179688e+00 1.966739296913146973e+00 8.029960632324218750e+00 2.999009847640991211e+00 3.322505474090576172e+00
2.955000000000000000e+03 7.125777244567871094e+00 5.282725334167480469e+00 -9.814421900955494493e-06 -1.700680968497181311e-06 -3.454530997260008007e-06 3.949123765778494999e-06
2.956000000000000000e+03 1.269247341156005859e+01 4.890496253967285156e+00 7.003506198088871315e-06 1.369428991893073544e-05 6.209338607732206583e-06 -7.218824521260103211e-06
2.957000000000000000e+03 3.647949218750000000e+01 -1.810724067687988281e+01 -1.857625722885131836e+00 6.801479339599609375e+00 1.483156085014343262e+00 9.304014444351196289e-01
2.958000000000000000e+03 9.583084106445312500e+00 4.439392566680908203e+00 -8.237754627771209925e-06 -5.626082838716683909e-06 -4.159151103522162884e-06 4.280424036551266909e-06
2.959000000000000000e+03 7.927051544189453125e+00 5.240554809570312500e+00 9.070553460333030671e-06 3.390359779587015510e-06 3.738274017450748943e-06 -4.576460923999547958e-06
2.960000000000000000e+03 3.947484207153320312e+01 -4.192493438720703125e+00 7.039433121681213379e-01 1.004717731475830078e+01 3.225336313247680664e+00 1.440432429313659668e+00
2.961000000000000000e+03 4.001920700073242188e+01 -5.037106037139892578e+00 8.980745673179626465e-01 1.139606285095214844e+01 3.688241243362426758e+00 1.626939892768859863e+00
2.962000000000000000e+03 4.160894393920898438e+00 3.159088706970214844e+01 3.349661710672080517e-05 5.570689609157852829e-06 1.172019165096571669e-05 -1.053830565069802105e-04
2.963000000000000000e+03 3.886184310913085938e+01 -2.316013908386230469e+01 5.193256139755249023e-01 6.625638484954833984e+00 2.143489360809326172e+00 1.138724446296691895e+00
2.964000000000000000e+03 4.527398300170898438e+01 -2.543468284606933594e+01 1.117254495620727539e-01 1.970014810562133789e+00 6.245220899581909180e-01 -6.109269857406616211e-01
2.965000000000000000e+03 4.664304733276367188e+01 -2.771706390380859375e+01 -4.467326402664184570e-02 1.434662342071533203e+00 4.169967472553253174e-01 -5.107973217964172363e-01
2.966000000000000000e+03 7.599000549316406250e+01 3.230859375000000000e+01 3.503418713808059692e-02 5.303350925445556641e+00 1.601515531539916992e+00 -8.659084141254425049e-02
2.967000000000000000e+03 7.503187561035156250e+01 3.217185974121093750e+01 5.385927110910415649e-02 5.282332897186279297e+00 1.600857734680175781e+00 -1.090575754642486572e-01
2.968000000000000000e+03 4.488615798950195312e+01 2.872875452041625977e+00 -2.998407125473022461e+00 3.523222923278808594e+00 1.574447304010391235e-01 2.678188562393188477e+00
2.969000000000000000e+03 4.605049514770507812e+01 3.437233924865722656e+00 -2.033125400543212891e+00 1.267738223075866699e+00 -2.296161651611328125e-01 2.121765613555908203e+00
2.970000000000000000e+03 4.537176132202148438e+01 2.473015594482421875e+01 5.027906298637390137e-01 5.736454963684082031e+00 1.871773719787597656e+00 2.966526448726654053e-01
2.971000000000000000e+03 1.526417255401611328e+01 1.146711254119873047e+01 1.965617047972045839e-05 2.291934288223274052e-05 1.277265437238384038e-05 2.164476063626352698e-05
2.972000000000000000e+03 7.514412689208984375e+01 2.959559822082519531e+01 6.498064845800399780e-02 5.343705654144287109e+00 1.622605919837951660e+00 -1.637906879186630249e-01
2.973000000000000000e+03 3.539216756820678711e+00 -2.959793472290039062e+01 -3.820627033710479736e-01 8.208583593368530273e-01 1.316386908292770386e-01 3.790260255336761475e-01
2.974000000000000000e+03 4.444168090820312500e+01 2.301325607299804688e+01 3.381426036357879639e-01 6.168678283691406250e+00 1.952046275138854980e+00 4.338620305061340332e-01
2.975000000000000000e+03 4.532350540161132812e+01 2.384789085388183594e+01 4.738705754280090332e-01 5.853075981140136719e+00 1.898083925247192383e+00 4.055753946304321289e-01
2.976000000000000000e+03 7.575417327880859375e+01 -2.890769767761230469e+01 -2.509968280792236328e-01 1.030702209472656250e+01 3.016807794570922852e+00 -1.495898008346557617e+00
2.977000000000000000e+03 4.064989566802978516e+00 2.840480422973632812e+01 6.343874701997265220e-05 2.462952352288994007e-06 1.977051033463794738e-05 -1.084443283616565168e-04
2.978000000000000000e+03 4.419762039184570312e+01 1.197752761840820312e+01 1.761848211288452148e+00 7.079516410827636719e+00 2.652409315109252930e+00 2.693109273910522461e+00
2.979000000000000000e+03 7.399516296386718750e+01 3.186120414733886719e+01 8.037627488374710083e-02 5.254144668579101562e+00 1.600356340408325195e+00 -1.323872059583663940e-01
2.980000000000000000e+03 4.503916931152343750e+01 1.966210365295410156e+01 6.422756314277648926e-01 6.355331897735595703e+00 2.099282264709472656e+00 1.096753358840942383e+00
2.981000000000000000e+03 4.430873489379882812e+01 2.053873252868652344e+01 4.132758975028991699e-01 6.527323722839355469e+00 2.082180023193359375e+00 8.422974944114685059e-01
2.982000000000000000e+03 7.139693450927734375e+01 -1.807545089721679688e+01 6.486200690269470215e-01 1.306310081481933594e+01 4.113516330718994141e+00 -1.215430259704589844e+00
2.983000000000000000e+03 7.611082458496093750e+01 -1.862878799438476562e+01 3.539409041404724121e-01 8.846327781677246094e+00 2.760080575942993164e+00 -8.512411713600158691e-01
2.984000000000000000e+03 1.275091457366943359e+01 -5.684137821197509766e+00 -8.603825420141220093e-02 1.393598318099975586e-01 1.599647291004657745e-02 1.254304200410842896e-01
2.985000000000000000e+03 4.439951705932617188e+01 2.218503379821777344e+01 3.428999483585357666e-01 6.279002666473388672e+00 1.986570835113525391e+00 5.606476664543151855e-01
2.986000000000000000e+03 4.509033203125000000e+01 2.049114227294921875e+01 5.694692730903625488e-01 6.253007411956787109e+00 2.046742916107177734e+00 9.381898045539855957e-01
2.987000000000000000e+03 1.350794315338134766e+01 -5.766972064971923828e+00 -5.627129599452018738e-02 1.143334582448005676e-01 1.741864718496799469e-02 1.582601517438888550e-01
2.988000000000000000e+03 4.514868927001953125e+01 2.132195663452148438e+01 5.104236602783203125e-01 6.159399986267089844e+00 2.000946998596191406e+00 7.942996025085449219e-01
2.989000000000000000e+03 2.502829551696777344e+00 5.589520454406738281e+00 -5.507744390342850238e-06 2.869519164505618392e-07 -1.566237756378541235e-06 4.973377372152754106e-07
2.990000000000000000e+03 4.406724548339843750e+01 1.635224151611328125e+01 9.838810563087463379e-01 7.223860740661621094e+00 2.462322711944580078e+00 1.710935235023498535e+00
2.991000000000000000e+03 7.584444427490234375e+01 2.320734596252441406e+01 7.355624437332153320e-02 5.639572143554687500e+00 1.713938474655151367e+00 -3.223307728767395020e-01
2.992000000000000000e+03 7.581452178955078125e+01 2.400173950195312500e+01 7.379340380430221558e-02 5.589703559875488281e+00 1.699049115180969238e+00 -2.985450029373168945e-01
2.993000000000000000e+03 7.566435241699218750e+01 -3.336074829101562500e+01 -4.430620372295379639e-01 1.066346263885498047e+01 3.066120147705078125e+00 -8.161165714263916016e-01
2.994000000000000000e+03 7.150453948974609375e+01 -1.977689933776855469e+01 3.988080918788909912e-01 1.278350734710693359e+01 3.954694747924804688e+00 -9.970390200614929199e-01
2.995000000000000000e+03 7.356369781494140625e+01 -2.092688941955566406e+01 4.840449094772338867e-01 1.087771701812744141e+01 3.408528566360473633e+00 -1.178972005844116211e+00
2.996000000000000000e+03 7.234654998779296875e+01 -2.057415199279785156e+01 4.659590423107147217e-01 1.187057685852050781e+01 3.700960874557495117e+00 -1.047325372695922852e+00
2.997000000000000000e+03 7.585194396972656250e+01 2.164867591857910156e+01 7.392870634794235229e-02 5.739971160888671875e+00 1.744169950485229492e+00 -3.719556629657745361e-01
2.998000000000000000e+03 7.658089447021484375e+01 1.923349571228027344e+01 4.946225509047508240e-02 6.004816532135009766e+00 1.816283702850341797e+00 -3.849547207355499268e-01
2.999000000000000000e+03 7.582756805419921875e+01 1.845405578613281250e+01 6.809712201356887817e-02 5.992546558380126953e+00 1.818193078041076660e+00 -4.750698804855346680e-01
3.000000000000000000e+03 7.588970947265625000e+01 1.604929161071777344e+01 4.894639179110527039e-02 6.229020595550537109e+00 1.883390069007873535e+00 -5.345139503479003906e-01
3.001000000000000000e+03 2.956210327148437500e+01 -1.449962711334228516e+01 2.122451066970825195e-01 -3.593061566352844238e-01 -4.411831125617027283e-02 1.011009454727172852e+00
3.002000000000000000e+03 2.898431777954101562e+01 -1.415192508697509766e+01 3.436625003814697266e-01 -3.675179779529571533e-01 -7.156642619520425797e-03 9.786114692687988281e-01
3.003000000000000000e+03 2.689135932922363281e+01 -1.559345436096191406e+01 -3.715310692787170410e-01 -1.362570375204086304e-01 -1.523364335298538208e-01 7.868798971176147461e-01
3.004000000000000000e+03 2.585956954956054688e+01 -1.431719112396240234e+01 2.032264322042465210e-01 -2.643341124057769775e-01 -1.833230257034301758e-02 7.323215007781982422e-01
3.005000000000000000e+03 7.656653594970703125e+01 2.629678344726562500e+01 4.555758833885192871e-02 5.508205890655517578e+00 1.666128993034362793e+00 -1.942003071308135986e-01
3.006000000000000000e+03 7.509255981445312500e+01 2.395026588439941406e+01 9.693379700183868408e-02 5.546894550323486328e+00 1.693148493766784668e+00 -3.392432034015655518e-01
3.007000000000000000e+03 7.592463684082031250e+01 1.444833374023437500e+01 2.877129614353179932e-02 6.406414031982421875e+00 1.930555582046508789e+00 -5.598385930061340332e-01
3.008000000000000000e+03 7.596482849121093750e+01 1.125410842895507812e+01 -2.443682029843330383e-02 6.782580375671386719e+00 2.027443170547485352e+00 -5.650725364685058594e-01
3.009000000000000000e+03 7.601000213623046875e+01 7.248978614807128906e+00 -1.171882078051567078e-01 7.259020328521728516e+00 2.142549514770507812e+00 -4.496082961559295654e-01
3.010000000000000000e+03 7.610526275634765625e+01 -2.179096031188964844e+01 2.749158442020416260e-01 9.261095046997070312e+00 2.860803127288818359e+00 -1.215295195579528809e+00
3.011000000000000000e+03 7.670337677001953125e+01 -2.572122192382812500e+01 6.901023536920547485e-02 9.721158027648925781e+00 2.937050580978393555e+00 -1.421369791030883789e+00
3.012000000000000000e+03 7.583073425292968750e+01 -2.807457923889160156e+01 -1.513067036867141724e-01 1.020374298095703125e+01 3.015730857849121094e+00 -1.553368926048278809e+00
3.013000000000000000e+03 7.662603759765625000e+01 1.603293037414550781e+01 3.265784680843353271e-02 6.337409496307373047e+00 1.911020159721374512e+00 -4.559998810291290283e-01
3.014000000000000000e+03 7.586750030517578125e+01 1.685078239440917969e+01 5.638679116964340210e-02 6.146548748016357422e+00 1.860880613327026367e+00 -5.170210003852844238e-01
3.015000000000000000e+03 7.661203002929687500e+01 1.683418464660644531e+01 3.936780989170074463e-02 6.246953487396240234e+00 1.885896444320678711e+00 -4.412331879138946533e-01
3.016000000000000000e+03 7.584513092041015625e+01 1.765417861938476562e+01 6.384380906820297241e-02 6.065719604492187500e+00 1.838869094848632812e+00 -4.972944855690002441e-01
3.017000000000000000e+03 7.658396148681640625e+01 2.241996765136718750e+01 5.190862342715263367e-02 5.742348194122314453e+00 1.738276958465576172e+00 -2.972175478935241699e-01
3.018000000000000000e+03 7.585343170166015625e+01 2.242931556701660156e+01 7.423593103885650635e-02 5.688852310180664062e+00 1.728926420211791992e+00 -3.459735214710235596e-01
3.019000000000000000e+03 1.357876873016357422e+01 1.435334682464599609e+01 3.306857252027839422e-06 -1.945438043549074791e-06 4.084257341219199589e-07 -9.659438546805176884e-06
3.020000000000000000e+03 1.394388103485107422e+01 1.548240756988525391e+01 -3.365892382589663612e-07 -1.226194626724463888e-06 -4.688351680215419037e-07 -2.822789792844559997e-05
3.021000000000000000e+03 7.597839355468750000e+01 1.045215129852294922e+01 -4.197190701961517334e-02 6.880769252777099609e+00 2.051639318466186523e+00 -5.550559759140014648e-01
3.022000000000000000e+03 7.606462860107421875e+01 -3.372080856934189796e-03 -2.246326953172683716e-01 7.863351821899414062e+00 2.291615724563598633e+00 1.271792203187942505e-01
3.023000000000000000e+03 7.604378509521484375e+01 4.060403347015380859e+00 -1.875997781753540039e-01 7.585900306701660156e+00 2.219490051269531250e+00 -2.417102009057998657e-01
3.024000000000000000e+03 7.671353912353515625e+01 8.819869995117187500e+00 -5.717955157160758972e-02 7.224480628967285156e+00 2.150190353393554688e+00 -4.286058247089385986e-01
3.025000000000000000e+03 7.599116516113281250e+01 9.648045539855957031e+00 -5.960927531123161316e-02 6.978105068206787109e+00 2.075548648834228516e+00 -5.366008281707763672e-01
3.026000000000000000e+03 7.611359405517578125e+01 -7.177837848663330078e+00 -2.870318107306957245e-02 8.018654823303222656e+00 2.396985530853271484e+00 5.619786381721496582e-01
3.027000000000000000e+03 7.379877471923828125e+01 -2.698463630676269531e+01 -6.643230468034744263e-02 1.016268348693847656e+01 3.028875112533569336e+00 -1.697480797767639160e+00
3.028000000000000000e+03 7.677855682373046875e+01 -2.098194313049316406e+01 2.177778631448745728e-01 8.727208137512207031e+00 2.683495998382568359e+00 -1.025307178497314453e+00
3.029000000000000000e+03 7.611759948730468750e+01 -3.214672565460205078e+00 -1.726587116718292236e-01 7.962426185607910156e+00 2.336930274963378906e+00 3.998808562755584717e-01
3.030000000000000000e+03 7.584382629394531250e+01 2.085301780700683594e+01 7.414606213569641113e-02 5.797595977783203125e+00 1.761522531509399414e+00 -3.984866142272949219e-01
3.031000000000000000e+03 7.542194366455078125e+01 -1.544429397583007812e+01 5.931178331375122070e-01 8.936030387878417969e+00 2.858744621276855469e+00 -4.119996130466461182e-01
3.032000000000000000e+03 7.613394165039062500e+01 -5.622181892395019531e+00 -9.274234622716903687e-02 7.996324062347412109e+00 2.371074676513671875e+00 5.295557379722595215e-01
3.033000000000000000e+03 7.680555725097656250e+01 -4.829765319824218750e+00 -8.988443762063980103e-02 7.868573665618896484e+00 2.333606719970703125e+00 4.883111119270324707e-01
3.034000000000000000e+03 7.612562561035156250e+01 -4.026693344116210938e+00 -1.476626396179199219e-01 7.975305557250976562e+00 2.348292827606201172e+00 4.500021040439605713e-01
3.035000000000000000e+03 7.608460998535156250e+01 -1.453562545776367188e+01 4.589147269725799561e-01 8.326366424560546875e+00 2.635584354400634766e+00 -1.555783450603485107e-01
3.036000000000000000e+03 7.037015533447265625e+01 -9.408585548400878906e+00 3.671943843364715576e-01 1.057557487487792969e+01 3.282830715179443359e+00 -9.982774257659912109e-01
3.037000000000000000e+03 7.495539855957031250e+01 -1.066390037536621094e+01 3.342211246490478516e-01 8.733626365661621094e+00 2.720354080200195312e+00 3.693891465663909912e-01
3.038000000000000000e+03 7.677626800537109375e+01 -1.858087539672851562e+01 2.694517076015472412e-01 8.316172599792480469e+00 2.575687170028686523e+00 -7.446299195289611816e-01
3.039000000000000000e+03 7.609844970703125000e+01 -2.101705169677734375e+01 2.885596752166748047e-01 9.165671348571777344e+00 2.836269140243530273e+00 -1.131858706474304199e+00
3.040000000000000000e+03 7.372857666015625000e+01 -1.980050277709960938e+01 5.110103487968444824e-01 1.077661418914794922e+01 3.386287212371826172e+00 -1.161694765090942383e+00
3.041000000000000000e+03 7.677572631835937500e+01 -2.019170188903808594e+01 2.331975251436233521e-01 8.587326049804687500e+00 2.646157026290893555e+00 -9.385337829589843750e-01
3.042000000000000000e+03 7.360839843750000000e+01 -1.260277938842773438e+01 7.909311056137084961e-01 9.878945350646972656e+00 3.200962781906127930e+00 -9.292270988225936890e-02
3.043000000000000000e+03 7.676760101318359375e+01 -1.368128204345703125e+01 3.105031251907348633e-01 7.747648715972900391e+00 2.417445421218872070e+00 5.299184843897819519e-02
3.044000000000000000e+03 7.610266113281250000e+01 -1.534721755981445312e+01 4.589313864707946777e-01 8.398295402526855469e+00 2.657167911529541016e+00 -3.078000545501708984e-01
3.045000000000000000e+03 7.675240325927734375e+01 -1.286713409423828125e+01 2.780002951622009277e-01 7.733624458312988281e+00 2.403487443923950195e+00 1.778882145881652832e-01
3.046000000000000000e+03 7.601367950439453125e+01 -1.207000541687011719e+01 3.446921110153198242e-01 8.209375381469726562e+00 2.566220283508300781e+00 2.662283778190612793e-01
3.047000000000000000e+03 7.130208587646484375e+01 -1.193955993652343750e+01 9.886172413825988770e-01 1.144902992248535156e+01 3.731294155120849609e+00 -6.514810323715209961e-01
3.048000000000000000e+03 7.675353240966796875e+01 2.409355401992797852e+00 -1.544699072837829590e-01 7.823457241058349609e+00 2.300696134567260742e+00 -5.489308387041091919e-02
3.049000000000000000e+03 7.539366149902343750e+01 2.502552270889282227e+00 -2.760847508907318115e-01 7.622011661529541016e+00 2.203778028488159180e+00 -1.610404551029205322e-01
3.050000000000000000e+03 7.605461883544921875e+01 3.257676601409912109e+00 -2.028544694185256958e-01 7.655872821807861328e+00 2.235905408859252930e+00 -1.739945858716964722e-01
3.051000000000000000e+03 7.621994781494140625e+01 2.875821495056152344e+01 4.502931237220764160e-02 5.402088165283203125e+00 1.634135246276855469e+00 -1.522791087627410889e-01
3.052000000000000000e+03 7.596319580078125000e+01 -2.646298217773437500e+01 2.212821692228317261e-02 9.961212158203125000e+00 2.995002269744873047e+00 -1.577998638153076172e+00
3.053000000000000000e+03 7.589927673339843750e+01 -2.725863265991210938e+01 -6.058106198906898499e-02 1.008495807647705078e+01 3.007313013076782227e+00 -1.579597234725952148e+00
3.054000000000000000e+03 7.666412353515625000e+01 -2.651604080200195312e+01 1.377821434289216995e-02 9.905182838439941406e+00 2.975688219070434570e+00 -1.443549156188964844e+00
3.055000000000000000e+03 7.458808135986328125e+01 3.064982604980468750e+01 7.483464479446411133e-02 5.294260025024414062e+00 1.610728383064270020e+00 -1.510542780160903931e-01
3.056000000000000000e+03 7.609908294677734375e+01 -8.742784500122070312e+00 6.407411396503448486e-02 8.043978691101074219e+00 2.432415962219238281e+00 5.471633076667785645e-01
3.057000000000000000e+03 7.612069702148437500e+01 -1.700569725036621094e+01 4.186889529228210449e-01 8.598459243774414062e+00 2.705144405364990234e+00 -6.104436516761779785e-01
3.058000000000000000e+03 7.603460693359375000e+01 4.857645034790039062e+00 -1.724013090133666992e-01 7.511762142181396484e+00 2.201808214187622070e+00 -3.013218939304351807e-01
3.059000000000000000e+03 7.277282714843750000e+01 -1.774375724792480469e+01 7.749468088150024414e-01 1.156900024414062500e+01 3.703184127807617188e+00 -1.144832849502563477e+00
3.060000000000000000e+03 7.610652160644531250e+01 -7.960376262664794922e+00 1.629512012004852295e-02 8.036558151245117188e+00 2.415856122970581055e+00 5.647764801979064941e-01
3.061000000000000000e+03 7.611027526855468750e+01 -2.413837671279907227e+00 -1.930576711893081665e-01 7.947164535522460938e+00 2.326232194900512695e+00 3.368857502937316895e-01
3.062000000000000000e+03 5.082033157348632812e+00 3.035579109191894531e+01 6.458932330133393407e-05 -8.750670531298965216e-05 -6.875213330204132944e-06 -9.301846148446202278e-05
3.063000000000000000e+03 3.135275602340698242e+00 3.153346252441406250e+01 3.763016366065130569e-06 5.689063618774525821e-05 1.819609497033525258e-05 -8.587307820562273264e-05
3.064000000000000000e+03 7.606972503662109375e+01 -8.157619833946228027e-01 -2.157341986894607544e-01 7.895290374755859375e+00 2.303866863250732422e+00 2.009041160345077515e-01
3.065000000000000000e+03 7.608744812011718750e+01 -1.619472265243530273e+00 -2.081262618303298950e-01 7.922567367553710938e+00 2.314332485198974609e+00 2.704756855964660645e-01
3.066000000000000000e+03 1.495160293579101562e+01 8.493043899536132812e+00 -5.842916380061069503e-06 -1.759254337230231613e-05 -7.030638244032161310e-06 -8.805001925793476403e-06
3.067000000000000000e+03 7.601569366455078125e+01 6.451103687286376953e+00 -1.361808776855468750e-01 7.346983432769775391e+00 2.163240671157836914e+00 -4.055590927600860596e-01
3.068000000000000000e+03 7.602496337890625000e+01 5.653807163238525391e+00 -1.545837968587875366e-01 7.431460380554199219e+00 2.183063030242919922e+00 -3.580835461616516113e-01
3.069000000000000000e+03 3.909078836441040039e+00 2.454839324951171875e+01 2.315772326255682856e-05 2.720724660321138799e-05 1.510949095973046497e-05 -1.495498236181447282e-05
3.070000000000000000e+03 7.651210784912109375e+01 -3.309239959716796875e+01 -3.086383640766143799e-01 1.106270027160644531e+01 3.226218700408935547e+00 -8.174178600311279297e-01
3.071000000000000000e+03 7.595457458496093750e+01 1.205121421813964844e+01 -1.000467501580715179e-02 6.687457084655761719e+00 2.003235816955566406e+00 -5.718438029289245605e-01
3.072000000000000000e+03 7.185879516601562500e+01 -2.929522895812988281e+01 -8.447006344795227051e-01 9.591504096984863281e+00 2.624041080474853516e+00 -1.190717577934265137e+00
3.073000000000000000e+03 7.593665313720703125e+01 1.364783287048339844e+01 1.609489321708679199e-02 6.500014781951904297e+00 1.954832911491394043e+00 -5.683043599128723145e-01
3.074000000000000000e+03 7.594611358642578125e+01 1.284827423095703125e+01 4.799010232090950012e-03 6.592312812805175781e+00 1.979133605957031250e+00 -5.709730982780456543e-01
3.075000000000000000e+03 4.649684143066406250e+01 -2.696202468872070312e+01 9.202507324516773224e-03 1.432307124137878418e+00 4.324528872966766357e-01 -5.074998140335083008e-01
3.076000000000000000e+03 3.302806854248046875e+00 2.779715728759765625e+01 4.071371586178429425e-05 1.164498735306551680e-05 1.570761196489911526e-05 -8.073259959928691387e-05
3.077000000000000000e+03 4.197815895080566406e+00 2.918771362304687500e+01 2.998795571329537779e-05 3.841758007183670998e-05 2.052166018984280527e-05 -4.548360811895690858e-05
3.078000000000000000e+03 7.354624176025390625e+01 -2.279763984680175781e+01 5.251774191856384277e-01 1.066656970977783203e+01 3.357524156570434570e+00 -1.311530709266662598e+00
3.079000000000000000e+03 7.611100769042968750e+01 -2.334861946105957031e+01 2.301666885614395142e-01 9.464938163757324219e+00 2.908531427383422852e+00 -1.363175034523010254e+00
3.080000000000000000e+03 4.413111209869384766e+00 -5.778876304626464844e+00 -1.059421747922897339e-01 -2.675185911357402802e-02 -3.980820998549461365e-02 -2.553113996982574463e-01
3.081000000000000000e+03 7.582220458984375000e+01 1.924980354309082031e+01 7.222311198711395264e-02 5.922886371612548828e+00 1.798532843589782715e+00 -4.518950581550598145e-01
3.082000000000000000e+03 3.930527448654174805e+00 2.140906524658203125e+01 5.454180609376635402e-06 1.273974339710548520e-05 5.458177383843576536e-06 8.657741545903263614e-07
3.083000000000000000e+03 3.255164384841918945e+00 2.622311210632324219e+01 2.484194556018337607e-05 6.274006409512367100e-06 9.334785318060312420e-06 -5.377530396799556911e-05
3.084000000000000000e+03 4.392364883422851562e+01 1.025795173645019531e+01 1.972080826759338379e+00 7.043222904205322266e+00 2.704591035842895508e+00 3.026819705963134766e+00
3.085000000000000000e+03 3.108583927154541016e+00 -9.516865730285644531e+00 -5.347650125622749329e-02 -2.582590579986572266e-01 -9.352067112922668457e-02 -3.422816693782806396e-01
3.086000000000000000e+03 4.112489700317382812e+00 -6.563590049743652344e+00 -8.855921030044555664e-02 -5.794342607259750366e-02 -4.395079240202903748e-02 -2.794489562511444092e-01
3.087000000000000000e+03 4.273609638214111328e+00 -2.708824539184570312e+01 -5.166040658950805664e-01 6.283435821533203125e-01 3.352184966206550598e-02 8.289261460304260254e-01
3.088000000000000000e+03 4.569529342651367188e+01 -2.689349937438964844e+01 3.701618686318397522e-02 1.841299295425415039e+00 5.634946227073669434e-01 -5.997416973114013672e-01
3.089000000000000000e+03 4.459011840820312500e+01 -2.606881523132324219e+01 1.008367463946342468e-01 2.390483617782592773e+00 7.473961114883422852e-01 -6.277960538864135742e-01
3.090000000000000000e+03 3.466939687728881836e+00 -2.661503219604492188e+01 -3.321096897125244141e-01 7.242773175239562988e-01 1.176502853631973267e-01 8.912202119827270508e-01
3.091000000000000000e+03 3.896031618118286133e+00 1.567892265319824219e+01 2.060790575342252851e-05 -5.837175194756127894e-06 4.431219167599920183e-06 1.051515664585167542e-05
3.092000000000000000e+03 4.606155872344970703e+00 2.598606872558593750e+01 1.675016210356261581e-05 7.063602424750570208e-06 7.144129540392896160e-06 -5.657802103087306023e-05
3.093000000000000000e+03 4.641507625579833984e+00 8.413079261779785156e+00 1.608391539775766432e-05 -6.790966381231555715e-06 2.787884568533627316e-06 -1.156106691269087605e-06
3.094000000000000000e+03 3.180208683013916016e+00 -1.327757549285888672e+01 5.045125633478164673e-02 -3.162040114402770996e-01 -7.972582429647445679e-02 -3.508505523204803467e-01
3.095000000000000000e+03 4.158527851104736328e+00 -1.176268482208251953e+01 -1.636838726699352264e-02 5.200885701924562454e-03 -3.350250655785202980e-03 -3.663521111011505127e-01
3.096000000000000000e+03 4.348933696746826172e+00 -8.941307067871093750e+00 -8.189065754413604736e-02 -2.649380825459957123e-03 -2.536201104521751404e-02 -3.373689353466033936e-01
3.097000000000000000e+03 2.967550992965698242e+00 -1.101997756958007812e+01 -3.795317187905311584e-02 -3.533264696598052979e-01 -1.173838898539543152e-01 -3.585498034954071045e-01
3.098000000000000000e+03 2.418589353561401367e+00 -2.102502250671386719e+01 2.290245741605758667e-01 -2.727588713169097900e-01 -1.312028523534536362e-02 6.083716154098510742e-01
3.099000000000000000e+03 3.201353073120117188e+00 7.800132274627685547e+00 -1.055018947226926684e-05 3.020065378223080188e-06 -2.259037046314915642e-06 6.691876137665531132e-07
3.100000000000000000e+03 3.931186914443969727e+00 7.715425014495849609e+00 1.185380460810847580e-05 -4.143571459280792624e-06 2.313069899173569866e-06 -5.413430699263699353e-07
3.101000000000000000e+03 3.950546264648437500e+00 1.732555770874023438e+01 1.447781596652930602e-05 5.964452753914883942e-08 4.361238097772002220e-06 8.364866516785696149e-06
3.102000000000000000e+03 3.186028480529785156e+00 1.418721580505371094e+01 -1.595946741872467101e-05 4.810241080122068524e-06 -3.344767947055515833e-06 -2.877748784158029594e-06
3.103000000000000000e+03 3.178694963455200195e+00 -1.922704124450683594e+01 3.931424915790557861e-01 -1.162117626518011093e-02 1.144563928246498108e-01 3.963671028614044189e-01
3.104000000000000000e+03 2.868886709213256836e+00 -1.996094322204589844e+01 3.041593134403228760e-01 -1.334811598062515259e-01 5.120344087481498718e-02 4.908342063426971436e-01
3.105000000000000000e+03 3.929218292236328125e+00 -7.321189880371093750e+00 -8.472276479005813599e-02 -8.223985135555267334e-02 -5.008878558874130249e-02 -3.002491891384124756e-01
3.106000000000000000e+03 3.956394910812377930e+00 -1.784575843811035156e+01 5.215492248535156250e-01 3.076757192611694336e-01 2.487674802541732788e-01 2.249905169010162354e-01
3.107000000000000000e+03 3.421713829040527344e+00 -1.748148536682128906e+01 3.835723400115966797e-01 -2.289828285574913025e-02 1.082022115588188171e-01 8.735797554254531860e-02
3.108000000000000000e+03 5.306910037994384766e+00 2.057881736755371094e+01 -1.244770828634500504e-05 1.780633647285867482e-05 1.607588501428836025e-06 1.390010129398433492e-05
3.109000000000000000e+03 3.227700233459472656e+00 2.067002868652343750e+01 -1.662657069800843601e-07 7.902602192189078778e-06 2.320900875929510221e-06 3.441056833253242075e-06
3.110000000000000000e+03 3.927641630172729492e+00 2.219874191284179688e+01 1.189962949865730479e-05 -9.561247679812368006e-06 7.015144092292757705e-07 -1.140185668191406876e-05
3.111000000000000000e+03 3.188183546066284180e+00 -1.494539928436279297e+01 1.562166213989257812e-01 -3.028379678726196289e-01 -4.398640617728233337e-02 -2.585677206516265869e-01
3.112000000000000000e+03 3.884651899337768555e+00 1.486980915069580078e+01 -2.395581941527780145e-05 8.156056537700351328e-06 -4.739928954222705215e-06 -3.817715423792833462e-06
3.113000000000000000e+03 3.875811576843261719e+00 1.165882110595703125e+01 -2.055223740171641111e-05 6.942581876501208171e-06 -4.082896793988766149e-06 -1.434062028238258790e-06
3.114000000000000000e+03 5.456031799316406250e+00 -1.611733627319335938e+01 5.934225320816040039e-01 8.889517784118652344e-01 4.447122812271118164e-01 8.937580883502960205e-02
3.115000000000000000e+03 3.232770919799804688e+00 1.986193275451660156e+01 7.085430297593120486e-06 -7.268114131875336170e-06 -5.480513110001083987e-08 -4.386659213651000755e-07
3.116000000000000000e+03 3.971498966217041016e+00 1.897063446044921875e+01 1.089107718144077808e-05 -6.127212600404163823e-06 1.429159510735189542e-06 4.353220447228522971e-06
3.117000000000000000e+03 4.526448249816894531e+00 -1.426170063018798828e+01 1.890737414360046387e-01 2.820629775524139404e-01 1.413410156965255737e-01 -2.582811117172241211e-01
3.118000000000000000e+03 3.072732686996459961e+00 -1.032327461242675781e+01 -3.761699795722961426e-02 -2.987603545188903809e-01 -1.009132042527198792e-01 -3.549133837223052979e-01
3.119000000000000000e+03 4.828471183776855469e+00 -9.807747840881347656e+00 -7.322663813829421997e-02 1.027019619941711426e-01 8.842598646879196167e-03 -3.346408307552337646e-01
3.120000000000000000e+03 4.888274192810058594e+00 -1.750829505920410156e+01 6.936976313591003418e-01 8.239461183547973633e-01 4.552931189537048340e-01 2.904981970787048340e-01
3.121000000000000000e+03 3.750540494918823242e+00 -1.065805625915527344e+01 -4.828600212931632996e-02 -1.140253767371177673e-01 -4.869341477751731873e-02 -3.752172291278839111e-01
3.122000000000000000e+03 3.902293443679809570e+00 9.269250869750976562e+00 1.523696937510976568e-05 -6.807961653976235539e-06 2.528702225390588865e-06 1.617356360839039553e-06
3.123000000000000000e+03 3.878385543823242188e+00 1.326316833496093750e+01 -2.323175249330233783e-05 7.658838512725196779e-06 -4.671874194173142314e-06 -1.930619191625737585e-06
3.124000000000000000e+03 4.878722667694091797e+00 -3.002631378173828125e+01 -5.097569823265075684e-01 4.565551578998565674e-01 -1.596054248511791229e-02 3.252729475498199463e-01
3.125000000000000000e+03 3.889297246932983398e+00 1.006060791015625000e+01 -1.793376759451348335e-05 7.213430762931238860e-06 -3.216101049474673346e-06 -7.572366484964732081e-07
3.126000000000000000e+03 3.318079471588134766e+00 -3.304859924316406250e+01 -1.310784071683883667e-01 9.617614746093750000e-01 2.492049187421798706e-01 -2.454883232712745667e-02
3.127000000000000000e+03 6.189944267272949219e+00 -3.262876129150390625e+01 -3.677693605422973633e-01 1.359033435583114624e-01 -6.955980509519577026e-02 7.243973016738891602e-02
3.128000000000000000e+03 7.583083343505859375e+01 2.004883384704589844e+01 7.348663359880447388e-02 5.858237266540527344e+00 1.779517173767089844e+00 -4.253776967525482178e-01
3.129000000000000000e+03 3.468357086181640625e+00 -3.381726455688476562e+01 -8.511971682310104370e-02 9.292378425598144531e-01 2.532354295253753662e-01 -5.713626742362976074e-02
3.130000000000000000e+03 3.830737590789794922e+00 -3.264264678955078125e+01 -1.859899908304214478e-01 7.880968451499938965e-01 1.806320548057556152e-01 1.349836867302656174e-02
3.131000000000000000e+03 3.563718557357788086e+00 3.221015548706054688e+01 4.659447586163878441e-05 1.510902802692726254e-04 5.930542829446494579e-05 -1.784690102795138955e-04
3.132000000000000000e+03 4.648676872253417969e+00 3.095860671997070312e+01 6.141142512205988169e-05 1.562370453029870987e-04 6.529453821713104844e-05 -1.726828195387497544e-04
3.133000000000000000e+03 3.915698766708374023e+00 8.486824989318847656e+00 -1.473998963774647564e-05 5.432917532743886113e-06 -2.792121449601836503e-06 1.127845735027221963e-06
3.134000000000000000e+03 1.293440723419189453e+01 1.591026878356933594e+01 1.357148539682384580e-05 4.383390842122025788e-05 1.722161687212064862e-05 -8.743576472625136375e-06
3.135000000000000000e+03 3.914586067199707031e+00 2.377098846435546875e+01 1.696406798146199435e-05 -1.388571399729698896e-05 9.235063203050231095e-07 -2.059500002360437065e-05
3.136000000000000000e+03 7.539074707031250000e+01 2.860531425476074219e+01 6.332334876060485840e-02 5.380343437194824219e+00 1.633099913597106934e+00 -1.805511564016342163e-01
3.137000000000000000e+03 7.557037353515625000e+01 2.772851943969726562e+01 6.341540813446044922e-02 5.414568901062011719e+00 1.643395304679870605e+00 -1.967918127775192261e-01
3.138000000000000000e+03 4.351640319824218750e+01 -2.430601119995117188e+01 9.775901585817337036e-02 3.218722581863403320e+00 9.949444532394409180e-01 -5.602342486381530762e-01
3.139000000000000000e+03 7.470029449462890625e+01 -3.456690979003906250e+01 -5.506725907325744629e-01 1.012443065643310547e+01 2.872127294540405273e+00 -6.420132517814636230e-01
3.140000000000000000e+03 7.473709106445312500e+01 3.472987365722656250e+01 4.053537547588348389e-02 5.242519855499267578e+00 1.584916591644287109e+00 -6.658492982387542725e-02
3.141000000000000000e+03 7.576162719726562500e+01 2.482868957519531250e+01 7.166256010532379150e-02 5.541980743408203125e+00 1.684092998504638672e+00 -2.744926214218139648e-01
3.142000000000000000e+03 4.388444423675537109e+00 -3.306978988647460938e+01 -1.927304863929748535e-01 6.507213115692138672e-01 1.373972445726394653e-01 6.087295478209853172e-04
3.143000000000000000e+03 4.977073192596435547e+00 3.502242279052734375e+01 -8.129747584462165833e-05 2.397083153482526541e-04 4.752325185108929873e-05 -2.769943966995924711e-04
3.144000000000000000e+03 4.301052093505859375e+01 -2.365794944763183594e+01 4.431945085525512695e-02 3.783872365951538086e+00 1.148457527160644531e+00 -4.711803495883941650e-01
3.145000000000000000e+03 4.186000347137451172e+00 -3.377143478393554688e+01 -1.239430606365203857e-01 7.273496985435485840e-01 1.810219883918762207e-01 -4.847266152501106262e-02
3.146000000000000000e+03 4.815482711791992188e+01 -3.027692413330078125e+01 -3.417895138263702393e-01 1.151713848114013672e+00 2.429773062467575073e-01 -4.119924306869506836e-01
3.147000000000000000e+03 3.815102005004882812e+01 -1.071278762817382812e+01 1.273061275482177734e+00 8.683907508850097656e+00 2.987090826034545898e+00 3.633466362953186035e-01
3.148000000000000000e+03 7.558395385742187500e+01 -3.060317802429199219e+01 -4.178511798381805420e-01 1.043651390075683594e+01 3.005598783493041992e+00 -1.288130879402160645e+00
3.149000000000000000e+03 7.552400207519531250e+01 -3.147889518737792969e+01 -4.672403335571289062e-01 1.046922779083251953e+01 3.000596284866333008e+00 -1.146873593330383301e+00
3.150000000000000000e+03 1.411358070373535156e+01 1.276919937133789062e+01 -4.589953277900349349e-06 -1.836779119912534952e-05 -6.887323252158239484e-06 -1.224553489009849727e-05
3.151000000000000000e+03 7.544604492187500000e+01 -1.626728820800781250e+01 5.676540732383728027e-01 9.029090881347656250e+00 2.879023551940917969e+00 -5.701271295547485352e-01
3.152000000000000000e+03 7.128575897216796875e+01 -1.640782928466796875e+01 1.143349051475524902e+00 1.303333187103271484e+01 4.253004550933837891e+00 -1.325916290283203125e+00
3.153000000000000000e+03 3.451286792755126953e+00 3.032122421264648438e+01 -3.245086759307014290e-07 1.470116840209811926e-04 4.400615216582082212e-05 -8.967743633547797799e-05
3.154000000000000000e+03 4.838689327239990234e+00 -3.363362503051757812e+01 -1.813362538814544678e-01 5.103280544281005859e-01 9.869755059480667114e-02 -2.801322750747203827e-02
3.155000000000000000e+03 4.525241851806640625e+01 2.647361373901367188e+01 5.885850787162780762e-01 5.516063213348388672e+00 1.831394553184509277e+00 1.271236538887023926e-01
3.156000000000000000e+03 7.031421661376953125e+01 -1.125572586059570312e+01 8.340232372283935547e-01 1.181369590759277344e+01 3.794315814971923828e+00 -1.139391303062438965e+00
3.157000000000000000e+03 8.370493888854980469e+00 -4.727691173553466797e+00 -2.006950229406356812e-01 1.425625681877136230e-01 -1.743973791599273682e-02 -1.115513741970062256e-01
3.158000000000000000e+03 9.175152778625488281e+00 -6.048768043518066406e+00 -1.558630466461181641e-01 2.298331856727600098e-01 2.219104208052158356e-02 -6.701505929231643677e-02
3.159000000000000000e+03 9.994772911071777344e+00 -3.546769332885742188e+01 -2.030986398458480835e-01 -3.175044357776641846e-01 -1.561809182167053223e-01 1.808538883924484253e-01
3.160000000000000000e+03 6.494396209716796875e+00 -6.010854721069335938e+00 -1.525338739156723022e-01 1.249315738677978516e-01 -8.280688896775245667e-03 -2.145636975765228271e-01
3.161000000000000000e+03 5.683167934417724609e+00 -4.778237819671630859e+00 -1.517774611711502075e-01 4.807797074317932129e-02 -3.110984712839126587e-02 -2.103710174560546875e-01
3.162000000000000000e+03 5.083771705627441406e+00 -6.277014732360839844e+00 -1.187353357672691345e-01 3.814462944865226746e-02 -2.417721226811408997e-02 -2.651444971561431885e-01
3.163000000000000000e+03 4.433120346069335938e+01 1.282227897644042969e+01 1.644158840179443359e+00 7.036782741546630859e+00 2.604282379150390625e+00 2.500614404678344727e+00
3.164000000000000000e+03 1.739958572387695312e+01 -1.408854103088378906e+01 6.094263195991516113e-01 -1.167162954807281494e-01 1.478130072355270386e-01 2.853616774082183838e-01
3.165000000000000000e+03 1.786715126037597656e+01 -1.278114128112792969e+01 5.608221888542175293e-01 -1.280746608972549438e-01 1.298242658376693726e-01 3.620748519897460938e-01
3.166000000000000000e+03 1.438027286529541016e+01 1.196918106079101562e+01 6.749726253474364057e-06 1.820418037823401392e-05 7.486171853088308126e-06 1.092099046218208969e-05
3.167000000000000000e+03 7.099036216735839844e+00 -5.730845451354980469e+00 -1.643047332763671875e-01 1.506103277206420898e-01 -4.108317662030458450e-03 -1.852239966392517090e-01
3.168000000000000000e+03 1.655419349670410156e+01 6.453019142150878906e+00 -6.589873919438105077e-06 -1.605505713087040931e-05 -6.793479315092554316e-06 -8.720458026800770313e-06
3.169000000000000000e+03 5.547667312622070312e+01 1.638165354728698730e+00 -2.653764247894287109e+00 3.407264053821563721e-01 -6.939113736152648926e-01 -1.397060751914978027e-01
3.170000000000000000e+03 3.815979003906250000e+01 -1.326928043365478516e+01 6.809954047203063965e-01 8.387174606323242188e+00 2.720451116561889648e+00 -4.842933267354965210e-02
3.171000000000000000e+03 3.900701904296875000e+01 -1.415521430969238281e+01 4.931856691837310791e-01 9.437015533447265625e+00 2.979060173034667969e+00 -2.511460483074188232e-01
3.172000000000000000e+03 4.290241622924804688e+01 8.641942024230957031e+00 1.959224939346313477e+00 8.102210044860839844e+00 3.018430471420288086e+00 3.401889324188232422e+00
3.173000000000000000e+03 4.378544235229492188e+01 9.361374855041503906e+00 1.993606567382812500e+00 6.964299201965332031e+00 2.687371730804443359e+00 3.131014585494995117e+00
3.174000000000000000e+03 3.889093780517578125e+01 -8.248053550720214844e+00 1.635691761970520020e+00 9.950486183166503906e+00 3.475853443145751953e+00 9.522116780281066895e-01
3.175000000000000000e+03 3.814511489868164062e+01 -9.870159149169921875e+00 1.473577857017517090e+00 8.663731575012207031e+00 3.041192770004272461e+00 5.624531507492065430e-01
3.176000000000000000e+03 5.528259277343750000e+00 -1.784966087341308594e+01 8.548020720481872559e-01 1.264460086822509766e+00 6.357786059379577637e-01 4.912486374378204346e-01
3.177000000000000000e+03 1.039259433746337891e+01 4.381047725677490234e+00 7.315110906347399577e-06 7.265279236889909953e-06 4.374116997496457770e-06 -4.703205831901868805e-06
3.178000000000000000e+03 8.732604980468750000e+00 5.193359375000000000e+00 -9.959451745089609176e-06 -4.291885034035658464e-06 -4.275401352060725912e-06 5.357931058824760839e-06
3.179000000000000000e+03 1.463518238067626953e+01 9.273305892944335938e+00 5.416509338829200715e-06 1.671969403105322272e-05 6.640860647166846320e-06 6.925510206201579422e-06
3.180000000000000000e+03 1.193105411529541016e+01 4.954888820648193359e+00 -8.772341061558108777e-06 -1.121583954954985529e-05 -5.996454092382919043e-06 6.448743988585192710e-06
3.181000000000000000e+03 1.119543838500976562e+01 4.314981460571289062e+00 -7.915198693808633834e-06 -8.566265933040995151e-06 -4.944439297105418518e-06 4.698676093539688736e-06
3.182000000000000000e+03 3.911944961547851562e+01 -2.261735534667968750e+01 2.367220520973205566e-01 6.764275074005126953e+00 2.100299119949340820e+00 1.181757330894470215e+00
3.183000000000000000e+03 3.969246673583984375e+01 -1.714966583251953125e+01 -1.187880113720893860e-01 9.041541099548339844e+00 2.676826000213623047e+00 4.393073618412017822e-01
3.184000000000000000e+03 1.756485748291015625e+01 -6.120995044708251953e+00 1.277875006198883057e-01 -5.313296616077423096e-02 2.239635959267616272e-02 2.377716749906539917e-01
3.185000000000000000e+03 4.388575363159179688e+01 1.465190982818603516e+01 1.254943251609802246e+00 7.523670673370361328e+00 2.633584022521972656e+00 2.082538604736328125e+00
3.186000000000000000e+03 4.458780288696289062e+01 1.453015041351318359e+01 1.423924684524536133e+00 6.879927158355712891e+00 2.491155624389648438e+00 2.118908643722534180e+00
3.187000000000000000e+03 8.468995094299316406e+00 -5.397097110748291016e+00 -1.786725074052810669e-01 1.780085861682891846e-01 -1.991762255784124136e-04 -1.129977703094482422e-01
3.188000000000000000e+03 4.589388275146484375e+01 2.044996833801269531e+01 7.161323428153991699e-01 5.966629981994628906e+00 2.004828691482543945e+00 1.005685448646545410e+00
3.189000000000000000e+03 5.198327255249023438e+01 3.756202220916748047e+00 -2.039156675338745117e+00 4.764262437820434570e-01 -4.688191413879394531e-01 -3.188335001468658447e-01
3.190000000000000000e+03 7.069929504394531250e+01 -1.021199607849121094e+01 5.039420723915100098e-01 1.094641971588134766e+01 3.435108661651611328e+00 -8.423238396644592285e-01
3.191000000000000000e+03 1.297244548797607422e+01 -1.345024967193603516e+01 8.195657134056091309e-01 3.559920489788055420e-01 3.526673316955566406e-01 4.771502315998077393e-01
3.192000000000000000e+03 1.153213405609130859e+01 -1.308360004425048828e+01 6.949428319931030273e-01 5.970280766487121582e-01 3.875912725925445557e-01 4.808738529682159424e-01
3.193000000000000000e+03 2.018551063537597656e+01 -6.168753623962402344e+00 2.320583313703536987e-01 -1.504676789045333862e-01 2.447719499468803406e-02 1.723110079765319824e-01
3.194000000000000000e+03 1.739001274108886719e+01 3.926865339279174805e+00 -1.790750388863671105e-06 -1.017012618831358850e-05 -3.588262870835023932e-06 -7.382590410998091102e-06
3.195000000000000000e+03 1.745185661315917969e+01 5.003307819366455078e+00 -1.335843506922174129e-07 -7.905284292064607143e-06 -2.411660716461483389e-06 -9.293293260270729661e-06
3.196000000000000000e+03 4.989509582519531250e+01 -3.031900024414062500e+01 -4.305937290191650391e-01 6.172151565551757812e-01 5.598642677068710327e-02 -1.882540732622146606e-01
3.197000000000000000e+03 2.737922859191894531e+01 -1.482027435302734375e+01 -7.000947743654251099e-02 -2.531493902206420898e-01 -9.694766253232955933e-02 9.038673043251037598e-01
3.198000000000000000e+03 1.427919864654541016e+01 -5.854498386383056641e+00 -1.933204568922519684e-02 8.303028345108032227e-02 1.910947076976299286e-02 1.895601153373718262e-01
3.199000000000000000e+03 1.506741428375244141e+01 -5.937840461730957031e+00 1.410935726016759872e-02 5.216566100716590881e-02 1.988250575959682465e-02 2.103354334831237793e-01
3.200000000000000000e+03 3.913286590576171875e+01 -1.502633476257324219e+01 3.802990615367889404e-01 9.340326309204101562e+00 2.916187524795532227e+00 -1.429974287748336792e-01
3.201000000000000000e+03 3.455459594726562500e+01 -1.598092460632324219e+01 -7.632879018783569336e-01 3.079028129577636719e+00 6.947220563888549805e-01 -8.407271653413772583e-02
3.202000000000000000e+03 7.127226257324218750e+01 -2.449199676513671875e+01 8.076587319374084473e-01 1.131873607635498047e+01 3.637918472290039062e+00 -8.489670157432556152e-01
3.203000000000000000e+03 1.471029186248779297e+01 5.675766944885253906e+00 4.037954113300656900e-06 1.646640521357767284e-05 6.151307388790883124e-06 -7.743618084532499779e-07
3.204000000000000000e+03 7.103374481201171875e+01 -1.105558204650878906e+01 7.391033768653869629e-01 1.123196697235107422e+01 3.591321229934692383e+00 -6.997726559638977051e-01
3.205000000000000000e+03 5.498287200927734375e+01 2.379155874252319336e+00 -2.363574981689453125e+00 4.809181988239288330e-01 -5.647970438003540039e-01 -2.702798843383789062e-01
3.206000000000000000e+03 1.587548542022705078e+01 -6.008547306060791016e+00 5.310361459851264954e-02 1.756465993821620941e-02 2.120048180222511292e-02 2.295439243316650391e-01
3.207000000000000000e+03 1.528289890289306641e+01 7.719288825988769531e+00 5.537074684980325401e-06 1.680392961134202778e-05 6.702301106997765601e-06 8.376390724151860923e-06
3.208000000000000000e+03 4.478929519653320312e+01 1.625473785400390625e+01 1.150176286697387695e+00 6.711091518402099609e+00 2.358380317687988281e+00 1.769938230514526367e+00
3.209000000000000000e+03 4.498852920532226562e+01 1.882555007934570312e+01 7.506395578384399414e-01 6.441266059875488281e+00 2.157571554183959961e+00 1.258543848991394043e+00
3.210000000000000000e+03 5.768891143798828125e+01 1.315647721290588379e+00 -2.171291351318359375e+00 5.308815240859985352e-01 -4.921229183673858643e-01 -6.201303601264953613e-01
3.211000000000000000e+03 5.636412429809570312e+01 2.228771686553955078e+00 -2.054626941680908203e+00 5.380750298500061035e-01 -4.549655914306640625e-01 -5.171710848808288574e-01
3.212000000000000000e+03 7.196757507324218750e+01 -1.626632499694824219e+01 1.132183313369750977e+00 1.219483089447021484e+01 3.998104333877563477e+00 -1.179653763771057129e+00
3.213000000000000000e+03 1.142103576660156250e+01 1.956032943725585938e+01 1.190229595522396266e-04 9.071810927707701921e-05 6.292232137639075518e-05 -7.031252380329533480e-07
3.214000000000000000e+03 1.220088863372802734e+01 1.917083930969238281e+01 -1.300215953961014748e-04 -8.322813664563000202e-05 -6.397491961251944304e-05 3.493023086775792763e-06
3.215000000000000000e+03 4.650418853759765625e+01 3.889910459518432617e+00 -1.504504203796386719e+00 9.833028912544250488e-01 -1.563603878021240234e-01 1.805147767066955566e+00
3.216000000000000000e+03 4.550432586669921875e+01 3.117721080780029297e+00 -2.480304956436157227e+00 2.177947759628295898e+00 -9.070713818073272705e-02 2.568192958831787109e+00
3.217000000000000000e+03 5.031070327758789062e+01 3.808414697647094727e+00 -2.159386634826660156e+00 2.408423125743865967e-01 -5.755633115768432617e-01 -8.405520021915435791e-02
3.218000000000000000e+03 6.671766662597656250e+01 -2.888383388519287109e+00 -3.765449821949005127e-01 6.819178581237792969e+00 1.932790040969848633e+00 -1.340813875198364258e+00
3.219000000000000000e+03 5.234727096557617188e+01 2.445967197418212891e+00 -3.183777332305908203e+00 4.647806286811828613e-01 -8.156989812850952148e-01 -1.379559375345706940e-02
3.220000000000000000e+03 5.320982742309570312e+01 2.760673284530639648e+00 -2.664546489715576172e+00 5.083606839179992676e-01 -6.468557119369506836e-01 -1.736106872558593750e-01
3.221000000000000000e+03 1.446881198883056641e+01 -3.628560638427734375e+01 -3.136081099510192871e-01 -3.126085400581359863e-01 -1.878649890422821045e-01 1.680754274129867554e-01
3.222000000000000000e+03 1.467709732055664062e+01 -3.919120025634765625e+01 -4.260904341936111450e-02 -3.392922878265380859e-01 -1.145704016089439392e-01 8.258626610040664673e-02
3.223000000000000000e+03 5.962549591064453125e+01 1.263833522796630859e+00 -1.650031805038452148e+00 1.245738506317138672e+00 -1.212880089879035950e-01 -1.229104757308959961e+00
3.224000000000000000e+03 1.259824466705322266e+01 2.066088104248046875e+01 -1.371339167235419154e-04 -4.396789881866425276e-05 -5.433054320747032762e-05 1.024900575430365279e-05
3.225000000000000000e+03 1.276020717620849609e+01 2.217026901245117188e+01 -1.162876651505939662e-04 2.969497927551856264e-06 -3.399544948479160666e-05 1.743623943184502423e-05
3.226000000000000000e+03 4.446368789672851562e+01 1.367098140716552734e+01 1.545691847801208496e+00 6.969169616699218750e+00 2.554458379745483398e+00 2.303504228591918945e+00
3.227000000000000000e+03 1.642207336425781250e+01 -1.280092525482177734e+01 6.024641394615173340e-01 -3.413427248597145081e-02 1.704989522695541382e-01 3.772434890270233154e-01
3.228000000000000000e+03 7.146060943603515625e+01 -2.769382286071777344e+01 -3.792048096656799316e-01 9.988248825073242188e+00 2.882713079452514648e+00 -1.251376152038574219e+00
3.229000000000000000e+03 9.387337684631347656e+00 -3.385878753662109375e+01 -3.786842823028564453e-01 -3.778828084468841553e-01 -2.269701361656188965e-01 2.346408069133758545e-01
3.230000000000000000e+03 8.309885978698730469e+00 -3.575491714477539062e+01 -1.011372655630111694e-01 -1.303881555795669556e-01 -6.945762783288955688e-02 6.210198625922203064e-02
3.231000000000000000e+03 4.339664459228515625e+01 7.433949470520019531e+00 1.608277201652526855e+00 6.964940547943115234e+00 2.571965217590332031e+00 3.131460428237915039e+00
3.232000000000000000e+03 4.364105606079101562e+01 8.407523155212402344e+00 1.902718186378479004e+00 6.848668098449707031e+00 2.625415802001953125e+00 3.144809722900390625e+00
3.233000000000000000e+03 4.519953918457031250e+01 2.720615386962890625e+01 6.267372965812683105e-01 5.408488750457763672e+00 1.810567736625671387e+00 8.483541011810302734e-02
3.234000000000000000e+03 1.368395805358886719e+01 2.955604171752929688e+01 3.040260926354676485e-04 -2.013344201259315014e-04 3.080749957007355988e-05 2.176901325583457947e-04
3.235000000000000000e+03 6.981906890869140625e+01 -7.847773075103759766e+00 2.343094497919082642e-01 9.678966522216796875e+00 2.973982810974121094e+00 -1.162424802780151367e+00
3.236000000000000000e+03 6.942370605468750000e+01 -7.193130016326904297e+00 2.325844913721084595e-01 9.330489158630371094e+00 2.868922233581542969e+00 -1.259498596191406250e+00
3.237000000000000000e+03 3.814865875244140625e+01 -2.460428047180175781e+01 1.134753346443176270e+00 6.650975227355957031e+00 2.335718631744384766e+00 9.429702758789062500e-01
3.238000000000000000e+03 4.469507980346679688e+01 1.539320087432861328e+01 1.299340724945068359e+00 6.798625469207763672e+00 2.429389953613281250e+00 1.949090242385864258e+00
3.239000000000000000e+03 3.964770507812500000e+01 -7.461306571960449219e+00 1.613483905792236328e+00 1.139487171173095703e+01 3.902506828308105469e+00 1.219027400016784668e+00
3.240000000000000000e+03 6.386182403564453125e+01 2.409164905548095703e-01 -1.220142126083374023e+00 4.212710380554199219e+00 8.977704644203186035e-01 -1.861396670341491699e+00
3.241000000000000000e+03 6.353791427612304688e+01 8.942235708236694336e-01 -1.230050563812255859e+00 3.961951732635498047e+00 8.195703625679016113e-01 -1.877442359924316406e+00
3.242000000000000000e+03 7.078325653076171875e+01 -1.297472572326660156e+01 1.369793295860290527e+00 1.241416263580322266e+01 4.135186672210693359e+00 -1.028089046478271484e+00
3.243000000000000000e+03 7.527601623535156250e+01 -1.131414985656738281e+01 3.723131418228149414e-01 8.601928710937500000e+00 2.692272424697875977e+00 3.212646543979644775e-01
3.244000000000000000e+03 7.888557910919189453e+00 5.970331668853759766e+00 -1.194543347082799301e-05 -2.429505002510268241e-06 -4.312481451052008197e-06 6.318130999716231599e-06
3.245000000000000000e+03 7.477169513702392578e+00 -1.450142574310302734e+01 5.585848689079284668e-01 1.216375708580017090e+00 5.324881672859191895e-01 2.214226275682449341e-01
3.246000000000000000e+03 1.930731964111328125e+01 -6.176085472106933594e+00 1.973216980695724487e-01 -1.191045790910720825e-01 2.346513420343399048e-02 2.063915580511093140e-01
3.247000000000000000e+03 7.064099884033203125e+01 -2.974786376953125000e+01 -1.163813710212707520e+00 8.891618728637695312e+00 2.318341493606567383e+00 -6.938475370407104492e-01
3.248000000000000000e+03 4.800310134887695312e+00 -2.876475906372070312e+01 -6.676192879676818848e-01 4.444587528705596924e-01 -6.694816797971725464e-02 5.123128294944763184e-01
3.249000000000000000e+03 7.188157653808593750e+01 -1.542664623260498047e+01 1.312326788902282715e+00 1.207179164886474609e+01 4.015235424041748047e+00 -1.082616209983825684e+00
3.250000000000000000e+03 2.953519821166992188e+01 -5.168925762176513672e+00 7.917190790176391602e-01 -3.772580027580261230e-01 1.243383213877677917e-01 -4.558472931385040283e-01
3.251000000000000000e+03 3.044527626037597656e+01 -4.959401607513427734e+00 8.446252346038818359e-01 -2.622460722923278809e-01 1.747137457132339478e-01 -3.998679518699645996e-01
3.252000000000000000e+03 1.444061470031738281e+01 3.389263153076171875e+01 1.482082763686776161e-03 -2.479684189893305302e-04 3.702343092299997807e-04 1.394625141983851790e-04
3.253000000000000000e+03 4.187132263183593750e+01 2.045381546020507812e+00 -2.622496128082275391e+00 9.560898780822753906e+00 2.081521034240722656e+00 1.652940750122070312e+00
3.254000000000000000e+03 3.749219512939453125e+01 -1.233258724212646484e+01 1.007943511009216309e+00 7.524577140808105469e+00 2.559756278991699219e+00 9.099492430686950684e-02
3.255000000000000000e+03 3.847121429443359375e+01 -1.587933349609375000e+01 -1.365066170692443848e-01 8.343114852905273438e+00 2.461982488632202148e+00 2.689771056175231934e-01
3.256000000000000000e+03 1.251595973968505859e+01 1.666154098510742188e+01 -2.759457674983423203e-05 -7.946553523652255535e-05 -3.211803414160385728e-05 2.704193502722773701e-05
3.257000000000000000e+03 3.672645950317382812e+01 -2.819526481628417969e+01 6.078153848648071289e-01 6.283181667327880859e+00 2.067299127578735352e+00 5.495582818984985352e-01
3.258000000000000000e+03 3.825597000122070312e+01 -2.783403778076171875e+01 5.156919956207275391e-01 5.718331813812255859e+00 1.870207190513610840e+00 4.677148535847663879e-02
3.259000000000000000e+03 4.176569366455078125e+01 -2.063025093078613281e+01 -4.551840424537658691e-01 6.362663269042968750e+00 1.772243738174438477e+00 -9.422315657138824463e-02
3.260000000000000000e+03 6.835440063476562500e+01 -3.346600723266601562e+01 -1.432344555854797363e+00 5.697307586669921875e+00 1.279488921165466309e+00 4.236976802349090576e-01
3.261000000000000000e+03 6.762781524658203125e+01 -3.277811431884765625e+01 -1.562896490097045898e+00 4.926266670227050781e+00 1.009011149406433105e+00 4.813468158245086670e-01
3.262000000000000000e+03 3.297997665405273438e+01 -3.550089597702026367e+00 3.830428719520568848e-01 6.458503603935241699e-01 3.086679577827453613e-01 -8.241398609243333340e-05
3.263000000000000000e+03 3.316507339477539062e+01 -4.293279170989990234e+00 8.467669486999511719e-01 1.023619174957275391e+00 5.611158609390258789e-01 1.349434703588485718e-01
3.264000000000000000e+03 2.862253952026367188e+01 -5.359763145446777344e+00 7.234157323837280273e-01 -4.330356121063232422e-01 8.711402863264083862e-02 -4.438612759113311768e-01
3.265000000000000000e+03 1.326972579956054688e+01 3.073532104492187500e+01 7.566817803308367729e-04 -3.676483756862580776e-04 1.167100199381820858e-04 3.095068095717579126e-04
3.266000000000000000e+03 1.292719459533691406e+01 2.994401931762695312e+01 2.768420381471514702e-04 -4.238533801981247962e-05 7.033700967440381646e-05 -1.181198240374214947e-04
3.267000000000000000e+03 4.481497955322265625e+01 2.923863220214843750e+01 5.964694023132324219e-01 5.140664577484130859e+00 1.721140146255493164e+00 7.706817984580993652e-02
3.268000000000000000e+03 2.969652748107910156e+01 -5.859923362731933594e+00 1.104428410530090332e+00 -3.151632547378540039e-01 2.367795407772064209e-01 -3.244825303554534912e-01
3.269000000000000000e+03 1.779433250427246094e+01 -3.966034317016601562e+01 -7.845397293567657471e-02 -2.067982703447341919e-01 -8.557567745447158813e-02 5.287336930632591248e-02
3.270000000000000000e+03 1.834379386901855469e+01 -3.618888092041015625e+01 -3.958221375942230225e-01 -1.657681167125701904e-01 -1.684770733118057251e-01 1.010306626558303833e-01
3.271000000000000000e+03 1.290036201477050781e+01 2.518979263305664062e+01 2.943105391750577837e-05 8.918720413930714130e-05 3.558547541615553200e-05 1.947234995895996690e-04
3.272000000000000000e+03 1.138682556152343750e+01 2.461183547973632812e+01 1.834474096540361643e-04 -5.632194734062068164e-05 3.813764124060980976e-05 -9.916213457472622395e-05
3.273000000000000000e+03 1.327976608276367188e+01 1.513155174255371094e+01 -1.094642175303306431e-05 -1.846383747761137784e-05 -8.823077223496511579e-06 2.675055156942107715e-06
3.274000000000000000e+03 4.415497303009033203e+00 -1.106800937652587891e+01 -3.674456849694252014e-02 6.553267687559127808e-02 8.636431768536567688e-03 -3.576166927814483643e-01
3.275000000000000000e+03 3.928091812133789062e+01 -2.893715667724609375e+01 7.762944698333740234e-02 4.949663639068603516e+00 1.508187890052795410e+00 -2.947628498077392578e-01
3.276000000000000000e+03 4.070576477050781250e+01 6.944402456283569336e-01 -2.212847709655761719e+00 1.011406612396240234e+01 2.370365619659423828e+00 9.018560647964477539e-01
3.277000000000000000e+03 4.050422286987304688e+01 1.366424798965454102e+00 -2.176003217697143555e+00 1.008221054077148438e+01 2.371862173080444336e+00 1.151683688163757324e+00
3.278000000000000000e+03 1.209515094757080078e+01 2.303486442565917969e+01 -7.935905159683898091e-05 4.995052950107492507e-05 -8.822557902021799237e-06 5.248568049864843488e-05
3.279000000000000000e+03 6.836771011352539062e+00 -3.199720191955566406e+01 -5.153375267982482910e-01 -4.543722793459892273e-02 -1.682324260473251343e-01 1.563277393579483032e-01
3.280000000000000000e+03 4.193944454193115234e+00 -3.190037918090820312e+01 -2.915256321430206299e-01 6.553354859352111816e-01 1.091429516673088074e-01 9.050340950489044189e-02
3.281000000000000000e+03 6.636960601806640625e+01 -3.514941787719726562e+01 -9.777184724807739258e-01 3.209835767745971680e+00 6.696351766586303711e-01 6.119160056114196777e-01
3.282000000000000000e+03 7.206599426269531250e+01 -1.176908302307128906e+01 8.518123030662536621e-01 1.078038692474365234e+01 3.489659786224365234e+00 -3.279304802417755127e-01
3.283000000000000000e+03 7.163849639892578125e+01 -1.371528244018554688e+01 1.376706480979919434e+00 1.181155776977539062e+01 3.956479310989379883e+00 -8.049943447113037109e-01
3.284000000000000000e+03 3.368686294555664062e+01 -3.476593780517578125e+01 -9.401562809944152832e-01 3.623056888580322266e+00 8.048701882362365723e-01 7.509889602661132812e-01
3.285000000000000000e+03 7.486304473876953125e+01 -4.874372482299804688e+00 -1.819537132978439331e-01 8.199187278747558594e+00 2.405169963836669922e+00 4.309926331043243408e-01
3.286000000000000000e+03 6.905367279052734375e+01 -6.239672660827636719e+00 2.508570253849029541e-01 8.780907630920410156e+00 2.709529399871826172e+00 -1.297603845596313477e+00
3.287000000000000000e+03 3.836258697509765625e+01 -1.964363098144531250e+01 -8.548682332038879395e-01 7.835985183715820312e+00 2.094335079193115234e+00 1.680667281150817871e+00
3.288000000000000000e+03 6.629358673095703125e+01 -1.359041690826416016e+00 -9.276149272918701172e-01 6.214979648590087891e+00 1.586209297180175781e+00 -1.419129133224487305e+00
3.289000000000000000e+03 6.700374603271484375e+01 -3.616905927658081055e+00 -6.251619756221771240e-02 7.136057376861572266e+00 2.122062444686889648e+00 -1.341528177261352539e+00
3.290000000000000000e+03 4.008557128906250000e+01 -9.262131452560424805e-01 -1.022505998611450195e+00 9.836731910705566406e+00 2.644268035888671875e+00 8.821957707405090332e-01
3.291000000000000000e+03 3.924308013916015625e+01 -9.784647822380065918e-01 -1.049220681190490723e+00 9.032094955444335938e+00 2.394862413406372070e+00 8.993088006973266602e-01
3.292000000000000000e+03 4.031807708740234375e+01 -2.104620552062988281e+01 -3.981016278266906738e-01 6.975448608398437500e+00 1.973204135894775391e+00 8.863392472267150879e-01
3.293000000000000000e+03 3.224741744995117188e+01 -4.522345542907714844e+00 8.770974278450012207e-01 3.890775442123413086e-01 3.798525035381317139e-01 -9.317865967750549316e-02
3.294000000000000000e+03 3.412177276611328125e+01 -4.048663616180419922e+00 7.529231905937194824e-01 1.989969849586486816e+00 8.228678703308105469e-01 4.131226837635040283e-01
3.295000000000000000e+03 6.941892242431640625e+01 -3.021747207641601562e+01 -1.405621886253356934e+00 7.761922836303710938e+00 1.906890273094177246e+00 -1.202112212777137756e-01
3.296000000000000000e+03 1.257158756256103516e+01 2.916639518737792969e+01 2.736048772931098938e-04 -2.287693641846999526e-04 1.345065356872510165e-05 1.516384800197556615e-04
3.297000000000000000e+03 1.287257957458496094e+01 2.585048294067382812e+01 1.267120533157140017e-04 -2.780862560030072927e-04 -4.541226007859222591e-05 -4.308389179641380906e-05
3.298000000000000000e+03 6.423616790771484375e+01 -1.267009735107421875e+00 -1.001776337623596191e+00 4.629430770874023438e+00 1.088296294212341309e+00 -1.769557237625122070e+00
3.299000000000000000e+03 6.417458343505859375e+01 -3.336496949195861816e-01 -1.183728814125061035e+00 4.493466377258300781e+00 9.929212331771850586e-01 -1.816398978233337402e+00
3.300000000000000000e+03 7.111019897460937500e+01 -2.545410919189453125e+01 6.237744092941284180e-01 1.092877769470214844e+01 3.465765714645385742e+00 -9.751078486442565918e-01
3.301000000000000000e+03 7.547743988037109375e+01 -2.412936782836914062e+01 2.662704885005950928e-01 9.781003952026367188e+00 3.014182329177856445e+00 -1.507525324821472168e+00
3.302000000000000000e+03 5.101125335693359375e+01 -3.310237503051757812e+01 -7.793420553207397461e-01 6.852759718894958496e-01 -2.821982465684413910e-02 -2.831742167472839355e-01
3.303000000000000000e+03 6.511043548583984375e+01 -9.687117934226989746e-01 -1.066579937934875488e+00 5.331246376037597656e+00 1.279399991035461426e+00 -1.686433315277099609e+00
3.304000000000000000e+03 3.738496398925781250e+01 -3.216665267944335938e+01 -7.230278849601745605e-01 4.745560646057128906e+00 1.206759810447692871e+00 7.091128081083297729e-02
3.305000000000000000e+03 3.821175003051757812e+01 -2.908166503906250000e+01 1.130261942744255066e-01 5.398427486419677734e+00 1.653436183929443359e+00 -7.075235247611999512e-02
3.306000000000000000e+03 3.572587966918945312e+01 -2.314507961273193359e+00 -2.900466620922088623e-01 3.813762664794921875e+00 1.057114839553833008e+00 8.282022476196289062e-01
3.307000000000000000e+03 3.904775619506835938e+01 -2.576669931411743164e+00 -6.066892668604850769e-02 8.870145797729492188e+00 2.642843008041381836e+00 1.104871749877929688e+00
3.308000000000000000e+03 7.164205169677734375e+01 -2.663028717041015625e+01 9.589731693267822266e-02 1.035403919219970703e+01 3.134981155395507812e+00 -1.319542050361633301e+00
3.309000000000000000e+03 4.128895568847656250e+01 4.526436328887939453e+00 -2.324232459068298340e-01 9.708055496215820312e+00 2.842689514160156250e+00 2.637526273727416992e+00
3.310000000000000000e+03 4.408537292480468750e+01 6.434801578521728516e+00 1.025361537933349609e+00 5.832672119140625000e+00 2.057410240173339844e+00 2.816329479217529297e+00
3.311000000000000000e+03 1.388470363616943359e+01 -1.279730606079101562e+01 6.859323382377624512e-01 2.353596240282058716e-01 2.763876020908355713e-01 4.514551162719726562e-01
3.312000000000000000e+03 1.232000923156738281e+01 2.584308815002441406e+01 -1.331780076725408435e-04 6.593262514797970653e-05 -2.017361475736834109e-05 2.206970384577289224e-04
3.313000000000000000e+03 4.541032409667968750e+01 2.804287910461425781e+01 6.275505423545837402e-01 5.256103515625000000e+00 1.765096187591552734e+00 1.305134296417236328e-01
3.314000000000000000e+03 2.443607521057128906e+01 -5.825046062469482422e+00 4.104548096656799316e-01 -2.985015809535980225e-01 3.358596935868263245e-02 -1.086194515228271484e-01
3.315000000000000000e+03 2.444234657287597656e+01 -5.071026325225830078e+00 2.687656283378601074e-01 -2.328160107135772705e-01 1.078488957136869431e-02 -1.518469750881195068e-01
3.316000000000000000e+03 6.985785675048828125e+01 -3.310130691528320312e+01 -1.379398465156555176e+00 7.219073772430419922e+00 1.751902699470520020e+00 3.278834000229835510e-02
3.317000000000000000e+03 7.112194824218750000e+01 -2.876062011718750000e+01 -8.016620278358459473e-01 9.523609161376953125e+00 2.616584300994873047e+00 -1.033551096916198730e+00
3.318000000000000000e+03 3.340962982177734375e+01 -1.508760738372802734e+01 -1.084046363830566406e-01 1.573943257331848145e+00 4.396615922451019287e-01 7.002181559801101685e-02
3.319000000000000000e+03 5.133451080322265625e+01 -3.518337631225585938e+01 -7.573591470718383789e-01 7.477798461914062500e-01 -2.873780438676476479e-03 -4.574785232543945312e-01
3.320000000000000000e+03 5.290507507324218750e+01 -3.536490631103515625e+01 -8.704614043235778809e-01 3.849774301052093506e-01 -1.456451863050460815e-01 -4.320451617240905762e-01
3.321000000000000000e+03 3.708398818969726562e+01 -1.864724922180175781e+01 -1.505378723144531250e+00 7.387931823730468750e+00 1.764765858650207520e+00 1.376731038093566895e+00
3.322000000000000000e+03 3.921710968017578125e+01 -1.666863250732421875e+01 -5.783372372388839722e-02 8.865715980529785156e+00 2.642364740371704102e+00 3.843877613544464111e-01
3.323000000000000000e+03 4.072953414916992188e+01 -2.048980140686035156e+01 -5.397660136222839355e-01 7.140157699584960938e+00 1.980117440223693848e+00 6.122588515281677246e-01
3.324000000000000000e+03 3.991313171386718750e+01 -1.799820327758789062e+01 -3.663219809532165527e-01 8.762804031372070312e+00 2.518944501876831055e+00 6.872178912162780762e-01
3.325000000000000000e+03 6.904840850830078125e+01 -3.253063583374023438e+01 -1.518673062324523926e+00 6.614486694335937500e+00 1.528743982315063477e+00 1.935564428567886353e-01
3.326000000000000000e+03 6.963648986816406250e+01 -3.161071205139160156e+01 -1.525701522827148438e+00 7.449991703033447266e+00 1.777287125587463379e+00 -6.483399122953414917e-02
3.327000000000000000e+03 2.696085929870605469e+01 -3.677248001098632812e+01 -3.469137549400329590e-01 9.938323497772216797e-01 1.940755844116210938e-01 4.790650308132171631e-01
3.328000000000000000e+03 2.885536956787109375e+01 -3.717413330078125000e+01 -5.372698307037353516e-01 1.685665965080261230e+00 3.445188403129577637e-01 6.426103115081787109e-01
3.329000000000000000e+03 4.537992858886718750e+01 3.393377685546875000e+01 -7.875085622072219849e-02 4.555962562561035156e+00 1.343163490295410156e+00 1.600207686424255371e-01
3.330000000000000000e+03 5.485157966613769531e+00 -3.026073265075683594e+01 -5.948479175567626953e-01 2.477794289588928223e-01 -1.041205525398254395e-01 3.161149024963378906e-01
3.331000000000000000e+03 4.387857913970947266e+00 -3.114558219909667969e+01 -3.999695181846618652e-01 5.968112945556640625e-01 5.905252322554588318e-02 1.643379032611846924e-01
3.332000000000000000e+03 6.866354370117187500e+01 -5.247869014739990234e+00 1.867880672216415405e-01 8.207247734069824219e+00 2.518210649490356445e+00 -1.171011924743652344e+00
3.333000000000000000e+03 6.684056091308593750e+01 -1.579328775405883789e+00 -8.516870141029357910e-01 6.538012981414794922e+00 1.705897808074951172e+00 -1.308895349502563477e+00
3.334000000000000000e+03 8.872185707092285156e+00 -3.481409835815429688e+01 -2.267016917467117310e-01 -2.366110235452651978e-01 -1.389938145875930786e-01 1.290900260210037231e-01
3.335000000000000000e+03 2.193476486206054688e+01 -6.072227954864501953e+00 3.016154468059539795e-01 -2.098790258169174194e-01 2.752092853188514709e-02 8.465488255023956299e-02
3.336000000000000000e+03 2.278785514831542969e+01 -5.999113559722900391e+00 3.357570469379425049e-01 -2.376239597797393799e-01 2.943992801010608673e-02 3.109220415353775024e-02
3.337000000000000000e+03 3.982081985473632812e+01 1.036143898963928223e+00 -2.002297163009643555e+00 9.834984779357910156e+00 2.349806070327758789e+00 1.080432772636413574e+00
3.338000000000000000e+03 4.131734466552734375e+01 9.872760772705078125e-01 -2.441615581512451172e+00 1.008843994140625000e+01 2.294047355651855469e+00 1.049394249916076660e+00
3.339000000000000000e+03 4.169517898559570312e+01 1.439838647842407227e+00 -2.619114875793457031e+00 9.900032043457031250e+00 2.184275150299072266e+00 1.306218028068542480e+00
3.340000000000000000e+03 7.459946441650390625e+01 -3.347370529174804688e+01 -6.169326901435852051e-01 1.008570384979248047e+01 2.840631484985351562e+00 -8.232062458992004395e-01
3.341000000000000000e+03 3.872072982788085938e+01 -2.583365440368652344e+01 9.262846708297729492e-01 5.932588100433349609e+00 2.057661771774291992e+00 3.695554435253143311e-01
3.342000000000000000e+03 1.668925094604492188e+01 -1.376601028442382812e+01 6.513112187385559082e-01 -7.608412206172943115e-02 1.725681275129318237e-01 3.136491179466247559e-01
3.343000000000000000e+03 1.596909618377685547e+01 -1.334243583679199219e+01 6.841932535171508789e-01 -1.516418159008026123e-02 2.007087171077728271e-01 3.640336990356445312e-01
3.344000000000000000e+03 2.595590591430664062e+01 -4.163316726684570312e+00 8.380921930074691772e-02 -2.095716595649719238e-01 -3.772873431444168091e-02 -3.335156440734863281e-01
3.345000000000000000e+03 3.759482955932617188e+01 -1.811948394775390625e+01 -1.321553230285644531e+00 7.702497482299804688e+00 1.914283275604248047e+00 1.193297743797302246e+00
3.346000000000000000e+03 3.911379623413085938e+01 -1.854451560974121094e+01 -7.406306266784667969e-01 8.288804054260253906e+00 2.264452219009399414e+00 1.216694474220275879e+00
3.347000000000000000e+03 7.527644348144531250e+01 -2.639459609985351562e+01 3.547164797782897949e-02 1.001945400238037109e+01 3.016477823257446289e+00 -1.660207033157348633e+00
3.348000000000000000e+03 1.683114814758300781e+01 3.886890792846679688e+01 -5.279571996652521193e-05 5.976669490337371826e-04 1.634613581700250506e-04 -5.308381878421641886e-05
3.349000000000000000e+03 5.505896091461181641e+00 -2.946292877197265625e+01 -6.995211839675903320e-01 2.112504839897155762e-01 -1.464812010526657104e-01 4.327737987041473389e-01
3.350000000000000000e+03 4.450692176818847656e+00 -2.965736007690429688e+01 -5.135402679443359375e-01 5.490267276763916016e-01 1.064593251794576645e-02 3.578846156597137451e-01
3.351000000000000000e+03 3.250748443603515625e+01 -3.390767669677734375e+01 -6.290951371192932129e-01 3.256014347076416016e+00 7.880757451057434082e-01 1.099136114120483398e+00
3.352000000000000000e+03 3.851164627075195312e+01 -2.676475334167480469e+01 8.311429619789123535e-01 5.872590065002441406e+00 2.011120080947875977e+00 1.885496675968170166e-01
3.353000000000000000e+03 3.896737289428710938e+01 -2.501581001281738281e+01 8.927437663078308105e-01 6.007550239562988281e+00 2.070088148117065430e+00 5.345200300216674805e-01
3.354000000000000000e+03 2.083258819580078125e+01 -3.940301132202148438e+01 -1.530022770166397095e-01 2.707042545080184937e-02 -3.777955472469329834e-02 9.316350519657135010e-02
3.355000000000000000e+03 1.878191947937011719e+01 -3.496139526367187500e+01 -5.454320907592773438e-01 -1.221436113119125366e-01 -2.002727091312408447e-01 8.578215539455413818e-02
3.356000000000000000e+03 4.286995887756347656e+00 -3.459856033325195312e+01 -6.531261652708053589e-02 7.058194279670715332e-01 1.921520531177520752e-01 -7.724393159151077271e-02
3.357000000000000000e+03 7.579843139648437500e+01 -3.787727737426757812e+01 -2.364718168973922729e-01 1.091703605651855469e+01 3.204169273376464844e+00 -1.960728764533996582e-01
3.358000000000000000e+03 7.466003417968750000e+01 -3.852397918701171875e+01 -2.993685007095336914e-01 1.013438415527343750e+01 2.950504779815673828e+00 -2.796053588390350342e-01
3.359000000000000000e+03 4.417282581329345703e+00 3.703424835205078125e+01 7.352322427323088050e-05 -2.997126284753903747e-05 1.306558897340437397e-05 -1.751480158418416977e-04
3.360000000000000000e+03 5.658507823944091797e+00 3.879211044311523438e+01 5.238275116425938904e-05 -1.533661416033282876e-04 -3.029501749551855028e-05 -1.755529228830710053e-05
3.361000000000000000e+03 7.406566619873046875e+01 -3.725597000122070312e+01 -4.103176593780517578e-01 9.528182983398437500e+00 2.735359668731689453e+00 -3.435722291469573975e-01
3.362000000000000000e+03 4.208534717559814453e+00 3.844124984741210938e+01 -8.854953921400010586e-05 2.423882397124543786e-04 4.615161014953628182e-05 -3.370787599124014378e-04
3.363000000000000000e+03 1.543157577514648438e+01 3.376628112792968750e+01 3.073829575441777706e-04 -8.138656266964972019e-04 -1.519447978353127837e-04 -2.056196681223809719e-04
3.364000000000000000e+03 4.893975830078125000e+01 -3.121448707580566406e+01 -4.787176251411437988e-01 1.016653895378112793e+00 1.613808870315551758e-01 -3.480517864227294922e-01
3.365000000000000000e+03 4.987513351440429688e+01 -3.217139053344726562e+01 -6.090247035026550293e-01 8.625582456588745117e-01 7.606007158756256104e-02 -3.188356161117553711e-01
3.366000000000000000e+03 2.336624717712402344e+01 -3.595468521118164062e+01 -3.092765808105468750e-01 1.458627879619598389e-01 -4.902414232492446899e-02 1.491962671279907227e-01
3.367000000000000000e+03 6.782477378845214844e+00 -3.975394058227539062e+01 1.175816655158996582e-01 2.587375342845916748e-01 1.128957644104957581e-01 -6.137097626924514771e-02
3.368000000000000000e+03 4.324576377868652344e+00 -3.547048950195312500e+01 -3.064781241118907928e-02 6.777223348617553711e-01 1.941223442554473877e-01 -8.470308035612106323e-02
3.369000000000000000e+03 4.116246414184570312e+01 3.866996002197265625e+01 -3.623250126838684082e-01 2.927337884902954102e+00 7.695038318634033203e-01 -2.827479541301727295e-01
3.370000000000000000e+03 6.191639328002929688e+01 -3.829878616333007812e+01 2.274838276207447052e-02 3.524197638034820557e-01 1.125504449009895325e-01 3.794834017753601074e-02
3.371000000000000000e+03 6.450354766845703125e+01 -3.909785079956054688e+01 5.787920579314231873e-02 1.864247918128967285e+00 5.766381621360778809e-01 2.661952078342437744e-01
3.372000000000000000e+03 6.011940002441406250e+01 -4.019258880615234375e+01 3.008095622062683105e-01 -7.041495293378829956e-02 6.911838799715042114e-02 -7.795777171850204468e-02
3.373000000000000000e+03 7.465775299072265625e+01 4.039204788208007812e+01 1.861936971545219421e-02 5.218589305877685547e+00 1.571162581443786621e+00 -1.324831321835517883e-02
3.374000000000000000e+03 7.182519531250000000e+01 4.107983016967773438e+01 3.795575350522994995e-02 5.174046039581298828e+00 1.563600540161132812e+00 -1.050700619816780090e-02
3.375000000000000000e+03 5.547537612915039062e+01 -3.712134933471679688e+01 -5.844056606292724609e-01 -1.276820152997970581e-01 -2.136262953281402588e-01 -4.572131037712097168e-01
3.376000000000000000e+03 5.689557266235351562e+01 -4.134234237670898438e+01 2.014791816473007202e-01 -2.613292932510375977e-01 -1.795503497123718262e-02 -1.086746230721473694e-01
3.377000000000000000e+03 2.016421318054199219e+01 -1.439281272888183594e+01 3.982337713241577148e-01 -1.693564355373382568e-01 6.866319477558135986e-02 3.078864514827728271e-01
3.378000000000000000e+03 1.131653785705566406e+01 -6.895308017730712891e+00 -6.404251605272293091e-02 2.538961172103881836e-01 5.695608258247375488e-02 9.042397141456604004e-02
3.379000000000000000e+03 1.067985820770263672e+01 -7.507367610931396484e+00 -5.512493848800659180e-02 3.120996654033660889e-01 7.709241658449172974e-02 6.961929798126220703e-02
3.380000000000000000e+03 2.063359069824218750e+01 -1.516374683380126953e+01 3.140622079372406006e-01 -1.444809734821319580e-01 5.087437108159065247e-02 2.779980897903442383e-01
3.381000000000000000e+03 1.959233665466308594e+01 -1.412498664855957031e+01 4.565646946430206299e-01 -1.758917868137359619e-01 8.420187234878540039e-02 3.115805089473724365e-01
3.382000000000000000e+03 2.112892150878906250e+01 -1.378347301483154297e+01 3.934963345527648926e-01 -2.118839323520660400e-01 5.448371917009353638e-02 3.863916695117950439e-01
3.383000000000000000e+03 1.829805755615234375e+01 -1.368445777893066406e+01 5.480310916900634766e-01 -1.494072973728179932e-01 1.195871457457542419e-01 3.158104121685028076e-01
3.384000000000000000e+03 4.080453872680664062e+01 2.801429271697998047e+00 -1.570966124534606934e+00 1.009818363189697266e+01 2.558165073394775391e+00 1.749229431152343750e+00
3.385000000000000000e+03 4.751082229614257812e+01 4.143562316894531250e+00 -1.352389454841613770e+00 2.450208961963653564e-01 -3.322105705738067627e-01 1.003608465194702148e+00
3.386000000000000000e+03 4.683404922485351562e+01 4.478113651275634766e+00 -7.524111270904541016e-01 1.078723788261413574e+00 9.789378196001052856e-02 1.622058391571044922e+00
3.387000000000000000e+03 4.460497665405273438e+01 6.444094657897949219e+00 1.018617391586303711e+00 4.919426441192626953e+00 1.781413078308105469e+00 2.743343591690063477e+00
3.388000000000000000e+03 4.572628021240234375e+01 3.883892297744750977e+00 -1.487283468246459961e+00 2.199484825134277344e+00 2.136604040861129761e-01 2.434192419052124023e+00
3.389000000000000000e+03 2.529882621765136719e+01 -1.511149215698242188e+01 1.091743726283311844e-02 -1.682945340871810913e-01 -4.721312969923019409e-02 6.269640922546386719e-01
3.390000000000000000e+03 2.189222145080566406e+01 -6.838515758514404297e+00 3.817250430583953857e-01 -2.488604635000228882e-01 3.985937684774398804e-02 1.337054222822189331e-01
3.391000000000000000e+03 2.436211967468261719e+01 -1.455490875244140625e+01 1.754067391157150269e-01 -2.034810781478881836e-01 -8.422302082180976868e-03 5.658759474754333496e-01
3.392000000000000000e+03 1.414742469787597656e+01 7.156448364257812500e+00 3.432454832363873720e-06 9.160165973298717290e-06 3.777786332648247480e-06 2.265879402330028825e-06
3.393000000000000000e+03 1.564682292938232422e+01 4.974521636962890625e+00 1.004119712888495997e-05 1.380686353513738140e-05 7.154418199206702411e-06 2.071778453682782128e-06
3.394000000000000000e+03 3.794674682617187500e+01 -2.020511817932128906e+01 -5.951483249664306641e-01 7.719737052917480469e+00 2.137376546859741211e+00 1.782206773757934570e+00
3.395000000000000000e+03 3.860704803466796875e+01 -1.814542007446289062e+01 -8.898116946220397949e-01 8.192840576171875000e+00 2.190908908843994141e+00 1.135630011558532715e+00
3.396000000000000000e+03 1.201055622100830078e+01 -6.282979488372802734e+00 -7.412198930978775024e-02 1.955429762601852417e-01 3.642629459500312805e-02 1.093715801835060120e-01
3.397000000000000000e+03 1.127706432342529297e+01 -5.549169540405273438e+00 -1.372512280941009521e-01 1.784456521272659302e-01 1.235832553356885910e-02 4.894128441810607910e-02
3.398000000000000000e+03 2.601148033142089844e+01 -1.500460243225097656e+01 -5.715895444154739380e-02 -1.899045854806900024e-01 -7.411906123161315918e-02 7.331160306930541992e-01
3.399000000000000000e+03 2.504865455627441406e+01 -1.375408554077148438e+01 3.429107666015625000e-01 -2.964200079441070557e-01 1.394723262637853622e-02 6.452905535697937012e-01
3.400000000000000000e+03 1.403989982604980469e+01 5.572764396667480469e+00 -2.126121671608416364e-06 -1.842132587626110762e-05 -6.164234491734532639e-06 4.591702690959209576e-06
3.401000000000000000e+03 8.599805831909179688e+00 -6.007672786712646484e+00 -1.625560373067855835e-01 2.107166647911071777e-01 1.444818731397390366e-02 -1.044640615582466125e-01
3.402000000000000000e+03 4.003557205200195312e+01 4.596889615058898926e-01 -1.905142068862915039e+00 9.941074371337890625e+00 2.410779953002929688e+00 8.364654183387756348e-01
3.403000000000000000e+03 3.453512954711914062e+01 -1.526395797729492188e+01 -2.627359330654144287e-01 3.164425611495971680e+00 8.705069422721862793e-01 -9.107567369937896729e-02
3.404000000000000000e+03 7.078165435791015625e+01 -8.442354202270507812e+00 2.063585370779037476e-01 9.955512046813964844e+00 3.048561096191406250e+00 -7.182145714759826660e-01
3.405000000000000000e+03 3.565598678588867188e+01 -1.403096103668212891e+01 4.439682960510253906e-01 4.709826946258544922e+00 1.546138525009155273e+00 4.094816744327545166e-02
3.406000000000000000e+03 1.334422874450683594e+01 5.572911262512207031e+00 5.318172043189406395e-06 1.768891343090217561e-05 6.902125733176944777e-06 -9.020650395541451871e-06
3.407000000000000000e+03 2.670631980895996094e+01 -1.490673923492431641e+01 -2.170391753315925598e-02 -2.220234870910644531e-01 -7.311821728944778442e-02 8.093613386154174805e-01
3.408000000000000000e+03 2.655055046081542969e+01 -1.420294952392578125e+01 1.972370892763137817e-01 -2.952048778533935547e-01 -2.939033694565296173e-02 8.176895380020141602e-01
3.409000000000000000e+03 5.289322662353515625e+01 2.189213752746582031e+00 -3.158023118972778320e+00 4.747914075851440430e-01 -8.049694895744323730e-01 6.597316265106201172e-02
3.410000000000000000e+03 5.332984542846679688e+01 3.334339618682861328e+00 -2.143893003463745117e+00 5.481279492378234863e-01 -4.787295162677764893e-01 -3.013415336608886719e-01
3.411000000000000000e+03 7.503784179687500000e+01 -2.883065032958984375e+01 -3.142096698284149170e-01 1.020917320251464844e+01 2.968489170074462891e+00 -1.568942666053771973e+00
3.412000000000000000e+03 2.947635078430175781e+01 -1.405681800842285156e+01 4.426280558109283447e-01 -3.056754171848297119e-01 4.108579456806182861e-02 1.006916761398315430e+00
3.413000000000000000e+03 2.850909614562988281e+01 -1.414673328399658203e+01 3.636547029018402100e-01 -3.387576937675476074e-01 7.469100877642631531e-03 9.651751518249511719e-01
3.414000000000000000e+03 3.888944244384765625e+01 -3.371131658554077148e+00 3.458423018455505371e-01 8.909702301025390625e+00 2.776663541793823242e+00 1.174742221832275391e+00
3.415000000000000000e+03 4.861183166503906250e+00 2.885571479797363281e+01 6.902148743392899632e-05 1.639661240915302187e-05 2.562542977102566510e-05 -1.285457547055557370e-04
3.416000000000000000e+03 4.702344894409179688e+00 6.888243198394775391e+00 1.074688680091639981e-05 -2.381490276093245484e-06 2.509618980184313841e-06 -2.115472398145357147e-06
3.417000000000000000e+03 3.971572637557983398e+00 6.196306705474853516e+00 8.285150215670000762e-06 -1.376857653667684644e-06 2.072487859550165012e-06 -9.669084874985856004e-07
3.418000000000000000e+03 4.117582321166992188e+01 -2.390158843994140625e+01 2.134321480989456177e-01 5.111983776092529297e+00 1.597624778747558594e+00 1.153778135776519775e-01
3.419000000000000000e+03 5.502859592437744141e+00 6.087782859802246094e+00 9.322956429969053715e-06 -3.659579590475914301e-07 2.687099595277686603e-06 -2.618123971842578612e-06
3.420000000000000000e+03 4.258686065673828125e+01 5.838266372680664062e+00 6.914921998977661133e-01 7.928467750549316406e+00 2.585988044738769531e+00 3.040855169296264648e+00
3.421000000000000000e+03 4.406912994384765625e+01 7.127150058746337891e+00 1.368475198745727539e+00 5.926110744476318359e+00 2.188375711441040039e+00 2.937741041183471680e+00
3.422000000000000000e+03 6.291153430938720703e+00 6.048881053924560547e+00 -1.094626350095495582e-05 3.756828448331361869e-08 -3.272608410043176264e-06 4.121593519812449813e-06
3.423000000000000000e+03 7.087906360626220703e+00 6.011798381805419922e+00 1.057434474205365404e-05 1.567614958730700891e-06 3.642588126240298152e-06 -4.759289367939345539e-06
3.424000000000000000e+03 5.482409954071044922e+00 2.984454345703125000e+01 4.310488657210953534e-05 1.507146225776523352e-04 5.814585165353491902e-05 -1.380222674924880266e-04
3.425000000000000000e+03 4.626222229003906250e+01 2.474449539184570312e+01 6.004378199577331543e-01 5.530299186706542969e+00 1.839221119880676270e+00 3.937646150588989258e-01
3.426000000000000000e+03 4.619061279296875000e+01 2.384284210205078125e+01 5.894314050674438477e-01 5.633023738861083984e+00 1.866736531257629395e+00 4.922606945037841797e-01
3.427000000000000000e+03 1.294139862060546875e+01 1.398602485656738281e+01 -4.553337021206971258e-06 -1.163088290923042223e-05 -4.855266070080688223e-06 -4.513112799031659961e-06
3.428000000000000000e+03 8.663296699523925781e+00 6.679161071777343750e+00 -1.310050356551073492e-05 -4.229612386552616954e-06 -5.199034603720065206e-06 9.573541319696232677e-06
3.429000000000000000e+03 4.521193695068359375e+01 2.215755271911621094e+01 4.801029860973358154e-01 6.055387020111083984e+00 1.960646986961364746e+00 6.554279923439025879e-01
3.430000000000000000e+03 4.612046813964843750e+01 2.297988891601562500e+01 5.945696830749511719e-01 5.724876880645751953e+00 1.895833969116210938e+00 6.062257289886474609e-01
3.431000000000000000e+03 4.538867187500000000e+01 2.565110206604003906e+01 5.512394905090332031e-01 5.606854915618896484e+00 1.847428441047668457e+00 2.020763903856277466e-01
3.432000000000000000e+03 4.004799842834472656e+00 2.763732337951660156e+01 2.882897933886852115e-05 5.259124736767262220e-05 2.442606819386128336e-05 -2.885527283069677651e-05
3.433000000000000000e+03 5.111900806427001953e+00 2.940842056274414062e+01 8.779230120126157999e-05 -7.362469477811828256e-05 4.250282927387161180e-06 -1.062565279426053166e-04
3.434000000000000000e+03 7.436142730712890625e+01 2.924496269226074219e+01 8.695251494646072388e-02 5.319723606109619141e+00 1.622002840042114258e+00 -1.893569976091384888e-01
3.435000000000000000e+03 3.292517852783203125e+01 -1.414332389831542969e+01 6.653562784194946289e-01 1.220815777778625488e+00 5.658516287803649902e-01 3.028801381587982178e-01
3.436000000000000000e+03 6.376923084259033203e+00 -1.570743846893310547e+01 6.695228219032287598e-01 1.194361805915832520e+00 5.591654181480407715e-01 1.729774326086044312e-01
3.437000000000000000e+03 4.578245162963867188e+00 -3.054158592224121094e+01 -4.714908599853515625e-01 5.225238800048828125e-01 1.530991308391094208e-02 2.699696421623229980e-01
3.438000000000000000e+03 7.221891021728515625e+01 -2.265961837768554688e+01 6.182994246482849121e-01 1.146418857574462891e+01 3.624746322631835938e+00 -9.839435815811157227e-01
3.439000000000000000e+03 4.596772766113281250e+01 2.128899002075195312e+01 6.583002209663391113e-01 5.888234138488769531e+00 1.963960409164428711e+00 8.622980713844299316e-01
3.440000000000000000e+03 3.906821441650390625e+01 -6.612427711486816406e+00 1.556696772575378418e+00 1.000459957122802734e+01 3.468389034271240234e+00 1.156088113784790039e+00
3.441000000000000000e+03 4.566629028320312500e+01 -2.794811439514160156e+01 -4.037613421678543091e-02 1.966198205947875977e+00 5.777466297149658203e-01 -6.243225336074829102e-01
3.442000000000000000e+03 7.512663269042968750e+01 2.243149375915527344e+01 9.825924783945083618e-02 5.630488395690917969e+00 1.718624353408813477e+00 -3.891854584217071533e-01
3.443000000000000000e+03 2.603711318969726562e+01 -5.647018432617187500e+00 5.025818347930908203e-01 -3.682377636432647705e-01 4.030321910977363586e-02 -2.619328200817108154e-01
3.444000000000000000e+03 3.224727392196655273e+00 6.266128540039062500e+00 -7.755588740110397339e-06 1.119738271881942637e-06 -1.990755208680639043e-06 1.023953245748998597e-06
3.445000000000000000e+03 7.214130401611328125e+01 -1.875507545471191406e+01 5.883682966232299805e-01 1.225556850433349609e+01 3.853181123733520508e+00 -1.165285825729370117e+00
3.446000000000000000e+03 4.487125396728515625e+01 1.711772918701171875e+01 1.012444496154785156e+00 6.619660377502441406e+00 2.289631366729736328e+00 1.603923559188842773e+00
3.447000000000000000e+03 4.576818466186523438e+01 1.877180671691894531e+01 9.035712480545043945e-01 6.081318378448486328e+00 2.095466852188110352e+00 1.308498978614807129e+00
3.448000000000000000e+03 7.589236450195312500e+01 2.623077011108398438e+01 6.210050731897354126e-02 5.482821464538574219e+00 1.663476586341857910e+00 -2.221406102180480957e-01
3.449000000000000000e+03 7.512265014648437500e+01 2.318858528137207031e+01 9.733755886554718018e-02 5.589696884155273438e+00 1.706110358238220215e+00 -3.630593419075012207e-01
3.450000000000000000e+03 7.512386322021484375e+01 -2.799657821655273438e+01 -1.866414248943328857e-01 1.015868091583251953e+01 2.991611957550048828e+00 -1.636272311210632324e+00
3.451000000000000000e+03 7.289994812011718750e+01 -2.274418830871582031e+01 5.771770477294921875e-01 1.106902027130126953e+01 3.493859291076660156e+00 -1.172204613685607910e+00
3.452000000000000000e+03 7.520480346679687500e+01 1.445323848724365234e+01 3.835830464959144592e-02 6.288738250732421875e+00 1.898128986358642578e+00 -6.379337310791015625e-01
3.453000000000000000e+03 7.590917968750000000e+01 1.524929237365722656e+01 3.816135972738265991e-02 6.317398548126220703e+00 1.906667947769165039e+00 -5.492793321609497070e-01
3.454000000000000000e+03 4.473472976684570312e+01 1.097122764587402344e+01 1.989338636398315430e+00 6.237674713134765625e+00 2.468103885650634766e+00 2.739204406738281250e+00
3.455000000000000000e+03 4.487226486206054688e+01 1.182058620452880859e+01 1.893343448638916016e+00 6.294571399688720703e+00 2.456374406814575195e+00 2.601278543472290039e+00
3.456000000000000000e+03 7.512961578369140625e+01 2.166288375854492188e+01 9.993778914213180542e-02 5.674431324005126953e+00 1.732310771942138672e+00 -4.170573353767395020e-01
3.457000000000000000e+03 7.221914672851562500e+01 -1.962269592285156250e+01 4.992885291576385498e-01 1.212987709045410156e+01 3.788749694824218750e+00 -1.104811191558837891e+00
3.458000000000000000e+03 7.425601196289062500e+01 -1.960134124755859375e+01 4.812580943107604980e-01 1.033334064483642578e+01 3.244379520416259766e+00 -1.148198008537292480e+00
3.459000000000000000e+03 7.525433349609375000e+01 1.047350311279296875e+01 -5.179692804813385010e-02 6.735397338867187500e+00 2.005080223083496094e+00 -6.385268568992614746e-01
3.460000000000000000e+03 7.527114105224609375e+01 9.669416427612304688e+00 -7.662242650985717773e-02 6.831902027130126953e+00 2.026583909988403320e+00 -6.225490570068359375e-01
3.461000000000000000e+03 7.436920928955078125e+01 1.683060264587402344e+01 1.011767908930778503e-01 5.934712409973144531e+00 1.810766696929931641e+00 -6.502242684364318848e-01
3.462000000000000000e+03 7.515702819824218750e+01 1.605098342895507812e+01 6.604553014039993286e-02 6.120841979980468750e+00 1.856066346168518066e+00 -6.066904664039611816e-01
3.463000000000000000e+03 7.437870788574218750e+01 2.243895912170410156e+01 1.264342665672302246e-01 5.565643787384033203e+00 1.707623362541198730e+00 -4.283983409404754639e-01
3.464000000000000000e+03 7.307541656494140625e+01 -2.176265525817871094e+01 5.221819281578063965e-01 1.113546562194824219e+01 3.497294187545776367e+00 -1.152708530426025391e+00
3.465000000000000000e+03 7.546677398681640625e+01 -2.261375427246093750e+01 3.059731423854827881e-01 9.686664581298828125e+00 2.997791290283203125e+00 -1.356478214263916016e+00
3.466000000000000000e+03 7.529363250732421875e+01 8.064567565917968750e+00 -1.269780695438385010e-01 7.022675991058349609e+00 2.068709373474121094e+00 -5.677523612976074219e-01
3.467000000000000000e+03 2.976988029479980469e+01 -1.487653923034667969e+01 -4.756325483322143555e-02 -3.246054351329803467e-01 -1.116506084799766541e-01 1.073658704757690430e+00
3.468000000000000000e+03 3.003835868835449219e+01 -1.406182003021240234e+01 4.778350889682769775e-01 -2.919671237468719482e-01 5.576038360595703125e-02 9.545757770538330078e-01
3.469000000000000000e+03 7.430508422851562500e+01 1.763704299926757812e+01 1.124569922685623169e-01 5.863096714019775391e+00 1.792666077613830566e+00 -6.281285285949707031e-01
3.470000000000000000e+03 7.606443786621093750e+01 8.151820898056030273e-01 -2.243276238441467285e-01 7.821731090545654297e+00 2.279221057891845703e+00 4.727917909622192383e-02
3.471000000000000000e+03 7.538156127929687500e+01 8.941270411014556885e-03 -2.925761044025421143e-01 7.816828727722167969e+00 2.257275819778442383e+00 8.166553080081939697e-02
3.472000000000000000e+03 4.624756813049316406e+00 2.216599845886230469e+01 1.704684109427034855e-05 2.071653034363407642e-05 1.132901161327026784e-05 -1.882997047175649641e-08
3.473000000000000000e+03 7.600556182861328125e+01 8.047111511230468750e+00 -9.769120067358016968e-02 7.167576313018798828e+00 2.120965480804443359e+00 -4.838771522045135498e-01
3.474000000000000000e+03 7.530117034912109375e+01 7.266797542572021484e+00 -1.511262953281402588e-01 7.115033149719238281e+00 2.089172124862670898e+00 -5.283117294311523438e-01
3.475000000000000000e+03 7.453755950927734375e+01 9.691793441772460938e+00 -9.206563979387283325e-02 6.681731224060058594e+00 1.976899623870849609e+00 -7.073212265968322754e-01
3.476000000000000000e+03 5.058456897735595703e+00 -3.100336456298828125e+01 -4.861685335636138916e-01 3.925316929817199707e-01 -2.809105254709720612e-02 2.025473713874816895e-01
3.477000000000000000e+03 7.606577301025390625e+01 1.636322617530822754e+00 -2.197364717721939087e-01 7.772575378417968750e+00 2.265851736068725586e+00 -2.740867622196674347e-02
3.478000000000000000e+03 7.539012145996093750e+01 8.462577462196350098e-01 -2.870106697082519531e-01 7.752769947052001953e+00 2.239727735519409180e+00 2.002638531848788261e-03
3.479000000000000000e+03 7.601939392089843750e+01 -2.568135070800781250e+01 9.583901613950729370e-02 9.828992843627929688e+00 2.977449655532836914e+00 -1.552188873291015625e+00
3.480000000000000000e+03 7.519831848144531250e+01 -2.718342590332031250e+01 -6.607829034328460693e-02 1.009353065490722656e+01 3.008235692977905273e+00 -1.664461374282836914e+00
3.481000000000000000e+03 4.803064823150634766e+00 -6.904191970825195312e+00 -1.105828136205673218e-01 1.875475794076919556e-02 -2.754841558635234833e-02 -2.829373180866241455e-01
3.482000000000000000e+03 7.523672485351562500e+01 1.127619934082031250e+01 -3.020735271275043488e-02 6.640935897827148438e+00 1.983218550682067871e+00 -6.506716012954711914e-01
3.483000000000000000e+03 7.545632171630859375e+01 -3.226580381393432617e+00 -2.170941233634948730e-01 8.018723487854003906e+00 2.340488910675048828e+00 3.743620514869689941e-01
3.484000000000000000e+03 7.548992919921875000e+01 -4.851553440093994141e+00 -1.521926671266555786e-01 8.101000785827636719e+00 2.384642362594604492e+00 4.764498174190521240e-01
3.485000000000000000e+03 3.807501077651977539e+00 -8.062443733215332031e+00 -7.409732043743133545e-02 -1.042284220457077026e-01 -5.349772423505783081e-02 -3.201144039630889893e-01
3.486000000000000000e+03 7.543360137939453125e+01 -6.399962902069091797e+00 -7.584463059902191162e-02 8.196460723876953125e+00 2.436184883117675781e+00 5.287480354309082031e-01
3.487000000000000000e+03 7.612328338623046875e+01 -6.402577400207519531e+00 -6.261711567640304565e-02 8.005860328674316406e+00 2.382972955703735352e+00 5.519044399261474609e-01
3.488000000000000000e+03 7.541355895996093750e+01 -7.172928333282470703e+00 -3.235762193799018860e-02 8.246101379394531250e+00 2.464123010635375977e+00 5.359975695610046387e-01
3.489000000000000000e+03 7.537949371337890625e+01 3.305099248886108398e+00 -2.594084143638610840e-01 7.545935630798339844e+00 2.185958147048950195e+00 -2.382034063339233398e-01
3.490000000000000000e+03 7.609710693359375000e+01 -2.023704910278320312e+01 3.075233995914459229e-01 9.070159912109375000e+00 2.813304901123046875e+00 -1.050418734550476074e+00
3.491000000000000000e+03 7.544603729248046875e+01 -2.184809875488281250e+01 3.415805399417877197e-01 9.652007102966308594e+00 2.998076438903808594e+00 -1.290053606033325195e+00
3.492000000000000000e+03 7.536113739013671875e+01 4.100944995880126953e+00 -2.427554130554199219e-01 7.466911315917968750e+00 2.167246818542480469e+00 -3.072636723518371582e-01
3.493000000000000000e+03 7.403368377685546875e+01 -1.574767494201660156e+01 8.672313690185546875e-01 1.009510898590087891e+01 3.288702249526977539e+00 -6.821194291114807129e-01
3.494000000000000000e+03 3.918810367584228516e+00 2.532492637634277344e+01 1.949615034391172230e-05 -9.733765864439192228e-07 5.556832093134289607e-06 -3.996855957666411996e-05
3.495000000000000000e+03 7.605649566650390625e+01 -1.372282028198242188e+01 4.419240951538085938e-01 8.275480270385742188e+00 2.615221261978149414e+00 -8.981081773526966572e-04
3.496000000000000000e+03 7.538793182373046875e+01 -1.462897014617919922e+01 5.976565480232238770e-01 8.861425399780273438e+00 2.837724447250366211e+00 -2.467617839574813843e-01
3.497000000000000000e+03 7.203416442871093750e+01 -1.709999275207519531e+01 9.314612746238708496e-01 1.225864028930664062e+01 3.957030534744262695e+00 -1.216716647148132324e+00
3.498000000000000000e+03 7.351368713378906250e+01 -1.028291606903076172e+01 3.845010697841644287e-01 9.487307548522949219e+00 2.961542606353759766e+00 1.723291575908660889e-01
3.499000000000000000e+03 7.610161590576171875e+01 -1.943669891357421875e+01 3.295305073261260986e-01 8.957246780395507812e+00 2.786033153533935547e+00 -9.551512002944946289e-01
3.500000000000000000e+03 7.601537322998046875e+01 -1.033543968200683594e+01 2.144202589988708496e-01 8.158556938171386719e+00 2.511893272399902344e+00 4.557968676090240479e-01
3.501000000000000000e+03 7.609005737304687500e+01 -9.520316123962402344e+00 1.280581802129745483e-01 8.072644233703613281e+00 2.460210561752319336e+00 5.140721201896667480e-01
3.502000000000000000e+03 7.381567382812500000e+01 -4.033206462860107422e+00 -2.804816365242004395e-01 8.229964256286621094e+00 2.384845018386840820e+00 2.695650160312652588e-01
3.503000000000000000e+03 7.528794860839843750e+01 -1.212708950042724609e+01 4.439175724983215332e-01 8.676401138305664062e+00 2.736095666885375977e+00 2.014105319976806641e-01
3.504000000000000000e+03 7.137035369873046875e+01 -9.974113464355468750e+00 4.349353611469268799e-01 1.049775123596191406e+01 3.279805898666381836e+00 -4.930121004581451416e-01
3.505000000000000000e+03 7.612045288085937500e+01 -1.782445716857910156e+01 3.822497427463531494e-01 8.716005325317382812e+00 2.729476451873779297e+00 -7.421287298202514648e-01
3.506000000000000000e+03 7.546428680419921875e+01 -1.709273147583007812e+01 5.248029828071594238e-01 9.126626014709472656e+00 2.895428657531738281e+00 -7.171122431755065918e-01
3.507000000000000000e+03 7.475341033935546875e+01 1.749255180358886719e+00 -3.519553244113922119e-01 7.613460063934326172e+00 2.178451299667358398e+00 -1.440394669771194458e-01
3.508000000000000000e+03 7.606927490234375000e+01 -2.490786933898925781e+01 1.588387638330459595e-01 9.700002670288085938e+00 2.957652568817138672e+00 -1.504960298538208008e+00
3.509000000000000000e+03 7.181978607177734375e+01 -2.563010025024414062e+01 4.349178671836853027e-01 1.065502071380615234e+01 3.326981544494628906e+00 -1.280277729034423828e+00
3.510000000000000000e+03 7.413735198974609375e+01 -1.736879730224609375e+01 7.077425718307495117e-01 1.025605487823486328e+01 3.289139270782470703e+00 -9.371615052223205566e-01
3.511000000000000000e+03 7.540721130371093750e+01 -7.949083805084228516e+00 1.890242099761962891e-02 8.299189567565917969e+00 2.495427608489990234e+00 5.326392650604248047e-01
3.512000000000000000e+03 7.539146423339843750e+01 -8.735015869140625000e+00 8.752454072237014771e-02 8.366221427917480469e+00 2.536123752593994141e+00 5.181224942207336426e-01
3.513000000000000000e+03 7.417890930175781250e+01 -1.815145301818847656e+01 6.196637153625488281e-01 1.030950832366943359e+01 3.278751611709594727e+00 -1.026305198669433594e+00
3.514000000000000000e+03 7.505252838134765625e+01 1.845948791503906250e+01 9.377489984035491943e-02 5.896214008331298828e+00 1.796996712684631348e+00 -5.405533909797668457e-01
3.515000000000000000e+03 7.610223388671875000e+01 -2.413225173950195312e+01 2.055730670690536499e-01 9.569915771484375000e+00 2.932646512985229492e+00 -1.435933232307434082e+00
3.516000000000000000e+03 7.485998535156250000e+01 -2.342026901245117188e+01 3.533749878406524658e-01 9.980785369873046875e+00 3.100248098373413086e+00 -1.459596514701843262e+00
3.517000000000000000e+03 7.546253204345703125e+01 -4.052424907684326172e+00 -1.894789636135101318e-01 8.061629295349121094e+00 2.361645221710205078e+00 4.290424585342407227e-01
3.518000000000000000e+03 3.970675230026245117e+00 2.687283134460449219e+01 3.441446460783481598e-05 8.573899208386137616e-07 1.058155703503871337e-05 -7.739807915640994906e-05
3.519000000000000000e+03 7.536913299560546875e+01 -8.246604800224304199e-01 -2.833893299102783203e-01 7.875301361083984375e+00 2.277573585510253906e+00 1.699700951576232910e-01
3.520000000000000000e+03 7.539058685302734375e+01 -1.644505858421325684e+00 -2.631691098213195801e-01 7.919411182403564453e+00 2.296872615814208984e+00 2.421133667230606079e-01
3.521000000000000000e+03 3.939114332199096680e+00 2.060667610168457031e+01 8.498066563333850354e-06 -5.598490588454296812e-06 8.698729061507037841e-07 -3.650269775334891165e-07
3.522000000000000000e+03 4.611938953399658203e+00 2.294677543640136719e+01 1.672667895036283880e-05 -2.026584843406453729e-05 -1.061750822373142000e-06 -1.532690839667338878e-05
3.523000000000000000e+03 7.573746490478515625e+01 2.693223571777343750e+01 6.274932622909545898e-02 5.450869083404541016e+00 1.654085516929626465e+00 -2.112786322832107544e-01
3.524000000000000000e+03 7.530966186523437500e+01 6.472985744476318359e+00 -1.765865087509155273e-01 7.206612586975097656e+00 2.109007835388183594e+00 -4.860298037528991699e-01
3.525000000000000000e+03 7.532470703125000000e+01 5.681734561920166016e+00 -2.008094787597656250e-01 7.296831130981445312e+00 2.128806352615356445e+00 -4.314868450164794922e-01
3.526000000000000000e+03 3.728213310241699219e+00 -8.796513557434082031e+00 -7.217412441968917847e-02 -1.292053163051605225e-01 -6.041383370757102966e-02 -3.402074873447418213e-01
3.527000000000000000e+03 4.466065406799316406e+00 -8.261833190917968750e+00 -9.296265989542007446e-02 -2.930900314822793007e-03 -2.876806817948818207e-02 -3.223201632499694824e-01
3.528000000000000000e+03 3.811196517944335938e+01 -1.523343175649642944e-01 -1.400558829307556152e+00 7.732302665710449219e+00 1.899523138999938965e+00 1.101595044136047363e+00
3.529000000000000000e+03 3.792015838623046875e+01 -1.382351875305175781e+00 -9.276851415634155273e-01 7.350263118743896484e+00 1.926773428916931152e+00 1.054136037826538086e+00
3.530000000000000000e+03 4.752625465393066406e+00 2.819215011596679688e+01 4.248191908118315041e-05 6.212150765350088477e-05 3.138102692901156843e-05 -3.497011130093596876e-05
3.531000000000000000e+03 4.574618339538574219e+00 1.473836708068847656e+01 3.234860923839733005e-05 -1.037914989865384996e-05 6.590837529074633494e-06 7.443793947459198534e-06
3.532000000000000000e+03 4.731027603149414062e+00 1.806096267700195312e+01 1.838912430685013533e-05 2.121145598721341230e-06 6.153080903459340334e-06 9.577807759342249483e-06
3.533000000000000000e+03 3.919690847396850586e+00 1.649749565124511719e+01 -1.852186505857389420e-05 3.615917648858157918e-06 -4.471784450288396329e-06 -4.803639967576600611e-06
3.534000000000000000e+03 8.772289276123046875e+00 -7.929535865783691406e+00 -1.001752316951751709e-01 3.519697487354278564e-01 7.553835958242416382e-02 -6.325434148311614990e-02
3.535000000000000000e+03 4.757482528686523438e+00 -1.279689121246337891e+01 5.712174996733665466e-02 2.542561590671539307e-01 9.341336786746978760e-02 -3.196579813957214355e-01
3.536000000000000000e+03 5.312561988830566406e+00 9.125510215759277344e+00 2.143083111150190234e-05 -1.123481888498645276e-05 3.058803486055694520e-06 -6.022528395988047123e-07
3.537000000000000000e+03 4.588624000549316406e+00 1.554466915130615234e+01 -3.511629620334133506e-05 1.266099752683658153e-05 -6.736589512001955882e-06 -5.386683369579259306e-06
3.538000000000000000e+03 4.611713409423828125e+00 -7.577397823333740234e+00 -9.852070361375808716e-02 7.143151480704545975e-03 -2.741326391696929932e-02 -3.039920628070831299e-01
3.539000000000000000e+03 4.033999443054199219e+00 -1.009241294860839844e+01 -6.059623882174491882e-02 -6.213234737515449524e-02 -3.681857511401176453e-02 -3.586280345916748047e-01
3.540000000000000000e+03 3.631787776947021484e+00 -1.682093238830566406e+01 3.515929579734802246e-01 2.470443025231361389e-02 1.128892153501510620e-01 -7.216346450150012970e-03
3.541000000000000000e+03 4.256750583648681641e+00 -1.715141868591308594e+01 5.147581696510314941e-01 4.077564477920532227e-01 2.767543792724609375e-01 1.154257655143737793e-01
3.542000000000000000e+03 3.972157955169677734e+00 1.815150642395019531e+01 -1.138626521424157545e-05 4.346964033175026998e-06 -2.111790308845229447e-06 -4.573745968627918046e-07
3.543000000000000000e+03 3.840779781341552734e+00 -1.490303802490234375e+01 1.988949775695800781e-01 1.104398397728800774e-03 5.999981239438056946e-02 -2.579050362110137939e-01
3.544000000000000000e+03 4.634035587310791016e+00 -1.353878307342529297e+01 1.203568428754806519e-01 2.637068927288055420e-01 1.152191236615180969e-01 -2.938311100006103516e-01
3.545000000000000000e+03 4.669417858123779297e+00 1.975354576110839844e+01 9.723052244225982577e-06 -8.430887646682094783e-06 3.876492087329097558e-07 1.234420415130443871e-05
3.546000000000000000e+03 3.876737833023071289e+00 1.246129417419433594e+01 2.005624810408335179e-05 -7.149390512495301664e-06 3.872057277476415038e-06 5.194793175178347155e-06
3.547000000000000000e+03 3.879437446594238281e+00 1.085758781433105469e+01 1.756068377289921045e-05 -7.258899131556972861e-06 3.090535528826876543e-06 3.907555765181314200e-06
3.548000000000000000e+03 4.170655250549316406e+00 -1.547099590301513672e+01 2.873595952987670898e-01 1.927537173032760620e-01 1.440339982509613037e-01 -1.560607701539993286e-01
3.549000000000000000e+03 5.903305530548095703e+00 -1.472263336181640625e+01 3.812475800514221191e-01 8.450242280960083008e-01 3.678815364837646484e-01 -6.693030893802642822e-02
3.550000000000000000e+03 5.183789253234863281e+00 -1.680440521240234375e+01 6.685299277305603027e-01 8.498971462249755859e-01 4.555281102657318115e-01 1.697443872690200806e-01
3.551000000000000000e+03 5.962680339813232422e+00 -1.092452812194824219e+01 -4.004888236522674561e-02 3.874099552631378174e-01 1.042083203792572021e-01 -2.568064928054809570e-01
3.552000000000000000e+03 4.255534172058105469e+00 -9.579836845397949219e+00 -6.999111920595169067e-02 -6.953228730708360672e-03 -2.308330498635768890e-02 -3.463051915168762207e-01
3.553000000000000000e+03 5.666938304901123047e+00 -1.233629512786865234e+01 4.827516525983810425e-02 4.697638750076293945e-01 1.554117202758789062e-01 -2.509868144989013672e-01
3.554000000000000000e+03 4.622887611389160156e+00 1.636508941650390625e+01 3.099930836469866335e-05 -5.140920166013529524e-06 7.757515959383454174e-06 1.391109890391817316e-05
3.555000000000000000e+03 4.679005146026611328e+00 1.720668983459472656e+01 -2.451529508107341826e-05 3.154105797875672579e-06 -6.408356512110913172e-06 -9.235366633220110089e-06
3.556000000000000000e+03 5.268243312835693359e+00 1.540240955352783203e+01 4.693044320447370410e-05 -1.443471774109639227e-05 9.748718184710014611e-06 7.249611371662467718e-06
3.557000000000000000e+03 7.511812591552734375e+01 2.087291717529296875e+01 9.977607429027557373e-02 5.722671985626220703e+00 1.746734380722045898e+00 -4.494123458862304688e-01
3.558000000000000000e+03 7.507761383056640625e+01 2.007021331787109375e+01 9.982856363058090210e-02 5.778470993041992188e+00 1.763489842414855957e+00 -4.829214513301849365e-01
3.559000000000000000e+03 4.568933010101318359e+00 1.393720436096191406e+01 -3.286358696641400456e-05 1.169439019577112049e-05 -6.350758667394984514e-06 -9.230497539647330996e-07
3.560000000000000000e+03 7.521247863769531250e+01 1.365787124633789062e+01 2.479796111583709717e-02 6.373253345489501953e+00 1.919415354728698730e+00 -6.468873620033264160e-01
3.561000000000000000e+03 7.521688079833984375e+01 1.286457920074462891e+01 7.028722204267978668e-03 6.461663246154785156e+00 1.940607666969299316e+00 -6.539139151573181152e-01
3.562000000000000000e+03 4.588569641113281250e+00 2.371963882446289062e+01 2.390704685240052640e-05 3.633778032963164151e-05 1.807344779081176966e-05 -1.607412741577718407e-05
3.563000000000000000e+03 4.564819335937500000e+00 2.447647666931152344e+01 1.720999171084258705e-05 -1.814346433093305677e-05 -2.800418883452948648e-07 -1.975496161321643740e-05
3.564000000000000000e+03 4.575980663299560547e+00 9.961260795593261719e+00 2.031169788097031415e-05 -9.073090950550977141e-06 3.371582351974211633e-06 1.986327333725057542e-06
3.565000000000000000e+03 4.547499179840087891e+00 1.154333496093750000e+01 2.370387846895027906e-05 -7.524407465098192915e-06 4.853841801377711818e-06 2.946221229649381712e-06
3.566000000000000000e+03 4.553728580474853516e+00 1.074920368194580078e+01 -2.382250022492371500e-05 8.932463970268145204e-06 -4.467010967346141115e-06 -3.166219642025680514e-07
3.567000000000000000e+03 4.607885837554931641e+00 9.183073043823242188e+00 -1.998871994146611542e-05 8.914241334423422813e-06 -3.322343218314927071e-06 1.256818450201535597e-06
3.568000000000000000e+03 4.702025890350341797e+00 2.747552680969238281e+01 4.815176725969649851e-05 -1.727238850435242057e-05 9.263813808502163738e-06 -1.089473371393978596e-04
3.569000000000000000e+03 7.508209228515625000e+01 1.765395736694335938e+01 8.643519133329391479e-02 5.967224597930908203e+00 1.816097974777221680e+00 -5.648866295814514160e-01
3.570000000000000000e+03 4.729762077331542969e+00 6.136104583740234375e+00 -9.674932698544580489e-06 1.062067099155683536e-06 -2.583859668447985314e-06 2.599525487312348559e-06
3.571000000000000000e+03 5.233061790466308594e+00 3.143255805969238281e+01 6.683831452392041683e-05 -9.490123193245381117e-05 -8.418875040661077946e-06 -1.240580604644492269e-04
3.572000000000000000e+03 4.731114387512207031e+00 3.213483810424804688e+01 5.811769369756802917e-05 1.596446963958442211e-04 6.532872066600248218e-05 -2.001126704271882772e-04
3.573000000000000000e+03 4.821465492248535156e+00 3.345212554931640625e+01 1.807932130759581923e-05 1.847651146817952394e-04 6.085333370720036328e-05 -2.352496230741962790e-04
3.574000000000000000e+03 1.348307609558105469e+01 -6.438864707946777344e+00 -7.701597642153501511e-03 1.400704085826873779e-01 3.971064463257789612e-02 1.843801289796829224e-01
3.575000000000000000e+03 4.483806991577148438e+01 -2.686370086669921875e+01 6.108535081148147583e-02 2.256674528121948242e+00 6.953279972076416016e-01 -6.579061746597290039e-01
3.576000000000000000e+03 7.345325469970703125e+01 -3.348206329345703125e+01 -8.086500763893127441e-01 9.420157432556152344e+00 2.583451986312866211e+00 -7.014409303665161133e-01
3.577000000000000000e+03 5.178734302520751953e+00 2.514855957031250000e+01 7.255086529767140746e-06 1.692443447609548457e-06 2.684259015950374305e-06 -1.629367943678516895e-05
3.578000000000000000e+03 4.913856506347656250e+00 -3.242063903808593750e+01 -2.961563766002655029e-01 4.732483327388763428e-01 5.312758684158325195e-02 6.205220893025398254e-02
3.579000000000000000e+03 7.282814788818359375e+01 -1.855581283569335938e+01 6.365762948989868164e-01 1.158699607849121094e+01 3.667071580886840820e+00 -1.159957408905029297e+00
3.580000000000000000e+03 1.404822349548339844e+01 1.086122226715087891e+01 3.628108743214397691e-06 1.468733262299792841e-05 5.494632659974740818e-06 4.357418220024555922e-06
3.581000000000000000e+03 7.059831237792968750e+01 -7.660087108612060547e+00 1.238423213362693787e-01 9.584195137023925781e+00 2.912411212921142578e+00 -7.461394667625427246e-01
3.582000000000000000e+03 7.496546936035156250e+01 2.474378776550292969e+01 9.895728528499603271e-02 5.493474960327148438e+00 1.677729606628417969e+00 -3.126832544803619385e-01
3.583000000000000000e+03 7.584691619873046875e+01 2.557940292358398438e+01 6.816660612821578979e-02 5.508452415466308594e+00 1.672985792160034180e+00 -2.486841678619384766e-01
3.584000000000000000e+03 7.552543640136718750e+01 -3.238905715942382812e+01 -4.860988557338714600e-01 1.052376174926757812e+01 3.011298894882202148e+00 -9.962892532348632812e-01
3.585000000000000000e+03 7.015753936767578125e+01 -3.068960380554199219e+01 -1.397330641746520996e+00 8.216129302978515625e+00 2.045639514923095703e+00 -3.734398484230041504e-01
3.586000000000000000e+03 2.791594314575195312e+01 -1.408117675781250000e+01 2.728408277034759521e-01 -3.426790833473205566e-01 -2.095147594809532166e-02 9.308165311813354492e-01
3.587000000000000000e+03 2.801917648315429688e+01 -1.475090980529785156e+01 2.891363203525543213e-02 -3.001630604267120361e-01 -8.137482404708862305e-02 9.704721570014953613e-01
3.588000000000000000e+03 3.918315887451171875e+01 -5.804962635040283203e+00 1.301624536514282227e+00 1.003770256042480469e+01 3.401798009872436523e+00 1.241422176361083984e+00
3.589000000000000000e+03 3.820631027221679688e+01 -8.206585884094238281e+00 1.722485303878784180e+00 8.658243179321289062e+00 3.114218473434448242e+00 8.614866137504577637e-01
3.590000000000000000e+03 4.632923507690429688e+01 2.569155883789062500e+01 6.226986050605773926e-01 5.404096126556396484e+00 1.808038473129272461e+00 3.191981017589569092e-01
3.591000000000000000e+03 7.492761993408203125e+01 -2.967987251281738281e+01 -4.424894750118255615e-01 1.022990512847900391e+01 2.936224699020385742e+00 -1.461526632308959961e+00
3.592000000000000000e+03 7.421567535400390625e+01 -2.956429862976074219e+01 -5.322717428207397461e-01 1.009106636047363281e+01 2.867638587951660156e+00 -1.479768157005310059e+00
3.593000000000000000e+03 4.391843032836914062e+01 -2.565223312377929688e+01 1.096005514264106750e-01 2.794626951217651367e+00 8.712682723999023438e-01 -6.284909844398498535e-01
3.594000000000000000e+03 4.395408248901367188e+01 -2.498092460632324219e+01 1.268494129180908203e-01 2.831084012985229492e+00 8.873800039291381836e-01 -6.038333773612976074e-01
3.595000000000000000e+03 4.334519195556640625e+01 -2.528543663024902344e+01 1.496799439191818237e-01 3.283899068832397461e+00 1.030073642730712891e+00 -5.498471260070800781e-01
3.596000000000000000e+03 4.287035751342773438e+01 -2.471903991699218750e+01 1.337527483701705933e-01 3.678222417831420898e+00 1.143592596054077148e+00 -4.746724963188171387e-01
3.597000000000000000e+03 7.457222747802734375e+01 2.836683464050292969e+01 8.752415329217910767e-02 5.350863933563232422e+00 1.631516456604003906e+00 -2.082994133234024048e-01
3.598000000000000000e+03 7.476672363281250000e+01 2.749459075927734375e+01 8.874332904815673828e-02 5.383798122406005859e+00 1.641762375831604004e+00 -2.299554944038391113e-01
3.599000000000000000e+03 7.480982208251953125e+01 3.338221740722656250e+01 5.001648142933845520e-02 5.258648395538330078e+00 1.592599511146545410e+00 -8.832431584596633911e-02
3.600000000000000000e+03 7.282483673095703125e+01 3.031217384338378906e+01 1.215648651123046875e-01 5.234873771667480469e+00 1.606931567192077637e+00 -1.869207620620727539e-01
3.601000000000000000e+03 4.501494598388671875e+01 1.266763877868652344e+01 1.809592723846435547e+00 6.310509204864501953e+00 2.436030626296997070e+00 2.435650825500488281e+00
3.602000000000000000e+03 6.242860317230224609e+00 -3.535421752929687500e+01 -8.110826462507247925e-02 2.350204288959503174e-01 4.617365077137947083e-02 -4.359249770641326904e-02
3.603000000000000000e+03 7.480080413818359375e+01 -3.054823493957519531e+01 -5.359618663787841797e-01 1.021051979064941406e+01 2.902367591857910156e+00 -1.320035934448242188e+00
3.604000000000000000e+03 5.529427051544189453e+00 3.399658966064453125e+01 1.144662528531625867e-04 -1.109208460547961295e-04 1.063621880348364357e-06 -2.113679947797209024e-04
3.605000000000000000e+03 9.505030632019042969e+00 5.868526935577392578e+00 -1.097882068279432133e-05 -6.250333626667270437e-06 -5.168746156414272264e-06 7.562307928310474381e-06
3.606000000000000000e+03 1.437826633453369141e+01 8.188388824462890625e+00 3.933912012143991888e-06 1.314393921347800642e-05 5.123355094838188961e-06 3.761652124012471177e-06
3.607000000000000000e+03 6.009530544281005859e+00 -3.416628265380859375e+01 -1.806013286113739014e-01 2.244358956813812256e-01 1.315037067979574203e-02 -2.323335036635398865e-02
3.608000000000000000e+03 4.460334014892578125e+01 1.011060047149658203e+01 2.014396905899047852e+00 6.150631427764892578e+00 2.449508428573608398e+00 2.855191230773925781e+00
3.609000000000000000e+03 3.600368118286132812e+01 -3.095300436019897461e+00 1.426488906145095825e-01 4.455828666687011719e+00 1.379543185234069824e+00 8.603725433349609375e-01
3.610000000000000000e+03 3.874797439575195312e+01 6.533048152923583984e-01 -1.600496768951416016e+00 8.796907424926757812e+00 2.158923387527465820e+00 1.091220140457153320e+00
3.611000000000000000e+03 1.405498504638671875e+01 8.961226463317871094e+00 -3.853611815429758281e-06 -1.358161262032808736e-05 -5.230567694525234401e-06 -3.739457270057755522e-06
3.612000000000000000e+03 1.433488273620605469e+01 1.006570339202880859e+01 -4.969960627931868657e-06 -1.710905962681863457e-05 -6.623706212849356234e-06 -7.543647825514199212e-06
3.613000000000000000e+03 5.516146659851074219e+00 -5.770029067993164062e+00 -1.370450705289840698e-01 5.977237224578857422e-02 -2.318180911242961884e-02 -2.426744848489761353e-01
3.614000000000000000e+03 5.657362937927246094e+00 -6.684101104736328125e+00 -1.297648549079895020e-01 9.781108051538467407e-02 -9.586131200194358826e-03 -2.603661715984344482e-01
3.615000000000000000e+03 7.770901679992675781e+00 -5.512901782989501953e+00 -1.752115190029144287e-01 1.655347645282745361e-01 -2.903028624132275581e-03 -1.478839069604873657e-01
3.616000000000000000e+03 4.161583328247070312e+01 -2.159923362731933594e+01 -3.056058585643768311e-01 5.833002090454101562e+00 1.658218860626220703e+00 5.877623707056045532e-02
3.617000000000000000e+03 4.104487609863281250e+01 -2.507359123229980469e+01 3.709662258625030518e-01 4.793872833251953125e+00 1.549451708793640137e+00 -6.653553247451782227e-02
3.618000000000000000e+03 4.657125854492187500e+01 1.873558425903320312e+01 1.054217100143432617e+00 5.711330413818359375e+00 2.029664278030395508e+00 1.315253019332885742e+00
3.619000000000000000e+03 5.185105133056640625e+01 2.768332004547119141e+00 -2.946645259857177734e+00 4.179193973541259766e-01 -7.586177587509155273e-01 -1.070055738091468811e-01
3.620000000000000000e+03 5.710116195678710938e+01 2.181770324707031250e+00 -1.909261465072631836e+00 6.369184255599975586e-01 -3.817028999328613281e-01 -6.973703503608703613e-01
3.621000000000000000e+03 5.619596862792968750e+01 1.542226672172546387e+00 -2.505120277404785156e+00 3.533900380134582520e-01 -6.455190777778625488e-01 -2.902860045433044434e-01
3.622000000000000000e+03 7.212145233154296875e+01 -2.365327072143554688e+01 6.880236864089965820e-01 1.121577167510986328e+01 3.571138381958007812e+00 -1.048876404762268066e+00
3.623000000000000000e+03 3.507058715820312500e+01 -3.626915454864501953e+00 5.362550616264343262e-01 3.027605772018432617e+00 1.069158315658569336e+00 6.494257450103759766e-01
3.624000000000000000e+03 5.398442459106445312e+01 3.346845388412475586e+00 -2.040856122970581055e+00 6.124457120895385742e-01 -4.285230934619903564e-01 -4.028139412403106689e-01
3.625000000000000000e+03 5.435125732421875000e+01 2.508493185043334961e+00 -2.518919944763183594e+00 5.113855600357055664e-01 -6.022603511810302734e-01 -2.141385078430175781e-01
3.626000000000000000e+03 1.665709304809570312e+01 -6.739854335784912109e+00 1.446533501148223877e-01 -1.365050021559000015e-02 3.930085524916648865e-02 2.657825946807861328e-01
3.627000000000000000e+03 1.670839309692382812e+01 -6.069335460662841797e+00 8.796437084674835205e-02 -1.654541119933128357e-02 2.142568863928318024e-02 2.343209236860275269e-01
3.628000000000000000e+03 4.543384170532226562e+01 1.528388118743896484e+01 1.449453234672546387e+00 6.234975337982177734e+00 2.305328607559204102e+00 1.943791270256042480e+00
3.629000000000000000e+03 4.651733016967773438e+01 -2.994184112548828125e+01 -2.699723541736602783e-01 1.740364670753479004e+00 4.411177039146423340e-01 -5.658175349235534668e-01
3.630000000000000000e+03 4.708564758300781250e+01 -3.099352645874023438e+01 -3.982138931751251221e-01 1.586211442947387695e+00 3.563992679119110107e-01 -5.252812504768371582e-01
3.631000000000000000e+03 7.433092594146728516e+00 -6.405239582061767578e+00 -1.536844074726104736e-01 2.038363963365554810e-01 1.504559535533189774e-02 -1.691041141748428345e-01
3.632000000000000000e+03 5.945589828491210938e+01 1.965471982955932617e+00 -1.470352649688720703e+00 1.376429557800292969e+00 -2.817692421376705170e-02 -1.300471186637878418e+00
3.633000000000000000e+03 4.853968429565429688e+01 5.046494007110595703e+00 -5.572107434272766113e-01 5.736961364746093750e-01 4.945615772157907486e-03 5.938495397567749023e-01
3.634000000000000000e+03 3.832763671875000000e+01 -1.504367160797119141e+01 1.371280401945114136e-01 8.291390419006347656e+00 2.528555393218994141e+00 7.552120834589004517e-02
3.635000000000000000e+03 3.587231826782226562e+01 -1.652845573425292969e+01 -1.192700266838073730e+00 5.404143333435058594e+00 1.263432979583740234e+00 1.517851054668426514e-01
3.636000000000000000e+03 9.924495697021484375e+00 -6.881634712219238281e+00 -1.079449504613876343e-01 2.816756665706634521e-01 5.211921408772468567e-02 -1.125855487771332264e-03
3.637000000000000000e+03 2.681385993957519531e+01 -4.827033996582031250e+00 3.234578967094421387e-01 -3.337579667568206787e-01 -3.090022364631295204e-03 -4.062352776527404785e-01
3.638000000000000000e+03 2.772533416748046875e+01 -5.490301609039306641e+00 6.479791402816772461e-01 -4.265931844711303711e-01 6.641579419374465942e-02 -4.089224636554718018e-01
3.639000000000000000e+03 5.348274230957031250e+00 1.977556419372558594e+01 1.924219031934626400e-05 1.377112130285240710e-05 9.903993486659601331e-06 -3.133124482701532543e-05
3.640000000000000000e+03 1.561699295043945312e+01 6.932922363281250000e+00 -5.207217782299267128e-06 -1.788911686162464321e-05 -6.928900347702438012e-06 -8.738226824789308012e-06
3.641000000000000000e+03 5.839671134948730469e+00 -1.712336158752441406e+01 8.813681006431579590e-01 1.272221803665161133e+00 6.460769772529602051e-01 4.023447036743164062e-01
3.642000000000000000e+03 7.325182342529296875e+01 -1.510711288452148438e+01 1.059259414672851562e+00 1.065370368957519531e+01 3.513889074325561523e+00 -6.981024146080017090e-01
3.643000000000000000e+03 1.727608489990234375e+01 -1.254169940948486328e+01 5.590243935585021973e-01 -8.869712054729461670e-02 1.410981863737106323e-01 3.718000352382659912e-01
3.644000000000000000e+03 4.562711715698242188e+01 1.703907203674316406e+01 1.165516972541809082e+00 6.166904926300048828e+00 2.199726581573486328e+00 1.625333547592163086e+00
3.645000000000000000e+03 7.371205139160156250e+01 -1.122849273681640625e+01 5.778138637542724609e-01 9.585672378540039062e+00 3.049045801162719727e+00 1.163750737905502319e-01
3.646000000000000000e+03 3.816042327880859375e+01 -9.034162521362304688e+00 1.641710281372070312e+00 8.650196075439453125e+00 3.087571859359741211e+00 7.349277138710021973e-01
3.647000000000000000e+03 3.683898162841796875e+01 -1.062711334228515625e+01 1.577573895454406738e+00 6.484832286834716797e+00 2.418721914291381836e+00 4.092151820659637451e-01
3.648000000000000000e+03 4.579895019531250000e+01 2.693890380859375000e+01 6.234959959983825684e-01 5.347270488739013672e+00 1.791229844093322754e+00 2.027931809425354004e-01
3.649000000000000000e+03 3.748390579223632812e+01 -1.067203998565673828e+01 1.431903123855590820e+00 7.508242607116699219e+00 2.682043790817260742e+00 3.808161318302154541e-01
3.650000000000000000e+03 2.054502868652343750e+01 -1.399010086059570312e+01 4.214457571506500244e-01 -1.955665647983551025e-01 6.776375323534011841e-02 3.390535414218902588e-01
3.651000000000000000e+03 2.012424468994140625e+01 -6.924717426300048828e+00 2.966321706771850586e-01 -1.739984452724456787e-01 3.679012134671211243e-02 2.128409445285797119e-01
3.652000000000000000e+03 4.082256698608398438e+01 3.769536972045898438e+00 -7.785968184471130371e-01 1.002493190765380859e+01 2.773900508880615234e+00 2.305778980255126953e+00
3.653000000000000000e+03 4.649346923828125000e+01 1.786320304870605469e+01 1.173210978507995605e+00 5.718140125274658203e+00 2.067405223846435547e+00 1.459223151206970215e+00
3.654000000000000000e+03 1.471497726440429688e+01 7.432645797729492188e+00 -4.520184575085295364e-06 -1.430903103027958423e-05 -5.648764727084198967e-06 -5.859548764419741929e-06
3.655000000000000000e+03 3.114394378662109375e+01 -1.521124935150146484e+01 -1.205319538712501526e-01 -3.178612589836120605e-01 -1.315179616212844849e-01 9.113608598709106445e-01
3.656000000000000000e+03 3.220222091674804688e+01 -1.397272872924804688e+01 7.518416047096252441e-01 6.114564538002014160e-01 4.089893996715545654e-01 4.585766196250915527e-01
3.657000000000000000e+03 1.424604606628417969e+01 -6.537605762481689453e+00 2.783787250518798828e-02 1.073350682854652405e-01 4.055188223719596863e-02 2.137196809053421021e-01
3.658000000000000000e+03 1.502970314025878906e+01 -6.635251998901367188e+00 6.979748606681823730e-02 6.653747707605361938e-02 4.090048745274543762e-02 2.395543009042739868e-01
3.659000000000000000e+03 3.877043914794921875e+01 -1.908745002746582031e+01 -8.359132409095764160e-01 8.092073440551757812e+00 2.176847934722900391e+00 1.431717038154602051e+00
3.660000000000000000e+03 3.993718719482421875e+01 -2.160637855529785156e+01 -2.247726619243621826e-01 6.849306106567382812e+00 1.987360119819641113e+00 1.036571979522705078e+00
3.661000000000000000e+03 4.406208801269531250e+01 3.420292139053344727e+00 -2.098783016204833984e+00 5.500091075897216797e+00 1.020392417907714844e+00 2.776489257812500000e+00
3.662000000000000000e+03 1.285932159423828125e+01 -3.659932327270507812e+01 -2.106142342090606689e-01 -3.530203402042388916e-01 -1.690903604030609131e-01 1.767858564853668213e-01
3.663000000000000000e+03 3.890982055664062500e+01 -2.166953849792480469e+01 -7.741477340459823608e-02 7.188552379608154297e+00 2.133341312408447266e+00 1.449361443519592285e+00
3.664000000000000000e+03 6.826916503906250000e+01 -2.834200859069824219e+00 -4.797979891300201416e-01 7.446322441101074219e+00 2.089957475662231445e+00 -9.524051547050476074e-01
3.665000000000000000e+03 6.804196929931640625e+01 -3.780721187591552734e+00 -1.632737517356872559e-01 7.580799102783203125e+00 2.225257635116577148e+00 -1.066818952560424805e+00
3.666000000000000000e+03 5.492092895507812500e+01 3.783790111541748047e+00 -1.574963331222534180e+00 7.044208049774169922e-01 -2.611627578735351562e-01 -5.829614996910095215e-01
3.667000000000000000e+03 5.644690704345703125e+01 2.902238130569458008e+00 -1.712582588195800781e+00 6.865473985671997070e-01 -3.078105449676513672e-01 -7.073944807052612305e-01
3.668000000000000000e+03 4.030181503295898438e+01 3.064524888992309570e+00 -1.178869605064392090e+00 1.021993541717529297e+01 2.712319612503051758e+00 1.932588100433349609e+00
3.669000000000000000e+03 4.553649520874023438e+01 1.616044616699218750e+01 1.316526412963867188e+00 6.202959060668945312e+00 2.255845546722412109e+00 1.792569875717163086e+00
3.670000000000000000e+03 4.266134643554687500e+01 2.667982816696166992e+00 -2.598357915878295898e+00 8.462233543395996094e+00 1.759162664413452148e+00 2.161442041397094727e+00
3.671000000000000000e+03 1.750608634948730469e+01 -6.796096801757812500e+00 1.805471777915954590e-01 -5.690649896860122681e-02 3.709220513701438904e-02 2.587623894214630127e-01
3.672000000000000000e+03 1.843408775329589844e+01 -6.157939434051513672e+00 1.624028086662292480e-01 -8.752933889627456665e-02 2.246204204857349396e-02 2.214888185262680054e-01
3.673000000000000000e+03 1.214420986175537109e+01 2.451337432861328125e+01 -4.886048191110603511e-05 5.237803998170420527e-05 1.055267034644202795e-06 1.561611861689016223e-04
3.674000000000000000e+03 3.917810440063476562e+01 -1.794586563110351562e+01 -6.376599669456481934e-01 8.421924591064453125e+00 2.335279464721679688e+00 9.566495418548583984e-01
3.675000000000000000e+03 3.850344085693359375e+01 -1.712402534484863281e+01 -5.821852087974548340e-01 8.274169921875000000e+00 2.307595491409301758e+00 7.751145362854003906e-01
3.676000000000000000e+03 7.302223682403564453e+00 -1.525398349761962891e+01 7.142545580863952637e-01 1.353579998016357422e+00 6.203503608703613281e-01 2.967681884765625000e-01
3.677000000000000000e+03 5.365345478057861328e+00 -1.376322555541992188e+01 1.856536716222763062e-01 5.432475805282592773e-01 2.186703681945800781e-01 -2.149853855371475220e-01
3.678000000000000000e+03 1.034967517852783203e+01 5.083717823028564453e+00 -9.190063792630098760e-06 -7.609051863255444914e-06 -5.039734787715133280e-06 6.027124982210807502e-06
3.679000000000000000e+03 1.345074367523193359e+01 1.053913116455078125e+01 -2.722151748457690701e-06 -1.003501893137581646e-05 -3.827150976576376706e-06 -1.003521902021020651e-06
3.680000000000000000e+03 1.262910652160644531e+01 5.634514331817626953e+00 -9.145027433987706900e-06 -1.479903585277497768e-05 -7.183219167927745730e-06 8.076967787928879261e-06
3.681000000000000000e+03 1.188119506835937500e+01 5.696757793426513672e+00 8.588466698711272329e-06 1.318045815423829481e-05 6.530677637783810496e-06 -8.005908057384658605e-06
3.682000000000000000e+03 3.748601531982421875e+01 -1.151233863830566406e+01 1.211143136024475098e+00 7.532409191131591797e+00 2.623065710067749023e+00 2.170556187629699707e-01
3.683000000000000000e+03 4.452095413208007812e+01 7.567033767700195312e+00 1.660900354385375977e+00 5.453507423400878906e+00 2.134322404861450195e+00 2.832720279693603516e+00
3.684000000000000000e+03 4.441036224365234375e+01 8.323806762695312500e+00 1.819565057754516602e+00 5.832141399383544922e+00 2.295511960983276367e+00 2.919701337814331055e+00
3.685000000000000000e+03 4.926864242553710938e+01 5.374320507049560547e+00 -4.503161013126373291e-01 5.517252683639526367e-01 3.042275272309780121e-02 3.467160463333129883e-01
3.686000000000000000e+03 7.177870941162109375e+01 -1.082267665863037109e+01 6.257873177528381348e-01 1.063975906372070312e+01 3.379663944244384766e+00 -3.549170196056365967e-01
3.687000000000000000e+03 7.622919082641601562e+00 -1.375181198120117188e+01 3.673620223999023438e-01 1.045647382736206055e+00 4.239028096199035645e-01 1.549281775951385498e-01
3.688000000000000000e+03 5.846902084350585938e+01 1.149463176727294922e+00 -2.012310981750488281e+00 7.078153491020202637e-01 -3.913486599922180176e-01 -8.102798461914062500e-01
3.689000000000000000e+03 5.785918045043945312e+01 2.092174768447875977e+00 -1.778252005577087402e+00 7.719353437423706055e-01 -3.018949925899505615e-01 -8.616487979888916016e-01
3.690000000000000000e+03 7.226017761230468750e+01 -2.778407287597656250e+01 -3.661690354347229004e-01 1.001483345031738281e+01 2.894599199295043945e+00 -1.456855177879333496e+00
3.691000000000000000e+03 4.516402053833007812e+01 1.352683448791503906e+01 1.695119380950927734e+00 6.295498847961425781e+00 2.397185325622558594e+00 2.269700765609741211e+00
3.692000000000000000e+03 4.530915832519531250e+01 1.440338611602783203e+01 1.586496353149414062e+00 6.264693737030029297e+00 2.355356931686401367e+00 2.107078552246093750e+00
3.693000000000000000e+03 7.264936065673828125e+01 -1.610227012634277344e+01 1.081545591354370117e+00 1.142420959472656250e+01 3.751726388931274414e+00 -1.012488961219787598e+00
3.694000000000000000e+03 1.138726234436035156e+01 2.244209861755371094e+01 -5.143525413586758077e-05 -8.920366781239863485e-06 -1.810668618418276310e-05 1.961668749572709203e-05
3.695000000000000000e+03 3.820924758911132812e+01 -1.415692615509033203e+01 4.528170526027679443e-01 8.315308570861816406e+00 2.630437850952148438e+00 -5.935373529791831970e-02
3.696000000000000000e+03 3.746311950683593750e+01 -1.310586452484130859e+01 7.449050545692443848e-01 7.391954421997070312e+00 2.441057920455932617e+00 2.627569623291492462e-02
3.697000000000000000e+03 5.458813095092773438e+01 3.159528970718383789e+00 -1.966125488281250000e+00 5.926706194877624512e-01 -4.120364487171173096e-01 -4.200636148452758789e-01
3.698000000000000000e+03 7.083005428314208984e+00 3.432537460327148438e+01 -1.955875086423475295e-05 -1.020213967422023416e-04 -3.647404446383006871e-05 -3.360614937264472246e-04
3.699000000000000000e+03 1.346865081787109375e+01 3.413396453857421875e+01 3.910301529685966671e-05 -4.515455220825970173e-04 -1.237327523995190859e-04 -7.886581006459891796e-04
3.700000000000000000e+03 4.620486450195312500e+01 3.016714477539062500e+01 4.472986161708831787e-01 4.885105133056640625e+00 1.599721074104309082e+00 2.742902040481567383e-01
3.701000000000000000e+03 4.703508758544921875e+01 3.125115585327148438e+01 3.010581135749816895e-01 4.801576137542724609e+00 1.530790209770202637e+00 3.423310518264770508e-01
3.702000000000000000e+03 5.019485855102539062e+01 5.060547828674316406e+00 -8.495315313339233398e-01 5.149427056312561035e-01 -1.003766357898712158e-01 2.664116024971008301e-02
3.703000000000000000e+03 4.953883743286132812e+01 4.693556308746337891e+00 -1.036517620086669922e+00 3.591085672378540039e-01 -2.032226920127868652e-01 1.137654930353164673e-01
3.704000000000000000e+03 3.928982162475585938e+01 -2.112472343444824219e+01 -3.033011555671691895e-01 7.296138763427734375e+00 2.097851276397705078e+00 1.361066222190856934e+00
3.705000000000000000e+03 1.226845550537109375e+01 1.544137763977050781e+01 -8.949114999268203974e-06 -5.214801421971060336e-05 -1.832913767430000007e-05 5.874912403669441119e-06
3.706000000000000000e+03 1.924091339111328125e+01 -6.909122467041015625e+00 2.572984695434570312e-01 -1.358356475830078125e-01 3.643884509801864624e-02 2.325871735811233521e-01
3.707000000000000000e+03 6.982547760009765625e+01 -6.593046188354492188e+00 1.243892163038253784e-01 9.083207130432128906e+00 2.762279033660888672e+00 -9.783278703689575195e-01
3.708000000000000000e+03 2.434656906127929688e+01 -1.378938579559326172e+01 3.149887025356292725e-01 -2.775077819824218750e-01 1.124428119510412216e-02 5.979804992675781250e-01
3.709000000000000000e+03 1.764076232910156250e+01 -1.343486309051513672e+01 5.786212682723999023e-01 -1.204733699560165405e-01 1.374443769454956055e-01 3.261937201023101807e-01
3.710000000000000000e+03 6.097992706298828125e+01 1.490067005157470703e+00 -1.361153602600097656e+00 2.103620052337646484e+00 2.227399498224258423e-01 -1.616980552673339844e+00
3.711000000000000000e+03 6.163480377197265625e+01 1.672905802726745605e+00 -1.263882637023925781e+00 2.569903850555419922e+00 3.918063342571258545e-01 -1.748989820480346680e+00
3.712000000000000000e+03 1.221592521667480469e+01 2.521487236022949219e+01 2.240093599539250135e-04 -7.652766362298280001e-05 4.424451253726147115e-05 -1.241574937012046576e-04
3.713000000000000000e+03 5.297705173492431641e+00 2.295131301879882812e+01 2.716109156608581543e-05 4.011973578599281609e-05 2.018424856942147017e-05 -5.490861894941190258e-06
3.714000000000000000e+03 3.837678527832031250e+01 -6.576239585876464844e+00 1.598053932189941406e+00 8.702495574951171875e+00 3.090164661407470703e+00 1.013081312179565430e+00
3.715000000000000000e+03 3.986741638183593750e+01 2.270716905593872070e+00 -1.533616185188293457e+00 1.002445888519287109e+01 2.547252655029296875e+00 1.574174284934997559e+00
3.716000000000000000e+03 3.660969924926757812e+01 -1.643102288246154785e+00 -6.755294203758239746e-01 5.159685134887695312e+00 1.345246791839599609e+00 1.006052732467651367e+00
3.717000000000000000e+03 7.199205780029296875e+01 -2.464237403869628906e+01 6.545751690864562988e-01 1.092650318145751953e+01 3.474323272705078125e+00 -1.169441580772399902e+00
3.718000000000000000e+03 7.547956848144531250e+01 -2.337428092956542969e+01 2.911843955516815186e-01 9.718995094299316406e+00 3.003053903579711914e+00 -1.426717758178710938e+00
3.719000000000000000e+03 3.741511154174804688e+01 -1.426180362701416016e+01 3.434405922889709473e-01 7.232056617736816406e+00 2.272649049758911133e+00 2.192261070013046265e-02
3.720000000000000000e+03 3.693531417846679688e+01 -1.511087226867675781e+01 -1.602997481822967529e-01 6.521877288818359375e+00 1.908473253250122070e+00 1.110967844724655151e-01
3.721000000000000000e+03 7.245563507080078125e+01 -1.443899345397949219e+01 1.247011542320251465e+00 1.122803878784179688e+01 3.742515087127685547e+00 -7.282122373580932617e-01
3.722000000000000000e+03 7.177178955078125000e+01 -1.457800006866455078e+01 1.392978191375732422e+00 1.196274852752685547e+01 4.006717681884765625e+00 -9.456734657287597656e-01
3.723000000000000000e+03 3.060248947143554688e+01 -5.641771316528320312e+00 1.166052818298339844e+00 -1.285422444343566895e-01 3.112531900405883789e-01 -2.746042311191558838e-01
3.724000000000000000e+03 2.764051437377929688e+01 -7.069211959838867188e+00 1.065300226211547852e+00 -4.817003011703491211e-01 1.750799864530563354e-01 -1.498944610357284546e-01
3.725000000000000000e+03 3.861290740966796875e+01 -6.842101216316223145e-01 -1.206868410110473633e+00 8.400666236877441406e+00 2.158139228820800781e+00 9.565185308456420898e-01
3.726000000000000000e+03 3.737835311889648438e+01 -8.865392804145812988e-01 -1.061814546585083008e+00 6.507585525512695312e+00 1.633731365203857422e+00 1.053106188774108887e+00
3.727000000000000000e+03 3.928302383422851562e+01 -2.796507644653320312e+01 3.366401493549346924e-01 5.117032527923583984e+00 1.636101722717285156e+00 -2.087437510490417480e-01
3.728000000000000000e+03 1.353095054626464844e+01 3.523653793334960938e+01 4.578746447805315256e-04 3.870344953611493111e-04 2.534727391321212053e-04 -1.686208852333948016e-04
3.729000000000000000e+03 7.383925437927246094e+00 2.883679389953613281e+01 9.429614146938547492e-05 1.730793737806379795e-04 8.021265239221975207e-05 -2.306772148585878313e-05
3.730000000000000000e+03 7.148748016357421875e+01 -1.283531665802001953e+01 1.213339567184448242e+00 1.163631820678710938e+01 3.854897499084472656e+00 -6.855426430702209473e-01
3.731000000000000000e+03 7.356631469726562500e+01 -1.189090442657470703e+01 6.800544857978820801e-01 9.748535156250000000e+00 3.128576755523681641e+00 2.964235842227935791e-02
3.732000000000000000e+03 6.696515655517578125e+01 -3.651736831665039062e+01 -6.554133296012878418e-01 3.934583663940429688e+00 9.837511181831359863e-01 4.827937781810760498e-01
3.733000000000000000e+03 6.916426086425781250e+01 -3.414120864868164062e+01 -1.230932831764221191e+00 6.337470054626464844e+00 1.531961083412170410e+00 2.957495450973510742e-01
3.734000000000000000e+03 4.133729171752929688e+01 2.713660717010498047e+00 -2.035241365432739258e+00 9.753367424011230469e+00 2.315437793731689453e+00 1.769585728645324707e+00
3.735000000000000000e+03 1.181571197509765625e+01 2.957789421081542969e+01 2.899306709878146648e-04 -7.898364128777757287e-05 6.328411109279841185e-05 -1.554418704472482204e-04
3.736000000000000000e+03 7.535921478271484375e+01 -2.562779045104980469e+01 1.272272914648056030e-01 9.942762374877929688e+00 3.020997047424316406e+00 -1.634861946105957031e+00
3.737000000000000000e+03 1.138646888732910156e+01 3.081014823913574219e+01 2.887437876779586077e-04 -1.978717191377654672e-04 2.726162165345158428e-05 -3.578295581974089146e-04
3.738000000000000000e+03 1.291476726531982422e+01 3.187795639038085938e+01 6.161097553558647633e-04 -5.371164297685027122e-04 2.369800313317682594e-05 4.103163373656570911e-04
3.739000000000000000e+03 6.525024414062500000e+01 9.821477532386779785e-01 -1.166697025299072266e+00 5.143661022186279297e+00 1.193089127540588379e+00 -1.732508659362792969e+00
3.740000000000000000e+03 6.389965438842773438e+01 1.967593431472778320e+00 -1.146989107131958008e+00 4.184565544128417969e+00 9.112728834152221680e-01 -1.893447041511535645e+00
3.741000000000000000e+03 3.206367874145507812e+01 -1.472201824188232422e+01 3.543731868267059326e-01 2.698032855987548828e-01 1.872529387474060059e-01 5.642991662025451660e-01
3.742000000000000000e+03 1.136748790740966797e+01 1.669926261901855469e+01 -6.920634768903255463e-05 -6.053091783542186022e-05 -3.892118184012360871e-05 4.601191903930157423e-05
3.743000000000000000e+03 1.185496330261230469e+01 1.611231994628906250e+01 2.491681152605451643e-05 7.299424760276451707e-05 2.937331919383723289e-05 -3.410377394175156951e-05
3.744000000000000000e+03 2.196390533447265625e+01 -1.435974979400634766e+01 3.088405430316925049e-01 -1.983665227890014648e-01 3.314220905303955078e-02 4.053442180156707764e-01
3.745000000000000000e+03 4.611491775512695312e+01 2.775578880310058594e+01 6.336386203765869141e-01 5.183594226837158203e+00 1.745169758796691895e+00 2.282903492450714111e-01
3.746000000000000000e+03 7.232940673828125000e+01 -1.359157657623291016e+01 1.205271124839782715e+00 1.112983989715576172e+01 3.700533151626586914e+00 -5.671386718750000000e-01
3.747000000000000000e+03 4.127956390380859375e+01 -2.101500129699707031e+01 -4.580344259738922119e-01 6.521271705627441406e+00 1.818971157073974609e+00 2.272579818964004517e-01
3.748000000000000000e+03 3.953009414672851562e+01 -2.213533401489257812e+01 1.696771569550037384e-02 6.793270587921142578e+00 2.043071508407592773e+00 1.129920125007629395e+00
3.749000000000000000e+03 3.134607887268066406e+01 -4.743175983428955078e+00 8.767685294151306152e-01 -2.289295196533203125e-02 2.561626732349395752e-01 -2.892916798591613770e-01
3.750000000000000000e+03 3.326875686645507812e+01 -5.105267047882080078e+00 1.229617357254028320e+00 1.327747464179992676e+00 7.672094702720642090e-01 2.265556007623672485e-01
3.751000000000000000e+03 7.290231323242187500e+01 -2.915777206420898438e+01 -7.020431160926818848e-01 9.862270355224609375e+00 2.748068094253540039e+00 -1.416528463363647461e+00
3.752000000000000000e+03 5.089470386505126953e+00 -3.447349548339843750e+01 -1.071139872074127197e-01 4.725900590419769287e-01 1.096428260207176208e-01 -6.002635881304740906e-02
3.753000000000000000e+03 7.306480407714843750e+01 -1.093943786621093750e+01 5.689271688461303711e-01 9.925034523010253906e+00 3.148188352584838867e+00 9.218184277415275574e-03
3.754000000000000000e+03 3.761153411865234375e+01 -1.711160469055175781e+01 -9.204013943672180176e-01 7.588007450103759766e+00 2.000281810760498047e+00 7.647202014923095703e-01
3.755000000000000000e+03 3.859737777709960938e+01 -1.656425666809082031e+01 -2.748216688632965088e-01 8.405499458312988281e+00 2.439203262329101562e+00 5.244980454444885254e-01
3.756000000000000000e+03 1.464381027221679688e+01 -1.198069572448730469e+01 5.597652792930603027e-01 1.539380997419357300e-01 2.141110002994537354e-01 4.343128800392150879e-01
3.757000000000000000e+03 1.380746364593505859e+01 -1.360293388366699219e+01 8.203582763671875000e-01 2.149304002523422241e-01 3.105866014957427979e-01 4.278964996337890625e-01
3.758000000000000000e+03 6.323023223876953125e+01 1.585022926330566406e+00 -1.191294312477111816e+00 3.736492633819580078e+00 7.635594606399536133e-01 -1.908482074737548828e+00
3.759000000000000000e+03 6.254263305664062500e+01 1.219180226325988770e+00 -1.262822747230529785e+00 3.161582946777343750e+00 5.696280598640441895e-01 -1.856799006462097168e+00
3.760000000000000000e+03 1.026294136047363281e+01 -1.283853340148925781e+01 5.202972888946533203e-01 7.717608809471130371e-01 3.876174390316009521e-01 3.955568075180053711e-01
3.761000000000000000e+03 4.973106861114501953e+00 -9.153909683227539062e+00 -8.728666603565216064e-02 1.052441447973251343e-01 5.387244280427694321e-03 -3.185997009277343750e-01
3.762000000000000000e+03 1.207993888854980469e+01 2.669682884216308594e+01 -2.166770427720621228e-04 -2.294943624292500317e-05 -7.188794552348554134e-05 1.149353774962946773e-04
3.763000000000000000e+03 5.338377952575683594e+00 2.659708404541015625e+01 1.165845060313586146e-05 1.077826163964346051e-05 6.731013854732736945e-06 -8.720092591829597950e-05
3.764000000000000000e+03 3.237892532348632812e+01 -5.259736061096191406e+00 1.238878369331359863e+00 6.698760986328125000e-01 5.726263523101806641e-01 8.198592811822891235e-03
3.765000000000000000e+03 3.945663070678710938e+01 -2.699117469787597656e+01 5.381117463111877441e-01 5.235456466674804688e+00 1.732070446014404297e+00 -1.039348691701889038e-01
3.766000000000000000e+03 3.719256210327148438e+01 -3.065736389160156250e+01 -3.383949697017669678e-01 5.216158390045166016e+00 1.463329076766967773e+00 1.389214545488357544e-01
3.767000000000000000e+03 3.850728225708007812e+01 -3.043431472778320312e+01 -2.986600100994110107e-01 4.931575298309326172e+00 1.389874577522277832e+00 -1.960229426622390747e-01
3.768000000000000000e+03 4.182426452636718750e+01 -2.343026924133300781e+01 3.908317908644676208e-02 4.811038494110107422e+00 1.455036520957946777e+00 -1.080079600214958191e-01
3.769000000000000000e+03 6.568548583984375000e+01 -1.205466747283935547e+00 -1.001816272735595703e+00 5.769353866577148438e+00 1.430261254310607910e+00 -1.551522612571716309e+00
3.770000000000000000e+03 6.717250061035156250e+01 -2.032051086425781250e+00 -7.206946611404418945e-01 6.863197326660156250e+00 1.842750906944274902e+00 -1.206998825073242188e+00
3.771000000000000000e+03 4.639954376220703125e+01 3.506988525390625000e+01 -2.163236886262893677e-01 4.516854763031005859e+00 1.290159344673156738e+00 2.330225408077239990e-01
3.772000000000000000e+03 4.573699951171875000e+01 2.902330780029296875e+01 5.863415002822875977e-01 5.063322067260742188e+00 1.694899082183837891e+00 1.908328980207443237e-01
3.773000000000000000e+03 1.699942588806152344e+01 -1.314881515502929688e+01 6.151565313339233398e-01 -8.480148017406463623e-02 1.591065078973770142e-01 3.555201292037963867e-01
3.774000000000000000e+03 2.362216758728027344e+01 -5.915051937103271484e+00 3.737118542194366455e-01 -2.692463994026184082e-01 3.133963420987129211e-02 -3.847055882215499878e-02
3.775000000000000000e+03 4.194826507568359375e+01 3.482148408889770508e+00 -1.556366324424743652e+00 9.110321998596191406e+00 2.266186475753784180e+00 2.239503622055053711e+00
3.776000000000000000e+03 4.510897827148437500e+01 4.252235412597656250e+00 -1.008616328239440918e+00 3.448359966278076172e+00 7.319231033325195312e-01 2.642214059829711914e+00
3.777000000000000000e+03 3.894732284545898438e+01 -3.190048027038574219e+01 -6.517935991287231445e-01 4.514872550964355469e+00 1.158923745155334473e+00 -2.829055190086364746e-01
3.778000000000000000e+03 9.845506668090820312e+00 -6.163425922393798828e+00 -1.409680843353271484e-01 2.372862696647644043e-01 2.889545448124408722e-02 -2.140778675675392151e-02
3.779000000000000000e+03 6.766292572021484375e+01 -3.225677013397216797e+00 -3.334260582923889160e-01 7.319379806518554688e+00 2.095786094665527344e+00 -1.114800691604614258e+00
3.780000000000000000e+03 6.798711395263671875e+01 -2.270442724227905273e+00 -6.378849148750305176e-01 7.220004081726074219e+00 1.974635720252990723e+00 -1.007006764411926270e+00
3.781000000000000000e+03 1.269703769683837891e+01 2.141105651855468750e+01 1.460750645492225885e-04 3.295956776128150523e-05 5.371038787416182458e-05 -1.593095134921895806e-06
3.782000000000000000e+03 1.244364356994628906e+01 1.990969848632812500e+01 1.381238980684429407e-04 7.224702858366072178e-05 6.311127799563109875e-05 -1.840093318605795503e-05
3.783000000000000000e+03 6.422406768798828125e+01 1.280769944190979004e+00 -1.184874296188354492e+00 4.457279682159423828e+00 9.817216992378234863e-01 -1.865307807922363281e+00
3.784000000000000000e+03 7.372460937500000000e+01 -3.599829864501953125e+01 -5.588943362236022949e-01 9.390419006347656250e+00 2.649457454681396484e+00 -3.907878398895263672e-01
3.785000000000000000e+03 7.490406036376953125e+01 -3.568707275390625000e+01 -4.648413062095642090e-01 1.018822574615478516e+01 2.917015314102172852e+00 -5.061151981353759766e-01
3.786000000000000000e+03 6.586311340332031250e+01 -5.611181259155273438e-01 -1.084490060806274414e+00 5.792194843292236328e+00 1.412311434745788574e+00 -1.560923337936401367e+00
3.787000000000000000e+03 7.460148620605468750e+01 -3.243086242675781250e+01 -6.374420523643493652e-01 1.010723590850830078e+01 2.840938091278076172e+00 -9.904491901397705078e-01
3.788000000000000000e+03 6.000715255737304688e+00 3.551680755615234375e+01 3.907716745743528008e-05 -1.266146136913448572e-04 -2.626123568916227669e-05 -2.710841363295912743e-04
3.789000000000000000e+03 2.523506164550781250e+01 -5.734469413757324219e+00 4.543025195598602295e-01 -3.333395421504974365e-01 3.628889098763465881e-02 -1.846781224012374878e-01
3.790000000000000000e+03 7.338455963134765625e+01 3.475748062133789062e+01 6.300362199544906616e-02 5.207256317138671875e+00 1.581077933311462402e+00 -7.457484304904937744e-02
3.791000000000000000e+03 4.653905105590820312e+01 2.860348510742187500e+01 5.952637195587158203e-01 5.014075279235839844e+00 1.682801723480224609e+00 2.898957133293151855e-01
3.792000000000000000e+03 4.944801330566406250e+00 -3.674414062500000000e+01 1.870646700263023376e-02 5.692772865295410156e-01 1.763951182365417480e-01 -1.082951202988624573e-01
3.793000000000000000e+03 5.167469978332519531e+00 -3.551522064208984375e+01 -4.815810546278953552e-02 4.813963770866394043e-01 1.299714893102645874e-01 -9.899727255105972290e-02
3.794000000000000000e+03 7.450288391113281250e+01 -2.709143638610839844e+01 -6.449446827173233032e-02 1.011396598815917969e+01 3.014841318130493164e+00 -1.703616261482238770e+00
3.795000000000000000e+03 7.328628540039062500e+01 3.641558456420898438e+01 4.714496433734893799e-02 5.199835777282714844e+00 1.574094295501708984e+00 -5.115867406129837036e-02
3.796000000000000000e+03 3.532339096069335938e+01 -3.555381774902343750e+01 -1.165383100509643555e+00 3.899753570556640625e+00 8.203111290931701660e-01 4.262700676918029785e-01
3.797000000000000000e+03 3.754211807250976562e+01 -3.390899658203125000e+01 -1.034706234931945801e+00 4.340948104858398438e+00 9.918724894523620605e-01 2.899650298058986664e-02
3.798000000000000000e+03 7.468128967285156250e+01 -3.145732879638671875e+01 -6.138972043991088867e-01 1.016236114501953125e+01 2.864539146423339844e+00 -1.162281632423400879e+00
3.799000000000000000e+03 4.873817443847656250e+01 -3.326166915893554688e+01 -6.420941948890686035e-01 1.261638522148132324e+00 1.858633011579513550e-01 -4.511147737503051758e-01
3.800000000000000000e+03 7.383313751220703125e+01 -3.133860778808593750e+01 -7.484639286994934082e-01 9.870491981506347656e+00 2.736608266830444336e+00 -1.137269854545593262e+00
3.801000000000000000e+03 7.348451995849609375e+01 -3.472800445556640625e+01 -7.290976643562316895e-01 9.307707786560058594e+00 2.573583126068115234e+00 -5.433684587478637695e-01
3.802000000000000000e+03 4.779521942138671875e+01 -3.211562728881835938e+01 -5.227261185646057129e-01 1.444751381874084473e+00 2.766076028347015381e-01 -4.992505609989166260e-01
3.803000000000000000e+03 6.875829696655273438e+00 -3.351764678955078125e+01 -2.913735508918762207e-01 2.620078809559345245e-02 -7.955183088779449463e-02 4.720319062471389771e-02
3.804000000000000000e+03 1.148109340667724609e+01 2.881138420104980469e+01 1.830431137932464480e-04 -1.682514703134074807e-04 4.437492862052749842e-06 8.321300265379250050e-05
3.805000000000000000e+03 1.220730304718017578e+01 2.842516899108886719e+01 3.726949798874557018e-04 5.247424724075244740e-06 1.133827172452583909e-04 -1.114450788008980453e-05
3.806000000000000000e+03 3.966817092895507812e+01 -2.533801841735839844e+01 6.845642328262329102e-01 5.536592483520507812e+00 1.866346955299377441e+00 2.552928924560546875e-01
3.807000000000000000e+03 4.053832244873046875e+01 -2.437165641784667969e+01 4.189809858798980713e-01 5.351943016052246094e+00 1.731277227401733398e+00 2.452597916126251221e-01
3.808000000000000000e+03 3.935167694091796875e+01 -2.430893135070800781e+01 7.020915746688842773e-01 5.998602867126464844e+00 2.010208368301391602e+00 6.589296460151672363e-01
3.809000000000000000e+03 3.264363098144531250e+01 -3.603490066528320312e+01 -9.003827571868896484e-01 3.043201208114624023e+00 6.428455710411071777e-01 7.731112837791442871e-01
3.810000000000000000e+03 2.310427093505859375e+01 -3.847324752807617188e+01 -2.078263908624649048e-01 2.218520194292068481e-01 4.207693040370941162e-03 1.437550485134124756e-01
3.811000000000000000e+03 2.453605842590332031e+01 -3.720655441284179688e+01 -2.610319852828979492e-01 4.360714256763458252e-01 5.251183733344078064e-02 1.954921483993530273e-01
3.812000000000000000e+03 7.481832981109619141e+00 -3.639410781860351562e+01 -1.635746844112873077e-02 7.162313163280487061e-02 1.657969877123832703e-02 -1.188510190695524216e-02
3.813000000000000000e+03 4.728987884521484375e+01 -3.748353958129882812e+01 -7.969201207160949707e-01 1.771127700805664062e+00 2.922622859477996826e-01 -4.208739399909973145e-01
3.814000000000000000e+03 4.475785827636718750e+01 3.543698883056640625e+01 -2.729968130588531494e-01 4.265473842620849609e+00 1.197743058204650879e+00 7.354883104562759399e-02
3.815000000000000000e+03 7.359766483306884766e+00 -3.529521942138671875e+01 -1.215490177273750305e-01 2.756618522107601166e-02 -2.819485031068325043e-02 5.663592834025621414e-03
3.816000000000000000e+03 1.758964157104492188e+01 -4.157355117797851562e+01 -2.303578890860080719e-02 -2.713373601436614990e-01 -8.831194043159484863e-02 9.877112694084644318e-03
3.817000000000000000e+03 2.802485084533691406e+01 -4.130351257324218750e+01 -5.297508239746093750e-01 1.433652400970458984e+00 2.711704671382904053e-01 1.309134960174560547e-01
3.818000000000000000e+03 2.185140800476074219e+01 -4.142303466796875000e+01 -1.499404311180114746e-01 2.139369845390319824e-01 1.919896341860294342e-02 3.423077985644340515e-02
3.819000000000000000e+03 2.026656723022460938e+01 -3.764597702026367188e+01 -2.408135980367660522e-01 -6.656424701213836670e-02 -9.221335500478744507e-02 9.925206750631332397e-02
3.820000000000000000e+03 7.093779754638671875e+01 -3.639477920532226562e+01 -7.528213262557983398e-01 7.180498600006103516e+00 1.928303241729736328e+00 5.459714680910110474e-02
3.821000000000000000e+03 6.782217407226562500e+01 -3.957612609863281250e+01 -1.318599879741668701e-01 4.464483261108398438e+00 1.299787044525146484e+00 2.605571448802947998e-01
3.822000000000000000e+03 5.847998046875000000e+01 -3.835241699218750000e+01 -1.305442154407501221e-01 -4.746824502944946289e-01 -1.815679967403411865e-01 -2.771981656551361084e-01
3.823000000000000000e+03 7.218055725097656250e+00 3.547923278808593750e+01 3.025804471690207720e-05 2.796483167912811041e-04 9.297190263168886304e-05 -1.875596499303355813e-04
3.824000000000000000e+03 1.461006259918212891e+01 3.531047821044921875e+01 -2.553968806751072407e-04 -1.028380007483065128e-03 -3.851330548059195280e-04 -8.728795801289379597e-04
3.825000000000000000e+03 4.877353668212890625e+01 -3.576668548583984375e+01 -7.057101726531982422e-01 1.371468782424926758e+00 1.997275948524475098e-01 -4.940981864929199219e-01
3.826000000000000000e+03 1.582095718383789062e+01 -3.735040664672851562e+01 -2.308134734630584717e-01 -2.809700071811676025e-01 -1.535350382328033447e-01 1.131827831268310547e-01
3.827000000000000000e+03 2.002910804748535156e+01 -7.728921890258789062e+00 3.572721183300018311e-01 -1.931445747613906860e-01 4.923826083540916443e-02 2.471309751272201538e-01
3.828000000000000000e+03 2.354215621948242188e+01 -1.454663562774658203e+01 1.998580098152160645e-01 -2.010438442230224609e-01 -3.557542804628610611e-04 5.120476484298706055e-01
3.829000000000000000e+03 1.912107849121093750e+01 -1.318788719177246094e+01 5.110208988189697266e-01 -1.811486482620239258e-01 9.896168112754821777e-02 3.499935269355773926e-01
3.830000000000000000e+03 3.811905670166015625e+01 -1.763055038452148438e+01 -9.787691235542297363e-01 7.985227108001708984e+00 2.101937294006347656e+00 9.851675033569335938e-01
3.831000000000000000e+03 2.501529312133789062e+01 -1.312735462188720703e+01 4.496829807758331299e-01 -3.489663898944854736e-01 3.021497651934623718e-02 6.471346616744995117e-01
3.832000000000000000e+03 1.056278610229492188e+01 -8.743848800659179688e+00 1.588772237300872803e-02 4.162024259567260742e-01 1.296270489692687988e-01 1.172902807593345642e-01
3.833000000000000000e+03 2.324881172180175781e+01 -1.277140426635742188e+01 4.852317273616790771e-01 -3.197816312313079834e-01 4.963502287864685059e-02 4.999981522560119629e-01
3.834000000000000000e+03 2.686759757995605469e+01 -6.304491996765136719e+00 7.638596892356872559e-01 -4.519168138504028320e-01 9.358286857604980469e-02 -2.407486736774444580e-01
3.835000000000000000e+03 1.504120922088623047e+01 6.664560794830322266e+00 5.224323558650212362e-06 1.556502684252336621e-05 6.236805347725749016e-06 5.382740255299722776e-06
3.836000000000000000e+03 4.802193641662597656e+00 -1.581395339965820312e+01 4.312085211277008057e-01 5.274166464805603027e-01 2.875875532627105713e-01 -5.984936654567718506e-02
3.837000000000000000e+03 6.123765468597412109e+00 -1.641495895385742188e+01 8.123724460601806641e-01 1.220920443534851074e+00 6.099878549575805664e-01 2.620999813079833984e-01
3.838000000000000000e+03 1.206301212310791016e+01 2.230125808715820312e+01 1.204599175252951682e-04 8.963573236542288214e-06 3.882704550051130354e-05 -7.494994406442856416e-06
3.839000000000000000e+03 1.183110713958740234e+01 1.847877693176269531e+01 1.514338509878143668e-04 6.267741991905495524e-05 6.423338345484808087e-05 -7.779635780025273561e-06
3.840000000000000000e+03 1.139562797546386719e+01 2.312332534790039062e+01 1.323090982623398304e-04 -7.715127139817923307e-05 1.654735024203546345e-05 -3.151218834318569861e-06
3.841000000000000000e+03 1.077197456359863281e+01 2.258610343933105469e+01 5.506547313416376710e-05 8.679819438839331269e-05 4.255909880157560110e-05 -6.002516101943911053e-07
3.842000000000000000e+03 1.446284866333007812e+01 6.437163352966308594e+00 -3.351775603732676245e-06 -1.531435373181011528e-05 -5.599838459602324292e-06 -2.722804310906212777e-06
3.843000000000000000e+03 1.201305580139160156e+01 -6.951018333435058594e+00 -3.705630451440811157e-02 2.328333556652069092e-01 5.873311683535575867e-02 1.347192525863647461e-01
3.844000000000000000e+03 1.129336357116699219e+01 -6.226536273956298828e+00 -1.018688976764678955e-01 2.149359136819839478e-01 3.392010554671287537e-02 6.818565726280212402e-02
3.845000000000000000e+03 2.271961593627929688e+01 -7.550531864166259766e+00 5.105808377265930176e-01 -3.275332152843475342e-01 5.491428822278976440e-02 1.386899650096893311e-01
3.846000000000000000e+03 2.068729209899902344e+01 -1.453892421722412109e+01 3.575226962566375732e-01 -1.738306879997253418e-01 5.510760471224784851e-02 3.257297277450561523e-01
3.847000000000000000e+03 2.127803421020507812e+01 -1.447857761383056641e+01 3.412482142448425293e-01 -1.808320581912994385e-01 4.812484234571456909e-02 3.455937206745147705e-01
3.848000000000000000e+03 3.686409378051757812e+01 -1.301414203643798828e+01 8.117759227752685547e-01 6.454200744628906250e+00 2.179792881011962891e+00 6.011042371392250061e-02
3.849000000000000000e+03 1.389333820343017578e+01 6.262950420379638672e+00 -1.971871142814052291e-06 1.931346196215599775e-05 5.202477495913626626e-06 -2.310326408405671827e-06
3.850000000000000000e+03 5.381134414672851562e+01 4.471164703369140625e+00 -1.312733530998229980e+00 7.126382589340209961e-01 -1.800285726785659790e-01 -5.300990939140319824e-01
3.851000000000000000e+03 5.240967941284179688e+01 3.353576660156250000e+00 -2.428227663040161133e+00 5.028070211410522461e-01 -5.776261687278747559e-01 -2.241994738578796387e-01
3.852000000000000000e+03 3.952209091186523438e+01 -2.312172889709472656e+01 3.867062032222747803e-01 6.360599040985107422e+00 2.024191617965698242e+00 9.232424497604370117e-01
3.853000000000000000e+03 4.062031555175781250e+01 -2.211882400512695312e+01 -1.477984338998794556e-01 6.243366718292236328e+00 1.828670501708984375e+00 5.885604023933410645e-01
3.854000000000000000e+03 7.353442382812500000e+01 -2.939672088623046875e+01 -6.244081854820251465e-01 9.972551345825195312e+00 2.804443120956420898e+00 -1.457082509994506836e+00
3.855000000000000000e+03 7.442964935302734375e+01 -2.790498733520507812e+01 -2.146763354539871216e-01 1.013197898864746094e+01 2.975190639495849609e+00 -1.674457311630249023e+00
3.856000000000000000e+03 7.103746032714843750e+01 -9.195220947265625000e+00 2.971046864986419678e-01 1.027474117279052734e+01 3.171553850173950195e+00 -6.266660094261169434e-01
3.857000000000000000e+03 7.062754058837890625e+01 -6.859746932983398438e+00 4.479783400893211365e-02 9.228504180908203125e+00 2.781990766525268555e+00 -6.640473604202270508e-01
3.858000000000000000e+03 5.435860157012939453e+00 2.864249038696289062e+01 8.015288767637684941e-05 6.291165482252836227e-05 4.291936420486308634e-05 -7.453411672031506896e-05
3.859000000000000000e+03 3.931934356689453125e+01 -4.997901439666748047e+00 9.708541631698608398e-01 1.009083747863769531e+01 3.318507432937622070e+00 1.375549077987670898e+00
3.860000000000000000e+03 3.873337554931640625e+01 -4.163308620452880859e+00 6.592156291007995605e-01 8.857393264770507812e+00 2.854982852935791016e+00 1.233581781387329102e+00
3.861000000000000000e+03 4.798997116088867188e+01 2.380576896667480469e+01 7.950636744499206543e-01 5.192361831665039062e+00 1.796227693557739258e+00 6.166161298751831055e-01
3.862000000000000000e+03 3.721292495727539062e+01 -1.654280471801757812e+01 -8.612468838691711426e-01 7.107409954071044922e+00 1.873848915100097656e+00 4.706459939479827881e-01
3.863000000000000000e+03 5.432702541351318359e+00 7.602833747863769531e+00 1.394234550389228389e-05 -4.279845143173588440e-06 2.898750153690343723e-06 -3.987631316704209894e-06
3.864000000000000000e+03 7.051091194152832031e+00 6.770390987396240234e+00 -1.413970494468230754e-05 5.466184802571660839e-07 -4.077925950696226209e-06 6.590342763956869021e-06
3.865000000000000000e+03 8.695313453674316406e+00 5.922938823699951172e+00 1.030876956065185368e-05 4.941025963489664719e-06 4.574938429868780077e-06 -7.121188900782726705e-06
3.866000000000000000e+03 3.834725570678710938e+01 -2.595288753509521484e+00 -1.152453422546386719e-01 8.070095062255859375e+00 2.386455059051513672e+00 1.036549091339111328e+00
3.867000000000000000e+03 4.719296264648437500e+01 2.474103736877441406e+01 6.926258802413940430e-01 5.315223217010498047e+00 1.802354693412780762e+00 4.824613034725189209e-01
3.868000000000000000e+03 7.383022308349609375e+01 2.998277664184570312e+01 9.756292402744293213e-02 5.280391216278076172e+00 1.613386273384094238e+00 -1.824335455894470215e-01
3.869000000000000000e+03 7.360671234130859375e+01 2.908804512023925781e+01 1.142099648714065552e-01 5.284461975097656250e+00 1.619601607322692871e+00 -2.130431234836578369e-01
3.870000000000000000e+03 1.308803272247314453e+01 -1.268205261230468750e+01 6.398300528526306152e-01 3.517225086688995361e-01 2.974657714366912842e-01 4.532172977924346924e-01
3.871000000000000000e+03 4.604732131958007812e+01 2.213423156738281250e+01 6.145383119583129883e-01 5.812713146209716797e+00 1.928175449371337891e+00 7.276350259780883789e-01
3.872000000000000000e+03 4.699171829223632812e+01 2.296268272399902344e+01 7.154611945152282715e-01 5.489766597747802734e+00 1.861568212509155273e+00 6.637244820594787598e-01
3.873000000000000000e+03 7.434641265869140625e+01 -2.872925376892089844e+01 -3.780396282672882080e-01 1.012839603424072266e+01 2.925107002258300781e+00 -1.598518610000610352e+00
3.874000000000000000e+03 7.299403381347656250e+01 -3.109043884277343750e+01 -8.988336920738220215e-01 9.590521812438964844e+00 2.607506513595581055e+00 -1.086174488067626953e+00
3.875000000000000000e+03 2.640764808654785156e+01 -1.348006343841552734e+01 4.625229537487030029e-01 -3.624291419982910156e-01 3.002814389765262604e-02 7.753168344497680664e-01
3.876000000000000000e+03 1.272117900848388672e+01 -7.020349979400634766e+00 2.285259688505902886e-04 2.024609148502349854e-01 6.080683320760726929e-02 1.748348921537399292e-01
3.877000000000000000e+03 1.273946189880371094e+01 -6.353211402893066406e+00 -4.569530487060546875e-02 1.711115092039108276e-01 3.762486204504966736e-02 1.480719298124313354e-01
3.878000000000000000e+03 5.601806640625000000e+00 2.908609008789062500e+01 6.499294249806553125e-05 1.086137999664060771e-04 5.208202492212876678e-05 -3.524375642882660031e-05
3.879000000000000000e+03 4.680700302124023438e+01 2.126600646972656250e+01 7.915860414505004883e-01 5.618563175201416016e+00 1.923044800758361816e+00 9.020949006080627441e-01
3.880000000000000000e+03 2.999549674987792969e+01 -1.454854202270507812e+01 2.269620299339294434e-01 -2.966434359550476074e-01 -2.090442553162574768e-02 1.025819897651672363e+00
3.881000000000000000e+03 3.066799736022949219e+01 -1.421840190887451172e+01 5.001675486564636230e-01 -2.274459451436996460e-01 8.181648701429367065e-02 9.034276604652404785e-01
3.882000000000000000e+03 6.228818130493164062e+01 1.942268371582031250e+00 -1.175811409950256348e+00 3.052000761032104492e+00 5.628567934036254883e-01 -1.857257008552551270e+00
3.883000000000000000e+03 8.028133392333984375e+00 -6.173008918762207031e+00 -1.578900963068008423e-01 2.085744440555572510e-01 1.520530134439468384e-02 -1.362022012472152710e-01
3.884000000000000000e+03 7.440914916992187500e+01 2.168079185485839844e+01 1.268477439880371094e-01 5.605038642883300781e+00 1.719565868377685547e+00 -4.565769135951995850e-01
3.885000000000000000e+03 7.392417907714843750e+01 2.721265029907226562e+01 1.177345886826515198e-01 5.347469329833984375e+00 1.639561176300048828e+00 -2.625373601913452148e-01
3.886000000000000000e+03 7.426321411132812500e+01 2.447940826416015625e+01 1.279376298189163208e-01 5.452531814575195312e+00 1.674140810966491699e+00 -3.571410179138183594e-01
3.887000000000000000e+03 7.447812652587890625e+01 1.524228000640869141e+01 6.996788829565048218e-02 6.088905811309814453e+00 1.847662091255187988e+00 -6.925727128982543945e-01
3.888000000000000000e+03 7.379387664794921875e+01 2.097085380554199219e+01 1.515538543462753296e-01 5.583412170410156250e+00 1.720489740371704102e+00 -5.247430205345153809e-01
3.889000000000000000e+03 4.126622009277343750e+01 -2.273742485046386719e+01 -6.911659985780715942e-02 5.532612800598144531e+00 1.639048933982849121e+00 2.095287889242172241e-01
3.890000000000000000e+03 3.995547485351562500e+01 -2.374319839477539062e+01 4.238037467002868652e-01 5.893387317657470703e+00 1.895157337188720703e+00 6.136588454246520996e-01
3.891000000000000000e+03 4.672002410888671875e+01 2.042529106140136719e+01 8.629144430160522461e-01 5.657518386840820312e+00 1.956129789352416992e+00 1.032837986946105957e+00
3.892000000000000000e+03 4.570389938354492188e+01 1.791306114196777344e+01 1.032488107681274414e+00 6.123933315277099609e+00 2.146926403045654297e+00 1.469579577445983887e+00
3.893000000000000000e+03 7.530413055419921875e+01 2.595287895202636719e+01 8.149328827857971191e-02 5.466434001922607422e+00 1.664378166198730469e+00 -2.596539556980133057e-01
3.894000000000000000e+03 7.379191589355468750e+01 2.400887298583984375e+01 1.471810489892959595e-01 5.443335056304931641e+00 1.677154898643493652e+00 -3.980758488178253174e-01
3.895000000000000000e+03 7.541822052001953125e+01 -2.108042526245117188e+01 3.626880943775177002e-01 9.603408813476562500e+00 2.989829063415527344e+00 -1.210779666900634766e+00
3.896000000000000000e+03 7.420454406738281250e+01 -2.205472755432128906e+01 4.394797086715698242e-01 1.031148910522460938e+01 3.225290775299072266e+00 -1.296479463577270508e+00
3.897000000000000000e+03 7.511991119384765625e+01 1.685116386413574219e+01 7.812172919511795044e-02 6.040530681610107422e+00 1.835595607757568359e+00 -5.871983170509338379e-01
3.898000000000000000e+03 6.034493923187255859e+00 2.219710540771484375e+01 3.322224802104756236e-05 2.743572986219078302e-05 1.819739372876938432e-05 1.008736671792576090e-05
3.899000000000000000e+03 4.468878936767578125e+01 3.526980638504028320e+00 -1.922486186027526855e+00 4.099818706512451172e+00 6.531997919082641602e-01 2.757825613021850586e+00
3.900000000000000000e+03 4.603977584838867188e+01 4.221367359161376953e+00 -9.928939342498779297e-01 1.888288378715515137e+00 2.686183452606201172e-01 2.184101343154907227e+00
3.901000000000000000e+03 7.451179504394531250e+01 1.049909496307373047e+01 -6.053611636161804199e-02 6.585531234741210938e+00 1.957498550415039062e+00 -7.241786718368530273e-01
3.902000000000000000e+03 7.457854461669921875e+01 8.078187942504882812e+00 -1.548447161912918091e-01 6.876865863800048828e+00 2.016606330871582031e+00 -6.496937870979309082e-01
3.903000000000000000e+03 4.629548549652099609e+00 2.137899971008300781e+01 4.331657237344188616e-06 -2.248939836135832593e-06 6.248151862564554904e-07 -3.582272029234445654e-06
3.904000000000000000e+03 5.324564933776855469e+00 2.216652107238769531e+01 8.300149602291639894e-06 -1.365435309708118439e-05 -1.606261093911598437e-06 -1.490309841756243259e-05
3.905000000000000000e+03 7.284700012207031250e+01 -2.375209236145019531e+01 5.818711519241333008e-01 1.081156921386718750e+01 3.418031930923461914e+00 -1.282831311225891113e+00
3.906000000000000000e+03 7.443244171142578125e+01 1.603460884094238281e+01 8.845209330320358276e-02 6.007325649261474609e+00 1.828733325004577637e+00 -6.726304292678833008e-01
3.907000000000000000e+03 7.459529113769531250e+01 -2.629671859741210938e+01 6.261748075485229492e-02 1.008812904357910156e+01 3.045223712921142578e+00 -1.698203206062316895e+00
3.908000000000000000e+03 7.458726501464843750e+01 7.280040264129638672e+00 -1.877937018871307373e-01 6.974564075469970703e+00 2.036031007766723633e+00 -6.139588356018066406e-01
3.909000000000000000e+03 7.472618103027343750e+01 4.502855241298675537e-02 -3.556496798992156982e-01 7.763073444366455078e+00 2.222227096557617188e+00 2.570153027772903442e-02
3.910000000000000000e+03 7.310553741455078125e+01 -2.024741935729980469e+01 5.049266815185546875e-01 1.130323696136474609e+01 3.542448997497558594e+00 -1.149938106536865234e+00
3.911000000000000000e+03 7.405086517333984375e+01 -2.143938636779785156e+01 4.686298072338104248e-01 1.047894859313964844e+01 3.284273386001586914e+00 -1.233766198158264160e+00
3.912000000000000000e+03 7.448775482177734375e+01 1.130247211456298828e+01 -3.290957957506179810e-02 6.493930816650390625e+00 1.938306331634521484e+00 -7.306028008460998535e-01
3.913000000000000000e+03 7.341739654541015625e+01 -2.506659698486328125e+01 3.704972267150878906e-01 1.037623786926269531e+01 3.224020719528198242e+00 -1.556860923767089844e+00
3.914000000000000000e+03 1.022465896606445312e+01 8.198518753051757812e+00 -1.152171171270310879e-05 -1.230045472766505554e-05 -7.146649750211508945e-06 1.377938588120741770e-05
3.915000000000000000e+03 7.528352355957031250e+01 8.866312026977539062e+00 -1.009770631790161133e-01 6.926686286926269531e+00 2.047712802886962891e+00 -5.974304080009460449e-01
3.916000000000000000e+03 7.541883087158203125e+01 -2.030439567565917969e+01 3.782796263694763184e-01 9.542268753051757812e+00 2.976164579391479492e+00 -1.126443028450012207e+00
3.917000000000000000e+03 7.483441162109375000e+01 -2.268502616882324219e+01 3.661939203739166260e-01 9.974922180175781250e+00 3.102334737777709961e+00 -1.383543848991394043e+00
3.918000000000000000e+03 7.473867797851562500e+01 8.966120481491088867e-01 -3.490916490554809570e-01 7.693783760070800781e+00 2.203407764434814453e+00 -5.463372543454170227e-02
3.919000000000000000e+03 7.539669799804687500e+01 1.683195948600769043e+00 -2.827373743057250977e-01 7.692142963409423828e+00 2.222821712493896484e+00 -7.928353548049926758e-02
3.920000000000000000e+03 5.982564449310302734e+00 -8.170610427856445312e+00 -1.131473183631896973e-01 1.955114006996154785e-01 2.470922283828258514e-02 -2.626984715461730957e-01
3.921000000000000000e+03 7.468754577636718750e+01 -7.177033424377441406e+00 -3.219517692923545837e-02 8.481944084167480469e+00 2.534924745559692383e+00 4.759229421615600586e-01
3.922000000000000000e+03 7.472292327880859375e+01 -6.387524604797363281e+00 -9.524948894977569580e-02 8.388863563537597656e+00 2.488084316253662109e+00 4.683882594108581543e-01
3.923000000000000000e+03 7.546620178222656250e+01 -5.627874374389648438e+00 -1.182601004838943481e-01 8.146177291870117188e+00 2.408375024795532227e+00 5.082693099975585938e-01
3.924000000000000000e+03 7.412023925781250000e+01 -5.550781250000000000e+00 -1.676307618618011475e-01 8.406114578247070312e+00 2.471545219421386719e+00 3.679337501525878906e-01
3.925000000000000000e+03 5.369825363159179688e+00 3.264200210571289062e+01 7.181244291132315993e-05 -7.060816278681159019e-05 3.612844636791123776e-07 -1.522695092717185616e-04
3.926000000000000000e+03 7.396215057373046875e+01 -1.493402290344238281e+01 9.063841104507446289e-01 1.001680946350097656e+01 3.276957988739013672e+00 -5.252934694290161133e-01
3.927000000000000000e+03 7.271772766113281250e+01 -1.692682647705078125e+01 9.261087179183959961e-01 1.151806163787841797e+01 3.733251094818115234e+00 -1.102393269538879395e+00
3.928000000000000000e+03 6.850292968750000000e+01 -4.254610538482666016e+00 -6.609651446342468262e-02 7.856932163238525391e+00 2.337250709533691406e+00 -1.027914643287658691e+00
3.929000000000000000e+03 7.504539489746093750e+01 1.926641464233398438e+01 9.770810604095458984e-02 5.834566593170166016e+00 1.779682517051696777e+00 -5.123308300971984863e-01
3.930000000000000000e+03 7.379608154296875000e+01 1.522195816040039062e+01 9.166938811540603638e-02 5.970683097839355469e+00 1.818705797195434570e+00 -7.524077296257019043e-01
3.931000000000000000e+03 7.546778869628906250e+01 -1.870078659057617188e+01 4.245975613594055176e-01 9.347226142883300781e+00 2.931547164916992188e+00 -9.520801305770874023e-01
3.932000000000000000e+03 7.533869171142578125e+01 -1.381028079986572266e+01 5.849096775054931641e-01 8.803931236267089844e+00 2.816652297973632812e+00 -8.762262761592864990e-02
3.933000000000000000e+03 7.468119049072265625e+01 -1.476633739471435547e+01 7.518845200538635254e-01 9.414095878601074219e+00 3.049793958663940430e+00 -3.692593276500701904e-01
3.934000000000000000e+03 7.547288513183593750e+01 -1.790245056152343750e+01 4.742692410945892334e-01 9.234688758850097656e+00 2.912687301635742188e+00 -8.451486229896545410e-01
3.935000000000000000e+03 7.422108459472656250e+01 -1.890349197387695312e+01 5.470593571662902832e-01 1.032279586791992188e+01 3.260956525802612305e+00 -1.094981074333190918e+00
3.936000000000000000e+03 7.474706268310546875e+01 2.569052696228027344e+00 -3.357366025447845459e-01 7.527495384216308594e+00 2.157527685165405273e+00 -2.316024601459503174e-01
3.937000000000000000e+03 7.536090087890625000e+01 -1.014175319671630859e+01 2.426906526088714600e-01 8.484980583190917969e+00 2.618301153182983398e+00 4.422938525676727295e-01
3.938000000000000000e+03 7.460616302490234375e+01 -1.395368289947509766e+01 7.344582676887512207e-01 9.351520538330078125e+00 3.025793790817260742e+00 -2.062261700630187988e-01
3.939000000000000000e+03 7.527574920654296875e+01 -1.297029209136962891e+01 5.319263935089111328e-01 8.762347221374511719e+00 2.788282155990600586e+00 7.462190091609954834e-02
3.940000000000000000e+03 7.416014099121093750e+01 -1.194389152526855469e+01 6.375489234924316406e-01 9.427507400512695312e+00 3.019516944885253906e+00 1.005209982395172119e-01
3.941000000000000000e+03 7.543727111816406250e+01 -9.473523139953613281e+00 1.568676531314849854e-01 8.388951301574707031e+00 2.563745737075805664e+00 4.952432215213775635e-01
3.942000000000000000e+03 7.471015167236328125e+01 -8.682815551757812500e+00 9.840204566717147827e-02 8.652118682861328125e+00 2.625156402587890625e+00 4.591567814350128174e-01
3.943000000000000000e+03 7.351655578613281250e+01 -9.209927558898925781e+00 2.046720236539840698e-01 9.230487823486328125e+00 2.830548048019409180e+00 2.341380566358566284e-01
3.944000000000000000e+03 7.409066009521484375e+01 -1.656283187866210938e+01 7.923063039779663086e-01 1.018347740173339844e+01 3.292735099792480469e+00 -8.252964615821838379e-01
3.945000000000000000e+03 7.400664520263671875e+01 4.180096626281738281e+00 -3.545657098293304443e-01 7.236333370208740234e+00 2.064530372619628906e+00 -4.624088108539581299e-01
3.946000000000000000e+03 7.422292327880859375e+01 -2.350714302062988281e+01 4.067702591419219971e-01 1.023209285736083984e+01 3.191658973693847656e+00 -1.468440651893615723e+00
3.947000000000000000e+03 4.656413078308105469e+00 2.673719596862792969e+01 6.049141666153445840e-05 2.420032978989183903e-05 2.540752393542788923e-05 -1.629242615308612585e-05
3.948000000000000000e+03 7.545177459716796875e+01 -2.428997993469238281e+00 -2.493246793746948242e-01 7.964960575103759766e+00 2.314690589904785156e+00 3.093978762626647949e-01
3.949000000000000000e+03 7.205875396728515625e+01 -4.895094394683837891e+00 -2.507644295692443848e-01 8.510034561157226562e+00 2.477780818939208984e+00 -5.627792328596115112e-02
3.950000000000000000e+03 7.543538665771484375e+01 -2.487680435180664062e+01 2.088403403759002686e-01 9.852863311767578125e+00 3.018511295318603516e+00 -1.580626010894775391e+00
3.951000000000000000e+03 7.465937805175781250e+01 -8.203024268150329590e-01 -3.552786111831665039e-01 7.848195075988769531e+00 2.247874975204467773e+00 1.077412217855453491e-01
3.952000000000000000e+03 5.434464454650878906e+00 2.803894805908203125e+01 6.720725650666281581e-05 -7.602816913276910782e-05 -2.646273514983477071e-06 -1.238375116372480989e-04
3.953000000000000000e+03 4.567747116088867188e+00 2.522967338562011719e+01 4.739507858175784349e-05 1.959286964847706258e-05 2.009638410527259111e-05 -2.683626735233701766e-05
3.954000000000000000e+03 6.151910305023193359e+00 2.802563667297363281e+01 1.514135365141555667e-04 1.084094328689388931e-04 7.794689008733257651e-05 -3.479707811493426561e-05
3.955000000000000000e+03 7.534275817871093750e+01 4.891886711120605469e+00 -2.222758084535598755e-01 7.383063316345214844e+00 2.148236274719238281e+00 -3.741556406021118164e-01
3.956000000000000000e+03 7.472016906738281250e+01 3.360834836959838867e+00 -3.184710443019866943e-01 7.441006660461425781e+00 2.136760711669921875e+00 -3.074477314949035645e-01
3.957000000000000000e+03 7.465625000000000000e+01 -1.717092394828796387e+00 -3.325023353099822998e-01 7.927165031433105469e+00 2.278398752212524414e+00 1.926303654909133911e-01
3.958000000000000000e+03 7.459926605224609375e+01 6.490345954895019531e+00 -2.181483060121536255e-01 7.068723201751708984e+00 2.055172443389892578e+00 -5.656142234802246094e-01
3.959000000000000000e+03 4.636498928070068359e+00 2.057704925537109375e+01 8.087944479484576732e-06 9.284617590310517699e-06 5.211768439039587975e-06 -8.191504093701951206e-06
3.960000000000000000e+03 4.039360046386718750e+01 -3.131577491760253906e+01 -5.007520318031311035e-01 4.174013137817382812e+00 1.101978302001953125e+00 -5.257963538169860840e-01
3.961000000000000000e+03 7.358337402343750000e+01 -1.910433959960937500e+01 5.680475831031799316e-01 1.090198230743408203e+01 3.441009044647216797e+00 -1.128298282623291016e+00
3.962000000000000000e+03 7.462346649169921875e+01 5.704657554626464844e+00 -2.487137615680694580e-01 7.164113521575927734e+00 2.074619770050048828e+00 -5.144216418266296387e-01
3.963000000000000000e+03 5.292304515838623047e+00 -7.863535404205322266e+00 -1.128536984324455261e-01 9.826217591762542725e-02 -4.377456847578287125e-03 -2.902523875236511230e-01
3.964000000000000000e+03 7.522408294677734375e+01 1.207225513458251953e+01 -9.435849264264106750e-03 6.548846721649169922e+00 1.961823225021362305e+00 -6.532912850379943848e-01
3.965000000000000000e+03 7.447201538085937500e+01 1.209559249877929688e+01 -1.059518195688724518e-02 6.408059120178222656e+00 1.919239163398742676e+00 -7.365770339965820312e-01
3.966000000000000000e+03 6.228116989135742188e+00 1.913254165649414062e+01 5.127719487063586712e-05 4.724583050119690597e-05 2.955690797534771264e-05 -1.495316610089503229e-05
3.967000000000000000e+03 4.650423431396484375e+01 2.662854385375976562e+01 6.433781385421752930e-01 5.264532566070556641e+00 1.772373199462890625e+00 2.881640493869781494e-01
3.968000000000000000e+03 7.463687133789062500e+01 2.553549957275390625e+01 1.054824739694595337e-01 5.441822528839111328e+00 1.664191484451293945e+00 -2.981962561607360840e-01
3.969000000000000000e+03 7.384074401855468750e+01 2.510800170898437500e+01 1.397327631711959839e-01 5.399244308471679688e+00 1.661693215370178223e+00 -3.419205248355865479e-01
3.970000000000000000e+03 4.641976356506347656e+00 -1.043520927429199219e+01 -6.500025838613510132e-02 8.982776105403900146e-02 7.448250427842140198e-03 -3.471092879772186279e-01
3.971000000000000000e+03 5.326412200927734375e+00 2.137156295776367188e+01 2.794529063976369798e-05 4.790632829099195078e-06 9.820776540436781943e-06 1.055375378200551495e-06
3.972000000000000000e+03 4.723428249359130859e+00 1.891234970092773438e+01 -1.040077131619909778e-05 1.697614607110153884e-05 1.972612380995997228e-06 -6.426513209589757025e-06
3.973000000000000000e+03 1.057649135589599609e+01 -6.185698509216308594e+00 -1.218171343207359314e-01 2.296207547187805176e-01 3.234108537435531616e-02 2.526097558438777924e-02
3.974000000000000000e+03 8.347677230834960938e+00 -6.762763977050781250e+00 -1.405887305736541748e-01 2.569989860057830811e-01 3.492307662963867188e-02 -1.114033833146095276e-01
3.975000000000000000e+03 4.562656879425048828e+00 1.313728237152099609e+01 2.817534368659835309e-05 -8.634249752503819764e-06 5.862328180228359997e-06 3.755194939003558829e-06
3.976000000000000000e+03 5.257609367370605469e+00 1.460311889648437500e+01 -4.617052763933315873e-05 1.867030005087144673e-05 -8.250068276538513601e-06 5.482024789671413600e-07
3.977000000000000000e+03 1.316681003570556641e+01 1.132170963287353516e+01 1.108414721784356516e-06 6.410103651433018968e-06 2.255555500596528873e-06 -3.084611762460554019e-06
3.978000000000000000e+03 4.423567771911621094e+00 -1.492863559722900391e+01 2.820746898651123047e-01 2.907740175724029541e-01 1.718546152114868164e-01 -2.019898742437362671e-01
3.979000000000000000e+03 6.391677379608154297e+00 -1.256647586822509766e+01 1.085408776998519897e-01 6.691459417343139648e-01 2.333060503005981445e-01 -1.520151793956756592e-01
3.980000000000000000e+03 4.527187824249267578e+00 -1.646503067016601562e+01 4.873222708702087402e-01 4.941566884517669678e-01 2.944436967372894287e-01 2.335610054433345795e-02
3.981000000000000000e+03 5.502480030059814453e+00 1.890214729309082031e+01 1.000813244900200516e-05 -2.019848216150421649e-05 -3.057105232073809020e-06 3.044734330615028739e-05
3.982000000000000000e+03 5.107728958129882812e+00 -1.138024330139160156e+01 -2.867450565099716187e-02 2.426490187644958496e-01 6.419235467910766602e-02 -3.225378394126892090e-01
3.983000000000000000e+03 5.697003364562988281e+00 -1.542645740509033203e+01 5.037776231765747070e-01 8.721290230751037598e-01 4.127719998359680176e-01 2.886007074266672134e-03
3.984000000000000000e+03 1.330045986175537109e+01 6.312448501586914062e+00 -3.288214202257222496e-06 -2.516696622478775680e-05 -8.536554560123477131e-06 6.645412668149219826e-06
3.985000000000000000e+03 5.038887977600097656e+00 -1.516077613830566406e+01 3.519858419895172119e-01 5.632829070091247559e-01 2.745806276798248291e-01 -1.286138892173767090e-01
3.986000000000000000e+03 5.308493137359619141e+00 1.621628761291503906e+01 -5.201451494940556586e-05 1.735785917844623327e-05 -1.039699691318674013e-05 -6.277991360548185185e-06
3.987000000000000000e+03 5.396996021270751953e+00 1.706277084350585938e+01 5.019094169256277382e-05 -3.774743618123466149e-06 1.392485955875599757e-05 1.690802309894934297e-05
3.988000000000000000e+03 5.245708942413330078e+00 2.586604309082031250e+01 8.616532431915402412e-05 -1.057445570040727034e-05 2.267726085847243667e-05 -3.104971619904972613e-05
3.989000000000000000e+03 4.553636074066162109e+00 1.233926963806152344e+01 -2.813769970089197159e-05 8.883390364644583315e-06 -5.776292709924746305e-06 3.210057002434041351e-07
3.990000000000000000e+03 5.251378536224365234e+00 1.380538177490234375e+01 3.830658170045353472e-05 -1.107441948988707736e-05 8.169648936018347740e-06 7.223501370390295051e-07
3.991000000000000000e+03 6.755402565002441406e+00 1.843126487731933594e+01 -8.874763443600386381e-05 -1.879776391433551908e-05 -3.226361877750605345e-05 1.213372252095723525e-05
3.992000000000000000e+03 5.243813991546630859e+00 9.882571220397949219e+00 -2.566627699707169086e-05 1.227255233970936388e-05 -4.018117579107638448e-06 4.499746353303635260e-07
3.993000000000000000e+03 7.449140930175781250e+01 1.445475578308105469e+01 5.260273814201354980e-02 6.165836334228515625e+00 1.865531682968139648e+00 -7.089282274246215820e-01
3.994000000000000000e+03 7.448016357421875000e+01 1.367079067230224609e+01 3.305095061659812927e-02 6.245405197143554688e+00 1.883536815643310547e+00 -7.236365079879760742e-01
3.995000000000000000e+03 1.031129550933837891e+01 5.811203956604003906e+00 9.493388461123686284e-06 8.757546311244368553e-06 5.475280431710416451e-06 -8.287311175081413239e-06
3.996000000000000000e+03 4.673701286315917969e+00 7.649104595184326172e+00 -1.432627232134109363e-05 4.682853614212945104e-06 -2.893025566663709469e-06 3.187702077411813661e-06
3.997000000000000000e+03 5.219122886657714844e+00 1.221006393432617188e+01 3.135150836897082627e-05 -7.937163900351151824e-06 7.024303158686961979e-06 2.016266620330497972e-08
3.998000000000000000e+03 4.224435806274414062e+01 -2.522096443176269531e+01 2.147788554430007935e-01 4.012395858764648438e+00 1.268152475357055664e+00 -3.757220208644866943e-01
3.999000000000000000e+03 5.202525615692138672e+00 1.065039825439453125e+01 2.585619586170651019e-05 -8.730863555683754385e-06 5.137599600857356563e-06 9.139799317381402943e-07
4.000000000000000000e+03 5.200394153594970703e+00 1.142703628540039062e+01 -3.148513860651291907e-05 9.309184861194808036e-06 -6.652786396443843842e-06 2.471552079441607930e-06
4.001000000000000000e+03 5.249114990234375000e+00 2.371816635131835938e+01 2.170161315007135272e-05 -4.159818854532204568e-05 -5.968972345726797357e-06 -1.072356553777353838e-05
4.002000000000000000e+03 1.152524852752685547e+01 2.534921836853027344e+01 -7.285695755854249001e-05 1.719070860417559743e-05 -1.669987432251218706e-05 1.356582652078941464e-04
4.003000000000000000e+03 5.470375537872314453e+00 6.838141441345214844e+00 -1.219867590407375246e-05 2.124147158610867336e-06 -3.022358669113600627e-06 4.229812930134357885e-06
4.004000000000000000e+03 7.441917419433593750e+01 2.091598129272460938e+01 1.293433159589767456e-01 5.645328044891357422e+00 1.732401371002197266e+00 -4.889839589595794678e-01
4.005000000000000000e+03 7.431259918212890625e+01 2.013244628906250000e+01 1.306451410055160522e-01 5.685424804687500000e+00 1.744820952415466309e+00 -5.340665578842163086e-01
4.006000000000000000e+03 5.869627952575683594e+00 3.187164878845214844e+01 7.694861415075138211e-05 1.829778047977015376e-04 7.797792204655706882e-05 -2.009952004300430417e-04
4.007000000000000000e+03 5.188633918762207031e+00 2.444350814819335938e+01 4.853843347518704832e-05 4.658710895455442369e-05 2.853766272892244160e-05 -4.294971950002945960e-05
4.008000000000000000e+03 2.712815856933593750e+01 -1.335308647155761719e+01 5.047816038131713867e-01 -3.841857314109802246e-01 3.617876395583152771e-02 8.277180790901184082e-01
4.009000000000000000e+03 2.360328865051269531e+01 -1.159473991394042969e+01 6.322798728942871094e-01 -3.956004977226257324e-01 7.100381702184677124e-02 4.647265076637268066e-01
4.010000000000000000e+03 3.848556518554687500e+01 -5.772600173950195312e+00 1.354530572891235352e+00 8.742178916931152344e+00 3.029012918472290039e+00 1.105661392211914062e+00
4.011000000000000000e+03 3.974929809570312500e+01 -6.645501136779785156e+00 1.508732795715332031e+00 1.142021083831787109e+01 3.878683090209960938e+00 1.290431976318359375e+00
4.012000000000000000e+03 4.554750442504882812e+01 1.165715789794921875e+01 2.008105754852294922e+00 5.567749023437500000e+00 2.272756338119506836e+00 2.457058429718017578e+00
4.013000000000000000e+03 7.499903869628906250e+01 2.668127822875976562e+01 8.655460178852081299e-02 5.422429084777832031e+00 1.652695178985595703e+00 -2.487454712390899658e-01
4.014000000000000000e+03 1.048318290710449219e+01 2.838298034667968750e+01 1.130325472331605852e-04 -9.386758028995245695e-05 5.749490810558199883e-06 5.296651215758174658e-05
4.015000000000000000e+03 7.371469879150390625e+01 2.814806556701660156e+01 1.177502572536468506e-01 5.311229705810546875e+00 1.628694057464599609e+00 -2.395335882902145386e-01
4.016000000000000000e+03 4.540766906738281250e+01 1.081635761260986328e+01 2.040723323822021484e+00 5.471286296844482422e+00 2.253602981567382812e+00 2.564419984817504883e+00
4.017000000000000000e+03 3.747328567504882812e+01 -9.830862045288085938e+00 1.626735925674438477e+00 7.496241092681884766e+00 2.736893177032470703e+00 5.566641092300415039e-01
4.018000000000000000e+03 3.681029891967773438e+01 -1.145646095275878906e+01 1.347375631332397461e+00 6.400187015533447266e+00 2.324268817901611328e+00 2.418028563261032104e-01
4.019000000000000000e+03 4.410135269165039062e+01 -2.671487045288085938e+01 9.369109570980072021e-02 2.733708143234252930e+00 8.482197523117065430e-01 -6.388603448867797852e-01
4.020000000000000000e+03 4.281894683837890625e+01 -2.581505393981933594e+01 1.628099977970123291e-01 3.550161361694335938e+00 1.113891363143920898e+00 -5.335570573806762695e-01
4.021000000000000000e+03 4.344546127319335938e+01 -2.631140899658203125e+01 1.023597419261932373e-01 3.081888437271118164e+00 9.552744626998901367e-01 -6.191815137863159180e-01
4.022000000000000000e+03 7.328638458251953125e+01 -3.020363998413085938e+01 -7.695207595825195312e-01 9.812364578247070312e+00 2.712853193283081055e+00 -1.291304945945739746e+00
4.023000000000000000e+03 3.863034057617187500e+01 -2.066591262817382812e+01 -4.500350356101989746e-01 7.560417652130126953e+00 2.133114814758300781e+00 1.632373213768005371e+00
4.024000000000000000e+03 3.968312072753906250e+01 -2.055665969848632812e+01 -5.137225389480590820e-01 7.420080661773681641e+00 2.071907281875610352e+00 1.225507497787475586e+00
4.025000000000000000e+03 1.347474479675292969e+01 8.645826339721679688e+00 2.219983798568136990e-06 8.998732482723426074e-06 3.365614929862204008e-06 -1.663181251387868542e-06
4.026000000000000000e+03 1.374676799774169922e+01 9.750055313110351562e+00 2.837771489794249646e-06 1.100570170819992200e-05 4.153042027610354125e-06 8.303881600113527384e-07
4.027000000000000000e+03 5.982307434082031250e+00 -6.291358947753906250e+00 -1.380977481603622437e-01 1.088554114103317261e-01 -8.772700093686580658e-03 -2.386619746685028076e-01
4.028000000000000000e+03 5.500212192535400391e+00 -3.320360946655273438e+01 -2.598993480205535889e-01 3.238130509853363037e-01 1.917410269379615784e-02 1.262934971600770950e-02
4.029000000000000000e+03 7.043667602539062500e+01 -3.212961196899414062e+01 -1.401369571685791016e+00 7.950427532196044922e+00 1.964717268943786621e+00 -2.457468360662460327e-01
4.030000000000000000e+03 4.116050720214843750e+01 1.493110299110412598e+00 -2.385997772216796875e+00 1.004128646850585938e+01 2.296586751937866211e+00 1.227934360504150391e+00
4.031000000000000000e+03 4.122438049316406250e+01 2.087949275970458984e+00 -2.295959711074829102e+00 9.952433586120605469e+00 2.296941995620727539e+00 1.433544397354125977e+00
4.032000000000000000e+03 4.448734664916992188e+01 9.232279777526855469e+00 2.021183729171752930e+00 6.023286819458007812e+00 2.413341283798217773e+00 2.909765005111694336e+00
4.033000000000000000e+03 1.185424804687500000e+01 2.089116859436035156e+01 1.150269745266996324e-04 7.291999645531177521e-05 5.638409129460342228e-05 -1.001447071757866070e-05
4.034000000000000000e+03 1.167167091369628906e+01 2.021658134460449219e+01 -1.005134618026204407e-04 -7.744106551399454474e-05 -5.338635673979297280e-05 9.031737135956063867e-06
4.035000000000000000e+03 6.844535827636718750e+00 -6.705329895019531250e+00 -1.428065448999404907e-01 1.879713237285614014e-01 1.354943588376045227e-02 -2.067465037107467651e-01
4.036000000000000000e+03 7.158082580566406250e+01 -6.289090156555175781e+00 -9.022754430770874023e-02 8.966617584228515625e+00 2.662917137145996094e+00 -2.513455748558044434e-01
4.037000000000000000e+03 6.937576293945312500e+01 -5.573227882385253906e+00 9.160713851451873779e-02 8.559145927429199219e+00 2.595226049423217773e+00 -9.992623329162597656e-01
4.038000000000000000e+03 1.532198619842529297e+01 -1.190256977081298828e+01 5.569258332252502441e-01 8.243102580308914185e-02 1.918070614337921143e-01 4.183296561241149902e-01
4.039000000000000000e+03 1.472282600402832031e+01 -1.285468387603759766e+01 6.742890477180480957e-01 1.180996298789978027e-01 2.377166002988815308e-01 4.163312911987304688e-01
4.040000000000000000e+03 1.463757514953613281e+01 -1.118122196197509766e+01 4.579411149024963379e-01 1.611125320196151733e-01 1.857160925865173340e-01 4.090736508369445801e-01
4.041000000000000000e+03 7.477369689941406250e+01 -1.640079498291015625e+01 6.875830888748168945e-01 9.585112571716308594e+00 3.081808567047119141e+00 -6.910522580146789551e-01
4.042000000000000000e+03 5.114208602905273438e+01 4.786823749542236328e+00 -1.187216162681579590e+00 5.495695471763610840e-01 -1.912939995527267456e-01 -2.337041348218917847e-01
4.043000000000000000e+03 5.152038192749023438e+01 4.204038143157958984e+00 -1.677160620689392090e+00 4.439234435558319092e-01 -3.699711561203002930e-01 -2.409852743148803711e-01
4.044000000000000000e+03 5.621133804321289062e+01 4.027926445007324219e+00 -1.205803751945495605e+00 8.746204376220703125e-01 -9.935497492551803589e-02 -8.753585815429687500e-01
4.045000000000000000e+03 3.902855682373046875e+01 -2.009569740295410156e+01 -6.120365262031555176e-01 7.746202468872070312e+00 2.140249729156494141e+00 1.494411826133728027e+00
4.046000000000000000e+03 7.267898082733154297e+00 -7.340258121490478516e+00 -1.349963247776031494e-01 2.489495426416397095e-01 3.418596461415290833e-02 -1.818272024393081665e-01
4.047000000000000000e+03 3.500597763061523438e+01 -5.139789104461669922e+00 1.262172222137451172e+00 3.259619712829589844e+00 1.356537580490112305e+00 6.097090840339660645e-01
4.048000000000000000e+03 5.865334701538085938e+01 1.960538983345031738e+00 -1.631951332092285156e+00 1.033020496368408203e+00 -1.796792596578598022e-01 -1.081443071365356445e+00
4.049000000000000000e+03 9.272879600524902344e+00 -7.098891258239746094e+00 -1.197996512055397034e-01 3.039854764938354492e-01 5.525574833154678345e-02 -4.393040016293525696e-02
4.050000000000000000e+03 1.358268928527832031e+01 6.852311134338378906e+00 1.946833435795269907e-06 9.655576604927773587e-07 8.737173402550979517e-07 -6.838644139861571603e-07
4.051000000000000000e+03 2.442199325561523438e+01 -6.577061176300048828e+00 5.402840375900268555e-01 -3.585249185562133789e-01 5.452772974967956543e-02 -4.731667041778564453e-02
4.052000000000000000e+03 2.523591232299804688e+01 -6.469780921936035156e+00 5.988672971725463867e-01 -3.911162316799163818e-01 6.232530996203422546e-02 -1.169693842530250549e-01
4.053000000000000000e+03 4.570245742797851562e+01 1.250473690032958984e+01 1.920744538307189941e+00 5.632884025573730469e+00 2.266088724136352539e+00 2.327039480209350586e+00
4.054000000000000000e+03 1.583105468750000000e+01 -6.698178768157958984e+00 1.023797914385795593e-01 3.031779825687408447e-02 3.980927541851997375e-02 2.525371611118316650e-01
4.055000000000000000e+03 4.714643478393554688e+01 1.600908279418945312e+01 1.579866051673889160e+00 5.221780776977539062e+00 2.040493965148925781e+00 1.678582310676574707e+00
4.056000000000000000e+03 4.739196014404296875e+01 1.871802330017089844e+01 1.178572177886962891e+00 5.357819080352783203e+00 1.960917353630065918e+00 1.276470303535461426e+00
4.057000000000000000e+03 2.686138343811035156e+01 -5.568843841552734375e+00 5.794301033020019531e-01 -4.062730669975280762e-01 5.194710940122604370e-02 -3.383887410163879395e-01
4.058000000000000000e+03 2.874993133544921875e+01 -6.125374317169189453e+00 1.021649003028869629e+00 -4.184935390949249268e-01 1.809466481208801270e-01 -3.217301964759826660e-01
4.059000000000000000e+03 3.591538619995117188e+01 -1.595382595062255859e+01 -7.698452472686767578e-01 5.355681419372558594e+00 1.375750899314880371e+00 8.525695651769638062e-02
4.060000000000000000e+03 5.437167739868164062e+01 4.084492206573486328e+00 -1.429671883583068848e+00 6.784406900405883789e-01 -2.253693640232086182e-01 -5.658636093139648438e-01
4.061000000000000000e+03 5.376113891601562500e+01 2.644606113433837891e+00 -2.581076860427856445e+00 4.786434471607208252e-01 -6.307300329208374023e-01 -1.456829905509948730e-01
4.062000000000000000e+03 2.723239517211914062e+01 -1.411537837982177734e+01 2.860358655452728271e-01 -3.290059566497802734e-01 -1.289102435111999512e-02 8.781960010528564453e-01
4.063000000000000000e+03 1.110569190979003906e+01 5.755071163177490234e+00 -9.661468538979534060e-06 -1.086946394934784621e-05 -6.159279564599273726e-06 8.041665751079563051e-06
4.064000000000000000e+03 1.102133560180664062e+01 7.329994678497314453e+00 -1.352008530375314876e-05 -1.241963127540657297e-05 -7.781914973747916520e-06 1.246449028258211911e-05
4.065000000000000000e+03 1.029298973083496094e+01 -1.214609909057617188e+01 3.559721112251281738e-01 7.316344976425170898e-01 3.262819945812225342e-01 3.334560096263885498e-01
4.066000000000000000e+03 1.234274864196777344e+01 -1.253276824951171875e+01 6.065998673439025879e-01 4.615432918071746826e-01 3.204429447650909424e-01 4.579471647739410400e-01
4.067000000000000000e+03 7.136734771728515625e+01 -7.644898891448974609e+00 6.815659254789352417e-02 9.462547302246093750e+00 2.859211206436157227e+00 -3.797220289707183838e-01
4.068000000000000000e+03 7.424267578125000000e+01 -4.833068847656250000e+00 -2.133239060640335083e-01 8.290261268615722656e+00 2.423081159591674805e+00 3.577483892440795898e-01
4.069000000000000000e+03 1.344308948516845703e+01 -7.108098030090332031e+00 3.369227424263954163e-02 1.695903539657592773e-01 6.098478659987449646e-02 2.095773071050643921e-01
4.070000000000000000e+03 1.661097908020019531e+01 -7.400242328643798828e+00 1.953752636909484863e-01 -1.347068231552839279e-02 5.457137525081634521e-02 2.861486971378326416e-01
4.071000000000000000e+03 4.631810379028320312e+01 1.607733535766601562e+01 1.452296733856201172e+00 5.706183910369873047e+00 2.147544145584106445e+00 1.750355362892150879e+00
4.072000000000000000e+03 4.640971755981445312e+01 1.697300910949707031e+01 1.315010309219360352e+00 5.718286991119384766e+00 2.109989166259765625e+00 1.613128423690795898e+00
4.073000000000000000e+03 3.770881271362304688e+01 -1.916336059570312500e+01 -1.147070050239562988e+00 7.789031028747558594e+00 1.992588400840759277e+00 1.613561987876892090e+00
4.074000000000000000e+03 1.849247741699218750e+01 -1.299691677093505859e+01 5.321627259254455566e-01 -1.566625982522964478e-01 1.126500293612480164e-01 3.462280929088592529e-01
4.075000000000000000e+03 1.836751937866210938e+01 -6.858945369720458984e+00 2.195536047220230103e-01 -9.735211730003356934e-02 3.666044771671295166e-02 2.542133033275604248e-01
4.076000000000000000e+03 1.748847961425781250e+01 -1.193523406982421875e+01 5.362057685852050781e-01 -9.754207730293273926e-02 1.315990984439849854e-01 3.838780522346496582e-01
4.077000000000000000e+03 4.273630142211914062e+01 4.184441566467285156e+00 -1.045562386512756348e+00 7.752433300018310547e+00 2.012061357498168945e+00 2.656588077545166016e+00
4.078000000000000000e+03 4.201000595092773438e+01 4.291630744934082031e+00 -7.558146715164184570e-01 8.826690673828125000e+00 2.421262741088867188e+00 2.614614486694335938e+00
4.079000000000000000e+03 3.229166030883789062e+01 -1.325121498107910156e+01 1.098928332328796387e+00 8.606040477752685547e-01 5.878596901893615723e-01 4.658196568489074707e-01
4.080000000000000000e+03 1.075368785858154297e+01 2.915760993957519531e+01 2.680966572370380163e-04 -1.016225069179199636e-04 4.994224946130998433e-05 -1.480797072872519493e-04
4.081000000000000000e+03 4.633271789550781250e+01 5.351077079772949219e+00 5.646139755845069885e-02 2.162749290466308594e+00 6.657631993293762207e-01 1.995957136154174805e+00
4.082000000000000000e+03 4.063561630249023438e+01 -2.325422477722167969e+01 1.430179476737976074e-01 5.726534366607666016e+00 1.760865688323974609e+00 4.336412549018859863e-01
4.083000000000000000e+03 6.905872344970703125e+01 -4.618909835815429688e+00 -6.941402703523635864e-02 8.137505531311035156e+00 2.420427322387695312e+00 -9.116429090499877930e-01
4.084000000000000000e+03 3.526803207397460938e+01 -1.587323188781738281e+01 -7.777438163757324219e-01 4.320406436920166016e+00 1.062798857688903809e+00 -1.634771823883056641e-01
4.085000000000000000e+03 3.593581771850585938e+01 -1.480825233459472656e+01 -7.781932502985000610e-02 5.129059314727783203e+00 1.515372037887573242e+00 -2.190774492919445038e-02
4.086000000000000000e+03 4.518584060668945312e+01 7.599694728851318359e+00 1.565068244934082031e+00 4.570767402648925781e+00 1.840750694274902344e+00 2.581833362579345703e+00
4.087000000000000000e+03 4.515702438354492188e+01 8.329834938049316406e+00 1.810193061828613281e+00 4.823060989379882812e+00 1.989976167678833008e+00 2.651797294616699219e+00
4.088000000000000000e+03 7.553351879119873047e+00 -8.252634048461914062e+00 -1.121460348367691040e-01 3.318616449832916260e-01 6.591468304395675659e-02 -1.562555283308029175e-01
4.089000000000000000e+03 1.135555362701416016e+01 2.385343170166015625e+01 -6.915248377481475472e-05 1.159426974481903017e-04 1.403706482960842550e-05 8.977518882602453232e-05
4.090000000000000000e+03 6.455784606933593750e+01 5.843330621719360352e-01 -1.209728837013244629e+00 4.770832538604736328e+00 1.068331122398376465e+00 -1.806657075881958008e+00
4.091000000000000000e+03 6.472833251953125000e+01 -1.098334416747093201e-01 -1.174741148948669434e+00 4.959601402282714844e+00 1.135457992553710938e+00 -1.769899010658264160e+00
4.092000000000000000e+03 6.638780212402343750e+01 -6.584509015083312988e-01 -1.039470314979553223e+00 6.128002166748046875e+00 1.526559591293334961e+00 -1.439186453819274902e+00
4.093000000000000000e+03 4.519347763061523438e+01 9.137353897094726562e+00 1.975069165229797363e+00 5.121084690093994141e+00 2.128846168518066406e+00 2.671152353286743164e+00
4.094000000000000000e+03 3.747533035278320312e+01 -8.991326332092285156e+00 1.744663834571838379e+00 7.460024356842041016e+00 2.761406421661376953e+00 6.864428520202636719e-01
4.095000000000000000e+03 3.680253219604492188e+01 -1.228429222106933594e+01 1.104504823684692383e+00 6.366277217864990234e+00 2.241234540939331055e+00 1.354359984397888184e-01
4.096000000000000000e+03 3.550350952148437500e+01 -1.239275360107421875e+01 1.190452218055725098e+00 4.468533515930175781e+00 1.697695851325988770e+00 1.582600176334381104e-01
4.097000000000000000e+03 1.108688163757324219e+01 1.892427635192871094e+01 -1.228709588758647442e-04 -5.767951734014786780e-05 -5.416514250100590289e-05 -2.935095153588918038e-06
4.098000000000000000e+03 7.445711517333984375e+01 -1.018499755859375000e+01 3.072818517684936523e-01 8.983283996582031250e+00 2.787169694900512695e+00 3.513380587100982666e-01
4.099000000000000000e+03 6.781286239624023438e+00 -1.426228809356689453e+01 3.873219788074493408e-01 1.019416689872741699e+00 4.220216274261474609e-01 3.611727431416511536e-02
4.100000000000000000e+03 7.141337585449218750e+01 -6.968556404113769531e+00 -2.608313690871000290e-03 9.218326568603515625e+00 2.764715433120727539e+00 -3.392004072666168213e-01
4.101000000000000000e+03 7.486720275878906250e+01 -4.171308040618896484e+00 -2.157061994075775146e-01 8.136073112487792969e+00 2.376110076904296875e+00 3.953813314437866211e-01
4.102000000000000000e+03 2.359791564941406250e+01 -6.679746150970458984e+00 4.805549383163452148e-01 -3.220436275005340576e-01 4.755339026451110840e-02 2.073590084910392761e-02
4.103000000000000000e+03 7.236100006103515625e+01 -2.677262878417968750e+01 9.893807582557201385e-03 1.026127719879150391e+01 3.081351280212402344e+00 -1.514164328575134277e+00
4.104000000000000000e+03 7.473403167724609375e+01 -1.558139896392822266e+01 7.288377881050109863e-01 9.497022628784179688e+00 3.067758083343505859e+00 -5.365170240402221680e-01
4.105000000000000000e+03 1.350010395050048828e+01 1.244363498687744141e+01 9.900507791371637722e-08 7.995282430783845484e-06 2.428286279609892517e-06 3.459166464381269179e-08
4.106000000000000000e+03 1.183419036865234375e+01 6.478775978088378906e+00 -8.223532859119586647e-06 -1.575895839778240770e-05 -7.194747468020068482e-06 9.778340427146758884e-06
4.107000000000000000e+03 1.322655010223388672e+01 1.322282218933105469e+01 1.332693273070617579e-06 -1.784221126399643254e-06 -1.354583503143658163e-07 -1.384641905133321416e-06
4.108000000000000000e+03 1.014910793304443359e+01 9.054450988769531250e+00 1.303880708292126656e-05 9.938487892213743180e-06 6.893188583489973098e-06 -1.735676778480410576e-05
4.109000000000000000e+03 3.832023620605468750e+01 -1.942818045616149902e+00 -5.762966871261596680e-01 7.938425064086914062e+00 2.208638429641723633e+00 1.031022191047668457e+00
4.110000000000000000e+03 1.709014511108398438e+01 -1.055032730102539062e+01 4.496637582778930664e-01 -5.804398283362388611e-02 1.174859330058097839e-01 3.832556903362274170e-01
4.111000000000000000e+03 4.604839324951171875e+01 1.427157688140869141e+01 1.711066961288452148e+00 5.676873207092285156e+00 2.216382026672363281e+00 2.036009073257446289e+00
4.112000000000000000e+03 4.620338058471679688e+01 1.517837810516357422e+01 1.594961881637573242e+00 5.684898376464843750e+00 2.183958053588867188e+00 1.898088932037353516e+00
4.113000000000000000e+03 3.366292190551757812e+01 -1.430833721160888672e+01 5.293383598327636719e-01 2.057964086532592773e+00 7.761907577514648438e-01 9.997976571321487427e-02
4.114000000000000000e+03 3.426861572265625000e+01 -1.466072845458984375e+01 2.297863811254501343e-01 2.810198068618774414e+00 9.119953513145446777e-01 1.982160098850727081e-02
4.115000000000000000e+03 5.536942672729492188e+01 3.514493465423583984e+00 -1.595667839050292969e+00 7.051677703857421875e-01 -2.671500146389007568e-01 -6.209356784820556641e-01
4.116000000000000000e+03 5.719459152221679688e+01 2.984747886657714844e+00 -1.505843281745910645e+00 8.730182051658630371e-01 -1.898475289344787598e-01 -8.969309926033020020e-01
4.117000000000000000e+03 2.101052665710449219e+01 -6.896112442016601562e+00 3.389574289321899414e-01 -2.121399641036987305e-01 3.804524242877960205e-02 1.733961403369903564e-01
4.118000000000000000e+03 1.912508964538574219e+01 -7.682357311248779297e+00 3.163519203662872314e-01 -1.501747369766235352e-01 4.985315352678298950e-02 2.728472054004669189e-01
4.119000000000000000e+03 1.727335929870605469e+01 -8.150513648986816406e+00 2.738784551620483398e-01 -5.013816058635711670e-02 6.712208688259124756e-02 3.123858571052551270e-01
4.120000000000000000e+03 7.012128448486328125e+01 -3.472799682617187500e+01 -1.047655344009399414e+00 7.004966259002685547e+00 1.787193298339843750e+00 1.340386569499969482e-01
4.121000000000000000e+03 2.175670814514160156e+01 -1.351678371429443359e+01 4.112522304058074951e-01 -2.398151308298110962e-01 5.143113061785697937e-02 4.175188541412353516e-01
4.122000000000000000e+03 4.743247222900390625e+01 2.742577171325683594e+01 6.456518173217773438e-01 5.052971363067626953e+00 1.709586977958679199e+00 3.726170063018798828e-01
4.123000000000000000e+03 1.316110515594482422e+01 9.428195953369140625e+00 -2.697913942029117607e-06 -6.827256584074348211e-06 -2.857551180568407290e-06 8.769248438511567656e-07
4.124000000000000000e+03 1.106450176239013672e+01 6.521399974822998047e+00 1.001029249891871586e-05 1.246026204171357676e-05 6.741166544088628143e-06 -1.146176236943574622e-05
4.125000000000000000e+03 5.247095108032226562e+01 5.902062892913818359e+00 -3.552367687225341797e-01 8.279131650924682617e-01 1.418029218912124634e-01 -4.092683792114257812e-01
4.126000000000000000e+03 1.054067420959472656e+01 2.387617492675781250e+01 1.217398239532485604e-04 -1.861903147073462605e-04 -1.933514795382507145e-05 -1.332697775069391355e-05
4.127000000000000000e+03 6.572147369384765625e+00 3.232273101806640625e+01 7.495210593333467841e-05 -1.675386884016916156e-04 -2.777597183012403548e-05 -1.711874210741370916e-04
4.128000000000000000e+03 6.274035930633544922e+00 3.437623214721679688e+01 -3.407250687814666890e-06 2.885237627197057009e-04 8.553495717933401465e-05 -1.311172527493909001e-04
4.129000000000000000e+03 1.289865016937255859e+01 3.323635482788085938e+01 7.170320604927837849e-04 -8.016553474590182304e-04 -2.538699845899827778e-05 2.634533848322462291e-05
4.130000000000000000e+03 5.975428104400634766e+00 3.008458709716796875e+01 5.022214099881239235e-05 -1.526584819657728076e-04 -3.073090192629024386e-05 -1.753212709445506334e-04
4.131000000000000000e+03 7.219603729248046875e+01 -1.271531677246093750e+01 1.070507884025573730e+00 1.099075031280517578e+01 3.618377685546875000e+00 -4.349430203437805176e-01
4.132000000000000000e+03 7.449215698242187500e+01 -1.102166271209716797e+01 4.350844919681549072e-01 9.071986198425292969e+00 2.852121114730834961e+00 2.783157825469970703e-01
4.133000000000000000e+03 7.302264404296875000e+01 -2.775175094604492188e+01 -2.813206017017364502e-01 1.010150623321533203e+01 2.946055650711059570e+00 -1.600569248199462891e+00
4.134000000000000000e+03 1.231599235534667969e+01 1.358182144165039062e+01 -8.970251315076893661e-07 1.878680814115796238e-05 5.366934601624961942e-06 2.221917839051457122e-06
4.135000000000000000e+03 7.256196594238281250e+01 -1.527296161651611328e+01 1.194317221641540527e+00 1.134005832672119141e+01 3.760312795639038086e+00 -8.812031149864196777e-01
4.136000000000000000e+03 3.734104537963867188e+01 -1.558570861816406250e+01 -3.534571230411529541e-01 7.184052944183349609e+00 2.049178600311279297e+00 2.298813760280609131e-01
4.137000000000000000e+03 7.303585815429687500e+01 -2.852182769775390625e+01 -4.606252908706665039e-01 1.001353740692138672e+01 2.865873813629150391e+00 -1.541761994361877441e+00
4.138000000000000000e+03 7.138854217529296875e+01 -3.022718429565429688e+01 -1.125085830688476562e+00 9.123954772949218750e+00 2.399660587310791016e+00 -8.838399648666381836e-01
4.139000000000000000e+03 7.224229335784912109e+00 1.576323032379150391e+01 5.065959703642874956e-05 -2.782804767775814980e-05 6.849464625702239573e-06 5.061155661678640172e-06
4.140000000000000000e+03 1.076942539215087891e+01 1.611553955078125000e+01 5.180199514143168926e-05 6.436090188799425960e-05 3.484886838123202324e-05 -4.634850483853369951e-05
4.141000000000000000e+03 3.709693527221679688e+01 -1.360603904724121094e+01 6.366948485374450684e-01 6.895289421081542969e+00 2.259595155715942383e+00 2.536461316049098969e-02
4.142000000000000000e+03 4.085652923583984375e+01 -2.775779914855957031e+01 1.911919564008712769e-01 4.403990745544433594e+00 1.378554821014404297e+00 -4.271146357059478760e-01
4.143000000000000000e+03 4.718835449218750000e+01 2.947687149047851562e+01 5.170342922210693359e-01 4.904940605163574219e+00 1.626592516899108887e+00 3.533668518066406250e-01
4.144000000000000000e+03 4.997256851196289062e+01 3.211693572998046875e+01 2.649384737014770508e-01 4.730070590972900391e+00 1.498502731323242188e+00 4.251859784126281738e-01
4.145000000000000000e+03 1.010825634002685547e+01 3.574006271362304688e+01 5.361759758670814335e-05 -3.377983812242746353e-04 -8.525423618266358972e-05 -6.490847445093095303e-04
4.146000000000000000e+03 6.043580055236816406e+00 3.312217330932617188e+01 5.731017881771549582e-05 1.766810019034892321e-04 7.019735494395717978e-05 -1.986718270927667618e-04
4.147000000000000000e+03 8.640699386596679688e+00 7.464003086090087891e+00 1.276828152185771614e-05 5.933279226155718789e-06 5.610468178929295391e-06 -1.319601415161741897e-05
4.148000000000000000e+03 3.704749679565429688e+01 -1.756447601318359375e+01 -1.386887192726135254e+00 7.105820655822753906e+00 1.715680003166198730e+00 8.185548186302185059e-01
4.149000000000000000e+03 3.809120178222656250e+01 -1.671928024291992188e+01 -5.686027407646179199e-01 7.935238361358642578e+00 2.209990739822387695e+00 6.253275275230407715e-01
4.150000000000000000e+03 3.076411247253417969e+01 -6.328086853027343750e+00 1.419406890869140625e+00 6.130461697466671467e-04 4.260059595108032227e-01 -1.372013539075851440e-01
4.151000000000000000e+03 1.225233459472656250e+01 3.245730972290039062e+01 4.190739709883928299e-04 -2.258702006656676531e-04 5.796113327960483730e-05 -5.492153577506542206e-04
4.152000000000000000e+03 3.709032440185546875e+01 -5.702309608459472656e+00 1.421203255653381348e+00 6.437014102935791016e+00 2.357465267181396484e+00 8.724902868270874023e-01
4.153000000000000000e+03 4.009069061279296875e+01 -2.844897842407226562e+01 1.380137801170349121e-01 4.679549694061279297e+00 1.445269107818603516e+00 -3.930798768997192383e-01
4.154000000000000000e+03 2.777728652954101562e+01 -6.276229381561279297e+00 9.174569845199584961e-01 -4.631093144416809082e-01 1.363042891025543213e-01 -2.870721518993377686e-01
4.155000000000000000e+03 2.995812416076660156e+01 -1.345080661773681641e+01 8.105359673500061035e-01 -2.477508485317230225e-01 1.688355356454849243e-01 9.013866186141967773e-01
4.156000000000000000e+03 2.604248619079589844e+01 -6.374416351318359375e+00 6.749953031539916992e-01 -4.247333705425262451e-01 7.507857680320739746e-02 -1.840294599533081055e-01
4.157000000000000000e+03 6.893852233886718750e+01 -3.758620977401733398e+00 -2.779137194156646729e-01 7.833882808685302734e+00 2.266790866851806641e+00 -8.339967727661132812e-01
4.158000000000000000e+03 3.417694091796875000e+01 -4.999677658081054688e+00 1.203787803649902344e+00 2.300887584686279297e+00 1.051402568817138672e+00 4.334807395935058594e-01
4.159000000000000000e+03 3.543283081054687500e+01 -7.056494235992431641e+00 1.842497706413269043e+00 4.180393695831298828e+00 1.806867361068725586e+00 6.136491298675537109e-01
4.160000000000000000e+03 6.031339263916015625e+01 1.376672506332397461e+00 -1.486196875572204590e+00 1.689996600151062012e+00 6.113991141319274902e-02 -1.450405240058898926e+00
4.161000000000000000e+03 3.162429237365722656e+01 -6.153754711151123047e+00 1.488819956779479980e+00 3.837302923202514648e-01 5.617650747299194336e-01 -4.627462103962898254e-02
4.162000000000000000e+03 3.720313262939453125e+01 -2.105430364608764648e+00 -4.071914553642272949e-01 6.107194900512695312e+00 1.710001111030578613e+00 9.895948171615600586e-01
4.163000000000000000e+03 1.498066520690917969e+01 -7.375900268554687500e+00 1.231301128864288330e-01 8.758264034986495972e-02 6.321382522583007812e-02 2.680881917476654053e-01
4.164000000000000000e+03 1.600103569030761719e+01 -1.237273883819580078e+01 5.925458669662475586e-01 4.736683040391653776e-04 1.779058575630187988e-01 3.935746252536773682e-01
4.165000000000000000e+03 6.173009872436523438e+00 2.721673393249511719e+01 1.526888263470027596e-05 -1.754304139467421919e-05 -6.822475029366614763e-07 -1.132684774347580969e-04
4.166000000000000000e+03 4.445641708374023438e+01 -3.057046890258789062e+01 -3.201956152915954590e-01 2.654272317886352539e+00 7.002230286598205566e-01 -7.177804708480834961e-01
4.167000000000000000e+03 3.972026062011718750e+01 -3.002826881408691406e+01 -2.069919109344482422e-01 4.630720615386962891e+00 1.327118635177612305e+00 -4.268631935119628906e-01
4.168000000000000000e+03 4.400060272216796875e+01 4.146043300628662109e+00 -1.181589007377624512e+00 5.543013572692871094e+00 1.308427333831787109e+00 2.777257680892944336e+00
4.169000000000000000e+03 4.620997619628906250e+01 4.738982200622558594e+00 -5.217048525810241699e-01 1.928508877754211426e+00 4.220412075519561768e-01 2.037533044815063477e+00
4.170000000000000000e+03 2.275623321533203125e+01 -6.767372608184814453e+00 4.316357970237731934e-01 -2.870906293392181396e-01 4.336354508996009827e-02 7.675060629844665527e-02
4.171000000000000000e+03 7.302516174316406250e+01 -1.347408294677734375e+01 1.039917707443237305e+00 1.050969600677490234e+01 3.464884281158447266e+00 -3.811905086040496826e-01
4.172000000000000000e+03 6.279816150665283203e+00 -3.669336318969726562e+01 1.010170206427574158e-02 2.792727351188659668e-01 8.681233227252960205e-02 -7.097741216421127319e-02
4.173000000000000000e+03 3.149347114562988281e+01 -5.441543102264404297e+00 1.217515707015991211e+00 1.763792335987091064e-01 4.181684851646423340e-01 -1.526244729757308960e-01
4.174000000000000000e+03 3.329074859619140625e+01 -5.950313568115234375e+00 1.577181816101074219e+00 1.582060575485229492e+00 9.477726817131042480e-01 2.723707258701324463e-01
4.175000000000000000e+03 3.684403610229492188e+01 -2.882610321044921875e+00 -6.528859585523605347e-02 5.570527076721191406e+00 1.651571512222290039e+00 1.014284729957580566e+00
4.176000000000000000e+03 4.579961395263671875e+01 -3.164006423950195312e+01 -4.761483669281005859e-01 2.101957082748413086e+00 4.877426326274871826e-01 -6.201601028442382812e-01
4.177000000000000000e+03 1.390678501129150391e+01 -1.198486328125000000e+01 5.408500432968139648e-01 2.423718273639678955e-01 2.349665611982345581e-01 4.314935505390167236e-01
4.178000000000000000e+03 6.570269775390625000e+01 3.797353506088256836e-01 -1.161128282546997070e+00 5.508677005767822266e+00 1.304264664649963379e+00 -1.642695069313049316e+00
4.179000000000000000e+03 7.272264099121093750e+01 -2.479316711425781250e+01 5.045173168182373047e-01 1.062419033050537109e+01 3.338612079620361328e+00 -1.405235052108764648e+00
4.180000000000000000e+03 7.488146209716796875e+01 -2.413220405578613281e+01 3.305355906486511230e-01 9.976161956787109375e+00 3.092009305953979492e+00 -1.534427285194396973e+00
4.181000000000000000e+03 1.216363525390625000e+01 3.036272239685058594e+01 4.648831672966480255e-04 -2.870135649573057890e-04 5.336088361218571663e-05 2.151991211576387286e-04
4.182000000000000000e+03 6.827688598632812500e+01 -1.281781077384948730e+00 -8.349359035491943359e-01 7.084798812866210938e+00 1.874958753585815430e+00 -9.709016680717468262e-01
4.183000000000000000e+03 6.731834411621093750e+01 -1.077371716499328613e+00 -9.320045113563537598e-01 6.658435344696044922e+00 1.717929363250732422e+00 -1.223607659339904785e+00
4.184000000000000000e+03 7.077696990966796875e+01 -3.793230819702148438e+01 -5.073382854461669922e-01 6.931713581085205078e+00 1.927312612533569336e+00 8.136697113513946533e-02
4.185000000000000000e+03 7.119820404052734375e+01 -3.512732315063476562e+01 -9.237488508224487305e-01 7.647855758666992188e+00 2.017232179641723633e+00 -5.965745449066162109e-02
4.186000000000000000e+03 7.093447113037109375e+01 -3.117613792419433594e+01 -1.312383532524108887e+00 8.562769889831542969e+00 2.175115823745727539e+00 -5.567936897277832031e-01
4.187000000000000000e+03 7.075213623046875000e+01 -3.363767242431640625e+01 -1.190440177917480469e+00 7.780017375946044922e+00 1.976873159408569336e+00 -1.277882754802703857e-01
4.188000000000000000e+03 4.244625091552734375e+01 -2.941885757446289062e+01 -1.798654049634933472e-01 3.432856559753417969e+00 9.758973717689514160e-01 -6.557452082633972168e-01
4.189000000000000000e+03 4.035074234008789062e+01 -2.539781188964843750e+01 5.160217881202697754e-01 5.108014106750488281e+00 1.687210679054260254e+00 5.470130592584609985e-02
4.190000000000000000e+03 7.363471984863281250e+01 -3.234592819213867188e+01 -8.161399364471435547e-01 9.674309730529785156e+00 2.657451152801513672e+00 -9.294795393943786621e-01
4.191000000000000000e+03 7.403444671630859375e+01 -3.042331504821777344e+01 -6.677721142768859863e-01 1.000478363037109375e+01 2.801103353500366211e+00 -1.317672491073608398e+00
4.192000000000000000e+03 3.754187393188476562e+01 -3.597148132324218750e+01 -1.247055768966674805e+00 3.948690891265869141e+00 8.104905486106872559e-01 5.054214596748352051e-02
4.193000000000000000e+03 3.948400497436523438e+01 -3.361102294921875000e+01 -9.507637619972229004e-01 4.092712879180908203e+00 9.425846934318542480e-01 -3.134226202964782715e-01
4.194000000000000000e+03 6.853069305419921875e+01 -3.762405395507812500e+01 -5.044950842857360840e-01 5.079524993896484375e+00 1.372509002685546875e+00 4.042016267776489258e-01
4.195000000000000000e+03 7.097734069824218750e+01 -3.966299819946289062e+01 -3.155197799205780029e-01 7.157243728637695312e+00 2.052517175674438477e+00 6.710957735776901245e-02
4.196000000000000000e+03 7.112878417968750000e+01 3.845668792724609375e+01 5.417541414499282837e-02 5.151375770568847656e+00 1.561665415763854980e+00 -3.283424302935600281e-02
4.197000000000000000e+03 9.244675636291503906e+00 -3.657834625244140625e+01 -6.494703143835067749e-02 -1.750155091285705566e-01 -7.198876142501831055e-02 8.533445000648498535e-02
4.198000000000000000e+03 1.330654430389404297e+01 -4.137598037719726562e+01 8.791525661945343018e-02 -3.244625329971313477e-01 -7.096417993307113647e-02 2.911914139986038208e-02
4.199000000000000000e+03 4.924705505371093750e+01 3.427763366699218750e+01 -6.664275657385587692e-03 4.706157207489013672e+00 1.409847855567932129e+00 3.438937962055206299e-01
4.200000000000000000e+03 7.364593505859375000e+01 3.326334762573242188e+01 7.542122155427932739e-02 5.223463535308837891e+00 1.589665412902832031e+00 -1.034650206565856934e-01
4.201000000000000000e+03 7.263579559326171875e+01 -3.770135116577148438e+01 -4.537085592746734619e-01 8.477184295654296875e+00 2.407042503356933594e+00 -1.462121307849884033e-01
4.202000000000000000e+03 7.229901885986328125e+01 -3.503431701660156250e+01 -8.293396234512329102e-01 8.490289688110351562e+00 2.298285007476806641e+00 -3.184419870376586914e-01
4.203000000000000000e+03 7.519082069396972656e+00 3.886022949218750000e+01 -1.511259761173278093e-04 4.839462053496390581e-04 9.984606731450185180e-05 -1.065360629581846297e-04
4.204000000000000000e+03 1.308932495117187500e+01 3.656557464599609375e+01 4.159819218330085278e-04 -1.735525205731391907e-03 -3.958629968110471964e-04 -4.032325523439794779e-04
4.205000000000000000e+03 6.464470386505126953e+00 -3.813565826416015625e+01 7.037790119647979736e-02 2.967541217803955078e-01 1.101396083831787109e-01 -6.564916670322418213e-02
4.206000000000000000e+03 6.324746322631835938e+01 -4.134434890747070312e+01 3.851321339607238770e-01 1.106884002685546875e+00 4.476048350334167480e-01 6.706655770540237427e-02
4.207000000000000000e+03 3.248744964599609375e+01 -4.125414657592773438e+01 -1.127336025238037109e+00 2.850954055786132812e+00 5.170853734016418457e-01 1.314027756452560425e-01
4.208000000000000000e+03 4.993655776977539062e+01 -3.432777023315429688e+01 -7.126461863517761230e-01 1.013375997543334961e+00 9.021893143653869629e-02 -4.517798721790313721e-01
4.209000000000000000e+03 7.188990020751953125e+01 3.450635910034179688e+01 9.525735676288604736e-02 5.162045955657958984e+00 1.577190995216369629e+00 -8.556222170591354370e-02
4.210000000000000000e+03 7.269083404541015625e+01 2.911534881591796875e+01 1.400180160999298096e-01 5.243953227996826172e+00 1.615191340446472168e+00 -2.281407564878463745e-01
4.211000000000000000e+03 1.122706794738769531e+01 1.556705665588378906e+01 -2.233579652966000140e-05 -6.396662502083927393e-05 -2.589072755654342473e-05 2.593307908682618290e-05
4.212000000000000000e+03 1.262736034393310547e+01 1.472518730163574219e+01 5.127669282956048846e-06 3.043622564291581511e-05 1.066916865966049954e-05 -2.825446927090524696e-06
4.213000000000000000e+03 2.573110771179199219e+01 -1.363524627685546875e+01 3.620870411396026611e-01 -3.294355571269989014e-01 9.795443154871463776e-03 7.259702682495117188e-01
4.214000000000000000e+03 2.138156890869140625e+01 -1.277480411529541016e+01 4.665350317955017090e-01 -2.598947584629058838e-01 6.199208647012710571e-02 4.157916903495788574e-01
4.215000000000000000e+03 2.293303871154785156e+01 -1.350820159912109375e+01 3.832260072231292725e-01 -2.679311931133270264e-01 3.458844125270843506e-02 4.944183826446533203e-01
4.216000000000000000e+03 2.400673103332519531e+01 -1.231107711791992188e+01 5.726149678230285645e-01 -3.743318319320678711e-01 5.948493257164955139e-02 5.253604650497436523e-01
4.217000000000000000e+03 6.615873718261718750e+01 -9.789808094501495361e-02 -1.114592671394348145e+00 5.877041816711425781e+00 1.428734779357910156e+00 -1.523858547210693359e+00
4.218000000000000000e+03 2.523582458496093750e+01 -7.195790767669677734e+00 7.302911877632141113e-01 -4.423619210720062256e-01 8.637879043817520142e-02 -3.297318890690803528e-02
4.219000000000000000e+03 4.010057067871093750e+01 -2.265870285034179688e+01 9.702510386705398560e-02 6.203259944915771484e+00 1.890085458755493164e+00 7.686731815338134766e-01
4.220000000000000000e+03 4.775813674926757812e+01 4.975629806518554688e+00 -4.490998089313507080e-01 6.961715817451477051e-01 7.412153482437133789e-02 1.008431553840637207e+00
4.221000000000000000e+03 4.515499496459960938e+01 6.306647777557373047e+00 8.125634193420410156e-01 4.106106281280517578e+00 1.475600838661193848e+00 2.598749399185180664e+00
4.222000000000000000e+03 7.471519470214843750e+01 -2.553814315795898438e+01 1.681157499551773071e-01 1.005083179473876953e+01 3.065684080123901367e+00 -1.666017413139343262e+00
4.223000000000000000e+03 8.897404670715332031e+00 -6.514850139617919922e+00 -1.401488482952117920e-01 2.506695091724395752e-01 3.315620124340057373e-02 -8.031999319791793823e-02
4.224000000000000000e+03 3.896954345703125000e+01 -7.426763534545898438e+00 1.662611961364746094e+00 9.984941482543945312e+00 3.494266033172607422e+00 1.056246638298034668e+00
4.225000000000000000e+03 4.503643798828125000e+01 4.822922229766845703e+00 -4.522560536861419678e-01 3.853091955184936523e+00 1.020250797271728516e+00 2.562618970870971680e+00
4.226000000000000000e+03 4.559122085571289062e+01 4.332545757293701172e+00 -9.701558947563171387e-01 2.686231613159179688e+00 5.148227214813232422e-01 2.383929729461669922e+00
4.227000000000000000e+03 2.602971076965332031e+01 -7.099667549133300781e+00 8.101934790611267090e-01 -4.670620858669281006e-01 1.029394268989562988e-01 -9.441538900136947632e-02
4.228000000000000000e+03 5.798257827758789062e+01 2.932387351989746094e+00 -1.377587556838989258e+00 1.054533243179321289e+00 -9.691632539033889771e-02 -1.094605326652526855e+00
4.229000000000000000e+03 7.409583282470703125e+01 -2.026009559631347656e+01 4.822926223278045654e-01 1.049543190002441406e+01 3.293317317962646484e+00 -1.187506198883056641e+00
4.230000000000000000e+03 7.790301322937011719e+00 -7.000919342041015625e+00 -1.356668770313262939e-01 2.525987327098846436e-01 3.507955744862556458e-02 -1.475404500961303711e-01
4.231000000000000000e+03 8.667668342590332031e+00 -7.346365451812744141e+00 -1.190376430749893188e-01 3.077987432479858398e-01 5.662833526730537415e-02 -8.600181341171264648e-02
4.232000000000000000e+03 7.977096080780029297e+00 3.081738662719726562e+01 2.044584980467334390e-04 1.539728546049445868e-04 1.075294057955034077e-04 -6.482979370048269629e-05
4.233000000000000000e+03 3.816001510620117188e+01 -1.863289070129394531e+01 -1.078831553459167480e+00 7.928468704223632812e+00 2.054891109466552734e+00 1.405767798423767090e+00
4.234000000000000000e+03 5.932882308959960938e+00 2.950760269165039062e+01 2.115791285177692771e-04 -1.462119980715215206e-04 1.961013731488492340e-05 -1.205237349495291710e-04
4.235000000000000000e+03 6.282205581665039062e+00 3.110921859741210938e+01 1.069926947820931673e-04 -2.090362831950187683e-04 -3.061307506868615746e-05 -1.710123178781941533e-04
4.236000000000000000e+03 1.269111633300781250e+01 -7.686633110046386719e+00 4.044682160019874573e-02 2.384413480758666992e-01 8.366645127534866333e-02 2.028230577707290649e-01
4.237000000000000000e+03 1.008784675598144531e+01 -7.501129150390625000e+00 -7.676418870687484741e-02 3.249278068542480469e-01 7.444908469915390015e-02 3.044244274497032166e-02
4.238000000000000000e+03 7.367760467529296875e+01 -2.861501312255859375e+01 -4.283010065555572510e-01 1.006304740905761719e+01 2.890424013137817383e+00 -1.597207665443420410e+00
4.239000000000000000e+03 1.062592411041259766e+01 -6.859980106353759766e+00 -9.024137258529663086e-02 2.680763304233551025e-01 5.335048958659172058e-02 4.697281494736671448e-02
4.240000000000000000e+03 9.611985206604003906e+00 -7.701121330261230469e+00 -7.935366779565811157e-02 3.498163521289825439e-01 8.113880455493927002e-02 1.540209166705608368e-03
4.241000000000000000e+03 7.201808166503906250e+01 -7.653534889221191406e+00 5.064393952488899231e-02 9.362053871154785156e+00 2.823809385299682617e+00 -1.524154692888259888e-01
4.242000000000000000e+03 7.147364807128906250e+01 -8.312520027160644531e+00 1.528305858373641968e-01 9.744280815124511719e+00 2.969133377075195312e+00 -3.832764029502868652e-01
4.243000000000000000e+03 4.886408996582031250e+01 2.374981307983398438e+01 8.664069771766662598e-01 5.020991325378417969e+00 1.766219496726989746e+00 6.417894959449768066e-01
4.244000000000000000e+03 4.170823287963867188e+01 -2.457099914550781250e+01 2.227511852979660034e-01 4.509481430053710938e+00 1.419669747352600098e+00 -1.917742192745208740e-01
4.245000000000000000e+03 3.953210067749023438e+01 -2.607457542419433594e+01 6.985243558883666992e-01 5.447612285614013672e+00 1.843841075897216797e+00 1.121093630790710449e-01
4.246000000000000000e+03 3.621863174438476562e+01 -1.312118530273437500e+01 8.986949324607849121e-01 5.629087924957275391e+00 1.958334922790527344e+00 9.957782179117202759e-02
4.247000000000000000e+03 3.860382080078125000e+01 -4.967317581176757812e+00 1.026776075363159180e+00 8.774619102478027344e+00 2.940418481826782227e+00 1.182472705841064453e+00
4.248000000000000000e+03 3.812323379516601562e+01 -3.327727794647216797e+00 2.199011296033859253e-01 7.715759277343750000e+00 2.380697965621948242e+00 1.096885919570922852e+00
4.249000000000000000e+03 5.939272403717041016e+00 2.868803787231445312e+01 6.719182692904723808e-06 -1.315482950303703547e-04 -3.744873174582608044e-05 -1.617886591702699661e-04
4.250000000000000000e+03 5.265983963012695312e+01 4.344393253326416016e+00 -1.483635425567626953e+00 6.024875044822692871e-01 -2.643443942070007324e-01 -3.863633871078491211e-01
4.251000000000000000e+03 1.046081638336181641e+01 2.146928596496582031e+01 9.196135943057015538e-05 9.931501699611544609e-05 5.738291292800568044e-05 -1.227569191541988403e-05
4.252000000000000000e+03 6.255904674530029297e+00 6.801773548126220703e+00 1.151909418695140630e-05 -9.607191486793453805e-07 3.167512431900831871e-06 -4.276374966138973832e-06
4.253000000000000000e+03 5.380101203918457031e+00 8.367929458618164062e+00 -1.939322464750148356e-05 8.876313586370088160e-06 -3.155073272864683531e-06 4.432404239196330309e-06
4.254000000000000000e+03 6.993544101715087891e+00 3.148383903503417969e+01 9.144849173026159406e-05 2.066125452984124422e-04 8.941831038100644946e-05 -1.739171566441655159e-04
4.255000000000000000e+03 7.373668670654296875e+01 -2.781265640258789062e+01 -2.358876466751098633e-01 1.011119461059570312e+01 2.962591886520385742e+00 -1.656384110450744629e+00
4.256000000000000000e+03 7.368730163574218750e+01 2.166147804260253906e+01 1.602552533149719238e-01 5.529916286468505859e+00 1.707051515579223633e+00 -4.989227056503295898e-01
4.257000000000000000e+03 7.358232879638671875e+01 2.244554519653320312e+01 1.622658520936965942e-01 5.484273910522460938e+00 1.693961977958679199e+00 -4.645963311195373535e-01
4.258000000000000000e+03 7.441879272460937500e+01 2.387452888488769531e+01 1.225333437323570251e-01 5.499762535095214844e+00 1.686688780784606934e+00 -3.722227811813354492e-01
4.259000000000000000e+03 4.159789657592773438e+01 -2.578839683532714844e+01 2.827733457088470459e-01 4.308119297027587891e+00 1.377267718315124512e+00 -3.143751919269561768e-01
4.260000000000000000e+03 5.413685798645019531e+00 2.733190917968750000e+01 8.854246698319911957e-05 3.672996535897254944e-05 3.758172897505573928e-05 -2.649486532391165383e-06
4.261000000000000000e+03 6.407655239105224609e+00 2.905718612670898438e+01 7.366972567979246378e-05 1.775096898199990392e-04 7.535382610512897372e-05 -4.512961459113284945e-05
4.262000000000000000e+03 4.815708923339843750e+01 2.472712898254394531e+01 7.676928639411926270e-01 5.123795032501220703e+00 1.767446279525756836e+00 5.454189181327819824e-01
4.263000000000000000e+03 4.740415191650390625e+01 2.658089447021484375e+01 6.715379357337951660e-01 5.126050949096679688e+00 1.739276647567749023e+00 3.958584964275360107e-01
4.264000000000000000e+03 7.480558776855468750e+01 -2.193714332580566406e+01 3.952154815196990967e-01 1.001064014434814453e+01 3.121756553649902344e+00 -1.306707382202148438e+00
4.265000000000000000e+03 7.378781890869140625e+01 1.447020530700683594e+01 6.675523519515991211e-02 6.044090747833251953e+00 1.833253860473632812e+00 -7.769831418991088867e-01
4.266000000000000000e+03 6.692239284515380859e+00 2.310197257995605469e+01 3.568466127035208046e-05 1.007983664749190211e-04 4.094490941497497261e-05 -8.449217602901626378e-06
4.267000000000000000e+03 7.422608947753906250e+01 1.930422782897949219e+01 1.299237906932830811e-01 5.731640815734863281e+00 1.758469462394714355e+00 -5.713207125663757324e-01
4.268000000000000000e+03 7.390481567382812500e+01 -2.615498733520507812e+01 1.178366467356681824e-01 1.017450904846191406e+01 3.087703704833984375e+00 -1.697803258895874023e+00
4.269000000000000000e+03 1.046005344390869141e+01 -9.382531166076660156e+00 5.174307897686958313e-02 4.721534550189971924e-01 1.571689695119857788e-01 1.484956294298171997e-01
4.270000000000000000e+03 5.915955066680908203e+00 2.379767608642578125e+01 5.159299689694307745e-05 6.266487616812810302e-05 3.427736373851075768e-05 -2.847384166670963168e-05
4.271000000000000000e+03 5.949562072753906250e+00 1.988621520996093750e+01 -2.890383802878204733e-05 -1.787455585144925863e-05 -1.403351780027151108e-05 2.967169348266907036e-05
4.272000000000000000e+03 7.372454833984375000e+01 1.598968315124511719e+01 1.103387922048568726e-01 5.903368473052978516e+00 1.804112076759338379e+00 -7.299153804779052734e-01
4.273000000000000000e+03 7.471417999267578125e+01 -2.117093658447265625e+01 4.291531443595886230e-01 1.009275627136230469e+01 3.156572818756103516e+00 -1.237959861755371094e+00
4.274000000000000000e+03 7.366149139404296875e+01 -2.201646804809570312e+01 4.923295676708221436e-01 1.069459915161132812e+01 3.356078624725341797e+00 -1.260385632514953613e+00
4.275000000000000000e+03 7.308081054687500000e+01 -2.687648963928222656e+01 -4.978759586811065674e-02 1.018642425537109375e+01 3.040990829467773438e+00 -1.640047550201416016e+00
4.276000000000000000e+03 3.070376014709472656e+01 -1.352778244018554688e+01 8.538727760314941406e-01 -9.394545853137969971e-02 2.279781848192214966e-01 7.929939627647399902e-01
4.277000000000000000e+03 7.367103576660156250e+01 1.212774562835693359e+01 -3.584587713703513145e-03 6.248518466949462891e+00 1.873480200767517090e+00 -8.174024224281311035e-01
4.278000000000000000e+03 7.373278808593750000e+01 1.052535820007324219e+01 -6.854034215211868286e-02 6.430692195892333984e+00 1.908645629882812500e+00 -8.063635230064392090e-01
4.279000000000000000e+03 7.383592224121093750e+01 8.898405075073242188e+00 -1.469849944114685059e-01 6.629519939422607422e+00 1.944760441780090332e+00 -7.706491947174072266e-01
4.280000000000000000e+03 7.386337280273437500e+01 7.291644096374511719e+00 -2.194817662239074707e-01 6.828232288360595703e+00 1.982625126838684082e+00 -6.960286498069763184e-01
4.281000000000000000e+03 7.386110687255859375e+01 8.090724945068359375e+00 -1.880402565002441406e-01 6.737328529357910156e+00 1.964786529541015625e+00 -7.354913949966430664e-01
4.282000000000000000e+03 7.456150054931640625e+01 8.884341239929199219e+00 -1.254120916128158569e-01 6.780576705932617188e+00 1.996549367904663086e+00 -6.831591725349426270e-01
4.283000000000000000e+03 5.986993789672851562e+00 2.300278663635253906e+01 1.727583730826154351e-05 -5.086780583951622248e-05 -1.007759055937640369e-05 -1.197186247736681253e-05
4.284000000000000000e+03 7.410894775390625000e+01 1.056690514087677002e-01 -4.193499386310577393e-01 7.722561836242675781e+00 2.190963506698608398e+00 -3.855929523706436157e-02
4.285000000000000000e+03 7.425569152832031250e+01 1.845762634277343750e+01 1.217305734753608704e-01 5.796032905578613281e+00 1.775329113006591797e+00 -6.026124954223632812e-01
4.286000000000000000e+03 7.288534545898437500e+01 1.667177581787109375e+01 1.528808027505874634e-01 5.719954013824462891e+00 1.761850476264953613e+00 -7.718702554702758789e-01
4.287000000000000000e+03 7.409359741210937500e+01 9.585081934928894043e-01 -4.207367300987243652e-01 7.630585670471191406e+00 2.162954568862915039e+00 -1.269216686487197876e-01
4.288000000000000000e+03 7.406903076171875000e+01 -2.537239837646484375e+01 2.418425679206848145e-01 1.016943168640136719e+01 3.123382091522216797e+00 -1.646845459938049316e+00
4.289000000000000000e+03 7.378645324707031250e+01 9.709321975708007812e+00 -1.042566001415252686e-01 6.524693965911865234e+00 1.926131129264831543e+00 -7.929359674453735352e-01
4.290000000000000000e+03 7.472138214111328125e+01 -2.037088966369628906e+01 4.438194036483764648e-01 1.008103466033935547e+01 3.157456159591674805e+00 -1.179792284965515137e+00
4.291000000000000000e+03 7.393177032470703125e+01 -7.187362670898437500e+00 -4.010840132832527161e-02 8.723736763000488281e+00 2.605088472366333008e+00 3.571643531322479248e-01
4.292000000000000000e+03 7.479508209228515625e+01 -5.616065979003906250e+00 -1.404920667409896851e-01 8.289113998413085938e+00 2.444586753845214844e+00 4.531228840351104736e-01
4.293000000000000000e+03 7.414165496826171875e+01 1.836303114891052246e+00 -4.132648408412933350e-01 7.530622482299804688e+00 2.135207414627075195e+00 -2.220889329910278320e-01
4.294000000000000000e+03 7.434764862060546875e+01 -4.203253746032714844e+00 -2.449457049369812012e-01 8.205654144287109375e+00 2.388212442398071289e+00 3.441160321235656738e-01
4.295000000000000000e+03 7.398216247558593750e+01 -6.341639041900634766e+00 -1.086109355092048645e-01 8.563488006591796875e+00 2.536463022232055664e+00 3.592646718025207520e-01
4.296000000000000000e+03 6.240443229675292969e+00 -6.867382049560546875e+00 -1.356186419725418091e-01 1.563061326742172241e-01 6.206247489899396896e-03 -2.350882440805435181e-01
4.297000000000000000e+03 5.123631000518798828e+00 -8.501915931701660156e+00 -9.942363947629928589e-02 1.056199818849563599e-01 1.858903444372117519e-03 -3.065317869186401367e-01
4.298000000000000000e+03 7.485089874267578125e+01 -3.142765045166015625e+00 -2.586448788642883301e-01 8.055333137512207031e+00 2.339006423950195312e+00 3.316031396389007568e-01
4.299000000000000000e+03 7.210627746582031250e+01 -7.086076736450195312e+00 -2.202708646655082703e-02 9.172034263610839844e+00 2.745002031326293945e+00 -1.032951623201370239e-01
4.300000000000000000e+03 7.436474609375000000e+01 -2.840553760528564453e+00 -3.147634267807006836e-01 8.051830291748046875e+00 2.321120023727416992e+00 2.560262680053710938e-01
4.301000000000000000e+03 6.970323944091796875e+01 -4.892398357391357422e+00 -9.916465729475021362e-02 8.367120742797851562e+00 2.480386734008789062e+00 -7.402946949005126953e-01
4.302000000000000000e+03 7.350922393798828125e+01 -1.833918190002441406e+01 6.517235040664672852e-01 1.092888069152832031e+01 3.474181175231933594e+00 -1.098602652549743652e+00
4.303000000000000000e+03 7.468648529052734375e+01 4.142757892608642578e+00 -2.980362474918365479e-01 7.351427078247070312e+00 2.116017341613769531e+00 -3.823133707046508789e-01
4.304000000000000000e+03 7.314903259277343750e+01 -1.429091167449951172e+01 1.083427429199218750e+00 1.058550643920898438e+01 3.500680208206176758e+00 -5.334900617599487305e-01
4.305000000000000000e+03 7.482319641113281250e+01 -1.956732559204101562e+01 4.520569443702697754e-01 9.933801651000976562e+00 3.115757703781127930e+00 -1.111730813980102539e+00
4.306000000000000000e+03 7.484404754638671875e+01 -1.878734779357910156e+01 4.904304742813110352e-01 9.830678939819335938e+00 3.096332788467407227e+00 -1.037494897842407227e+00
4.307000000000000000e+03 7.423063659667968750e+01 2.633600997924804688e+01 1.158382073044776917e-01 5.386430263519287109e+00 1.650680541992187500e+00 -2.828606069087982178e-01
4.308000000000000000e+03 7.337590026855468750e+01 2.591537857055664062e+01 1.481738537549972534e-01 5.349977493286132812e+00 1.649445414543151855e+00 -3.246171772480010986e-01
4.309000000000000000e+03 7.469277954101562500e+01 -7.955711841583251953e+00 2.738638781011104584e-02 8.561470031738281250e+00 2.576656818389892578e+00 4.714545607566833496e-01
4.310000000000000000e+03 7.213917541503906250e+01 -8.178591728210449219e+00 1.094735488295555115e-01 9.498067855834960938e+00 2.882262468338012695e+00 -1.115050390362739563e-01
4.311000000000000000e+03 7.449870300292968750e+01 -1.314050197601318359e+01 7.010096311569213867e-01 9.311304092407226562e+00 3.003694295883178711e+00 -4.740915820002555847e-02
4.312000000000000000e+03 7.374115753173828125e+01 -1.334217929840087891e+01 8.852186203002929688e-01 9.933998107910156250e+00 3.245765209197998047e+00 -2.211557030677795410e-01
4.313000000000000000e+03 7.471475219726562500e+01 -1.146573448181152344e+01 4.570893645286560059e-01 8.984737396240234375e+00 2.832548141479492188e+00 2.556946575641632080e-01
4.314000000000000000e+03 7.483126831054687500e+01 -1.800942993164062500e+01 5.565959215164184570e-01 9.750770568847656250e+00 3.092210054397583008e+00 -9.396567344665527344e-01
4.315000000000000000e+03 7.244989776611328125e+01 -1.039760208129882812e+01 4.945069551467895508e-01 1.012899589538574219e+01 3.187050819396972656e+00 -1.012286767363548279e-01
4.316000000000000000e+03 7.290508270263671875e+01 -1.264629745483398438e+01 9.430100321769714355e-01 1.043429374694824219e+01 3.413191080093383789e+00 -2.487232983112335205e-01
4.317000000000000000e+03 7.467527770996093750e+01 -1.205571174621582031e+01 5.357632637023925781e-01 9.060359001159667969e+00 2.878836631774902344e+00 1.651314646005630493e-01
4.318000000000000000e+03 7.340184783935546875e+01 3.449449062347412109e+00 -4.422567188739776611e-01 7.227747917175292969e+00 2.035647392272949219e+00 -4.745523035526275635e-01
4.319000000000000000e+03 7.428536224365234375e+01 -1.247604274749755859e+01 6.303215026855468750e-01 9.363930702209472656e+00 2.998275756835937500e+00 3.680995479226112366e-02
4.320000000000000000e+03 7.431333923339843750e+01 -2.416179275512695312e+01 3.979893326759338379e-01 1.019330501556396484e+01 3.177388191223144531e+00 -1.530815362930297852e+00
4.321000000000000000e+03 7.480655670166015625e+01 -1.721466636657714844e+01 6.234210133552551270e-01 9.675033569335937500e+00 3.089536190032958984e+00 -8.270888328552246094e-01
4.322000000000000000e+03 7.446836853027343750e+01 -9.252459526062011719e+00 1.834910213947296143e-01 8.842575073242187500e+00 2.707819700241088867e+00 3.981267511844635010e-01
4.323000000000000000e+03 7.407575988769531250e+01 -8.761907577514648438e+00 1.335874944925308228e-01 8.940698623657226562e+00 2.722285747528076172e+00 3.548445701599121094e-01
4.324000000000000000e+03 7.039252471923828125e+01 -5.134446144104003906e+00 -1.285466849803924561e-01 8.534317016601562500e+00 2.521731138229370117e+00 -5.597017407417297363e-01
4.325000000000000000e+03 7.458235931396484375e+01 -3.697683095932006836e+00 -2.555124461650848389e-01 8.116756439208984375e+00 2.358373165130615234e+00 3.409308195114135742e-01
4.326000000000000000e+03 7.318746948242187500e+01 -8.036600112915039062e+00 7.052300125360488892e-02 9.113450050354003906e+00 2.755192041397094727e+00 1.976583749055862427e-01
4.327000000000000000e+03 7.446958923339843750e+01 1.288349246978759766e+01 1.425695698708295822e-02 6.322788238525390625e+00 1.901113510131835938e+00 -7.320880293846130371e-01
4.328000000000000000e+03 7.201698303222656250e+01 1.046742057800292969e+01 -8.797471970319747925e-02 6.080269336700439453e+00 1.797688364982604980e+00 -9.974609613418579102e-01
4.329000000000000000e+03 5.733855247497558594e+00 2.507375144958496094e+01 9.235701872967183590e-05 -3.074689084314741194e-05 1.848303872975520790e-05 -3.990350160165689886e-05
4.330000000000000000e+03 7.465399169921875000e+01 4.922469615936279297e+00 -2.762087285518646240e-01 7.260595798492431641e+00 2.095316171646118164e+00 -4.490734040737152100e-01
4.331000000000000000e+03 7.109720611572265625e+01 -5.367209911346435547e+00 -1.598897576332092285e-01 8.652368545532226562e+00 2.547743558883666992e+00 -3.524781763553619385e-01
4.332000000000000000e+03 7.402528381347656250e+01 -6.454778909683227539e-01 -4.103035032749176025e-01 7.811248302459716797e+00 2.220283508300781250e+00 3.859227523207664490e-02
4.333000000000000000e+03 7.394653320312500000e+01 -1.887029409408569336e+00 -3.895845711231231689e-01 7.947571277618408203e+00 2.267395973205566406e+00 1.381871849298477173e-01
4.334000000000000000e+03 6.045363426208496094e+00 2.134967422485351562e+01 -6.989660050749080256e-06 1.521185640740441158e-05 2.466658770572394133e-06 -1.181735296995611861e-05
4.335000000000000000e+03 7.297886657714843750e+01 1.381386399269104004e+00 -5.447857379913330078e-01 7.462742328643798828e+00 2.075387001037597656e+00 -3.172354102134704590e-01
4.336000000000000000e+03 7.387665557861328125e+01 6.503706932067871094e+00 -2.608068287372589111e-01 6.928195953369140625e+00 2.000216722488403320e+00 -6.590858101844787598e-01
4.337000000000000000e+03 1.057081031799316406e+01 3.125736045837402344e+01 2.822240348905324936e-04 -8.789265848463401198e-05 5.829941073898226023e-05 6.096779543440788984e-05
4.338000000000000000e+03 7.319796752929687500e+01 5.722806453704833984e+00 -3.535156846046447754e-01 6.885728359222412109e+00 1.959663748741149902e+00 -6.982002258300781250e-01
4.339000000000000000e+03 5.287614345550537109e+00 -1.070498371124267578e+01 -4.937991872429847717e-02 2.420263290405273438e-01 5.779392272233963013e-02 -3.133020699024200439e-01
4.340000000000000000e+03 9.711721420288085938e+00 1.603956985473632812e+01 5.872396650374867022e-05 5.366083132685162127e-05 3.371543789398856461e-05 -3.929284503101371229e-05
4.341000000000000000e+03 5.931213855743408203e+00 1.526669883728027344e+01 -6.213183951331302524e-05 2.787916855595540255e-05 -1.027580037771258503e-05 1.058253587871149648e-06
4.342000000000000000e+03 4.920028686523437500e+00 -1.207336902618408203e+01 1.432775147259235382e-02 2.539385855197906494e-01 8.047989755868911743e-02 -3.260429501533508301e-01
4.343000000000000000e+03 7.094114780426025391e+00 -1.278315162658691406e+01 1.674438118934631348e-01 8.143293261528015137e-01 2.945319414138793945e-01 -2.986574545502662659e-02
4.344000000000000000e+03 5.936212539672851562e+00 1.447650337219238281e+01 5.206424611969850957e-05 -1.914254789880942553e-05 9.876508556772023439e-06 -2.074776148219825700e-06
4.345000000000000000e+03 5.215702056884765625e+00 -1.447143745422363281e+01 2.929821312427520752e-01 5.636501908302307129e-01 2.569896876811981201e-01 -1.684395372867584229e-01
4.346000000000000000e+03 6.237872600555419922e+00 -1.329157924652099609e+01 1.808332800865173340e-01 7.303109765052795410e-01 2.733432650566101074e-01 -1.319075524806976318e-01
4.347000000000000000e+03 9.661953926086425781e+00 -1.278128051757812500e+01 4.170050323009490967e-01 8.548290133476257324e-01 3.815502226352691650e-01 3.488390147686004639e-01
4.348000000000000000e+03 5.528281211853027344e+00 1.796795272827148438e+01 -3.668059798656031489e-05 4.109611836611293256e-06 -9.771295481186825782e-06 -1.559923839522525668e-05
4.349000000000000000e+03 6.079672336578369141e+00 -1.024062156677246094e+01 -6.166370213031768799e-02 3.463515043258666992e-01 8.540634065866470337e-02 -2.572746276855468750e-01
4.350000000000000000e+03 5.443084239959716797e+00 -1.004022693634033203e+01 -7.935801148414611816e-02 2.302414476871490479e-01 4.526503384113311768e-02 -3.027294278144836426e-01
4.351000000000000000e+03 8.232583045959472656e+00 -7.941070079803466797e+00 -1.089541092514991760e-01 3.383314311504364014e-01 6.881319731473922729e-02 -1.085401102900505066e-01
4.352000000000000000e+03 6.079294681549072266e+00 -1.401081466674804688e+01 2.930471897125244141e-01 7.999301552772521973e-01 3.278932273387908936e-01 -9.802612662315368652e-02
4.353000000000000000e+03 8.199513435363769531e+00 2.413517951965332031e+01 -3.751081385416910052e-05 -5.409030927694402635e-05 -2.748033693933393806e-05 5.460509419208392501e-05
4.354000000000000000e+03 7.852517127990722656e+00 6.730586051940917969e+00 1.287744998990092427e-05 2.414283244434045628e-06 4.587519924825755879e-06 -8.195864211302250624e-06
4.355000000000000000e+03 7.713350772857666016e+00 2.036338043212890625e+01 -9.813100041355937719e-05 -2.726453385548666120e-05 -3.761866173590533435e-05 2.061272971332073212e-05
4.356000000000000000e+03 5.238594532012939453e+00 1.300466823577880859e+01 -3.660955917439423501e-05 1.185234668810153380e-05 -7.427163382089929655e-06 3.169351884935167618e-06
4.357000000000000000e+03 5.929683685302734375e+00 1.367678070068359375e+01 -4.818171873921528459e-05 1.552781213831622154e-05 -9.796171980269718915e-06 7.195274520199745893e-06
4.358000000000000000e+03 5.970145702362060547e+00 1.605368232727050781e+01 6.449122884077951312e-05 -1.465322839067084715e-05 1.495139986218418926e-05 4.198932401777710766e-06
4.359000000000000000e+03 8.390379905700683594e+00 1.060631942749023438e+01 -3.241954618715681136e-05 -1.622827403480187058e-05 -1.459434588468866423e-05 2.457674418110400438e-05
4.360000000000000000e+03 5.472673892974853516e+00 -7.245201110839843750e+00 -1.198979020118713379e-01 9.573974460363388062e-02 -7.247448433190584183e-03 -2.753355801105499268e-01
4.361000000000000000e+03 5.904633045196533203e+00 1.286899757385253906e+01 4.100996738998219371e-05 -1.005002650344977155e-05 9.287981811212375760e-06 -4.112077022000448778e-06
4.362000000000000000e+03 1.200222492218017578e+01 1.245626068115234375e+01 -4.023029759991914034e-06 1.217718727275496349e-05 2.446247208354179747e-06 3.743539991774014197e-06
4.363000000000000000e+03 8.643814086914062500e+00 8.267601013183593750e+00 -1.403741316607920453e-05 -8.245527169492561370e-06 -6.684882009722059593e-06 1.709051321086008102e-05
4.364000000000000000e+03 7.296097564697265625e+01 2.151358795166015625e+01 1.963605433702468872e-01 5.453003883361816406e+00 1.694809317588806152e+00 -5.388354063034057617e-01
4.365000000000000000e+03 7.367357635498046875e+01 2.037584686279296875e+01 1.590902358293533325e-01 5.602147102355957031e+00 1.728371143341064453e+00 -5.651499629020690918e-01
4.366000000000000000e+03 7.372787475585937500e+01 1.370833206176757812e+01 4.766273126006126404e-02 6.106137752532958984e+00 1.846140146255493164e+00 -7.958218455314636230e-01
4.367000000000000000e+03 6.213747501373291016e+00 7.581573009490966797e+00 -1.470848474127706140e-05 4.025478574476437643e-06 -3.204901986464392394e-06 6.133677743491716683e-06
4.368000000000000000e+03 6.019731521606445312e+00 9.125002861022949219e+00 -2.513173421903047711e-05 1.749985312926582992e-05 -2.289564235979923978e-06 1.924654270624159835e-06
4.369000000000000000e+03 5.879801273345947266e+00 1.206772899627685547e+01 -3.944208947359584272e-05 1.168773542303824797e-05 -8.326305760419927537e-06 8.621765118732582778e-06
4.370000000000000000e+03 3.778609848022460938e+01 -2.435311794281005859e+00 -2.456603050231933594e-01 7.138309478759765625e+00 2.067794799804687500e+00 1.030149459838867188e+00
4.371000000000000000e+03 9.910417556762695312e+00 2.700732231140136719e+01 -3.910202212864533067e-05 -1.021597927319817245e-04 -4.237854591337963939e-05 -3.600486252253176644e-06
4.372000000000000000e+03 7.275547790527343750e+01 -5.159179210662841797e+00 -2.270436733961105347e-01 8.537712097167968750e+00 2.493200540542602539e+00 1.130639091134071350e-01
4.373000000000000000e+03 5.779047489166259766e+00 2.448704910278320312e+01 -3.162170833093114197e-05 -5.828887879033572972e-05 -2.697317722777370363e-05 2.334278542548418045e-05
4.374000000000000000e+03 6.596243858337402344e+00 -1.498827266693115234e+01 5.490167737007141113e-01 1.117462992668151855e+00 4.999439120292663574e-01 1.007352098822593689e-01
4.375000000000000000e+03 4.596518707275390625e+01 9.843353271484375000e+00 2.042473316192626953e+00 4.579929828643798828e+00 1.986720919609069824e+00 2.393505096435546875e+00
4.376000000000000000e+03 4.621973800659179688e+01 1.149028205871582031e+01 2.057204246520996094e+00 4.915426254272460938e+00 2.091789245605468750e+00 2.278147935867309570e+00
4.377000000000000000e+03 4.749338912963867188e+01 1.958563613891601562e+01 1.077649950981140137e+00 5.369243621826171875e+00 1.934068083763122559e+00 1.154970884323120117e+00
4.378000000000000000e+03 4.463149642944335938e+01 -2.789233970642089844e+01 -2.805688977241516113e-02 2.409502744674682617e+00 7.144337296485900879e-01 -6.842499971389770508e-01
4.379000000000000000e+03 7.308309936523437500e+01 2.446924972534179688e+01 1.782524287700653076e-01 5.358842372894287109e+00 1.661128401756286621e+00 -4.022178947925567627e-01
4.380000000000000000e+03 6.689805030822753906e+00 3.359885787963867188e+01 1.129486336139962077e-04 -1.192207928397692740e-04 -1.881646767287747934e-06 -2.739291812758892775e-04
4.381000000000000000e+03 4.224663162231445312e+01 -2.643160247802734375e+01 1.731416583061218262e-01 3.790660619735717773e+00 1.189140677452087402e+00 -4.974620044231414795e-01
4.382000000000000000e+03 4.292982101440429688e+01 -2.702118110656738281e+01 1.156917437911033630e-01 3.354689121246337891e+00 1.041114211082458496e+00 -6.175580024719238281e-01
4.383000000000000000e+03 7.345697021484375000e+01 -1.754996681213378906e+01 7.584943771362304688e-01 1.089440059661865234e+01 3.495868682861328125e+00 -1.051921010017395020e+00
4.384000000000000000e+03 4.371016311645507812e+01 -2.752001953125000000e+01 3.960101306438446045e-02 2.923642873764038086e+00 8.889731764793395996e-01 -6.651817560195922852e-01
4.385000000000000000e+03 3.147459220886230469e+01 -1.376392841339111328e+01 8.563072085380554199e-01 2.102225422859191895e-01 3.199589252471923828e-01 6.651360988616943359e-01
4.386000000000000000e+03 2.916971397399902344e+01 -1.220188236236572266e+01 1.158460140228271484e+00 -3.102197051048278809e-01 2.544721364974975586e-01 7.558317780494689941e-01
4.387000000000000000e+03 4.838857269287109375e+01 2.669060325622558594e+01 6.999461650848388672e-01 4.982221126556396484e+00 1.704650282859802246e+00 4.586893320083618164e-01
4.388000000000000000e+03 3.519491958618164062e+01 -1.507794761657714844e+01 -1.877589523792266846e-01 4.128629684448242188e+00 1.182261228561401367e+00 -6.210683658719062805e-02
4.389000000000000000e+03 1.974600982666015625e+01 -1.336876964569091797e+01 4.715809822082519531e-01 -1.910023391246795654e-01 8.417358994483947754e-02 3.445323705673217773e-01
4.390000000000000000e+03 3.750948715209960938e+01 -8.159132003784179688e+00 1.802967071533203125e+00 7.425336360931396484e+00 2.768491029739379883e+00 7.805155515670776367e-01
4.391000000000000000e+03 6.941282272338867188e+00 -1.352885818481445312e+01 2.838826775550842285e-01 9.315852522850036621e-01 3.646403849124908447e-01 2.798562636598944664e-03
4.392000000000000000e+03 7.766553401947021484e+00 -1.299927520751953125e+01 2.776181399822235107e-01 9.274021983146667480e-01 3.615061044692993164e-01 9.936716407537460327e-02
4.393000000000000000e+03 4.125825881958007812e+01 3.304717302322387695e+00 -1.436988592147827148e+00 9.733259201049804688e+00 2.488881111145019531e+00 2.104318857192993164e+00
4.394000000000000000e+03 7.268025207519531250e+01 -3.208030700683593750e+01 -9.816801548004150391e-01 9.306390762329101562e+00 2.497413158416748047e+00 -8.449760079383850098e-01
4.395000000000000000e+03 1.134597015380859375e+01 1.783316802978515625e+01 -1.290412910748273134e-04 -3.476894562481902540e-05 -4.914307282888330519e-05 3.038742215721867979e-05
4.396000000000000000e+03 7.168473052978515625e+01 -8.982194900512695312e+00 2.410961687564849854e-01 9.947502136230468750e+00 3.056579589843750000e+00 -3.336707055568695068e-01
4.397000000000000000e+03 7.199746704101562500e+01 -9.674742698669433594e+00 3.623483180999755859e-01 1.010877323150634766e+01 3.141336441040039062e+00 -2.301017791032791138e-01
4.398000000000000000e+03 4.528546905517578125e+01 9.974562644958496094e+00 2.064907312393188477e+00 5.321562290191650391e+00 2.215940952301025391e+00 2.639434814453125000e+00
4.399000000000000000e+03 4.738576126098632812e+01 1.035266208648681641e+01 2.046318292617797852e+00 3.604683637619018555e+00 1.695300579071044922e+00 1.873672723770141602e+00
4.400000000000000000e+03 7.172495269775390625e+01 -3.416709518432617188e+01 -9.975927472114562988e-01 8.298948287963867188e+00 2.190406560897827148e+00 -2.958241701126098633e-01
4.401000000000000000e+03 1.741936111450195312e+01 -7.471128940582275391e+00 2.312181591987609863e-01 -5.806022509932518005e-02 5.194737762212753296e-02 2.878340780735015869e-01
4.402000000000000000e+03 7.011170196533203125e+01 -5.860939025878906250e+00 -4.713767673820257187e-03 8.784276962280273438e+00 2.633869171142578125e+00 -7.352396845817565918e-01
4.403000000000000000e+03 1.260204982757568359e+01 6.446321487426757812e+00 7.947750418679788709e-06 1.866339516709558666e-05 7.983343493833672255e-06 -8.088029062491841614e-06
4.404000000000000000e+03 1.379883575439453125e+01 7.878220558166503906e+00 -3.860212018480524421e-06 -9.264827895094640553e-06 -3.937512246920960024e-06 -8.312154591294529382e-07
4.405000000000000000e+03 5.943743896484375000e+01 2.725057840347290039e+00 -1.231867432594299316e+00 1.557315468788146973e+00 9.763440489768981934e-02 -1.417689085006713867e+00
4.406000000000000000e+03 2.351130676269531250e+01 -1.216075706481933594e+01 5.603520274162292480e-01 -3.683712184429168701e-01 5.759425088763237000e-02 5.121760368347167969e-01
4.407000000000000000e+03 4.729852676391601562e+01 1.783377838134765625e+01 1.304742574691772461e+00 5.329247474670410156e+00 1.990196943283081055e+00 1.414270997047424316e+00
4.408000000000000000e+03 4.841501998901367188e+01 5.888208389282226562e+00 2.581170797348022461e-01 1.021605014801025391e+00 3.839166164398193359e-01 8.811093568801879883e-01
4.409000000000000000e+03 1.027984809875488281e+01 6.569532394409179688e+00 -1.180009439849527553e-05 -8.932134733186103404e-06 -6.219668648554943502e-06 9.765413778950460255e-06
4.410000000000000000e+03 1.261072158813476562e+01 1.284579086303710938e+01 -1.612005462447996251e-07 -6.589120857825037092e-06 -2.025096364377532154e-06 -6.337651484500383958e-06
4.411000000000000000e+03 3.232503509521484375e+01 -1.253627204895019531e+01 1.356782317161560059e+00 1.009722828865051270e+00 7.099515795707702637e-01 4.301391839981079102e-01
4.412000000000000000e+03 6.683082103729248047e+00 -8.551397323608398438e+00 -1.109699830412864685e-01 2.891698181629180908e-01 5.345994979143142700e-02 -2.184866666793823242e-01
4.413000000000000000e+03 6.172250747680664062e+00 -9.610087394714355469e+00 -8.864364773035049438e-02 3.136138021945953369e-01 6.749104708433151245e-02 -2.535939216613769531e-01
4.414000000000000000e+03 1.580145931243896484e+01 -7.421935558319091797e+00 1.643801778554916382e-01 4.117314144968986511e-02 6.166599690914154053e-02 2.879894375801086426e-01
4.415000000000000000e+03 5.223213577270507812e+01 4.815610885620117188e+00 -1.092053413391113281e+00 6.469827890396118164e-01 -1.335211843252182007e-01 -4.162416160106658936e-01
4.416000000000000000e+03 5.665311813354492188e+01 4.283874034881591797e+00 -9.983602166175842285e-01 1.078334093093872070e+00 2.399216964840888977e-02 -1.010475158691406250e+00
4.417000000000000000e+03 5.873323822021484375e+01 2.757390737533569336e+00 -1.302971005439758301e+00 1.297209858894348145e+00 -1.728341332636773586e-03 -1.256210803985595703e+00
4.418000000000000000e+03 1.163071155548095703e+01 1.495124721527099609e+01 5.328246516000945121e-06 5.446632349048741162e-05 1.793837145669385791e-05 -1.303644148720195517e-05
4.419000000000000000e+03 1.089000129699707031e+01 -1.292861938476562500e+01 5.790061950683593750e-01 7.157909870147705078e-01 3.884391486644744873e-01 4.438543319702148438e-01
4.420000000000000000e+03 1.164148902893066406e+01 -1.237790584564208984e+01 5.143403410911560059e-01 5.723335146903991699e-01 3.260021507740020752e-01 4.331439733505249023e-01
4.421000000000000000e+03 5.084490203857421875e+01 5.441136837005615234e+00 -5.138169527053833008e-01 6.356657743453979492e-01 3.655464947223663330e-02 -1.257995516061782837e-01
4.422000000000000000e+03 4.992076492309570312e+01 5.694418907165527344e+00 -2.074464261531829834e-01 6.882419586181640625e-01 1.442386656999588013e-01 1.453057676553726196e-01
4.423000000000000000e+03 1.232075881958007812e+01 8.105688095092773438e+00 -5.503682700691570062e-07 1.509159301349427551e-05 4.362367690191604197e-06 -6.449962256738217548e-06
4.424000000000000000e+03 3.482088088989257812e+01 -6.061859130859375000e+00 1.605386972427368164e+00 3.198568105697631836e+00 1.441186547279357910e+00 5.407885313034057617e-01
4.425000000000000000e+03 4.457703018188476562e+01 4.172242641448974609e+00 -1.167375087738037109e+00 4.547811031341552734e+00 1.014130830764770508e+00 2.730019569396972656e+00
4.426000000000000000e+03 3.680960845947265625e+01 -9.801318168640136719e+00 1.726249694824218750e+00 6.433907032012939453e+00 2.448046922683715820e+00 5.295690894126892090e-01
4.427000000000000000e+03 3.634857559204101562e+01 -1.635082435607910156e+01 -9.640122056007385254e-01 6.127871513366699219e+00 1.549157857894897461e+00 2.624035775661468506e-01
4.428000000000000000e+03 9.643823623657226562e+00 -1.209780120849609375e+01 3.000563085079193115e-01 7.615824937820434570e-01 3.184916377067565918e-01 2.552435994148254395e-01
4.429000000000000000e+03 1.095997047424316406e+01 -1.224324226379394531e+01 4.536741673946380615e-01 6.524187922477722168e-01 3.318278789520263672e-01 3.891852796077728271e-01
4.430000000000000000e+03 1.418833541870117188e+01 -7.222408771514892578e+00 7.943782955408096313e-02 1.306396275758743286e-01 6.302323192358016968e-02 2.430083602666854858e-01
4.431000000000000000e+03 1.200478172302246094e+01 -7.617516040802001953e+00 8.687880821526050568e-03 2.699961662292480469e-01 8.360521495342254639e-02 1.626265794038772583e-01
4.432000000000000000e+03 4.463132095336914062e+01 6.989199638366699219e+00 1.130810022354125977e+00 4.954466342926025391e+00 1.825582861900329590e+00 2.783852338790893555e+00
4.433000000000000000e+03 4.340741348266601562e+01 4.871651649475097656e+00 -3.485115766525268555e-01 6.555909156799316406e+00 1.862219333648681641e+00 2.775313615798950195e+00
4.434000000000000000e+03 4.722526168823242188e+01 1.693158149719238281e+01 1.436061263084411621e+00 5.278131484985351562e+00 2.014257907867431641e+00 1.543859362602233887e+00
4.435000000000000000e+03 4.809849166870117188e+01 1.783039665222167969e+01 1.405390858650207520e+00 4.989265441894531250e+00 1.918396949768066406e+00 1.337778568267822266e+00
4.436000000000000000e+03 1.199274349212646484e+01 1.428589725494384766e+01 -2.943505023722536862e-06 -3.501499668345786631e-05 -1.138755033025518060e-05 -2.062253997792140581e-06
4.437000000000000000e+03 5.810302257537841797e+00 1.056750106811523438e+01 -3.134983126074075699e-05 8.672575859236530960e-06 -6.803176802350208163e-06 2.822945361913298257e-06
4.438000000000000000e+03 1.636982917785644531e+01 -8.557945251464843750e+00 2.777101993560791016e-01 8.635960519313812256e-03 8.590385317802429199e-02 3.347366154193878174e-01
4.439000000000000000e+03 1.819455909729003906e+01 -1.150917434692382812e+01 5.105065703392028809e-01 -1.393088251352310181e-01 1.113593205809593201e-01 3.835525512695312500e-01
4.440000000000000000e+03 3.246833801269531250e+01 -6.022259712219238281e+00 1.535690307617187500e+00 8.953554034233093262e-01 7.293137311935424805e-01 1.045393347740173340e-01
4.441000000000000000e+03 4.607809829711914062e+01 1.066224765777587891e+01 2.087279081344604492e+00 4.766706943511962891e+00 2.056195735931396484e+00 2.355967998504638672e+00
4.442000000000000000e+03 7.340279388427734375e+01 -1.674264526367187500e+01 8.803260326385498047e-01 1.082028675079345703e+01 3.510183811187744141e+00 -9.643144607543945312e-01
4.443000000000000000e+03 1.147060298919677734e+01 2.702613067626953125e+01 4.148282750975340605e-04 -5.021152173867449164e-05 1.093850296456366777e-04 6.863358976261224598e-06
4.444000000000000000e+03 1.082231044769287109e+01 2.556824302673339844e+01 2.690033288672566414e-04 -2.834323095157742500e-05 7.219803228508681059e-05 -3.586352613638155162e-05
4.445000000000000000e+03 1.289044189453125000e+01 1.209191131591796875e+01 -1.349007220596831758e-06 -2.055437107628677040e-06 -1.021333332573703956e-06 1.705031536403112113e-06
4.446000000000000000e+03 1.183148193359375000e+01 -1.028860092163085938e+01 2.291344255208969116e-01 4.402034282684326172e-01 2.008013576269149780e-01 2.996300756931304932e-01
4.447000000000000000e+03 7.320839691162109375e+01 -2.597470664978027344e+01 2.060803771018981934e-01 1.030693149566650391e+01 3.153903722763061523e+00 -1.620171427726745605e+00
4.448000000000000000e+03 5.821371555328369141e+00 -1.162857437133789062e+01 3.696293802931904793e-03 4.362490177154541016e-01 1.319835931062698364e-01 -2.549760043621063232e-01
4.449000000000000000e+03 9.094792366027832031e+00 -1.273559951782226562e+01 3.667054772377014160e-01 8.857694268226623535e-01 3.757424652576446533e-01 2.593626677989959717e-01
4.450000000000000000e+03 4.658106231689453125e+01 1.320778751373291016e+01 1.926405906677246094e+00 5.078883647918701172e+00 2.101586818695068359e+00 2.057426452636718750e+00
4.451000000000000000e+03 4.587244415283203125e+01 1.337448883056640625e+01 1.832677841186523438e+00 5.660521030426025391e+00 2.247959613800048828e+00 2.184470176696777344e+00
4.452000000000000000e+03 1.129149150848388672e+01 2.178934288024902344e+01 9.124912321567535400e-05 6.745721475454047322e-05 4.761190211866050959e-05 -1.076010721590137109e-05
4.453000000000000000e+03 1.068022155761718750e+01 1.994495582580566406e+01 -8.864057599566876888e-05 -8.332529978360980749e-05 -5.158976273378357291e-05 7.881555461608513724e-07
4.454000000000000000e+03 6.532910919189453125e+01 -2.571621537208557129e-01 -1.149769067764282227e+00 5.365923881530761719e+00 1.264846444129943848e+00 -1.666048526763916016e+00
4.455000000000000000e+03 2.441299057006835938e+01 -7.322607040405273438e+00 6.407747864723205566e-01 -4.043837785720825195e-01 7.091730833053588867e-02 3.305026143789291382e-02
4.456000000000000000e+03 5.501700592041015625e+01 4.768276691436767578e+00 -9.634396433830261230e-01 8.834434747695922852e-01 -2.399886399507522583e-02 -7.589657902717590332e-01
4.457000000000000000e+03 5.583464050292968750e+01 3.422987937927246094e+00 -1.587099790573120117e+00 6.963623762130737305e-01 -2.672212421894073486e-01 -6.977799534797668457e-01
4.458000000000000000e+03 6.938449096679687500e+01 -4.025543689727783203e+00 -2.413358986377716064e-01 8.039363861083984375e+00 2.339408397674560547e+00 -7.224778532981872559e-01
4.459000000000000000e+03 6.886192321777343750e+01 -2.465899467468261719e+00 -6.024183034896850586e-01 7.488087177276611328e+00 2.065700531005859375e+00 -8.098481297492980957e-01
4.460000000000000000e+03 4.584220504760742188e+01 7.536347866058349609e+00 1.515552520751953125e+00 3.776566505432128906e+00 1.587635755538940430e+00 2.346622467041015625e+00
4.461000000000000000e+03 4.588808059692382812e+01 9.040408134460449219e+00 1.945157408714294434e+00 4.328682899475097656e+00 1.882152080535888672e+00 2.391189813613891602e+00
4.462000000000000000e+03 3.347957611083984375e+01 -1.179336261749267578e+01 1.583576321601867676e+00 2.170048475265502930e+00 1.126087427139282227e+00 3.270293474197387695e-01
4.463000000000000000e+03 5.876253128051757812e+00 9.850048065185546875e+00 2.662009137566201389e-05 -1.499589507147902623e-05 3.487258709355955943e-06 2.710476337597356178e-06
4.464000000000000000e+03 4.700365829467773438e+01 1.506688594818115234e+01 1.701852083206176758e+00 5.168876171112060547e+00 2.061218500137329102e+00 1.790537357330322266e+00
4.465000000000000000e+03 6.083506774902343750e+01 2.217849016189575195e+00 -1.221024036407470703e+00 2.160032510757446289e+00 2.817025482654571533e-01 -1.660531759262084961e+00
4.466000000000000000e+03 1.105231285095214844e+01 2.997659301757812500e+01 3.057859721593558788e-04 -1.645385636948049068e-04 4.237421671859920025e-05 1.069558493327349424e-04
4.467000000000000000e+03 1.893206787109375000e+01 -8.509434700012207031e+00 3.660548329353332520e-01 -1.511218994855880737e-01 6.447988003492355347e-02 3.072256445884704590e-01
4.468000000000000000e+03 1.825349426269531250e+01 -7.578763008117675781e+00 2.701551020145416260e-01 -1.003818139433860779e-01 5.093198269605636597e-02 2.806956171989440918e-01
4.469000000000000000e+03 9.476105690002441406e+00 6.622027873992919922e+00 1.067402808985207230e-05 7.539776106568751857e-06 5.464141395350452513e-06 -9.937054528563749045e-06
4.470000000000000000e+03 1.083032131195068359e+01 1.169116592407226562e+01 -9.353406312584411353e-06 2.113030859618447721e-05 3.533070412231609225e-06 -1.288851422032166738e-06
4.471000000000000000e+03 4.877355957031250000e+01 2.210403823852539062e+01 9.783816337585449219e-01 5.039784908294677734e+00 1.805449962615966797e+00 8.064401149749755859e-01
4.472000000000000000e+03 7.387829589843750000e+01 -2.557606458663940430e+00 -3.519534468650817871e-01 8.025629043579101562e+00 2.302102565765380859e+00 1.879379004240036011e-01
4.473000000000000000e+03 1.318914794921875000e+01 7.533327102661132812e+00 5.922443619965633843e-07 8.059938409132882953e-06 2.595654905235278420e-06 -5.896570655750110745e-06
4.474000000000000000e+03 1.199484157562255859e+01 8.735963821411132812e+00 3.724069586041878210e-08 1.101357156585436314e-05 3.315243702672887594e-06 -1.831949930419796146e-06
4.475000000000000000e+03 5.704132080078125000e+01 3.736416816711425781e+00 -1.197638511657714844e+00 1.007640242576599121e+00 -5.699945986270904541e-02 -1.011987447738647461e+00
4.476000000000000000e+03 7.285052490234375000e+01 -1.176351547241210938e+01 7.505342364311218262e-01 1.024876022338867188e+01 3.299788475036621094e+00 -1.191526502370834351e-01
4.477000000000000000e+03 7.403581237792968750e+01 -1.066897869110107422e+01 4.104849100112915039e-01 9.293859481811523438e+00 2.911303281784057617e+00 2.551302313804626465e-01
4.478000000000000000e+03 5.309368515014648438e+01 3.874318599700927734e+00 -1.770048975944519043e+00 5.884096622467041016e-01 -3.544918000698089600e-01 -4.232867956161499023e-01
4.479000000000000000e+03 7.333550262451171875e+01 -1.592593002319335938e+01 9.857201576232910156e-01 1.074334239959716797e+01 3.518718957901000977e+00 -8.461154103279113770e-01
4.480000000000000000e+03 4.715719223022460938e+01 2.808983802795410156e+01 6.148903965950012207e-01 5.019605636596679688e+00 1.690348744392395020e+00 3.476889431476593018e-01
4.481000000000000000e+03 1.256049728393554688e+01 1.097002506256103516e+01 -3.203339247193071060e-06 -2.630906465128646232e-06 -1.750273668221780099e-06 3.322122665849747136e-06
4.482000000000000000e+03 1.067314243316650391e+01 1.829997444152832031e+01 1.222578721353784204e-04 4.521533264778554440e-05 5.024196434533223510e-05 -1.268458254344295710e-05
4.483000000000000000e+03 3.462074279785156250e+01 -1.332982826232910156e+01 9.307996630668640137e-01 3.335024595260620117e+00 1.279747247695922852e+00 1.269132941961288452e-01
4.484000000000000000e+03 3.180702018737792969e+01 -9.127088546752929688e+00 1.947683095932006836e+00 8.399075865745544434e-01 8.362771868705749512e-01 3.037030100822448730e-01
4.485000000000000000e+03 3.998176574707031250e+01 -2.480757331848144531e+01 5.549122691154479980e-01 5.483048915863037109e+00 1.811388373374938965e+00 2.989776432514190674e-01
4.486000000000000000e+03 4.102447128295898438e+01 -2.643170928955078125e+01 3.342162966728210449e-01 4.471972942352294922e+00 1.441856741905212402e+00 -2.925128340721130371e-01
4.487000000000000000e+03 1.115983390808105469e+01 2.807103729248046875e+01 3.509717935230582952e-04 -5.638463699142448604e-05 8.837614586809650064e-05 -3.366898818057961762e-05
4.488000000000000000e+03 2.086646461486816406e+01 -1.315242576599121094e+01 4.572016894817352295e-01 -2.342272996902465820e-01 6.689231097698211670e-02 3.896907567977905273e-01
4.489000000000000000e+03 2.233296775817871094e+01 -1.304004764556884766e+01 4.303734004497528076e-01 -2.701250314712524414e-01 4.807451367378234863e-02 4.539261460304260254e-01
4.490000000000000000e+03 4.399340438842773438e+01 4.878110885620117188e+00 -4.309792816638946533e-01 5.592679977416992188e+00 1.548510193824768066e+00 2.790417432785034180e+00
4.491000000000000000e+03 4.582395553588867188e+01 6.835184097290039062e+00 1.123564362525939941e+00 3.508343458175659180e+00 1.389572381973266602e+00 2.317265987396240234e+00
4.492000000000000000e+03 4.830899429321289062e+01 2.568912124633789062e+01 7.416667938232421875e-01 5.050765991210937500e+00 1.737729787826538086e+00 4.992922544479370117e-01
4.493000000000000000e+03 4.830495071411132812e+01 2.772147178649902344e+01 6.430687308311462402e-01 4.939232826232910156e+00 1.674690485000610352e+00 4.319266080856323242e-01
4.494000000000000000e+03 1.074168491363525391e+01 2.314374732971191406e+01 1.042772237269673496e-05 1.346514764009043574e-04 4.352375981397926807e-05 -2.179888906539417803e-05
4.495000000000000000e+03 1.023633289337158203e+01 2.090833473205566406e+01 -5.336533649824559689e-05 -1.043096926878206432e-04 -4.730250657303258777e-05 6.494480658147949725e-06
4.496000000000000000e+03 1.805315208435058594e+01 -1.213289737701416016e+01 5.261654257774353027e-01 -1.313198208808898926e-01 1.184536740183830261e-01 3.733464777469635010e-01
4.497000000000000000e+03 1.177258205413818359e+01 3.164350318908691406e+01 4.045563400723040104e-04 -2.536445972509682178e-04 4.527352211880497634e-05 2.125053724739700556e-04
4.498000000000000000e+03 1.144457054138183594e+01 3.310664367675781250e+01 3.625657991506159306e-04 -2.884345885831862688e-04 2.223936462542042136e-05 3.554558816176722758e-06
4.499000000000000000e+03 1.055674552917480469e+01 2.474690246582031250e+01 -1.568174411659128964e-05 -5.649742433888604864e-06 -6.399445737770292908e-06 9.378814866067841649e-05
4.500000000000000000e+03 6.859267425537109375e+01 -3.331614494323730469e+00 -3.580390214920043945e-01 7.663794994354248047e+00 2.191726922988891602e+00 -9.029237627983093262e-01
4.501000000000000000e+03 2.184242057800292969e+01 -7.615144729614257812e+00 4.566354751586914062e-01 -2.848598957061767578e-01 5.153267458081245422e-02 1.820658594369888306e-01
4.502000000000000000e+03 2.094108009338378906e+01 -7.688992977142333984e+00 4.006819128990173340e-01 -2.368029206991195679e-01 4.916369915008544922e-02 2.260996699333190918e-01
4.503000000000000000e+03 3.666905212402343750e+01 -1.450126171112060547e+01 1.284952014684677124e-01 6.193502426147460938e+00 1.896599411964416504e+00 4.768710955977439880e-02
4.504000000000000000e+03 4.239963150024414062e+01 -3.478963470458984375e+01 -9.407397508621215820e-01 3.244718074798583984e+00 6.911935210227966309e-01 -5.465253591537475586e-01
4.505000000000000000e+03 4.766302490234375000e+01 2.125190544128417969e+01 9.194026589393615723e-01 5.328807353973388672e+00 1.874462962150573730e+00 9.090171456336975098e-01
4.506000000000000000e+03 4.779637527465820312e+01 2.210450935363769531e+01 8.638539910316467285e-01 5.309004306793212891e+00 1.851857542991638184e+00 7.985790967941284180e-01
4.507000000000000000e+03 3.697619628906250000e+01 -3.545510292053222656e+00 3.920892477035522461e-01 5.872869014739990234e+00 1.879487514495849609e+00 1.011785626411437988e+00
4.508000000000000000e+03 3.622903442382812500e+01 -3.830973386764526367e+00 5.920187234878540039e-01 4.868846893310546875e+00 1.638259649276733398e+00 8.197447657585144043e-01
4.509000000000000000e+03 2.846231460571289062e+01 -1.330045700073242188e+01 6.564171910285949707e-01 -3.779581785202026367e-01 8.353769779205322266e-02 8.929143548011779785e-01
4.510000000000000000e+03 4.037169265747070312e+01 -2.692883300781250000e+01 3.994084000587463379e-01 4.762083053588867188e+00 1.548447489738464355e+00 -2.557356953620910645e-01
4.511000000000000000e+03 4.316241836547851562e+01 -2.842762374877929688e+01 -3.580784425139427185e-02 3.143924951553344727e+00 9.324350953102111816e-01 -6.981479525566101074e-01
4.512000000000000000e+03 7.355376434326171875e+01 -2.368025970458984375e+01 4.934282004833221436e-01 1.053106689453125000e+01 3.307348489761352539e+00 -1.416357994079589844e+00
4.513000000000000000e+03 2.990331077575683594e+01 -6.523018836975097656e+00 1.331911921501159668e+00 -2.118092924356460571e-01 3.360308110713958740e-01 -2.078879773616790771e-01
4.514000000000000000e+03 2.904521751403808594e+01 -6.827863216400146484e+00 1.264335989952087402e+00 -3.783939480781555176e-01 2.657826244831085205e-01 -1.872741729021072388e-01
4.515000000000000000e+03 6.144169330596923828e+00 8.366662025451660156e+00 1.791078830137848854e-05 -9.024995051731821150e-06 2.665737611096119508e-06 -5.633429282170254737e-06
4.516000000000000000e+03 3.092434883117675781e+01 -7.046214580535888672e+00 1.616175651550292969e+00 1.603910326957702637e-01 5.329700112342834473e-01 -1.097478717565536499e-02
4.517000000000000000e+03 1.112836074829101562e+01 2.631523323059082031e+01 -1.180691906483843923e-04 -6.117004886618815362e-06 -3.725585702341049910e-05 6.484309415100142360e-05
4.518000000000000000e+03 7.255451965332031250e+01 -2.984741401672363281e+01 -8.358439803123474121e-01 9.652462005615234375e+00 2.644985198974609375e+00 -1.251363754272460938e+00
4.519000000000000000e+03 6.594032764434814453e+00 3.030306625366210938e+01 9.344278805656358600e-05 2.001686953008174896e-04 8.808344864519312978e-05 -6.727550498908385634e-05
4.520000000000000000e+03 3.407934570312500000e+01 -5.954163074493408203e+00 1.607200503349304199e+00 2.382754325866699219e+00 1.196986436843872070e+00 4.051058292388916016e-01
4.521000000000000000e+03 3.680028152465820312e+01 -8.107116699218750000e+00 1.872776627540588379e+00 6.276186466217041016e+00 2.444689035415649414e+00 7.138263583183288574e-01
4.522000000000000000e+03 3.252713394165039062e+01 -6.783413887023925781e+00 1.765459060668945312e+00 1.101257562637329102e+00 8.600150346755981445e-01 1.750786602497100830e-01
4.523000000000000000e+03 6.293809890747070312e+01 2.283013343811035156e+00 -1.120482563972473145e+00 3.526164293289184570e+00 7.217044830322265625e-01 -1.916177034378051758e+00
4.524000000000000000e+03 6.547983169555664062e+00 1.190792274475097656e+01 3.828443004749715328e-05 -9.540345672576222569e-06 8.623224857728928328e-06 -1.894410161185078323e-05
4.525000000000000000e+03 7.605882644653320312e+00 1.026773262023925781e+01 -1.036857884173514321e-05 -2.888470407924614847e-05 -1.177598460344597697e-05 1.958386746991891414e-05
4.526000000000000000e+03 6.946976470947265625e+01 -3.412345409393310547e+00 -4.055657684803009033e-01 7.900876045227050781e+00 2.248593091964721680e+00 -6.628766655921936035e-01
4.527000000000000000e+03 6.943415069580078125e+01 -3.603233337402343750e+01 -8.489024639129638672e-01 6.150095939636230469e+00 1.590358018875122070e+00 3.412351608276367188e-01
4.528000000000000000e+03 4.791789627075195312e+01 2.868922424316406250e+01 5.825163125991821289e-01 4.915294170379638672e+00 1.649343132972717285e+00 3.963467776775360107e-01
4.529000000000000000e+03 4.674897003173828125e+01 2.744979667663574219e+01 6.442729830741882324e-01 5.118820667266845703e+00 1.728928089141845703e+00 3.077327609062194824e-01
4.530000000000000000e+03 7.177359008789062500e+01 -3.165881347656250000e+01 -1.158551573753356934e+00 8.912672042846679688e+00 2.326236248016357422e+00 -7.202647924423217773e-01
4.531000000000000000e+03 7.231748199462890625e+01 -3.318152236938476562e+01 -1.013507843017578125e+00 8.858721733093261719e+00 2.353564023971557617e+00 -5.536232590675354004e-01
4.532000000000000000e+03 1.220441627502441406e+01 3.818930053710937500e+01 -6.228966522030532360e-04 5.205798879615031183e-05 -1.712515950202941895e-04 -1.501571969129145145e-03
4.533000000000000000e+03 7.242184448242187500e+01 -3.630663681030273438e+01 -6.652514934539794922e-01 8.428339004516601562e+00 2.328926086425781250e+00 -2.500873506069183350e-01
4.534000000000000000e+03 7.131651306152343750e+01 -3.264673614501953125e+01 -1.237757802009582520e+00 8.370434761047363281e+00 2.139802932739257812e+00 -4.018013179302215576e-01
4.535000000000000000e+03 7.277226257324218750e+01 2.797962570190429688e+01 1.515846699476242065e-01 5.262151241302490234e+00 1.624120712280273438e+00 -2.629947960376739502e-01
4.536000000000000000e+03 4.637036514282226562e+01 -3.302675628662109375e+01 -6.020026803016662598e-01 1.950312137603759766e+00 4.044928550720214844e-01 -5.707513093948364258e-01
4.537000000000000000e+03 6.917424011230468750e+01 3.542283248901367188e+01 1.273893862962722778e-01 5.079426288604736328e+00 1.562044620513916016e+00 -6.159334257245063782e-02
4.538000000000000000e+03 7.135557556152343750e+01 3.627595520019531250e+01 7.530812919139862061e-02 5.150611400604248047e+00 1.567775845527648926e+00 -5.482355877757072449e-02
4.539000000000000000e+03 8.623592376708984375e+00 2.986636734008789062e+01 2.461149706505239010e-04 -6.358417067531263456e-06 7.192695920821279287e-05 -6.132796261226758361e-05
4.540000000000000000e+03 7.823118209838867188e+00 3.187046813964843750e+01 1.195895456476137042e-04 -3.319504030514508486e-04 -6.370825576595962048e-05 -2.361045480938628316e-04
4.541000000000000000e+03 4.453922271728515625e+01 -3.385840225219726562e+01 -7.507573366165161133e-01 2.662247896194458008e+00 5.734471678733825684e-01 -6.234890222549438477e-01
4.542000000000000000e+03 1.095003128051757812e+01 3.218366622924804688e+01 3.191662544850260019e-04 -3.101679030805826187e-04 2.699499191294307820e-06 -4.718619165942072868e-04
4.543000000000000000e+03 1.115923023223876953e+01 3.483906936645507812e+01 1.360246824333444238e-04 -1.291974040213972330e-04 2.048186388492467813e-06 -7.124185231077717617e-06
4.544000000000000000e+03 1.217446899414062500e+01 -3.838865280151367188e+01 -3.087869845330715179e-02 -3.442193567752838135e-01 -1.125294193625450134e-01 1.078774109482765198e-01
4.545000000000000000e+03 4.005117416381835938e+01 -3.568123626708984375e+01 -1.149095058441162109e+00 3.726991891860961914e+00 7.733690738677978516e-01 -3.094588816165924072e-01
4.546000000000000000e+03 4.074685287475585938e+01 -2.938451385498046875e+01 -1.165797486901283264e-01 4.237290859222412109e+00 1.236213326454162598e+00 -5.351111888885498047e-01
4.547000000000000000e+03 4.421301651000976562e+01 -3.201565170288085938e+01 -5.445521473884582520e-01 2.744635343551635742e+00 6.600249409675598145e-01 -6.887044906616210938e-01
4.548000000000000000e+03 6.730784606933593750e+01 4.082883453369140625e+01 6.807057559490203857e-02 5.068244457244873047e+00 1.540894508361816406e+00 -5.991334095597267151e-03
4.549000000000000000e+03 1.038025379180908203e+01 -4.039048385620117188e+01 1.217262446880340576e-01 -1.909269541501998901e-01 -2.076021209359169006e-02 4.208186641335487366e-02
4.550000000000000000e+03 1.045666313171386719e+01 -3.751285934448242188e+01 -2.404451742768287659e-02 -2.689169943332672119e-01 -8.788844943046569824e-02 1.214946061372756958e-01
4.551000000000000000e+03 6.924720764160156250e+01 3.251463317871093750e+01 1.885688602924346924e-01 5.068345069885253906e+00 1.577074170112609863e+00 -1.353941857814788818e-01
4.552000000000000000e+03 4.763119506835937500e+01 3.344101715087890625e+01 3.787295147776603699e-02 4.692078590393066406e+00 1.418985366821289062e+00 3.491979837417602539e-01
4.553000000000000000e+03 4.805934906005859375e+01 3.044424438476562500e+01 4.323838353157043457e-01 4.805129051208496094e+00 1.571253895759582520e+00 3.919055461883544922e-01
4.554000000000000000e+03 1.198584747314453125e+01 3.580845260620117188e+01 -6.576201121788471937e-05 -1.347070792689919472e-04 -6.014073005644604564e-05 -1.294631860218942165e-03
4.555000000000000000e+03 5.259819412231445312e+01 -4.143664932250976562e+01 -2.933321297168731689e-01 3.878029286861419678e-01 2.834123745560646057e-02 -9.237825870513916016e-02
4.556000000000000000e+03 7.232737064361572266e+00 -4.155521011352539062e+01 1.460714340209960938e-01 1.958374232053756714e-01 1.025726571679115295e-01 -2.849035337567329407e-02
4.557000000000000000e+03 2.381351852416992188e+01 -1.297735595703125000e+01 4.625746607780456543e-01 -3.293982744216918945e-01 3.995291143655776978e-02 5.548863410949707031e-01
4.558000000000000000e+03 2.441826057434082031e+01 -1.308423805236816406e+01 4.655146300792694092e-01 -3.347663581371307373e-01 3.922448307275772095e-02 5.871401429176330566e-01
4.559000000000000000e+03 2.443023300170898438e+01 -8.040888786315917969e+00 7.285689115524291992e-01 -4.423211812973022461e-01 8.587432652711868286e-02 1.080403774976730347e-01
4.560000000000000000e+03 2.357287406921386719e+01 -7.456189155578613281e+00 5.733823180198669434e-01 -3.662168383598327637e-01 6.214964017271995544e-02 8.629762381315231323e-02
4.561000000000000000e+03 3.327875137329101562e+01 -6.778028964996337891e+00 1.787121057510375977e+00 1.722778797149658203e+00 1.052969932556152344e+00 2.981548011302947998e-01
4.562000000000000000e+03 2.557563018798828125e+01 -1.297358226776123047e+01 5.472555756568908691e-01 -3.844313025474548340e-01 4.884728044271469116e-02 6.753983497619628906e-01
4.563000000000000000e+03 3.828036880493164062e+01 -7.387148380279541016e+00 1.719575524330139160e+00 8.664754867553710938e+00 3.115298986434936523e+00 9.513875246047973633e-01
4.564000000000000000e+03 6.627120971679687500e+01 8.655332326889038086e-01 -1.130946755409240723e+00 5.718307971954345703e+00 1.376208424568176270e+00 -1.550958275794982910e+00
4.565000000000000000e+03 9.083023071289062500e+00 2.878799629211425781e+01 2.951991627924144268e-04 -6.837719411123543978e-05 6.804658914916217327e-05 6.334361842164071277e-06
4.566000000000000000e+03 7.386632537841796875e+01 -1.412756824493408203e+01 9.102840423583984375e-01 9.955488204956054688e+00 3.259731769561767578e+00 -3.631933629512786865e-01
4.567000000000000000e+03 1.007363796234130859e+01 -8.013339042663574219e+00 -5.092968046665191650e-02 3.674579858779907227e-01 9.495849162340164185e-02 4.538035020232200623e-02
4.568000000000000000e+03 2.104333305358886719e+01 -9.227165222167968750e+00 4.960670769214630127e-01 -2.787217199802398682e-01 6.520361453294754028e-02 3.038817942142486572e-01
4.569000000000000000e+03 1.331357002258300781e+01 -8.431416511535644531e+00 1.269861757755279541e-01 2.311521917581558228e-01 1.074415147304534912e-01 2.661979794502258301e-01
4.570000000000000000e+03 1.132999229431152344e+01 -7.556811332702636719e+00 -2.900996617972850800e-02 2.974845468997955322e-01 8.054237812757492065e-02 1.191205754876136780e-01
4.571000000000000000e+03 2.876215553283691406e+01 -1.375635242462158203e+01 5.133283138275146484e-01 -3.586823642253875732e-01 4.639377444982528687e-02 9.624226093292236328e-01
4.572000000000000000e+03 2.602617454528808594e+01 -7.852604389190673828e+00 9.342719316482543945e-01 -5.040311813354492188e-01 1.290722191333770752e-01 2.213962003588676453e-02
4.573000000000000000e+03 8.832957267761230469e+00 -8.483407974243164062e+00 -6.760700047016143799e-02 4.102096259593963623e-01 1.027807816863059998e-01 -4.019756615161895752e-02
4.574000000000000000e+03 1.315996456146240234e+01 -1.191542148590087891e+01 5.247632861137390137e-01 3.412215113639831543e-01 2.597954273223876953e-01 4.378900527954101562e-01
4.575000000000000000e+03 5.010927200317382812e+01 2.443950271606445312e+01 9.165998697280883789e-01 4.780879974365234375e+00 1.709244012832641602e+00 6.119066476821899414e-01
4.576000000000000000e+03 1.865134429931640625e+01 -1.230753517150878906e+01 5.268260836601257324e-01 -1.662818640470504761e-01 1.081632673740386963e-01 3.738966584205627441e-01
4.577000000000000000e+03 1.927262496948242188e+01 -1.242975711822509766e+01 5.099182128906250000e-01 -1.935946792364120483e-01 9.489706158638000488e-02 3.680188655853271484e-01
4.578000000000000000e+03 6.092250347137451172e+00 1.685867691040039062e+01 -6.995342118898406625e-05 1.281797995034139603e-05 -1.714063182589598000e-05 2.579710780992172658e-06
4.579000000000000000e+03 7.323989105224609375e+01 -6.139785766601562500e+00 -1.278963685035705566e-01 8.676160812377929688e+00 2.564479351043701172e+00 2.277236133813858032e-01
4.580000000000000000e+03 2.352545166015625000e+01 -1.002171134948730469e+01 7.105492949485778809e-01 -4.376217424869537354e-01 8.187825977802276611e-02 3.489003777503967285e-01
4.581000000000000000e+03 1.018892765045166016e+01 1.555181312561035156e+01 -4.303474634070880711e-05 -5.438496373244561255e-05 -2.922591374954208732e-05 3.766152076423168182e-05
4.582000000000000000e+03 4.914000320434570312e+01 2.465307998657226562e+01 8.397563695907592773e-01 4.955021858215332031e+00 1.738433480262756348e+00 5.915772914886474609e-01
4.583000000000000000e+03 7.377741336822509766e+00 -9.642640113830566406e+00 -6.916043907403945923e-02 4.444042742252349854e-01 1.125731468200683594e-01 -1.477123647928237915e-01
4.584000000000000000e+03 5.771393775939941406e+00 -8.773110389709472656e+00 -1.036673113703727722e-01 2.018322795629501343e-01 2.944949269294738770e-02 -2.761487066745758057e-01
4.585000000000000000e+03 4.576478576660156250e+01 6.159575462341308594e+00 7.377977371215820312e-01 3.314046382904052734e+00 1.215553164482116699e+00 2.310244321823120117e+00
4.586000000000000000e+03 4.701972579956054688e+01 5.160128116607666016e+00 -2.001696676015853882e-01 1.290655970573425293e+00 3.271459043025970459e-01 1.552150130271911621e+00
4.587000000000000000e+03 3.585172653198242188e+01 -1.183016967773437500e+01 1.409226298332214355e+00 5.066928863525390625e+00 1.942846536636352539e+00 2.570002675056457520e-01
4.588000000000000000e+03 3.619669723510742188e+01 -1.128260898590087891e+01 1.486686825752258301e+00 5.542487621307373047e+00 2.108752250671386719e+00 2.843666672706604004e-01
4.589000000000000000e+03 3.795866394042968750e+01 -4.133918285369873047e+00 6.550614833831787109e-01 7.537209033966064453e+00 2.457681179046630859e+00 1.084767103195190430e+00
4.590000000000000000e+03 3.747350311279296875e+01 -3.098810434341430664e+00 8.448833227157592773e-02 6.753280639648437500e+00 2.051330566406250000e+00 1.021613121032714844e+00
4.591000000000000000e+03 4.034368133544921875e+01 -2.613568305969238281e+01 4.869927763938903809e-01 4.961175441741943359e+00 1.634450435638427734e+00 -9.555690735578536987e-02
4.592000000000000000e+03 7.268127441406250000e+01 2.348546409606933594e+01 1.998867243528366089e-01 5.358218193054199219e+00 1.667431473731994629e+00 -4.562482833862304688e-01
4.593000000000000000e+03 6.073047637939453125e+01 2.944602489471435547e+00 -1.079897284507751465e+00 2.241042852401733398e+00 3.483436703681945801e-01 -1.707002997398376465e+00
4.594000000000000000e+03 7.317007446289062500e+01 1.519215202331542969e+01 1.105734333395957947e-01 5.877233505249023438e+00 1.796342134475708008e+00 -7.968713045120239258e-01
4.595000000000000000e+03 1.027543640136718750e+01 3.033767890930175781e+01 2.421700337436050177e-04 -2.099247649312019348e-04 9.673577551438938826e-06 -2.550884964875876904e-04
4.596000000000000000e+03 7.256172180175781250e+01 -7.814988613128662109e+00 5.375650897622108459e-02 9.289855003356933594e+00 2.803083419799804688e+00 3.498847037553787231e-02
4.597000000000000000e+03 7.343776702880859375e+01 1.843531990051269531e+01 1.536143720149993896e-01 5.690482139587402344e+00 1.753228902816772461e+00 -6.561182141304016113e-01
4.598000000000000000e+03 7.304076385498046875e+01 1.589573955535888672e+01 1.282123774290084839e-01 5.805398464202880859e+00 1.780083179473876953e+00 -7.876159548759460449e-01
4.599000000000000000e+03 8.392016410827636719e+00 2.276331138610839844e+01 3.512784678605385125e-05 6.742796540493145585e-05 3.076674329349771142e-05 5.119011257193051279e-05
4.600000000000000000e+03 2.962944412231445312e+01 -1.280055046081542969e+01 1.023895263671875000e+00 -2.627823352813720703e-01 2.283338755369186401e-01 8.011239171028137207e-01
4.601000000000000000e+03 2.837422561645507812e+01 -7.390754699707031250e+00 1.251999497413635254e+00 -4.413599967956542969e-01 2.431918531656265259e-01 -1.148744076490402222e-01
4.602000000000000000e+03 4.558711624145507812e+01 4.884663581848144531e+00 -3.467281758785247803e-01 2.997069120407104492e+00 7.951022386550903320e-01 2.429177522659301758e+00
4.603000000000000000e+03 7.300636291503906250e+01 2.690225410461425781e+01 1.554076820611953735e-01 5.296905994415283203e+00 1.635694026947021484e+00 -2.991139888763427734e-01
4.604000000000000000e+03 7.242575073242187500e+01 2.535988807678222656e+01 1.994945108890533447e-01 5.284251689910888672e+00 1.645123839378356934e+00 -3.767977356910705566e-01
4.605000000000000000e+03 7.368925476074218750e+01 1.133449077606201172e+01 -3.654693812131881714e-02 6.337487220764160156e+00 1.890282154083251953e+00 -8.201636075973510742e-01
4.606000000000000000e+03 7.338510131835937500e+01 1.927895927429199219e+01 1.629236489534378052e-01 5.629814147949218750e+00 1.737821340560913086e+00 -6.241381764411926270e-01
4.607000000000000000e+03 7.301142883300781250e+01 9.694664955139160156e+00 -1.179714798927307129e-01 6.374359130859375000e+00 1.876916289329528809e+00 -8.750600218772888184e-01
4.608000000000000000e+03 7.315338134765625000e+01 8.105054855346679688e+00 -2.182288169860839844e-01 6.586534976959228516e+00 1.910491824150085449e+00 -8.280503153800964355e-01
4.609000000000000000e+03 7.379240417480468750e+01 -2.439959335327148438e+01 4.235654473304748535e-01 1.034816741943359375e+01 3.231519937515258789e+00 -1.522268414497375488e+00
4.610000000000000000e+03 6.013715267181396484e+00 2.642760658264160156e+01 9.498794679529964924e-05 -2.302102984685916454e-05 2.159007635782472789e-05 -2.610533374536316842e-05
4.611000000000000000e+03 7.348966217041015625e+01 1.130920290946960449e+00 -4.884240627288818359e-01 7.555669784545898438e+00 2.120173692703247070e+00 -2.170914411544799805e-01
4.612000000000000000e+03 7.272209930419921875e+01 2.239168548583984375e+01 2.054843157529830933e-01 5.398042201995849609e+00 1.681058049201965332e+00 -5.061698555946350098e-01
4.613000000000000000e+03 8.963160514831542969e+00 2.697249984741210938e+01 3.356612432980909944e-05 -2.107541076838970184e-04 -5.315639646141789854e-05 -9.449356730328872800e-05
4.614000000000000000e+03 5.864694595336914062e+00 2.571248435974121094e+01 2.733712062763515860e-05 2.877986480598337948e-05 1.683509617578238249e-05 -4.997767246095463634e-05
4.615000000000000000e+03 7.362124633789062500e+01 -4.688911437988281250e+00 -2.441892772912979126e-01 8.349745750427246094e+00 2.431666851043701172e+00 2.670694589614868164e-01
4.616000000000000000e+03 7.394723510742187500e+01 -8.034134864807128906e+00 5.464870855212211609e-02 8.884321212768554688e+00 2.681690931320190430e+00 3.565042316913604736e-01
4.617000000000000000e+03 7.406401824951171875e+01 -3.433464288711547852e+00 -3.024057149887084961e-01 8.126562118530273438e+00 2.347246885299682617e+00 2.629926204681396484e-01
4.618000000000000000e+03 7.085031127929687500e+01 -6.099624156951904297e+00 -4.996304586529731750e-02 8.890712738037109375e+00 2.652224779129028320e+00 -4.981614649295806885e-01
4.619000000000000000e+03 7.257949066162109375e+01 1.927210235595703125e+01 2.038661539554595947e-01 5.513745784759521484e+00 1.715283632278442383e+00 -6.628604531288146973e-01
4.620000000000000000e+03 1.289217567443847656e+01 8.344985961914062500e+00 -7.723228918621316552e-07 -9.318038792116567492e-06 -3.027108505193609744e-06 1.326020992564735934e-06
4.621000000000000000e+03 6.791069030761718750e+01 -6.516626477241516113e-01 -9.509055018424987793e-01 6.802022457122802734e+00 1.755335092544555664e+00 -1.099869132041931152e+00
4.622000000000000000e+03 7.357080078125000000e+01 -1.263304710388183594e+00 -4.370221495628356934e-01 7.855836391448974609e+00 2.225644350051879883e+00 3.929109871387481689e-02
4.623000000000000000e+03 7.232424926757812500e+01 -4.186177253723144531e+00 -3.244614899158477783e-01 8.341784477233886719e+00 2.405196666717529297e+00 8.121122606098651886e-03
4.624000000000000000e+03 6.903028964996337891e+00 -7.878455162048339844e+00 -1.204269975423812866e-01 2.626360058784484863e-01 4.266269877552986145e-02 -2.043396234512329102e-01
4.625000000000000000e+03 7.398241424560546875e+01 -9.730816841125488281e+00 2.664102613925933838e-01 9.137925148010253906e+00 2.821300745010375977e+00 3.105016052722930908e-01
4.626000000000000000e+03 7.034470367431640625e+01 -3.475404381752014160e-01 -7.751539945602416992e-01 7.388654232025146484e+00 1.984050035476684570e+00 -5.753438472747802734e-01
4.627000000000000000e+03 7.395910644531250000e+01 4.945995807647705078e+00 -3.314644396305084229e-01 7.134987831115722656e+00 2.041057109832763672e+00 -5.330091118812561035e-01
4.628000000000000000e+03 7.239089202880859375e+01 2.610489130020141602e+00 -5.763433575630187988e-01 7.199002742767333984e+00 1.986797809600830078e+00 -5.332639813423156738e-01
4.629000000000000000e+03 7.297043609619140625e+01 -1.814061880111694336e+00 -4.755528867244720459e-01 7.918107509613037109e+00 2.232766389846801758e+00 5.176154081709682941e-04
4.630000000000000000e+03 7.391457366943359375e+01 5.720340251922607422e+00 -3.010117709636688232e-01 7.034786701202392578e+00 2.020132541656494141e+00 -5.977532267570495605e-01
4.631000000000000000e+03 7.311957550048828125e+01 7.308763980865478516e+00 -2.609664499759674072e-01 6.695662021636962891e+00 1.930408716201782227e+00 -7.869288325309753418e-01
4.632000000000000000e+03 7.135718536376953125e+01 -4.628020763397216797e+00 -2.639570534229278564e-01 8.430130958557128906e+00 2.449852228164672852e+00 -2.337197214365005493e-01
4.633000000000000000e+03 6.573075294494628906e+00 1.516547012329101562e+01 5.849083390785381198e-05 -2.309700357727706432e-05 1.061814873537514359e-05 7.159478172980016097e-06
4.634000000000000000e+03 6.628199577331542969e+00 1.437768554687500000e+01 -6.252006278373301029e-05 3.975837898906320333e-05 -6.828505320299882442e-06 -4.556317435344681144e-06
4.635000000000000000e+03 7.961698055267333984e+00 -1.222007274627685547e+01 1.563026010990142822e-01 8.097693920135498047e-01 2.898215949535369873e-01 5.677407979965209961e-02
4.636000000000000000e+03 8.122121810913085938e+00 -1.054296493530273438e+01 1.047716569155454636e-02 5.899481773376464844e-01 1.801276057958602905e-01 -3.293657675385475159e-02
4.637000000000000000e+03 6.654540538787841797e+00 -1.109683513641357422e+01 -5.756222642958164215e-03 5.243100523948669434e-01 1.555661559104919434e-01 -1.773138940334320068e-01
4.638000000000000000e+03 5.511948108673095703e+00 -1.304674816131591797e+01 1.170815005898475647e-01 5.128580927848815918e-01 1.889818757772445679e-01 -2.394495457410812378e-01
4.639000000000000000e+03 7.197505474090576172e+00 1.512997722625732422e+01 -4.120017911191098392e-05 1.179674927698215470e-05 -8.821029041428118944e-06 -5.143472208146704361e-06
4.640000000000000000e+03 7.292664337158203125e+01 2.708620786666870117e+00 -5.156198740005493164e-01 7.262209892272949219e+00 2.023977041244506836e+00 -4.640317261219024658e-01
4.641000000000000000e+03 9.585984230041503906e+00 2.130236434936523438e+01 4.574805279844440520e-05 1.596028450876474380e-04 6.160527118481695652e-05 -7.276885753526585177e-06
4.642000000000000000e+03 8.099116325378417969e+00 -1.138368034362792969e+01 9.103326499462127686e-02 7.023316621780395508e-01 2.380094826221466064e-01 2.191684208810329437e-02
4.643000000000000000e+03 5.588424682617187500e+00 -9.388498306274414062e+00 -8.490288257598876953e-02 2.162924557924270630e-01 3.941687196493148804e-02 -2.932704985141754150e-01
4.644000000000000000e+03 6.320845127105712891e+00 1.770283317565917969e+01 7.210372859844937921e-05 2.015956306422594935e-05 2.767898695310577750e-05 -4.011974397144513205e-06
4.645000000000000000e+03 6.210002899169921875e+00 2.483756637573242188e+01 8.894524216884747148e-05 8.145809260895475745e-05 5.112099825055338442e-05 -5.514164513442665339e-05
4.646000000000000000e+03 7.331238269805908203e+00 1.633365058898925781e+01 -6.668703281320631504e-05 -3.500968432490481064e-06 -2.105639941873960197e-05 -2.855050524885882623e-06
4.647000000000000000e+03 6.749624252319335938e+00 1.660018539428710938e+01 6.762547855032607913e-05 4.283792804926633835e-06 2.157278140657581389e-05 -2.962601911349338479e-06
4.648000000000000000e+03 7.368461608886718750e+01 1.291861820220947266e+01 2.080843783915042877e-02 6.175812244415283203e+00 1.858986258506774902e+00 -8.104512691497802734e-01
4.649000000000000000e+03 7.289678955078125000e+01 1.052905654907226562e+01 -7.821162790060043335e-02 6.257424354553222656e+00 1.853763818740844727e+00 -9.007461667060852051e-01
4.650000000000000000e+03 7.301007747650146484e+00 1.898818588256835938e+01 9.353418136015534401e-05 4.131051537115126848e-05 4.045340756420046091e-05 -1.356350003334227949e-05
4.651000000000000000e+03 7.309924316406250000e+01 1.455656909942626953e+01 9.184617549180984497e-02 5.906509399414062500e+00 1.799506664276123047e+00 -8.311538696289062500e-01
4.652000000000000000e+03 6.544197082519531250e+00 1.274269390106201172e+01 -5.802107625640928745e-05 1.997336767090018839e-05 -1.141431221185484901e-05 1.775089185684919357e-05
4.653000000000000000e+03 3.633737564086914062e+01 -1.545702266693115234e+01 -4.382773339748382568e-01 5.797067642211914062e+00 1.607637047767639160e+00 5.540959909558296204e-02
4.654000000000000000e+03 5.836983203887939453e+00 1.130066871643066406e+01 3.211379953427240252e-05 -4.364161668490851298e-06 8.324891496158670634e-06 -5.771504675067262724e-06
4.655000000000000000e+03 7.320729064941406250e+01 1.999979209899902344e+01 1.755673736333847046e-01 5.572242736816406250e+00 1.724343061447143555e+00 -5.983434915542602539e-01
4.656000000000000000e+03 7.264820098876953125e+00 1.447404670715332031e+01 1.130126656789798290e-05 -4.434595757629722357e-05 -9.913406756822951138e-06 3.695700434036552906e-05
4.657000000000000000e+03 7.820214271545410156e+00 7.533485889434814453e+00 -1.715793223411310464e-05 -3.216122195226489566e-07 -5.243863597570452839e-06 1.116237854148494080e-05
4.658000000000000000e+03 7.937530994415283203e+00 9.230401992797851562e+00 -1.835375405789818615e-05 -1.535044793854467571e-05 -1.011126005323603749e-05 2.224095442215912044e-05
4.659000000000000000e+03 8.182985305786132812e+00 9.946658134460449219e+00 2.374253926973324269e-05 1.627712481422349811e-05 1.200589940708596259e-05 -2.559012864367105067e-05
4.660000000000000000e+03 6.478246212005615234e+00 1.112390327453613281e+01 -3.085310163442045450e-05 -6.639586445089662448e-06 -1.124780646932777017e-05 1.854931542766280472e-05
4.661000000000000000e+03 7.325433254241943359e+00 2.338464164733886719e+01 2.712341938604367897e-06 -1.383695489494130015e-04 -4.069716305821202695e-05 -3.774150627577910200e-06
4.662000000000000000e+03 6.455539226531982422e+00 2.547641944885253906e+01 3.199295679223723710e-05 -4.282355439499951899e-05 -3.249179144404479302e-06 9.351068911200854927e-06
4.663000000000000000e+03 2.089467620849609375e+01 -8.496583938598632812e+00 4.594027698040008545e-01 -2.602038085460662842e-01 5.975968763232231140e-02 2.664244174957275391e-01
4.664000000000000000e+03 7.327013397216796875e+01 2.085510826110839844e+01 1.836951971054077148e-01 5.510144710540771484e+00 1.708152055740356445e+00 -5.649847984313964844e-01
4.665000000000000000e+03 7.256819915771484375e+01 2.001412391662597656e+01 2.043934017419815063e-01 5.496297836303710938e+00 1.710207462310791016e+00 -6.323304176330566406e-01
4.666000000000000000e+03 5.184206390380859375e+01 5.338042736053466797e+00 -6.983659863471984863e-01 6.421665549278259277e-01 -1.685983128845691681e-02 -3.121098279953002930e-01
4.667000000000000000e+03 1.062444686889648438e+01 1.502989387512207031e+01 1.614834582142066211e-05 6.456076516769826412e-05 2.421273347863461822e-05 -2.927129207819234580e-05
4.668000000000000000e+03 7.089859008789062500e+01 2.625721359252929688e+01 2.558915913105010986e-01 5.148988246917724609e+00 1.621463894844055176e+00 -3.522775173187255859e-01
4.669000000000000000e+03 3.653657913208007812e+01 -4.968003273010253906e+00 1.176256895065307617e+00 5.450110912322998047e+00 1.987910270690917969e+00 8.373590707778930664e-01
4.670000000000000000e+03 1.806101989746093750e+01 -8.316629409790039062e+00 3.206613957881927490e-01 -1.006348282098770142e-01 6.600797176361083984e-02 3.153231441974639893e-01
4.671000000000000000e+03 4.949180603027343750e+01 2.683535385131835938e+01 7.324246764183044434e-01 4.848481655120849609e+00 1.674271941184997559e+00 5.029113292694091797e-01
4.672000000000000000e+03 2.908747291564941406e+01 -8.897554397583007812e+00 1.545706272125244141e+00 -3.125119507312774658e-01 3.699582815170288086e-01 1.913701593875885010e-01
4.673000000000000000e+03 2.902155876159667969e+01 -1.302863502502441406e+01 8.258817195892333984e-01 -3.511650264263153076e-01 1.424150019884109497e-01 8.879360556602478027e-01
4.674000000000000000e+03 9.499139785766601562e+00 3.446987533569335938e+01 5.460021202452480793e-05 1.284543541260063648e-04 5.491637057275511324e-05 -1.553171896375715733e-04
4.675000000000000000e+03 3.622922515869140625e+01 -1.059440517425537109e+01 1.666388630867004395e+00 5.606046676635742188e+00 2.181730508804321289e+00 3.816159069538116455e-01
4.676000000000000000e+03 3.435765075683593750e+01 -1.239960861206054688e+01 1.313842892646789551e+00 3.085625886917114258e+00 1.319840669631958008e+00 2.296357750892639160e-01
4.677000000000000000e+03 4.160002899169921875e+01 -2.859745788574218750e+01 -1.389898080378770828e-02 3.927635192871093750e+00 1.174120903015136719e+00 -5.845311880111694336e-01
4.678000000000000000e+03 1.101892566680908203e+01 1.445576381683349609e+01 -5.287753083393909037e-06 -4.934760363539680839e-05 -1.639060792513191700e-05 9.160838999378029257e-06
4.679000000000000000e+03 4.754648971557617188e+01 1.113624000549316406e+01 2.082404613494873047e+00 3.809049606323242188e+00 1.767436265945434570e+00 1.842299222946166992e+00
4.680000000000000000e+03 1.031311321258544922e+01 -1.145378780364990234e+01 2.643969655036926270e-01 6.563669443130493164e-01 2.762291729450225830e-01 2.675882875919342041e-01
4.681000000000000000e+03 6.187126159667968750e+00 -7.528689384460449219e+00 -1.282912939786911011e-01 1.813094466924667358e-01 1.590544730424880981e-02 -2.465088814496994019e-01
4.682000000000000000e+03 4.706551361083984375e+01 1.214937782287597656e+01 2.055238962173461914e+00 4.462222099304199219e+00 1.955238342285156250e+00 1.995854735374450684e+00
4.683000000000000000e+03 3.678513336181640625e+01 -8.955336570739746094e+00 1.831558346748352051e+00 6.322581291198730469e+00 2.446241855621337891e+00 6.245239973068237305e-01
4.684000000000000000e+03 3.574284362792968750e+01 -1.084958648681640625e+01 1.673247694969177246e+00 4.854045391082763672e+00 1.958187937736511230e+00 3.772184550762176514e-01
4.685000000000000000e+03 6.972558593750000000e+01 1.585031390190124512e+00 -8.732920885086059570e-01 6.867037296295166016e+00 1.798123598098754883e+00 -9.024149179458618164e-01
4.686000000000000000e+03 6.696725463867187500e+01 -4.201980829238891602e-01 -1.032865643501281738e+00 6.347752094268798828e+00 1.594465970993041992e+00 -1.335810780525207520e+00
4.687000000000000000e+03 3.757947921752929688e+01 -7.338320255279541016e+00 1.761839747428894043e+00 7.443773746490478516e+00 2.761684179306030273e+00 8.550823330879211426e-01
4.688000000000000000e+03 4.840248489379882812e+01 1.962281608581542969e+01 1.190832734107971191e+00 5.046240806579589844e+00 1.871122002601623535e+00 1.095593333244323730e+00
4.689000000000000000e+03 7.760993957519531250e+00 2.289462280273437500e+01 9.573141869623214006e-05 7.724705938016995788e-05 5.189354487811215222e-05 -8.625793998362496495e-05
4.690000000000000000e+03 1.338209438323974609e+01 -7.769714355468750000e+00 8.398160338401794434e-02 1.971213668584823608e-01 8.433089405298233032e-02 2.385161668062210083e-01
4.691000000000000000e+03 2.694685745239257812e+01 -1.255290412902832031e+01 7.698347568511962891e-01 -4.454070925712585449e-01 9.732829779386520386e-02 7.533036470413208008e-01
4.692000000000000000e+03 2.621027565002441406e+01 -1.272568416595458984e+01 6.127984523773193359e-01 -4.135089218616485596e-01 5.978685617446899414e-02 7.108221650123596191e-01
4.693000000000000000e+03 1.002160072326660156e+01 2.945442581176757812e+01 2.480427210684865713e-04 -9.508134826319292188e-05 4.588841329677961767e-05 3.596416354412212968e-05
4.694000000000000000e+03 1.084025764465332031e+01 2.734755516052246094e+01 -3.339215618325397372e-05 -6.531385588459670544e-05 -2.961180325655732304e-05 3.446749906288459897e-05
4.695000000000000000e+03 5.564644622802734375e+01 5.484541893005371094e+00 -5.159245133399963379e-01 1.080417752265930176e+00 1.693479567766189575e-01 -9.208760857582092285e-01
4.696000000000000000e+03 7.217178344726562500e+01 -3.070586204528808594e+01 -1.034925580024719238e+00 9.365641593933105469e+00 2.499214649200439453e+00 -1.013706922531127930e+00
4.697000000000000000e+03 1.080891609191894531e+01 1.721181297302246094e+01 9.655860048951581120e-05 4.790927778230980039e-05 4.334036202635616064e-05 -4.308845745981670916e-05
4.698000000000000000e+03 9.995512962341308594e+00 1.873779106140136719e+01 -1.071490187314338982e-04 -3.503746847854927182e-05 -4.265594543539918959e-05 4.884058853349415585e-06
4.699000000000000000e+03 5.052982711791992188e+01 6.060177803039550781e+00 -4.250039905309677124e-02 7.899878025054931641e-01 2.242462188005447388e-01 5.019454658031463623e-02
4.700000000000000000e+03 5.766346740722656250e+01 4.246903896331787109e+00 -9.295445680618286133e-01 1.265952706336975098e+00 1.009224578738212585e-01 -1.191646814346313477e+00
4.701000000000000000e+03 5.021399307250976562e+01 6.644119739532470703e+00 3.808813989162445068e-01 9.600952267646789551e-01 4.022929966449737549e-01 2.298509478569030762e-01
4.702000000000000000e+03 8.119021415710449219e+00 -7.489470005035400391e+00 -1.272426545619964600e-01 2.998784482479095459e-01 5.179073661565780640e-02 -1.195598617196083069e-01
4.703000000000000000e+03 1.627751350402832031e+01 -1.038361072540283203e+01 4.264985322952270508e-01 7.867540232837200165e-03 1.303098201751708984e-01 3.925046026706695557e-01
4.704000000000000000e+03 1.674721336364746094e+01 -1.227297878265380859e+01 5.649073719978332520e-01 -5.610188469290733337e-02 1.526416540145874023e-01 3.844010531902313232e-01
4.705000000000000000e+03 4.906252288818359375e+01 6.163113117218017578e+00 3.409564495086669922e-01 9.415788054466247559e-01 3.847605884075164795e-01 5.873695015907287598e-01
4.706000000000000000e+03 2.356585693359375000e+01 -8.260484695434570312e+00 6.430686712265014648e-01 -4.009620845317840576e-01 7.263197749853134155e-02 1.696637272834777832e-01
4.707000000000000000e+03 7.300656127929687500e+01 -9.810229301452636719e+00 3.354579210281372070e-01 9.636106491088867188e+00 2.991469383239746094e+00 7.951632142066955566e-02
4.708000000000000000e+03 1.285240554809570312e+01 1.020186519622802734e+01 2.218951067334273830e-06 4.894126050203340128e-06 2.133923089786549099e-06 -4.367170731711667031e-06
4.709000000000000000e+03 1.176576042175292969e+01 7.291452884674072266e+00 8.561581125832162797e-06 1.625832373974844813e-05 7.445971732522593811e-06 -1.558543044666294008e-05
4.710000000000000000e+03 3.488766098022460938e+01 -1.425940132141113281e+01 3.750053644180297852e-01 3.629955291748046875e+00 1.201488137245178223e+00 2.931921975687146187e-03
4.711000000000000000e+03 4.893121719360351562e+01 1.863634490966796875e+01 1.368237853050231934e+00 4.801397800445556641e+00 1.850890755653381348e+00 1.160540342330932617e+00
4.712000000000000000e+03 2.373373794555664062e+01 -8.982606887817382812e+00 7.105656862258911133e-01 -4.340985715389251709e-01 8.294013887643814087e-02 2.368115931749343872e-01
4.713000000000000000e+03 4.727731704711914062e+01 1.301428794860839844e+01 2.003221273422241211e+00 4.552695751190185547e+00 1.966775059700012207e+00 1.910019040107727051e+00
4.714000000000000000e+03 9.002758026123046875e+00 -1.213505458831787109e+01 2.294155061244964600e-01 8.086274266242980957e-01 3.114128708839416504e-01 1.976577341556549072e-01
4.715000000000000000e+03 3.471723937988281250e+01 -6.913109302520751953e+00 1.852542161941528320e+00 3.237032890319824219e+00 1.526872515678405762e+00 5.009510517120361328e-01
4.716000000000000000e+03 6.454943847656250000e+01 2.353900909423828125e+00 -1.089642763137817383e+00 4.566651344299316406e+00 1.043102622032165527e+00 -1.852115035057067871e+00
4.717000000000000000e+03 6.422683715820312500e+01 3.040174007415771484e+00 -1.004994988441467285e+00 4.311930179595947266e+00 9.920805692672729492e-01 -1.876565814018249512e+00
4.718000000000000000e+03 4.649676895141601562e+01 7.445896148681640625e+00 1.409481525421142578e+00 3.088491439819335938e+00 1.349391937255859375e+00 2.036593198776245117e+00
4.719000000000000000e+03 4.806695938110351562e+01 1.693916130065917969e+01 1.526585221290588379e+00 4.893195629119873047e+00 1.925934195518493652e+00 1.436416506767272949e+00
4.720000000000000000e+03 3.400640487670898438e+01 -6.815255165100097656e+00 1.804787516593933105e+00 2.419373989105224609e+00 1.267248392105102539e+00 4.027777314186096191e-01
4.721000000000000000e+03 4.820379638671875000e+01 1.870098876953125000e+01 1.290939927101135254e+00 5.029408931732177734e+00 1.896104574203491211e+00 1.222230434417724609e+00
4.722000000000000000e+03 2.681040573120117188e+01 -7.032519340515136719e+00 9.072910547256469727e-01 -4.837217032909393311e-01 1.270708143711090088e-01 -1.399215161800384521e-01
4.723000000000000000e+03 1.657636642456054688e+01 -8.016855239868164062e+00 2.399181574583053589e-01 -1.211496256291866302e-02 6.834095716476440430e-02 3.105231821537017822e-01
4.724000000000000000e+03 1.594217586517333984e+01 -8.096490859985351562e+00 2.219235897064208984e-01 3.675383329391479492e-02 7.760322839021682739e-02 3.113194704055786133e-01
4.725000000000000000e+03 3.640356063842773438e+01 -1.383202075958251953e+01 5.100986361503601074e-01 5.810946464538574219e+00 1.896313548088073730e+00 2.366971783339977264e-02
4.726000000000000000e+03 3.367327499389648438e+01 -1.257080745697021484e+01 1.346215605735778809e+00 2.298149108886718750e+00 1.093309402465820312e+00 2.546896040439605713e-01
4.727000000000000000e+03 3.535251617431640625e+01 -1.138283920288085938e+01 1.580766916275024414e+00 4.411256790161132812e+00 1.797607064247131348e+00 3.209297955036163330e-01
4.728000000000000000e+03 4.882083892822265625e+01 2.296499633789062500e+01 9.260573983192443848e-01 5.020353317260742188e+00 1.783923149108886719e+00 7.173829078674316406e-01
4.729000000000000000e+03 4.756750488281250000e+01 2.042256736755371094e+01 9.941164255142211914e-01 5.361047267913818359e+00 1.906549096107482910e+00 1.035547375679016113e+00
4.730000000000000000e+03 6.998966217041015625e+01 -4.178557395935058594e+00 -2.633342742919921875e-01 8.204396247863769531e+00 2.382318735122680664e+00 -5.930436849594116211e-01
4.731000000000000000e+03 1.479861831665039062e+01 -8.081610679626464844e+00 1.752949953079223633e-01 1.099379658699035645e-01 8.556988835334777832e-02 2.960081696510314941e-01
4.732000000000000000e+03 1.592323493957519531e+01 -9.122270584106445312e+00 3.145037591457366943e-01 3.535996749997138977e-02 1.049591228365898132e-01 3.533011078834533691e-01
4.733000000000000000e+03 6.731796264648437500e+00 9.243057250976562500e+00 1.835325747379101813e-05 -2.382405909884255379e-05 -1.641240146454947535e-06 5.515828433999558911e-06
4.734000000000000000e+03 1.025402545928955078e+01 7.364922046661376953e+00 1.075405998562928289e-05 1.137687104346696287e-05 6.639279035880463198e-06 -1.179690480057615787e-05
4.735000000000000000e+03 4.585140991210937500e+01 8.268065452575683594e+00 1.744715213775634766e+00 4.080627918243408203e+00 1.747602939605712891e+00 2.371634721755981445e+00
4.736000000000000000e+03 4.656484222412109375e+01 8.936798095703125000e+00 1.875379920005798340e+00 3.684900045394897461e+00 1.668084025382995605e+00 2.113442420959472656e+00
4.737000000000000000e+03 1.228234004974365234e+01 1.172457408905029297e+01 1.943669985848828219e-06 -2.111201638399506919e-06 -5.025945171155399294e-08 -6.777313501515891403e-06
4.738000000000000000e+03 6.588601684570312500e+01 1.469774127006530762e+00 -1.130430459976196289e+00 5.441460132598876953e+00 1.293308973312377930e+00 -1.644587278366088867e+00
4.739000000000000000e+03 6.488652801513671875e+01 1.675965905189514160e+00 -1.159433126449584961e+00 4.827904224395751953e+00 1.100541353225708008e+00 -1.806015014648437500e+00
4.740000000000000000e+03 1.395152759552001953e+01 -8.520638465881347656e+00 1.737645417451858521e-01 1.799163967370986938e-01 1.061042845249176025e-01 2.937642633914947510e-01
4.741000000000000000e+03 4.788637542724609375e+01 2.294657516479492188e+01 8.241055607795715332e-01 5.261875629425048828e+00 1.825794339179992676e+00 7.111948132514953613e-01
4.742000000000000000e+03 1.775167465209960938e+01 -9.057778358459472656e+00 3.582972884178161621e-01 -8.545951545238494873e-02 8.185133337974548340e-02 3.414428830146789551e-01
4.743000000000000000e+03 6.918888092041015625e+01 -2.912226438522338867e+00 -4.753170609474182129e-01 7.709809780120849609e+00 2.170347690582275391e+00 -7.075668573379516602e-01
4.744000000000000000e+03 7.146940612792968750e+01 -1.255364775657653809e+00 -6.244408488273620605e-01 7.730252265930175781e+00 2.131743431091308594e+00 -2.997457981109619141e-01
4.745000000000000000e+03 1.194659996032714844e+01 1.060951328277587891e+01 1.941707978403428569e-06 1.640843720451812260e-06 1.074765577868674882e-06 -7.785647540003992617e-06
4.746000000000000000e+03 7.298703765869140625e+01 -4.466258049011230469e+00 -2.830105423927307129e-01 8.366230010986328125e+00 2.424965858459472656e+00 1.500973850488662720e-01
4.747000000000000000e+03 4.679488754272460938e+01 1.412226867675781250e+01 1.827346920967102051e+00 5.113952636718750000e+00 2.082389831542968750e+00 1.926892995834350586e+00
4.748000000000000000e+03 3.301761627197265625e+01 -1.336939907073974609e+01 1.016682505607604980e+00 1.451586723327636719e+00 7.404807806015014648e-01 2.845174670219421387e-01
4.749000000000000000e+03 3.379349136352539062e+01 -1.344291687011718750e+01 9.039221405982971191e-01 2.316605567932128906e+00 9.661583304405212402e-01 1.769665032625198364e-01
4.750000000000000000e+03 1.093270778656005859e+01 2.055023765563964844e+01 9.680735092842951417e-05 1.021393982227891684e-04 5.968402547296136618e-05 -6.973368272156221792e-06
4.751000000000000000e+03 1.990907669067382812e+01 -8.604290008544921875e+00 4.145486056804656982e-01 -2.087100595235824585e-01 6.175156682729721069e-02 2.982131242752075195e-01
4.752000000000000000e+03 6.010532379150390625e+01 2.825182437896728516e+00 -1.149918794631958008e+00 1.906499028205871582e+00 2.269740700721740723e-01 -1.569178700447082520e+00
4.753000000000000000e+03 5.942508316040039062e+01 3.385961294174194336e+00 -1.049279808998107910e+00 1.702622294425964355e+00 1.960027813911437988e-01 -1.475494623184204102e+00
4.754000000000000000e+03 4.501113891601562500e+01 5.721135616302490234e+00 4.271940588951110840e-01 4.171534538269042969e+00 1.379618644714355469e+00 2.550033330917358398e+00
4.755000000000000000e+03 4.565166473388671875e+01 5.511977195739746094e+00 1.655146628618240356e-01 3.166454553604125977e+00 9.995907545089721680e-01 2.357528448104858398e+00
4.756000000000000000e+03 6.823770046234130859e+00 2.832242202758789062e+01 9.030142246047034860e-05 -2.311274292878806591e-04 -4.224780423101037741e-05 -1.476876932429149747e-04
4.757000000000000000e+03 6.144655990600585938e+01 2.375104188919067383e+00 -1.146515727043151855e+00 2.550965309143066406e+00 4.213349223136901855e-01 -1.769105911254882812e+00
4.758000000000000000e+03 6.264002990722656250e+01 2.967356681823730469e+00 -9.964741468429565430e-01 3.358546257019042969e+00 7.086216807365417480e-01 -1.908017039299011230e+00
4.759000000000000000e+03 5.827123260498046875e+01 3.740419149398803711e+00 -1.038121581077575684e+00 1.335647106170654297e+00 8.925764262676239014e-02 -1.270477414131164551e+00
4.760000000000000000e+03 1.088598155975341797e+01 9.155890464782714844e+00 -1.694788625172805041e-05 -5.197586233407491818e-06 -6.643641881964867935e-06 1.387543397868284956e-05
4.761000000000000000e+03 6.952588081359863281e+00 8.428561210632324219e+00 -1.985347444133367389e-05 9.289969966630451381e-06 -3.169051296936231665e-06 8.847133358358405530e-06
4.762000000000000000e+03 1.224089336395263672e+01 9.843199729919433594e+00 -4.794050255441106856e-06 -1.077447791431040969e-06 -1.761449425430328120e-06 5.143187991052400321e-06
4.763000000000000000e+03 1.170468330383300781e+01 1.316282367706298828e+01 2.601777850941289216e-06 -2.213162588304840028e-05 -5.858954409632133320e-06 -6.719482826156308874e-06
4.764000000000000000e+03 1.137914466857910156e+01 1.383249282836914062e+01 -2.955765467049786821e-06 3.916957939509302378e-05 1.086414431483717635e-05 -2.960925030492944643e-06
4.765000000000000000e+03 7.298362731933593750e+01 -2.847082376480102539e+00 -4.024656116962432861e-01 8.077543258666992188e+00 2.302523136138916016e+00 7.231050729751586914e-02
4.766000000000000000e+03 6.917515754699707031e+00 2.694448661804199219e+01 7.485459354938939214e-05 -8.233689004555344582e-05 -2.244689540020772256e-06 -1.497568609920563176e-05
4.767000000000000000e+03 4.843368148803710938e+01 2.046158218383789062e+01 1.100170612335205078e+00 5.070343494415283203e+00 1.851154208183288574e+00 9.998382925987243652e-01
4.768000000000000000e+03 3.120474624633789062e+01 -7.755654335021972656e+00 1.776202440261840820e+00 3.804291784763336182e-01 6.469894647598266602e-01 1.112726777791976929e-01
4.769000000000000000e+03 3.156854629516601562e+01 -1.308215808868408203e+01 1.116137027740478516e+00 3.973296284675598145e-01 4.540399909019470215e-01 5.804131627082824707e-01
4.770000000000000000e+03 9.050477981567382812e+00 2.014180183410644531e+01 9.636618779040873051e-05 8.075247023953124881e-05 5.313559813657775521e-05 -2.059465623460710049e-05
4.771000000000000000e+03 1.036888217926025391e+01 1.934170913696289062e+01 1.118461150326766074e-04 7.300893048522993922e-05 5.545651220018044114e-05 -7.973326177079798072e-08
4.772000000000000000e+03 9.422039031982421875e+00 2.229490280151367188e+01 5.088808757136575878e-05 2.132352819899097085e-04 7.923701195977628231e-05 6.416421092581003904e-05
4.773000000000000000e+03 1.063594818115234375e+01 2.203755950927734375e+01 -2.699590004340279847e-05 -7.697191176703199744e-05 -3.119034226983785629e-05 5.108726691105403006e-05
4.774000000000000000e+03 6.351335525512695312e+00 1.048280334472656250e+01 2.714462607400491834e-05 3.729373474925523624e-06 9.262199455406516790e-06 -7.166566319938283414e-06
4.775000000000000000e+03 6.772382259368896484e+00 2.226683616638183594e+01 5.082881671114591882e-07 -1.326211258856346831e-05 -3.826147349172970280e-06 -4.342691318015567958e-05
4.776000000000000000e+03 1.323859405517578125e+01 -9.767457008361816406e+00 2.454304695129394531e-01 2.883894443511962891e-01 1.601459830999374390e-01 3.346732854843139648e-01
4.777000000000000000e+03 1.540837669372558594e+01 -8.517488479614257812e+00 2.290046513080596924e-01 8.019986748695373535e-02 9.276136010885238647e-02 3.242810070514678955e-01
4.778000000000000000e+03 3.648968887329101562e+01 -4.405049800872802734e+00 8.463358879089355469e-01 5.214556694030761719e+00 1.818267822265625000e+00 8.642485737800598145e-01
4.779000000000000000e+03 3.571189117431640625e+01 -5.443549633026123047e+00 1.355027437210083008e+00 4.367609500885009766e+00 1.716791033744812012e+00 7.210688591003417969e-01
4.780000000000000000e+03 4.455161666870117188e+01 4.767263412475585938e+00 -4.880698621273040771e-01 4.611838817596435547e+00 1.237130641937255859e+00 2.734801054000854492e+00
4.781000000000000000e+03 3.011555862426757812e+01 -7.165652751922607422e+00 1.529870152473449707e+00 -1.061202585697174072e-01 4.271249473094940186e-01 -6.901891529560089111e-02
4.782000000000000000e+03 8.719471931457519531e+00 3.081431770324707031e+01 1.280379074160009623e-04 -2.728905237745493650e-04 -4.345578417996875942e-05 -2.162217278964817524e-04
4.783000000000000000e+03 5.948708057403564453e+00 2.056850624084472656e+01 2.081019920296967030e-05 -4.234335574437864125e-05 -6.459947144321631640e-06 -3.118699532933533192e-05
4.784000000000000000e+03 7.170761871337890625e+01 2.781604194641113281e+01 1.937789916992187500e-01 5.197615623474121094e+00 1.617418289184570312e+00 -2.812173664569854736e-01
4.785000000000000000e+03 5.445556259155273438e+01 5.156885147094726562e+00 -7.291857600212097168e-01 8.662725687026977539e-01 4.112603887915611267e-02 -7.190889716148376465e-01
4.786000000000000000e+03 5.394660186767578125e+01 5.556128025054931641e+00 -5.929365158081054688e-01 8.678164482116699219e-01 8.246397972106933594e-02 -6.207859516143798828e-01
4.787000000000000000e+03 3.189823150634765625e+01 -7.534063339233398438e+00 1.817984938621520996e+00 7.003698348999023438e-01 7.555064558982849121e-01 1.615634411573410034e-01
4.788000000000000000e+03 3.174779129028320312e+01 -6.863892555236816406e+00 1.701755881309509277e+00 5.561225414276123047e-01 6.773635149002075195e-01 6.738380342721939087e-02
4.789000000000000000e+03 2.674603843688964844e+01 -7.753203392028808594e+00 1.039318084716796875e+00 -5.122366547584533691e-01 1.581244170665740967e-01 -1.565884239971637726e-02
4.790000000000000000e+03 2.748093223571777344e+01 -8.627094268798828125e+00 1.245287895202636719e+00 -5.007609128952026367e-01 2.233580946922302246e-01 1.181393638253211975e-01
4.791000000000000000e+03 7.166256713867187500e+01 3.152594947814941406e+01 1.416505873203277588e-01 5.171524524688720703e+00 1.593952536582946777e+00 -1.651567220687866211e-01
4.792000000000000000e+03 7.157868194580078125e+01 2.909818267822265625e+01 1.764549463987350464e-01 5.183378696441650391e+00 1.607950091361999512e+00 -2.346062958240509033e-01
4.793000000000000000e+03 4.897885131835937500e+01 2.947495841979980469e+01 5.191788673400878906e-01 4.812980175018310547e+00 1.599647760391235352e+00 4.443896412849426270e-01
4.794000000000000000e+03 1.052109241485595703e+01 3.379322052001953125e+01 1.680166169535368681e-04 -2.950908674392849207e-04 -3.812227078014984727e-05 -5.989011842757463455e-04
4.795000000000000000e+03 8.758327484130859375e+00 3.195243835449218750e+01 2.037308877333998680e-04 1.332328538410365582e-04 1.010891210171394050e-04 -1.349148224107921124e-04
4.796000000000000000e+03 7.161358642578125000e+01 3.035650825500488281e+01 1.560046374797821045e-01 5.176936626434326172e+00 1.599882364273071289e+00 -1.964388936758041382e-01
4.797000000000000000e+03 7.356919288635253906e+00 2.765109634399414062e+01 1.552440080558881164e-04 1.227238244609907269e-04 8.339035412063822150e-05 -2.468504135322291404e-05
4.798000000000000000e+03 7.163106536865234375e+01 2.350759506225585938e+01 2.555899024009704590e-01 5.247434616088867188e+00 1.650907397270202637e+00 -4.838515520095825195e-01
4.799000000000000000e+03 7.354450225830078125e+00 3.287132263183593750e+01 1.386338990414515138e-04 1.129744778154417872e-04 7.548251596745103598e-05 -2.495481749065220356e-04
4.800000000000000000e+03 5.044532775878906250e+01 3.014179420471191406e+01 4.700091481208801270e-01 4.731837749481201172e+00 1.560554146766662598e+00 4.564674794673919678e-01
4.801000000000000000e+03 9.005594253540039062e+00 3.321636962890625000e+01 1.226268796017393470e-04 -2.542886941228061914e-04 -3.949855090468190610e-05 -3.974857099819928408e-04
4.802000000000000000e+03 4.500220489501953125e+01 -2.958020973205566406e+01 -2.032935023307800293e-01 2.340548038482666016e+00 6.411763429641723633e-01 -6.826342344284057617e-01
4.803000000000000000e+03 7.038722229003906250e+01 3.379460906982421875e+01 1.399813443422317505e-01 5.113169193267822266e+00 1.575945138931274414e+00 -1.047937572002410889e-01
4.804000000000000000e+03 6.877138519287109375e+01 3.081955528259277344e+01 2.315101474523544312e-01 5.036405563354492188e+00 1.580374717712402344e+00 -1.712833195924758911e-01
4.805000000000000000e+03 5.067473602294921875e+01 -3.677307128906250000e+01 -6.553983092308044434e-01 9.157643318176269531e-01 7.810980081558227539e-02 -4.668724834918975830e-01
4.806000000000000000e+03 4.970969009399414062e+01 -3.875153350830078125e+01 -6.598562598228454590e-01 1.184286952018737793e+00 1.573292016983032227e-01 -3.629384636878967285e-01
4.807000000000000000e+03 4.548928070068359375e+01 -3.046372604370117188e+01 -3.134033381938934326e-01 2.165971517562866211e+00 5.557704567909240723e-01 -6.447670459747314453e-01
4.808000000000000000e+03 4.136629867553710938e+01 -3.283132553100585938e+01 -7.420277595520019531e-01 3.669554710388183594e+00 8.782580494880676270e-01 -5.757853984832763672e-01
4.809000000000000000e+03 7.548540592193603516e+00 4.119547653198242188e+01 -2.710767439566552639e-04 -8.086650632321834564e-05 -1.055829779943451285e-04 1.386966905556619167e-04
4.810000000000000000e+03 5.139108657836914062e+01 3.496472167968750000e+01 2.448445744812488556e-02 4.729919433593750000e+00 1.426321148872375488e+00 3.325154185295104980e-01
4.811000000000000000e+03 4.941212081909179688e+01 2.811184692382812500e+01 6.358857154846191406e-01 4.818348407745361328e+00 1.636270165443420410e+00 4.666331708431243896e-01
4.812000000000000000e+03 4.735960006713867188e+01 -3.445226669311523438e+01 -6.761641502380371094e-01 1.713372349739074707e+00 3.111624717712402344e-01 -5.461342930793762207e-01
4.813000000000000000e+03 1.457224941253662109e+01 3.694878768920898438e+01 4.197208036202937365e-04 3.657292108982801437e-04 2.356350014451891184e-04 4.791255605596234091e-07
4.814000000000000000e+03 4.155945205688476562e+01 -3.043811607360839844e+01 -3.314722478389739990e-01 3.816680669784545898e+00 1.045562505722045898e+00 -6.315954327583312988e-01
4.815000000000000000e+03 4.232958984375000000e+01 -2.779320526123046875e+01 8.079498261213302612e-02 3.608640909194946289e+00 1.106830716133117676e+00 -5.916554331779479980e-01
4.816000000000000000e+03 8.076024055480957031e+00 -3.754982376098632812e+01 3.667318075895309448e-02 9.429922327399253845e-03 1.383093185722827911e-02 -6.722167599946260452e-03
4.817000000000000000e+03 8.396757125854492188e+00 3.507736587524414062e+01 3.578355608624406159e-05 -2.598640567157417536e-04 -6.722415128024294972e-05 -3.953344421461224556e-04
4.818000000000000000e+03 7.990274429321289062e+00 3.379442214965820312e+01 9.490008233115077019e-05 5.608133506029844284e-05 4.529442594503052533e-05 -1.502334052929654717e-04
4.819000000000000000e+03 4.412595367431640625e+01 -2.896786499023437500e+01 -1.198264956474304199e-01 2.680157899856567383e+00 7.680993676185607910e-01 -7.065141797065734863e-01
4.820000000000000000e+03 7.129044342041015625e+01 3.260089492797851562e+01 1.356838494539260864e-01 5.150573253631591797e+00 1.585877060890197754e+00 -1.372061073780059814e-01
4.821000000000000000e+03 1.318942451477050781e+01 4.124437713623046875e+01 -9.318716474808752537e-04 -5.057278940512333065e-06 -2.810786827467381954e-04 -9.361248812638223171e-04
4.822000000000000000e+03 4.778799438476562500e+01 3.654016113281250000e+01 -2.549653649330139160e-01 4.601480960845947266e+00 1.303954601287841797e+00 2.267983257770538330e-01
4.823000000000000000e+03 2.456746292114257812e+01 -1.243718147277832031e+01 5.826990604400634766e-01 -3.938424885272979736e-01 5.665696784853935242e-02 5.818913578987121582e-01
4.824000000000000000e+03 7.323880767822265625e+01 -3.798306941986083984e+00 -3.230995833873748779e-01 8.231481552124023438e+00 2.372514486312866211e+00 1.685756742954254150e-01
4.825000000000000000e+03 2.524081039428710938e+01 -7.900937557220458984e+00 8.083318471908569336e-01 -4.730038940906524658e-01 1.005983799695968628e-01 6.165384501218795776e-02
4.826000000000000000e+03 7.010552883148193359e+00 7.571668624877929688e+00 1.485414486523950472e-05 -1.647561020945431665e-06 3.961974925914546475e-06 -7.163075679272878915e-06
4.827000000000000000e+03 2.862479782104492188e+01 -1.247069931030273438e+01 1.000734448432922363e+00 -3.821556866168975830e-01 1.855736225843429565e-01 7.784143686294555664e-01
4.828000000000000000e+03 2.569188499450683594e+01 -9.192826271057128906e+00 9.847764968872070312e-01 -5.220496654510498047e-01 1.388180404901504517e-01 2.360751330852508545e-01
4.829000000000000000e+03 6.991918945312500000e+01 -1.005600094795227051e+00 -7.595021724700927734e-01 7.453451633453369141e+00 2.008184909820556641e+00 -6.231952309608459473e-01
4.830000000000000000e+03 7.329884338378906250e+01 4.207136631011962891e+00 -4.114768207073211670e-01 7.117331027984619141e+00 2.011756181716918945e+00 -5.539234876632690430e-01
4.831000000000000000e+03 2.671909523010253906e+01 -1.176833629608154297e+01 8.979992866516113281e-01 -4.767212569713592529e-01 1.263834089040756226e-01 6.330617070198059082e-01
4.832000000000000000e+03 2.063282203674316406e+01 -1.217358398437500000e+01 5.041873455047607422e-01 -2.514283657073974609e-01 7.582770287990570068e-02 4.005169570446014404e-01
4.833000000000000000e+03 2.044740867614746094e+01 -1.278432178497314453e+01 4.826982617378234863e-01 -2.308719903230667114e-01 7.554788142442703247e-02 3.808912932872772217e-01
4.834000000000000000e+03 1.171932220458984375e+01 -1.167299365997314453e+01 4.089983403682708740e-01 5.263444185256958008e-01 2.806028425693511963e-01 3.871590793132781982e-01
4.835000000000000000e+03 1.066062545776367188e+01 -8.128818511962890625e+00 -2.217864803969860077e-02 3.641836941242218018e-01 1.026015132665634155e-01 9.779844433069229126e-02
4.836000000000000000e+03 3.299662780761718750e+01 -1.259553146362304688e+01 1.337803125381469727e+00 1.595505714416503906e+00 8.799926638603210449e-01 3.486902415752410889e-01
4.837000000000000000e+03 7.270030975341796875e+01 -7.253054618835449219e+00 -2.287551015615463257e-02 9.098967552185058594e+00 2.722827434539794922e+00 9.761898964643478394e-02
4.838000000000000000e+03 7.232528686523437500e+01 -8.748339653015136719e+00 1.749439090490341187e-01 9.631585121154785156e+00 2.941958665847778320e+00 -7.240566611289978027e-02
4.839000000000000000e+03 8.189231872558593750e+00 -8.450282096862792969e+00 -8.879297971725463867e-02 3.878168165683746338e-01 8.970715105533599854e-02 -9.494966268539428711e-02
4.840000000000000000e+03 8.916340827941894531e+00 -9.123330116271972656e+00 -4.025644063949584961e-02 4.679905772209167480e-01 1.283202469348907471e-01 -7.538016419857740402e-03
4.841000000000000000e+03 1.038837528228759766e+01 -1.005892753601074219e+01 1.093962192535400391e-01 5.290359854698181152e-01 1.915296614170074463e-01 1.776475310325622559e-01
4.842000000000000000e+03 1.243075561523437500e+01 -1.180134201049804688e+01 4.572108685970306396e-01 4.423022866249084473e-01 2.698539495468139648e-01 4.191357195377349854e-01
4.843000000000000000e+03 1.463866519927978516e+01 -1.043554687500000000e+01 3.808842003345489502e-01 1.638834923505783081e-01 1.634303033351898193e-01 3.946284353733062744e-01
4.844000000000000000e+03 1.130944252014160156e+01 -8.211962699890136719e+00 1.653628982603549957e-02 3.420048654079437256e-01 1.075623482465744019e-01 1.464872807264328003e-01
4.845000000000000000e+03 7.264554977416992188e+00 1.329517650604248047e+01 -5.158913700142875314e-05 -2.135225076926872134e-05 -2.188241523981560022e-05 5.077869354863651097e-05
4.846000000000000000e+03 9.508685111999511719e+00 1.402578639984130859e+01 1.118067211791640148e-05 5.704939030692912638e-05 2.046901863650418818e-05 -2.651052091096062213e-05
4.847000000000000000e+03 5.072528076171875000e+01 2.690671539306640625e+01 7.583075761795043945e-01 4.723134040832519531e+00 1.644432544708251953e+00 5.123493671417236328e-01
4.848000000000000000e+03 6.662821769714355469e+00 2.617740058898925781e+01 1.009638581308536232e-04 1.125230483012273908e-05 3.366484816069714725e-05 -7.355624256888404489e-05
4.849000000000000000e+03 1.987824249267578125e+01 -1.259617042541503906e+01 5.030012726783752441e-01 -2.192496806383132935e-01 8.512547612190246582e-02 3.832745552062988281e-01
4.850000000000000000e+03 7.179560852050781250e+01 1.227957439422607422e+01 2.490087784826755524e-02 5.856891155242919922e+00 1.764537692070007324e+00 -9.988808035850524902e-01
4.851000000000000000e+03 7.218162536621093750e+01 1.648999214172363281e+01 1.787606328725814819e-01 5.620394229888916016e+00 1.739746451377868652e+00 -8.197405338287353516e-01
4.852000000000000000e+03 2.538608169555664062e+01 -1.130061435699462891e+01 8.326417207717895508e-01 -4.862686097621917725e-01 1.039119288325309753e-01 5.251614451408386230e-01
4.853000000000000000e+03 3.788389587402343750e+01 -4.949029445648193359e+00 1.062671184539794922e+00 7.546739578247070312e+00 2.582823276519775391e+00 1.050123453140258789e+00
4.854000000000000000e+03 3.718125915527343750e+01 -4.208414554595947266e+00 6.948780417442321777e-01 6.306324958801269531e+00 2.100360870361328125e+00 9.831665158271789551e-01
4.855000000000000000e+03 7.222682952880859375e+01 2.113230705261230469e+01 2.308640778064727783e-01 5.387658119201660156e+00 1.685556650161743164e+00 -5.901669263839721680e-01
4.856000000000000000e+03 7.270556640625000000e+01 1.752056503295898438e+01 1.779933273792266846e-01 5.631681442260742188e+00 1.742902398109436035e+00 -7.440642118453979492e-01
4.857000000000000000e+03 7.202907562255859375e+01 1.473789882659912109e+01 1.324432939291000366e-01 5.707803249359130859e+00 1.752073884010314941e+00 -9.024555683135986328e-01
4.858000000000000000e+03 7.344184112548828125e+01 -5.393533229827880859e+00 -1.983005851507186890e-01 8.490217208862304688e+00 2.487574815750122070e+00 2.575260102748870850e-01
4.859000000000000000e+03 7.220662689208984375e+01 9.590155601501464844e+00 -1.386396884918212891e-01 6.222315311431884766e+00 1.825102686882019043e+00 -9.663882255554199219e-01
4.860000000000000000e+03 7.279136657714843750e+01 1.217827129364013672e+01 8.836605702526867390e-04 6.082258224487304688e+00 1.824942588806152344e+00 -9.075757861137390137e-01
4.861000000000000000e+03 7.242533874511718750e+01 8.818968772888183594e+00 -1.861911863088607788e-01 6.351406097412109375e+00 1.849564433097839355e+00 -9.276682734489440918e-01
4.862000000000000000e+03 7.194284057617187500e+01 1.729797554016113281e+01 2.067219763994216919e-01 5.533243656158447266e+00 1.721989631652832031e+00 -8.006220459938049316e-01
4.863000000000000000e+03 7.180087280273437500e+01 1.938143348693847656e+01 2.466438412666320801e-01 5.401250362396240234e+00 1.694368362426757812e+00 -7.010851502418518066e-01
4.864000000000000000e+03 7.272250366210937500e+01 7.776339054107666016e-01 -5.706790089607238770e-01 7.516406059265136719e+00 2.083718061447143555e+00 -2.905299961566925049e-01
4.865000000000000000e+03 7.351173400878906250e+01 2.702756643295288086e+00 -4.580186307430267334e-01 7.345364093780517578e+00 2.066203594207763672e+00 -3.867180943489074707e-01
4.866000000000000000e+03 7.325765228271484375e+01 -7.273488044738769531e+00 -2.623905427753925323e-02 8.889856338500976562e+00 2.659085273742675781e+00 2.308818101882934570e-01
4.867000000000000000e+03 7.228327941894531250e+01 -6.483428955078125000e+00 -9.954573959112167358e-02 8.928577423095703125e+00 2.648709535598754883e+00 -1.723443157970905304e-02
4.868000000000000000e+03 6.433209419250488281e+00 2.023242950439453125e+01 4.520807124208658934e-05 9.232129377778619528e-05 4.125880877836607397e-05 1.653701474424451590e-05
4.869000000000000000e+03 6.813266277313232422e+00 1.958722496032714844e+01 -4.631095362128689885e-05 -5.174160469323396683e-05 -2.941576713055837899e-05 8.687562740306020714e-07
4.870000000000000000e+03 7.353451538085937500e+01 -3.168150186538696289e+00 -3.497818112373352051e-01 8.122037887573242188e+00 2.331676959991455078e+00 1.815983802080154419e-01
4.871000000000000000e+03 7.066262054443359375e+01 -4.381226539611816406e+00 -2.704648077487945557e-01 8.324994087219238281e+00 2.416358947753906250e+00 -4.187176525592803955e-01
4.872000000000000000e+03 7.859090328216552734e+00 2.555863761901855469e+01 1.337362336926162243e-04 -5.372787563828751445e-05 2.400250741629861295e-05 -1.140036838478408754e-04
4.873000000000000000e+03 7.152887725830078125e+01 2.518163919448852539e-01 -6.870472431182861328e-01 7.431761264801025391e+00 2.023414134979248047e+00 -4.372486472129821777e-01
4.874000000000000000e+03 7.163497161865234375e+01 -3.874091863632202148e+00 -3.669551014900207520e-01 8.254503250122070312e+00 2.366264343261718750e+00 -1.498907357454299927e-01
4.875000000000000000e+03 7.358776855468750000e+01 -1.538284718990325928e-01 -4.723204672336578369e-01 7.718615055084228516e+00 2.173888444900512695e+00 -7.469999790191650391e-02
4.876000000000000000e+03 7.241985321044921875e+01 -2.431068420410156250e+00 -4.748203754425048828e-01 8.008352279663085938e+00 2.260059595108032227e+00 -4.975033923983573914e-02
4.877000000000000000e+03 9.210411071777343750e+00 2.433186531066894531e+01 4.090521542821079493e-06 -1.797462900867685676e-04 -5.269673056318424642e-05 7.545385597040876746e-05
4.878000000000000000e+03 6.717023849487304688e+00 2.450977516174316406e+01 -4.784556494996650144e-06 -7.388606900349259377e-05 -2.360118742217309773e-05 -2.305119051015935838e-05
4.879000000000000000e+03 7.285140228271484375e+01 1.298792457580566406e+01 3.639043867588043213e-02 6.001988887786865234e+00 1.811513781547546387e+00 -8.950495719909667969e-01
4.880000000000000000e+03 7.017908477783203125e+01 -3.363754749298095703e+00 -4.258285164833068848e-01 8.002375602722167969e+00 2.272964000701904297e+00 -5.006411075592041016e-01
4.881000000000000000e+03 1.020279502868652344e+01 1.768541526794433594e+01 -1.046906836563721299e-04 -2.647662950039375573e-05 -3.935019412892870605e-05 2.108695480274036527e-05
4.882000000000000000e+03 6.535814762115478516e+00 -1.183333015441894531e+01 3.468091785907745361e-02 5.910285711288452148e-01 1.877128481864929199e-01 -1.656659990549087524e-01
4.883000000000000000e+03 7.324906921386718750e+01 4.962240695953369141e+00 -3.924138844013214111e-01 7.015402317047119141e+00 1.986896514892578125e+00 -6.227048635482788086e-01
4.884000000000000000e+03 6.812792205810546875e+01 4.167803823947906494e-01 -1.005087375640869141e+00 6.635733127593994141e+00 1.689193844795227051e+00 -1.134294390678405762e+00
4.885000000000000000e+03 9.861610412597656250e+00 -8.556491851806640625e+00 -2.842906303703784943e-02 4.156095683574676514e-01 1.161541491746902466e-01 5.504388734698295593e-02
4.886000000000000000e+03 6.727998256683349609e+00 -9.646902084350585938e+00 -7.509779185056686401e-02 3.824849724769592285e-01 9.221614897251129150e-02 -2.022949159145355225e-01
4.887000000000000000e+03 6.729677677154541016e+00 -1.036646080017089844e+01 -4.893121868371963501e-02 4.530908465385437012e-01 1.212478876113891602e-01 -1.905576288700103760e-01
4.888000000000000000e+03 8.168891906738281250e+00 1.997348785400390625e+01 1.164702553069218993e-04 5.076122397440485656e-05 5.016944123781286180e-05 -2.004650923481676728e-05
4.889000000000000000e+03 7.033543586730957031e+00 1.728506660461425781e+01 -7.002974598435685039e-05 -1.512137623649323359e-05 -2.554533602960873395e-05 -3.020220447069732472e-07
4.890000000000000000e+03 7.359961986541748047e+00 -1.124035644531250000e+01 2.351984195411205292e-02 6.270630955696105957e-01 1.951748728752136230e-01 -8.909314125776290894e-02
4.891000000000000000e+03 7.312637329101562500e+01 6.510845184326171875e+00 -2.952896952629089355e-01 6.778738975524902344e+00 1.945034742355346680e+00 -7.414617538452148438e-01
4.892000000000000000e+03 7.175109863281250000e+01 4.066560745239257812e+00 -5.517901182174682617e-01 6.859494686126708984e+00 1.892311453819274902e+00 -7.598165273666381836e-01
4.893000000000000000e+03 7.430897712707519531e+00 1.790725135803222656e+01 9.043777390616014600e-05 2.977333861053921282e-05 3.606333484640344977e-05 3.666926204459741712e-06
4.894000000000000000e+03 7.252597808837890625e+01 4.227638721466064453e+00 -4.807846844196319580e-01 6.971915245056152344e+00 1.947339177131652832e+00 -6.670708060264587402e-01
4.895000000000000000e+03 8.503756523132324219e+00 1.800681877136230469e+01 9.630155545892193913e-05 3.200228456989862025e-05 3.849115091725252569e-05 -5.059438990429043770e-06
4.896000000000000000e+03 6.426764011383056641e+00 9.904932022094726562e+00 -2.285143455083016306e-05 2.264062095491681248e-05 -6.324458468043303583e-08 -6.915683115948922932e-06
4.897000000000000000e+03 7.260870361328125000e+01 1.841602325439453125e+01 1.948119550943374634e-01 5.562787532806396484e+00 1.727279901504516602e+00 -7.077980041503906250e-01
4.898000000000000000e+03 7.157378387451171875e+01 1.796981620788574219e+01 2.368095517158508301e-01 5.441061973571777344e+00 1.703361392021179199e+00 -7.865598201751708984e-01
4.899000000000000000e+03 1.140638065338134766e+01 1.206903648376464844e+01 4.765699031850090250e-06 -1.420500848325900733e-05 -2.831792698998469859e-06 -6.204290002642665058e-06
4.900000000000000000e+03 7.802777290344238281e+00 8.398819923400878906e+00 1.805115061870310456e-05 3.467508804533281364e-06 6.455597485910402611e-06 -1.744534893077798188e-05
4.901000000000000000e+03 9.709493637084960938e+00 2.512230491638183594e+01 1.721171574899926782e-04 1.182607447844929993e-04 8.711337432032451034e-05 -7.444686343660578132e-05
4.902000000000000000e+03 7.293165588378906250e+01 1.382472610473632812e+01 7.186817377805709839e-02 5.941380977630615234e+00 1.803974747657775879e+00 -8.654241561889648438e-01
4.903000000000000000e+03 7.766779422760009766e+00 1.197040271759033203e+01 3.998312604380771518e-05 -2.067116474790964276e-05 5.793588570668362081e-06 -2.784846765280235559e-05
4.904000000000000000e+03 7.726170539855957031e+00 1.489462375640869141e+01 1.842922756623011082e-05 5.924404467805288732e-05 2.330198185518383980e-05 -4.057332989759743214e-05
4.905000000000000000e+03 6.617884635925292969e+00 1.355419349670410156e+01 6.352409400278702378e-05 -1.241012887476244941e-05 1.533418799226637930e-05 -1.193012576550245285e-05
4.906000000000000000e+03 1.257489871978759766e+01 9.099881172180175781e+00 3.138205784125602804e-06 1.082803123608755413e-06 1.266302660951623693e-06 -2.824260491252061911e-06
4.907000000000000000e+03 3.080578231811523438e+01 -1.284517002105712891e+01 1.175131082534790039e+00 5.706228315830230713e-02 3.696579933166503906e-01 7.119088768959045410e-01
4.908000000000000000e+03 2.951866722106933594e+01 -8.283140182495117188e+00 1.616248965263366699e+00 -2.142742872238159180e-01 4.205923974514007568e-01 8.934342861175537109e-02
4.909000000000000000e+03 7.264939308166503906e+00 3.062065505981445312e+01 1.724514731904491782e-04 -2.998817071784287691e-04 -3.822906728601083159e-05 -2.221653558081015944e-04
4.910000000000000000e+03 8.183767318725585938e+00 2.331456565856933594e+01 -7.012817513896152377e-05 -8.345473179360851645e-05 -4.607487062457948923e-05 9.773033525561913848e-05
4.911000000000000000e+03 8.691074371337890625e+00 2.370763206481933594e+01 1.383429626002907753e-04 1.230620691785588861e-04 7.842151535442098975e-05 -7.194065983640030026e-05
4.912000000000000000e+03 9.605209350585937500e+00 -1.140029430389404297e+01 1.939713209867477417e-01 6.999210715293884277e-01 2.681677043437957764e-01 2.027889192104339600e-01
4.913000000000000000e+03 1.101549243927001953e+01 -1.155159473419189453e+01 3.224880695343017578e-01 6.079003810882568359e-01 2.791165411472320557e-01 3.389350771903991699e-01
4.914000000000000000e+03 7.186042022705078125e+01 1.853603172302246094e+01 2.310902774333953857e-01 5.455015659332275391e+00 1.705831885337829590e+00 -7.473950982093811035e-01
4.915000000000000000e+03 7.180435180664062500e+01 2.034869384765625000e+01 2.514045536518096924e-01 5.366933822631835938e+00 1.685501456260681152e+00 -6.427958011627197266e-01
4.916000000000000000e+03 2.307050704956054688e+01 -9.556084632873535156e+00 6.538892388343811035e-01 -4.002367258071899414e-01 7.609575241804122925e-02 3.006163239479064941e-01
4.917000000000000000e+03 2.267481613159179688e+01 -8.369724273681640625e+00 5.773503184318542480e-01 -3.582369685173034668e-01 6.573400646448135376e-02 2.045983374118804932e-01
4.918000000000000000e+03 1.188361263275146484e+01 -9.615815162658691406e+00 1.545518934726715088e-01 4.004377126693725586e-01 1.664968729019165039e-01 2.640886604785919189e-01
4.919000000000000000e+03 7.199286651611328125e+01 2.657069778442382812e+01 2.022047638893127441e-01 5.228886604309082031e+00 1.629327416419982910e+00 -3.287235200405120850e-01
4.920000000000000000e+03 6.974945068359375000e+01 2.594335174560546875e+01 3.148672580718994141e-01 5.061811447143554688e+00 1.613003611564636230e+00 -3.751718401908874512e-01
4.921000000000000000e+03 9.282780647277832031e+00 -8.174956321716308594e+00 -7.570467889308929443e-02 3.867677152156829834e-01 9.331891685724258423e-02 -1.389350090175867081e-02
4.922000000000000000e+03 1.250407791137695312e+01 7.308782577514648438e+00 -7.519947757828049362e-06 -1.415037513652350754e-05 -6.501096777355996892e-06 9.671483894635457546e-06
4.923000000000000000e+03 3.289888763427734375e+01 -1.184087753295898438e+01 1.602976560592651367e+00 1.609231591224670410e+00 9.636624455451965332e-01 3.513805270195007324e-01
4.924000000000000000e+03 7.199663543701171875e+01 1.311238956451416016e+01 6.531029194593429565e-02 5.825881481170654297e+00 1.767357468605041504e+00 -9.596371054649353027e-01
4.925000000000000000e+03 4.663347625732421875e+01 9.713264465332031250e+00 2.012622833251953125e+00 3.926430463790893555e+00 1.781715989112854004e+00 2.129497051239013672e+00
4.926000000000000000e+03 3.615435028076171875e+01 -9.809737205505371094e+00 1.806174159049987793e+00 5.431183338165283203e+00 2.171207189559936523e+00 4.679548442363739014e-01
4.927000000000000000e+03 6.204302978515625000e+01 2.622641801834106445e+00 -1.084605813026428223e+00 2.970829725265502930e+00 5.658671259880065918e-01 -1.853515028953552246e+00
4.928000000000000000e+03 5.332926559448242188e+01 4.936286449432373047e+00 -9.606662988662719727e-01 7.326246500015258789e-01 -6.841249018907546997e-02 -5.518779158592224121e-01
4.929000000000000000e+03 5.288321685791015625e+01 5.402766227722167969e+00 -6.876585483551025391e-01 7.448821663856506348e-01 1.716708391904830933e-02 -4.578553736209869385e-01
4.930000000000000000e+03 4.674015045166015625e+01 1.050911521911621094e+01 2.071447134017944336e+00 4.153266429901123047e+00 1.867414116859436035e+00 2.120076894760131836e+00
4.931000000000000000e+03 4.800309753417968750e+01 1.018775272369384766e+01 1.991164088249206543e+00 3.166322708129882812e+00 1.547246098518371582e+00 1.615669012069702148e+00
4.932000000000000000e+03 3.767831039428710938e+01 -6.531811237335205078e+00 1.620703816413879395e+00 7.497536182403564453e+00 2.735471963882446289e+00 9.133412241935729980e-01
4.933000000000000000e+03 1.874995231628417969e+01 -1.165571403503417969e+01 5.058379769325256348e-01 -1.683755517005920410e-01 1.012387201189994812e-01 3.760342597961425781e-01
4.934000000000000000e+03 1.588188934326171875e+01 -1.183909320831298828e+01 5.557761788368225098e-01 2.881984226405620575e-02 1.753787994384765625e-01 4.145027697086334229e-01
4.935000000000000000e+03 1.656594467163085938e+01 -1.146229076385498047e+01 5.139283537864685059e-01 -3.116231970489025116e-02 1.448298245668411255e-01 3.957147002220153809e-01
4.936000000000000000e+03 4.162380981445312500e+01 -2.710221672058105469e+01 1.934551149606704712e-01 4.075663566589355469e+00 1.280735611915588379e+00 -4.837931692600250244e-01
4.937000000000000000e+03 1.022264099121093750e+01 2.766319465637207031e+01 3.211633302271366119e-04 -6.848940392956137657e-05 7.580217788927257061e-05 -5.068993050372228026e-05
4.938000000000000000e+03 5.503349304199218750e+01 5.845142841339111328e+00 -4.220637977123260498e-01 1.056703925132751465e+00 1.903920173645019531e-01 -8.165247440338134766e-01
4.939000000000000000e+03 5.545302200317382812e+01 4.316582679748535156e+00 -1.111682653427124023e+00 8.479605317115783691e-01 -7.911665737628936768e-02 -7.948521375656127930e-01
4.940000000000000000e+03 3.609209823608398438e+01 -8.942899703979492188e+00 1.909286022186279297e+00 5.253984451293945312e+00 2.148981094360351562e+00 5.772147774696350098e-01
4.941000000000000000e+03 6.860842895507812500e+01 -1.897886037826538086e+00 -6.933829784393310547e-01 7.332857608795166016e+00 1.991842389106750488e+00 -8.686711788177490234e-01
4.942000000000000000e+03 7.184090423583984375e+01 -1.921800851821899414e+00 -5.470456480979919434e-01 7.876228332519531250e+00 2.198754787445068359e+00 -1.852122098207473755e-01
4.943000000000000000e+03 9.799996376037597656e+00 2.863966369628906250e+01 1.971659075934439898e-04 -1.100500594475306571e-04 2.613475407997611910e-05 -1.434788282494992018e-04
4.944000000000000000e+03 3.545510864257812500e+01 -1.318695926666259766e+01 9.303185343742370605e-01 4.436577320098876953e+00 1.610068798065185547e+00 1.061010882258415222e-01
4.945000000000000000e+03 6.931813240051269531e+00 2.063475608825683594e+01 -6.117797602200880647e-05 -3.653957537608221173e-05 -2.931526614702306688e-05 -2.294548903591930866e-05
4.946000000000000000e+03 9.781587600708007812e+00 2.355856704711914062e+01 3.393874794710427523e-05 2.767348487395793200e-04 9.320208482677116990e-05 1.094211825147795025e-06
4.947000000000000000e+03 4.897839736938476562e+01 9.624164581298828125e+00 1.812449932098388672e+00 2.459871530532836914e+00 1.281696438789367676e+00 1.205327391624450684e+00
4.948000000000000000e+03 4.708749008178710938e+01 5.890403747558593750e+00 4.395785331726074219e-01 1.681666970252990723e+00 6.363736391067504883e-01 1.578601360321044922e+00
4.949000000000000000e+03 4.775450897216796875e+01 5.814029693603515625e+00 2.904950380325317383e-01 1.265094161033630371e+00 4.666767418384552002e-01 1.155418753623962402e+00
4.950000000000000000e+03 5.610889434814453125e+01 4.525671005249023438e+00 -9.346387386322021484e-01 9.897582530975341797e-01 1.653585210442543030e-02 -9.207291007041931152e-01
4.951000000000000000e+03 7.662759780883789062e+00 1.687776184082031250e+01 6.738236697856336832e-05 3.319433744763955474e-05 3.017301060026511550e-05 1.509647518105339259e-06
4.952000000000000000e+03 1.025816154479980469e+01 1.661355781555175781e+01 -7.772227399982511997e-05 -4.105011612409725785e-05 -3.563171776477247477e-05 3.692669633892364800e-05
4.953000000000000000e+03 8.616822242736816406e+00 1.401165390014648438e+01 3.524890416883863509e-05 4.657672616303898394e-05 2.454768764437176287e-05 -4.107055428903549910e-05
4.954000000000000000e+03 2.179770660400390625e+01 -8.375678062438964844e+00 5.042043924331665039e-01 -3.082297146320343018e-01 5.879240855574607849e-02 2.389728873968124390e-01
4.955000000000000000e+03 4.865965652465820312e+01 1.254737567901611328e+01 2.048112154006958008e+00 3.630103111267089844e+00 1.703464627265930176e+00 1.521097660064697266e+00
4.956000000000000000e+03 4.949486923217773438e+01 1.833602905273437500e+01 1.469157457351684570e+00 4.550924777984619141e+00 1.806024670600891113e+00 1.120113611221313477e+00
4.957000000000000000e+03 8.864220619201660156e+00 -1.142293548583984375e+01 1.450994908809661865e-01 7.171208262443542480e-01 2.586660981178283691e-01 1.095891296863555908e-01
4.958000000000000000e+03 1.159595489501953125e+01 9.438755035400390625e+00 5.176776994630927220e-06 -3.766941460980888223e-07 1.440024902876757551e-06 -1.111066649173153564e-05
4.959000000000000000e+03 3.492784500122070312e+01 -1.195936965942382812e+01 1.433248996734619141e+00 3.810688018798828125e+00 1.573181152343750000e+00 2.359727174043655396e-01
4.960000000000000000e+03 3.529263305664062500e+01 -1.035007190704345703e+01 1.808326601982116699e+00 4.311114788055419922e+00 1.835832357406616211e+00 4.018416106700897217e-01
4.961000000000000000e+03 1.700317192077636719e+01 -8.833741188049316406e+00 3.230043053627014160e-01 -4.009762406349182129e-02 8.487200736999511719e-02 3.406721651554107666e-01
4.962000000000000000e+03 7.250579833984375000e+01 5.689223766326904297e+00 -3.917848169803619385e-01 6.761461257934570312e+00 1.910902976989746094e+00 -7.755459547042846680e-01
4.963000000000000000e+03 2.206156349182128906e+01 -1.000172138214111328e+01 5.859616994857788086e-01 -3.456526696681976318e-01 7.209270447492599487e-02 3.418612182140350342e-01
4.964000000000000000e+03 1.265130710601806641e+01 -8.356428146362304688e+00 9.515649825334548950e-02 2.710075676441192627e-01 1.098492220044136047e-01 2.339747995138168335e-01
4.965000000000000000e+03 7.407560825347900391e+00 -8.883347511291503906e+00 -8.866181224584579468e-02 3.753481209278106689e-01 8.600589632987976074e-02 -1.574038267135620117e-01
4.966000000000000000e+03 4.728475570678710938e+01 9.584332466125488281e+00 1.941252827644348145e+00 3.383902311325073242e+00 1.597546577453613281e+00 1.864817380905151367e+00
4.967000000000000000e+03 4.967919540405273438e+01 6.384357452392578125e+00 3.257777988910675049e-01 9.526395201683044434e-01 3.835251927375793457e-01 3.927794396877288818e-01
4.968000000000000000e+03 5.887792587280273438e+01 3.435702562332153320e+00 -1.093283057212829590e+00 1.476072192192077637e+00 1.148367300629615784e-01 -1.367196559906005859e+00
4.969000000000000000e+03 5.708638000488281250e+01 4.808332920074462891e+00 -7.401297688484191895e-01 1.219099164009094238e+00 1.436908245086669922e-01 -1.123886108398437500e+00
4.970000000000000000e+03 7.180758666992187500e+01 -5.598979949951171875e+00 -1.699534207582473755e-01 8.709334373474121094e+00 2.561814308166503906e+00 -1.414527148008346558e-01
4.971000000000000000e+03 7.280922698974609375e+01 2.053207015991210938e+01 1.982955783605575562e-01 5.488753795623779297e+00 1.706114768981933594e+00 -5.955744385719299316e-01
4.972000000000000000e+03 9.446088790893554688e+00 8.203765869140625000e+00 1.080804759112652391e-05 1.090790101443417370e-05 6.514784672617679462e-06 -1.563208388688508421e-05
4.973000000000000000e+03 1.168032169342041016e+01 1.135889911651611328e+01 -4.401629212225088850e-06 5.050652816862566397e-06 1.947071126551236375e-07 4.439249096321873367e-06
4.974000000000000000e+03 3.554002380371093750e+01 -6.231132030487060547e+00 1.627346038818359375e+00 4.184598922729492188e+00 1.743583440780639648e+00 6.869790554046630859e-01
4.975000000000000000e+03 6.002161407470703125e+01 3.554462194442749023e+00 -9.528933167457580566e-01 1.983198165893554688e+00 3.090914487838745117e-01 -1.606697678565979004e+00
4.976000000000000000e+03 5.825544738769531250e+01 4.942690372467041016e+00 -6.040294170379638672e-01 1.588272452354431152e+00 2.952729165554046631e-01 -1.365333795547485352e+00
4.977000000000000000e+03 1.013700580596923828e+01 2.590875816345214844e+01 -6.869456410640850663e-05 -8.164061728166416287e-05 -4.510055441642180085e-05 5.689396130037494004e-05
4.978000000000000000e+03 7.048382759094238281e+00 2.515756797790527344e+01 9.590976696927100420e-05 3.143693538731895387e-05 3.820401252596639097e-05 -8.815030741970986128e-05
4.979000000000000000e+03 2.945845413208007812e+01 -7.381677627563476562e+00 1.454187750816345215e+00 -2.853076756000518799e-01 3.506640195846557617e-01 -7.929009199142456055e-02
4.980000000000000000e+03 4.804259490966796875e+01 1.596265888214111328e+01 1.674876809120178223e+00 4.737332344055175781e+00 1.923662781715393066e+00 1.527642607688903809e+00
4.981000000000000000e+03 4.895062637329101562e+01 1.706186676025390625e+01 1.586771488189697266e+00 4.567448139190673828e+00 1.846265792846679688e+00 1.293631315231323242e+00
4.982000000000000000e+03 4.641759109497070312e+01 6.019159793853759766e+00 5.552124381065368652e-01 2.433889150619506836e+00 8.967304825782775879e-01 1.990800976753234863e+00
4.983000000000000000e+03 2.792299270629882812e+01 -8.066398620605468750e+00 1.249529838562011719e+00 -4.837207794189453125e-01 2.297427207231521606e-01 2.346901409327983856e-02
4.984000000000000000e+03 4.858780288696289062e+01 1.460104560852050781e+01 1.877527117729187012e+00 4.218971252441406250e+00 1.828949570655822754e+00 1.505286216735839844e+00
4.985000000000000000e+03 5.026475524902343750e+01 7.686775207519531250e+00 9.919399023056030273e-01 1.307757139205932617e+00 6.899091005325317383e-01 4.088321328163146973e-01
4.986000000000000000e+03 1.050471687316894531e+01 2.663367080688476562e+01 3.371393540874123573e-04 -2.424791637167800218e-05 9.386743477080017328e-05 -2.361612132517620921e-05
4.987000000000000000e+03 7.448730945587158203e+00 2.146223831176757812e+01 1.087576856662053615e-05 2.140460128430277109e-05 9.684110409580171108e-06 -4.912475560558959842e-05
4.988000000000000000e+03 4.849230575561523438e+01 2.121759796142578125e+01 1.024044871330261230e+00 5.096674919128417969e+00 1.836215972900390625e+00 8.998497724533081055e-01
4.989000000000000000e+03 1.099914455413818359e+01 8.218463897705078125e+00 1.234982755704550073e-05 1.634926593396812677e-05 8.609727956354618073e-06 -1.326200163020985201e-05
4.990000000000000000e+03 6.129225921630859375e+01 3.023528575897216797e+00 -1.038433790206909180e+00 2.528720855712890625e+00 4.470861256122589111e-01 -1.770058989524841309e+00
4.991000000000000000e+03 1.737956619262695312e+01 -9.796204566955566406e+00 4.116950631141662598e-01 -7.404055446386337280e-02 1.012963578104972839e-01 3.708785474300384521e-01
4.992000000000000000e+03 4.652410125732421875e+01 8.183355331420898438e+00 1.706330776214599609e+00 3.385331392288208008e+00 1.527498602867126465e+00 2.089664220809936523e+00
4.993000000000000000e+03 4.785389328002929688e+01 8.000928878784179688e+00 1.527696847915649414e+00 2.357721328735351562e+00 1.165625452995300293e+00 1.479567050933837891e+00
4.994000000000000000e+03 1.109076118469238281e+01 1.102213668823242188e+01 1.565920570101297926e-06 -4.059851050897123059e-07 3.479806309769628569e-07 -5.433728347270516679e-06
4.995000000000000000e+03 6.358409881591796875e+01 2.659384250640869141e+00 -1.052001714706420898e+00 3.952926635742187500e+00 8.702774643898010254e-01 -1.916444778442382812e+00
4.996000000000000000e+03 9.980799674987792969e+00 2.033490943908691406e+01 8.376119512831792235e-05 1.071734441211447120e-04 5.728039104724302888e-05 -8.630340744275599718e-06
4.997000000000000000e+03 7.262615203857421875e+01 1.498932170867919922e+01 1.197047531604766846e-01 5.795464992523193359e+00 1.774550914764404297e+00 -8.537499308586120605e-01
4.998000000000000000e+03 7.212984466552734375e+01 1.392711544036865234e+01 9.949719160795211792e-02 5.784276008605957031e+00 1.765131950378417969e+00 -9.224611520767211914e-01
4.999000000000000000e+03 9.629401206970214844e+00 1.501346111297607422e+01 3.162285065627656877e-05 6.041042070137336850e-05 2.760998177109286189e-05 -3.897399437846615911e-05
5.000000000000000000e+03 4.646688842773437500e+01 6.722234249114990234e+00 1.062472581863403320e+00 2.749011278152465820e+00 1.143445134162902832e+00 2.018332958221435547e+00
5.001000000000000000e+03 6.396851062774658203e+00 -9.103073120117187500e+00 -9.345943480730056763e-02 3.049715161323547363e-01 6.345362961292266846e-02 -2.392250001430511475e-01
5.002000000000000000e+03 8.394668579101562500e+00 2.900181388854980469e+01 9.229254646925255656e-05 8.364207133126910776e-06 3.019702489837072790e-05 -1.123203182942233980e-04
5.003000000000000000e+03 8.474657058715820312e+00 2.764162445068359375e+01 2.119603013852611184e-04 1.641242561163380742e-04 1.128253643400967121e-04 2.634536940604448318e-05
5.004000000000000000e+03 2.876320075988769531e+01 -1.092661666870117188e+01 1.382861971855163574e+00 -3.628419041633605957e-01 3.060060143470764160e-01 5.509284138679504395e-01
5.005000000000000000e+03 2.763263702392578125e+01 -1.225877952575683594e+01 9.002286195755004883e-01 -4.409664869308471680e-01 1.377786397933959961e-01 7.362079620361328125e-01
5.006000000000000000e+03 2.450468254089355469e+01 -8.688482284545898438e+00 7.754927277565002441e-01 -4.622382223606109619e-01 9.397634118795394897e-02 1.789710074663162231e-01
5.007000000000000000e+03 4.784693908691406250e+01 1.492728042602539062e+01 1.809592008590698242e+00 4.645182132720947266e+00 1.936432242393493652e+00 1.650767803192138672e+00
5.008000000000000000e+03 1.171442794799804688e+01 8.120138168334960938e+00 -7.301665391423739493e-06 -2.508186662453226745e-05 -9.715059604786802083e-06 1.456410245737060905e-05
5.009000000000000000e+03 7.178322601318359375e+01 2.215136718750000000e+01 2.511156201362609863e-01 5.310926914215087891e+00 1.668612718582153320e+00 -5.592069029808044434e-01
5.010000000000000000e+03 1.453444576263427734e+01 -8.652414321899414062e+00 2.036451101303100586e-01 1.474364399909973145e-01 1.053244695067405701e-01 3.158501982688903809e-01
5.011000000000000000e+03 1.659626960754394531e+01 -9.555583000183105469e+00 3.603985905647277832e-01 -7.711737416684627533e-03 1.058060526847839355e-01 3.651844263076782227e-01
5.012000000000000000e+03 7.249631500244140625e+01 8.137773513793945312e+00 -2.274679690599441528e-01 6.450123310089111328e+00 1.866796612739562988e+00 -9.026374220848083496e-01
5.013000000000000000e+03 7.231316375732421875e+01 6.489994525909423828e+00 -3.524366617202758789e-01 6.621036529541015625e+00 1.880579948425292969e+00 -8.506706953048706055e-01
5.014000000000000000e+03 5.616598510742187500e+01 6.276147365570068359e+00 -1.951738744974136353e-01 1.329145669937133789e+00 3.401915431022644043e-01 -1.025399088859558105e+00
5.015000000000000000e+03 7.840060710906982422e+00 1.079065895080566406e+01 2.173716165998484939e-05 2.599458275653887540e-05 1.431952296115923673e-05 -2.390182999079115689e-05
5.016000000000000000e+03 1.052996921539306641e+01 1.076070690155029297e+01 -8.412018814851762727e-07 -1.189764861919684336e-05 -3.821654900093562901e-06 9.445448995393235236e-06
5.017000000000000000e+03 2.736513900756835938e+01 -7.764812946319580078e+00 1.154217004776000977e+00 -4.973219633102416992e-01 1.970684975385665894e-01 -3.180301189422607422e-02
5.018000000000000000e+03 2.557699394226074219e+01 -9.976422309875488281e+00 9.360232353210449219e-01 -5.079408288002014160e-01 1.284247189760208130e-01 3.547402918338775635e-01
5.019000000000000000e+03 1.391683292388916016e+01 -1.120453262329101562e+01 4.465270638465881348e-01 2.423586696386337280e-01 2.066657245159149170e-01 4.176164567470550537e-01
5.020000000000000000e+03 1.535926437377929688e+01 -1.113372898101806641e+01 4.765193760395050049e-01 8.725359290838241577e-02 1.691318899393081665e-01 4.141281247138977051e-01
5.021000000000000000e+03 9.516184806823730469e+00 2.639209175109863281e+01 2.346181427128612995e-04 9.664484241511672735e-05 9.937889990396797657e-05 -1.907698606373742223e-05
5.022000000000000000e+03 6.848358154296875000e+01 -2.296421676874160767e-01 -9.483610391616821289e-01 6.901402473449707031e+00 1.785912394523620605e+00 -1.003075122833251953e+00
5.023000000000000000e+03 6.930953979492187500e+01 -1.537321686744689941e+00 -7.386450171470642090e-01 7.436920642852783203e+00 2.009482622146606445e+00 -7.167996764183044434e-01
5.024000000000000000e+03 1.078642749786376953e+01 1.337670135498046875e+01 4.247276137903099880e-06 -3.600511627155356109e-05 -9.527352631266694516e-06 -1.035581021824327763e-06
5.025000000000000000e+03 9.489328384399414062e+00 3.063257980346679688e+01 2.363459643675014377e-04 4.929706392431398854e-06 7.238270336529240012e-05 -3.933745756512507796e-05
5.026000000000000000e+03 7.223783111572265625e+01 1.894108653068542480e+00 -6.090545654296875000e-01 7.279836654663085938e+00 2.001234769821166992e+00 -4.827319383621215820e-01
5.027000000000000000e+03 6.665284729003906250e+01 2.583346664905548096e-01 -1.115661978721618652e+00 6.024599552154541016e+00 1.472681164741516113e+00 -1.448523998260498047e+00
5.028000000000000000e+03 7.470855712890625000e+00 2.083201980590820312e+01 4.985891064279712737e-05 2.221944305347278714e-05 2.162350574508309364e-05 2.134591341018676758e-05
5.029000000000000000e+03 1.023217678070068359e+01 2.288651466369628906e+01 1.014641475194366649e-05 -2.198452566517516971e-04 -6.290965393418446183e-05 5.275199146126396954e-05
5.030000000000000000e+03 3.463142776489257812e+01 -7.696990013122558594e+00 1.941184759140014648e+00 3.203980922698974609e+00 1.543549656867980957e+00 4.853506684303283691e-01
5.031000000000000000e+03 3.606775665283203125e+01 -8.053459167480468750e+00 1.925771355628967285e+00 5.166229724884033203e+00 2.127600431442260742e+00 6.399410963058471680e-01
5.032000000000000000e+03 1.854300689697265625e+01 -9.313184738159179688e+00 4.109596610069274902e-01 -1.464662998914718628e-01 7.934801280498504639e-02 3.436043262481689453e-01
5.033000000000000000e+03 2.013345718383789062e+01 -1.195954418182373047e+01 5.047246217727661133e-01 -2.312936931848526001e-01 8.202928304672241211e-02 3.828770816326141357e-01
5.034000000000000000e+03 9.697745323181152344e+00 3.166017150878906250e+01 2.458103408571332693e-04 -3.229030990041792393e-04 -2.312782999069895595e-05 -3.360144328325986862e-04
5.035000000000000000e+03 2.034789657592773438e+01 -1.340695095062255859e+01 4.462536573410034180e-01 -2.066588997840881348e-01 7.187842577695846558e-02 3.695290684700012207e-01
5.036000000000000000e+03 2.201267623901367188e+01 -1.071487236022949219e+01 5.686864852905273438e-01 -3.364471197128295898e-01 6.967180967330932617e-02 3.850230872631072998e-01
5.037000000000000000e+03 1.931557464599609375e+01 -1.169806289672851562e+01 5.088164210319519043e-01 -2.011849731206893921e-01 9.228943288326263428e-02 3.848888278007507324e-01
5.038000000000000000e+03 2.516950607299804688e+01 -1.257315349578857422e+01 6.061860918998718262e-01 -4.026223421096801758e-01 6.106912717223167419e-02 6.188496947288513184e-01
5.039000000000000000e+03 2.823860549926757812e+01 -1.186078357696533203e+01 1.116271138191223145e+00 -4.197024106979370117e-01 2.089706212282180786e-01 7.034929990768432617e-01
5.040000000000000000e+03 8.297369956970214844e+00 2.205112838745117188e+01 2.712149580474942923e-05 6.982540799072012305e-05 2.908407077484298497e-05 -7.524935062974691391e-05
5.041000000000000000e+03 1.002884769439697266e+01 3.272420883178710938e+01 2.269228571094572544e-04 -4.083430030732415617e-05 5.582656740443781018e-05 -5.809684444102458656e-05
5.042000000000000000e+03 7.478300571441650391e+00 2.986519813537597656e+01 9.198457701131701469e-05 2.045472210738807917e-04 8.895953942555934191e-05 -3.971642217948101461e-05
5.043000000000000000e+03 7.941562175750732422e+00 2.826750373840332031e+01 1.064231109921820462e-04 -2.260221226606518030e-04 -3.587970422813668847e-05 -1.315270492341369390e-04
5.044000000000000000e+03 7.056855773925781250e+01 2.330583381652832031e+01 3.136730492115020752e-01 5.144073963165283203e+00 1.637324094772338867e+00 -5.037769675254821777e-01
5.045000000000000000e+03 7.029881286621093750e+01 2.908136367797851562e+01 2.224930673837661743e-01 5.106492996215820312e+00 1.598695874214172363e+00 -2.381537854671478271e-01
5.046000000000000000e+03 8.831323623657226562e+00 3.653095626831054688e+01 -1.088280769181437790e-04 3.668449644464999437e-04 7.740507135167717934e-05 -2.287651295773684978e-04
5.047000000000000000e+03 9.474398612976074219e+00 3.820869827270507812e+01 -2.381408849032595754e-04 -2.433761692373082042e-04 -1.444551162421703339e-04 -3.466327325440943241e-04
5.048000000000000000e+03 6.736289978027343750e+01 3.359702682495117188e+01 2.041846364736557007e-01 5.001277446746826172e+00 1.561638712882995605e+00 -8.174811303615570068e-02
5.049000000000000000e+03 6.734427642822265625e+01 2.884225463867187500e+01 3.562424480915069580e-01 4.904660701751708984e+00 1.578271031379699707e+00 -2.154747098684310913e-01
5.050000000000000000e+03 4.937196350097656250e+01 2.568768119812011719e+01 7.922191619873046875e-01 4.891751289367675781e+00 1.705191135406494141e+00 5.407683849334716797e-01
5.051000000000000000e+03 1.053366756439208984e+01 4.010960006713867188e+01 -6.077776197344064713e-04 1.082351431250572205e-03 1.423721550963819027e-04 2.341509389225393534e-05
5.052000000000000000e+03 4.564496231079101562e+01 -3.575767898559570312e+01 -8.399679660797119141e-01 2.289400577545166016e+00 4.348298013210296631e-01 -4.941413402557373047e-01
5.053000000000000000e+03 7.029659271240234375e+01 3.051222610473632812e+01 1.951008439064025879e-01 5.109595298767089844e+00 1.591408848762512207e+00 -1.912641972303390503e-01
5.054000000000000000e+03 7.056657409667968750e+01 3.176886940002441406e+01 1.660748422145843506e-01 5.122727394104003906e+00 1.586640596389770508e+00 -1.586888879537582397e-01
5.055000000000000000e+03 5.198432922363281250e+01 3.257016754150390625e+01 2.583217918872833252e-01 4.716174125671386719e+00 1.492348790168762207e+00 3.999702930450439453e-01
5.056000000000000000e+03 4.267836380004882812e+01 -3.154539299011230469e+01 -5.164421796798706055e-01 3.286871194839477539e+00 8.311286568641662598e-01 -6.720167398452758789e-01
5.057000000000000000e+03 2.416403007507324219e+01 -1.168809223175048828e+01 6.500088572502136230e-01 -4.176825582981109619e-01 6.969789415597915649e-02 5.112579464912414551e-01
5.058000000000000000e+03 7.967109680175781250e+00 2.708745765686035156e+01 4.548113065538927913e-05 -2.044033317361027002e-04 -4.767666177940554917e-05 -8.133321534842252731e-05
5.059000000000000000e+03 9.700257301330566406e+00 -9.219318389892578125e+00 1.960620749741792679e-03 4.731793105602264404e-01 1.425419747829437256e-01 6.392103433609008789e-02
5.060000000000000000e+03 2.997891807556152344e+01 -7.744349002838134766e+00 1.621213316917419434e+00 -1.043571382761001587e-01 4.550568759441375732e-01 1.308141276240348816e-02
5.061000000000000000e+03 3.011701011657714844e+01 -1.244111537933349609e+01 1.197780609130859375e+00 -1.465941965579986572e-01 3.153559267520904541e-01 7.417237162590026855e-01
5.062000000000000000e+03 3.246936798095703125e+01 -9.811363220214843750e+00 1.942194938659667969e+00 1.281249642372131348e+00 9.670333862304687500e-01 3.620797991752624512e-01
5.063000000000000000e+03 3.254742813110351562e+01 -7.531494140625000000e+00 1.891465902328491211e+00 1.233662962913513184e+00 9.375386238098144531e-01 2.341367751359939575e-01
5.064000000000000000e+03 3.089357566833496094e+01 -1.058452796936035156e+01 1.752887010574340820e+00 2.937123775482177734e-01 6.139798164367675781e-01 4.442826807498931885e-01
5.065000000000000000e+03 2.894270706176757812e+01 -7.879923820495605469e+00 1.450626611709594727e+00 -3.583374917507171631e-01 3.276867568492889404e-01 -9.939642623066902161e-03
5.066000000000000000e+03 1.177940750122070312e+01 -1.097442245483398438e+01 2.961247861385345459e-01 4.896693229675292969e-01 2.357382327318191528e-01 3.442249894142150879e-01
5.067000000000000000e+03 2.029018783569335938e+01 -1.069208717346191406e+01 5.166147947311401367e-01 -2.545258402824401855e-01 7.862669974565505981e-02 3.688422143459320068e-01
5.068000000000000000e+03 4.772749328613281250e+01 6.565026760101318359e+00 8.012357354164123535e-01 1.667114257812500000e+00 7.405049800872802734e-01 1.322558164596557617e+00
5.069000000000000000e+03 4.829311752319335938e+01 6.582494735717773438e+00 7.151150703430175781e-01 1.401933312416076660e+00 6.351145505905151367e-01 1.020248174667358398e+00
5.070000000000000000e+03 7.300004482269287109e+00 2.001175689697265625e+01 9.935950220096856356e-05 4.919733692076988518e-05 4.456705210031941533e-05 4.035486654174746946e-06
5.071000000000000000e+03 1.253084945678710938e+01 -1.038323593139648438e+01 2.707385718822479248e-01 3.816345036029815674e-01 1.957119256258010864e-01 3.429093360900878906e-01
5.072000000000000000e+03 5.360343170166015625e+01 6.982995986938476562e+00 1.850080043077468872e-01 1.087921261787414551e+00 3.818787932395935059e-01 -5.640584826469421387e-01
5.073000000000000000e+03 5.305687332153320312e+01 6.456553936004638672e+00 -3.732614219188690186e-02 9.340279698371887207e-01 2.690105438232421875e-01 -4.692877531051635742e-01
5.074000000000000000e+03 1.197869682312011719e+01 -8.284760475158691406e+00 4.979626461863517761e-02 3.131255507469177246e-01 1.088765412569046021e-01 1.947517096996307373e-01
5.075000000000000000e+03 1.320164775848388672e+01 -1.116610717773437500e+01 4.010770320892333984e-01 3.297840356826782227e-01 2.192583233118057251e-01 4.030830264091491699e-01
5.076000000000000000e+03 9.299093246459960938e+00 2.968602943420410156e+01 1.363958726869896054e-04 -1.526812702650204301e-04 -4.885616817773552611e-06 -1.649110781727358699e-04
5.077000000000000000e+03 1.125297546386718750e+01 -8.860207557678222656e+00 5.611514672636985779e-02 3.928209841251373291e-01 1.346808373928070068e-01 1.792084723711013794e-01
5.078000000000000000e+03 2.522887229919433594e+01 -8.554348945617675781e+00 8.694441318511962891e-01 -4.942408800125122070e-01 1.125609800219535828e-01 1.439156681299209595e-01
5.079000000000000000e+03 9.639488220214843750e+00 2.793881034851074219e+01 6.928852963028475642e-05 -9.510856671113288030e-07 2.050123293884098530e-05 2.636017779877875000e-05
5.080000000000000000e+03 6.070069885253906250e+01 3.735249996185302734e+00 -8.846611976623535156e-01 2.367346286773681641e+00 4.448055028915405273e-01 -1.726556181907653809e+00
5.081000000000000000e+03 7.772285461425781250e+00 1.948764991760253906e+01 -9.713133476907387376e-05 -2.959001903946045786e-05 -3.801640559686347842e-05 1.188208170788129792e-05
5.082000000000000000e+03 8.720833778381347656e+00 1.957423210144042969e+01 -9.593452705303207040e-05 -3.803720755968242884e-05 -4.019152038381434977e-05 1.459066243114648387e-05
5.083000000000000000e+03 1.132160091400146484e+01 1.027121257781982422e+01 -3.137408612019498833e-06 -3.891743745043640956e-06 -2.108745775331044570e-06 8.473502930428367108e-06
5.084000000000000000e+03 2.163317871093750000e+01 -1.172292232513427734e+01 5.261945724487304688e-01 -3.018446564674377441e-01 6.730498373508453369e-02 4.136399030685424805e-01
5.085000000000000000e+03 8.151885986328125000e+00 -9.056237220764160156e+00 -7.016239315271377563e-02 4.413874149322509766e-01 1.113675087690353394e-01 -8.674398809671401978e-02
5.086000000000000000e+03 7.405012130737304688e+00 -1.044945526123046875e+01 -1.813604868948459625e-02 5.392207503318786621e-01 1.563253998756408691e-01 -1.150504499673843384e-01
5.087000000000000000e+03 6.986138153076171875e+01 4.043748855590820312e+00 -7.086020708084106445e-01 6.432359695434570312e+00 1.717127323150634766e+00 -1.073372602462768555e+00
5.088000000000000000e+03 7.251706695556640625e+01 4.996386051177978516e+00 -4.488208889961242676e-01 6.867692947387695312e+00 1.925661683082580566e+00 -7.310399413108825684e-01
5.089000000000000000e+03 2.472933959960937500e+01 -1.182187175750732422e+01 6.833259463310241699e-01 -4.273919165134429932e-01 7.678020745515823364e-02 5.290181636810302734e-01
5.090000000000000000e+03 2.535779762268066406e+01 -1.195459938049316406e+01 7.080826163291931152e-01 -4.462499022483825684e-01 7.854980975389480591e-02 5.933628678321838379e-01
5.091000000000000000e+03 7.080390930175781250e+01 1.116505336761474609e+01 -2.370195090770721436e-02 5.748753070831298828e+00 1.717515349388122559e+00 -1.100467920303344727e+00
5.092000000000000000e+03 7.293515014648437500e+01 -6.748964786529541016e+00 -8.282039314508438110e-02 8.874631881713867188e+00 2.637543439865112305e+00 1.661432683467864990e-01
5.093000000000000000e+03 6.228774261474609375e+01 3.632720232009887695e+00 -8.929119706153869629e-01 3.182304382324218750e+00 6.868177652359008789e-01 -1.889018058776855469e+00
5.094000000000000000e+03 7.262242126464843750e+01 -3.494646549224853516e+00 -3.772113025188446045e-01 8.197555541992187500e+00 2.346103429794311523e+00 4.548900574445724487e-02
5.095000000000000000e+03 7.051928710937500000e+01 1.679855537414550781e+01 2.680603265762329102e-01 5.318069934844970703e+00 1.675839066505432129e+00 -8.965570926666259766e-01
5.096000000000000000e+03 7.239035797119140625e+01 1.572375869750976562e+01 1.504243463277816772e-01 5.697778701782226562e+00 1.754460930824279785e+00 -8.448747396469116211e-01
5.097000000000000000e+03 7.531290531158447266e+00 2.221764564514160156e+01 1.444981717213522643e-05 -2.628781658131629229e-05 -3.551400141077465378e-06 6.611115531995892525e-05
5.098000000000000000e+03 1.034155750274658203e+01 -1.075541877746582031e+01 1.722256243228912354e-01 5.972507596015930176e-01 2.308429181575775146e-01 2.252499908208847046e-01
5.099000000000000000e+03 9.116201400756835938e+00 1.755029487609863281e+01 -9.027344640344381332e-05 -2.286278868268709630e-05 -3.394086888874880970e-05 1.272646022698609158e-05
5.100000000000000000e+03 7.140998077392578125e+01 9.470236778259277344e+00 -1.616056859493255615e-01 6.075675010681152344e+00 1.774220705032348633e+00 -1.054832458496093750e+00
5.101000000000000000e+03 3.778621673583984375e+01 -5.740474700927734375e+00 1.406117439270019531e+00 7.536113262176513672e+00 2.682669162750244141e+00 9.662112593650817871e-01
5.102000000000000000e+03 7.179829406738281250e+01 1.137612533569335938e+01 -2.405333891510963440e-02 5.939119815826416016e+00 1.774519920349121094e+00 -1.014135122299194336e+00
5.103000000000000000e+03 7.255500030517578125e+01 1.586887240409851074e+00 -5.863391757011413574e-01 7.378764152526855469e+00 2.037727594375610352e+00 -3.998301923274993896e-01
5.104000000000000000e+03 7.258717346191406250e+01 2.056687593460083008e+00 -5.655717849731445312e-01 7.312701702117919922e+00 2.024138927459716797e+00 -4.421394467353820801e-01
5.105000000000000000e+03 7.196958923339843750e+01 -3.124580860137939453e+00 -4.352850317955017090e-01 8.118290901184082031e+00 2.304901599884033203e+00 -9.254503995180130005e-02
5.106000000000000000e+03 7.252008819580078125e+01 -5.844650268554687500e+00 -1.604601740837097168e-01 8.726016044616699219e+00 2.569666862487792969e+00 5.098458752036094666e-02
5.107000000000000000e+03 2.245554161071777344e+01 -9.210540771484375000e+00 5.945540070533752441e-01 -3.640446662902832031e-01 6.915279477834701538e-02 2.817661166191101074e-01
5.108000000000000000e+03 2.147258377075195312e+01 -9.752557754516601562e+00 5.528270006179809570e-01 -3.189773559570312500e-01 7.015489786863327026e-02 3.330460190773010254e-01
5.109000000000000000e+03 7.273205566406250000e+01 3.423685073852539062e+00 -5.111669301986694336e-01 7.129369258880615234e+00 1.985460758209228516e+00 -5.660892724990844727e-01
5.110000000000000000e+03 7.246426582336425781e+00 -1.202079296112060547e+01 9.895740449428558350e-02 7.185921669006347656e-01 2.452648580074310303e-01 -6.023929640650749207e-02
5.111000000000000000e+03 7.310460662841796875e+01 -7.297249436378479004e-01 -5.048674941062927246e-01 7.760375499725341797e+00 2.176652431488037109e+00 -8.281032741069793701e-02
5.112000000000000000e+03 6.952511596679687500e+01 -2.293890476226806641e+00 -6.134529113769531250e-01 7.630226612091064453e+00 2.105031967163085938e+00 -6.454178690910339355e-01
5.113000000000000000e+03 7.149210357666015625e+01 1.625751686096191406e+01 2.037055790424346924e-01 5.514286994934082031e+00 1.715397715568542480e+00 -8.720732927322387695e-01
5.114000000000000000e+03 8.129173278808593750e+00 -9.760441780090332031e+00 -3.373979777097702026e-02 5.045614838600158691e-01 1.412464976310729980e-01 -6.110854446887969971e-02
5.115000000000000000e+03 7.274458885192871094e+00 2.585577011108398438e+01 1.176425212179310620e-05 -3.057134017581120133e-05 -5.642126325255958363e-06 3.262661266489885747e-05
5.116000000000000000e+03 8.328306198120117188e+00 1.902429962158203125e+01 1.103305330616421998e-04 3.782130806939676404e-05 4.444555088412016630e-05 -1.034380875353235751e-05
5.117000000000000000e+03 8.656558036804199219e+00 1.697940063476562500e+01 7.524246757384389639e-05 4.083354724571108818e-05 3.482280226307921112e-05 -1.330602572124917060e-05
5.118000000000000000e+03 6.650463867187500000e+01 1.925926446914672852e+00 -1.069661021232604980e+00 5.648045539855957031e+00 1.373515248298645020e+00 -1.560993790626525879e+00
5.119000000000000000e+03 9.570885658264160156e+00 1.813829994201660156e+01 1.045505050569772720e-04 3.783535794354975224e-05 4.271575744496658444e-05 -1.188013266073539853e-05
5.120000000000000000e+03 7.885750770568847656e+00 1.847538757324218750e+01 -9.696194319985806942e-05 -1.449524097552057356e-05 -3.343715434311889112e-05 6.494538411061512306e-06
5.121000000000000000e+03 7.192671966552734375e+01 5.403176307678222656e+00 -4.540859162807464600e-01 6.707345962524414062e+00 1.875977993011474609e+00 -8.330094218254089355e-01
5.122000000000000000e+03 6.805355072021484375e+00 1.020008850097656250e+01 -3.014079766217037104e-06 -2.880684587580617517e-05 -9.546277397021185607e-06 1.399243410560302436e-05
5.123000000000000000e+03 9.429941177368164062e+00 9.000812530517578125e+00 -1.304886154684936628e-05 -9.693982065073214471e-06 -6.822853265475714579e-06 1.719872307148762047e-05
5.124000000000000000e+03 7.280616283416748047e+00 9.659908294677734375e+00 -2.115041297656716779e-06 3.321326221339404583e-05 9.329465683549642563e-06 -1.637104469409678131e-05
5.125000000000000000e+03 8.697590827941894531e+00 9.045179367065429688e+00 1.209484798891935498e-05 1.465323111915495247e-05 8.024423550523351878e-06 -2.020697138505056500e-05
5.126000000000000000e+03 7.080847930908203125e+01 1.267445659637451172e+01 6.956347078084945679e-02 5.631170749664306641e+00 1.710220217704772949e+00 -1.067282319068908691e+00
5.127000000000000000e+03 8.452569007873535156e+00 2.475075149536132812e+01 4.253514998708851635e-05 4.310950316721573472e-05 2.569339449109975249e-05 -8.331038407050073147e-05
5.128000000000000000e+03 9.351907730102539062e+00 1.096189880371093750e+01 -2.009618583542760462e-05 -3.051507337659131736e-05 -1.518337830930249766e-05 2.069270522042643279e-05
5.129000000000000000e+03 8.290473937988281250e+00 1.194139957427978516e+01 -4.281561632524244487e-05 1.463117882849473972e-06 -1.240574965777341276e-05 4.781283132615499198e-05
5.130000000000000000e+03 7.184626579284667969e+00 1.188087654113769531e+01 -3.245436528231948614e-05 2.484645119693595916e-05 -2.282373770867707208e-06 2.056386620097327977e-05
5.131000000000000000e+03 7.134885406494140625e+01 2.489777946472167969e+01 2.530323863029479980e-01 5.205087184906005859e+00 1.637435913085937500e+00 -4.151224792003631592e-01
5.132000000000000000e+03 6.908409881591796875e+01 2.116081237792968750e+01 4.139841198921203613e-01 4.994340419769287109e+00 1.622497439384460449e+00 -6.614149212837219238e-01
5.133000000000000000e+03 3.402040100097656250e+01 -1.164190864562988281e+01 1.646781086921691895e+00 2.720975160598754883e+00 1.310326814651489258e+00 3.239021897315979004e-01
5.134000000000000000e+03 7.711458683013916016e+00 2.491290473937988281e+01 9.624380618333816528e-05 -3.238934732507914305e-05 1.915633765747770667e-05 7.133621693355962634e-05
5.135000000000000000e+03 8.466258049011230469e+00 1.241358566284179688e+01 -1.259708824363769963e-05 6.212763400981202722e-05 1.485916345700388774e-05 -3.977269443566910923e-05
5.136000000000000000e+03 7.123781681060791016e+00 1.264478397369384766e+01 4.591573087964206934e-05 -1.735285331960767508e-05 8.568863449909258634e-06 -3.151621422148309648e-05
5.137000000000000000e+03 7.232870483398437500e+01 2.475714683532714844e-01 -6.049174666404724121e-01 7.560077667236328125e+00 2.086548089981079102e+00 -2.863968908786773682e-01
5.138000000000000000e+03 2.001359176635742188e+01 -1.006262683868408203e+01 4.899188280105590820e-01 -2.322124540805816650e-01 7.731191068887710571e-02 3.584848940372467041e-01
5.139000000000000000e+03 8.862558364868164062e+00 -1.061639022827148438e+01 5.588692426681518555e-02 6.245724558830261230e-01 2.041378170251846313e-01 6.194345280528068542e-02
5.140000000000000000e+03 7.081690216064453125e+01 2.052460479736328125e+01 3.044797778129577637e-01 5.237267494201660156e+00 1.662524104118347168e+00 -6.730187535285949707e-01
5.141000000000000000e+03 7.122959899902343750e+01 1.855814743041992188e+01 2.681193053722381592e-01 5.344987392425537109e+00 1.683932065963745117e+00 -7.705408930778503418e-01
5.142000000000000000e+03 7.318343353271484375e+01 3.852690160274505615e-01 -5.164753198623657227e-01 7.624164104461669922e+00 2.132306575775146484e+00 -1.774058789014816284e-01
5.143000000000000000e+03 7.230051422119140625e+01 1.143806219100952148e+00 -6.136202216148376465e-01 7.409687995910644531e+00 2.038820266723632812e+00 -3.902500867843627930e-01
5.144000000000000000e+03 2.884295845031738281e+01 -1.159363842010498047e+01 1.253280043601989746e+00 -3.551529347896575928e-01 2.694381177425384521e-01 6.444507837295532227e-01
5.145000000000000000e+03 3.165618515014648438e+01 -1.242167854309082031e+01 1.395503044128417969e+00 5.567325949668884277e-01 5.856707096099853516e-01 5.430130958557128906e-01
5.146000000000000000e+03 3.010212135314941406e+01 -8.627132415771484375e+00 1.696412324905395508e+00 -4.104113951325416565e-02 4.966113269329071045e-01 1.699456423521041870e-01
5.147000000000000000e+03 3.490415954589843750e+01 -1.087118339538574219e+01 1.729095578193664551e+00 3.790262222290039062e+00 1.655807375907897949e+00 3.074471056461334229e-01
5.148000000000000000e+03 3.477874374389648438e+01 -9.894952774047851562e+00 1.919594645500183105e+00 3.568716049194335938e+00 1.646493196487426758e+00 3.943858146667480469e-01
5.149000000000000000e+03 3.533002471923828125e+01 -7.891694545745849609e+00 1.947254538536071777e+00 4.162680149078369141e+00 1.832980513572692871e+00 5.593660473823547363e-01
5.150000000000000000e+03 5.552228164672851562e+01 6.610310077667236328e+00 -2.051735669374465942e-02 1.249677181243896484e+00 3.687479496002197266e-01 -9.216455817222595215e-01
5.151000000000000000e+03 5.637867355346679688e+01 5.172770023345947266e+00 -6.705290079116821289e-01 1.155286073684692383e+00 1.454271376132965088e-01 -1.025166869163513184e+00
5.152000000000000000e+03 1.912997436523437500e+01 -9.754393577575683594e+00 4.430988729000091553e-01 -1.813920587301254272e-01 7.851204276084899902e-02 3.464351892471313477e-01
5.153000000000000000e+03 4.926324462890625000e+01 1.950803756713867188e+01 1.293270587921142578e+00 4.767316341400146484e+00 1.818176031112670898e+00 1.046817660331726074e+00
5.154000000000000000e+03 4.915814590454101562e+01 2.093285560607910156e+01 1.134735941886901855e+00 4.894856929779052734e+00 1.808877825736999512e+00 9.212640523910522461e-01
5.155000000000000000e+03 6.686003112792968750e+01 1.300620555877685547e+00 -1.090570569038391113e+00 5.924669742584228516e+00 1.450229763984680176e+00 -1.469229459762573242e+00
5.156000000000000000e+03 6.518314361572265625e+01 2.745172500610351562e+00 -1.046658873558044434e+00 4.869704723358154297e+00 1.146913766860961914e+00 -1.795238733291625977e+00
5.157000000000000000e+03 1.904158592224121094e+01 -1.066438674926757812e+01 4.775872528553009033e-01 -1.819737702608108521e-01 8.868404477834701538e-02 3.705784082412719727e-01
5.158000000000000000e+03 5.009752273559570312e+01 1.793569183349609375e+01 1.554053425788879395e+00 4.308115959167480469e+00 1.758650898933410645e+00 1.068093657493591309e+00
5.159000000000000000e+03 3.413746261596679688e+01 -1.078022098541259766e+01 1.812100648880004883e+00 2.903964757919311523e+00 1.414819717407226562e+00 3.646885752677917480e-01
5.160000000000000000e+03 2.276831626892089844e+01 -1.241624069213867188e+01 5.120050311088562012e-01 -3.271346092224121094e-01 5.546112358570098877e-02 4.746023118495941162e-01
5.161000000000000000e+03 2.238582038879394531e+01 -1.196257495880126953e+01 5.217553377151489258e-01 -3.196992278099060059e-01 6.061683595180511475e-02 4.473508000373840332e-01
5.162000000000000000e+03 3.470094299316406250e+01 -8.969253540039062500e+00 1.993361115455627441e+00 3.427855730056762695e+00 1.626365065574645996e+00 4.500033557415008545e-01
5.163000000000000000e+03 6.552539062500000000e+01 2.102784156799316406e+00 -1.094604849815368652e+00 5.137191772460937500e+00 1.212776064872741699e+00 -1.734705567359924316e+00
5.164000000000000000e+03 6.391308975219726562e+01 3.739717245101928711e+00 -8.881468772888183594e-01 4.092567920684814453e+00 9.613263607025146484e-01 -1.894305467605590820e+00
5.165000000000000000e+03 9.685356140136718750e+00 1.974896812438964844e+01 -8.638066356070339680e-05 -6.153562571853399277e-05 -4.437488678377121687e-05 8.056755177676677704e-06
5.166000000000000000e+03 9.326621055603027344e+00 2.072649192810058594e+01 -4.291511868359521031e-05 -1.010240739560686052e-04 -4.318175706430338323e-05 3.321541589684784412e-05
5.167000000000000000e+03 7.110669708251953125e+01 1.528148555755615234e+01 1.896175593137741089e-01 5.508481502532958984e+00 1.709429740905761719e+00 -9.413537979125976562e-01
5.168000000000000000e+03 1.388987636566162109e+01 -9.153170585632324219e+00 2.212894111871719360e-01 2.112163901329040527e-01 1.297517418861389160e-01 3.232009112834930420e-01
5.169000000000000000e+03 3.376569747924804688e+01 -1.100854873657226562e+01 1.743660211563110352e+00 2.444292306900024414e+00 1.256385684013366699e+00 3.476760983467102051e-01
5.170000000000000000e+03 3.697226715087890625e+01 -6.470666408538818359e+00 1.644505381584167480e+00 6.351907253265380859e+00 2.398923873901367188e+00 8.190445303916931152e-01
5.171000000000000000e+03 5.071579742431640625e+01 7.123111724853515625e+00 5.648768544197082520e-01 1.063727021217346191e+00 4.885811507701873779e-01 1.435717642307281494e-01
5.172000000000000000e+03 5.084381484985351562e+01 8.282137870788574219e+00 1.140436649322509766e+00 1.429490685462951660e+00 7.709782123565673828e-01 3.120956718921661377e-01
5.173000000000000000e+03 1.835088729858398438e+01 -1.090895175933837891e+01 4.782854914665222168e-01 -1.416407823562622070e-01 1.009934097528457642e-01 3.770110905170440674e-01
5.174000000000000000e+03 1.882194709777832031e+01 -1.109189510345458984e+01 4.973102211952209473e-01 -1.757031977176666260e-01 9.648210555315017700e-02 3.798084855079650879e-01
5.175000000000000000e+03 1.529351234436035156e+01 -9.574294090270996094e+00 3.231914341449737549e-01 9.157317131757736206e-02 1.244293823838233948e-01 3.672504723072052002e-01
5.176000000000000000e+03 4.796194076538085938e+01 1.278875541687011719e+01 2.030133247375488281e+00 4.082454681396484375e+00 1.833776354789733887e+00 1.721917867660522461e+00
5.177000000000000000e+03 4.774600982666015625e+01 1.194272708892822266e+01 2.083976745605468750e+00 3.949154853820800781e+00 1.809939503669738770e+00 1.794894456863403320e+00
5.178000000000000000e+03 5.878965377807617188e+01 4.393795967102050781e+00 -7.738477587699890137e-01 1.667515158653259277e+00 2.681002318859100342e-01 -1.434856414794921875e+00
5.179000000000000000e+03 5.207489013671875000e+01 6.449584007263183594e+00 2.484204806387424469e-02 8.874493837356567383e-01 2.736874222755432129e-01 -2.819952964782714844e-01
5.180000000000000000e+03 1.778866195678710938e+01 -1.070207691192626953e+01 4.724555313587188721e-01 -1.108880713582038879e-01 1.084702387452125549e-01 3.824058771133422852e-01
5.181000000000000000e+03 9.860491752624511719e+00 2.180432891845703125e+01 -5.719963883166201413e-05 -1.029889754136092961e-04 -4.805658318218775094e-05 -2.034467433986719698e-05
5.182000000000000000e+03 3.115282821655273438e+01 -9.137022018432617188e+00 1.874691486358642578e+00 4.485586583614349365e-01 6.969750523567199707e-01 2.816413342952728271e-01
5.183000000000000000e+03 9.201173782348632812e+00 1.651285743713378906e+01 -7.109041325747966766e-05 -3.540551915648393333e-05 -3.194878081558272243e-05 2.559945096436422318e-05
5.184000000000000000e+03 8.717396736145019531e+00 2.108846855163574219e+01 6.835802923887968063e-05 1.091922094929032028e-04 5.326507016434334219e-05 -5.713840801035985351e-05
5.185000000000000000e+03 1.021774673461914062e+01 1.293308448791503906e+01 -1.210347181768156588e-05 4.064429958816617727e-05 8.562248694943264127e-06 -1.809479954317794181e-06
5.186000000000000000e+03 1.043349456787109375e+01 1.396846199035644531e+01 -6.408812680547271157e-08 5.222489198786206543e-05 1.564824196975678205e-05 -1.347642955806804821e-05
5.187000000000000000e+03 7.131571960449218750e+01 4.930160045623779297e+00 -5.331986546516418457e-01 6.642110824584960938e+00 1.832673668861389160e+00 -8.916163444519042969e-01
5.188000000000000000e+03 6.887319183349609375e+01 -8.728893995285034180e-01 -8.536472320556640625e-01 7.159462928771972656e+00 1.891744613647460938e+00 -8.624525666236877441e-01
5.189000000000000000e+03 7.038937377929687500e+01 -2.383569002151489258e+00 -5.773887038230895996e-01 7.800960540771484375e+00 2.167071580886840820e+00 -4.533578753471374512e-01
5.190000000000000000e+03 4.879022598266601562e+01 6.847810268402099609e+00 7.730790376663208008e-01 1.331974148750305176e+00 6.315159797668457031e-01 8.574671149253845215e-01
5.191000000000000000e+03 3.325014495849609375e+01 -7.598512172698974609e+00 1.943908214569091797e+00 1.786504983901977539e+00 1.119123935699462891e+00 3.142724037170410156e-01
5.192000000000000000e+03 3.246970367431640625e+01 -9.236913681030273438e+00 1.979825973510742188e+00 1.294597387313842773e+00 9.823269844055175781e-01 3.252525925636291504e-01
5.193000000000000000e+03 4.899461364746093750e+01 1.611713981628417969e+01 1.719696044921875000e+00 4.351630687713623047e+00 1.821398019790649414e+00 1.350093722343444824e+00
5.194000000000000000e+03 4.979287338256835938e+01 1.713186836242675781e+01 1.631938099861145020e+00 4.277139663696289062e+00 1.772723436355590820e+00 1.150481104850769043e+00
5.195000000000000000e+03 9.880631446838378906e+00 1.350604820251464844e+01 6.894267698953626677e-07 -4.681163045461289585e-05 -1.383666131005156785e-05 9.403906005900353193e-06
5.196000000000000000e+03 4.723039245605468750e+01 8.832068443298339844e+00 1.818410873413085938e+00 3.106241941452026367e+00 1.477395892143249512e+00 1.829172134399414062e+00
5.197000000000000000e+03 6.755547332763671875e+01 -6.356598809361457825e-03 -1.034660220146179199e+00 6.525793075561523438e+00 1.647339940071105957e+00 -1.229907751083374023e+00
5.198000000000000000e+03 6.903372955322265625e+01 2.025043070316314697e-01 -9.215095043182373047e-01 6.969623565673828125e+00 1.814434289932250977e+00 -9.157360792160034180e-01
5.199000000000000000e+03 7.140880584716796875e+01 8.721587181091308594e+00 -2.217457741498947144e-01 6.163827419281005859e+00 1.782624483108520508e+00 -1.045131802558898926e+00
5.200000000000000000e+03 7.159760284423828125e+01 7.669760227203369141e+00 -2.995078265666961670e-01 6.311536312103271484e+00 1.803608536720275879e+00 -1.001150608062744141e+00
5.201000000000000000e+03 9.704673767089843750e+00 1.708842468261718750e+01 8.658921433379873633e-05 4.143135083722881973e-05 3.840617137029767036e-05 -2.727167156990617514e-05
5.202000000000000000e+03 6.180264282226562500e+01 4.264348983764648438e+00 -7.519919276237487793e-01 2.938480377197265625e+00 6.559465527534484863e-01 -1.849902749061584473e+00
5.203000000000000000e+03 6.326163101196289062e+01 3.353941917419433594e+00 -9.479534029960632324e-01 3.732292413711547852e+00 8.353016972541809082e-01 -1.914479374885559082e+00
5.204000000000000000e+03 4.986690139770507812e+01 1.641247367858886719e+01 1.722576379776000977e+00 4.084794998168945312e+00 1.742211341857910156e+00 1.149093031883239746e+00
5.205000000000000000e+03 3.099838256835937500e+01 -8.625610351562500000e+00 1.853551387786865234e+00 3.489995598793029785e-01 6.607652902603149414e-01 2.170241922140121460e-01
5.206000000000000000e+03 9.967764854431152344e+00 1.073842430114746094e+01 1.717456689220853150e-05 3.349187682033516467e-05 1.519993384135887027e-05 -2.505912198103033006e-05
5.207000000000000000e+03 2.846128082275390625e+01 -8.508333206176757812e+00 1.424440145492553711e+00 -4.220936298370361328e-01 3.007039725780487061e-01 1.116475164890289307e-01
5.208000000000000000e+03 5.766025924682617188e+01 5.532749652862548828e+00 -4.445490241050720215e-01 1.497191190719604492e+00 3.157926499843597412e-01 -1.270216226577758789e+00
5.209000000000000000e+03 4.714096450805664062e+01 7.357225894927978516e+00 1.332404494285583496e+00 2.498827219009399414e+00 1.149369478225708008e+00 1.743044853210449219e+00
5.210000000000000000e+03 1.004850482940673828e+01 1.451171779632568359e+01 -1.597469417902175337e-05 -5.450636672321707010e-05 -2.114431845257058740e-05 2.472494816174730659e-05
5.211000000000000000e+03 4.718593215942382812e+01 8.093443870544433594e+00 1.615113973617553711e+00 2.822850227355957031e+00 1.331389188766479492e+00 1.776775002479553223e+00
5.212000000000000000e+03 4.922197723388671875e+01 7.510433197021484375e+00 1.084968686103820801e+00 1.493870019912719727e+00 7.736515998840332031e-01 7.835324406623840332e-01
5.213000000000000000e+03 8.699879646301269531e+00 1.596393585205078125e+01 5.137589323567226529e-05 5.258246528683230281e-05 3.118750828434713185e-05 -3.024426223419141024e-05
5.214000000000000000e+03 7.759493827819824219e+00 1.594094848632812500e+01 2.850010241672862321e-05 5.485366637003608048e-05 2.500613118172623217e-05 -9.723606126499362290e-06
5.215000000000000000e+03 1.496512031555175781e+01 -8.983987808227539062e+00 2.547715306282043457e-01 1.123541519045829773e-01 1.101377010345458984e-01 3.337924182415008545e-01
5.216000000000000000e+03 7.079501342773437500e+01 1.601585197448730469e+01 2.312146276235580444e-01 5.403768539428710938e+00 1.690494894981384277e+00 -9.246253371238708496e-01
5.217000000000000000e+03 7.142705535888671875e+01 1.401626682281494141e+01 1.216453760862350464e-01 5.645458698272705078e+00 1.730131268501281738e+00 -9.749789834022521973e-01
5.218000000000000000e+03 5.692422103881835938e+01 5.970516681671142578e+00 -2.727314829826354980e-01 1.407582998275756836e+00 3.404554426670074463e-01 -1.161940097808837891e+00
5.219000000000000000e+03 3.395762634277343750e+01 -7.604641437530517578e+00 1.963629961013793945e+00 2.516311883926391602e+00 1.343982458114624023e+00 4.023550450801849365e-01
5.220000000000000000e+03 9.176450729370117188e+00 1.549235725402832031e+01 -4.798036025022156537e-05 -4.542032547760754824e-05 -2.802020571834873408e-05 3.661412847577594221e-05
5.221000000000000000e+03 7.962255477905273438e+00 2.077853012084960938e+01 7.924556848593056202e-05 5.106800017529167235e-05 3.909406950697302818e-05 -4.973479008185677230e-05
5.222000000000000000e+03 5.449508285522460938e+01 6.182582378387451172e+00 -2.126502692699432373e-01 1.050478219985961914e+00 2.513483762741088867e-01 -7.537702918052673340e-01
5.223000000000000000e+03 1.000222206115722656e+01 9.918353080749511719e+00 -2.257434425700921565e-05 -4.897768576483940706e-06 -8.241633622674271464e-06 1.990671262319665402e-05
5.224000000000000000e+03 2.258589553833007812e+01 -1.029081058502197266e+01 6.158658862113952637e-01 -3.758893311023712158e-01 7.199297845363616943e-02 3.681257069110870361e-01
5.225000000000000000e+03 2.431935119628906250e+01 -9.988986968994140625e+00 8.023892641067504883e-01 -4.796851277351379395e-01 9.681124240159988403e-02 3.518189787864685059e-01
5.226000000000000000e+03 8.019989013671875000e+00 2.998066902160644531e+01 1.045112148858606815e-04 -2.092695940518751740e-04 -3.142751302220858634e-05 -2.138256531907245517e-04
5.227000000000000000e+03 9.047264099121093750e+00 2.580120658874511719e+01 3.197879050276242197e-05 -2.470794424880295992e-04 -6.453019159380346537e-05 -2.876883627322968096e-05
5.228000000000000000e+03 2.604798507690429688e+01 -1.193935775756835938e+01 8.063850402832031250e-01 -4.695638120174407959e-01 1.010463684797286987e-01 6.315665841102600098e-01
5.229000000000000000e+03 7.092511749267578125e+01 -3.573594093322753906e+00 -4.041039645671844482e-01 8.125236511230468750e+00 2.316339731216430664e+00 -3.211483061313629150e-01
5.230000000000000000e+03 1.053009414672851562e+01 1.231811046600341797e+01 1.134483591158641502e-05 -2.759772178251296282e-05 -4.875865670328494161e-06 -3.894697329087648541e-06
5.231000000000000000e+03 8.407291412353515625e+00 1.127598190307617188e+01 4.009191616205498576e-05 -1.181701554742176086e-05 8.482470548187848181e-06 -2.839858643710613251e-05
5.232000000000000000e+03 2.698309516906738281e+01 -8.296514511108398438e+00 1.130539417266845703e+00 -5.133263468742370605e-01 1.851639002561569214e-01 7.912307232618331909e-02
5.233000000000000000e+03 1.193561649322509766e+01 -8.950411796569824219e+00 1.062170490622520447e-01 3.526445329189300537e-01 1.376584768295288086e-01 2.260822206735610962e-01
5.234000000000000000e+03 3.639623260498046875e+01 -5.625739097595214844e+00 1.423669695854187012e+00 5.384459972381591797e+00 2.042438983917236328e+00 7.766866087913513184e-01
5.235000000000000000e+03 3.395373916625976562e+01 -8.329336166381835938e+00 2.004304409027099609e+00 2.595441102981567383e+00 1.379923701286315918e+00 4.113747179508209229e-01
5.236000000000000000e+03 6.779204559326171875e+01 1.071510553359985352e+00 -1.038809895515441895e+00 6.370967864990234375e+00 1.599647402763366699e+00 -1.261954188346862793e+00
5.237000000000000000e+03 7.157113647460937500e+01 2.000936746597290039e+00 -6.694034934043884277e-01 7.151045799255371094e+00 1.944492697715759277e+00 -5.933325290679931641e-01
5.238000000000000000e+03 5.401850509643554688e+01 6.551438331604003906e+00 -2.462604641914367676e-02 1.038881063461303711e+00 3.042764961719512939e-01 -6.270718574523925781e-01
5.239000000000000000e+03 5.348159027099609375e+01 5.985727310180664062e+00 -3.189292550086975098e-01 9.083355665206909180e-01 1.768218874931335449e-01 -5.819423198699951172e-01
5.240000000000000000e+03 9.093648910522460938e+00 2.302253532409667969e+01 3.554754584911279380e-05 -2.028103044722229242e-04 -5.017882722313515842e-05 -1.881164280348457396e-05
5.241000000000000000e+03 7.052973175048828125e+01 2.763646888732910156e+01 2.443261891603469849e-01 5.119514942169189453e+00 1.609152317047119141e+00 -2.916281819343566895e-01
5.242000000000000000e+03 6.916513824462890625e+01 2.425120162963867188e+01 3.765333294868469238e-01 5.005341053009033203e+00 1.614562392234802246e+00 -4.669392406940460205e-01
5.243000000000000000e+03 1.863736152648925781e+01 -1.032642555236816406e+01 4.671679139137268066e-01 -1.612714827060699463e-01 9.176892787218093872e-02 3.679232597351074219e-01
5.244000000000000000e+03 9.055575370788574219e+00 2.798951148986816406e+01 -1.224720108439214528e-05 -2.203343610744923353e-04 -6.977446901146322489e-05 -1.226680615218356252e-04
5.245000000000000000e+03 4.971180725097656250e+01 2.189686393737792969e+01 1.088153362274169922e+00 4.790267467498779297e+00 1.763526201248168945e+00 7.951301932334899902e-01
5.246000000000000000e+03 7.071141052246093750e+01 2.192120552062988281e+01 3.139874637126922607e-01 5.184801101684570312e+00 1.649636507034301758e+00 -5.935465097427368164e-01
5.247000000000000000e+03 4.959427642822265625e+01 2.344519424438476562e+01 9.544914960861206055e-01 4.865066051483154297e+00 1.745867371559143066e+00 6.809661388397216797e-01
5.248000000000000000e+03 5.165916824340820312e+01 2.535850906372070312e+01 9.089420437812805176e-01 4.598281383514404297e+00 1.652167081832885742e+00 5.381445884704589844e-01
5.249000000000000000e+03 5.225299072265625000e+01 3.042832183837890625e+01 4.728800058364868164e-01 4.669740200042724609e+00 1.542786002159118652e+00 4.368977248668670654e-01
5.250000000000000000e+03 5.049094772338867188e+01 2.559231758117675781e+01 8.511470556259155273e-01 4.740078449249267578e+00 1.677367568016052246e+00 5.527702569961547852e-01
5.251000000000000000e+03 6.858658599853515625e+01 2.553576660156250000e+01 3.857497274875640869e-01 4.954815864562988281e+00 1.602169632911682129e+00 -3.911515474319458008e-01
5.252000000000000000e+03 6.887332153320312500e+01 2.903967475891113281e+01 2.784096598625183105e-01 5.015341281890869141e+00 1.588125348091125488e+00 -2.241280674934387207e-01
5.253000000000000000e+03 2.369998931884765625e+01 -1.095406818389892578e+01 6.769355535507202148e-01 -4.240784049034118652e-01 7.585715502500534058e-02 4.365868866443634033e-01
5.254000000000000000e+03 2.443828010559082031e+01 -1.046020030975341797e+01 7.728143334388732910e-01 -4.654730856418609619e-01 9.220236539840698242e-02 4.122250080108642578e-01
5.255000000000000000e+03 9.641154289245605469e+00 -9.944391250610351562e+00 4.734438285231590271e-02 5.504837036132812500e-01 1.793484240770339966e-01 1.034772768616676331e-01
5.256000000000000000e+03 2.112938308715820312e+01 -1.209629631042480469e+01 5.161071419715881348e-01 -2.768477201461791992e-01 7.177782058715820312e-02 4.020126461982727051e-01
5.257000000000000000e+03 4.711093521118164062e+01 6.623960494995117188e+00 9.130720496177673340e-01 2.137242555618286133e+00 9.150943756103515625e-01 1.639011740684509277e+00
5.258000000000000000e+03 3.099681282043457031e+01 -1.223425674438476562e+01 1.392520070075988770e+00 2.384427636861801147e-01 4.892888665199279785e-01 6.126625537872314453e-01
5.259000000000000000e+03 3.099657630920410156e+01 -9.601045608520507812e+00 1.886698246002197266e+00 3.941470980644226074e-01 6.842536330223083496e-01 3.362973034381866455e-01
5.260000000000000000e+03 2.656738090515136719e+01 -1.099239444732666016e+01 1.022119045257568359e+00 -5.105693936347961426e-01 1.534648984670639038e-01 5.260004401206970215e-01
5.261000000000000000e+03 1.924796485900878906e+01 -1.109673118591308594e+01 5.033167004585266113e-01 -2.015951126813888550e-01 9.051647037267684937e-02 3.725511133670806885e-01
5.262000000000000000e+03 1.984196662902832031e+01 -1.152624988555908203e+01 5.136920809745788574e-01 -2.275405526161193848e-01 8.584544807672500610e-02 3.783193528652191162e-01
5.263000000000000000e+03 2.092876815795898438e+01 -1.033322238922119141e+01 5.294719934463500977e-01 -2.879870533943176270e-01 7.244548946619033813e-02 3.577688634395599365e-01
5.264000000000000000e+03 6.942884063720703125e+01 -4.067487418651580811e-01 -8.592129349708557129e-01 7.200880527496337891e+00 1.902500271797180176e+00 -7.867109179496765137e-01
5.265000000000000000e+03 2.049229431152343750e+01 -9.680486679077148438e+00 4.935947954654693604e-01 -2.596896588802337646e-01 7.017154246568679810e-02 3.269713819026947021e-01
5.266000000000000000e+03 7.681274890899658203e+00 1.387600135803222656e+01 3.229668072890490294e-05 4.305627226131036878e-05 2.260588553326670080e-05 -5.173384124645963311e-05
5.267000000000000000e+03 3.449677276611328125e+01 -1.132765769958496094e+01 1.657519221305847168e+00 3.229830503463745117e+00 1.466204881668090820e+00 3.085704743862152100e-01
5.268000000000000000e+03 3.161063575744628906e+01 -8.424897193908691406e+00 1.932636141777038574e+00 6.902336478233337402e-01 7.868609428405761719e-01 2.129037529230117798e-01
5.269000000000000000e+03 6.486284637451171875e+01 3.403891324996948242e+00 -9.535430669784545898e-01 4.648506164550781250e+00 1.108488917350769043e+00 -1.823643088340759277e+00
5.270000000000000000e+03 3.112082290649414062e+01 -1.167712020874023438e+01 1.571349620819091797e+00 3.622207641601562500e-01 5.800711512565612793e-01 5.448533296585083008e-01
5.271000000000000000e+03 2.732812690734863281e+01 -1.155419826507568359e+01 1.037573099136352539e+00 -4.806026816368103027e-01 1.670911163091659546e-01 6.398020982742309570e-01
5.272000000000000000e+03 2.949132728576660156e+01 -1.035605430603027344e+01 1.570489525794982910e+00 -2.272930145263671875e-01 4.029589593410491943e-01 4.501725137233734131e-01
5.273000000000000000e+03 4.884692382812500000e+01 1.340274143218994141e+01 1.989939570426940918e+00 3.780174493789672852e+00 1.731034278869628906e+00 1.452793598175048828e+00
5.274000000000000000e+03 8.885650634765625000e+00 -9.853653907775878906e+00 5.319774150848388672e-03 5.390985608100891113e-01 1.633255034685134888e-01 1.651192642748355865e-02
5.275000000000000000e+03 3.625821685791015625e+01 -6.376270771026611328e+00 1.636767387390136719e+00 5.277646541595458984e+00 2.074324131011962891e+00 7.521120905876159668e-01
5.276000000000000000e+03 2.308678627014160156e+01 -1.071084880828857422e+01 6.362829208374023438e-01 -3.904350399971008301e-01 7.375435531139373779e-02 3.950416743755340576e-01
5.277000000000000000e+03 7.116835021972656250e+01 1.029637050628662109e+01 -9.304181486368179321e-02 5.924344062805175781e+00 1.749390721321105957e+00 -1.082197904586791992e+00
5.278000000000000000e+03 7.194873809814453125e+01 8.404832839965820312e+00 -2.177532017230987549e-01 6.301228523254394531e+00 1.825042605400085449e+00 -9.677121639251708984e-01
5.279000000000000000e+03 9.606136322021484375e+00 -1.067360210418701172e+01 1.170671060681343079e-01 6.233015656471252441e-01 2.221105992794036865e-01 1.422755271196365356e-01
5.280000000000000000e+03 1.106510162353515625e+01 -1.086078262329101562e+01 2.440954297780990601e-01 5.464265346527099609e-01 2.371565997600555420e-01 2.868144214153289795e-01
5.281000000000000000e+03 7.046685791015625000e+01 1.389932537078857422e+01 1.509800404310226440e-01 5.464177131652832031e+00 1.684547066688537598e+00 -1.053530693054199219e+00
5.282000000000000000e+03 7.047650909423828125e+01 1.498573875427246094e+01 2.069619596004486084e-01 5.399366855621337891e+00 1.681898593902587891e+00 -9.994626641273498535e-01
5.283000000000000000e+03 7.123508453369140625e+01 1.699890708923339844e+01 2.345632910728454590e-01 5.433879375457763672e+00 1.700532793998718262e+00 -8.514891862869262695e-01
5.284000000000000000e+03 7.193712615966796875e+01 2.369691133499145508e+00 -6.291240453720092773e-01 7.170771598815917969e+00 1.962494254112243652e+00 -5.741446614265441895e-01
5.285000000000000000e+03 7.112312316894531250e+01 2.446178197860717773e+00 -7.095173597335815430e-01 6.976715087890625000e+00 1.880159378051757812e+00 -7.264592051506042480e-01
5.286000000000000000e+03 7.253009796142578125e+01 -1.306860208511352539e+00 -5.325995087623596191e-01 7.807824134826660156e+00 2.182567358016967773e+00 -1.084943190217018127e-01
5.287000000000000000e+03 7.149491882324218750e+01 2.934921741485595703e+00 -6.410673856735229492e-01 6.982223510742187500e+00 1.902346849441528320e+00 -7.055053710937500000e-01
5.288000000000000000e+03 7.102265167236328125e+01 3.656985759735107422e+00 -6.468108892440795898e-01 6.775761127471923828e+00 1.838685035705566406e+00 -8.424798846244812012e-01
5.289000000000000000e+03 8.937818527221679688e+00 1.858101272583007812e+01 -1.002800781861878932e-04 -2.200298513344023377e-05 -3.668491990538313985e-05 7.961580195114947855e-06
5.290000000000000000e+03 8.066815376281738281e+00 1.744002342224121094e+01 -8.151907968567684293e-05 -2.097695687552914023e-05 -3.074881169595755637e-05 2.065736225631553680e-06
5.291000000000000000e+03 2.592654800415039062e+01 -8.599376678466796875e+00 9.756965041160583496e-01 -5.186349749565124512e-01 1.371184587478637695e-01 1.417981833219528198e-01
5.292000000000000000e+03 7.209039306640625000e+01 3.269414424896240234e+00 -5.748068690299987793e-01 7.043983936309814453e+00 1.940753102302551270e+00 -6.405552029609680176e-01
5.293000000000000000e+03 7.059061431884765625e+01 4.485271930694580078e+00 -6.227267384529113770e-01 6.541847705841064453e+00 1.775736331939697266e+00 -9.861565232276916504e-01
5.294000000000000000e+03 7.100908660888671875e+01 1.937324523925781250e+01 2.879898250102996826e-01 5.299425601959228516e+00 1.676224708557128906e+00 -7.382438778877258301e-01
5.295000000000000000e+03 7.019707489013671875e+01 1.906498527526855469e+01 3.269813656806945801e-01 5.199669361114501953e+00 1.657995223999023438e+00 -7.749359011650085449e-01
5.296000000000000000e+03 9.001532554626464844e+00 1.035150718688964844e+01 1.228279961651423946e-05 3.156914317514747381e-05 1.315558347414480522e-05 -2.300871346960775554e-05
5.297000000000000000e+03 8.922233581542968750e+00 1.141453266143798828e+01 -2.278882129758130759e-05 3.096490036114118993e-05 2.452823309795348905e-06 2.098701042996253818e-05
5.298000000000000000e+03 7.870590209960937500e+00 1.131222438812255859e+01 -5.036056973040103912e-05 2.672711161721963435e-05 -7.090038252499653026e-06 2.826930540322791785e-05
5.299000000000000000e+03 7.271027374267578125e+01 -2.168090790510177612e-01 -5.604740381240844727e-01 7.667708396911621094e+00 2.132170200347900391e+00 -1.812282502651214600e-01
5.300000000000000000e+03 9.961234092712402344e+00 1.188730907440185547e+01 -2.016704638663213700e-05 3.044669756491202861e-05 3.083895308009232394e-06 1.654058337408059742e-06
5.301000000000000000e+03 2.989846229553222656e+01 -1.160764789581298828e+01 1.411988973617553711e+00 -1.674970537424087524e-01 3.733475804328918457e-01 6.259806752204895020e-01
5.302000000000000000e+03 2.173833656311035156e+01 -9.090250015258789062e+00 5.384844541549682617e-01 -3.203973770141601562e-01 6.542612612247467041e-02 2.754682898521423340e-01
5.303000000000000000e+03 2.962607574462890625e+01 -1.195844173431396484e+01 1.279486536979675293e+00 -2.315559238195419312e-01 3.143791854381561279e-01 6.773628592491149902e-01
5.304000000000000000e+03 3.445095062255859375e+01 -1.036192035675048828e+01 1.888170242309570312e+00 3.228333950042724609e+00 1.534951210021972656e+00 3.783298432826995850e-01
5.305000000000000000e+03 6.932424926757812500e+01 1.870136451721191406e+01 3.800921440124511719e-01 5.068270683288574219e+00 1.634508848190307617e+00 -8.107779622077941895e-01
5.306000000000000000e+03 5.147583007812500000e+01 5.920388698577880859e+00 -2.760111093521118164e-01 7.506884932518005371e-01 1.424032151699066162e-01 -2.022232413291931152e-01
5.307000000000000000e+03 6.134792327880859375e+01 3.668373107910156250e+00 -8.807062506675720215e-01 2.666409492492675781e+00 5.357109308242797852e-01 -1.809505701065063477e+00
5.308000000000000000e+03 4.940942382812500000e+01 1.233402729034423828e+01 2.024520635604858398e+00 3.203776359558105469e+00 1.568489074707031250e+00 1.257779002189636230e+00
5.309000000000000000e+03 4.855998992919921875e+01 1.000099754333496094e+01 1.924255251884460449e+00 2.800614118576049805e+00 1.417460799217224121e+00 1.403442740440368652e+00
5.310000000000000000e+03 1.605450057983398438e+01 -1.118578338623046875e+01 4.891133904457092285e-01 2.261130884289741516e-02 1.535174101591110229e-01 4.059555232524871826e-01
5.311000000000000000e+03 8.521380424499511719e+00 2.649201011657714844e+01 1.786754000931978226e-04 1.478784251958131790e-04 9.796614904189482331e-05 2.706977829802781343e-05
5.312000000000000000e+03 8.659555435180664062e+00 1.496578216552734375e+01 3.317032314953394234e-05 5.719156979466788471e-05 2.710856824705842882e-05 -3.969165481976233423e-05
5.313000000000000000e+03 9.337409019470214844e+00 1.916182708740234375e+01 1.083126189769245684e-04 5.226397843216545880e-05 4.817298031412065029e-05 -7.163167992985108867e-06
5.314000000000000000e+03 5.922790527343750000e+01 3.913896560668945312e+00 -8.988131880760192871e-01 1.720260858535766602e+00 2.464342862367630005e-01 -1.492215991020202637e+00
5.315000000000000000e+03 2.976952743530273438e+01 -9.166427612304687500e+00 1.689100980758666992e+00 -1.294994056224822998e-01 4.678804874420166016e-01 2.416626065969467163e-01
5.316000000000000000e+03 1.389878368377685547e+01 -9.798157691955566406e+00 2.905912399291992188e-01 2.239650338888168335e-01 1.543668806552886963e-01 3.577619194984436035e-01
5.317000000000000000e+03 1.457307338714599609e+01 -9.756706237792968750e+00 3.100585639476776123e-01 1.643876284360885620e-01 1.423338502645492554e-01 3.637519776821136475e-01
5.318000000000000000e+03 5.265802001953125000e+01 6.982227325439453125e+00 2.490908205509185791e-01 1.041675806045532227e+00 3.872299790382385254e-01 -3.662398457527160645e-01
5.319000000000000000e+03 8.208523750305175781e+00 1.643458557128906250e+01 -5.615113695967011154e-05 -3.790150367422029376e-05 -2.821579255396500230e-05 1.315180816163774580e-05
5.320000000000000000e+03 3.615384674072265625e+01 -7.186790943145751953e+00 1.813840746879577637e+00 5.185893535614013672e+00 2.099920272827148438e+00 7.109472155570983887e-01
5.321000000000000000e+03 3.686980056762695312e+01 -7.274417400360107422e+00 1.785064578056335449e+00 6.292263031005859375e+00 2.423198223114013672e+00 7.743132114410400391e-01
5.322000000000000000e+03 6.676618194580078125e+01 2.997459888458251953e+00 -9.690961241722106934e-01 5.590571880340576172e+00 1.386442780494689941e+00 -1.560440778732299805e+00
5.323000000000000000e+03 2.482097053527832031e+01 -9.767170906066894531e+00 8.473538160324096680e-01 -4.880350232124328613e-01 1.077956408262252808e-01 3.208626210689544678e-01
5.324000000000000000e+03 2.404537582397460938e+01 -9.538708686828613281e+00 7.568769454956054688e-01 -4.543671607971191406e-01 9.075293689966201782e-02 2.950522899627685547e-01
5.325000000000000000e+03 7.232531738281250000e+01 7.361457347869873047e+00 -2.975097894668579102e-01 6.511384963989257812e+00 1.864162564277648926e+00 -8.946966528892517090e-01
5.326000000000000000e+03 7.069468688964843750e+01 9.315780639648437500e+00 -1.773644089698791504e-01 5.902633666992187500e+00 1.717580795288085938e+00 -1.143103480339050293e+00
5.327000000000000000e+03 7.107408905029296875e+01 8.160669326782226562e+00 -2.727699279785156250e-01 6.147490501403808594e+00 1.762416124343872070e+00 -1.074004054069519043e+00
5.328000000000000000e+03 8.102225303649902344e+00 2.135375213623046875e+01 -1.159604016720550135e-05 -4.957367491442710161e-05 -1.835091461543925107e-05 5.600404620054177940e-05
5.329000000000000000e+03 1.067860794067382812e+01 1.002596187591552734e+01 1.072901068255305290e-05 8.713086572242900729e-06 5.832629085489315912e-06 -1.724292269500438124e-05
5.330000000000000000e+03 4.845074844360351562e+01 1.170247840881347656e+01 2.064647674560546875e+00 3.490241050720214844e+00 1.666466593742370605e+00 1.556630849838256836e+00
5.331000000000000000e+03 4.884873199462890625e+01 1.062480354309082031e+01 1.974427223205566406e+00 2.888771057128906250e+00 1.458959460258483887e+00 1.348717093467712402e+00
5.332000000000000000e+03 1.703230094909667969e+01 -1.121664714813232422e+01 4.972929656505584717e-01 -5.903999134898185730e-02 1.314758956432342529e-01 3.962202668190002441e-01
5.333000000000000000e+03 1.763153457641601562e+01 -1.133061695098876953e+01 4.955623745918273926e-01 -1.012523844838142395e-01 1.182929947972297668e-01 3.833620846271514893e-01
5.334000000000000000e+03 8.476267814636230469e+00 2.049892807006835938e+01 -7.186275615822523832e-05 -6.039971049176529050e-05 -3.967873999499715865e-05 4.064053791807964444e-05
5.335000000000000000e+03 5.050461578369140625e+01 1.687220191955566406e+01 1.683433294296264648e+00 3.985100507736206055e+00 1.700560212135314941e+00 1.007102370262145996e+00
5.336000000000000000e+03 5.893501281738281250e+01 5.566021919250488281e+00 -4.224765002727508545e-01 1.910801053047180176e+00 4.464973509311676025e-01 -1.488691687583923340e+00
5.337000000000000000e+03 3.229522323608398438e+01 -1.182298755645751953e+01 1.605035185813903809e+00 1.093431472778320312e+00 8.095400333404541016e-01 4.421833753585815430e-01
5.338000000000000000e+03 3.019625854492187500e+01 -1.050920009613037109e+01 1.649982213973999023e+00 1.213096268475055695e-02 4.986339509487152100e-01 4.536104500293731689e-01
5.339000000000000000e+03 4.791286468505859375e+01 9.469153404235839844e+00 1.878379344940185547e+00 2.893292427062988281e+00 1.431501507759094238e+00 1.608580946922302246e+00
5.340000000000000000e+03 4.849095916748046875e+01 9.413086891174316406e+00 1.828358054161071777e+00 2.598510026931762695e+00 1.328060388565063477e+00 1.360744237899780273e+00
5.341000000000000000e+03 3.225549316406250000e+01 -8.118594169616699219e+00 1.916684627532958984e+00 1.068795084953308105e+00 8.956438899040222168e-01 2.571249306201934814e-01
5.342000000000000000e+03 7.008708190917968750e+01 1.574690437316894531e+01 2.604458630084991455e-01 5.285989761352539062e+00 1.663930773735046387e+00 -9.786297082901000977e-01
5.343000000000000000e+03 2.815353393554687500e+01 -9.646123886108398438e+00 1.385283589363098145e+00 -4.494605958461761475e-01 2.807469069957733154e-01 3.083392381668090820e-01
5.344000000000000000e+03 2.817023086547851562e+01 -1.082931232452392578e+01 1.273058414459228516e+00 -4.367650151252746582e-01 2.508880198001861572e-01 5.282726287841796875e-01
5.345000000000000000e+03 6.721309661865234375e+01 6.557591557502746582e-01 -1.081035852432250977e+00 6.216561317443847656e+00 1.540657520294189453e+00 -1.361328363418579102e+00
5.346000000000000000e+03 6.992569732666015625e+01 1.124441549181938171e-01 -8.380402922630310059e-01 7.217643260955810547e+00 1.913880825042724609e+00 -7.196034193038940430e-01
5.347000000000000000e+03 5.708229064941406250e+01 7.783447742462158203e+00 3.094893693923950195e-01 1.780821681022644043e+00 6.270933151245117188e-01 -1.149301409721374512e+00
5.348000000000000000e+03 1.947638702392578125e+01 -1.032909870147705078e+01 4.920970201492309570e-01 -2.148713320493698120e-01 8.316770195960998535e-02 3.620524108409881592e-01
5.349000000000000000e+03 5.495414733886718750e+01 7.438740253448486328e+00 3.364071846008300781e-01 1.296065568923950195e+00 4.897418320178985596e-01 -7.683236598968505859e-01
5.350000000000000000e+03 8.979210853576660156e+00 2.174585342407226562e+01 1.899513335956726223e-05 -1.741250889608636498e-04 -4.653898577089421451e-05 5.767531911260448396e-05
5.351000000000000000e+03 8.778285026550292969e+00 9.750406265258789062e+00 -1.985351445910055190e-05 -9.789059731701854616e-06 -8.892771802493371069e-06 2.643679908942431211e-05
5.352000000000000000e+03 4.927773666381835938e+01 1.531566238403320312e+01 1.840637326240539551e+00 4.106745243072509766e+00 1.784214735031127930e+00 1.342066526412963867e+00
5.353000000000000000e+03 5.020390319824218750e+01 1.572303485870361328e+01 1.800861001014709473e+00 3.849048852920532227e+00 1.694972991943359375e+00 1.109709024429321289e+00
5.354000000000000000e+03 3.207772827148437500e+01 -1.048243236541748047e+01 1.860898971557617188e+00 1.021005153656005859e+00 8.645712733268737793e-01 3.848420381546020508e-01
5.355000000000000000e+03 3.281737899780273438e+01 -8.704091072082519531e+00 2.015237569808959961e+00 1.507599949836730957e+00 1.056851267814636230e+00 3.246059417724609375e-01
5.356000000000000000e+03 9.383583068847656250e+00 2.742150878906250000e+01 3.390564816072583199e-04 1.831464578572195023e-05 1.072113445843569934e-04 2.825016781571321189e-05
5.357000000000000000e+03 3.220901870727539062e+01 -1.113589191436767578e+01 1.773825764656066895e+00 1.083787560462951660e+00 8.572840094566345215e-01 4.026115238666534424e-01
5.358000000000000000e+03 3.329487991333007812e+01 -1.107658004760742188e+01 1.793927550315856934e+00 2.027323007583618164e+00 1.146375179290771484e+00 3.491019010543823242e-01
5.359000000000000000e+03 5.082672882080078125e+01 1.760491561889648438e+01 1.630594253540039062e+00 4.014983177185058594e+00 1.693673253059387207e+00 9.467359781265258789e-01
5.360000000000000000e+03 5.036698150634765625e+01 2.295989036560058594e+01 1.045024037361145020e+00 4.704269886016845703e+00 1.724788188934326172e+00 6.882979869842529297e-01
5.361000000000000000e+03 2.532468223571777344e+01 -9.543351173400878906e+00 9.247460961341857910e-01 -5.129693746566772461e-01 1.235330104827880859e-01 3.082768321037292480e-01
5.362000000000000000e+03 1.028527355194091797e+01 1.131478786468505859e+01 -1.847602220550470520e-06 -2.601266896817833185e-05 -8.358080776815768331e-06 1.238692493643611670e-05
5.363000000000000000e+03 8.209227561950683594e+00 1.350413608551025391e+01 -5.862458783667534590e-05 -2.217789005953818560e-05 -2.424074409645982087e-05 3.162218854413367808e-05
5.364000000000000000e+03 9.363995552062988281e+00 9.784423828125000000e+00 1.193504704133374617e-05 -1.318876002187607810e-06 3.184851266269106418e-06 -1.773863550624810159e-05
5.365000000000000000e+03 7.645498752593994141e+00 2.426272583007812500e+01 -1.099777364288456738e-05 -3.377107714186422527e-05 -1.343065559922251850e-05 -6.552891863975673914e-05
5.366000000000000000e+03 5.941617965698242188e+01 4.909705638885498047e+00 -5.801844596862792969e-01 1.971587657928466797e+00 4.174209535121917725e-01 -1.557258009910583496e+00
5.367000000000000000e+03 9.100996971130371094e+00 1.450432491302490234e+01 -3.051544808840844780e-05 -5.023107223678380251e-05 -2.422395664325449616e-05 3.830393688986077905e-05
5.368000000000000000e+03 8.597347259521484375e+00 1.317929553985595703e+01 -2.099771154462359846e-05 6.303970440058037639e-05 1.261259785678703338e-05 -1.008035906124860048e-05
5.369000000000000000e+03 8.176577568054199219e+00 1.543834877014160156e+01 -3.786376328207552433e-05 -4.381416147225536406e-05 -2.450337706250138581e-05 3.089587335125543177e-05
5.370000000000000000e+03 4.821031951904296875e+01 1.367781734466552734e+01 1.968517661094665527e+00 4.192432403564453125e+00 1.848285079002380371e+00 1.646223664283752441e+00
5.371000000000000000e+03 1.391672515869140625e+01 -1.047557926177978516e+01 3.513232469558715820e-01 2.385399937629699707e-01 1.769589632749557495e-01 3.836391568183898926e-01
5.372000000000000000e+03 9.412222862243652344e+00 1.162215042114257812e+01 3.863980236928910017e-05 -1.981011700991075486e-05 5.648905698762973770e-06 -2.345618850085884333e-05
5.373000000000000000e+03 2.715348434448242188e+01 -1.083264350891113281e+01 1.104924678802490234e+00 -5.006103515625000000e-01 1.812942922115325928e-01 5.053863525390625000e-01
5.374000000000000000e+03 2.787240028381347656e+01 -1.128974342346191406e+01 1.163543343544006348e+00 -4.540741145610809326e-01 2.128407657146453857e-01 5.978205204010009766e-01
5.375000000000000000e+03 6.817787933349609375e+01 1.953952407836914062e+01 4.679022431373596191e-01 4.884818553924560547e+00 1.605816245079040527e+00 -7.677848339080810547e-01
5.376000000000000000e+03 1.111885833740234375e+01 -1.017814445495605469e+01 1.619922965764999390e-01 4.973138272762298584e-01 1.977918446063995361e-01 2.491795569658279419e-01
5.377000000000000000e+03 1.260847854614257812e+01 -9.028954505920410156e+00 1.422332078218460083e-01 3.111463785171508789e-01 1.360138803720474243e-01 2.682915329933166504e-01
5.378000000000000000e+03 7.063570404052734375e+01 -1.395350575447082520e+00 -6.736562252044677734e-01 7.631294250488281250e+00 2.087291479110717773e+00 -4.496361315250396729e-01
5.379000000000000000e+03 7.110443878173828125e+01 -1.571477800607681274e-01 -7.140089273452758789e-01 7.440243721008300781e+00 2.017870426177978516e+00 -4.662739634513854980e-01
5.380000000000000000e+03 7.126090240478515625e+01 -2.697871923446655273e+00 -5.097188353538513184e-01 7.971817016601562500e+00 2.238629579544067383e+00 -2.569325268268585205e-01
5.381000000000000000e+03 2.596117210388183594e+01 -1.117948532104492188e+01 8.952014446258544922e-01 -4.952032566070556641e-01 1.199994534254074097e-01 5.203228592872619629e-01
5.382000000000000000e+03 3.454033660888671875e+01 -8.399637222290039062e+00 2.033300161361694336e+00 3.192343235015869141e+00 1.567692995071411133e+00 4.567044079303741455e-01
5.383000000000000000e+03 7.022731018066406250e+01 2.460718917846679688e+01 3.155704140663146973e-01 5.102677345275878906e+00 1.625474333763122559e+00 -4.425030350685119629e-01
5.384000000000000000e+03 6.963578033447265625e+01 2.207764244079589844e+01 3.757689297199249268e-01 5.057767391204833984e+00 1.630060791969299316e+00 -5.998020768165588379e-01
5.385000000000000000e+03 6.960772705078125000e+01 2.313454818725585938e+01 3.646897077560424805e-01 5.056863784790039062e+00 1.626466035842895508e+00 -5.291139483451843262e-01
5.386000000000000000e+03 7.152077484130859375e+01 6.229379177093505859e+00 -4.199298918247222900e-01 6.487335681915283203e+00 1.820221781730651855e+00 -9.521032571792602539e-01
5.387000000000000000e+03 7.562073230743408203e+00 2.650271987915039062e+01 1.480773498769849539e-04 7.314752292586490512e-05 6.636746547883376479e-05 -5.647585567203350365e-05
5.388000000000000000e+03 8.109865188598632812e+00 2.605852317810058594e+01 -2.685668550839181989e-05 -1.236490061273798347e-04 -4.515170803642831743e-05 -3.436908446019515395e-05
5.389000000000000000e+03 6.926241302490234375e+01 2.740370559692382812e+01 3.102900087833404541e-01 5.021978855133056641e+00 1.599680662155151367e+00 -3.016062974929809570e-01
5.390000000000000000e+03 7.117938232421875000e+01 1.338938331604003906e+01 1.047789007425308228e-01 5.651310443878173828e+00 1.726826786994934082e+00 -1.010729789733886719e+00
5.391000000000000000e+03 6.666992187500000000e+01 2.645274734497070312e+01 4.595341384410858154e-01 4.810439109802246094e+00 1.580991864204406738e+00 -3.126647472381591797e-01
5.392000000000000000e+03 4.996981811523437500e+01 1.915986251831054688e+01 1.398847460746765137e+00 4.491506576538085938e+00 1.767106294631958008e+00 9.937004446983337402e-01
5.393000000000000000e+03 5.054415130615234375e+01 2.003422927856445312e+01 1.342586994171142578e+00 4.450991153717041016e+00 1.738073468208312988e+00 8.717550635337829590e-01
5.394000000000000000e+03 5.059947204589843750e+01 1.874150276184082031e+01 1.484875440597534180e+00 4.271974086761474609e+00 1.727054834365844727e+00 9.288905262947082520e-01
5.395000000000000000e+03 5.107885742187500000e+01 2.408930206298828125e+01 9.862887263298034668e-01 4.625391006469726562e+00 1.683503985404968262e+00 5.973059535026550293e-01
5.396000000000000000e+03 5.228710556030273438e+01 2.851284599304199219e+01 6.571646928787231445e-01 4.631365776062011719e+00 1.586559057235717773e+00 4.625813066959381104e-01
5.397000000000000000e+03 5.074719238281250000e+01 2.842007446289062500e+01 6.461539864540100098e-01 4.721572399139404297e+00 1.610317945480346680e+00 4.815705418586730957e-01
5.398000000000000000e+03 6.305154418945312500e+01 2.895578956604003906e+01 4.987697005271911621e-01 4.669557571411132812e+00 1.550498127937316895e+00 -6.444297730922698975e-02
5.399000000000000000e+03 5.422790527343750000e+01 3.043677520751953125e+01 4.987908005714416504e-01 4.625675678253173828e+00 1.537339925765991211e+00 3.788266479969024658e-01
5.400000000000000000e+03 5.430024337768554688e+01 3.275902938842773438e+01 2.895034551620483398e-01 4.698788642883300781e+00 1.496487617492675781e+00 3.427308797836303711e-01
5.401000000000000000e+03 2.219010734558105469e+01 -1.139262008666992188e+01 5.695301294326782227e-01 -3.373459279537200928e-01 6.965526193380355835e-02 4.144678115844726562e-01
5.402000000000000000e+03 4.776255798339843750e+01 7.279807090759277344e+00 1.199051380157470703e+00 2.053537368774414062e+00 9.757766127586364746e-01 1.403055310249328613e+00
5.403000000000000000e+03 7.133235931396484375e+01 -5.973231196403503418e-01 -6.861142516136169434e-01 7.559359073638916016e+00 2.061973333358764648e+00 -3.959964513778686523e-01
5.404000000000000000e+03 2.520764923095703125e+01 -9.105149269104003906e+00 8.962668776512145996e-01 -5.045028924942016602e-01 1.175292059779167175e-01 2.210030555725097656e-01
5.405000000000000000e+03 2.580856132507324219e+01 -1.051637744903564453e+01 9.497300386428833008e-01 -5.167781114578247070e-01 1.298855841159820557e-01 4.348762333393096924e-01
5.406000000000000000e+03 1.808261680603027344e+01 -1.003117275238037109e+01 4.357925057411193848e-01 -1.194348856806755066e-01 9.490729123353958130e-02 3.671143054962158203e-01
5.407000000000000000e+03 6.638524627685546875e+01 3.612979888916015625e+00 -9.073635339736938477e-01 5.342459201812744141e+00 1.330528736114501953e+00 -1.625415802001953125e+00
5.408000000000000000e+03 2.773157501220703125e+01 -1.011687755584716797e+01 1.275209188461303711e+00 -4.990320205688476562e-01 2.328531295061111450e-01 3.944450318813323975e-01
5.409000000000000000e+03 5.168135452270507812e+01 7.040066242218017578e+00 3.838533461093902588e-01 1.024751663208007812e+00 4.225815236568450928e-01 -1.302201151847839355e-01
5.410000000000000000e+03 7.018744659423828125e+01 1.202292060852050781e+01 4.646179452538490295e-02 5.555234909057617188e+00 1.680508971214294434e+00 -1.136434555053710938e+00
5.411000000000000000e+03 4.964413070678710938e+01 1.473373126983642578e+01 1.889476299285888672e+00 3.834215164184570312e+00 1.717107415199279785e+00 1.259563922882080078e+00
5.412000000000000000e+03 1.118306255340576172e+01 -9.511064529418945312e+00 1.104468405246734619e-01 4.407858848571777344e-01 1.653698086738586426e-01 2.077154368162155151e-01
5.413000000000000000e+03 6.459262847900390625e+01 4.094052791595458984e+00 -8.353526592254638672e-01 4.420382499694824219e+00 1.075509071350097656e+00 -1.841078519821166992e+00
5.414000000000000000e+03 6.052554702758789062e+01 4.566316604614257812e+00 -6.751206517219543457e-01 2.378873348236083984e+00 5.111258029937744141e-01 -1.725322365760803223e+00
5.415000000000000000e+03 8.152882575988769531e+00 1.291088962554931641e+01 5.233761476119980216e-05 -5.185626650927588344e-05 1.444041828335684841e-07 -1.129544557443296071e-06
5.416000000000000000e+03 8.902487754821777344e+00 1.273135948181152344e+01 2.385064362897537649e-05 -5.741129643865860999e-05 -1.006819638860179111e-05 1.771680581441614777e-05
5.417000000000000000e+03 7.024894714355468750e+01 3.218556165695190430e+00 -7.420517206192016602e-01 6.681540966033935547e+00 1.781846761703491211e+00 -9.404250383377075195e-01
5.418000000000000000e+03 2.432866477966308594e+01 -1.105430030822753906e+01 7.375703454017639160e-01 -4.489500522613525391e-01 8.658608794212341309e-02 4.559844136238098145e-01
5.419000000000000000e+03 5.411449432373046875e+01 7.476970672607421875e+00 3.825108706951141357e-01 1.210786223411560059e+00 4.779891371726989746e-01 -5.913173556327819824e-01
5.420000000000000000e+03 3.025726509094238281e+01 -9.921916961669921875e+00 1.754580616950988770e+00 4.744144156575202942e-02 5.406066179275512695e-01 3.710524141788482666e-01
5.421000000000000000e+03 3.039836692810058594e+01 -9.405367851257324219e+00 1.773109912872314453e+00 8.028040081262588501e-02 5.560171008110046387e-01 2.856833934783935547e-01
5.422000000000000000e+03 1.248949718475341797e+01 -1.108262443542480469e+01 3.683212995529174805e-01 4.088154137134552002e-01 2.331410050392150879e-01 3.817297220230102539e-01
5.423000000000000000e+03 1.322321319580078125e+01 -1.045072078704833984e+01 3.279289305210113525e-01 3.066137731075286865e-01 1.903628110885620117e-01 3.716316819190979004e-01
5.424000000000000000e+03 6.994434356689453125e+01 1.071147251129150391e+01 -4.294792190194129944e-02 5.592205047607421875e+00 1.664777159690856934e+00 -1.196149587631225586e+00
5.425000000000000000e+03 1.971369743347167969e+01 -1.090754413604736328e+01 4.988179206848144531e-01 -2.167206555604934692e-01 8.462918549776077271e-02 3.805749416351318359e-01
5.426000000000000000e+03 2.084273529052734375e+01 -1.156989097595214844e+01 5.177865028381347656e-01 -2.677538692951202393e-01 7.500978559255599976e-02 3.887074589729309082e-01
5.427000000000000000e+03 3.063299179077148438e+01 -1.141979026794433594e+01 1.571284532546997070e+00 1.294629275798797607e-01 5.102242231369018555e-01 5.623610615730285645e-01
5.428000000000000000e+03 2.942067527770996094e+01 -1.095217227935791016e+01 1.466526389122009277e+00 -2.530400753021240234e-01 3.640458881855010986e-01 5.472456216812133789e-01
5.429000000000000000e+03 2.887504768371582031e+01 -9.580416679382324219e+00 1.515698671340942383e+00 -3.537203371524810791e-01 3.485935032367706299e-01 3.107718527317047119e-01
5.430000000000000000e+03 6.976457977294921875e+01 9.600679397583007812e+00 -1.386987566947937012e-01 5.663193702697753906e+00 1.657348394393920898e+00 -1.217406511306762695e+00
5.431000000000000000e+03 1.543416500091552734e+01 -1.033239173889160156e+01 3.942472338676452637e-01 8.218997716903686523e-02 1.429311633110046387e-01 3.877007663249969482e-01
5.432000000000000000e+03 3.336747360229492188e+01 -8.348840713500976562e+00 1.981171488761901855e+00 1.924590349197387695e+00 1.171728491783142090e+00 3.520961105823516846e-01
5.433000000000000000e+03 6.937100982666015625e+01 1.148639583587646484e+01 2.547484636306762695e-02 5.400735378265380859e+00 1.627863049507141113e+00 -1.224891304969787598e+00
5.434000000000000000e+03 6.868908691406250000e+01 8.346547484397888184e-01 -9.673898816108703613e-01 6.729661464691162109e+00 1.728681445121765137e+00 -1.048489570617675781e+00
5.435000000000000000e+03 3.276845550537109375e+01 -1.112030601501464844e+01 1.783731460571289062e+00 1.556445002555847168e+00 1.002052903175354004e+00 3.983112275600433350e-01
5.436000000000000000e+03 6.840895843505859375e+01 3.219854831695556641e+00 -8.738021850585937500e-01 6.165525436401367188e+00 1.587516903877258301e+00 -1.280584096908569336e+00
5.437000000000000000e+03 7.185383605957031250e+01 -2.286948263645172119e-01 -6.529778242111206055e-01 7.592659473419189453e+00 2.081904411315917969e+00 -3.272635042667388916e-01
5.438000000000000000e+03 9.183675765991210938e+00 1.222334194183349609e+01 -2.966719694086350501e-05 4.192049527773633599e-05 3.675989546536584385e-06 1.231521196132234763e-06
5.439000000000000000e+03 8.737176895141601562e+00 1.198720741271972656e+01 2.452366788929793984e-05 -2.436153226881287992e-05 4.864052627340242907e-08 -2.086509084620047361e-05
5.440000000000000000e+03 6.976456451416015625e+01 1.661692237854003906e+01 3.082627654075622559e-01 5.191930294036865234e+00 1.650058031082153320e+00 -9.386137723922729492e-01
5.441000000000000000e+03 7.035054016113281250e+01 1.763046073913574219e+01 3.001331984996795654e-01 5.258011817932128906e+00 1.667443513870239258e+00 -8.514282703399658203e-01
5.442000000000000000e+03 6.981357574462890625e+01 2.019767951965332031e+01 3.647467494010925293e-01 5.104870319366455078e+00 1.640885114669799805e+00 -7.097638845443725586e-01
5.443000000000000000e+03 6.837619781494140625e+01 1.850025177001953125e+01 4.495198428630828857e-01 4.903435230255126953e+00 1.605886578559875488e+00 -8.377213478088378906e-01
5.444000000000000000e+03 6.955344390869140625e+01 1.761656379699707031e+01 3.450040221214294434e-01 5.130780220031738281e+00 1.642735362052917480e+00 -8.795133829116821289e-01
5.445000000000000000e+03 3.370366668701171875e+01 -1.042051601409912109e+01 1.916324257850646973e+00 2.392673254013061523e+00 1.292699217796325684e+00 3.551922142505645752e-01
5.446000000000000000e+03 3.428390884399414062e+01 -9.373015403747558594e+00 1.975183129310607910e+00 2.971127748489379883e+00 1.483893275260925293e+00 4.106511175632476807e-01
5.447000000000000000e+03 7.194605255126953125e+01 6.939188241958618164e-01 -6.550743579864501953e-01 7.432540416717529297e+00 2.033239841461181641e+00 -4.093265235424041748e-01
5.448000000000000000e+03 7.192684173583984375e+01 1.548281073570251465e+00 -6.534479856491088867e-01 7.284681320190429688e+00 1.989369988441467285e+00 -5.017722249031066895e-01
5.449000000000000000e+03 7.084671020507812500e+01 1.983548402786254883e+00 -7.540959119796752930e-01 7.042851448059082031e+00 1.886626720428466797e+00 -7.269514799118041992e-01
5.450000000000000000e+03 7.046576690673828125e+01 7.754927635192871094e+00 -3.147459626197814941e-01 6.028957843780517578e+00 1.714263558387756348e+00 -1.141790986061096191e+00
5.451000000000000000e+03 7.083090209960937500e+01 8.682315826416015625e+00 -2.323031425476074219e-01 6.014171123504638672e+00 1.734560489654541016e+00 -1.116182208061218262e+00
5.452000000000000000e+03 3.295376586914062500e+01 -9.693743705749511719e+00 1.988533496856689453e+00 1.754743576049804688e+00 1.122983098030090332e+00 3.791175484657287598e-01
5.453000000000000000e+03 6.546595001220703125e+01 3.732690572738647461e+00 -9.190832972526550293e-01 4.895461559295654297e+00 1.192913413047790527e+00 -1.772867083549499512e+00
5.454000000000000000e+03 6.530977630615234375e+01 4.360768795013427734e+00 -7.968348860740661621e-01 4.759484291076660156e+00 1.188794851303100586e+00 -1.775581479072570801e+00
5.455000000000000000e+03 2.523428916931152344e+01 -1.078472709655761719e+01 8.406662940979003906e-01 -4.840416312217712402e-01 1.069874092936515808e-01 4.489677548408508301e-01
5.456000000000000000e+03 4.790174484252929688e+01 8.737786293029785156e+00 1.718116641044616699e+00 2.624898910522460938e+00 1.302904725074768066e+00 1.534501791000366211e+00
5.457000000000000000e+03 6.998237609863281250e+01 1.335985469818115234e+01 1.458618193864822388e-01 5.389262199401855469e+00 1.660537242889404297e+00 -1.111379861831665039e+00
5.458000000000000000e+03 6.738575744628906250e+01 3.451281547546386719e+00 -8.964366316795349121e-01 5.763912677764892578e+00 1.460242867469787598e+00 -1.471979498863220215e+00
5.459000000000000000e+03 4.978329467773437500e+01 7.067671298980712891e+00 7.368606328964233398e-01 1.146149516105651855e+00 5.649030208587646484e-01 4.605295658111572266e-01
5.460000000000000000e+03 4.974847412109375000e+01 8.261930465698242188e+00 1.299634456634521484e+00 1.651651501655578613e+00 8.853858113288879395e-01 7.018754482269287109e-01
5.461000000000000000e+03 5.654181671142578125e+01 8.099055290222167969e+00 4.761667251586914062e-01 1.712279915809631348e+00 6.565340161323547363e-01 -1.030257940292358398e+00
5.462000000000000000e+03 1.326382255554199219e+01 -9.098470687866210938e+00 1.926881670951843262e-01 2.559674978256225586e-01 1.345967054367065430e-01 3.003863990306854248e-01
5.463000000000000000e+03 4.991584777832031250e+01 1.088199710845947266e+01 1.913336157798767090e+00 2.553942680358886719e+00 1.340183615684509277e+00 9.922344088554382324e-01
5.464000000000000000e+03 4.999222564697265625e+01 1.384324455261230469e+01 1.963171958923339844e+00 3.424970865249633789e+00 1.616442918777465820e+00 1.155832648277282715e+00
5.465000000000000000e+03 5.503349685668945312e+01 9.923269271850585938e+00 1.085850477218627930e+00 1.847497463226318359e+00 8.800044059753417969e-01 -5.626596808433532715e-01
5.466000000000000000e+03 7.089723205566406250e+01 1.436226367950439453e+01 1.591898053884506226e-01 5.520258426666259766e+00 1.703834533691406250e+00 -1.000001788139343262e+00
5.467000000000000000e+03 5.841436004638671875e+01 6.247865200042724609e+00 -1.832585632801055908e-01 1.848891496658325195e+00 4.996898770332336426e-01 -1.408573389053344727e+00
5.468000000000000000e+03 6.285994338989257812e+01 5.926668643951416016e+00 -4.407275915145874023e-01 3.536028861999511719e+00 9.285904169082641602e-01 -1.835462093353271484e+00
5.469000000000000000e+03 6.290383911132812500e+01 4.052122592926025391e+00 -8.183326125144958496e-01 3.524453401565551758e+00 8.118362426757812500e-01 -1.905593633651733398e+00
5.470000000000000000e+03 5.157136154174804688e+01 1.766424751281738281e+01 1.637753009796142578e+00 3.861287355422973633e+00 1.649712085723876953e+00 8.144180178642272949e-01
5.471000000000000000e+03 3.163005828857421875e+01 -1.113509654998779297e+01 1.731862783432006836e+00 6.947977542877197266e-01 7.279981374740600586e-01 4.544850885868072510e-01
5.472000000000000000e+03 8.172821044921875000e+00 1.443423080444335938e+01 -2.845387098204810172e-05 -4.711314613814465702e-05 -2.267010495415888727e-05 4.951738446834497154e-05
5.473000000000000000e+03 4.861378097534179688e+01 8.693082809448242188e+00 1.608526110649108887e+00 2.205282688140869141e+00 1.144142627716064453e+00 1.227969646453857422e+00
5.474000000000000000e+03 5.459551620483398438e+01 7.937868595123291016e+00 5.444093346595764160e-01 1.411222457885742188e+00 5.866895318031311035e-01 -6.881086230278015137e-01
5.475000000000000000e+03 5.447259140014648438e+01 7.076552391052246094e+00 1.814856827259063721e-01 1.211194396018981934e+00 4.178040325641632080e-01 -7.208911776542663574e-01
5.476000000000000000e+03 6.745890045166015625e+01 1.725030541419982910e+00 -1.035749793052673340e+00 6.100393772125244141e+00 1.519393205642700195e+00 -1.377249598503112793e+00
5.477000000000000000e+03 4.913636398315429688e+01 1.417234897613525391e+01 1.940411567687988281e+00 3.856857776641845703e+00 1.739180803298950195e+00 1.381647348403930664e+00
5.478000000000000000e+03 5.109331893920898438e+01 1.621937751770019531e+01 1.763347506523132324e+00 3.709031820297241211e+00 1.641713738441467285e+00 9.129765629768371582e-01
5.479000000000000000e+03 7.013005065917968750e+01 5.275876045227050781e+00 -5.752645730972290039e-01 6.305044651031494141e+00 1.718934059143066406e+00 -1.101135015487670898e+00
5.480000000000000000e+03 2.487652206420898438e+01 -1.121317195892333984e+01 7.635450959205627441e-01 -4.692249298095703125e-01 8.829605579376220703e-02 5.049216747283935547e-01
5.481000000000000000e+03 7.081634521484375000e+01 -6.475161910057067871e-01 -7.187154293060302734e-01 7.483637332916259766e+00 2.029476642608642578e+00 -4.729704260826110840e-01
5.482000000000000000e+03 9.019312858581542969e+00 1.357990646362304688e+01 -1.056908240570919588e-05 -4.902442378806881607e-05 -1.787805194908287376e-05 1.840932236518710852e-05
5.483000000000000000e+03 3.151605033874511719e+01 -1.053759098052978516e+01 1.825019240379333496e+00 6.908469200134277344e-01 7.547598481178283691e-01 4.132187068462371826e-01
5.484000000000000000e+03 9.371240615844726562e+00 1.309034538269042969e+01 -1.483650885347742587e-05 5.710626282962039113e-05 1.268092546524712816e-05 -1.055691518558887765e-05
5.485000000000000000e+03 2.656098747253417969e+01 -8.923119544982910156e+00 1.109694123268127441e+00 -5.290655493736267090e-01 1.741885542869567871e-01 1.897540837526321411e-01
5.486000000000000000e+03 2.612878417968750000e+01 -9.566692352294921875e+00 1.030360698699951172e+00 -5.277652144432067871e-01 1.507786363363265991e-01 3.082082569599151611e-01
5.487000000000000000e+03 6.012761306762695312e+01 5.354057788848876953e+00 -4.798765182495117188e-01 2.324758529663085938e+00 5.534645915031433105e-01 -1.657266616821289062e+00
5.488000000000000000e+03 6.615180969238281250e+01 2.545621395111083984e+00 -1.041091084480285645e+00 5.392333984375000000e+00 1.305372953414916992e+00 -1.639072299003601074e+00
5.489000000000000000e+03 6.912325286865234375e+01 3.628789663314819336e+00 -7.844319939613342285e-01 6.310444831848144531e+00 1.657803893089294434e+00 -1.171427130699157715e+00
5.490000000000000000e+03 2.133460235595703125e+01 -1.103543090820312500e+01 5.486636757850646973e-01 -3.045575916767120361e-01 7.323183119297027588e-02 3.882434070110321045e-01
5.491000000000000000e+03 7.075156402587890625e+01 2.055112421512603760e-01 -7.564591169357299805e-01 7.323495864868164062e+00 1.970111012458801270e+00 -5.614771246910095215e-01
5.492000000000000000e+03 2.035475921630859375e+01 -1.136859703063964844e+01 5.158302187919616699e-01 -2.563664913177490234e-01 7.783912122249603271e-02 3.899891674518585205e-01
5.493000000000000000e+03 6.815845489501953125e+01 2.371030807495117188e+01 4.485407173633575439e-01 4.892412185668945312e+00 1.602285861968994141e+00 -4.908198714256286621e-01
5.494000000000000000e+03 6.881994628906250000e+01 2.271438217163085938e+01 4.269982874393463135e-01 4.948226928710937500e+00 1.612567543983459473e+00 -5.624427199363708496e-01
5.495000000000000000e+03 6.249665832519531250e+01 4.752208709716796875e+00 -6.703974008560180664e-01 3.336821317672729492e+00 7.999271750450134277e-01 -1.878541946411132812e+00
5.496000000000000000e+03 6.130486297607421875e+01 4.981827735900878906e+00 -5.995327830314636230e-01 2.775983810424804688e+00 6.529353260993957520e-01 -1.796138525009155273e+00
5.497000000000000000e+03 7.023003387451171875e+01 8.453701972961425781e+00 -2.588411569595336914e-01 5.888761043548583984e+00 1.688975930213928223e+00 -1.186161398887634277e+00
5.498000000000000000e+03 5.206709289550781250e+01 2.362194061279296875e+01 1.069819450378417969e+00 4.466053009033203125e+00 1.660761713981628418e+00 5.682048797607421875e-01
5.499000000000000000e+03 5.207888031005859375e+01 2.682176780700683594e+01 8.000432252883911133e-01 4.602653026580810547e+00 1.620808959007263184e+00 4.899860024452209473e-01
5.500000000000000000e+03 5.037219619750976562e+01 1.501600837707519531e+01 1.878167033195495605e+00 3.649932622909545898e+00 1.658429861068725586e+00 1.084249258041381836e+00
5.501000000000000000e+03 7.139131164550781250e+01 1.461767387390136719e+01 1.526917815208435059e-01 5.599352836608886719e+00 1.725613355636596680e+00 -9.522425532341003418e-01
5.502000000000000000e+03 6.796079254150390625e+01 2.703664779663085938e+01 3.784672319889068604e-01 4.925179004669189453e+00 1.591093778610229492e+00 -3.098058402538299561e-01
5.503000000000000000e+03 4.981343460083007812e+01 2.047321128845214844e+01 1.231876730918884277e+00 4.687980175018310547e+00 1.775956988334655762e+00 9.094538092613220215e-01
5.504000000000000000e+03 5.051293563842773438e+01 2.145242309570312500e+01 1.190580606460571289e+00 4.584258556365966797e+00 1.732451796531677246e+00 7.748483419418334961e-01
5.505000000000000000e+03 5.118119430541992188e+01 1.829727554321289062e+01 1.549015522003173828e+00 4.084493637084960938e+00 1.690052747726440430e+00 8.652325868606567383e-01
5.506000000000000000e+03 5.125448989868164062e+01 2.248306655883789062e+01 1.137696743011474609e+00 4.513720512390136719e+00 1.695425152778625488e+00 6.722998023033142090e-01
5.507000000000000000e+03 5.299241256713867188e+01 2.299130439758300781e+01 1.152152419090270996e+00 4.303217411041259766e+00 1.636610865592956543e+00 5.257356762886047363e-01
5.508000000000000000e+03 7.081541442871093750e+01 5.751521110534667969e+00 -4.955332577228546143e-01 6.388032436370849609e+00 1.767749786376953125e+00 -1.031779646873474121e+00
5.509000000000000000e+03 3.336937332153320312e+01 -9.335317611694335938e+00 2.013090848922729492e+00 2.114775180816650391e+00 1.238359808921813965e+00 3.693953752517700195e-01
5.510000000000000000e+03 3.317306900024414062e+01 -1.036292839050292969e+01 1.899352431297302246e+00 1.951075315475463867e+00 1.155128359794616699e+00 3.892060518264770508e-01
5.511000000000000000e+03 6.943719482421875000e+01 4.808830738067626953e+00 -6.551740765571594238e-01 6.194284915924072266e+00 1.661733269691467285e+00 -1.186020135879516602e+00
5.512000000000000000e+03 7.082347869873046875e+01 1.112407565116882324e+00 -7.662341594696044922e-01 7.177023410797119141e+00 1.923236727714538574e+00 -6.454492807388305664e-01
5.513000000000000000e+03 6.711996459960937500e+01 2.367604017257690430e+00 -1.015374779701232910e+00 5.844813346862792969e+00 1.448831558227539062e+00 -1.472452282905578613e+00
5.514000000000000000e+03 2.642705154418945312e+01 -1.020544052124023438e+01 1.049011230468750000e+00 -5.192283391952514648e-01 1.589348614215850830e-01 3.838576376438140869e-01
5.515000000000000000e+03 6.774923706054687500e+01 1.097178554534912109e+01 5.855662003159523010e-02 5.010797023773193359e+00 1.520806074142456055e+00 -1.354625225067138672e+00
5.516000000000000000e+03 6.358933639526367188e+01 4.452937602996826172e+00 -7.605618834495544434e-01 3.890684366226196289e+00 9.390367269515991211e-01 -1.894184231758117676e+00
5.517000000000000000e+03 6.869419097900390625e+01 1.036429023742675781e+01 -4.153885692358016968e-02 5.325127124786376953e+00 1.585076451301574707e+00 -1.306471467018127441e+00
5.518000000000000000e+03 3.007875251770019531e+01 -1.110005378723144531e+01 1.564523577690124512e+00 -5.509405955672264099e-02 4.528288543224334717e-01 5.357146859169006348e-01
5.519000000000000000e+03 3.086594581604003906e+01 -1.003781700134277344e+01 1.786907792091369629e+00 3.026902675628662109e-01 6.268793940544128418e-01 3.750890493392944336e-01
5.520000000000000000e+03 2.958408355712890625e+01 -9.749247550964355469e+00 1.630208134651184082e+00 -1.878343671560287476e-01 4.327121376991271973e-01 3.331619501113891602e-01
5.521000000000000000e+03 6.896448516845703125e+01 1.863403201103210449e+00 -9.193457961082458496e-01 6.587520599365234375e+00 1.700452327728271484e+00 -1.079949617385864258e+00
5.522000000000000000e+03 7.054225921630859375e+01 2.484023332595825195e+00 -7.514435648918151855e-01 6.873781204223632812e+00 1.836701273918151855e+00 -8.247405886650085449e-01
5.523000000000000000e+03 1.256802463531494141e+01 -9.701996803283691406e+00 2.122318595647811890e-01 3.420076370239257812e-01 1.662718504667282104e-01 3.037142157554626465e-01
5.524000000000000000e+03 6.918858337402343750e+01 9.144906044006347656e+00 -1.825485825538635254e-01 5.542325019836425781e+00 1.607932925224304199e+00 -1.298568487167358398e+00
5.525000000000000000e+03 7.009128570556640625e+01 9.046076774597167969e+00 -1.865183264017105103e-01 5.777329921722412109e+00 1.677243471145629883e+00 -1.188440203666687012e+00
5.526000000000000000e+03 7.216306304931640625e+01 -7.630870938301086426e-01 -5.891065001487731934e-01 7.714106559753417969e+00 2.137500047683715820e+00 -2.084762901067733765e-01
5.527000000000000000e+03 6.899806213378906250e+01 1.970516014099121094e+01 4.155372083187103271e-01 4.997684478759765625e+00 1.623966455459594727e+00 -7.544170022010803223e-01
5.528000000000000000e+03 6.896139526367187500e+01 1.636981773376464844e+01 3.493877947330474854e-01 5.057521343231201172e+00 1.622072696685791016e+00 -9.816986918449401855e-01
5.529000000000000000e+03 5.120417022705078125e+01 1.953073310852050781e+01 1.419837951660156250e+00 4.247779846191406250e+00 1.700285315513610840e+00 8.160729408264160156e-01
5.530000000000000000e+03 7.157421875000000000e+01 1.131949901580810547e+00 -6.864140033721923828e-01 7.292057991027832031e+00 1.981693148612976074e+00 -5.137845873832702637e-01
5.531000000000000000e+03 7.121709442138671875e+01 1.568349599838256836e+00 -7.205608487129211426e-01 7.150043487548828125e+00 1.928844809532165527e+00 -6.228730082511901855e-01
5.532000000000000000e+03 7.009053039550781250e+01 2.028194665908813477e+00 -8.112367391586303711e-01 6.839509010314941406e+00 1.808481693267822266e+00 -8.663279414176940918e-01
5.533000000000000000e+03 5.103884887695312500e+01 9.545303344726562500e+00 1.491991877555847168e+00 1.799105525016784668e+00 9.873292446136474609e-01 4.351885616779327393e-01
5.534000000000000000e+03 6.936616516113281250e+01 1.541795921325683594e+01 2.900439500808715820e-01 5.157736778259277344e+00 1.634334325790405273e+00 -1.025519490242004395e+00
5.535000000000000000e+03 1.446983242034912109e+01 -9.169812202453613281e+00 2.544943094253540039e-01 1.587914675474166870e-01 1.239857301115989685e-01 3.396761715412139893e-01
5.536000000000000000e+03 5.127600479125976562e+01 7.659198284149169922e+00 7.925135493278503418e-01 1.199905157089233398e+00 5.977256298065185547e-01 7.554841786623001099e-02
5.537000000000000000e+03 5.227607727050781250e+01 7.573320865631103516e+00 6.053409576416015625e-01 1.153845548629760742e+00 5.277559757232666016e-01 -2.110144942998886108e-01
5.538000000000000000e+03 3.392330932617187500e+01 -9.877117156982421875e+00 1.956253409385681152e+00 2.596629619598388672e+00 1.365864872932434082e+00 3.748160898685455322e-01
5.539000000000000000e+03 3.376736831665039062e+01 -8.890185356140136719e+00 2.041487455368041992e+00 2.431395053863525391e+00 1.341864705085754395e+00 4.149535000324249268e-01
5.540000000000000000e+03 6.515959930419921875e+01 5.124006748199462891e+00 -6.837052702903747559e-01 4.616284847259521484e+00 1.179773807525634766e+00 -1.780429244041442871e+00
5.541000000000000000e+03 4.920644760131835938e+01 1.140601921081542969e+01 2.014108896255493164e+00 3.001670598983764648e+00 1.504733800888061523e+00 1.280428171157836914e+00
5.542000000000000000e+03 4.957794952392578125e+01 1.388773727416992188e+01 1.953134536743164062e+00 3.615941762924194336e+00 1.670722842216491699e+00 1.258043169975280762e+00
5.543000000000000000e+03 4.856407165527343750e+01 7.878741741180419922e+00 1.362720370292663574e+00 1.914577722549438477e+00 9.831894636154174805e-01 1.119008421897888184e+00
5.544000000000000000e+03 5.050989913940429688e+01 1.018811416625976562e+01 1.714438796043395996e+00 2.133576869964599609e+00 1.154404759407043457e+00 6.890995502471923828e-01
5.545000000000000000e+03 5.053960037231445312e+01 1.155510520935058594e+01 1.916311740875244141e+00 2.613227844238281250e+00 1.358861923217773438e+00 8.619670271873474121e-01
5.546000000000000000e+03 5.602066421508789062e+01 7.387681484222412109e+00 2.271860688924789429e-01 1.481165647506713867e+00 5.125055313110351562e-01 -9.589518904685974121e-01
5.547000000000000000e+03 6.088518905639648438e+01 5.794958591461181641e+00 -3.779049217700958252e-01 2.662747383117675781e+00 6.854527592658996582e-01 -1.741922020912170410e+00
5.548000000000000000e+03 2.500341796875000000e+01 -1.029072380065917969e+01 8.622604012489318848e-01 -4.985538721084594727e-01 1.091119647026062012e-01 4.033374786376953125e-01
5.549000000000000000e+03 2.824450683593750000e+01 -1.022146892547607422e+01 1.399207115173339844e+00 -4.282093048095703125e-01 2.912993431091308594e-01 4.281669557094573975e-01
5.550000000000000000e+03 3.104129028320312500e+01 -1.115061950683593750e+01 1.669986128807067871e+00 3.543346524238586426e-01 6.072962284088134766e-01 4.911395311355590820e-01
5.551000000000000000e+03 6.987365722656250000e+01 1.459219837188720703e+01 2.210275232791900635e-01 5.292080402374267578e+00 1.653932332992553711e+00 -1.056644558906555176e+00
5.552000000000000000e+03 4.991994857788085938e+01 9.536045074462890625e+00 1.643544316291809082e+00 2.061391592025756836e+00 1.111480832099914551e+00 8.090378642082214355e-01
5.553000000000000000e+03 5.189889907836914062e+01 8.223145484924316406e+00 9.440401196479797363e-01 1.339894413948059082e+00 6.851803660392761230e-01 -1.813564263284206390e-02
5.554000000000000000e+03 5.968746566772460938e+01 6.104246139526367188e+00 -2.550496757030487061e-01 2.248117446899414062e+00 5.979203581809997559e-01 -1.596658706665039062e+00
5.555000000000000000e+03 5.729136657714843750e+01 6.770706653594970703e+00 -3.343523666262626648e-02 1.625897884368896484e+00 4.777387976646423340e-01 -1.219625949859619141e+00
5.556000000000000000e+03 2.787727165222167969e+01 -9.067439079284667969e+00 1.332708239555358887e+00 -4.792748689651489258e-01 2.560299932956695557e-01 2.244178056716918945e-01
5.557000000000000000e+03 2.719238853454589844e+01 -9.230826377868652344e+00 1.212359309196472168e+00 -5.189706683158874512e-01 2.080165743827819824e-01 2.527885437011718750e-01
5.558000000000000000e+03 3.190108299255371094e+01 -9.829919815063476562e+00 1.923321247100830078e+00 9.267126917839050293e-01 8.550102114677429199e-01 3.384771645069122314e-01
5.559000000000000000e+03 3.137306785583496094e+01 -9.966090202331542969e+00 1.856310486793518066e+00 6.024748086929321289e-01 7.376355528831481934e-01 3.739169836044311523e-01
5.560000000000000000e+03 5.233318710327148438e+01 1.820921325683593750e+01 1.587653160095214844e+00 3.805681705474853516e+00 1.618000507354736328e+00 6.753689646720886230e-01
5.561000000000000000e+03 5.253289413452148438e+01 1.591375064849853516e+01 1.764824986457824707e+00 3.341326236724853516e+00 1.531845331192016602e+00 5.951731204986572266e-01
5.562000000000000000e+03 6.837504577636718750e+01 1.481946468353271484e+00 -9.789955019950866699e-01 6.487367630004882812e+00 1.652511596679687500e+00 -1.169067144393920898e+00
5.563000000000000000e+03 6.922990417480468750e+01 1.232938528060913086e+00 -9.140726923942565918e-01 6.811309337615966797e+00 1.769170999526977539e+00 -9.623826742172241211e-01
5.564000000000000000e+03 7.004212188720703125e+01 1.100391745567321777e+00 -8.446471691131591797e-01 7.023500442504882812e+00 1.853656053543090820e+00 -7.910359501838684082e-01
5.565000000000000000e+03 7.117562103271484375e+01 6.855280995368957520e-01 -7.264785766601562500e-01 7.302248477935791016e+00 1.972730994224548340e+00 -5.356733202934265137e-01
5.566000000000000000e+03 3.262755584716796875e+01 -1.043780803680419922e+01 1.898177742958068848e+00 1.410739898681640625e+00 9.926753044128417969e-01 3.749286532402038574e-01
5.567000000000000000e+03 6.865261077880859375e+01 1.741831207275390625e+01 4.084476232528686523e-01 4.961926460266113281e+00 1.611112236976623535e+00 -9.130285978317260742e-01
5.568000000000000000e+03 6.810556030273437500e+01 2.194513320922851562e+01 4.774341583251953125e-01 4.863071441650390625e+00 1.602151632308959961e+00 -5.926840901374816895e-01
5.569000000000000000e+03 6.964608764648437500e+01 8.593101501464843750e+00 -2.367101460695266724e-01 5.729495048522949219e+00 1.647835493087768555e+00 -1.245177268981933594e+00
5.570000000000000000e+03 4.833765029907226562e+01 7.179445266723632812e+00 1.069477558135986328e+00 1.684954285621643066e+00 8.263295292854309082e-01 1.141781330108642578e+00
5.571000000000000000e+03 6.720437622070312500e+01 2.291939926147460938e+01 5.167796611785888672e-01 4.785335540771484375e+00 1.590634584426879883e+00 -5.268477201461791992e-01
5.572000000000000000e+03 2.883387756347656250e+01 -1.025604820251464844e+01 1.453007221221923828e+00 -3.588693737983703613e-01 3.282413482666015625e-01 4.326646625995635986e-01
5.573000000000000000e+03 6.964587402343750000e+01 6.024975299835205078e+00 -5.155621170997619629e-01 6.064104557037353516e+00 1.664562821388244629e+00 -1.206279993057250977e+00
5.574000000000000000e+03 7.102090454101562500e+01 7.032421112060546875e+00 -3.742423951625823975e-01 6.272607326507568359e+00 1.769509434700012207e+00 -1.051379680633544922e+00
5.575000000000000000e+03 6.839813995361328125e+01 2.040797042846679688e+01 4.555532634258270264e-01 4.912516117095947266e+00 1.610420823097229004e+00 -7.173306941986083984e-01
5.576000000000000000e+03 5.322894287109375000e+01 7.483208656311035156e+00 4.534330368041992188e-01 1.153758525848388672e+00 4.821574687957763672e-01 -4.375259876251220703e-01
5.577000000000000000e+03 6.873439788818359375e+01 4.351279735565185547e+00 -7.438914775848388672e-01 6.065847396850585938e+00 1.596586823463439941e+00 -1.282333135604858398e+00
5.578000000000000000e+03 5.167869949340820312e+01 1.538746929168701172e+01 1.821004986763000488e+00 3.362102985382080078e+00 1.554932355880737305e+00 7.664111256599426270e-01
5.579000000000000000e+03 6.940879058837890625e+01 1.280527877807617188e+01 1.357602030038833618e-01 5.300683975219726562e+00 1.630933165550231934e+00 -1.168157339096069336e+00
5.580000000000000000e+03 6.580113983154296875e+01 2.826586532592773438e+01 4.336549937725067139e-01 4.804664134979248047e+00 1.571495652198791504e+00 -2.093169987201690674e-01
5.581000000000000000e+03 5.507793426513671875e+01 2.594956970214843750e+01 9.035598635673522949e-01 4.370056629180908203e+00 1.582085013389587402e+00 3.506789505481719971e-01
5.582000000000000000e+03 5.287482833862304688e+01 2.494134521484375000e+01 9.658308029174804688e-01 4.460027694702148438e+00 1.627757549285888672e+00 4.895686209201812744e-01
5.583000000000000000e+03 5.124581527709960938e+01 2.094181251525878906e+01 1.278857707977294922e+00 4.397625923156738281e+00 1.702945113182067871e+00 7.503775954246520996e-01
5.584000000000000000e+03 5.572812652587890625e+01 2.796698188781738281e+01 7.231743335723876953e-01 4.480050086975097656e+00 1.560967326164245605e+00 3.166289329528808594e-01
5.585000000000000000e+03 5.397570037841796875e+01 2.835849952697753906e+01 6.885530352592468262e-01 4.545191764831542969e+00 1.570123434066772461e+00 4.056636393070220947e-01
5.586000000000000000e+03 6.774570465087890625e+01 2.798817396163940430e+00 -9.466512203216552734e-01 6.010868549346923828e+00 1.519265174865722656e+00 -1.381807088851928711e+00
5.587000000000000000e+03 6.830973052978515625e+01 5.041561126708984375e+00 -6.735314726829528809e-01 5.821010112762451172e+00 1.544243574142456055e+00 -1.376333475112915039e+00
5.588000000000000000e+03 6.207592391967773438e+01 5.478940010070800781e+00 -4.911952018737792969e-01 3.170267820358276367e+00 8.037217855453491211e-01 -1.840869665145874023e+00
5.589000000000000000e+03 6.873892211914062500e+01 1.225139427185058594e+01 1.277781575918197632e-01 5.185844898223876953e+00 1.594086885452270508e+00 -1.233937740325927734e+00
5.590000000000000000e+03 6.856716156005859375e+01 1.107840919494628906e+01 2.222084626555442810e-02 5.250174522399902344e+00 1.581718564033508301e+00 -1.297258734703063965e+00
5.591000000000000000e+03 6.323654937744140625e+01 5.181068420410156250e+00 -6.015278697013854980e-01 3.702433347702026367e+00 9.302716255187988281e-01 -1.877819299697875977e+00
5.592000000000000000e+03 6.806912231445312500e+01 2.138706922531127930e+00 -9.788118600845336914e-01 6.250836372375488281e+00 1.581607341766357422e+00 -1.281887054443359375e+00
5.593000000000000000e+03 6.944317626953125000e+01 2.869598150253295898e+00 -8.368374109268188477e-01 6.541616916656494141e+00 1.711433768272399902e+00 -1.064873814582824707e+00
5.594000000000000000e+03 6.882723999023437500e+01 9.730401992797851562e+00 -1.213622465729713440e-01 5.405981063842773438e+00 1.585385680198669434e+00 -1.324733138084411621e+00
5.595000000000000000e+03 6.789899444580078125e+01 1.017336845397949219e+01 -2.902806736528873444e-02 5.095784187316894531e+00 1.520026922225952148e+00 -1.385820388793945312e+00
5.596000000000000000e+03 5.260564041137695312e+01 8.763069152832031250e+00 1.054093241691589355e+00 1.447485208511352539e+00 7.504734992980957031e-01 -1.373257189989089966e-01
5.597000000000000000e+03 7.046633911132812500e+01 1.562635898590087891e+00 -7.917423248291015625e-01 7.038917541503906250e+00 1.874152541160583496e+00 -7.371066212654113770e-01
5.598000000000000000e+03 7.031504821777343750e+01 6.527647495269775391e+00 -4.474762976169586182e-01 6.175642490386962891e+00 1.718449831008911133e+00 -1.125201106071472168e+00
5.599000000000000000e+03 6.401955413818359375e+01 5.571312427520751953e+00 -5.629066228866577148e-01 4.065852165222167969e+00 1.050883650779724121e+00 -1.840163946151733398e+00
5.600000000000000000e+03 4.930864715576171875e+01 8.958490371704101562e+00 1.603139042854309082e+00 2.041952371597290039e+00 1.093527436256408691e+00 9.767293334007263184e-01
5.601000000000000000e+03 5.111466979980468750e+01 1.085361289978027344e+01 1.769275307655334473e+00 2.221253871917724609e+00 1.197158813476562500e+00 5.798024535179138184e-01
5.602000000000000000e+03 6.958036804199218750e+01 2.152169466018676758e+00 -8.520051836967468262e-01 6.705585002899169922e+00 1.756074070930480957e+00 -9.808313250541687012e-01
5.603000000000000000e+03 6.433240509033203125e+01 4.818497657775878906e+00 -7.108416557312011719e-01 4.239841938018798828e+00 1.058700084686279297e+00 -1.856142401695251465e+00
5.604000000000000000e+03 6.928036499023437500e+01 1.412527275085449219e+01 2.248639613389968872e-01 5.196904659271240234e+00 1.626530528068542480e+00 -1.110543370246887207e+00
5.605000000000000000e+03 5.924217605590820312e+01 6.856235980987548828e+00 -5.208605527877807617e-02 2.211394309997558594e+00 6.477925181388854980e-01 -1.502788543701171875e+00
5.606000000000000000e+03 5.879415130615234375e+01 7.634513854980468750e+00 1.855299472808837891e-01 2.163312196731567383e+00 7.046526074409484863e-01 -1.418636441230773926e+00
5.607000000000000000e+03 6.046726226806640625e+01 6.589634895324707031e+00 -1.773456335067749023e-01 2.593550205230712891e+00 7.248613238334655762e-01 -1.653381586074829102e+00
5.608000000000000000e+03 5.763803100585937500e+01 7.472663402557373047e+00 2.123086601495742798e-01 1.834078431129455566e+00 6.139161586761474609e-01 -1.248952031135559082e+00
5.609000000000000000e+03 5.462563705444335938e+01 8.923955917358398438e+00 8.628556728363037109e-01 1.591434240341186523e+00 7.362869977951049805e-01 -5.940096974372863770e-01
5.610000000000000000e+03 6.713005828857421875e+01 1.964780044555664062e+01 5.506882667541503906e-01 4.717527866363525391e+00 1.580464839935302734e+00 -7.538808584213256836e-01
5.611000000000000000e+03 5.196118927001953125e+01 1.681979751586914062e+01 1.702155828475952148e+00 3.628216266632080078e+00 1.599111676216125488e+00 7.362041473388671875e-01
5.612000000000000000e+03 4.988362503051757812e+01 1.429161357879638672e+01 1.931827306747436523e+00 3.611449241638183594e+00 1.662982940673828125e+00 1.185745239257812500e+00
5.613000000000000000e+03 4.945605468750000000e+01 1.321592140197753906e+01 1.995629906654357910e+00 3.466685056686401367e+00 1.638694524765014648e+00 1.283860445022583008e+00
5.614000000000000000e+03 6.976522827148437500e+01 7.294872760772705078e+00 -3.728279769420623779e-01 5.917778968811035156e+00 1.663485288619995117e+00 -1.223638057708740234e+00
5.615000000000000000e+03 5.149861145019531250e+01 8.899768829345703125e+00 1.270211696624755859e+00 1.558303594589233398e+00 8.485545516014099121e-01 2.090745270252227783e-01
5.616000000000000000e+03 6.804126739501953125e+01 3.901165485382080078e+00 -8.160209655761718750e-01 5.921491622924804688e+00 1.531641244888305664e+00 -1.379038810729980469e+00
5.617000000000000000e+03 5.509744644165039062e+01 8.410584449768066406e+00 6.665810346603393555e-01 1.508841276168823242e+00 6.526266932487487793e-01 -7.268046140670776367e-01
5.618000000000000000e+03 5.191980361938476562e+01 2.034694862365722656e+01 1.369402766227722168e+00 4.208045005798339844e+00 1.673234224319458008e+00 7.045423388481140137e-01
5.619000000000000000e+03 5.018294525146484375e+01 1.240711212158203125e+01 1.978760480880737305e+00 2.946268796920776367e+00 1.477508783340454102e+00 1.041355490684509277e+00
5.620000000000000000e+03 2.767366027832031250e+01 -1.074841880798339844e+01 1.191581249237060547e+00 -4.756119549274444580e-01 2.147907763719558716e-01 5.048648715019226074e-01
5.621000000000000000e+03 6.737900543212890625e+01 2.093902015686035156e+01 5.337340831756591797e-01 4.766087055206298828e+00 1.589946389198303223e+00 -6.677680015563964844e-01
5.622000000000000000e+03 5.376370239257812500e+01 7.904437541961669922e+00 5.751735568046569824e-01 1.268494367599487305e+00 5.531003475189208984e-01 -5.144430994987487793e-01
5.623000000000000000e+03 6.862419891357421875e+01 1.501030254364013672e+01 3.182584941387176514e-01 5.019195556640625000e+00 1.601236224174499512e+00 -1.082791686058044434e+00
5.624000000000000000e+03 5.042064285278320312e+01 1.398678684234619141e+01 1.951344728469848633e+00 3.355287313461303711e+00 1.591989636421203613e+00 1.071443200111389160e+00
5.625000000000000000e+03 5.076314926147460938e+01 1.429397106170654297e+01 1.927850723266601562e+00 3.346884489059448242e+00 1.582420587539672852e+00 1.003230452537536621e+00
5.626000000000000000e+03 5.375292587280273438e+01 2.213848686218261719e+01 1.231691241264343262e+00 4.157752513885498047e+00 1.616833090782165527e+00 4.707320630550384521e-01
5.627000000000000000e+03 5.205397796630859375e+01 2.191152000427246094e+01 1.223332047462463379e+00 4.343647480010986328e+00 1.670093894004821777e+00 6.341189146041870117e-01
5.628000000000000000e+03 6.857553100585937500e+01 8.677934646606445312e+00 -2.248510867357254028e-01 5.433456897735595703e+00 1.562581658363342285e+00 -1.369602560997009277e+00
5.629000000000000000e+03 6.846920776367187500e+01 7.431512832641601562e+00 -3.675259649753570557e-01 5.541077613830566406e+00 1.552065491676330566e+00 -1.391796588897705078e+00
5.630000000000000000e+03 5.336965560913085938e+01 1.652589035034179688e+01 1.685956001281738281e+00 3.343419075012207031e+00 1.508812546730041504e+00 4.414486885070800781e-01
5.631000000000000000e+03 5.283381652832031250e+01 1.738377952575683594e+01 1.645886778831481934e+00 3.583822011947631836e+00 1.568912625312805176e+00 5.669267773628234863e-01
5.632000000000000000e+03 6.718084716796875000e+01 5.232790946960449219e+00 -6.732298135757446289e-01 5.411651134490966797e+00 1.421526432037353516e+00 -1.552251696586608887e+00
5.633000000000000000e+03 6.647120666503906250e+01 4.748237133026123047e+00 -7.526812553405761719e-01 5.207856178283691406e+00 1.336552500724792480e+00 -1.640946626663208008e+00
5.634000000000000000e+03 6.171146392822265625e+01 2.730149841308593750e+01 6.422322392463684082e-01 4.525319099426269531e+00 1.550265431404113770e+00 -5.648891627788543701e-02
5.635000000000000000e+03 6.744248962402343750e+01 2.495565795898437500e+01 4.598763287067413330e-01 4.846993446350097656e+00 1.592060923576354980e+00 -4.107144773006439209e-01
5.636000000000000000e+03 6.632382965087890625e+01 2.415933036804199219e+01 5.463032126426696777e-01 4.719382762908935547e+00 1.579705715179443359e+00 -4.320268034934997559e-01
5.637000000000000000e+03 6.421337127685546875e+01 2.454289054870605469e+01 6.562159657478332520e-01 4.544785022735595703e+00 1.560300350189208984e+00 -3.223631978034973145e-01
5.638000000000000000e+03 4.855066299438476562e+01 4.076855850219726562e+01 -4.350051879882812500e-01 4.475099563598632812e+00 1.212028384208679199e+00 5.991520732641220093e-02
5.639000000000000000e+03 6.005347824096679688e+01 7.389585971832275391e+00 3.997297957539558411e-02 2.517254114151000977e+00 7.671681642532348633e-01 -1.577390193939208984e+00
5.640000000000000000e+03 5.964469146728515625e+01 8.221302986145019531e+00 2.650983333587646484e-01 2.474892616271972656e+00 8.219972848892211914e-01 -1.462936520576477051e+00
5.641000000000000000e+03 5.038725662231445312e+01 8.895952224731445312e+00 1.432316422462463379e+00 1.738223075866699219e+00 9.511618614196777344e-01 5.591869354248046875e-01
5.642000000000000000e+03 6.706583404541015625e+01 9.917472839355468750e+00 -2.958935312926769257e-02 4.903913497924804688e+00 1.462297201156616211e+00 -1.454635024070739746e+00
5.643000000000000000e+03 6.816667938232421875e+01 9.408746719360351562e+00 -1.372596919536590576e-01 5.260208129882812500e+00 1.536884546279907227e+00 -1.387768030166625977e+00
5.644000000000000000e+03 5.187217712402343750e+01 1.221023082733154297e+01 1.815764784812927246e+00 2.496100187301635742e+00 1.293559551239013672e+00 5.041695237159729004e-01
5.645000000000000000e+03 5.357160949707031250e+01 8.450572013854980469e+00 8.342474699020385742e-01 1.399434328079223633e+00 6.701045036315917969e-01 -4.076076149940490723e-01
5.646000000000000000e+03 6.868197631835937500e+01 1.358070945739746094e+01 2.267479300498962402e-01 5.101908206939697266e+00 1.598596811294555664e+00 -1.166860342025756836e+00
5.647000000000000000e+03 6.871376800537109375e+01 2.531359434127807617e+00 -9.097425937652587891e-01 6.384963989257812500e+00 1.642566442489624023e+00 -1.183940172195434570e+00
5.648000000000000000e+03 6.366641998291015625e+01 6.340870380401611328e+00 -3.948535621166229248e-01 3.890263319015502930e+00 1.048622965812683105e+00 -1.819447994232177734e+00
5.649000000000000000e+03 6.898558044433593750e+01 5.527044296264648438e+00 -5.974273085594177246e-01 5.952258110046386719e+00 1.606449246406555176e+00 -1.288522005081176758e+00
5.650000000000000000e+03 6.593331909179687500e+01 4.189352035522460938e+00 -8.298155069351196289e-01 5.049745559692382812e+00 1.265979051589965820e+00 -1.705866932868957520e+00
5.651000000000000000e+03 6.483261871337890625e+01 5.933073520660400391e+00 -5.191025733947753906e-01 4.408771038055419922e+00 1.166900515556335449e+00 -1.780109405517578125e+00
5.652000000000000000e+03 5.005010604858398438e+01 1.322585296630859375e+01 1.989981174468994141e+00 3.258155584335327148e+00 1.574441075325012207e+00 1.132389903068542480e+00
5.653000000000000000e+03 5.149626159667968750e+01 1.336005401611328125e+01 1.895035505294799805e+00 2.864649295806884766e+00 1.427905440330505371e+00 6.940720081329345703e-01
5.654000000000000000e+03 5.606403350830078125e+01 8.489209175109863281e+00 6.055631637573242188e-01 1.688384652137756348e+00 6.881843209266662598e-01 -8.995888829231262207e-01
5.655000000000000000e+03 6.742138671875000000e+01 9.052057266235351562e+00 -1.466957330703735352e-01 5.057257175445556641e+00 1.473168492317199707e+00 -1.469342470169067383e+00
5.656000000000000000e+03 5.753916168212890625e+01 8.566115379333496094e+00 5.212984085083007812e-01 1.987278342247009277e+00 7.525730133056640625e-01 -1.158274888992309570e+00
5.657000000000000000e+03 5.696782302856445312e+01 8.777443885803222656e+00 5.859586596488952637e-01 1.932958960533142090e+00 7.556753158569335938e-01 -1.055907249450683594e+00
5.658000000000000000e+03 6.697454071044921875e+01 4.096151351928710938e+00 -8.313468694686889648e-01 5.509950160980224609e+00 1.403581023216247559e+00 -1.562956571578979492e+00
5.659000000000000000e+03 5.200418090820312500e+01 1.463643074035644531e+01 1.834311604499816895e+00 3.114695072174072266e+00 1.484701991081237793e+00 6.230887770652770996e-01
5.660000000000000000e+03 5.106580734252929688e+01 1.484155464172363281e+01 1.887264490127563477e+00 3.408013820648193359e+00 1.588583469390869141e+00 9.169904589653015137e-01
5.661000000000000000e+03 6.596329498291015625e+01 1.940797805786132812e+01 6.359698176383972168e-01 4.548347473144531250e+00 1.555295228958129883e+00 -7.511733174324035645e-01
5.662000000000000000e+03 6.607094573974609375e+01 1.652867126464843750e+01 5.730738043785095215e-01 4.507665157318115234e+00 1.524221658706665039e+00 -1.000716209411621094e+00
5.663000000000000000e+03 5.523489761352539062e+01 9.379832267761230469e+00 9.422252178192138672e-01 1.725377321243286133e+00 8.002807497978210449e-01 -6.674916744232177734e-01
5.664000000000000000e+03 5.415790939331054688e+01 8.382020950317382812e+00 7.537835836410522461e-01 1.426691412925720215e+00 6.541424989700317383e-01 -5.298502445220947266e-01
5.665000000000000000e+03 5.205197525024414062e+01 1.301891517639160156e+01 1.837501049041748047e+00 2.695165634155273438e+00 1.359799981117248535e+00 5.288398861885070801e-01
5.666000000000000000e+03 6.127021408081054688e+01 7.045665264129638672e+00 -1.156866773962974548e-01 2.928217649459838867e+00 8.437592983245849609e-01 -1.713114976882934570e+00
5.667000000000000000e+03 5.319175338745117188e+01 1.503623008728027344e+01 1.754335284233093262e+00 3.061766862869262695e+00 1.444830656051635742e+00 4.009294807910919189e-01
5.668000000000000000e+03 5.122171020507812500e+01 1.206401729583740234e+01 1.867442011833190918e+00 2.591569185256958008e+00 1.337703347206115723e+00 6.867242455482482910e-01
5.669000000000000000e+03 6.911163330078125000e+01 6.742929935455322266e+00 -4.530723392963409424e-01 5.820340633392333984e+00 1.610180497169494629e+00 -1.298642754554748535e+00
5.670000000000000000e+03 6.850133514404296875e+01 6.202237606048583984e+00 -5.198002457618713379e-01 5.716151237487792969e+00 1.558905243873596191e+00 -1.369240164756774902e+00
5.671000000000000000e+03 5.390356826782226562e+01 1.949800109863281250e+01 1.458296298980712891e+00 3.805708646774291992e+00 1.579201459884643555e+00 4.350717663764953613e-01
5.672000000000000000e+03 5.180707550048828125e+01 1.893409538269042969e+01 1.508202433586120605e+00 4.042488098144531250e+00 1.665207266807556152e+00 7.621115446090698242e-01
5.673000000000000000e+03 6.914640808105468750e+01 8.005927085876464844e+00 -3.011558949947357178e-01 5.660355567932128906e+00 1.607759952545166016e+00 -1.302752137184143066e+00
5.674000000000000000e+03 6.786917877197265625e+01 5.697761535644531250e+00 -6.014343500137329102e-01 5.570966720581054688e+00 1.490859746932983398e+00 -1.459646821022033691e+00
5.675000000000000000e+03 6.448260498046875000e+01 6.729836940765380859e+00 -3.702750205993652344e-01 4.209644794464111328e+00 1.151810884475708008e+00 -1.767162799835205078e+00
5.676000000000000000e+03 6.536082458496093750e+01 9.089544296264648438e+00 -3.132903575897216797e-02 4.440937519073486328e+00 1.322882413864135742e+00 -1.579260349273681641e+00
5.677000000000000000e+03 5.275473403930664062e+01 2.121604347229003906e+01 1.304251909255981445e+00 4.169594764709472656e+00 1.642153978347778320e+00 5.860821008682250977e-01
5.678000000000000000e+03 5.253716278076171875e+01 1.964605331420898438e+01 1.449475288391113281e+00 4.006505012512207031e+00 1.636794090270996094e+00 6.381231546401977539e-01
5.679000000000000000e+03 6.803981018066406250e+01 1.167948913574218750e+01 1.089159548282623291e-01 5.053744792938232422e+00 1.548798203468322754e+00 -1.305190801620483398e+00
5.680000000000000000e+03 6.735262298583984375e+01 1.368629932403564453e+01 3.202438652515411377e-01 4.790378093719482422e+00 1.533186674118041992e+00 -1.221180438995361328e+00
5.681000000000000000e+03 6.795092773437500000e+01 1.440303134918212891e+01 3.269715309143066406e-01 4.901702404022216797e+00 1.568602204322814941e+00 -1.142536044120788574e+00
5.682000000000000000e+03 6.776177215576171875e+01 1.718955421447753906e+01 4.659194350242614746e-01 4.811319351196289062e+00 1.583171606063842773e+00 -9.432193636894226074e-01
5.683000000000000000e+03 5.499825668334960938e+01 2.309964752197265625e+01 1.137787580490112305e+00 4.152066230773925781e+00 1.586956143379211426e+00 3.396173715591430664e-01
5.684000000000000000e+03 6.520975494384765625e+01 2.081317138671875000e+01 6.879145503044128418e-01 4.489468574523925781e+00 1.553214907646179199e+00 -6.241744756698608398e-01
5.685000000000000000e+03 6.626614379882812500e+01 2.186149406433105469e+01 5.981611013412475586e-01 4.649858474731445312e+00 1.574405908584594727e+00 -5.789864659309387207e-01
5.686000000000000000e+03 6.689763641357421875e+01 1.692247772216796875e+01 5.218221545219421387e-01 4.663414001464843750e+00 1.555570840835571289e+00 -9.674428701400756836e-01
5.687000000000000000e+03 5.786533355712890625e+01 2.344913864135742188e+01 1.036280632019042969e+00 4.134322643280029297e+00 1.551180958747863770e+00 8.330303430557250977e-02
5.688000000000000000e+03 5.747074127197265625e+01 2.739084625244140625e+01 7.506427168846130371e-01 4.428088665008544922e+00 1.553619384765625000e+00 2.137543857097625732e-01
5.689000000000000000e+03 6.476979827880859375e+01 3.053203201293945312e+01 3.650333881378173828e-01 4.821901321411132812e+00 1.556080460548400879e+00 -8.529607951641082764e-02
5.690000000000000000e+03 6.435277557373046875e+01 2.723231124877929688e+01 5.323247909545898438e-01 4.676903724670410156e+00 1.562768459320068359e+00 -1.921126544475555420e-01
5.691000000000000000e+03 6.306177139282226562e+01 2.594483947753906250e+01 6.571632623672485352e-01 4.523725032806396484e+00 1.554266571998596191e+00 -1.900324076414108276e-01
5.692000000000000000e+03 5.646652984619140625e+01 2.358480453491210938e+01 1.074132323265075684e+00 4.149786472320556641e+00 1.567175626754760742e+00 2.115066796541213989e-01
5.693000000000000000e+03 2.483039665222167969e+01 -4.024770736694335938e+01 -2.682771980762481689e-01 6.642508506774902344e-01 1.187920868396759033e-01 1.152783408761024475e-01
5.694000000000000000e+03 2.622841644287109375e+01 -3.838240814208984375e+01 -3.564465939998626709e-01 9.516129493713378906e-01 1.785499155521392822e-01 3.140379190444946289e-01
5.695000000000000000e+03 5.367451477050781250e+01 3.812590408325195312e+01 -1.356001198291778564e-01 4.786055088043212891e+00 1.395136475563049316e+00 1.934786885976791382e-01
5.696000000000000000e+03 6.780864715576171875e+01 3.776441192626953125e+01 9.468453377485275269e-02 5.068293094635009766e+00 1.548893213272094727e+00 -2.480782009661197662e-02
5.697000000000000000e+03 6.302903366088867188e+01 3.276066589355468750e+01 3.027022182941436768e-01 4.820512771606445312e+00 1.536964416503906250e+00 1.621838286519050598e-02
5.698000000000000000e+03 5.254244613647460938e+01 1.204666137695312500e+01 1.741568207740783691e+00 2.375710010528564453e+00 1.235183477401733398e+00 2.991206049919128418e-01
5.699000000000000000e+03 6.762561035156250000e+01 4.569685935974121094e+00 -7.598525881767272949e-01 5.660604953765869141e+00 1.470225811004638672e+00 -1.473090052604675293e+00
5.700000000000000000e+03 6.247281265258789062e+01 6.694222927093505859e+00 -2.580130100250244141e-01 3.382267475128173828e+00 9.372763037681579590e-01 -1.794965863227844238e+00
5.701000000000000000e+03 6.599965667724609375e+01 5.488360404968261719e+00 -6.329955458641052246e-01 4.931727886199951172e+00 1.289619684219360352e+00 -1.692513942718505859e+00
5.702000000000000000e+03 6.616655731201171875e+01 9.567175865173339844e+00 -2.247117459774017334e-02 4.665583610534667969e+00 1.392933726310729980e+00 -1.523174285888671875e+00
5.703000000000000000e+03 6.613464355468750000e+01 7.467599391937255859e+00 -3.288882970809936523e-01 4.785186767578125000e+00 1.336889624595642090e+00 -1.633234500885009766e+00
5.704000000000000000e+03 6.805431365966796875e+01 1.296648502349853516e+01 2.197182923555374146e-01 4.989264011383056641e+00 1.562694668769836426e+00 -1.227438807487487793e+00
5.705000000000000000e+03 5.653751373291015625e+01 9.088420867919921875e+00 7.497979998588562012e-01 1.890655279159545898e+00 7.921360135078430176e-01 -9.333190321922302246e-01
5.706000000000000000e+03 5.232349777221679688e+01 1.377334213256835938e+01 1.857337117195129395e+00 2.854567766189575195e+00 1.413571476936340332e+00 5.395694971084594727e-01
5.707000000000000000e+03 6.208978271484375000e+01 7.475734233856201172e+00 -8.670290559530258179e-02 3.257508993148803711e+00 9.512418508529663086e-01 -1.734467864036560059e+00
5.708000000000000000e+03 5.149639892578125000e+01 1.434832191467285156e+01 1.867613673210144043e+00 3.156002759933471680e+00 1.507084965705871582e+00 7.543953061103820801e-01
5.709000000000000000e+03 5.263369750976562500e+01 1.440042972564697266e+01 1.820157289505004883e+00 2.968673229217529297e+00 1.436649203300476074e+00 4.893550574779510498e-01
5.710000000000000000e+03 5.062380981445312500e+01 1.345706844329833984e+01 1.962568998336791992e+00 3.132498264312744141e+00 1.528520226478576660e+00 9.890941381454467773e-01
5.711000000000000000e+03 5.614809417724609375e+01 9.534417152404785156e+00 8.869742155075073242e-01 1.885298490524291992e+00 8.316817879676818848e-01 -8.291370272636413574e-01
5.712000000000000000e+03 6.410685729980468750e+01 1.989653015136718750e+01 7.869226336479187012e-01 4.299791812896728516e+00 1.526014328002929688e+00 -6.465802192687988281e-01
5.713000000000000000e+03 5.091873550415039062e+01 1.279507637023925781e+01 1.921810507774353027e+00 2.845499515533447266e+00 1.430193066596984863e+00 8.279625177383422852e-01
5.714000000000000000e+03 5.408106994628906250e+01 1.031863117218017578e+01 1.283592820167541504e+00 1.863055825233459473e+00 9.439946413040161133e-01 -3.048530220985412598e-01
5.715000000000000000e+03 5.426259231567382812e+01 1.711855888366699219e+01 1.611515045166015625e+00 3.377784967422485352e+00 1.496790051460266113e+00 2.866933643817901611e-01
5.716000000000000000e+03 5.588112640380859375e+01 1.942938423156738281e+01 1.400016546249389648e+00 3.672298669815063477e+00 1.521694540977478027e+00 1.351463198661804199e-01
5.717000000000000000e+03 6.702007293701171875e+01 7.797552108764648438e+00 -3.051299452781677246e-01 5.071150302886962891e+00 1.429806113243103027e+00 -1.542475819587707520e+00
5.718000000000000000e+03 6.786596679687500000e+01 8.195751190185546875e+00 -2.753807008266448975e-01 5.287597179412841797e+00 1.503664970397949219e+00 -1.447997808456420898e+00
5.719000000000000000e+03 5.477346038818359375e+01 2.008076286315917969e+01 1.400454401969909668e+00 3.809134960174560547e+00 1.562876820564270020e+00 3.203564584255218506e-01
5.720000000000000000e+03 5.336522293090820312e+01 2.039201736450195312e+01 1.387041211128234863e+00 3.996704101562500000e+00 1.615123629570007324e+00 5.222225189208984375e-01
5.721000000000000000e+03 5.310201263427734375e+01 1.884546470642089844e+01 1.525883793830871582e+00 3.805086612701416016e+00 1.599291205406188965e+00 5.526360273361206055e-01
5.722000000000000000e+03 6.794328308105468750e+01 6.812764167785644531e+00 -4.523465037345886230e-01 5.460658073425292969e+00 1.502493500709533691e+00 -1.452356338500976562e+00
5.723000000000000000e+03 6.744564056396484375e+01 6.307007789611816406e+00 -5.284091234207153320e-01 5.369176864624023438e+00 1.452230334281921387e+00 -1.523487210273742676e+00
5.724000000000000000e+03 5.342084503173828125e+01 9.181565284729003906e+00 1.069169163703918457e+00 1.558637142181396484e+00 7.883418798446655273e-01 -2.877383530139923096e-01
5.725000000000000000e+03 5.426020050048828125e+01 9.555115699768066406e+00 1.097607135772705078e+00 1.696670770645141602e+00 8.382833600044250488e-01 -4.371205568313598633e-01
5.726000000000000000e+03 5.545441436767578125e+01 2.169937324523925781e+01 1.255606055259704590e+00 3.971316814422607422e+00 1.568076848983764648e+00 2.615554034709930420e-01
5.727000000000000000e+03 5.433166122436523438e+01 2.111331367492675781e+01 1.314143896102905273e+00 3.982508420944213867e+00 1.588995695114135742e+00 3.943388164043426514e-01
5.728000000000000000e+03 6.564212799072265625e+01 6.299952983856201172e+00 -4.912604093551635742e-01 4.696454048156738281e+00 1.261558055877685547e+00 -1.710295200347900391e+00
5.729000000000000000e+03 5.783714675903320312e+01 9.520394325256347656e+00 7.022773623466491699e-01 2.189363956451416016e+00 8.674924373626708984e-01 -1.100364446640014648e+00
5.730000000000000000e+03 5.820811843872070312e+01 8.236227035522460938e+00 3.645047247409820557e-01 2.082958936691284180e+00 7.342391014099121094e-01 -1.277233839035034180e+00
5.731000000000000000e+03 5.514069747924804688e+01 1.918360137939453125e+01 1.453540921211242676e+00 3.652323246002197266e+00 1.531759262084960938e+00 2.401618659496307373e-01
5.732000000000000000e+03 6.418799591064453125e+01 2.211447715759277344e+01 7.390177249908447266e-01 4.425422191619873047e+00 1.549331903457641602e+00 -4.743595123291015625e-01
5.733000000000000000e+03 6.657057189941406250e+01 1.564380550384521484e+01 5.004913210868835449e-01 4.583004951477050781e+00 1.525048851966857910e+00 -1.071304678916931152e+00
5.734000000000000000e+03 6.728411865234375000e+01 1.588805866241455078e+01 4.474873840808868408e-01 4.746520042419433594e+00 1.558202266693115234e+00 -1.052268147468566895e+00
5.735000000000000000e+03 5.667016983032226562e+01 2.201072502136230469e+01 1.206877470016479492e+00 3.961299896240234375e+00 1.550453186035156250e+00 1.424235999584197998e-01
5.736000000000000000e+03 5.830212783813476562e+01 2.945209503173828125e+01 5.802615880966186523e-01 4.553965568542480469e+00 1.540268182754516602e+00 1.872672885656356812e-01
5.737000000000000000e+03 5.680931472778320312e+01 3.249795532226562500e+01 3.448583483695983887e-01 4.689663410186767578e+00 1.510356545448303223e+00 2.612052261829376221e-01
5.738000000000000000e+03 5.894818115234375000e+01 2.278324890136718750e+01 1.043587565422058105e+00 4.075175762176513672e+00 1.535628914833068848e+00 -5.369968339800834656e-02
5.739000000000000000e+03 5.673419189453125000e+01 2.542312812805175781e+01 9.299748539924621582e-01 4.292826652526855469e+00 1.566840529441833496e+00 2.315497547388076782e-01
5.740000000000000000e+03 6.329442977905273438e+01 7.121980667114257812e+00 -2.309445589780807495e-01 3.727609872817993164e+00 1.048999667167663574e+00 -1.768838763236999512e+00
5.741000000000000000e+03 5.175366592407226562e+01 1.025912952423095703e+01 1.574631929397583008e+00 1.937026381492614746e+00 1.053497552871704102e+00 3.066394925117492676e-01
5.742000000000000000e+03 5.226923751831054688e+01 9.555031776428222656e+00 1.336163043975830078e+00 1.686472892761230469e+00 9.067907929420471191e-01 7.205063849687576294e-02
5.743000000000000000e+03 6.411576843261718750e+01 7.535244941711425781e+00 -2.063159048557281494e-01 4.047162055969238281e+00 1.152253866195678711e+00 -1.741343617439270020e+00
5.744000000000000000e+03 5.400876998901367188e+01 1.301071262359619141e+01 1.651853561401367188e+00 2.522601366043090820e+00 1.252336502075195312e+00 2.902336604893207550e-02
5.745000000000000000e+03 5.285890579223632812e+01 1.370536613464355469e+01 1.778966188430786133e+00 2.805836439132690430e+00 1.375440835952758789e+00 3.745656907558441162e-01
5.746000000000000000e+03 6.674254608154296875e+01 1.304804515838623047e+01 3.187587857246398926e-01 4.653648376464843750e+00 1.491722226142883301e+00 -1.275170326232910156e+00
5.747000000000000000e+03 6.737689971923828125e+01 1.230213451385498047e+01 2.004752755165100098e-01 4.857678890228271484e+00 1.517446279525756836e+00 -1.315132856369018555e+00
5.748000000000000000e+03 6.676268768310546875e+01 5.924991130828857422e+00 -5.783554315567016602e-01 5.195837974548339844e+00 1.385244846343994141e+00 -1.592600703239440918e+00
5.749000000000000000e+03 6.643477630615234375e+01 6.673860549926757812e+00 -4.457611739635467529e-01 4.966047763824462891e+00 1.356085896492004395e+00 -1.624905824661254883e+00
5.750000000000000000e+03 5.269536590576171875e+01 1.288602924346923828e+01 1.767559647560119629e+00 2.558263778686523438e+00 1.297747015953063965e+00 3.253618776798248291e-01
5.751000000000000000e+03 5.863126754760742188e+01 9.226593971252441406e+00 5.714724063873291016e-01 2.335011243820190430e+00 8.719450831413269043e-01 -1.268782734870910645e+00
5.752000000000000000e+03 5.944239425659179688e+01 9.106803894042968750e+00 4.581001996994018555e-01 2.517097234725952148e+00 8.925592303276062012e-01 -1.373018383979797363e+00
5.753000000000000000e+03 5.163702392578125000e+01 1.149357223510742188e+01 1.798875212669372559e+00 2.313041925430297852e+00 1.233575105667114258e+00 5.081657767295837402e-01
5.754000000000000000e+03 5.230050277709960938e+01 1.112581634521484375e+01 1.663445234298706055e+00 2.124569416046142578e+00 1.136404395103454590e+00 2.601404786109924316e-01
5.755000000000000000e+03 6.577809143066406250e+01 8.285429954528808594e+00 -1.777048259973526001e-01 4.625850677490234375e+00 1.334443688392639160e+00 -1.609887599945068359e+00
5.756000000000000000e+03 6.660997772216796875e+01 8.677826881408691406e+00 -1.638880074024200439e-01 4.860971927642822266e+00 1.409125089645385742e+00 -1.543709516525268555e+00
5.757000000000000000e+03 6.089027786254882812e+01 7.860557556152343750e+00 8.528276532888412476e-02 2.866344928741455078e+00 8.854883313179016113e-01 -1.613037705421447754e+00
5.758000000000000000e+03 6.019886016845703125e+01 9.435053825378417969e+00 4.403464198112487793e-01 2.769663810729980469e+00 9.630030393600463867e-01 -1.436541080474853516e+00
5.759000000000000000e+03 5.710194015502929688e+01 9.510984420776367188e+00 8.001739978790283203e-01 2.063647270202636719e+00 8.591463565826416016e-01 -1.000858664512634277e+00
5.760000000000000000e+03 5.391802215576171875e+01 1.570635128021240234e+01 1.691580891609191895e+00 3.146465778350830078e+00 1.451413989067077637e+00 2.942183613777160645e-01
5.761000000000000000e+03 6.530128479003906250e+01 7.102493762969970703e+00 -3.413936793804168701e-01 4.512613296508789062e+00 1.251365900039672852e+00 -1.702512145042419434e+00
5.762000000000000000e+03 6.723295593261718750e+01 6.976301193237304688e+00 -4.192774295806884766e-01 5.224081039428710938e+00 1.441441059112548828e+00 -1.526705861091613770e+00
5.763000000000000000e+03 6.551750183105468750e+01 1.756997108459472656e+01 6.488453149795532227e-01 4.432591915130615234e+00 1.524431109428405762e+00 -8.935382962226867676e-01
5.764000000000000000e+03 6.252744293212890625e+01 8.629355430603027344e+00 8.830013126134872437e-02 3.449976444244384766e+00 1.061483025550842285e+00 -1.654755711555480957e+00
5.765000000000000000e+03 5.489539337158203125e+01 1.055879211425781250e+01 1.235114097595214844e+00 1.952347159385681152e+00 9.562383890151977539e-01 -4.671810865402221680e-01
5.766000000000000000e+03 6.658084869384765625e+01 1.178466796875000000e+01 2.025461941957473755e-01 4.667441368103027344e+00 1.460996270179748535e+00 -1.375362396240234375e+00
5.767000000000000000e+03 6.394253158569335938e+01 1.791217994689941406e+01 7.965101003646850586e-01 4.178890228271484375e+00 1.492620110511779785e+00 -8.063983917236328125e-01
5.768000000000000000e+03 6.311407089233398438e+01 2.337219810485839844e+01 7.687092423439025879e-01 4.388097763061523438e+00 1.547042131423950195e+00 -3.353390097618103027e-01
5.769000000000000000e+03 6.209364700317382812e+01 2.215567970275878906e+01 8.849416971206665039e-01 4.223222255706787109e+00 1.532449126243591309e+00 -3.447678983211517334e-01
5.770000000000000000e+03 5.682581329345703125e+01 2.063398551940917969e+01 1.282361865043640137e+00 3.819482803344726562e+00 1.530553340911865234e+00 7.424855977296829224e-02
5.771000000000000000e+03 6.604378509521484375e+01 1.375525569915771484e+01 4.263014793395996094e-01 4.502942085266113281e+00 1.478772997856140137e+00 -1.220681905746459961e+00
5.772000000000000000e+03 6.194061279296875000e+01 2.458020973205566406e+01 7.815896868705749512e-01 4.376096725463867188e+00 1.547305941581726074e+00 -1.931983232498168945e-01
5.773000000000000000e+03 5.575047683715820312e+01 2.047145271301269531e+01 1.342449784278869629e+00 3.804101705551147461e+00 1.543965458869934082e+00 1.964519321918487549e-01
5.774000000000000000e+03 6.012719345092773438e+01 2.849644660949707031e+01 6.133487224578857422e-01 4.531776428222656250e+00 1.543537616729736328e+00 7.280867546796798706e-02
5.775000000000000000e+03 6.000589370727539062e+01 2.181116104125976562e+01 1.036760091781616211e+00 4.043172836303710938e+00 1.523979902267456055e+00 -1.987805068492889404e-01
5.776000000000000000e+03 6.053973007202148438e+01 8.682595252990722656e+00 2.968026995658874512e-01 2.820238828659057617e+00 9.351124763488769531e-01 -1.517171382904052734e+00
5.777000000000000000e+03 5.317496109008789062e+01 1.003975963592529297e+01 1.353559732437133789e+00 1.802039384841918945e+00 9.466797113418579102e-01 -1.103469133377075195e-01
5.778000000000000000e+03 5.392730712890625000e+01 1.430422019958496094e+01 1.722535133361816406e+00 2.815279722213745117e+00 1.361344456672668457e+00 1.883425861597061157e-01
5.779000000000000000e+03 5.348582839965820312e+01 1.356988811492919922e+01 1.736576795578002930e+00 2.694717407226562500e+00 1.329388260841369629e+00 2.090068906545639038e-01
5.780000000000000000e+03 5.588024902343750000e+01 1.189753627777099609e+01 1.328468084335327148e+00 2.316612005233764648e+00 1.093523979187011719e+00 -5.148970484733581543e-01
5.781000000000000000e+03 5.566683578491210938e+01 9.917065620422363281e+00 1.014393806457519531e+00 1.911782622337341309e+00 8.778529167175292969e-01 -6.945607662200927734e-01
5.782000000000000000e+03 6.680448150634765625e+01 1.085945892333984375e+01 9.115197509527206421e-02 4.781100749969482422e+00 1.461675882339477539e+00 -1.424884080886840820e+00
5.783000000000000000e+03 5.485324478149414062e+01 1.125331306457519531e+01 1.367296457290649414e+00 2.115985631942749023e+00 1.044984579086303711e+00 -3.624019026756286621e-01
5.784000000000000000e+03 6.614445495605468750e+01 1.249704933166503906e+01 3.218151032924652100e-01 4.545876502990722656e+00 1.460307478904724121e+00 -1.314681172370910645e+00
5.785000000000000000e+03 6.663414764404296875e+01 1.437680339813232422e+01 4.202773869037628174e-01 4.621828079223632812e+00 1.512631654739379883e+00 -1.170752763748168945e+00
5.786000000000000000e+03 5.328604888916015625e+01 1.199900245666503906e+01 1.680085659027099609e+00 2.312009811401367188e+00 1.197628617286682129e+00 1.218558475375175476e-01
5.787000000000000000e+03 5.405274963378906250e+01 1.116907215118408203e+01 1.443959593772888184e+00 2.062350034713745117e+00 1.051892876625061035e+00 -2.051015794277191162e-01
5.788000000000000000e+03 5.969056701660156250e+01 9.940719604492187500e+00 6.168997883796691895e-01 2.682529449462890625e+00 9.898287653923034668e-01 -1.313589453697204590e+00
5.789000000000000000e+03 5.897798538208007812e+01 1.027218341827392578e+01 7.297381162643432617e-01 2.575762510299682617e+00 9.916502237319946289e-01 -1.194074749946594238e+00
5.790000000000000000e+03 5.549065017700195312e+01 1.104988288879394531e+01 1.251744747161865234e+00 2.110439062118530273e+00 1.008655071258544922e+00 -5.388755798339843750e-01
5.791000000000000000e+03 6.595258331298828125e+01 1.511490154266357422e+01 5.237207412719726562e-01 4.473754405975341797e+00 1.499242544174194336e+00 -1.109558463096618652e+00
5.792000000000000000e+03 6.262681579589843750e+01 1.037232303619384766e+01 3.726125359535217285e-01 3.535509824752807617e+00 1.172436714172363281e+00 -1.498793244361877441e+00
5.793000000000000000e+03 5.593182373046875000e+01 1.721202850341796875e+01 1.512160897254943848e+00 3.316954135894775391e+00 1.448734521865844727e+00 5.432052537798881531e-03
5.794000000000000000e+03 6.532151031494140625e+01 1.116806602478027344e+01 2.388445287942886353e-01 4.349964141845703125e+00 1.376642584800720215e+00 -1.443934917449951172e+00
5.795000000000000000e+03 6.313318252563476562e+01 1.893136787414550781e+01 8.750909566879272461e-01 4.115596771240234375e+00 1.497206330299377441e+00 -6.730195283889770508e-01
5.796000000000000000e+03 6.465300750732421875e+01 1.690988922119140625e+01 7.124683260917663574e-01 4.255635738372802734e+00 1.490431189537048340e+00 -9.269265532493591309e-01
5.797000000000000000e+03 6.530862426757812500e+01 1.596885967254638672e+01 6.154847145080566406e-01 4.352639675140380859e+00 1.490437388420104980e+00 -1.030431270599365234e+00
5.798000000000000000e+03 6.532681274414062500e+01 1.449071884155273438e+01 5.355773568153381348e-01 4.339211940765380859e+00 1.462436676025390625e+00 -1.162377357482910156e+00
5.799000000000000000e+03 5.675864410400390625e+01 1.936809539794921875e+01 1.355265974998474121e+00 3.659527063369750977e+00 1.504437923431396484e+00 1.467324513942003250e-02
5.800000000000000000e+03 6.315708541870117188e+01 2.104594039916992188e+01 8.421680927276611328e-01 4.253337860107421875e+00 1.528651833534240723e+00 -5.025015473365783691e-01
5.801000000000000000e+03 6.227832794189453125e+01 1.791784095764160156e+01 9.489758014678955078e-01 3.929983615875244141e+00 1.463687777519226074e+00 -7.044979929924011230e-01
5.802000000000000000e+03 6.095484542846679688e+01 2.319945335388183594e+01 9.051432609558105469e-01 4.217597484588623047e+00 1.536822319030761719e+00 -1.986203640699386597e-01
5.803000000000000000e+03 6.062461853027343750e+01 2.569350051879882812e+01 7.843760251998901367e-01 4.371604919433593750e+00 1.546794295310974121e+00 -5.377754941582679749e-02
5.804000000000000000e+03 5.912911987304687500e+01 2.664359092712402344e+01 7.784717679023742676e-01 4.390330314636230469e+00 1.550640702247619629e+00 8.378683030605316162e-02
5.805000000000000000e+03 5.566154479980468750e+01 1.859086990356445312e+01 1.460628271102905273e+00 3.547820329666137695e+00 1.502534508705139160e+00 1.233921498060226440e-01
5.806000000000000000e+03 6.488861846923828125e+01 1.872043800354003906e+01 7.238860726356506348e-01 4.358280181884765625e+00 1.524649858474731445e+00 -7.748962640762329102e-01
5.807000000000000000e+03 5.792162704467773438e+01 2.211067581176757812e+01 1.133323431015014648e+00 3.994503498077392578e+00 1.538348078727722168e+00 1.119109615683555603e-02
5.808000000000000000e+03 5.924942779541015625e+01 3.173270988464355469e+01 3.990403711795806885e-01 4.680670738220214844e+00 1.523913264274597168e+00 1.601174026727676392e-01
5.809000000000000000e+03 5.802481460571289062e+01 2.065559005737304688e+01 1.216868281364440918e+00 3.837891101837158203e+00 1.516427874565124512e+00 -6.723771244287490845e-02
5.810000000000000000e+03 6.036447143554687500e+01 3.431107711791992188e+01 2.374967187643051147e-01 4.813049793243408203e+00 1.515164017677307129e+00 1.145299524068832397e-01
5.811000000000000000e+03 5.726736068725585938e+01 3.514847946166992188e+01 1.508519649505615234e-01 4.787773132324218750e+00 1.481587529182434082e+00 2.118031233549118042e-01
5.812000000000000000e+03 6.494494628906250000e+01 7.908973217010498047e+00 -1.955265253782272339e-01 4.318716049194335938e+00 1.236956954002380371e+00 -1.681813716888427734e+00
5.813000000000000000e+03 6.457778930664062500e+01 8.732288360595703125e+00 -3.342312574386596680e-02 4.161695480346679688e+00 1.238481640815734863e+00 -1.648784756660461426e+00
5.814000000000000000e+03 5.610733413696289062e+01 1.064915466308593750e+01 1.117277622222900391e+00 2.109169960021972656e+00 9.679343104362487793e-01 -6.896675229072570801e-01
5.815000000000000000e+03 5.675379562377929688e+01 1.018283176422119141e+01 9.436950683593750000e-01 2.112107276916503906e+00 9.167406558990478516e-01 -8.797502517700195312e-01
5.816000000000000000e+03 5.314623260498046875e+01 1.102190780639648438e+01 1.532377839088439941e+00 2.048388481140136719e+00 1.074229955673217773e+00 2.622644230723381042e-02
5.817000000000000000e+03 5.512853240966796875e+01 1.442234325408935547e+01 1.622928023338317871e+00 2.769940853118896484e+00 1.317860722541809082e+00 -7.279106229543685913e-02
5.818000000000000000e+03 6.173002624511718750e+01 8.289378166198730469e+00 1.045044958591461182e-01 3.187736272811889648e+00 9.876722097396850586e-01 -1.654500961303710938e+00
5.819000000000000000e+03 6.462782287597656250e+01 9.572878837585449219e+00 8.626161515712738037e-02 4.168882369995117188e+00 1.276543259620666504e+00 -1.586418867111206055e+00
5.820000000000000000e+03 6.235560607910156250e+01 9.428120613098144531e+00 2.659375369548797607e-01 3.430826425552368164e+00 1.109029173851013184e+00 -1.566096425056457520e+00
5.821000000000000000e+03 5.451196670532226562e+01 1.499777221679687500e+01 1.663010835647583008e+00 2.920929193496704102e+00 1.375182032585144043e+00 9.714490920305252075e-02
5.822000000000000000e+03 5.817838668823242188e+01 1.060976314544677734e+01 8.856472969055175781e-01 2.427101135253906250e+00 9.938245415687561035e-01 -1.057382464408874512e+00
5.823000000000000000e+03 5.333371734619140625e+01 1.282490444183349609e+01 1.707321047782897949e+00 2.493924140930175781e+00 1.260373592376708984e+00 1.823111921548843384e-01
5.824000000000000000e+03 5.504846572875976562e+01 1.215285110473632812e+01 1.470335960388183594e+00 2.312397956848144531e+00 1.134820222854614258e+00 -3.007246553897857666e-01
5.825000000000000000e+03 5.414473724365234375e+01 1.213161182403564453e+01 1.571079254150390625e+00 2.309664487838745117e+00 1.164223074913024902e+00 -9.842654317617416382e-02
5.826000000000000000e+03 5.738346862792968750e+01 1.104675197601318359e+01 1.031095862388610840e+00 2.349250316619873047e+00 1.014103889465332031e+00 -8.760060667991638184e-01
5.827000000000000000e+03 5.511430740356445312e+01 1.557952594757080078e+01 1.615780591964721680e+00 3.029298782348632812e+00 1.393523812294006348e+00 2.662573382258415222e-02
5.828000000000000000e+03 5.469974899291992188e+01 1.626253509521484375e+01 1.619326591491699219e+00 3.191840410232543945e+00 1.443350076675415039e+00 1.592093408107757568e-01
5.829000000000000000e+03 6.236944580078125000e+01 1.608006095886230469e+01 9.034987688064575195e-01 3.811207532882690430e+00 1.414411902427673340e+00 -8.902045488357543945e-01
5.830000000000000000e+03 6.317528152465820312e+01 9.110494613647460938e+00 1.323644965887069702e-01 3.729621171951293945e+00 1.158595681190490723e+00 -1.619848489761352539e+00
5.831000000000000000e+03 6.310708236694335938e+01 1.702273750305175781e+01 8.607300519943237305e-01 3.995060443878173828e+00 1.456737160682678223e+00 -8.447611927986145020e-01
5.832000000000000000e+03 5.644229888916015625e+01 1.823760604858398438e+01 1.434450984001159668e+00 3.491408586502075195e+00 1.477757811546325684e+00 -1.050414331257343292e-02
5.833000000000000000e+03 6.115813827514648438e+01 2.090242385864257812e+01 9.992882013320922852e-01 4.040505886077880859e+00 1.511938214302062988e+00 -3.670130372047424316e-01
5.834000000000000000e+03 5.973921966552734375e+01 2.416453552246093750e+01 9.170003533363342285e-01 4.227472305297851562e+00 1.543341755867004395e+00 -6.187408417463302612e-02
5.835000000000000000e+03 5.553105163574218750e+01 1.627194213867187500e+01 1.566554069519042969e+00 3.183747768402099609e+00 1.425090551376342773e+00 1.525506097823381424e-02
5.836000000000000000e+03 5.822375488281250000e+01 1.751477432250976562e+01 1.324467062950134277e+00 3.444219112396240234e+00 1.430605769157409668e+00 -3.189151585102081299e-01
5.837000000000000000e+03 6.220291137695312500e+01 1.993664169311523438e+01 9.411670565605163574e-01 4.070958614349365234e+00 1.503637671470642090e+00 -5.230645537376403809e-01
5.838000000000000000e+03 5.970183563232421875e+01 1.829390335083007812e+01 1.184505820274353027e+00 3.661977529525756836e+00 1.453945040702819824e+00 -4.265569448471069336e-01
5.839000000000000000e+03 5.773408889770507812e+01 1.918325424194335938e+01 1.308393597602844238e+00 3.646194219589233398e+00 1.486376285552978516e+00 -1.301512569189071655e-01
5.840000000000000000e+03 5.835365676879882812e+01 2.493868827819824219e+01 9.249787926673889160e-01 4.245397090911865234e+00 1.551112651824951172e+00 8.734394609928131104e-02
5.841000000000000000e+03 5.463537597656250000e+01 1.363975811004638672e+01 1.627714872360229492e+00 2.623634576797485352e+00 1.275404810905456543e+00 -5.059236660599708557e-02
5.842000000000000000e+03 6.494316101074218750e+01 1.042051887512207031e+01 1.630784571170806885e-01 4.251371860504150391e+00 1.324334979057312012e+00 -1.519596338272094727e+00
5.843000000000000000e+03 6.372842407226562500e+01 8.384021759033203125e+00 -3.598856553435325623e-02 3.895606279373168945e+00 1.157885313034057617e+00 -1.681464433670043945e+00
5.844000000000000000e+03 6.096176910400390625e+01 1.006720542907714844e+01 4.876035749912261963e-01 3.058703184127807617e+00 1.063892006874084473e+00 -1.436977386474609375e+00
5.845000000000000000e+03 5.663694381713867188e+01 1.152467250823974609e+01 1.197018384933471680e+00 2.330657243728637695e+00 1.058302640914916992e+00 -6.983528137207031250e-01
5.846000000000000000e+03 5.582987594604492188e+01 1.415999889373779297e+01 1.527256488800048828e+00 2.777017354965209961e+00 1.291282176971435547e+00 -2.421287745237350464e-01
5.847000000000000000e+03 6.024346542358398438e+01 1.072747516632080078e+01 6.722596883773803711e-01 2.915328979492187500e+00 1.076276540756225586e+00 -1.289560317993164062e+00
5.848000000000000000e+03 6.279410552978515625e+01 1.282207107543945312e+01 6.469976305961608887e-01 3.707080364227294922e+00 1.306223392486572266e+00 -1.254788517951965332e+00
5.849000000000000000e+03 6.573505401611328125e+01 1.187027931213378906e+01 2.751093804836273193e-01 4.447511672973632812e+00 1.416786313056945801e+00 -1.389170050621032715e+00
5.850000000000000000e+03 5.972048950195312500e+01 1.371688556671142578e+01 1.065986275672912598e+00 3.128000736236572266e+00 1.258196115493774414e+00 -8.971810936927795410e-01
5.851000000000000000e+03 6.387488174438476562e+01 1.613912582397460938e+01 7.560416460037231445e-01 4.085923671722412109e+00 1.452589511871337891e+00 -9.686986804008483887e-01
5.852000000000000000e+03 5.633178329467773438e+01 1.570121192932128906e+01 1.505925178527832031e+00 3.070435047149658203e+00 1.372907996177673340e+00 -1.873638927936553955e-01
5.853000000000000000e+03 5.541496276855468750e+01 1.316244888305664062e+01 1.512541294097900391e+00 2.536948919296264648e+00 1.214847087860107422e+00 -2.653016746044158936e-01
5.854000000000000000e+03 6.363506317138671875e+01 9.921059608459472656e+00 2.021136283874511719e-01 3.863914251327514648e+00 1.219808340072631836e+00 -1.564097881317138672e+00
5.855000000000000000e+03 6.152931213378906250e+01 1.686926078796386719e+01 1.012838125228881836e+00 3.736552238464355469e+00 1.424817085266113281e+00 -7.454702854156494141e-01
5.856000000000000000e+03 6.584194946289062500e+01 1.047808361053466797e+01 1.109864115715026855e-01 4.504077911376953125e+00 1.384519338607788086e+00 -1.485420346260070801e+00
5.857000000000000000e+03 6.546368408203125000e+01 1.311755466461181641e+01 4.173208177089691162e-01 4.374112129211425781e+00 1.437429785728454590e+00 -1.285339713096618652e+00
5.858000000000000000e+03 6.035956192016601562e+01 1.960429954528808594e+01 1.095549941062927246e+00 3.861505746841430664e+00 1.487116694450378418e+00 -3.912949264049530029e-01
5.859000000000000000e+03 6.136527633666992188e+01 1.879072761535644531e+01 1.031439661979675293e+00 3.882658958435058594e+00 1.474229574203491211e+00 -5.527378916740417480e-01
5.860000000000000000e+03 5.715724182128906250e+01 1.514574050903320312e+01 1.426677942276000977e+00 3.013378858566284180e+00 1.332017064094543457e+00 -3.766978085041046143e-01
5.861000000000000000e+03 5.925031661987304688e+01 2.031877899169921875e+01 1.154981851577758789e+00 3.855184316635131836e+00 1.503049850463867188e+00 -2.177798449993133545e-01
5.862000000000000000e+03 5.856189346313476562e+01 1.584583950042724609e+01 1.298441529273986816e+00 3.240793943405151367e+00 1.361770629882812500e+00 -5.183474421501159668e-01
5.863000000000000000e+03 5.667857742309570312e+01 1.397547721862792969e+01 1.434172868728637695e+00 2.766726970672607422e+00 1.260269880294799805e+00 -4.151183366775512695e-01
5.864000000000000000e+03 5.570102310180664062e+01 1.498601245880126953e+01 1.558827161788940430e+00 2.917028427124023438e+00 1.342756628990173340e+00 -1.356845647096633911e-01
5.865000000000000000e+03 5.685203933715820312e+01 1.675835037231445312e+01 1.448756575584411621e+00 3.258904933929443359e+00 1.412298440933227539e+00 -1.896485388278961182e-01
5.866000000000000000e+03 5.947360229492187500e+01 1.123772907257080078e+01 8.396465182304382324e-01 2.786780357360839844e+00 1.087928056716918945e+00 -1.151081562042236328e+00
5.867000000000000000e+03 5.868615722656250000e+01 1.167719459533691406e+01 9.797995090484619141e-01 2.695608854293823242e+00 1.102622509002685547e+00 -9.960431456565856934e-01
5.868000000000000000e+03 6.171401596069335938e+01 1.510939311981201172e+01 9.356843233108520508e-01 3.620774984359741211e+00 1.366937756538391113e+00 -9.429964423179626465e-01
5.869000000000000000e+03 6.395798110961914062e+01 1.452615261077880859e+01 6.650766134262084961e-01 4.042930126190185547e+00 1.412402033805847168e+00 -1.128982543945312500e+00
5.870000000000000000e+03 6.718968963623046875e+01 1.503739356994628906e+01 4.185705184936523438e-01 4.734986305236816406e+00 1.546066999435424805e+00 -1.112882971763610840e+00
5.871000000000000000e+03 6.460750579833984375e+01 1.528968238830566406e+01 6.525025367736816406e-01 4.198605060577392578e+00 1.455332398414611816e+00 -1.074971199035644531e+00
5.872000000000000000e+03 6.317639923095703125e+01 1.529390048980712891e+01 7.924681901931762695e-01 3.911522150039672852e+00 1.411197066307067871e+00 -1.019360184669494629e+00
5.873000000000000000e+03 6.312447738647460938e+01 1.132614707946777344e+01 4.512830674648284912e-01 3.727266788482666016e+00 1.253564953804016113e+00 -1.420124650001525879e+00
5.874000000000000000e+03 6.142982482910156250e+01 9.199399948120117188e+00 3.008497059345245361e-01 3.143680572509765625e+00 1.033359050750732422e+00 -1.538898468017578125e+00
5.875000000000000000e+03 6.064117431640625000e+01 1.762227821350097656e+01 1.102258086204528809e+00 3.690112113952636719e+00 1.437711119651794434e+00 -5.888825654983520508e-01
5.876000000000000000e+03 6.086752319335937500e+01 1.580704212188720703e+01 1.051090240478515625e+00 3.539129972457885742e+00 1.377066016197204590e+00 -7.931659817695617676e-01
5.877000000000000000e+03 5.627732467651367188e+01 1.287337779998779297e+01 1.392414212226867676e+00 2.522859573364257812e+00 1.174582123756408691e+00 -4.810217916965484619e-01
5.878000000000000000e+03 6.446990966796875000e+01 1.165959739685058594e+01 3.630331158638000488e-01 4.115044593811035156e+00 1.343423247337341309e+00 -1.409187555313110352e+00
5.879000000000000000e+03 5.732831192016601562e+01 1.790325736999511719e+01 1.390877485275268555e+00 3.450836896896362305e+00 1.452514290809631348e+00 -1.600473523139953613e-01
5.880000000000000000e+03 6.472179412841796875e+01 1.379639911651611328e+01 5.472565293312072754e-01 4.192663192749023438e+00 1.421975970268249512e+00 -1.216383934020996094e+00
5.881000000000000000e+03 5.872799682617187500e+01 1.883222389221191406e+01 1.257024168968200684e+00 3.642524242401123047e+00 1.469864487648010254e+00 -2.701906561851501465e-01
5.882000000000000000e+03 5.757395172119140625e+01 3.805661392211914062e+01 1.264630537480115891e-02 4.871508598327636719e+00 1.465246438980102539e+00 1.326209455728530884e-01
5.883000000000000000e+03 6.402983856201171875e+01 1.082906436920166016e+01 2.988656461238861084e-01 3.979490995407104492e+00 1.283506989479064941e+00 -1.490602493286132812e+00
5.884000000000000000e+03 5.789636993408203125e+01 1.210528755187988281e+01 1.125714898109436035e+00 2.615373849868774414e+00 1.122326612472534180e+00 -8.481195569038391113e-01
5.885000000000000000e+03 5.754568481445312500e+01 1.359235191345214844e+01 1.305467486381530762e+00 2.798480272293090820e+00 1.231184244155883789e+00 -6.198242306709289551e-01
5.886000000000000000e+03 5.941976165771484375e+01 1.532908439636230469e+01 1.189577460289001465e+00 3.273616075515747070e+00 1.338958024978637695e+00 -6.842697858810424805e-01
5.887000000000000000e+03 5.911552810668945312e+01 1.703614044189453125e+01 1.249883651733398438e+00 3.453964471817016602e+00 1.411154389381408691e+00 -4.717809259891510010e-01
5.888000000000000000e+03 6.362950515747070312e+01 1.221291637420654297e+01 5.074298977851867676e-01 3.891549587249755859e+00 1.319693803787231445e+00 -1.349078893661499023e+00
5.889000000000000000e+03 6.140005493164062500e+01 1.252779293060302734e+01 7.692695856094360352e-01 3.348546504974365234e+00 1.235344767570495605e+00 -1.201393008232116699e+00
5.890000000000000000e+03 6.001441192626953125e+01 1.218405723571777344e+01 8.905129432678222656e-01 3.012378931045532227e+00 1.170867562294006348e+00 -1.102244019508361816e+00
5.891000000000000000e+03 5.770788192749023438e+01 1.630814933776855469e+01 1.380902886390686035e+00 3.240198135375976562e+00 1.386330246925354004e+00 -3.483849465847015381e-01
5.892000000000000000e+03 5.803100967407226562e+01 1.470480632781982422e+01 1.315130829811096191e+00 3.015347003936767578e+00 1.299143314361572266e+00 -5.647224187850952148e-01
5.893000000000000000e+03 5.919725799560546875e+01 1.269846916198730469e+01 1.042525410652160645e+00 2.914140224456787109e+00 1.186999678611755371e+00 -9.513093233108520508e-01
5.894000000000000000e+03 6.027176284790039062e+01 1.475232696533203125e+01 1.075060367584228516e+00 3.334576129913330078e+00 1.322890877723693848e+00 -8.456590771675109863e-01
5.895000000000000000e+03 6.195894241333007812e+01 1.347085285186767578e+01 8.001356720924377441e-01 3.548533439636230469e+00 1.304600715637207031e+00 -1.139457821846008301e+00
5.896000000000000000e+03 5.709793090820312500e+01 1.251992130279541016e+01 1.260030865669250488e+00 2.553238630294799805e+00 1.143980860710144043e+00 -6.588173508644104004e-01
5.897000000000000000e+03 5.837906265258789062e+01 1.316416549682617188e+01 1.172312498092651367e+00 2.842769145965576172e+00 1.204524517059326172e+00 -7.864044308662414551e-01
5.898000000000000000e+03 6.254369735717773438e+01 1.439951229095458984e+01 8.011319041252136230e-01 3.736101388931274414e+00 1.361170053482055664e+00 -1.075626373291015625e+00
5.899000000000000000e+03 6.083686447143554688e+01 1.159735393524169922e+01 7.322896122932434082e-01 3.130667686462402344e+00 1.158887147903442383e+00 -1.255764245986938477e+00
5.900000000000000000e+03 6.415721130371093750e+01 1.303748035430908203e+01 5.297157764434814453e-01 4.050741195678710938e+00 1.374137043952941895e+00 -1.279061079025268555e+00
5.901000000000000000e+03 6.167626571655273438e+01 1.092469406127929688e+01 5.361880064010620117e-01 3.306700706481933594e+00 1.152866601943969727e+00 -1.395508289337158203e+00
5.902000000000000000e+03 6.055823135375976562e+01 1.314632511138916016e+01 9.303330779075622559e-01 3.219306468963623047e+00 1.244891881942749023e+00 -1.054001450538635254e+00
5.903000000000000000e+03 6.494421386718750000e+01 1.242119312286376953e+01 4.075380563735961914e-01 4.229172229766845703e+00 1.391013145446777344e+00 -1.345454454421997070e+00
5.904000000000000000e+03 6.335681915283203125e+01 1.370209884643554688e+01 6.725204586982727051e-01 3.875294923782348633e+00 1.364344596862792969e+00 -1.190169215202331543e+00
5.905000000000000000e+03 5.888105773925781250e+01 1.423391819000244141e+01 1.199248194694519043e+00 3.060887813568115234e+00 1.278040766716003418e+00 -7.381124496459960938e-01
5.906000000000000000e+03 6.224785995483398438e+01 1.189877319335937500e+01 6.115386486053466797e-01 3.522994279861450195e+00 1.240359902381896973e+00 -1.327304720878601074e+00
5.907000000000000000e+03 6.000093460083007812e+01 1.646040344238281250e+01 1.161370992660522461e+00 3.484447002410888672e+00 1.393745422363281250e+00 -6.338375210762023926e-01
5.908000000000000000e+03 6.111771392822265625e+01 1.412645053863525391e+01 9.389369487762451172e-01 3.425269126892089844e+00 1.309261798858642578e+00 -9.984112977981567383e-01
5.909000000000000000e+03 3.431583023071289062e+01 -3.753239059448242188e+01 -1.210220813751220703e+00 3.411865472793579102e+00 6.604933738708496094e-01 3.964289724826812744e-01
5.910000000000000000e+03 3.724160766601562500e+01 -4.112526321411132812e+01 -1.439941406250000000e+00 3.505871534347534180e+00 6.197790503501892090e-01 4.882189631462097168e-02
5.911000000000000000e+03 6.166438293457031250e+01 3.735999298095703125e+01 1.135018989443778992e-01 4.916481494903564453e+00 1.508994936943054199e+00 6.147793307900428772e-02
5.912000000000000000e+03 4.071614074707031250e+01 -3.813098144531250000e+01 -1.276868462562561035e+00 3.374199151992797852e+00 6.291991472244262695e-01 -2.760826945304870605e-01
5.913000000000000000e+03 6.757295227050781250e+01 -4.157285690307617188e+01 3.179884329438209534e-02 4.111225605010986328e+00 1.242907404899597168e+00 7.392250746488571167e-02
5.914000000000000000e+03 7.185578918457031250e+01 -4.153461837768554688e+01 -2.390342354774475098e-01 8.012098312377929688e+00 2.331919431686401367e+00 2.411931566894054413e-02
5.915000000000000000e+03 7.321025848388671875e+01 -3.919133758544921875e+01 -3.163970708847045898e-01 8.706699371337890625e+00 2.517090797424316406e+00 -1.689039170742034912e-01
5.916000000000000000e+03 3.781481552124023438e+01 4.120634460449218750e+01 -2.897573634982109070e-02 1.400862336158752441e+00 4.115659594535827637e-01 -1.299092769622802734e-01
5.917000000000000000e+03 3.482479476928710938e+01 3.889347839355468750e+01 8.265538513660430908e-02 3.803333640098571777e-01 1.388966292142868042e-01 -2.875898033380508423e-02
5.918000000000000000e+03 1.047402977943420410e+00 -3.997272872924804688e+01 -1.514135394245386124e-03 1.470607399940490723e+00 4.407280087471008301e-01 -4.378790035843849182e-02
5.919000000000000000e+03 3.243806457519531250e+01 3.859085464477539062e+01 3.202282264828681946e-02 -8.470074087381362915e-02 -1.580337621271610260e-02 3.086509741842746735e-02
5.920000000000000000e+03 3.483628463745117188e+01 4.072938156127929688e+01 1.652173399925231934e-01 3.857395052909851074e-01 1.652870625257492065e-01 -2.419762872159481049e-02
5.921000000000000000e+03 2.124821472167968750e+01 3.650315093994140625e+01 -3.369623795151710510e-03 -1.156881800852715969e-03 -1.357951667159795761e-03 1.816416392102837563e-03
5.922000000000000000e+03 1.944324111938476562e+01 2.997037649154663086e+00 5.828047960676485673e-06 1.139537016570102423e-05 5.167025392438517883e-06 8.452170732198283076e-06
5.923000000000000000e+03 6.031620025634765625e+01 -8.175906538963317871e-01 -1.995604276657104492e+00 8.380492925643920898e-01 -3.472664952278137207e-01 -7.085264921188354492e-01
5.924000000000000000e+03 1.021808242797851562e+01 -1.496328067779541016e+01 1.214995145797729492e+00 8.685373663902282715e-01 6.250597238540649414e-01 6.680409908294677734e-01
5.925000000000000000e+03 6.959494018554687500e+01 -1.408308506011962891e+01 1.718040108680725098e+00 1.490288162231445312e+01 4.986276626586914062e+00 -1.913169860839843750e+00
5.926000000000000000e+03 7.842819213867187500e+01 3.889613342285156250e+01 2.574405865743756294e-03 5.247461318969726562e+00 1.575010776519775391e+00 -8.401133120059967041e-03
5.927000000000000000e+03 3.347683715820312500e+01 3.898252105712890625e+01 1.050129681825637817e-01 6.701013445854187012e-02 5.160693079233169556e-02 1.402305904775857925e-02
5.928000000000000000e+03 2.587962532043457031e+01 -3.404748439788818359e+00 -1.269076466560363770e-01 -1.255092918872833252e-01 -7.572508603334426880e-02 -2.857434451580047607e-01
5.929000000000000000e+03 3.681302261352539062e+01 3.680004882812500000e+01 -5.533179640769958496e-02 8.388033509254455566e-01 2.350414544343948364e-01 -3.826237320899963379e-01
5.930000000000000000e+03 1.021735477447509766e+01 -1.423347663879394531e+01 9.783704280853271484e-01 8.504739999771118164e-01 5.486533045768737793e-01 5.660136938095092773e-01
5.931000000000000000e+03 4.397806167602539062e+01 1.378719806671142578e+00 -3.684981107711791992e+00 5.850118160247802734e+00 6.495410203933715820e-01 1.938322424888610840e+00
5.932000000000000000e+03 7.816914367675781250e+01 3.805044555664062500e+01 3.106036223471164703e-03 5.253563880920410156e+00 1.577000975608825684e+00 -1.297491043806076050e-02
5.933000000000000000e+03 1.270917606353759766e+01 3.478872680664062500e+01 8.010751334950327873e-04 -1.104843104258179665e-03 -9.113039413932710886e-05 1.753811229718849063e-04
5.934000000000000000e+03 1.204848766326904297e+01 3.399001693725585938e+01 8.949434413807466626e-05 -1.467995753046125174e-04 -1.719156716717407107e-05 -8.448754088021814823e-04
5.935000000000000000e+03 3.050869369506835938e+01 -1.481537914276123047e+01 4.254557192325592041e-02 -3.445205986499786377e-01 -9.059250354766845703e-02 9.908876419067382812e-01
5.936000000000000000e+03 3.727658843994140625e+01 -2.346553039550781250e+01 1.038472414016723633e+00 7.699913024902343750e+00 2.621515512466430664e+00 1.541209101676940918e+00
5.937000000000000000e+03 4.085055541992187500e+01 3.467684555053710938e+01 -1.596003472805023193e-01 3.253542423248291016e+00 9.281826019287109375e-01 -5.995336174964904785e-01
5.938000000000000000e+03 1.088026809692382812e+01 -1.417912483215332031e+01 9.653499126434326172e-01 7.105371356010437012e-01 5.027661323547363281e-01 5.312361717224121094e-01
5.939000000000000000e+03 4.010325622558593750e+01 -1.995537757873535156e+01 -6.016076207160949707e-01 7.666038513183593750e+00 2.119329214096069336e+00 1.006982803344726562e+00
5.940000000000000000e+03 2.552977323532104492e+00 4.091737270355224609e+00 -3.794707481574732810e-06 -3.789438665080524515e-07 -1.252095444215228781e-06 3.306587075257994002e-07
5.941000000000000000e+03 1.793391799926757812e+01 -3.332866668701171875e+01 -8.112063407897949219e-01 -1.043001860380172729e-01 -2.746519446372985840e-01 8.343576639890670776e-02
5.942000000000000000e+03 6.794592857360839844e+00 -3.078402709960937500e+01 -7.624840736389160156e-01 -1.380289345979690552e-01 -2.701539099216461182e-01 3.087283074855804443e-01
5.943000000000000000e+03 8.401276588439941406e+00 -1.321683216094970703e+01 3.554365932941436768e-01 9.675016999244689941e-01 3.968814909458160400e-01 2.161164134740829468e-01
5.944000000000000000e+03 8.572201728820800781e+00 -1.252029037475585938e+01 2.735535800457000732e-01 8.615007996559143066e-01 3.405162990093231201e-01 1.716967970132827759e-01
5.945000000000000000e+03 3.446443939208984375e+01 -3.203973007202148438e+01 -4.860747754573822021e-01 4.540421962738037109e+00 1.216304183006286621e+00 9.465346336364746094e-01
5.946000000000000000e+03 7.789258480072021484e+00 -3.423638153076171875e+01 -2.356396168470382690e-01 -1.190933957695960999e-01 -1.064199060201644897e-01 7.739423215389251709e-02
5.947000000000000000e+03 6.042387771606445312e+01 -9.659056365489959717e-02 -1.778044223785400391e+00 1.181429505348205566e+00 -1.789843887090682983e-01 -1.068363547325134277e+00
5.948000000000000000e+03 1.592485618591308594e+01 -3.438351821899414062e+01 -6.445233225822448730e-01 -1.873500645160675049e-01 -2.495620101690292358e-01 1.751104891300201416e-01
5.949000000000000000e+03 4.525154113769531250e+01 3.683817386627197266e+00 -1.777747869491577148e+00 2.948419094085693359e+00 3.512013554573059082e-01 2.531544685363769531e+00
5.950000000000000000e+03 5.044562911987304688e+01 4.443468093872070312e+00 -1.326794862747192383e+00 3.245811760425567627e-01 -3.006640970706939697e-01 -1.446021050214767456e-01
5.951000000000000000e+03 2.862756729125976562e+01 -3.422990798950195312e+01 -2.478318214416503906e-01 1.210849165916442871e+00 2.889052033424377441e-01 8.761096596717834473e-01
5.952000000000000000e+03 1.797999572753906250e+01 4.522124290466308594e+00 -1.451070056646130979e-05 1.214063104271190241e-05 -7.110210162863950245e-07 1.031249030347680673e-05
5.953000000000000000e+03 4.284870529174804688e+01 4.889429092407226562e+00 -2.620320022106170654e-01 7.555112838745117188e+00 2.187924146652221680e+00 2.817889690399169922e+00
5.954000000000000000e+03 4.096089172363281250e+01 -2.151995658874511719e+01 -3.494219779968261719e-01 6.365684509277343750e+00 1.804878711700439453e+00 4.556902945041656494e-01
5.955000000000000000e+03 5.974209594726562500e+01 6.506955027580261230e-01 -1.807404994964599609e+00 1.069282054901123047e+00 -2.214368879795074463e-01 -1.072544217109680176e+00
5.956000000000000000e+03 6.738306427001953125e+01 -2.620949983596801758e+00 -5.152708292007446289e-01 7.097939014434814453e+00 1.974800467491149902e+00 -1.152707815170288086e+00
5.957000000000000000e+03 6.457633972167968750e+01 -7.166638970375061035e-01 -1.121587753295898438e+00 4.910787105560302734e+00 1.136759757995605469e+00 -1.751937866210937500e+00
5.958000000000000000e+03 6.609381866455078125e+01 -2.107540607452392578e+00 -7.045895457267761230e-01 6.264118194580078125e+00 1.667858600616455078e+00 -1.450051665306091309e+00
5.959000000000000000e+03 5.277719879150390625e+01 2.985322237014770508e+00 -2.533392906188964844e+00 5.242068767547607422e-01 -6.027558445930480957e-01 -1.973271369934082031e-01
5.960000000000000000e+03 2.886786222457885742e+00 3.343985748291015625e+01 2.458822928019799292e-05 1.350486418232321739e-04 4.789106242242269218e-05 -1.325048651779070497e-04
5.961000000000000000e+03 4.596504211425781250e+01 -2.896133995056152344e+01 -1.369395256042480469e-01 1.908337473869323730e+00 5.314193964004516602e-01 -6.131725907325744629e-01
5.962000000000000000e+03 4.520626831054687500e+01 6.935426235198974609e+00 1.211204528808593750e+00 4.338917255401611328e+00 1.665036559104919434e+00 2.561438322067260742e+00
5.963000000000000000e+03 3.256794214248657227e+00 -2.353278732299804688e+01 1.272252053022384644e-01 4.542078971862792969e-01 1.744299381971359253e-01 9.970741868019104004e-01
5.964000000000000000e+03 5.110772323608398438e+01 6.526213169097900391e+00 1.791014820337295532e-01 9.003976583480834961e-01 3.238497376441955566e-01 -3.313462808728218079e-02
5.965000000000000000e+03 2.477905082702636719e+01 -1.589115810394287109e+01 -1.439141780138015747e-01 -7.672500610351562500e-02 -6.619175523519515991e-02 4.906684160232543945e-01
5.966000000000000000e+03 2.911241912841796875e+01 -1.460525798797607422e+01 1.538372784852981567e-01 -3.122756183147430420e-01 -4.753150418400764465e-02 1.055908322334289551e+00
5.967000000000000000e+03 9.852859497070312500e+00 -5.446963787078857422e+00 -1.706489175558090210e-01 1.905520856380462646e-01 5.970950238406658173e-03 -3.408132866024971008e-02
5.968000000000000000e+03 1.198375129699707031e+01 2.158411216735839844e+01 -9.246042463928461075e-05 -3.561299672583118081e-05 -3.842202568193897605e-05 1.635784065001644194e-05
5.969000000000000000e+03 3.057345867156982422e+00 -1.796093177795410156e+01 3.470436930656433105e-01 -2.445480674505233765e-01 3.074868209660053253e-02 1.566031128168106079e-01
5.970000000000000000e+03 4.225625610351562500e+01 5.096854209899902344e+00 9.509819000959396362e-02 8.407652854919433594e+00 2.550825357437133789e+00 2.822648525238037109e+00
5.971000000000000000e+03 1.252661132812500000e+01 3.114284133911132812e+01 2.645394706632941961e-04 -1.395214057993143797e-04 3.750542236957699060e-05 -4.496073524933308363e-04
5.972000000000000000e+03 5.651877403259277344e+00 3.075650024414062500e+01 9.070182568393647671e-05 1.735475962050259113e-04 7.927482511149719357e-05 -1.552789763081818819e-04
5.973000000000000000e+03 4.446527099609375000e+01 5.994049072265625000e+00 6.512008905410766602e-01 5.143681526184082031e+00 1.738464713096618652e+00 2.706219673156738281e+00
5.974000000000000000e+03 4.416575241088867188e+01 5.529589653015136719e+00 2.490110695362091064e-01 5.384715557098388672e+00 1.690118074417114258e+00 2.773504018783569336e+00
5.975000000000000000e+03 6.769464874267578125e+01 -1.674727797508239746e+00 -7.729076743125915527e-01 6.989369392395019531e+00 1.864938616752624512e+00 -1.089870214462280273e+00
5.976000000000000000e+03 6.018632507324218750e+01 2.095524072647094727e+00 -1.310284376144409180e+00 1.793770551681518555e+00 1.450458317995071411e-01 -1.526165127754211426e+00
5.977000000000000000e+03 3.910135650634765625e+01 -1.728376579284667969e+01 -4.938822388648986816e-01 8.506152153015136719e+00 2.403681039810180664e+00 7.348365783691406250e-01
5.978000000000000000e+03 5.577970504760742188e+01 2.892662048339843750e+00 -1.858742833137512207e+00 6.098996400833129883e-01 -3.746529519557952881e-01 -5.623326897621154785e-01
5.979000000000000000e+03 2.931698226928710938e+01 -1.356288623809814453e+01 6.591256260871887207e-01 -3.394556939601898193e-01 9.590098261833190918e-02 9.165253043174743652e-01
5.980000000000000000e+03 4.315055084228515625e+01 5.456257820129394531e+00 2.977710962295532227e-01 7.019108772277832031e+00 2.195063829421997070e+00 2.889267921447753906e+00
5.981000000000000000e+03 4.053361129760742188e+01 2.098727226257324219e+00 -1.966439723968505859e+00 1.011163234710693359e+01 2.443557977676391602e+00 1.429793000221252441e+00
5.982000000000000000e+03 3.972968578338623047e+00 -1.255034255981445312e+01 2.492981217801570892e-02 -3.014522232115268707e-02 -1.564622856676578522e-03 -3.630020022392272949e-01
5.983000000000000000e+03 1.183722209930419922e+01 2.772052001953125000e+01 -2.197375761170405895e-05 -1.200003316625952721e-04 -4.259222623659297824e-05 5.699650864698924124e-05
5.984000000000000000e+03 3.040434455871582031e+01 -1.193250942230224609e+01 1.421532869338989258e+00 7.459365762770175934e-03 4.286976754665374756e-01 6.307901740074157715e-01
5.985000000000000000e+03 4.473514938354492188e+01 5.242559909820556641e+00 -1.207115724682807922e-01 4.413524627685546875e+00 1.287843942642211914e+00 2.678493976593017578e+00
5.986000000000000000e+03 2.940723037719726562e+01 -1.149268627166748047e+01 1.388912200927734375e+00 -2.461384981870651245e-01 3.428321182727813721e-01 6.340569853782653809e-01
5.987000000000000000e+03 5.639397048950195312e+01 3.516829729080200195e+00 -1.451681613922119141e+00 7.998384237289428711e-01 -1.955529749393463135e-01 -7.926155328750610352e-01
5.988000000000000000e+03 6.929854393005371094e+00 2.951372718811035156e+01 1.518001226941123605e-04 -2.582140732556581497e-04 -3.192418444086797535e-05 -1.939378562383353710e-04
5.989000000000000000e+03 3.842134952545166016e+00 -1.414325523376464844e+01 1.300522089004516602e-01 -3.432289138436317444e-02 2.871879376471042633e-02 -3.079910278320312500e-01
5.990000000000000000e+03 4.942383575439453125e+01 1.015825271606445312e+01 1.863833904266357422e+00 2.454680919647216797e+00 1.295554518699645996e+00 1.105617284774780273e+00
5.991000000000000000e+03 1.631276702880859375e+01 -1.198037147521972656e+01 5.493887066841125488e-01 -1.528916880488395691e-02 1.602298617362976074e-01 3.936896920204162598e-01
5.992000000000000000e+03 1.697854232788085938e+01 -1.175123691558837891e+01 5.266953110694885254e-01 -6.412503123283386230e-02 1.387710869312286377e-01 3.876895010471343994e-01
5.993000000000000000e+03 3.720006465911865234e+00 -9.530236244201660156e+00 -6.138377264142036438e-02 -1.300567090511322021e-01 -5.743214488029479980e-02 -3.555877804756164551e-01
5.994000000000000000e+03 3.756902313232421875e+01 -1.501406574249267578e+01 6.876025145174935460e-05 7.449571132659912109e+00 2.234892129898071289e+00 1.149049997329711914e-01
5.995000000000000000e+03 1.113614940643310547e+01 2.116157531738281250e+01 -6.945399218238890171e-05 -7.662425196031108499e-05 -4.382347106002271175e-05 1.785423410183284432e-05
5.996000000000000000e+03 1.174838352203369141e+01 2.604948234558105469e+01 3.686072595883160830e-04 -6.993789429543539882e-05 8.960080594988539815e-05 -7.152277976274490356e-05
5.997000000000000000e+03 2.314066314697265625e+01 -1.183975219726562500e+01 5.740033388137817383e-01 -3.629385828971862793e-01 6.331942230463027954e-02 4.661154448986053467e-01
5.998000000000000000e+03 3.614355468750000000e+01 -1.238593769073486328e+01 1.087666511535644531e+00 5.484044075012207031e+00 1.971513152122497559e+00 1.436014473438262939e-01
5.999000000000000000e+03 3.168965148925781250e+01 -1.176558017730712891e+01 1.583767414093017578e+00 6.570262908935546875e-01 6.722381114959716797e-01 4.907914996147155762e-01
6.000000000000000000e+03 2.785191345214843750e+01 -1.337800502777099609e+01 6.102506518363952637e-01 -3.924060463905334473e-01 6.535337865352630615e-02 8.724246621131896973e-01
6.001000000000000000e+03 5.571808242797851562e+01 3.861301183700561523e+00 -1.379247188568115234e+00 7.836850285530090332e-01 -1.786686480045318604e-01 -7.372524142265319824e-01
6.002000000000000000e+03 6.644484710693359375e+01 1.806083297729492188e+01 5.815832614898681641e-01 4.597784042358398438e+00 1.553810119628906250e+00 -8.800330162048339844e-01
6.003000000000000000e+03 7.256492614746093750e+01 -9.303467750549316406e+00 2.717959284782409668e-01 9.735492706298828125e+00 3.002186536788940430e+00 1.093930564820766449e-03
6.004000000000000000e+03 3.516115665435791016e+00 -1.133403396606445312e+01 -2.772290632128715515e-02 -1.893450170755386353e-01 -6.512037664651870728e-02 -3.788678646087646484e-01
6.005000000000000000e+03 7.831562519073486328e+00 2.935315704345703125e+01 2.303750807186588645e-04 -2.213277184637263417e-04 2.714207994358730502e-06 -1.136643695645034313e-04
6.006000000000000000e+03 2.191584014892578125e+01 -1.238150787353515625e+01 5.059532523155212402e-01 -2.968040704727172852e-01 6.274475157260894775e-02 4.321221411228179932e-01
6.007000000000000000e+03 2.274047088623046875e+01 -1.142869663238525391e+01 5.872408747673034668e-01 -3.656128048896789551e-01 6.648842990398406982e-02 4.366351664066314697e-01
6.008000000000000000e+03 6.580217742919921875e+01 3.156187772750854492e+00 -9.756778478622436523e-01 5.115632057189941406e+00 1.241986274719238281e+00 -1.718596935272216797e+00
6.009000000000000000e+03 5.443285369873046875e+01 1.861883926391601562e+01 1.514153003692626953e+00 3.627685070037841797e+00 1.542551398277282715e+00 3.330987095832824707e-01
6.010000000000000000e+03 7.241539001464843750e+01 -2.866099739074707031e+01 -6.065235137939453125e-01 9.878611564636230469e+00 2.781626224517822266e+00 -1.407066941261291504e+00
6.011000000000000000e+03 1.407962036132812500e+01 -7.884325981140136719e+00 1.177943199872970581e-01 1.576816290616989136e-01 8.264278620481491089e-02 2.653355896472930908e-01
6.012000000000000000e+03 4.820571899414062500e+01 1.092133903503417969e+01 2.042554378509521484e+00 3.333477497100830078e+00 1.612809538841247559e+00 1.599147439002990723e+00
6.013000000000000000e+03 5.290437316894531250e+01 8.074458122253417969e+00 7.491973638534545898e-01 1.293719530105590820e+00 6.128750443458557129e-01 -2.927054166793823242e-01
6.014000000000000000e+03 7.296820831298828125e+01 -8.770485877990722656e+00 1.733669042587280273e-01 9.352268218994140625e+00 2.857690572738647461e+00 1.413309872150421143e-01
6.015000000000000000e+03 7.340122222900390625e+01 -2.270891427993774414e+00 -4.208216071128845215e-01 7.988078117370605469e+00 2.270176887512207031e+00 8.971282094717025757e-02
6.016000000000000000e+03 3.556056976318359375e+01 -9.745272636413574219e+00 1.872127532958984375e+00 4.665822029113769531e+00 1.961384892463684082e+00 4.858202338218688965e-01
6.017000000000000000e+03 1.110885143280029297e+01 1.274044227600097656e+01 -8.738816177356056869e-06 2.776143992377910763e-05 5.706787305825855583e-06 2.153661625925451517e-06
6.018000000000000000e+03 7.757976055145263672e+00 -7.770500183105468750e+00 -1.173073947429656982e-01 3.110804855823516846e-01 5.813192576169967651e-02 -1.451823711395263672e-01
6.019000000000000000e+03 6.177737045288085938e+01 3.235166788101196289e+00 -9.553790688514709473e-01 2.890096664428710938e+00 5.804152488708496094e-01 -1.842163085937500000e+00
6.020000000000000000e+03 3.510075759887695312e+01 -9.436058998107910156e+00 1.915441632270812988e+00 3.834382534027099609e+00 1.724947214126586914e+00 4.293035864830017090e-01
6.021000000000000000e+03 2.395401191711425781e+01 -1.035377407073974609e+01 7.303131222724914551e-01 -4.421631991863250732e-01 8.644498139619827271e-02 3.789969980716705322e-01
6.022000000000000000e+03 6.955477905273437500e+01 6.470946073532104492e-01 -8.931958079338073730e-01 7.016252517700195312e+00 1.836917042732238770e+00 -8.529105782508850098e-01
6.023000000000000000e+03 7.039042663574218750e+01 6.274073123931884766e-01 -8.076384663581848145e-01 7.195635318756103516e+00 1.916399121284484863e+00 -6.630732417106628418e-01
6.024000000000000000e+03 7.482550811767578125e+01 -2.486309051513671875e+00 -2.944602966308593750e-01 7.996665954589843750e+00 2.310661792755126953e+00 2.750451266765594482e-01
6.025000000000000000e+03 7.424103546142578125e+01 -1.142742443084716797e+01 5.237234830856323242e-01 9.310073852539062500e+00 2.950139284133911133e+00 1.833722144365310669e-01
6.026000000000000000e+03 2.712106895446777344e+01 -1.002294921875000000e+01 1.174811363220214844e+00 -5.159295201301574707e-01 1.976645439863204956e-01 3.710248172283172607e-01
6.027000000000000000e+03 5.493317794799804688e+01 6.834842681884765625e+00 4.874449968338012695e-02 1.230321645736694336e+00 3.837198615074157715e-01 -7.949546575546264648e-01
6.028000000000000000e+03 7.489900207519531250e+01 -9.704985618591308594e+00 2.208186388015747070e-01 8.721899986267089844e+00 2.682815790176391602e+00 4.308823049068450928e-01
6.029000000000000000e+03 5.980514526367187500e+01 4.252053737640380859e+00 -7.884452342987060547e-01 2.009452581405639648e+00 3.663022220134735107e-01 -1.605393171310424805e+00
6.030000000000000000e+03 5.507634735107421875e+01 1.781344604492187500e+01 1.534254550933837891e+00 3.440896511077880859e+00 1.492545366287231445e+00 1.807291060686111450e-01
6.031000000000000000e+03 3.550129699707031250e+01 -9.080460548400878906e+00 1.939291477203369141e+00 4.510918140411376953e+00 1.935062885284423828e+00 4.960965514183044434e-01
6.032000000000000000e+03 5.552256393432617188e+01 7.865046501159667969e+00 4.404929280281066895e-01 1.489074110984802246e+00 5.788701176643371582e-01 -8.599651455879211426e-01
6.033000000000000000e+03 3.510115814208984375e+01 -8.567899703979492188e+00 2.006321191787719727e+00 3.990399122238159180e+00 1.799016118049621582e+00 5.047240257263183594e-01
6.034000000000000000e+03 1.985301017761230469e+01 -9.419559478759765625e+00 4.586045742034912109e-01 -2.194707393646240234e-01 7.174015045166015625e-02 3.245054781436920166e-01
6.035000000000000000e+03 5.563335037231445312e+01 8.940572738647460938e+00 7.802947163581848145e-01 1.692750215530395508e+00 7.419134974479675293e-01 -7.860668897628784180e-01
6.036000000000000000e+03 3.061908340454101562e+01 -8.951314926147460938e+00 1.805637359619140625e+00 1.512271016836166382e-01 5.870593786239624023e-01 2.350993901491165161e-01
6.037000000000000000e+03 3.056634330749511719e+01 -8.125405311584472656e+00 1.765987992286682129e+00 1.149321496486663818e-01 5.642760396003723145e-01 1.005006358027458191e-01
6.038000000000000000e+03 8.469983100891113281e+00 2.547258377075195312e+01 1.456487079849466681e-04 1.309971121372655034e-04 8.299374167108908296e-05 4.119407458347268403e-05
6.039000000000000000e+03 6.606516361236572266e+00 1.589200687408447266e+01 -6.793252396164461970e-05 2.503455834812484682e-05 -1.286938913835911080e-05 2.188213784393155947e-06
6.040000000000000000e+03 2.463902473449707031e+01 -9.253256797790527344e+00 8.313515782356262207e-01 -4.861968159675598145e-01 1.035464257001876831e-01 2.540585994720458984e-01
6.041000000000000000e+03 7.098944091796875000e+01 1.767953109741210938e+01 2.578679919242858887e-01 5.381304264068603516e+00 1.691751599311828613e+00 -8.322156667709350586e-01
6.042000000000000000e+03 9.682030677795410156e+00 1.253467559814453125e+01 1.691588477115146816e-05 -3.892233144142664969e-05 -6.601933364436263219e-06 1.422986883881094400e-06
6.043000000000000000e+03 5.186140060424804688e+01 1.399716091156005859e+01 1.867555737495422363e+00 2.936164379119873047e+00 1.441116094589233398e+00 6.105411052703857422e-01
6.044000000000000000e+03 5.110543060302734375e+01 1.386375999450683594e+01 1.912529110908508301e+00 3.138646364212036133e+00 1.515352606773376465e+00 8.539097309112548828e-01
6.045000000000000000e+03 7.175327301025390625e+01 1.550828170776367188e+01 1.722231954336166382e-01 5.602833747863769531e+00 1.732517004013061523e+00 -8.863604664802551270e-01
6.046000000000000000e+03 7.426882171630859375e+01 -2.472447013854980469e+01 3.286188244819641113e-01 1.015890216827392578e+01 3.146256208419799805e+00 -1.601606488227844238e+00
6.047000000000000000e+03 7.061873626708984375e+01 1.826018333435058594e+01 2.940873503684997559e-01 5.275943756103515625e+00 1.671009302139282227e+00 -8.122280836105346680e-01
6.048000000000000000e+03 4.752637100219726562e+01 1.393215942382812500e+01 1.909679889678955078e+00 4.613311767578125000e+00 1.956897497177124023e+00 1.793440580368041992e+00
6.049000000000000000e+03 7.356503295898437500e+01 1.943906426429748535e+00 -4.671452641487121582e-01 7.453301429748535156e+00 2.095846891403198242e+00 -2.983202636241912842e-01
6.050000000000000000e+03 7.093178272247314453e+00 2.404788780212402344e+01 7.412932609440758824e-05 1.265644095838069916e-04 6.020811997586861253e-05 4.224881195113994181e-05
6.051000000000000000e+03 5.034381866455078125e+01 1.444091606140136719e+01 1.929435491561889648e+00 3.491588592529296875e+00 1.626307249069213867e+00 1.098341822624206543e+00
6.052000000000000000e+03 1.001739120483398438e+01 2.233644485473632812e+01 9.355854854220524430e-05 2.636363933561369777e-05 3.597665636334568262e-05 -1.006465245154686272e-04
6.053000000000000000e+03 7.483374023437500000e+01 -2.482492637634277344e+01 2.673376500606536865e-01 1.001207637786865234e+01 3.083824396133422852e+00 -1.615813374519348145e+00
6.054000000000000000e+03 7.066246986389160156e+00 1.074390506744384766e+01 1.419673594682535622e-06 3.785434091696515679e-05 1.178220463771140203e-05 -1.740114566928241402e-05
6.055000000000000000e+03 7.303678894042968750e+01 2.036504268646240234e+00 -5.234952569007873535e-01 7.375482559204101562e+00 2.055596113204956055e+00 -3.798668086528778076e-01
6.056000000000000000e+03 6.765419483184814453e+00 2.140073966979980469e+01 6.426012259908020496e-05 5.047720151196699589e-06 2.079235309793148190e-05 3.203954838681966066e-05
6.057000000000000000e+03 6.547432899475097656e+00 2.386025047302246094e+01 5.575106843025423586e-05 -7.893041765782982111e-05 -6.953805495868436992e-06 -6.711345122312195599e-06
6.058000000000000000e+03 4.888129806518554688e+01 1.788976287841796875e+01 1.467795252799987793e+00 4.695719242095947266e+00 1.849054336547851562e+00 1.232445359230041504e+00
6.059000000000000000e+03 7.835763454437255859e+00 2.374247741699218750e+01 1.483982050558552146e-04 7.400732283713296056e-05 6.672165909549221396e-05 -7.721287693129852414e-05
6.060000000000000000e+03 7.409260749816894531e+00 1.118664550781250000e+01 1.454760149499634281e-05 -4.033802179037593305e-05 -7.737125997664406896e-06 6.590114480786724016e-06
6.061000000000000000e+03 7.647112369537353516e+00 1.271801853179931641e+01 -3.330485560582019389e-05 4.562591129797510803e-05 3.696316525747533888e-06 7.092048690537922084e-06
6.062000000000000000e+03 6.933560180664062500e+01 1.017428588867187500e+01 -7.938688248395919800e-02 5.497142791748046875e+00 1.625326752662658691e+00 -1.258417487144470215e+00
6.063000000000000000e+03 7.040974426269531250e+01 1.000048828125000000e+01 -1.052193194627761841e-01 5.774636268615722656e+00 1.700825095176696777e+00 -1.151351690292358398e+00
6.064000000000000000e+03 1.171745300292968750e+01 -1.416588187217712402e+00 -4.199596941471099854e-01 9.319349192082881927e-03 -1.231921091675758362e-01 3.894369304180145264e-02
6.065000000000000000e+03 1.027132415771484375e+01 -1.186757922172546387e+00 -4.035072624683380127e-01 3.081146068871021271e-02 -1.118087470531463623e-01 7.141430396586656570e-03
6.066000000000000000e+03 1.244032764434814453e+01 -1.534988999366760254e+00 -4.191046357154846191e-01 2.975642681121826172e-03 -1.248387023806571960e-01 5.254980176687240601e-02
6.067000000000000000e+03 1.253947448730468750e+01 -8.014244437217712402e-01 -5.154167413711547852e-01 -1.112082321196794510e-02 -1.579612642526626587e-01 7.325652241706848145e-02
6.068000000000000000e+03 1.180517101287841797e+01 -6.811850070953369141e-01 -4.957247674465179443e-01 -5.445056129246950150e-03 -1.503509432077407837e-01 6.792938709259033203e-02
6.069000000000000000e+03 1.107078933715820312e+01 -5.637502074241638184e-01 -4.679263234138488770e-01 -3.786752466112375259e-03 -1.415139287710189819e-01 5.720663070678710938e-02
6.070000000000000000e+03 1.099450206756591797e+01 -1.300992131233215332e+00 -4.077424705028533936e-01 2.200562134385108948e-02 -1.157210618257522583e-01 2.131627686321735382e-02
6.071000000000000000e+03 1.033618259429931641e+01 -4.476772546768188477e-01 -4.218846261501312256e-01 9.795407764613628387e-03 -1.236267611384391785e-01 3.722105920314788818e-02
6.072000000000000000e+03 8.671915054321289062e+00 -1.128651261329650879e+00 -3.513084948062896729e-01 1.938987523317337036e-02 -9.957558661699295044e-02 -2.505168318748474121e-02
6.073000000000000000e+03 8.723665237426757812e+00 -3.886512219905853271e-01 -4.081296324729919434e-01 4.275667015463113785e-03 -1.211561858654022217e-01 -8.556215092539787292e-03
6.074000000000000000e+03 9.553645133972167969e+00 -3.894390165805816650e-01 -4.049946963787078857e-01 1.102143805474042892e-02 -1.181919723749160767e-01 9.180632419884204865e-03
6.075000000000000000e+03 7.893002033233642578e+00 -3.884159028530120850e-01 -3.816740214824676514e-01 2.480348572134971619e-03 -1.137581020593643188e-01 -1.635689847171306610e-02
6.076000000000000000e+03 7.061622619628906250e+00 -3.884136378765106201e-01 -3.397543132305145264e-01 2.389048226177692413e-03 -1.012095734477043152e-01 -2.190775237977504730e-02
6.077000000000000000e+03 6.230716705322265625e+00 -3.884360790252685547e-01 -2.872505784034729004e-01 6.763903074897825718e-04 -8.597225695848464966e-02 -2.554717287421226501e-02
6.078000000000000000e+03 5.399719238281250000e+00 -3.884901404380798340e-01 -2.284712046384811401e-01 6.706730928272008896e-04 -6.834015995264053345e-02 -2.712612785398960114e-02
6.079000000000000000e+03 4.568166255950927734e+00 -3.884501457214355469e-01 -1.681017279624938965e-01 -1.081551541574299335e-03 -5.075498297810554504e-02 -2.682625874876976013e-02
6.080000000000000000e+03 3.737103939056396484e+00 -3.883347213268280029e-01 -1.108715832233428955e-01 -1.475961063988506794e-03 -3.370426222681999207e-02 -2.399762906134128571e-02
6.081000000000000000e+03 2.906669378280639648e+00 -3.883092403411865234e-01 -6.198695674538612366e-02 -2.701689722016453743e-03 -1.940659433603286743e-02 -1.938743889331817627e-02
6.082000000000000000e+03 2.076032876968383789e+00 -3.883911371231079102e-01 -2.584955655038356781e-02 -3.432952566072344780e-03 -8.784752339124679565e-03 -1.248540636152029037e-02
6.083000000000000000e+03 1.245666980743408203e+00 -3.886933028697967529e-01 -6.363555788993835449e-03 -3.439367981627583504e-03 -2.940877107903361320e-03 -4.757944494485855103e-03
6.084000000000000000e+03 4.153075516223907471e-01 -3.894628286361694336e-01 -4.236839304212480783e-04 -3.781566338147968054e-04 -2.405521663604304194e-04 -4.120574158150702715e-04
6.085000000000000000e+03 4.128432273864746094e-01 -1.129462838172912598e+00 -4.128631670027971268e-03 -4.713441710919141769e-03 -2.652622060850262642e-03 -4.428656771779060364e-03
6.086000000000000000e+03 9.496965408325195312e+00 -1.129438996315002441e+00 -3.831124603748321533e-01 3.056904859840869904e-02 -1.057630181312561035e-01 -2.784247510135173798e-03
6.087000000000000000e+03 7.846179485321044922e+00 -1.128415942192077637e+00 -3.273402154445648193e-01 1.304593682289123535e-02 -9.428828209638595581e-02 -4.647668823599815369e-02
6.088000000000000000e+03 7.019729137420654297e+00 -1.128413677215576172e+00 -2.931348085403442383e-01 9.147525765001773834e-03 -8.519618213176727295e-02 -6.067550182342529297e-02
6.089000000000000000e+03 6.193751811981201172e+00 -1.128436088562011719e+00 -2.522343695163726807e-01 5.745780188590288162e-03 -7.394658029079437256e-02 -7.061189413070678711e-02
6.090000000000000000e+03 5.367682456970214844e+00 -1.128490090370178223e+00 -2.068293690681457520e-01 8.607121999375522137e-04 -6.179059669375419617e-02 -7.530838251113891602e-02
6.091000000000000000e+03 4.541058540344238281e+00 -1.128450155258178711e+00 -1.600932925939559937e-01 -3.052879823371767998e-03 -4.894385114312171936e-02 -7.391896098852157593e-02
6.092000000000000000e+03 3.714925050735473633e+00 -1.128334760665893555e+00 -1.155230253934860229e-01 -7.962248288094997406e-03 -3.704558312892913818e-02 -6.758730858564376831e-02
6.093000000000000000e+03 2.889419078826904297e+00 -1.128309249877929688e+00 -7.541655749082565308e-02 -1.191509515047073364e-02 -2.619949541985988617e-02 -5.486632138490676880e-02
6.094000000000000000e+03 2.063711166381835938e+00 -1.128391146659851074e+00 -4.296401143074035645e-02 -1.561678294092416763e-02 -1.757423952221870422e-02 -3.808357194066047668e-02
6.095000000000000000e+03 1.238273978233337402e+00 -1.128693342208862305e+00 -1.798890344798564911e-02 -1.568987034261226654e-02 -1.010363176465034485e-02 -1.858228258788585663e-02
