# el_label, x, y, sXX, sYY, sZZ, sXY
1.000000000000000000e+00 6.971701812744140625e+01 -1.408089447021484375e+01 -3.549223184585571289e+00 -3.150592327117919922e+00 -2.009944677352905273e+00 -2.532795906066894531e+00
2.000000000000000000e+00 6.952566528320312500e+01 -1.413569545745849609e+01 -1.053273558616638184e+00 1.102959275245666504e+00 1.490571629256010056e-02 3.051710426807403564e-01
3.000000000000000000e+00 6.933431243896484375e+01 -1.419049644470214844e+01 -1.771751642227172852e+00 -4.656361639499664307e-01 -6.712163686752319336e-01 -3.356651663780212402e-01
4.000000000000000000e+00 6.914295959472656250e+01 -1.424529647827148438e+01 -1.720362305641174316e+00 2.024835199117660522e-01 -4.553636312484741211e-01 -3.768976926803588867e-01
5.000000000000000000e+00 6.973847961425781250e+01 -1.413514518737792969e+01 7.911984920501708984e+00 -1.107333421707153320e+00 2.041395425796508789e+00 3.625856161117553711e+00
6.000000000000000000e+00 6.956143951416015625e+01 -1.422611331939697266e+01 2.045797586441040039e+00 8.694645762443542480e-01 8.745786547660827637e-01 1.494685292243957520e+00
7.000000000000000000e+00 6.938439941406250000e+01 -1.431708049774169922e+01 1.903642535209655762e+00 1.457177877426147461e+00 1.008246183395385742e+00 1.798435449600219727e+00
8.000000000000000000e+00 6.920735931396484375e+01 -1.440804862976074219e+01 1.249897241592407227e+00 5.521820187568664551e-01 5.406237840652465820e-01 9.895813465118408203e-01
9.000000000000000000e+00 6.977008819580078125e+01 -1.418418502807617188e+01 1.002076721191406250e+01 5.476083278656005859e+00 4.649055004119873047e+00 9.445629119873046875e+00
1.000000000000000000e+01 6.961412048339843750e+01 -1.430784606933593750e+01 5.886046409606933594e+00 3.313694477081298828e+00 2.759922266006469727e+00 5.276025772094726562e+00
1.100000000000000000e+01 6.945815277099609375e+01 -1.443150806427001953e+01 3.573481559753417969e+00 3.278146982192993164e+00 2.055488586425781250e+00 3.650089025497436523e+00
1.200000000000000000e+01 6.930218505859375000e+01 -1.455516910552978516e+01 3.048908233642578125e+00 2.984795808792114258e+00 1.810111165046691895e+00 3.053339958190917969e+00
1.300000000000000000e+01 6.981063079833984375e+01 -1.422614192962646484e+01 9.884327888488769531e+00 1.317246818542480469e+01 6.917038917541503906e+00 1.295328330993652344e+01
1.400000000000000000e+01 6.968168640136718750e+01 -1.437777423858642578e+01 5.954399108886718750e+00 8.315841674804687500e+00 4.281072139739990234e+00 8.259050369262695312e+00
1.500000000000000000e+01 6.955274200439453125e+01 -1.452940654754638672e+01 4.631279468536376953e+00 6.815631866455078125e+00 3.434073448181152344e+00 6.134438514709472656e+00
1.600000000000000000e+01 6.942380523681640625e+01 -1.468103885650634766e+01 3.306735277175903320e+00 5.978553771972656250e+00 2.785586833953857422e+00 4.790024280548095703e+00
1.700000000000000000e+01 6.985855865478515625e+01 -1.425941371917724609e+01 7.253976821899414062e+00 2.144676780700683594e+01 8.610222816467285156e+00 1.399673843383789062e+01
1.800000000000000000e+01 6.976156616210937500e+01 -1.443322658538818359e+01 5.260950565338134766e+00 1.426989459991455078e+01 5.859253883361816406e+00 9.752657890319824219e+00
1.900000000000000000e+01 6.966457366943359375e+01 -1.460703945159912109e+01 3.637458324432373047e+00 1.144364356994628906e+01 4.524330615997314453e+00 7.545550346374511719e+00
2.000000000000000000e+01 6.956758117675781250e+01 -1.478085327148437500e+01 3.011198282241821289e+00 1.009172153472900391e+01 3.930876016616821289e+00 6.167089939117431641e+00
2.100000000000000000e+01 6.991204071044921875e+01 -1.428272914886474609e+01 4.995499134063720703e+00 2.905480194091796875e+01 1.021508979797363281e+01 1.271143722534179688e+01
2.200000000000000000e+01 6.985070037841796875e+01 -1.447208595275878906e+01 3.316164970397949219e+00 2.031647300720214844e+01 7.089791297912597656e+00 9.371417999267578125e+00
2.300000000000000000e+01 6.978936004638671875e+01 -1.466144275665283203e+01 2.629908800125122070e+00 1.641144561767578125e+01 5.712406158447265625e+00 7.688604354858398438e+00
2.400000000000000000e+01 6.972802734375000000e+01 -1.485080051422119141e+01 1.569443345069885254e+00 1.433409214019775391e+01 4.771060466766357422e+00 6.374966144561767578e+00
2.500000000000000000e+01 6.996903228759765625e+01 -1.429519844055175781e+01 3.038067579269409180e+00 3.518060302734375000e+01 1.146560096740722656e+01 9.254960060119628906e+00
2.600000000000000000e+01 6.994569396972656250e+01 -1.449286842346191406e+01 2.096466779708862305e+00 2.555102729797363281e+01 8.294248580932617188e+00 7.663178920745849609e+00
2.700000000000000000e+01 6.992235565185546875e+01 -1.469053840637207031e+01 1.203397870063781738e+00 2.106324005126953125e+01 6.679991722106933594e+00 6.217453479766845703e+00
2.800000000000000000e+01 6.989901733398437500e+01 -1.488820838928222656e+01 6.502366662025451660e-01 1.825795936584472656e+01 5.672458648681640625e+00 5.501014709472656250e+00
2.900000000000000000e+01 7.002736663818359375e+01 -1.429634571075439453e+01 2.855156898498535156e+00 3.922569656372070312e+01 1.262425613403320312e+01 4.933638095855712891e+00
3.000000000000000000e+01 7.004291534423828125e+01 -1.449478054046630859e+01 1.461111664772033691e+00 2.942204284667968750e+01 9.264945983886718750e+00 4.555305957794189453e+00
3.100000000000000000e+01 7.005846405029296875e+01 -1.469321537017822266e+01 6.377542018890380859e-01 2.471590614318847656e+01 7.606098175048828125e+00 4.047690391540527344e+00
3.200000000000000000e+01 7.007401275634765625e+01 -1.489165019989013672e+01 4.639953002333641052e-02 2.178170585632324219e+01 6.548431873321533203e+00 3.327486038208007812e+00
3.300000000000000000e+01 7.008480834960937500e+01 -1.428612709045410156e+01 4.249627113342285156e+00 4.084701538085937500e+01 1.352899265289306641e+01 1.373828351497650146e-01
3.400000000000000000e+01 7.013864898681640625e+01 -1.447774887084960938e+01 2.131033182144165039e+00 3.179998397827148438e+01 1.017930507659912109e+01 1.263928532600402832e+00
3.500000000000000000e+01 7.019248962402343750e+01 -1.466937065124511719e+01 9.413638710975646973e-01 2.692893981933593750e+01 8.361091613769531250e+00 1.035127758979797363e+00
3.600000000000000000e+01 7.024633026123046875e+01 -1.486099338531494141e+01 3.687808811664581299e-01 2.413554573059082031e+01 7.351298332214355469e+00 1.124972105026245117e+00
3.700000000000000000e+01 7.013916778564453125e+01 -1.426493167877197266e+01 7.230571269989013672e+00 4.068509674072265625e+01 1.437470054626464844e+01 -3.696426630020141602e+00
3.800000000000000000e+01 7.022924804687500000e+01 -1.444242382049560547e+01 3.927227258682250977e+00 3.233413314819335938e+01 1.087840843200683594e+01 -2.160849809646606445e+00
3.900000000000000000e+01 7.031932830810546875e+01 -1.461991691589355469e+01 2.367909908294677734e+00 2.794079399108886719e+01 9.092611312866210938e+00 -1.615991830825805664e+00
4.000000000000000000e+01 7.040940856933593750e+01 -1.479740810394287109e+01 1.598369002342224121e+00 2.471373748779296875e+01 7.893631935119628906e+00 -1.527751207351684570e+00
4.100000000000000000e+01 7.018836212158203125e+01 -1.423357009887695312e+01 1.136920833587646484e+01 3.876399612426757812e+01 1.503996086120605469e+01 -6.520904541015625000e+00
4.200000000000000000e+01 7.031124114990234375e+01 -1.439015483856201172e+01 6.562819004058837891e+00 3.174235916137695312e+01 1.149155330657958984e+01 -4.543164253234863281e+00
4.300000000000000000e+01 7.043412017822265625e+01 -1.454673957824707031e+01 4.711636543273925781e+00 2.742140960693359375e+01 9.639913558959960938e+00 -3.968365430831909180e+00
4.400000000000000000e+01 7.055699920654296875e+01 -1.470332431793212891e+01 3.466031551361083984e+00 2.474148941040039062e+01 8.462256431579589844e+00 -3.648838520050048828e+00
4.500000000000000000e+01 7.023052215576171875e+01 -1.419324016571044922e+01 1.511473560333251953e+01 3.640556716918945312e+01 1.545608997344970703e+01 -7.756651878356933594e+00
4.600000000000000000e+01 7.038150787353515625e+01 -1.432293701171875000e+01 1.037916183471679688e+01 2.996468162536621094e+01 1.210315322875976562e+01 -5.933160305023193359e+00
4.700000000000000000e+01 7.053249359130859375e+01 -1.445263481140136719e+01 7.098499298095703125e+00 2.620802116394042969e+01 9.991955757141113281e+00 -5.158568382263183594e+00
4.800000000000000000e+01 7.068347930908203125e+01 -1.458233261108398438e+01 5.777311325073242188e+00 2.384693145751953125e+01 8.887272834777832031e+00 -4.825259685516357422e+00
4.900000000000000000e+01 7.026403045654296875e+01 -1.414548015594482422e+01 1.942125892639160156e+01 3.404190826416015625e+01 1.603894996643066406e+01 -7.249380588531494141e+00
5.000000000000000000e+01 7.043735504150390625e+01 -1.424333858489990234e+01 1.320685958862304688e+01 2.785049629211425781e+01 1.231720638275146484e+01 -6.366140365600585938e+00
5.100000000000000000e+01 7.061067962646484375e+01 -1.434119606018066406e+01 1.072715950012207031e+01 2.450787162780761719e+01 1.057050895690917969e+01 -5.118043422698974609e+00
5.200000000000000000e+01 7.078400421142578125e+01 -1.443905448913574219e+01 7.532627105712890625e+00 2.201513671875000000e+01 8.864329338073730469e+00 -4.556588649749755859e+00
5.300000000000000000e+01 7.028761291503906250e+01 -1.409211635589599609e+01 2.203524971008300781e+01 3.193332481384277344e+01 1.619057273864746094e+01 -6.064777851104736328e+00
5.400000000000000000e+01 7.047666168212890625e+01 -1.415439701080322266e+01 1.632010269165039062e+01 2.614189910888671875e+01 1.273859977722167969e+01 -5.127649784088134766e+00
5.500000000000000000e+01 7.066571044921875000e+01 -1.421667957305908203e+01 1.280115222930908203e+01 2.274377059936523438e+01 1.066347694396972656e+01 -4.630530834197998047e+00
5.600000000000000000e+01 7.085475921630859375e+01 -1.427896022796630859e+01 1.144033336639404297e+01 2.035910606384277344e+01 9.539832115173339844e+00 -3.711660623550415039e+00
5.700000000000000000e+01 7.030036926269531250e+01 -1.403518390655517578e+01 2.385321235656738281e+01 3.068613624572753906e+01 1.636180496215820312e+01 -3.765110015869140625e+00
5.800000000000000000e+01 7.049791717529296875e+01 -1.405951023101806641e+01 1.797212982177734375e+01 2.510665893554687500e+01 1.292363739013671875e+01 -3.557842731475830078e+00
5.900000000000000000e+01 7.069546508789062500e+01 -1.408383750915527344e+01 1.466664409637451172e+01 2.143001556396484375e+01 1.082899761199951172e+01 -2.852226257324218750e+00
6.000000000000000000e+01 7.089302062988281250e+01 -1.410816478729248047e+01 1.254578590393066406e+01 2.006554985046386719e+01 9.783400535583496094e+00 -3.246032953262329102e+00
6.100000000000000000e+01 7.030180358886718750e+01 -1.397685909271240234e+01 2.433933830261230469e+01 3.089108467102050781e+01 1.656912612915039062e+01 -1.662078380584716797e+00
6.200000000000000000e+01 7.050031280517578125e+01 -1.396230220794677734e+01 1.848590850830078125e+01 2.442339706420898438e+01 1.287279129028320312e+01 -1.113332867622375488e+00
6.300000000000000000e+01 7.069882202148437500e+01 -1.394774532318115234e+01 1.524599266052246094e+01 2.166009521484375000e+01 1.107182693481445312e+01 -1.435039043426513672e+00
6.400000000000000000e+01 7.089733886718750000e+01 -1.393318843841552734e+01 1.211795806884765625e+01 1.942532348632812500e+01 9.462984085083007812e+00 -6.451936960220336914e-01
6.500000000000000000e+01 7.029187011718750000e+01 -1.391936683654785156e+01 2.324385833740234375e+01 3.148192787170410156e+01 1.641773605346679688e+01 8.765171170234680176e-01
6.600000000000000000e+01 7.048376464843750000e+01 -1.386648273468017578e+01 1.794748115539550781e+01 2.532584762573242188e+01 1.298199844360351562e+01 4.454896748065948486e-01
6.700000000000000000e+01 7.067565155029296875e+01 -1.381359767913818359e+01 1.418381690979003906e+01 2.204540443420410156e+01 1.086876583099365234e+01 7.862054109573364258e-01
6.800000000000000000e+01 7.086753845214843750e+01 -1.376071262359619141e+01 1.251078224182128906e+01 1.969763183593750000e+01 9.662524223327636719e+00 7.415590286254882812e-01
6.900000000000000000e+01 7.027095031738281250e+01 -1.386490440368652344e+01 2.153024101257324219e+01 3.298393249511718750e+01 1.635425186157226562e+01 2.304953336715698242e+00
7.000000000000000000e+01 7.044889068603515625e+01 -1.377571105957031250e+01 1.561206817626953125e+01 2.704668045043945312e+01 1.279762458801269531e+01 1.944894194602966309e+00
7.100000000000000000e+01 7.062683105468750000e+01 -1.368651866912841797e+01 1.304109668731689453e+01 2.289140701293945312e+01 1.077975082397460938e+01 1.694481492042541504e+00
7.200000000000000000e+01 7.080477142333984375e+01 -1.359732532501220703e+01 1.088890647888183594e+01 2.086621856689453125e+01 9.526536941528320312e+00 1.737372636795043945e+00
7.300000000000000000e+01 7.023983764648437500e+01 -1.381555080413818359e+01 1.845640754699707031e+01 3.512759017944335938e+01 1.607519912719726562e+01 2.980874300003051758e+00
7.400000000000000000e+01 7.039703369140625000e+01 -1.369345569610595703e+01 1.317899990081787109e+01 2.893903541564941406e+01 1.263541030883789062e+01 2.416366338729858398e+00
7.500000000000000000e+01 7.055422973632812500e+01 -1.357136058807373047e+01 1.035615634918212891e+01 2.484845352172851562e+01 1.056138324737548828e+01 1.577734470367431641e+00
7.600000000000000000e+01 7.071142578125000000e+01 -1.344926452636718750e+01 8.890312194824218750e+00 2.143858146667480469e+01 9.098668098449707031e+00 1.679769754409790039e+00
7.700000000000000000e+01 7.019971466064453125e+01 -1.377319049835205078e+01 1.522767829895019531e+01 3.766547393798828125e+01 1.586794567108154297e+01 2.368041753768920898e+00
7.800000000000000000e+01 7.033016967773437500e+01 -1.362285518646240234e+01 1.010809040069580078e+01 3.048453712463378906e+01 1.217778778076171875e+01 1.623728871345520020e+00
7.900000000000000000e+01 7.046061706542968750e+01 -1.347251987457275391e+01 7.838852405548095703e+00 2.697492218017578125e+01 1.044413185119628906e+01 9.267941713333129883e-01
8.000000000000000000e+01 7.059107208251953125e+01 -1.332218456268310547e+01 6.039386272430419922e+00 2.310045814514160156e+01 8.741953849792480469e+00 2.543276846408843994e-01
8.100000000000000000e+01 7.015212249755859375e+01 -1.373944187164306641e+01 1.154999256134033203e+01 3.926923751831054688e+01 1.524576854705810547e+01 6.179107427597045898e-01
8.200000000000000000e+01 7.025084686279296875e+01 -1.356660652160644531e+01 7.765027999877929688e+00 3.197409439086914062e+01 1.192173671722412109e+01 -5.079913139343261719e-01
8.300000000000000000e+01 7.034957122802734375e+01 -1.339377212524414062e+01 5.313007354736328125e+00 2.748800659179687500e+01 9.840304374694824219e+00 -5.079283714294433594e-01
8.400000000000000000e+01 7.044829559326171875e+01 -1.322093772888183594e+01 4.559169769287109375e+00 2.577880668640136719e+01 9.101392745971679688e+00 -8.115110993385314941e-01
8.500000000000000000e+01 7.009887695312500000e+01 -1.371559238433837891e+01 8.965212821960449219e+00 4.018137359619140625e+01 1.474397659301757812e+01 -2.592826366424560547e+00
8.600000000000000000e+01 7.016210174560546875e+01 -1.352685737609863281e+01 5.749761581420898438e+00 3.194147300720214844e+01 1.130737018585205078e+01 -3.219329118728637695e+00
8.700000000000000000e+01 7.022533416748046875e+01 -1.333812427520751953e+01 4.043233394622802734e+00 2.747283363342285156e+01 9.454819679260253906e+00 -2.933005332946777344e+00
8.800000000000000000e+01 7.028855895996093750e+01 -1.314938926696777344e+01 3.755584239959716797e+00 2.462327575683593750e+01 8.513657569885253906e+00 -2.458030939102172852e+00
8.900000000000000000e+01 7.004201507568359375e+01 -1.370255279541015625e+01 7.561312675476074219e+00 3.945977783203125000e+01 1.410632705688476562e+01 -6.666767597198486328e+00
9.000000000000000000e+01 7.006732940673828125e+01 -1.350512599945068359e+01 4.780492782592773438e+00 3.046282768249511719e+01 1.057299613952636719e+01 -6.356372356414794922e+00
9.100000000000000000e+01 7.009264373779296875e+01 -1.330770015716552734e+01 3.933674573898315430e+00 2.599234962463378906e+01 8.977807044982910156e+00 -5.522099018096923828e+00
9.200000000000000000e+01 7.011795806884765625e+01 -1.311027336120605469e+01 2.592477083206176758e+00 2.238174438476562500e+01 7.492266178131103516e+00 -5.617468357086181641e+00
9.300000000000000000e+01 6.998369598388671875e+01 -1.370082283020019531e+01 7.170515060424804688e+00 3.655474472045898438e+01 1.311757755279541016e+01 -1.092040538787841797e+01
9.400000000000000000e+01 6.997013092041015625e+01 -1.350224208831787109e+01 5.567391872406005859e+00 2.755795097351074219e+01 9.937602996826171875e+00 -9.243825912475585938e+00
9.500000000000000000e+01 6.995656585693359375e+01 -1.330366230010986328e+01 4.059760093688964844e+00 2.281166458129882812e+01 8.061427116394042969e+00 -8.139007568359375000e+00
9.600000000000000000e+01 6.994300079345703125e+01 -1.310508155822753906e+01 2.717813730239868164e+00 2.093807601928710938e+01 7.096766948699951172e+00 -7.423440933227539062e+00
9.700000000000000000e+01 6.992615509033203125e+01 -1.371046733856201172e+01 8.826403617858886719e+00 3.181365585327148438e+01 1.219201850891113281e+01 -1.444904613494873047e+01
9.800000000000000000e+01 6.987422943115234375e+01 -1.351831626892089844e+01 6.848505020141601562e+00 2.299086761474609375e+01 8.951811790466308594e+00 -1.141011142730712891e+01
9.900000000000000000e+01 6.982230377197265625e+01 -1.332616519927978516e+01 5.222395420074462891e+00 1.919287490844726562e+01 7.324581146240234375e+00 -9.865790367126464844e+00
1.000000000000000000e+02 6.977037811279296875e+01 -1.313401412963867188e+01 4.136903762817382812e+00 1.685742568969726562e+01 6.298298835754394531e+00 -8.074039459228515625e+00
1.010000000000000000e+02 6.987158966064453125e+01 -1.373111724853515625e+01 1.147724151611328125e+01 2.533264923095703125e+01 1.104296779632568359e+01 -1.643272781372070312e+01
1.020000000000000000e+02 6.978328704833984375e+01 -1.355273342132568359e+01 8.687976837158203125e+00 1.766630935668945312e+01 7.906285762786865234e+00 -1.246172046661376953e+01
1.030000000000000000e+02 6.969498443603515625e+01 -1.337434959411621094e+01 6.854795455932617188e+00 1.458209037780761719e+01 6.431065559387207031e+00 -1.002866744995117188e+01
1.040000000000000000e+02 6.960668182373046875e+01 -1.319596576690673828e+01 5.766916275024414062e+00 1.226233673095703125e+01 5.408775806427001953e+00 -8.882919311523437500e+00
1.050000000000000000e+02 6.982207489013671875e+01 -1.376198482513427734e+01 1.440944480895996094e+01 1.773212623596191406e+01 9.642471313476562500e+00 -1.657711982727050781e+01
1.060000000000000000e+02 6.970076751708984375e+01 -1.360418033599853516e+01 1.037437725067138672e+01 1.221644210815429688e+01 6.777245998382568359e+00 -1.162432479858398438e+01
1.070000000000000000e+02 6.957946014404296875e+01 -1.344637489318847656e+01 8.346329689025878906e+00 9.536147117614746094e+00 5.364743232727050781e+00 -9.427757263183593750e+00
1.080000000000000000e+02 6.945815277099609375e+01 -1.328856945037841797e+01 6.683447360992431641e+00 8.687129974365234375e+00 4.611173152923583984e+00 -7.970545291900634766e+00
1.090000000000000000e+02 6.977951812744140625e+01 -1.380189228057861328e+01 1.633558273315429688e+01 1.069531536102294922e+01 8.109269142150878906e+00 -1.431999301910400391e+01
1.100000000000000000e+02 6.962983703613281250e+01 -1.367069149017333984e+01 1.141378116607666016e+01 6.685966491699218750e+00 5.429924011230468750e+00 -9.543079376220703125e+00
1.110000000000000000e+02 6.948015594482421875e+01 -1.353949069976806641e+01 8.639605522155761719e+00 5.623435020446777344e+00 4.278912067413330078e+00 -7.397912979125976562e+00
1.120000000000000000e+02 6.933047485351562500e+01 -1.340828990936279297e+01 7.161448955535888672e+00 4.886669635772705078e+00 3.614435434341430664e+00 -6.092762947082519531e+00
1.130000000000000000e+02 6.974552917480468750e+01 -1.384931468963623047e+01 1.674019622802734375e+01 4.286786556243896484e+00 6.308094978332519531e+00 -1.014911365509033203e+01
1.140000000000000000e+02 6.957319641113281250e+01 -1.374972820281982422e+01 1.036309719085693359e+01 2.697552919387817383e+00 3.918195009231567383e+00 -6.368371963500976562e+00
1.150000000000000000e+02 6.940085601806640625e+01 -1.365014171600341797e+01 7.968638896942138672e+00 2.427521705627441406e+00 3.118848323822021484e+00 -4.654994487762451172e+00
1.160000000000000000e+02 6.922851562500000000e+01 -1.355055522918701172e+01 6.185479164123535156e+00 2.318941116333007812e+00 2.551326036453247070e+00 -3.862644910812377930e+00
1.170000000000000000e+02 6.972142028808593750e+01 -1.390244102478027344e+01 1.352950000762939453e+01 -2.047426812350749969e-02 4.052707672119140625e+00 -5.154096126556396484e+00
1.180000000000000000e+02 6.953300476074218750e+01 -1.383827209472656250e+01 7.693983078002929688e+00 1.588288992643356323e-01 2.355843544006347656e+00 -2.670086622238159180e+00
1.190000000000000000e+02 6.934458923339843750e+01 -1.377410221099853516e+01 5.086103916168212891e+00 8.653404712677001953e-01 1.785433411598205566e+00 -2.163512229919433594e+00
1.200000000000000000e+02 6.915617370605468750e+01 -1.370993423461914062e+01 4.415215015411376953e+00 9.604436159133911133e-01 1.612697601318359375e+00 -1.886344194412231445e+00
1.210000000000000000e+02 6.970809173583984375e+01 -1.395924186706542969e+01 6.986367225646972656e+00 -2.295666694641113281e+00 1.407210111618041992e+00 4.116234779357910156e-01
1.220000000000000000e+02 6.951079559326171875e+01 -1.393294143676757812e+01 1.604709386825561523e+00 2.655280986800789833e-03 4.822094142436981201e-01 -4.169017970561981201e-01
1.230000000000000000e+02 6.931349945068359375e+01 -1.390664005279541016e+01 2.163944005966186523e+00 3.765831589698791504e-01 7.621581554412841797e-01 -9.670381546020507812e-01
1.240000000000000000e+02 6.911620330810546875e+01 -1.388033866882324219e+01 1.315081477165222168e+00 -3.443483635783195496e-02 3.841939866542816162e-01 -2.636246085166931152e-01
1.250000000000000000e+02 6.970606994628906250e+01 -1.401755046844482422e+01 -7.468988895416259766e+00 -1.567860603332519531e+00 -2.711054801940917969e+00 1.750229835510253906e+00
1.260000000000000000e+02 6.950742340087890625e+01 -1.403012180328369141e+01 -1.847580432891845703e+00 6.706497669219970703e-01 -3.530791997909545898e-01 -9.017173647880554199e-01
1.270000000000000000e+02 6.930878448486328125e+01 -1.404269218444824219e+01 -2.499742984771728516e+00 -3.824096024036407471e-01 -8.646457791328430176e-01 -1.140475347638130188e-01
1.280000000000000000e+02 6.911013793945312500e+01 -1.405526351928710938e+01 -2.121691465377807617e+00 2.045451104640960693e-01 -5.751438736915588379e-01 -2.895877957344055176e-01
1.290000000000000000e+02 6.848892974853515625e+01 -1.546180438995361328e+01 -2.488400787115097046e-01 1.451470136642456055e+00 3.607890009880065918e-01 6.833732724189758301e-01
1.300000000000000000e+02 6.820261383056640625e+01 -1.461446666717529297e+01 -1.613428592681884766e-01 -3.816547393798828125e-01 -1.628992855548858643e-01 -2.498792707920074463e-01
1.310000000000000000e+02 7.063155364990234375e+01 -1.517871284484863281e+01 1.332641094923019409e-01 2.097878265380859375e+01 6.333614349365234375e+00 -8.220196962356567383e-01
1.320000000000000000e+02 7.111361694335937500e+01 -1.377989292144775391e+01 1.081616020202636719e+01 1.805117225646972656e+01 8.660200119018554688e+00 -4.102610051631927490e-01
1.330000000000000000e+02 7.101373291015625000e+01 -1.374594879150390625e+01 1.178279781341552734e+01 1.902617263793945312e+01 9.242691040039062500e+00 7.033281326293945312e-01
1.340000000000000000e+02 7.099781036376953125e+01 -1.361002063751220703e+01 1.033614540100097656e+01 1.964514160156250000e+01 8.994385719299316406e+00 1.171470403671264648e+00
1.350000000000000000e+02 7.087280273437500000e+01 -1.320605468750000000e+01 5.376249790191650391e+00 2.028127098083496094e+01 7.697256565093994141e+00 7.891065478324890137e-01
1.360000000000000000e+02 6.972949981689453125e+01 -1.265757560729980469e+01 2.447509050369262695e+00 1.386033153533935547e+01 4.892352104187011719e+00 -6.325335502624511719e+00
1.370000000000000000e+02 6.866230010986328125e+01 -1.311602115631103516e+01 3.391891717910766602e+00 2.441648006439208984e+00 1.750061988830566406e+00 -3.206400156021118164e+00
1.380000000000000000e+02 6.773800659179687500e+01 -1.297442245483398438e+01 -1.107595205307006836e+00 -2.597752809524536133e-01 -4.102111458778381348e-01 2.411286085844039917e-01
1.390000000000000000e+02 7.010446929931640625e+01 -1.266410827636718750e+01 1.286686062812805176e+00 1.878045463562011719e+01 6.020142555236816406e+00 -4.986733913421630859e+00
1.400000000000000000e+02 7.079142761230468750e+01 -1.469897651672363281e+01 4.774129390716552734e+00 2.246616554260253906e+01 8.172088623046875000e+00 -4.146259307861328125e+00
1.410000000000000000e+02 6.944878387451171875e+01 -1.500240421295166016e+01 1.763928174972534180e+00 8.921086311340332031e+00 3.205504417419433594e+00 5.084591865539550781e+00
1.420000000000000000e+02 6.830360412597656250e+01 -1.549093055725097656e+01 1.104531362652778625e-01 -1.332630664110183716e-01 -6.842979229986667633e-03 4.626467227935791016e-01
1.430000000000000000e+02 6.985685729980468750e+01 -1.511451244354248047e+01 5.989297106862068176e-02 1.652152824401855469e+01 4.974426269531250000e+00 4.791452884674072266e+00
1.440000000000000000e+02 6.946637725830078125e+01 -1.299791431427001953e+01 4.514165878295898438e+00 1.060108470916748047e+01 4.534575462341308594e+00 -7.571426868438720703e+00
1.450000000000000000e+02 6.903624725341796875e+01 -1.346848297119140625e+01 4.988011360168457031e+00 2.074685096740722656e+00 2.118808984756469727e+00 -3.136086463928222656e+00
1.460000000000000000e+02 6.827062225341796875e+01 -1.286654758453369141e+01 2.199890851974487305e+00 2.336479187011718750e+00 1.360910892486572266e+00 -2.884660005569458008e+00
1.470000000000000000e+02 6.824691009521484375e+01 -1.304467773437500000e+01 1.595675230026245117e+00 1.419073343276977539e+00 9.044245481491088867e-01 -2.139549493789672852e+00
1.480000000000000000e+02 6.812302398681640625e+01 -1.419146442413330078e+01 -1.548075824975967407e-01 -9.422451257705688477e-02 -7.470963150262832642e-02 1.209369823336601257e-01
1.490000000000000000e+02 6.851486206054687500e+01 -1.363456726074218750e+01 1.213387489318847656e+00 5.404856204986572266e-01 5.261619091033935547e-01 -2.341208755970001221e-01
1.500000000000000000e+02 6.872198486328125000e+01 -1.409383010864257812e+01 -1.470356106758117676e+00 1.123266518115997314e-01 -4.074088335037231445e-01 3.960861358791589737e-03
1.510000000000000000e+02 6.891558837890625000e+01 -1.407184219360351562e+01 -1.876225352287292480e+00 -4.660881683230400085e-02 -5.768502354621887207e-01 -6.306777894496917725e-02
1.520000000000000000e+02 7.093642425537109375e+01 -1.342770290374755859e+01 9.000506401062011719e+00 2.016663551330566406e+01 8.750142097473144531e+00 1.713534235954284668e+00
1.530000000000000000e+02 7.010211181640625000e+01 -1.289200496673583984e+01 1.519063711166381836e+00 2.104166984558105469e+01 6.768219947814941406e+00 -5.713748931884765625e+00
1.540000000000000000e+02 6.966977691650390625e+01 -1.293092441558837891e+01 3.617829799652099609e+00 1.387823867797851562e+01 5.248820304870605469e+00 -7.610090255737304688e+00
1.550000000000000000e+02 6.928410339355468750e+01 -1.311930847167968750e+01 5.497676849365234375e+00 6.914471149444580078e+00 3.723644495010375977e+00 -6.646040916442871094e+00
1.560000000000000000e+02 6.894754028320312500e+01 -1.430603027343750000e+01 -1.425238490104675293e+00 -1.615979224443435669e-01 -4.760509133338928223e-01 -4.844629168510437012e-01
1.570000000000000000e+02 6.981334686279296875e+01 -1.539904308319091797e+01 -3.932656049728393555e-01 1.445066452026367188e+01 4.217219829559326172e+00 4.067691326141357422e+00
1.580000000000000000e+02 7.006271362304687500e+01 -1.510730266571044922e+01 -2.190137654542922974e-01 1.899942970275878906e+01 5.634124279022216797e+00 3.475754737854003906e+00
1.590000000000000000e+02 6.853353881835937500e+01 -1.500901412963867188e+01 5.563437938690185547e-01 6.116526126861572266e-01 3.503988981246948242e-01 2.408495545387268066e-01
1.600000000000000000e+02 6.887010192871093750e+01 -1.559248352050781250e+01 -2.271900773048400879e-01 5.446533203125000000e+00 1.565802931785583496e+00 2.354327678680419922e+00
1.610000000000000000e+02 6.832193756103515625e+01 -1.570374488830566406e+01 -5.217834711074829102e-01 2.215566635131835938e-01 -9.006803482770919800e-02 -6.508868932723999023e-02
1.620000000000000000e+02 6.927572631835937500e+01 -1.485573005676269531e+01 2.458067893981933594e+00 5.293423175811767578e+00 2.325447320938110352e+00 3.851304769515991211e+00
1.630000000000000000e+02 7.001378631591796875e+01 -1.537406063079833984e+01 -9.917774200439453125e-01 1.742105293273925781e+01 4.928782939910888672e+00 3.340318918228149414e+00
1.640000000000000000e+02 6.880666351318359375e+01 -1.538614940643310547e+01 5.666586160659790039e-01 3.855962276458740234e+00 1.326786279678344727e+00 2.106972932815551758e+00
1.650000000000000000e+02 7.114461517333984375e+01 -1.417972278594970703e+01 9.802044868469238281e+00 1.736163520812988281e+01 8.149104118347167969e+00 -2.613830804824829102e+00
1.660000000000000000e+02 6.964871978759765625e+01 -1.509216403961181641e+01 1.062502980232238770e+00 1.261588287353515625e+01 4.103515625000000000e+00 5.288714885711669922e+00
1.670000000000000000e+02 6.909429931640625000e+01 -1.276680088043212891e+01 3.935379981994628906e+00 6.758995056152343750e+00 3.208312511444091797e+00 -6.101946830749511719e+00
1.680000000000000000e+02 7.066842651367187500e+01 -1.297462272644042969e+01 3.276123285293579102e+00 2.108242607116699219e+01 7.307564735412597656e+00 3.886092826724052429e-02
1.690000000000000000e+02 6.987252807617187500e+01 -1.289166641235351562e+01 2.379362821578979492e+00 1.814185714721679688e+01 6.156366348266601562e+00 -6.255577087402343750e+00
1.700000000000000000e+02 7.048976898193359375e+01 -1.495555782318115234e+01 1.040164113044738770e+00 2.299188232421875000e+01 7.209614276885986328e+00 -1.294025540351867676e+00
1.710000000000000000e+02 7.087836456298828125e+01 -1.477907943725585938e+01 4.824642181396484375e+00 2.111374855041503906e+01 7.781517028808593750e+00 -3.811434268951416016e+00
1.720000000000000000e+02 6.931311035156250000e+01 -1.274737834930419922e+01 3.742652177810668945e+00 8.857311248779296875e+00 3.779989004135131836e+00 -6.611377716064453125e+00
1.730000000000000000e+02 6.826526641845703125e+01 -1.368082714080810547e+01 4.108243882656097412e-01 2.455195933580398560e-01 1.969031989574432373e-01 1.008183136582374573e-01
1.740000000000000000e+02 7.091265106201171875e+01 -1.457571601867675781e+01 6.583511829376220703e+00 2.057997703552246094e+01 8.149046897888183594e+00 -4.495677947998046875e+00
1.750000000000000000e+02 7.034795379638671875e+01 -1.287189006805419922e+01 2.241253376007080078e+00 1.995608139038085938e+01 6.659200668334960938e+00 -3.036503553390502930e+00
1.760000000000000000e+02 7.130511474609375000e+01 -1.396607112884521484e+01 9.631819725036621094e+00 1.657192993164062500e+01 7.861124992370605469e+00 -1.591466069221496582e+00
1.770000000000000000e+02 7.106097412109375000e+01 -1.390919208526611328e+01 1.094676494598388672e+01 1.787195777893066406e+01 8.645616531372070312e+00 -7.710905075073242188e-01
1.780000000000000000e+02 7.120105743408203125e+01 -1.342905902862548828e+01 8.008032798767089844e+00 1.762088203430175781e+01 7.688674449920654297e+00 1.162325859069824219e+00
1.790000000000000000e+02 7.029081726074218750e+01 -1.506202793121337891e+01 -2.796918451786041260e-01 2.168659973144531250e+01 6.422072410583496094e+00 9.105265736579895020e-01
1.800000000000000000e+02 7.023797607421875000e+01 -1.532995700836181641e+01 -5.394757986068725586e-01 1.905062866210937500e+01 5.553346157073974609e+00 1.830346107482910156e+00
1.810000000000000000e+02 6.832371520996093750e+01 -1.415237712860107422e+01 -5.356392264366149902e-01 2.579297125339508057e-02 -1.529538780450820923e-01 2.091776728630065918e-01
1.820000000000000000e+02 6.827859497070312500e+01 -1.505323886871337891e+01 2.316530197858810425e-01 -9.449715018272399902e-01 -2.139955461025238037e-01 1.142323166131973267e-01
1.830000000000000000e+02 6.853578948974609375e+01 -1.472876071929931641e+01 4.848722517490386963e-01 1.602266132831573486e-01 1.935296505689620972e-01 -1.671778410673141479e-01
1.840000000000000000e+02 6.825962066650390625e+01 -1.481608486175537109e+01 1.023283153772354126e-01 -8.028748035430908203e-01 -2.101639509201049805e-01 -1.818053871393203735e-01
1.850000000000000000e+02 6.904619598388671875e+01 -1.297798442840576172e+01 4.356958866119384766e+00 5.396625995635986328e+00 2.926075458526611328e+00 -5.592607021331787109e+00
1.860000000000000000e+02 6.868389892578125000e+01 -1.284694576263427734e+01 3.041582584381103516e+00 3.927500009536743164e+00 2.090724706649780273e+00 -4.194902896881103516e+00
1.870000000000000000e+02 6.889176177978515625e+01 -1.280040645599365234e+01 3.773152828216552734e+00 4.758078575134277344e+00 2.559369325637817383e+00 -5.081147193908691406e+00
1.880000000000000000e+02 6.806406402587890625e+01 -1.331573867797851562e+01 6.899684071540832520e-01 6.933875381946563721e-02 2.277921587228775024e-01 -5.520389676094055176e-01
1.890000000000000000e+02 6.781811523437500000e+01 -1.317298221588134766e+01 3.752657473087310791e-01 -4.634988903999328613e-01 -2.646994031965732574e-02 -1.198337674140930176e-01
1.900000000000000000e+02 6.850468444824218750e+01 -1.567239761352539062e+01 -3.198633491992950439e-01 3.016091346740722656e+00 8.088684082031250000e-01 1.033622622489929199e+00
1.910000000000000000e+02 6.879547882080078125e+01 -1.464079666137695312e+01 8.808751106262207031e-01 4.582262337207794189e-01 4.017304182052612305e-01 1.893872767686843872e-01
1.920000000000000000e+02 6.867423248291015625e+01 -1.527446651458740234e+01 3.879089355468750000e-01 2.440423727035522461e+00 8.484997749328613281e-01 1.064264297485351562e+00
1.930000000000000000e+02 6.803367614746093750e+01 -1.376082134246826172e+01 -1.635598540306091309e-01 -8.238176703453063965e-01 -2.962132692337036133e-01 4.533199369907379150e-01
1.940000000000000000e+02 6.829905700683593750e+01 -1.391771507263183594e+01 -1.916085034608840942e-01 7.718203961849212646e-02 -3.432793542742729187e-02 4.846431016921997070e-01
1.950000000000000000e+02 6.788575744628906250e+01 -1.336880779266357422e+01 -6.739488244056701660e-02 -9.625234603881835938e-01 -3.089755177497863770e-01 1.466265171766281128e-01
1.960000000000000000e+02 6.791637420654296875e+01 -1.291990756988525391e+01 2.926554679870605469e-01 1.265895485877990723e+00 4.675652980804443359e-01 -1.694470524787902832e+00
1.970000000000000000e+02 6.912915802001953125e+01 -1.469747829437255859e+01 2.274777650833129883e+00 2.327633380889892578e+00 1.380723357200622559e+00 2.246486425399780273e+00
1.980000000000000000e+02 6.852392578125000000e+01 -1.411980533599853516e+01 -1.021670818328857422e+00 9.232029318809509277e-02 -2.788051664829254150e-01 1.541017293930053711e-01
1.990000000000000000e+02 6.922196197509765625e+01 -1.554329204559326172e+01 4.587545394897460938e-01 7.919836521148681641e+00 2.513577222824096680e+00 3.725122213363647461e+00
2.000000000000000000e+02 6.928322601318359375e+01 -1.521851348876953125e+01 1.201598167419433594e+00 7.878570079803466797e+00 2.724050521850585938e+00 3.945660829544067383e+00
2.010000000000000000e+02 6.960837554931640625e+01 -1.541333770751953125e+01 -1.042993646115064621e-02 1.214688110351562500e+01 3.640935420989990234e+00 4.454102516174316406e+00
2.020000000000000000e+02 6.851578521728515625e+01 -1.388116550445556641e+01 7.414027303457260132e-02 3.369096219539642334e-01 1.233149692416191101e-01 3.356942236423492432e-01
2.030000000000000000e+02 6.846831512451171875e+01 -1.285643768310546875e+01 2.591752052307128906e+00 2.360311508178710938e+00 1.485619068145751953e+00 -3.241431951522827148e+00
2.040000000000000000e+02 6.805507659912109375e+01 -1.301134872436523438e+01 4.422402679920196533e-01 1.476750493049621582e+00 5.756972432136535645e-01 -1.381289958953857422e+00
2.050000000000000000e+02 6.914366912841796875e+01 -1.328673934936523438e+01 5.634833812713623047e+00 4.013905525207519531e+00 2.894621610641479492e+00 -5.119356155395507812e+00
2.060000000000000000e+02 6.832540893554687500e+01 -1.443071460723876953e+01 -1.653495877981185913e-01 -3.721770048141479492e-01 -1.612579822540283203e-01 -2.496298104524612427e-01
2.070000000000000000e+02 6.892758178710937500e+01 -1.486563682556152344e+01 1.551710724830627441e+00 2.302742481231689453e+00 1.156335949897766113e+00 1.430432915687561035e+00
2.080000000000000000e+02 6.872602844238281250e+01 -1.386714458465576172e+01 4.243971109390258789e-01 2.457191795110702515e-01 2.010348886251449585e-01 1.851820498704910278e-01
2.090000000000000000e+02 6.890866851806640625e+01 -1.318022060394287109e+01 4.395676136016845703e+00 3.289919853210449219e+00 2.305678844451904297e+00 -4.005469799041748047e+00
2.100000000000000000e+02 6.876477813720703125e+01 -1.507233810424804688e+01 1.011855602264404297e+00 2.087828397750854492e+00 9.299051761627197266e-01 1.282281279563903809e+00
2.110000000000000000e+02 7.108372497558593750e+01 -1.444792270660400391e+01 7.759034633636474609e+00 1.870681953430175781e+01 7.939755916595458984e+00 -3.732593536376953125e+00
2.120000000000000000e+02 6.796443176269531250e+01 -1.356037235260009766e+01 7.361099869012832642e-02 -1.088588833808898926e+00 -3.044933378696441650e-01 3.801941275596618652e-01
2.130000000000000000e+02 6.808321380615234375e+01 -1.287729167938232422e+01 1.825712084770202637e+00 1.783198833465576172e+00 1.082673311233520508e+00 -2.301198482513427734e+00
2.140000000000000000e+02 6.801683044433593750e+01 -1.316104984283447266e+01 4.989317953586578369e-01 3.073319494724273682e-01 2.418791204690933228e-01 -7.277430891990661621e-01
2.150000000000000000e+02 6.817842102050781250e+01 -1.347426891326904297e+01 5.454747676849365234e-01 2.927043437957763672e-01 2.514537274837493896e-01 -2.164496034383773804e-01
2.160000000000000000e+02 6.808460998535156250e+01 -1.397298526763916016e+01 -1.565114855766296387e-01 -4.007291495800018311e-01 -1.671721935272216797e-01 3.384892344474792480e-01
2.170000000000000000e+02 6.868555450439453125e+01 -1.564015865325927734e+01 -1.926867216825485229e-01 3.633189916610717773e+00 1.032150983810424805e+00 1.602011322975158691e+00
2.180000000000000000e+02 6.865626525878906250e+01 -1.544572830200195312e+01 -6.395129859447479248e-02 3.294352293014526367e+00 9.691202640533447266e-01 1.494990468025207520e+00
2.190000000000000000e+02 6.905249786376953125e+01 -1.556976985931396484e+01 3.272995054721832275e-01 6.599277496337890625e+00 2.077973127365112305e+00 3.163376569747924805e+00
2.200000000000000000e+02 6.849573516845703125e+01 -1.524931621551513672e+01 3.878836631774902344e-01 1.124466180801391602e+00 4.537049531936645508e-01 8.213652968406677246e-01
2.210000000000000000e+02 6.828915405273437500e+01 -1.527587318420410156e+01 -4.430684447288513184e-02 -7.958411574363708496e-01 -2.520443797111511230e-01 2.612919509410858154e-01
2.220000000000000000e+02 6.815272521972656250e+01 -1.443729400634765625e+01 2.738943323493003845e-02 6.402799487113952637e-02 2.742522954940795898e-02 4.268079623579978943e-02
2.230000000000000000e+02 6.911358642578125000e+01 -1.537826347351074219e+01 6.740353703498840332e-01 6.546496391296386719e+00 2.166159391403198242e+00 3.279942989349365234e+00
2.240000000000000000e+02 6.940246582031250000e+01 -1.546406173706054688e+01 4.792678952217102051e-01 9.885178565979003906e+00 3.109333992004394531e+00 4.068490982055664062e+00
2.250000000000000000e+02 6.892321777343750000e+01 -1.386574077606201172e+01 9.749127030372619629e-01 3.984541594982147217e-01 4.120100736618041992e-01 -2.249665409326553345e-01
2.260000000000000000e+02 6.843946075439453125e+01 -1.308242225646972656e+01 2.402869939804077148e+00 2.132692337036132812e+00 1.360668778419494629e+00 -2.588424682617187500e+00
2.270000000000000000e+02 6.952410888671875000e+01 -1.269778251647949219e+01 3.070633649826049805e+00 1.227152919769287109e+01 4.602648735046386719e+00 -7.046185016632080078e+00
2.280000000000000000e+02 6.881288909912109375e+01 -1.341341114044189453e+01 3.622709512710571289e+00 1.489585757255554199e+00 1.533688545227050781e+00 -2.212802648544311523e+00
2.290000000000000000e+02 6.875190734863281250e+01 -1.364084529876708984e+01 2.292410612106323242e+00 9.013771414756774902e-01 9.581363797187805176e-01 -8.442897200584411621e-01
2.300000000000000000e+02 6.896279907226562500e+01 -1.366310596466064453e+01 3.286525726318359375e+00 6.168545484542846680e-01 1.171014070510864258e+00 -1.221751093864440918e+00
2.310000000000000000e+02 7.066358947753906250e+01 -1.495983505249023438e+01 1.880858659744262695e+00 2.276436233520507812e+01 7.393566131591796875e+00 -2.146021604537963867e+00
2.320000000000000000e+02 7.106041717529296875e+01 -1.482062149047851562e+01 4.827279567718505859e+00 1.915949630737304688e+01 7.196032524108886719e+00 -4.030936717987060547e+00
2.330000000000000000e+02 7.064715576171875000e+01 -1.482890510559082031e+01 3.162327051162719727e+00 2.371593475341796875e+01 8.063478469848632812e+00 -3.464738845825195312e+00
2.340000000000000000e+02 6.874250030517578125e+01 -1.437005138397216797e+01 -1.005774974822998047e+00 -2.382218837738037109e-02 -3.088791668415069580e-01 -5.171709656715393066e-01
2.350000000000000000e+02 6.852358245849609375e+01 -1.442442703247070312e+01 -5.563520789146423340e-01 -2.066300809383392334e-01 -2.288946509361267090e-01 -4.834230840206146240e-01
2.360000000000000000e+02 6.901719665527343750e+01 -1.451462364196777344e+01 1.046938300132751465e+00 9.045954942703247070e-01 5.854601860046386719e-01 6.606469154357910156e-01
2.370000000000000000e+02 6.856893920898437500e+01 -1.337708377838134766e+01 2.412787914276123047e+00 1.429222702980041504e+00 1.152603268623352051e+00 -1.562303900718688965e+00
2.380000000000000000e+02 6.818592071533203125e+01 -1.320794963836669922e+01 9.078329801559448242e-01 1.241579294204711914e+00 6.448236703872680664e-01 -1.215916037559509277e+00
2.390000000000000000e+02 6.835056304931640625e+01 -1.330658531188964844e+01 1.628400444984436035e+00 9.787099361419677734e-01 7.821331024169921875e-01 -1.307335734367370605e+00
2.400000000000000000e+02 6.895037078857421875e+01 -1.523204040527343750e+01 9.929894208908081055e-01 4.560400485992431641e+00 1.666016936302185059e+00 2.371546983718872070e+00
2.410000000000000000e+02 6.910744476318359375e+01 -1.504305362701416016e+01 1.766701102256774902e+00 4.785371780395507812e+00 1.965621829032897949e+00 3.095130443572998047e+00
2.420000000000000000e+02 6.861026000976562500e+01 -1.623722457885742188e+01 5.243695378303527832e-01 6.313933372497558594e+00 2.051491022109985352e+00 1.653953909873962402e+00
2.430000000000000000e+02 7.024271392822265625e+01 -1.569727325439453125e+01 -1.525825142860412598e+00 1.636617851257324219e+01 4.452105998992919922e+00 2.425494194030761719e+00
2.440000000000000000e+02 7.003718566894531250e+01 -1.566602993011474609e+01 -1.318204879760742188e+00 1.600810623168945312e+01 4.406970500946044922e+00 3.188400030136108398e+00
2.450000000000000000e+02 6.967987060546875000e+01 -2.513839530944824219e+01 6.933060288429260254e-01 9.958600044250488281e+00 3.195571660995483398e+00 1.144151668995618820e-02
2.460000000000000000e+02 7.827463531494140625e+01 -3.033892440795898438e+01 -9.425549209117889404e-02 1.153056812286376953e+01 3.430893659591674805e+00 -5.939282178878784180e-01
2.470000000000000000e+02 7.941745758056640625e+01 -2.644145774841308594e+01 -9.972310625016689301e-03 1.052015304565429688e+01 3.153054237365722656e+00 -3.107685744762420654e-01
2.480000000000000000e+02 7.817697143554687500e+01 -2.361248016357421875e+01 -2.848407439887523651e-02 9.298996925354003906e+00 2.781153917312622070e+00 -8.918059468269348145e-01
2.490000000000000000e+02 7.940793609619140625e+01 -2.226967048645019531e+01 2.795829903334379196e-03 8.394317626953125000e+00 2.519133806228637695e+00 -3.634309470653533936e-01
2.500000000000000000e+02 7.161244964599609375e+01 -1.577941513061523438e+01 7.613341808319091797e-01 1.653066825866699219e+01 5.187600612640380859e+00 -2.384464263916015625e+00
2.510000000000000000e+02 7.174436950683593750e+01 -1.501399135589599609e+01 3.808615684509277344e+00 1.624654769897460938e+01 6.016548633575439453e+00 -3.409559965133666992e+00
2.520000000000000000e+02 6.861942291259765625e+01 -2.493009948730468750e+01 7.621537446975708008e-01 1.175937461853027344e+01 3.756458520889282227e+00 1.458538889884948730e+00
2.530000000000000000e+02 6.825630187988281250e+01 -2.632499694824218750e+01 5.402919054031372070e-01 8.231540679931640625e+00 2.631549596786499023e+00 1.820515513420104980e+00
2.540000000000000000e+02 6.932186126708984375e+01 -3.107765769958496094e+01 -1.407036662101745605e+00 6.513691425323486328e+00 1.531996488571166992e+00 -7.767761498689651489e-02
2.550000000000000000e+02 6.360066986083984375e+01 -3.171136283874511719e+01 -2.791823387145996094e+00 -5.001684427261352539e-01 -9.875975251197814941e-01 -1.148453950881958008e+00
2.560000000000000000e+02 6.233409500122070312e+01 -3.240660858154296875e+01 -3.302920579910278320e+00 -5.498584508895874023e-01 -1.155833721160888672e+00 -1.097978711128234863e+00
2.570000000000000000e+02 5.963496780395507812e+01 -3.327676391601562500e+01 -3.206708908081054688e+00 -4.991431236267089844e-01 -1.111755609512329102e+00 -2.937917709350585938e-01
2.580000000000000000e+02 5.712951278686523438e+01 -3.258269500732421875e+01 -2.525981187820434570e+00 -4.646592736244201660e-01 -8.971921801567077637e-01 3.915712237358093262e-01
2.590000000000000000e+02 5.504750061035156250e+01 -3.083312797546386719e+01 -8.936138153076171875e-01 -3.961891531944274902e-01 -3.869408667087554932e-01 5.276321172714233398e-01
2.600000000000000000e+02 5.309098434448242188e+01 -3.084011077880859375e+01 -6.786087751388549805e-01 7.434620708227157593e-02 -1.812787652015686035e-01 1.845240890979766846e-01
2.610000000000000000e+02 4.493687438964843750e+01 -3.157498931884765625e+01 -4.153210520744323730e-01 2.472381591796875000e+00 6.171181201934814453e-01 -6.765688657760620117e-01
2.620000000000000000e+02 3.465950012207031250e+01 -2.843619537353515625e+01 1.396005868911743164e+00 6.290651321411132812e+00 2.305997133255004883e+00 2.140873908996582031e+00
2.630000000000000000e+02 3.222082901000976562e+01 -2.966250610351562500e+01 1.821359753608703613e+00 3.032390832901000977e+00 1.456125140190124512e+00 2.229604482650756836e+00
2.640000000000000000e+02 3.108719444274902344e+01 -3.045528602600097656e+01 1.354834914207458496e+00 1.917695522308349609e+00 9.817591309547424316e-01 1.561986684799194336e+00
2.650000000000000000e+02 2.777778053283691406e+01 -3.596884155273437500e+01 -3.077272176742553711e-01 1.088756680488586426e+00 2.343088388442993164e-01 6.169956326484680176e-01
2.660000000000000000e+02 2.910133934020996094e+01 -3.875632858276367188e+01 -5.803830027580261230e-01 1.764369606971740723e+00 3.551959991455078125e-01 4.842233955860137939e-01
2.670000000000000000e+02 2.957195663452148438e+01 -3.671585083007812500e+01 -5.504216551780700684e-01 1.889401435852050781e+00 4.016939401626586914e-01 7.338068485260009766e-01
2.680000000000000000e+02 3.586595153808593750e+01 -3.828958892822265625e+01 -1.296820521354675293e+00 3.571382284164428711e+00 6.823685169219970703e-01 1.945510208606719971e-01
2.690000000000000000e+02 3.803377532958984375e+01 -3.667138290405273438e+01 -1.280058741569519043e+00 3.763501882553100586e+00 7.450329661369323730e-01 -8.669846691191196442e-03
2.700000000000000000e+02 3.628533935546875000e+01 -3.122107696533203125e+01 -4.664923250675201416e-01 5.045009613037109375e+00 1.373555183410644531e+00 4.568859636783599854e-01
2.710000000000000000e+02 5.204215621948242188e+01 -2.796581077575683594e+01 -2.745596170425415039e-01 -1.222926229238510132e-01 -1.190556734800338745e-01 2.057005614042282104e-01
2.720000000000000000e+02 5.306372833251953125e+01 -2.892728996276855469e+01 -4.044139981269836426e-01 -1.939616799354553223e-01 -1.795127093791961670e-01 2.608224451541900635e-01
2.730000000000000000e+02 4.333213806152343750e+01 -1.885800743103027344e+01 1.158487200736999512e+00 4.942648410797119141e+00 1.830340623855590820e+00 -2.277509450912475586e+00
2.740000000000000000e+02 4.176720809936523438e+01 -1.495112895965576172e+01 5.196290612220764160e-01 1.394381523132324219e+01 4.339033126831054688e+00 -1.880364775657653809e+00
2.750000000000000000e+02 4.157575988769531250e+01 -1.356595134735107422e+01 3.666963875293731689e-01 1.404910659790039062e+01 4.324740886688232422e+00 -1.219771623611450195e+00
2.760000000000000000e+02 4.130131149291992188e+01 -1.079234695434570312e+01 4.334475398063659668e-01 1.481610202789306641e+01 4.574864864349365234e+00 -5.203449130058288574e-01
2.770000000000000000e+02 4.121700286865234375e+01 -9.387400627136230469e+00 2.402843534946441650e-01 1.539781093597412109e+01 4.691428661346435547e+00 1.770545542240142822e-01
2.780000000000000000e+02 4.143733978271484375e+01 -6.558012962341308594e+00 1.157264828681945801e+00 1.618031501770019531e+01 5.201274394989013672e+00 2.662184238433837891e+00
2.790000000000000000e+02 4.044538497924804688e+01 -5.089109420776367188e+00 7.745161652565002441e-01 1.267275810241699219e+01 4.034182071685791016e+00 1.924085140228271484e+00
2.800000000000000000e+02 4.387299346923828125e+01 2.602292969822883606e-02 -1.287212252616882324e+00 4.788860797882080078e+00 1.050494551658630371e+00 1.632191300392150879e+00
2.810000000000000000e+02 3.953560638427734375e+01 6.764979839324951172e+00 2.318956136703491211e+00 1.436995601654052734e+01 5.006673336029052734e+00 5.404679298400878906e+00
2.820000000000000000e+02 4.001063919067382812e+01 8.117815971374511719e+00 1.860895514488220215e+00 1.469515132904052734e+01 4.966814041137695312e+00 4.716784954071044922e+00
2.830000000000000000e+02 4.014014816284179688e+01 5.044839859008789062e+00 7.786216735839843750e-01 1.112405490875244141e+01 3.570802927017211914e+00 3.442675590515136719e+00
2.840000000000000000e+02 3.834411621093750000e+01 4.138468742370605469e+00 2.077373743057250977e+00 1.019043922424316406e+01 3.680343866348266602e+00 4.449419975280761719e+00
2.850000000000000000e+02 4.009132385253906250e+01 -1.098692226409912109e+01 5.933682918548583984e-01 1.218447113037109375e+01 3.833351850509643555e+00 -5.854412540793418884e-02
2.860000000000000000e+02 3.255165100097656250e+01 -1.782413864135742188e+01 -3.948589324951171875e+00 -3.990801274776458740e-01 -1.304300785064697266e+00 1.257685184478759766e+00
2.870000000000000000e+02 3.817444992065429688e+01 -1.664729881286621094e+01 -4.414054155349731445e-01 8.174174308776855469e+00 2.319830656051635742e+00 6.230072975158691406e-01
2.880000000000000000e+02 3.557764053344726562e+01 -2.198602104187011719e+01 1.739504188299179077e-01 9.262665748596191406e+00 2.830984830856323242e+00 6.798993349075317383e-01
2.890000000000000000e+02 3.514355850219726562e+01 -1.975644874572753906e+01 -5.908948183059692383e-01 6.140151023864746094e+00 1.664776802062988281e+00 3.152449131011962891e-01
2.900000000000000000e+02 4.207492446899414062e+01 -1.633513641357421875e+01 1.111237525939941406e+00 1.255728816986083984e+01 4.100557804107666016e+00 -2.668541669845581055e+00
2.910000000000000000e+02 4.222154235839843750e+01 1.206672763824462891e+01 1.141203999519348145e+00 9.831145286560058594e+00 3.291704654693603516e+00 2.829246759414672852e+00
2.920000000000000000e+02 4.164004898071289062e+01 1.797259140014648438e+01 1.862645745277404785e-01 8.351847648620605469e+00 2.561433792114257812e+00 5.153433084487915039e-01
2.930000000000000000e+02 4.164894866943359375e+01 2.647670555114746094e+01 9.782798588275909424e-02 6.575471878051757812e+00 2.001989841461181641e+00 -1.708354800939559937e-01
2.940000000000000000e+02 4.155716705322265625e+01 2.791328620910644531e+01 4.497306346893310547e-01 6.978254795074462891e+00 2.228395462036132812e+00 -7.296236753463745117e-01
2.950000000000000000e+02 4.698433303833007812e+01 1.370195269584655762e+00 -9.713951110839843750e+00 -8.499463200569152832e-01 -3.169169187545776367e+00 5.245990157127380371e-01
2.960000000000000000e+02 4.565716171264648438e+01 1.243654489517211914e+00 -6.794508934020996094e+00 4.272799193859100342e-01 -1.910168766975402832e+00 4.809845611453056335e-02
2.970000000000000000e+02 4.843674468994140625e+01 1.235040545463562012e+00 -7.789081573486328125e+00 -5.631656050682067871e-01 -2.505674123764038086e+00 1.420805215835571289e+00
2.980000000000000000e+02 5.065839004516601562e+01 2.304970741271972656e+00 -4.161326408386230469e+00 1.497087329626083374e-01 -1.203485250473022461e+00 4.373222589492797852e-02
2.990000000000000000e+02 5.116769409179687500e+01 1.735074371099472046e-01 -4.777005195617675781e+00 -2.214725315570831299e-01 -1.499543309211730957e+00 1.382233738899230957e+00
3.000000000000000000e+02 5.511770629882812500e+01 -8.127860426902770996e-01 -4.879849433898925781e+00 -9.680336713790893555e-02 -1.492995858192443848e+00 5.898105502128601074e-01
3.010000000000000000e+02 6.046784973144531250e+01 -2.141832590103149414e+00 -2.604731082916259766e+00 -7.456076890230178833e-02 -8.037875294685363770e-01 5.468695163726806641e-01
3.020000000000000000e+02 6.413105010986328125e+01 -4.271589279174804688e+00 1.015084505081176758e+00 3.401149511337280273e+00 1.324870228767395020e+00 -1.796288371086120605e+00
3.030000000000000000e+02 6.515303039550781250e+01 -5.425840854644775391e+00 1.281686425209045410e+00 5.371480464935302734e+00 1.995949983596801758e+00 -2.274677753448486328e+00
3.040000000000000000e+02 6.893893432617187500e+01 -9.848887443542480469e+00 4.672663807868957520e-01 8.589898109436035156e+00 2.717149257659912109e+00 -3.594775915145874023e+00
3.050000000000000000e+02 7.068004608154296875e+01 -1.183626079559326172e+01 3.771741092205047607e-01 1.600145530700683594e+01 4.913589000701904297e+00 -2.088096141815185547e+00
3.060000000000000000e+02 7.169345092773437500e+01 -1.300137805938720703e+01 5.495443820953369141e+00 1.544065380096435547e+01 6.280829429626464844e+00 1.174817919731140137e+00
3.070000000000000000e+02 7.300753021240234375e+01 -1.271406078338623047e+01 3.361881494522094727e+00 1.206805515289306641e+01 4.628981113433837891e+00 9.906573891639709473e-01
3.080000000000000000e+02 7.365296173095703125e+01 -1.642772865295410156e+01 1.060992956161499023e+00 1.193642234802246094e+01 3.899224519729614258e+00 -2.142725229263305664e+00
3.090000000000000000e+02 7.944605255126953125e+01 -1.240880298614501953e+01 6.403615325689315796e-02 4.157498836517333984e+00 1.266460418701171875e+00 1.240941882133483887e-01
3.100000000000000000e+02 7.182108306884765625e+01 -1.176216793060302734e+01 1.306925535202026367e+00 1.422077274322509766e+01 4.658309459686279297e+00 4.165470898151397705e-01
3.110000000000000000e+02 7.940081024169921875e+01 -5.543388366699218750e+00 -1.780626736581325531e-02 7.559511661529541016e+00 2.262511491775512695e+00 2.519026994705200195e-01
3.120000000000000000e+02 7.296719360351562500e+01 1.608285427093505859e+00 -5.867040157318115234e-01 7.269069194793701172e+00 2.004709482192993164e+00 -5.084846019744873047e-01
3.130000000000000000e+02 5.339196014404296875e+01 1.729705619812011719e+01 1.671196460723876953e+00 3.320424079895019531e+00 1.497486114501953125e+00 5.274508595466613770e-01
3.140000000000000000e+02 5.007514190673828125e+01 2.735839653015136719e+01 7.261325716972351074e-01 4.652880668640136719e+00 1.613703966140747070e+00 5.315873026847839355e-01
3.150000000000000000e+02 4.682696533203125000e+01 1.910973930358886719e+01 1.067148208618164062e+00 5.500466346740722656e+00 1.970284342765808105e+00 1.295371890068054199e+00
3.160000000000000000e+02 4.672665786743164062e+01 1.766115570068359375e+01 1.258845806121826172e+00 5.531058311462402344e+00 2.036971092224121094e+00 1.543092370033264160e+00
3.170000000000000000e+02 4.705339050292968750e+01 1.046581268310546875e+01 2.047670841217041016e+00 3.742949962615966797e+00 1.737186193466186523e+00 2.007332563400268555e+00
3.180000000000000000e+02 5.866117477416992188e+01 8.170078396797180176e-01 -2.377984046936035156e+00 4.601906239986419678e-01 -5.753380060195922852e-01 -5.443947911262512207e-01
3.190000000000000000e+02 5.996342849731445312e+01 4.118632972240447998e-01 -2.108677387237548828e+00 8.409386873245239258e-01 -3.803215920925140381e-01 -8.133543729782104492e-01
3.200000000000000000e+02 6.165977859497070312e+01 1.154161572456359863e+00 -1.515042543411254883e+00 2.057129621505737305e+00 1.626260876655578613e-01 -1.471688985824584961e+00
3.210000000000000000e+02 5.245141220092773438e+01 -2.959232032299041748e-01 -4.312106609344482422e+00 8.200600743293762207e-03 -1.291171789169311523e+00 9.516018033027648926e-01
3.220000000000000000e+02 5.377276992797851562e+01 -5.933668613433837891e-01 -4.576931476593017578e+00 -1.838896539993584156e-03 -1.373631119728088379e+00 6.655790805816650391e-01
3.230000000000000000e+02 6.578721618652343750e+01 -6.842638492584228516e+00 1.023816466331481934e+00 6.051026821136474609e+00 2.122452974319458008e+00 -2.338307619094848633e+00
3.240000000000000000e+02 6.620488739013671875e+01 -8.215032577514648438e+00 8.158494234085083008e-01 5.814850330352783203e+00 1.989210009574890137e+00 -2.388567447662353516e+00
3.250000000000000000e+02 6.668674468994140625e+01 -9.497229576110839844e+00 1.084631204605102539e+00 5.707906246185302734e+00 2.037761211395263672e+00 -2.619784355163574219e+00
3.260000000000000000e+02 7.238444519042968750e+01 -1.350354480743408203e+01 5.725649356842041016e+00 1.332028007507324219e+01 5.713778972625732422e+00 2.148489654064178467e-02
3.270000000000000000e+02 7.329197692871093750e+01 -1.388970851898193359e+01 4.023875236511230469e+00 1.142124271392822266e+01 4.633535385131835938e+00 -7.809643745422363281e-01
3.280000000000000000e+02 1.004325389862060547e+01 -1.526638031005859375e+01 1.459228992462158203e+00 8.740029931068420410e-01 6.999695897102355957e-01 8.027865886688232422e-01
3.290000000000000000e+02 1.009005451202392578e+01 -1.408699893951416016e+01 7.417010068893432617e-01 8.695394396781921387e-01 4.833721220493316650e-01 4.303767681121826172e-01
3.300000000000000000e+02 3.793851613998413086e+00 -1.922420620918273926e+00 -1.164322644472122192e-01 -1.398876681923866272e-02 -3.912631049752235413e-02 -1.060398519039154053e-01
3.310000000000000000e+02 5.996471047401428223e-01 -1.080487251281738281e+01 -4.937828518450260162e-03 -9.995108842849731445e-01 -3.013346195220947266e-01 -1.027046218514442444e-01
3.320000000000000000e+02 1.813143968582153320e+00 -1.103401374816894531e+01 -7.572322152554988861e-03 -6.890536546707153320e-01 -2.089877873659133911e-01 -2.759617865085601807e-01
3.330000000000000000e+02 6.772850513458251953e+00 -1.948672485351562500e+01 6.362146139144897461e-01 2.781234741210937500e+00 1.025234818458557129e+00 1.264861822128295898e+00
3.340000000000000000e+02 5.733427405357360840e-01 -1.784361457824707031e+01 4.135317727923393250e-02 -1.994488716125488281e+00 -5.859406590461730957e-01 -1.006082165986299515e-02
3.350000000000000000e+02 8.858770370483398438e+00 -1.679138565063476562e+01 2.295504093170166016e+00 1.462615251541137695e+00 1.127435803413391113e+00 1.393336892127990723e+00
3.360000000000000000e+02 1.006692790985107422e+01 -1.644031524658203125e+01 2.278746366500854492e+00 3.912007808685302734e-01 8.009841442108154297e-01 8.538636565208435059e-01
3.370000000000000000e+02 1.681031799316406250e+01 -1.743631935119628906e+01 4.102445244789123535e-01 3.225314989686012268e-02 1.327493041753768921e-01 -8.962043374776840210e-02
3.380000000000000000e+02 2.204073905944824219e+01 -1.745119094848632812e+01 7.516744732856750488e-02 -4.538246616721153259e-02 8.935495279729366302e-03 1.364095360040664673e-01
3.390000000000000000e+02 2.570096397399902344e+01 -1.742942047119140625e+01 -4.575241804122924805e-01 6.310019642114639282e-03 -1.353642493486404419e-01 2.914341390132904053e-01
3.400000000000000000e+02 3.033377265930175781e+01 -1.694362449645996094e+01 -2.328388690948486328e+00 -4.310612678527832031e-01 -8.278349637985229492e-01 8.039050102233886719e-01
3.410000000000000000e+02 2.953579711914062500e+01 -1.768419265747070312e+01 -2.499657630920410156e+00 -1.215918585658073425e-01 -7.863748669624328613e-01 1.737783402204513550e-01
3.420000000000000000e+02 3.141331481933593750e+01 -1.757303428649902344e+01 -4.003924846649169922e+00 -5.337458252906799316e-01 -1.361301183700561523e+00 9.601852297782897949e-01
3.430000000000000000e+02 3.630414199829101562e+01 -2.078309631347656250e+01 8.464858680963516235e-02 7.927415370941162109e+00 2.403619050979614258e+00 1.119211554527282715e+00
3.440000000000000000e+02 3.536688232421875000e+01 -2.322489929199218750e+01 2.491673082113265991e-01 1.074134922027587891e+01 3.297154903411865234e+00 1.041138410568237305e+00
3.450000000000000000e+02 3.514457702636718750e+01 -2.448615264892578125e+01 1.404498696327209473e+00 1.226161956787109375e+01 4.099835395812988281e+00 2.263645410537719727e+00
3.460000000000000000e+02 3.481988906860351562e+01 -2.573201942443847656e+01 1.598903536796569824e+00 1.015212631225585938e+01 3.525308847427368164e+00 3.427279472351074219e+00
3.470000000000000000e+02 3.445528030395507812e+01 -2.693483352661132812e+01 1.860370397567749023e+00 7.593282222747802734e+00 2.836095809936523438e+00 3.192834138870239258e+00
3.480000000000000000e+02 2.979334259033203125e+01 -3.107262802124023438e+01 5.436723232269287109e-01 8.380402326583862305e-01 4.145137667655944824e-01 8.636150956153869629e-01
3.490000000000000000e+02 2.412622261047363281e+01 -3.168335914611816406e+01 -8.765428066253662109e-01 3.826043335720896721e-03 -2.618150413036346436e-01 -5.622261017560958862e-02
3.500000000000000000e+02 2.295019149780273438e+01 -3.775586700439453125e+01 -2.153918445110321045e-01 1.812478154897689819e-01 -1.024320721626281738e-02 1.335866302251815796e-01
3.510000000000000000e+02 2.325733757019042969e+01 -3.488418197631835938e+01 -3.725499510765075684e-01 8.418780565261840820e-02 -8.650864660739898682e-02 9.193451702594757080e-02
3.520000000000000000e+02 1.880999755859375000e+01 -3.197057723999023438e+01 -9.274728894233703613e-01 -1.891828887164592743e-02 -2.839173376560211182e-01 -1.558439433574676514e-02
3.530000000000000000e+02 1.741702461242675781e+01 -3.218238830566406250e+01 -9.823485612869262695e-01 -6.752169132232666016e-02 -3.149610757827758789e-01 6.248974427580833435e-02
3.540000000000000000e+02 1.733414459228515625e+01 -3.891915512084960938e+01 -9.748360514640808105e-02 -2.253518998622894287e-01 -9.685064852237701416e-02 6.397268176078796387e-02
3.550000000000000000e+02 1.594636154174804688e+01 -3.208400344848632812e+01 -1.009075403213500977e+00 -9.818907827138900757e-02 -3.321793675422668457e-01 1.523350477218627930e-01
3.560000000000000000e+02 8.383398056030273438e+00 -3.109819030761718750e+01 -9.484485983848571777e-01 -4.693555235862731934e-01 -4.253412485122680664e-01 3.756969273090362549e-01
3.570000000000000000e+02 7.858530044555664062e+00 -3.633754348754882812e+01 -4.995704814791679382e-02 -5.786956846714019775e-02 -3.234798461198806763e-02 2.852817811071872711e-02
3.580000000000000000e+02 9.674598693847656250e+00 -3.694521331787109375e+01 -5.343944206833839417e-02 -2.245587259531021118e-01 -8.339945226907730103e-02 6.633480638265609741e-02
3.590000000000000000e+02 9.162557601928710938e+00 -3.006828689575195312e+01 -1.425953269004821777e+00 -8.852548003196716309e-01 -6.933624148368835449e-01 8.793150186538696289e-01
3.600000000000000000e+02 8.152290344238281250e+00 -2.911456108093261719e+01 -1.003968000411987305e+00 -7.662046551704406738e-01 -5.310518145561218262e-01 9.201278090476989746e-01
3.610000000000000000e+02 6.759784817695617676e-01 -2.893864250183105469e+01 -2.548979781568050385e-02 1.443411946296691895e+00 4.253766536712646484e-01 1.379638165235519409e-01
3.620000000000000000e+02 6.088485717773437500e+00 -2.649234008789062500e+01 -4.421316683292388916e-01 -1.719594895839691162e-01 -1.842273473739624023e-01 5.707685351371765137e-01
3.630000000000000000e+02 5.981848716735839844e+00 -2.371822929382324219e+01 4.941532388329505920e-02 1.586630940437316895e+00 4.908138811588287354e-01 3.320751190185546875e-01
3.640000000000000000e+02 5.703456401824951172e-01 -2.475469017028808594e+01 1.811683250707574189e-05 6.420773454010486603e-03 1.931667095050215721e-03 2.631748914718627930e-01
3.650000000000000000e+02 6.217380046844482422e+00 -2.082843780517578125e+01 5.261383056640625000e-01 2.663523912429809570e+00 9.568986296653747559e-01 9.506982564926147461e-01
3.660000000000000000e+02 7.196569919586181641e+00 -2.832186698913574219e+01 -8.874839544296264648e-01 -7.449992895126342773e-01 -4.897449910640716553e-01 7.673431038856506348e-01
3.670000000000000000e+02 1.095969581604003906e+01 -2.061103105545043945e+00 -3.750511407852172852e-01 4.428732395172119141e-02 -9.922914206981658936e-02 -3.800019389018416405e-03
3.680000000000000000e+02 1.171123981475830078e+01 -2.920768022537231445e+00 -3.213442862033843994e-01 5.597750842571258545e-02 -7.961003482341766357e-02 9.830825030803680420e-03
3.690000000000000000e+02 1.469207191467285156e+01 -2.561556577682495117e+00 -3.414722979068756104e-01 -6.009797565639019012e-03 -1.042446345090866089e-01 8.152748644351959229e-02
3.700000000000000000e+02 1.241091346740722656e+01 -2.273963689804077148e+00 -3.752325475215911865e-01 2.304944582283496857e-02 -1.056549325585365295e-01 3.424508869647979736e-02
3.710000000000000000e+02 6.660747528076171875e-01 -3.182790565490722656e+01 -1.462442800402641296e-02 1.721396446228027344e+00 5.120316147804260254e-01 1.730297319591045380e-02
3.720000000000000000e+02 2.987909078598022461e+00 -3.761584091186523438e+01 -1.375307328999042511e-02 9.506766796112060547e-01 2.810770869255065918e-01 -1.408445835113525391e-01
3.730000000000000000e+02 8.410009741783142090e-01 -3.725932693481445312e+01 -2.067042700946331024e-02 1.406232118606567383e+00 4.156685173511505127e-01 -7.719869911670684814e-02
3.740000000000000000e+02 4.217850875854492188e+01 -4.064916610717773438e+01 -1.220436215400695801e+00 3.002147436141967773e+00 5.345134139060974121e-01 -1.389825046062469482e-01
3.750000000000000000e+02 4.144562911987304688e+01 -3.710316467285156250e+01 -1.146150588989257812e+00 3.339971780776977539e+00 6.581463813781738281e-01 -3.359148204326629639e-01
3.760000000000000000e+02 4.406588745117187500e+01 -2.943861198425292969e+01 -1.465617418289184570e-01 2.868442773818969727e+00 8.165643215179443359e-01 -7.086399793624877930e-01
3.770000000000000000e+02 4.733014678955078125e+01 -4.079908752441406250e+01 -8.202773928642272949e-01 1.920480966567993164e+00 3.300610780715942383e-01 -1.718618422746658325e-01
3.780000000000000000e+02 5.176535415649414062e+01 -3.585155868530273438e+01 -6.737733483314514160e-01 7.578645348548889160e-01 2.522735111415386200e-02 -4.700332880020141602e-01
3.790000000000000000e+02 5.408676528930664062e+01 -2.986481285095214844e+01 -5.106313228607177734e-01 -2.525706589221954346e-01 -2.289606034755706787e-01 3.903001546859741211e-01
3.800000000000000000e+02 5.943270111083984375e+01 -3.965855789184570312e+01 3.510575592517852783e-01 -3.818822801113128662e-01 -9.247418493032455444e-03 -1.799439489841461182e-01
3.810000000000000000e+02 5.640739059448242188e+01 -3.521762466430664062e+01 -9.418106675148010254e-01 -3.165616989135742188e-01 -3.775117099285125732e-01 -4.183495044708251953e-01
3.820000000000000000e+02 5.413122940063476562e+01 -3.403693771362304688e+01 -9.606039524078369141e-01 1.945897638797760010e-01 -2.298042625188827515e-01 -3.054457902908325195e-01
3.830000000000000000e+02 6.274184799194335938e+01 -4.102693176269531250e+01 4.963221549987792969e-01 6.199327111244201660e-01 3.348764479160308838e-01 1.757979625836014748e-03
3.840000000000000000e+02 6.443849182128906250e+01 -3.509810638427734375e+01 -9.349833726882934570e-01 1.119438529014587402e+00 5.533656477928161621e-02 3.666606843471527100e-01
3.850000000000000000e+02 6.785900878906250000e+01 -3.743991851806640625e+01 -2.415666878223419189e-01 3.985704660415649414e+00 1.123241424560546875e+00 2.853951752185821533e-01
3.860000000000000000e+02 7.800221252441406250e+01 -4.164749526977539062e+01 3.168179988861083984e-01 1.244226169586181641e+01 3.827723979949951172e+00 8.917844295501708984e-02
3.870000000000000000e+02 7.781391906738281250e+01 -3.688602066040039062e+01 -1.514130979776382446e-01 1.215262699127197266e+01 3.600363969802856445e+00 -6.029820069670677185e-02
3.880000000000000000e+02 7.936105346679687500e+01 -3.328094863891601562e+01 -3.041294030845165253e-02 1.294318008422851562e+01 3.873830318450927734e+00 -1.464892923831939697e-01
3.890000000000000000e+02 6.698773956298828125e+01 -3.099254798889160156e+01 -1.497275829315185547e+00 3.299233913421630859e+00 5.405874848365783691e-01 3.432222306728363037e-01
3.900000000000000000e+02 7.090965270996093750e+01 -3.751598358154296875e+01 -3.597858846187591553e-01 7.093341350555419922e+00 2.020066738128662109e+00 8.173505961894989014e-02
3.910000000000000000e+02 7.815325927734375000e+01 -2.674345731735229492e+00 -1.118728518486022949e-01 8.247812271118164062e+00 2.440781831741333008e+00 3.258480727672576904e-01
3.920000000000000000e+02 7.936304473876953125e+01 2.829742670059204102e+00 -1.006003562361001968e-02 8.745517730712890625e+00 2.620637178421020508e+00 -2.672789990901947021e-02
3.930000000000000000e+02 7.265499877929687500e+01 1.037639331817626953e+01 -3.715021535754203796e-02 6.050444602966308594e+00 1.803988218307495117e+00 -1.040462613105773926e+00
3.940000000000000000e+02 6.631073760986328125e+01 1.703420639038085938e+01 6.281460523605346680e-01 4.312373638153076172e+00 1.482155919075012207e+00 -9.922133684158325195e-01
3.950000000000000000e+02 5.691261291503906250e+01 2.171989250183105469e+01 1.248366355895996094e+00 3.736971616744995117e+00 1.495601415634155273e+00 1.233473122119903564e-01
3.960000000000000000e+02 4.967238235473632812e+01 2.921865272521972656e+01 5.352833867073059082e-01 4.637358665466308594e+00 1.551792621612548828e+00 4.725839197635650635e-01
3.970000000000000000e+02 4.127024841308593750e+01 2.932800102233886719e+01 6.001301407814025879e-01 6.011449337005615234e+00 1.983473896980285645e+00 -1.310861349105834961e+00
3.980000000000000000e+02 4.257749176025390625e+01 2.944165802001953125e+01 6.074293255805969238e-01 5.446387290954589844e+00 1.816145062446594238e+00 -4.114617705345153809e-01
3.990000000000000000e+02 7.807485961914062500e+01 4.311424255371093750e+00 -4.926749318838119507e-02 8.189751625061035156e+00 2.442145109176635742e+00 -1.839481890201568604e-01
4.000000000000000000e+02 7.935796356201171875e+01 8.415756225585937500e+00 -8.862075046636164188e-04 8.035917282104492188e+00 2.410509347915649414e+00 -1.109349355101585388e-01
4.010000000000000000e+02 7.355598449707031250e+01 1.753327941894531250e+01 1.618268638849258423e-01 5.614050865173339844e+00 1.732763290405273438e+00 -7.590163946151733398e-01
4.020000000000000000e+02 6.787294769287109375e+01 2.642846298217773438e+01 4.184041619300842285e-01 4.723681449890136719e+00 1.542625665664672852e+00 -3.611721992492675781e-01
4.030000000000000000e+02 5.461319351196289062e+01 2.804603004455566406e+01 7.223581671714782715e-01 4.349916934967041016e+00 1.521682500839233398e+00 3.966301977634429932e-01
4.040000000000000000e+02 5.248532104492187500e+01 4.121232223510742188e+01 -2.347071915864944458e-01 4.636010646820068359e+00 1.320391058921813965e+00 5.313097685575485229e-02
4.050000000000000000e+02 4.250193405151367188e+01 3.828515625000000000e+01 -4.474816322326660156e-01 3.481570482254028320e+00 9.102267026901245117e-01 -1.609606593847274780e-01
4.060000000000000000e+02 4.081564331054687500e+01 4.022389221191406250e+01 -3.262088894844055176e-01 2.649399995803833008e+00 6.969573497772216797e-01 -1.435302793979644775e-01
4.070000000000000000e+02 3.763765335083007812e+01 3.857951736450195312e+01 -4.668755084276199341e-02 1.312804698944091797e+00 3.798351585865020752e-01 -4.171493053436279297e-01
4.080000000000000000e+02 3.543000411987304688e+01 3.784991073608398438e+01 -8.080188184976577759e-03 4.607598483562469482e-01 1.358038932085037231e-01 -1.722248941659927368e-01
4.090000000000000000e+02 3.425179290771484375e+01 3.638996505737304688e+01 -3.320867121219635010e-01 -8.641456067562103271e-02 -1.255503743886947632e-01 1.262541562318801880e-01
4.100000000000000000e+02 3.085514068603515625e+01 3.850046157836914062e+01 -2.209445834159851074e-02 -5.448819696903228760e-02 -2.297479659318923950e-02 1.481342762708663940e-01
4.110000000000000000e+02 2.977272415161132812e+01 3.735638809204101562e+01 -1.545268148183822632e-01 -7.177967578172683716e-02 -6.789194792509078979e-02 7.681500911712646484e-02
4.120000000000000000e+02 2.145949935913085938e+01 3.706086349487304688e+01 -1.027593156322836876e-03 3.496602294035255909e-04 -2.033798664342612028e-04 -6.698446813970804214e-04
4.130000000000000000e+02 1.723305511474609375e+01 3.966924285888671875e+01 -3.234070958569645882e-03 -7.855260046198964119e-04 -1.205879147164523602e-03 -1.961996080353856087e-03
4.140000000000000000e+02 1.360226917266845703e+01 3.928858184814453125e+01 -2.469254832249134779e-04 3.656315966509282589e-04 3.561183621059171855e-05 1.410819822922348976e-04
4.150000000000000000e+02 2.417559623718261719e+00 3.655376815795898438e+01 -3.207065456081181765e-04 2.480849798303097486e-04 -2.178647264372557402e-05 1.069406498572789133e-04
4.160000000000000000e+02 6.576504707336425781e-01 3.308520126342773438e+01 -3.359771799296140671e-04 2.058570680674165487e-04 -3.903603283106349409e-05 6.584268703591078520e-05
4.170000000000000000e+02 1.856927037239074707e+00 2.994778633117675781e+01 3.616036847233772278e-04 1.128243820858187973e-04 1.423284265911206603e-04 -1.456752652302384377e-04
4.180000000000000000e+02 6.268036961555480957e-01 2.749694061279296875e+01 -3.147242241539061069e-04 4.795142103830585256e-06 -9.297872747993096709e-05 7.815674325684085488e-05
4.190000000000000000e+02 1.934707164764404297e+00 2.582411193847656250e+01 -2.432946057524532080e-04 -1.599955794517882168e-05 -7.778825238347053528e-05 5.987607437418773770e-05
4.200000000000000000e+02 1.305932044982910156e+01 1.636438941955566406e+01 2.237103471998125315e-04 -3.675210336950840428e-06 6.601054337806999683e-05 6.994136492721736431e-05
4.210000000000000000e+02 1.672872352600097656e+01 1.282658386230468750e+01 -2.054818469332531095e-04 -1.939168214448727667e-05 -6.746206054231151938e-05 -6.320096872514113784e-05
4.220000000000000000e+02 1.556187629699707031e+01 1.688642501831054688e+01 2.329937560716643929e-04 -6.911435775691643357e-06 6.782469426980242133e-05 4.055122917634434998e-05
4.230000000000000000e+02 1.631406021118164062e+01 1.416505718231201172e+01 2.157904818886891007e-04 9.587943168298806995e-06 6.761353142792358994e-05 5.939296897849999368e-05
4.240000000000000000e+02 1.521398735046386719e+01 2.253031349182128906e+01 3.121704212389886379e-04 -3.422969166422262788e-05 8.338221232406795025e-05 -1.024856373987859115e-05
4.250000000000000000e+02 1.585718536376953125e+01 2.674746513366699219e+01 -3.448296047281473875e-04 8.727218664716929197e-05 -7.726722833467647433e-05 1.598522358108311892e-04
4.260000000000000000e+02 1.636831665039062500e+01 2.809238243103027344e+01 5.563842132687568665e-04 1.895514578791335225e-04 2.237806911580264568e-04 1.236441903529339470e-06
4.270000000000000000e+02 1.695346069335937500e+01 2.941716575622558594e+01 -2.351480798097327352e-04 2.609569055493921041e-04 7.742647539998870343e-06 4.724159080069512129e-04
4.280000000000000000e+02 1.737191009521484375e+01 3.262686920166015625e+01 1.396180363371968269e-03 2.162599266739562154e-04 4.837320884689688683e-04 -1.505263207945972681e-05
4.290000000000000000e+02 1.925099754333496094e+01 3.300031280517578125e+01 1.874476554803550243e-03 1.364492578431963921e-03 9.716907516121864319e-04 6.975192809477448463e-04
4.300000000000000000e+02 2.124837303161621094e+01 3.502737426757812500e+01 4.134309478104114532e-03 1.512405229732394218e-03 1.694014412350952625e-03 1.940369606018066406e-03
4.310000000000000000e+02 1.978052902221679688e+01 3.761399841308593750e+01 -1.932199811562895775e-03 -2.030367613770067692e-04 -6.405710009858012199e-04 4.707564366981387138e-04
4.320000000000000000e+02 7.806641387939453125e+01 1.133402729034423828e+01 -2.712555462494492531e-03 7.193496227264404297e+00 2.157235145568847656e+00 -3.500862419605255127e-01
4.330000000000000000e+02 7.936743164062500000e+01 1.677534294128417969e+01 2.539607929065823555e-03 6.496671199798583984e+00 1.949763298034667969e+00 -1.038145124912261963e-01
4.340000000000000000e+02 7.256088256835937500e+01 2.307032012939453125e+01 2.289596498012542725e-01 5.179143428802490234e+00 1.622430801391601562e+00 -5.186882615089416504e-01
4.350000000000000000e+02 6.397479248046875000e+01 2.838185882568359375e+01 5.139010548591613770e-01 4.512608528137207031e+00 1.507952928543090820e+00 -1.378558576107025146e-01
4.360000000000000000e+02 5.633189773559570312e+01 3.752191543579101562e+01 3.644318506121635437e-02 4.667433738708496094e+00 1.411162972450256348e+00 1.700408756732940674e-01
4.370000000000000000e+02 5.223639678955078125e+01 3.860067367553710938e+01 -1.866877079010009766e-01 4.644613265991210938e+00 1.337377548217773438e+00 1.977764368057250977e-01
4.380000000000000000e+02 7.807347106933593750e+01 1.962883758544921875e+01 2.165148779749870300e-02 5.969446182250976562e+00 1.797329306602478027e+00 -2.518467605113983154e-01
4.390000000000000000e+02 7.933268737792968750e+01 2.372204017639160156e+01 3.071054350584745407e-03 5.597092151641845703e+00 1.680048942565917969e+00 -6.118214502930641174e-02
4.400000000000000000e+02 7.318476867675781250e+01 3.051059150695800781e+01 1.193907931447029114e-01 5.060515880584716797e+00 1.553972005844116211e+00 -1.927700340747833252e-01
4.410000000000000000e+02 6.215389633178710938e+01 4.047860336303710938e+01 6.421160697937011719e-02 4.798506736755371094e+00 1.458815455436706543e+00 1.778874732553958893e-02
4.420000000000000000e+02 5.724845123291015625e+01 4.088117980957031250e+01 -3.451534360647201538e-02 4.735240936279296875e+00 1.410217642784118652e+00 6.021671742200851440e-02
4.430000000000000000e+02 7.664257812500000000e+01 2.242972755432128906e+01 5.599424988031387329e-02 5.590589046478271484e+00 1.693975090980529785e+00 -3.194734156131744385e-01
4.440000000000000000e+02 7.921565246582031250e+01 2.935754013061523438e+01 5.013386718928813934e-03 5.223914623260498047e+00 1.568678379058837891e+00 -3.386858478188514709e-02
4.450000000000000000e+02 7.143919372558593750e+01 3.747973251342773438e+01 6.050693243741989136e-02 4.974928855895996094e+00 1.510630726814270020e+00 -4.747020080685615540e-02
4.460000000000000000e+02 7.921198272705078125e+01 3.227978134155273438e+01 4.543736577033996582e-03 5.133651256561279297e+00 1.541458487510681152e+00 -1.902220211923122406e-02
4.470000000000000000e+02 7.901730346679687500e+01 3.742451095581054688e+01 5.777402780950069427e-03 5.043234348297119141e+00 1.514703631401062012e+00 -5.495214369148015976e-03
4.480000000000000000e+02 7.618246459960937500e+01 3.828295135498046875e+01 1.701349020004272461e-02 5.030392646789550781e+00 1.514221787452697754e+00 -2.267222292721271515e-02
4.490000000000000000e+02 2.091224193572998047e+00 4.160793685913085938e+01 -2.828962460625916719e-04 6.171212298795580864e-04 1.002674980554729700e-04 -8.731836715014651418e-05
4.500000000000000000e+02 6.319400072097778320e-01 2.044946670532226562e+01 1.886048703454434872e-04 -7.723974704276770353e-06 5.426427014754153788e-05 -3.473642573226243258e-05
4.510000000000000000e+02 1.851203322410583496e+00 1.598048400878906250e+01 1.698607520665973425e-04 5.463472916744649410e-06 5.259726822259835899e-05 -3.119212124147452414e-05
4.520000000000000000e+02 7.793409347534179688e+00 7.384068489074707031e+00 1.105875417124480009e-04 -1.034929209708934650e-05 3.007147461175918579e-05 1.002098815661156550e-05
4.530000000000000000e+02 1.931370735168457031e+01 6.418315887451171875e+00 1.760290178935974836e-04 1.984833579626865685e-05 5.876320574316196144e-05 5.233679621596820652e-05
4.540000000000000000e+02 1.718111991882324219e+01 1.150476455688476562e+01 1.959924120455980301e-04 2.000251333811320364e-05 6.479847797891125083e-05 6.458001735154539347e-05
4.550000000000000000e+02 6.075765490531921387e-01 1.480685901641845703e+01 1.523880637250840664e-04 2.014443907683016732e-06 4.632075069821439683e-05 -3.138554166071116924e-05
4.560000000000000000e+02 1.656565427780151367e+00 8.962724685668945312e+00 -1.088064091163687408e-04 -1.063400577550055459e-05 -3.583212310331873596e-05 3.274871778558008373e-05
4.570000000000000000e+02 9.736500740051269531e+00 1.850273489952087402e+00 -2.884268542402423918e-05 -4.097824057680554688e-05 -2.094627780024893582e-05 -4.577027084451401606e-06
4.580000000000000000e+02 1.129367923736572266e+01 1.677071809768676758e+00 -2.874619167414493859e-05 -4.239396002958528697e-05 -2.134204441972542554e-05 -9.273258569919562433e-07
4.590000000000000000e+02 1.427570724487304688e+01 1.222450971603393555e+00 -2.219853013230022043e-05 -5.471604526974260807e-05 -2.307437353010755032e-05 1.026225163514027372e-06
4.600000000000000000e+02 1.779911422729492188e+01 1.849288702011108398e+00 -4.236095264786854386e-05 -5.929576582275331020e-05 -3.049701626878231764e-05 -5.724110815208405256e-05
4.610000000000000000e+02 1.711970329284667969e+01 9.980675578117370605e-01 -1.803918894438538700e-05 -5.108352343086153269e-05 -2.073681389447301626e-05 -3.839575219899415970e-05
4.620000000000000000e+02 2.024756431579589844e+01 1.096213698387145996e+00 -4.981672464055009186e-05 -6.605563157791038975e-06 -1.692668593022972345e-05 1.151032392954220995e-05
4.630000000000000000e+02 2.229481697082519531e+01 1.602740764617919922e+00 2.869846503017470241e-05 3.573471622075885534e-05 1.932995473907794803e-05 1.762934334692545235e-05
4.640000000000000000e+02 2.729657411575317383e+00 4.704024791717529297e+00 -1.261271099792793393e-04 -6.562097951245959848e-06 -3.980676410719752312e-05 2.898655839089769870e-05
4.650000000000000000e+02 5.189603567123413086e-01 6.328371047973632812e+00 6.771028711227700114e-05 7.473083769582444802e-06 2.255501203762833029e-05 -1.416340637661051005e-05
4.660000000000000000e+02 5.798677921295166016e+00 2.643572092056274414e+00 -2.847465475497301668e-05 -4.040802741656079888e-05 -2.066480556095484644e-05 6.246219527383800596e-06
4.670000000000000000e+02 2.385912895202636719e+01 3.662669754028320312e+01 -4.839099012315273285e-03 -1.834576367400586605e-03 -2.002102555707097054e-03 8.090076968073844910e-03
4.680000000000000000e+02 3.545537567138671875e+01 3.567645263671875000e+01 -3.617463707923889160e-01 5.530088022351264954e-02 -9.193364530801773071e-02 1.677390933036804199e-01
4.690000000000000000e+02 3.829373168945312500e+01 3.636586761474609375e+01 -8.445011079311370850e-02 1.527692794799804688e+00 4.329728186130523682e-01 -6.261375546455383301e-01
4.700000000000000000e+02 4.182877349853515625e+01 3.252699279785156250e+01 1.702275723218917847e-01 4.050632476806640625e+00 1.266258120536804199e+00 -5.577144026756286621e-01
4.710000000000000000e+02 4.168724060058593750e+01 2.222835159301757812e+01 2.618032507598400116e-02 6.587697982788085938e+00 1.984163522720336914e+00 1.281806528568267822e-01
4.720000000000000000e+02 4.144858169555664062e+01 1.512442111968994141e+01 3.984445035457611084e-01 1.009271430969238281e+01 3.147347450256347656e+00 1.381040930747985840e+00
4.730000000000000000e+02 3.301957702636718750e+01 -8.458662629127502441e-01 -2.828630685806274414e+00 -5.860297083854675293e-01 -1.024398088455200195e+00 -1.331390500068664551e+00
4.740000000000000000e+02 3.207666015625000000e+01 -2.399062633514404297e+00 -1.100772500038146973e+00 -3.721551001071929932e-01 -4.418782591819763184e-01 -6.718442440032958984e-01
4.750000000000000000e+02 2.653599548339843750e+01 -3.074882745742797852e+00 -4.913275539875030518e-01 -1.300117373466491699e-01 -1.864017844200134277e-01 -3.575226664543151855e-01
4.760000000000000000e+02 2.386816024780273438e+01 -3.143774747848510742e+00 -1.745957732200622559e-01 -3.496502712368965149e-02 -6.286823749542236328e-02 -1.052247658371925354e-01
4.770000000000000000e+02 2.365120506286621094e+01 -2.205296993255615234e+00 -2.203084230422973633e-01 1.226209662854671478e-02 -6.241389736533164978e-02 -4.592368379235267639e-02
4.780000000000000000e+02 2.452142143249511719e+01 -2.024508237838745117e+00 -2.810887694358825684e-01 1.075225137174129486e-02 -8.110095560550689697e-02 -5.864948779344558716e-02
4.790000000000000000e+02 2.127962493896484375e+01 -3.384567022323608398e+00 -1.006371229887008667e-01 -4.754384607076644897e-02 -4.445429146289825439e-02 2.645439095795154572e-02
4.800000000000000000e+02 2.160798263549804688e+01 -1.430771923065185547e+01 3.659313917160034180e-01 -2.010164707899093628e-01 4.947447404265403748e-02 3.382516801357269287e-01
4.810000000000000000e+02 2.452410507202148438e+01 -1.859801483154296875e+01 -2.259338051080703735e-01 1.435759663581848145e-02 -6.347286701202392578e-02 5.200728401541709900e-02
4.820000000000000000e+02 2.110022354125976562e+01 -2.633661985397338867e+00 -1.643911302089691162e-01 -2.749115042388439178e-02 -5.756468698382377625e-02 2.121594920754432678e-02
4.830000000000000000e+02 1.946161270141601562e+01 -2.782965898513793945e+00 -1.913125663995742798e-01 -3.316646069288253784e-02 -6.734371185302734375e-02 6.343948841094970703e-02
4.840000000000000000e+02 1.625184249877929688e+01 -2.714385271072387695e+00 -2.955000698566436768e-01 -1.935624144971370697e-02 -9.445688873529434204e-02 9.674476087093353271e-02
4.850000000000000000e+02 1.808404159545898438e+01 -1.416675758361816406e+01 5.821252465248107910e-01 -1.412895470857620239e-01 1.322507113218307495e-01 2.453688234090805054e-01
4.860000000000000000e+02 1.382334899902343750e+01 -1.432317924499511719e+01 9.888457059860229492e-01 1.680315583944320679e-01 3.470631837844848633e-01 3.422168493270874023e-01
4.870000000000000000e+02 2.918489646911621094e+01 -1.398516845703125000e+01 5.614402294158935547e-01 -3.557057976722717285e-01 6.172032281756401062e-02 9.356865286827087402e-01
4.880000000000000000e+02 2.801425933837890625e+01 -1.451119899749755859e+01 2.035914212465286255e-01 -3.113391697406768799e-01 -3.232431784272193909e-02 9.762337207794189453e-01
4.890000000000000000e+02 4.220309066772460938e+01 -1.939461517333984375e+01 -1.163482666015625000e-01 7.072339534759521484e+00 2.086797475814819336e+00 -7.905324697494506836e-01
4.900000000000000000e+02 4.523699569702148438e+01 -2.092736625671386719e+01 3.352735936641693115e-01 1.193705439567565918e+00 4.586937129497528076e-01 -7.050127387046813965e-01
4.910000000000000000e+02 1.282344627380371094e+01 -1.604684638977050781e+01 1.703506827354431152e+00 9.505635499954223633e-02 5.395689606666564941e-01 6.447531282901763916e-02
4.920000000000000000e+02 1.605691146850585938e+01 -1.578642082214355469e+01 7.796389460563659668e-01 -4.292784631252288818e-02 2.210133224725723267e-01 5.447103828191757202e-02
4.930000000000000000e+02 3.985133361816406250e+01 -9.538137435913085938e+00 1.112331271171569824e+00 1.222649860382080078e+01 4.001648902893066406e+00 6.114532351493835449e-01
4.940000000000000000e+02 3.058786392211914062e+01 -2.852802276611328125e+00 -9.881042242050170898e-01 -5.851157307624816895e-01 -4.719659984111785889e-01 -8.200640678405761719e-01
4.950000000000000000e+02 3.354794311523437500e+01 -1.795091271400451660e+00 -1.218732357025146484e+00 3.526288568973541260e-01 -2.598310410976409912e-01 -2.407686859369277954e-01
4.960000000000000000e+02 4.176526641845703125e+01 -5.190447807312011719e+00 6.658547520637512207e-01 1.415125560760498047e+01 4.445133209228515625e+00 3.091414690017700195e+00
4.970000000000000000e+02 7.285325622558593750e+01 3.010491847991943359e+00 -5.304695367813110352e-01 7.025797367095947266e+00 1.948598384857177734e+00 -6.719749569892883301e-01
4.980000000000000000e+02 5.442387771606445312e+01 9.879205703735351562e+00 1.095202922821044922e+00 1.552286744117736816e+00 7.942469120025634766e-01 -3.730041980743408203e-01
4.990000000000000000e+02 5.765227890014648438e+01 6.716789245605468750e+00 -9.862772375345230103e-02 1.475355625152587891e+00 4.130183756351470947e-01 -1.188584923744201660e+00
5.000000000000000000e+02 4.839934539794921875e+01 1.165307235717773438e+01 2.065884828567504883e+00 3.364450454711914062e+00 1.629100561141967773e+00 1.627947330474853516e+00
5.010000000000000000e+02 5.559202575683593750e+01 3.524874746799468994e-01 -3.690675258636474609e+00 -7.890755310654640198e-03 -1.109569787979125977e+00 3.548034429550170898e-01
5.020000000000000000e+02 6.626017761230468750e+01 -4.559352874755859375e+00 3.232328593730926514e-01 5.499797344207763672e+00 1.746909022331237793e+00 -1.460954189300537109e+00
5.030000000000000000e+02 6.595404815673828125e+01 -3.139580965042114258e+00 -4.242473840713500977e-01 5.298351287841796875e+00 1.462231159210205078e+00 -1.327765226364135742e+00
5.040000000000000000e+02 7.258251190185546875e+01 1.178477191925048828e+01 3.739737719297409058e-02 5.890445232391357422e+00 1.778352737426757812e+00 -1.032167077064514160e+00
5.050000000000000000e+02 6.492221069335937500e+01 8.283321380615234375e+00 -7.660210877656936646e-02 3.900609731674194336e+00 1.147202372550964355e+00 -1.649521708488464355e+00
5.060000000000000000e+02 7.287386322021484375e+01 1.901396751403808594e+01 2.142838984727859497e-01 5.392343997955322266e+00 1.681988358497619629e+00 -7.196456789970397949e-01
5.070000000000000000e+02 6.673508453369140625e+01 1.868334007263183594e+01 6.276139020919799805e-01 4.418267726898193359e+00 1.513764500617980957e+00 -8.587065339088439941e-01
5.080000000000000000e+02 5.451189041137695312e+01 1.846091461181640625e+01 1.554810166358947754e+00 3.393300533294677734e+00 1.484433174133300781e+00 3.597277104854583740e-01
5.090000000000000000e+02 7.352269744873046875e+01 2.525777816772460938e+01 1.643002182245254517e-01 5.196492671966552734e+00 1.608237862586975098e+00 -3.837092816829681396e-01
5.100000000000000000e+02 6.377845764160156250e+01 2.160720825195312500e+01 8.327617049217224121e-01 4.129015922546386719e+00 1.488533258438110352e+00 -5.138397216796875000e-01
5.110000000000000000e+02 5.445536041259765625e+01 2.293475723266601562e+01 1.194433689117431641e+00 3.987490415573120117e+00 1.554577231407165527e+00 4.227147996425628662e-01
5.120000000000000000e+02 4.756129455566406250e+01 2.394118309020996094e+01 7.693611979484558105e-01 5.144798278808593750e+00 1.774247765541076660e+00 6.311104297637939453e-01
5.130000000000000000e+02 6.635034179687500000e+01 3.277987670898437500e+01 2.639629244804382324e-01 4.768260002136230469e+00 1.509666919708251953e+00 -9.612452983856201172e-02
5.140000000000000000e+02 5.691340637207031250e+01 2.909047889709472656e+01 6.486334204673767090e-01 4.358079433441162109e+00 1.502013802528381348e+00 2.651651799678802490e-01
5.150000000000000000e+02 4.944474411010742188e+01 3.135094642639160156e+01 3.331934809684753418e-01 4.616097927093505859e+00 1.484787344932556152e+00 4.498178362846374512e-01
5.160000000000000000e+02 6.679395198822021484e+00 3.095642471313476562e+01 5.475860598380677402e-05 -1.969132863450795412e-04 -4.264640301698818803e-05 -2.416711358819156885e-04
5.170000000000000000e+02 1.180724525451660156e+01 2.945061492919921875e+01 5.612843087874352932e-04 8.784541569184511900e-05 1.947389100678265095e-04 2.256486914120614529e-04
5.180000000000000000e+02 1.334972763061523438e+01 2.739158821105957031e+01 -4.393651033751666546e-04 1.202867570100352168e-04 -9.572350245434790850e-05 1.975488266907632351e-04
5.190000000000000000e+02 1.408975315093994141e+01 2.404981422424316406e+01 4.442379577085375786e-04 -1.889727900561410934e-05 1.276022085221484303e-04 2.555877472332213074e-06
5.200000000000000000e+02 1.717097091674804688e+01 3.757991409301757812e+01 1.273437985219061375e-03 -1.691274344921112061e-03 -1.253509253729134798e-04 -9.199602063745260239e-04
5.210000000000000000e+02 1.047343158721923828e+01 3.834123992919921875e+01 -1.576539216330274940e-04 -3.867693594656884670e-04 -1.633269857848063111e-04 -8.573636296205222607e-04
5.220000000000000000e+02 1.283157062530517578e+01 2.256047439575195312e+01 4.547204298432916403e-04 -4.259531124262139201e-05 1.236375392181798816e-04 8.441929094260558486e-05
5.230000000000000000e+02 1.434397315979003906e+01 1.664761161804199219e+01 -2.388549182796850801e-04 -1.881424736893677618e-06 -7.222090061986818910e-05 -4.595285281538963318e-05
5.240000000000000000e+02 1.284507560729980469e+01 1.012413787841796875e+01 1.526129344711080194e-04 1.132107172452379018e-05 4.918020204058848321e-05 4.095670374226756394e-05
5.250000000000000000e+02 6.694071960449218750e+01 -2.892479896545410156e+01 -3.159591853618621826e-01 2.887859582901000977e+00 7.715701460838317871e-01 6.233279705047607422e-01
5.260000000000000000e+02 6.840784454345703125e+01 -1.645260429382324219e+01 3.161497116088867188e-01 5.065936565399169922e+00 1.614625930786132812e+00 7.212047576904296875e-01
5.270000000000000000e+02 6.879464721679687500e+01 -1.594528675079345703e+01 -1.672589629888534546e-01 6.123702526092529297e+00 1.786933183670043945e+00 2.528311967849731445e+00
5.280000000000000000e+02 6.928587341308593750e+01 -1.576914787292480469e+01 1.720201969146728516e-01 8.635540008544921875e+00 2.642268180847167969e+00 3.796082496643066406e+00
5.290000000000000000e+02 6.945561981201171875e+01 -1.575823783874511719e+01 -2.320418953895568848e-01 1.039087295532226562e+01 3.047649145126342773e+00 3.434849262237548828e+00
5.300000000000000000e+02 6.988493347167968750e+01 -1.574672412872314453e+01 -1.119653463363647461e+00 1.485558032989501953e+01 4.120778083801269531e+00 3.002284765243530273e+00
5.310000000000000000e+02 6.968292236328125000e+01 -1.579273605346679688e+01 -6.239885687828063965e-01 1.270546627044677734e+01 3.624443292617797852e+00 3.144608736038208008e+00
5.320000000000000000e+02 6.874930572509765625e+01 -2.074789810180664062e+01 -2.715052850544452667e-02 1.157306766510009766e+01 3.463775157928466797e+00 9.642161428928375244e-02
5.330000000000000000e+02 6.876162719726562500e+01 -2.212497138977050781e+01 -3.382030129432678223e-02 1.179485988616943359e+01 3.528311967849731445e+00 1.486007310450077057e-02
5.340000000000000000e+02 6.875561523437500000e+01 -2.351987266540527344e+01 3.437778055667877197e-01 1.256287860870361328e+01 3.871996879577636719e+00 3.935206830501556396e-01
5.350000000000000000e+02 6.771815490722656250e+01 -2.768427467346191406e+01 3.139857649803161621e-01 5.360804557800292969e+00 1.702437162399291992e+00 1.331033945083618164e+00
5.360000000000000000e+02 6.591670227050781250e+01 -2.997897720336914062e+01 -1.176324129104614258e+00 8.336192369461059570e-01 -1.028114780783653259e-01 -2.317173480987548828e-01
5.370000000000000000e+02 6.100738525390625000e+01 -3.296337890625000000e+01 -3.436191797256469727e+00 -4.292334616184234619e-01 -1.159627556800842285e+00 -8.414546847343444824e-01
5.380000000000000000e+02 5.812551879882812500e+01 -3.403923034667968750e+01 -2.087179422378540039e+00 -5.129392147064208984e-01 -7.800355553627014160e-01 -2.040079981088638306e-01
5.390000000000000000e+02 5.084061431884765625e+01 -2.907780456542968750e+01 -3.183821737766265869e-01 2.822541296482086182e-01 -1.083841081708669662e-02 -2.735839970409870148e-02
5.400000000000000000e+02 5.007297515869140625e+01 -2.595354461669921875e+01 -1.321037858724594116e-01 -1.195221580564975739e-02 -4.321679845452308655e-02 8.140981197357177734e-02
5.410000000000000000e+02 4.911193466186523438e+01 -2.492714881896972656e+01 -8.505145460367202759e-02 5.499122291803359985e-02 -9.018068201839923859e-03 1.693269051611423492e-02
5.420000000000000000e+02 4.507931137084960938e+01 -2.264715003967285156e+01 2.021385729312896729e-01 1.879563212394714355e+00 6.245105266571044922e-01 -7.474451065063476562e-01
5.430000000000000000e+02 4.620569610595703125e+01 -2.192831993103027344e+01 1.778947561979293823e-01 6.802335977554321289e-01 2.574385106563568115e-01 -3.342301249504089355e-01
5.440000000000000000e+02 4.392588424682617188e+01 -2.332952499389648438e+01 1.448078155517578125e-01 3.102183580398559570e+00 9.740974307060241699e-01 -7.240643501281738281e-01
5.450000000000000000e+02 4.426232147216796875e+01 -1.991871452331542969e+01 7.690842151641845703e-01 2.454405069351196289e+00 9.670467972755432129e-01 -1.257903218269348145e+00
5.460000000000000000e+02 4.257400131225585938e+01 -1.766508102416992188e+01 1.578905820846557617e+00 9.003692626953125000e+00 3.174779653549194336e+00 -3.003591060638427734e+00
5.470000000000000000e+02 4.143660354614257812e+01 -1.218369960784912109e+01 2.697487175464630127e-02 1.390041637420654297e+01 4.178217411041259766e+00 -9.807522296905517578e-01
5.480000000000000000e+02 4.207887649536132812e+01 -3.828485965728759766e+00 7.386831641197204590e-01 1.395928573608398438e+01 4.409390449523925781e+00 3.091147899627685547e+00
5.490000000000000000e+02 4.301722717285156250e+01 -1.100156068801879883e+00 1.656039357185363770e+00 1.000377750396728516e+01 3.497945070266723633e+00 3.157337665557861328e+00
5.500000000000000000e+02 4.434636306762695312e+01 1.279709458351135254e+00 -3.912874221801757812e+00 4.000011920928955078e+00 2.614129520952701569e-02 1.315032720565795898e+00
5.510000000000000000e+02 4.985921859741210938e+01 8.002341985702514648e-01 -6.191813945770263672e+00 -6.520951986312866211e-01 -2.053172826766967773e+00 1.485721945762634277e+00
5.520000000000000000e+02 5.781509017944335938e+01 -1.329153537750244141e+00 -4.392767906188964844e+00 -1.677639931440353394e-01 -1.368159532546997070e+00 7.364461421966552734e-01
5.530000000000000000e+02 5.646836090087890625e+01 -1.043354511260986328e+00 -4.830355644226074219e+00 -1.531466245651245117e-01 -1.495050668716430664e+00 6.699662208557128906e-01
5.540000000000000000e+02 5.915532684326171875e+01 -1.681223154067993164e+00 -3.720442533493041992e+00 -1.915684938430786133e-01 -1.173603296279907227e+00 7.303400039672851562e-01
5.550000000000000000e+02 6.174783706665039062e+01 -2.711089134216308594e+00 -1.273344993591308594e+00 3.857536315917968750e-01 -2.662774026393890381e-01 9.295073337852954865e-03
5.560000000000000000e+02 6.296652221679687500e+01 -3.413021564483642578e+00 7.230632752180099487e-02 1.427104234695434570e+00 4.498231709003448486e-01 -8.733843564987182617e-01
5.570000000000000000e+02 6.774801635742187500e+01 -1.178683376312255859e+01 1.431941628456115723e+00 3.726861715316772461e+00 1.547640919685363770e+00 -2.719127655029296875e+00
5.580000000000000000e+02 6.822920227050781250e+01 -1.254192256927490234e+01 2.226481914520263672e+00 2.996253490447998047e+00 1.566820621490478516e+00 -3.055124521255493164e+00
5.590000000000000000e+02 6.805289459228515625e+01 -1.264653682708740234e+01 2.001796722412109375e+00 1.867387652397155762e+00 1.160755276679992676e+00 -2.640226602554321289e+00
5.600000000000000000e+02 6.936857604980468750e+01 -1.240230369567871094e+01 2.014794349670410156e+00 9.925650596618652344e+00 3.582133531570434570e+00 -5.778670787811279297e+00
5.610000000000000000e+02 6.901732635498046875e+01 -1.251364707946777344e+01 3.023326873779296875e+00 7.215653419494628906e+00 3.071694135665893555e+00 -5.871640682220458984e+00
5.620000000000000000e+02 6.884329223632812500e+01 -1.253798675537109375e+01 3.173585414886474609e+00 5.266056537628173828e+00 2.531892538070678711e+00 -5.125066757202148438e+00
5.630000000000000000e+02 1.425705623626708984e+01 -1.631297683715820312e+01 1.135891079902648926e+00 1.084965914487838745e-01 3.733162879943847656e-01 -1.085206419229507446e-01
5.640000000000000000e+02 1.962379837036132812e+01 -1.707954597473144531e+01 2.775067090988159180e-01 -7.800599932670593262e-02 5.985021218657493591e-02 6.171897798776626587e-02
5.650000000000000000e+02 1.930916023254394531e+01 -1.830654907226562500e+01 1.896485835313796997e-01 2.056785859167575836e-03 5.751160904765129089e-02 -1.969554228708148003e-03
5.660000000000000000e+02 2.190352249145507812e+01 -1.869095420837402344e+01 3.119232505559921265e-02 8.921077474951744080e-03 1.203402131795883179e-02 4.349376633763313293e-02
5.670000000000000000e+02 2.449249076843261719e+01 -1.746696090698242188e+01 -2.184257656335830688e-01 1.044314168393611908e-02 -6.239478662610054016e-02 1.991128176450729370e-01
5.680000000000000000e+02 2.101181411743164062e+01 -1.617198944091796875e+01 2.602232098579406738e-01 -1.109131276607513428e-01 4.479302465915679932e-02 1.878973990678787231e-01
5.690000000000000000e+02 2.837033653259277344e+01 -1.798819160461425781e+01 -1.375575661659240723e+00 5.062877386808395386e-02 -3.974840641021728516e-01 -4.124896973371505737e-02
5.700000000000000000e+02 2.692596244812011719e+01 -3.155039978027343750e+01 -6.307240724563598633e-01 1.244212985038757324e-01 -1.518908292055130005e-01 1.321771591901779175e-01
5.710000000000000000e+02 2.278291511535644531e+01 -3.167670822143554688e+01 -9.285848140716552734e-01 -4.287316929548978806e-03 -2.798616290092468262e-01 -6.781417131423950195e-02
5.720000000000000000e+02 2.402754020690917969e+01 -3.333733749389648438e+01 -5.291530489921569824e-01 6.738487631082534790e-02 -1.385304629802703857e-01 4.524544253945350647e-02
5.730000000000000000e+02 2.146427726745605469e+01 -3.171663475036621094e+01 -9.337412714958190918e-01 -1.703705638647079468e-02 -2.852334976196289062e-01 -5.117369443178176880e-02
5.740000000000000000e+02 2.045940399169921875e+01 -3.313145065307617188e+01 -7.750207781791687012e-01 -2.742265909910202026e-02 -2.407330274581909180e-01 -2.135636098682880402e-02
5.750000000000000000e+02 1.808570861816406250e+01 -3.395416641235351562e+01 -6.587411165237426758e-01 -1.132299304008483887e-01 -2.315913140773773193e-01 8.631452918052673340e-02
5.760000000000000000e+02 1.179425144195556641e+01 -3.106206703186035156e+01 -1.338600635528564453e+00 -1.143040284514427185e-01 -4.358714222908020020e-01 3.933039605617523193e-01
5.770000000000000000e+02 5.652168393135070801e-01 -1.923181915283203125e+01 2.226353809237480164e-02 -1.925936102867126465e+00 -5.711017847061157227e-01 7.256205379962921143e-02
5.780000000000000000e+02 7.345856189727783203e+00 -1.824596595764160156e+01 1.434939026832580566e+00 2.633527755737304688e+00 1.220540046691894531e+00 1.499866724014282227e+00
5.790000000000000000e+02 9.473148345947265625e+00 -1.898825645446777344e+00 -3.466639816761016846e-01 4.651166126132011414e-02 -9.004569798707962036e-02 -3.566271811723709106e-02
5.800000000000000000e+02 8.669011116027832031e+00 -1.881339073181152344e+00 -3.228359818458557129e-01 3.927937895059585571e-02 -8.506698161363601685e-02 -5.519764125347137451e-02
5.810000000000000000e+02 7.857468605041503906e+00 -1.873430252075195312e+00 -2.913151085376739502e-01 2.894405834376811981e-02 -7.871130853891372681e-02 -7.488334178924560547e-02
5.820000000000000000e+02 6.231602668762207031e+00 -1.869092345237731934e+00 -2.260113805532455444e-01 1.109314430505037308e-02 -6.447546929121017456e-02 -1.056283190846443176e-01
5.830000000000000000e+02 4.607651710510253906e+00 -1.887957811355590820e+00 -1.519211530685424805e-01 -7.153986953198909760e-03 -4.772254079580307007e-02 -1.129053160548210144e-01
5.840000000000000000e+02 2.979827404022216797e+00 -1.984486103057861328e+00 -8.101930469274520874e-02 -3.086405247449874878e-02 -3.356500715017318726e-02 -9.481836110353469849e-02
5.850000000000000000e+02 3.235354900360107422e+00 -2.907960653305053711e+00 -8.713730424642562866e-02 -4.206299036741256714e-02 -3.876008838415145874e-02 -1.346610635519027710e-01
5.860000000000000000e+02 2.161215782165527344e+00 -2.073334932327270508e+00 -4.741848632693290710e-02 -4.372660815715789795e-02 -2.734352834522724152e-02 -7.274156808853149414e-02
5.870000000000000000e+02 1.328130722045898438e+00 -2.168455123901367188e+00 -2.224763110280036926e-02 -4.919132962822914124e-02 -2.143168821930885315e-02 -4.297116026282310486e-02
5.880000000000000000e+02 4.533677101135253906e-01 -2.210122108459472656e+00 -9.009808301925659180e-03 -2.991376444697380066e-02 -1.167707145214080811e-02 -1.641935110092163086e-02
5.890000000000000000e+02 2.093919754028320312e+00 -4.160259628295898438e+01 1.096825152635574341e-01 1.130045890808105469e+00 3.719185292720794678e-01 -3.099191933870315552e-02
5.900000000000000000e+02 1.098865866661071777e+00 -3.858609008789062500e+01 -1.847707317210733891e-03 1.279930710792541504e+00 3.834248781204223633e-01 -8.678748458623886108e-02
5.910000000000000000e+02 5.753535032272338867e-01 -3.458324050903320312e+01 -2.239180961623787880e-03 1.640589714050292969e+00 4.915051758289337158e-01 -3.784652426838874817e-02
5.920000000000000000e+02 5.976513028144836426e-01 -3.322474288940429688e+01 -1.630577445030212402e-02 1.717011213302612305e+00 5.102116465568542480e-01 -1.636634953320026398e-02
5.930000000000000000e+02 4.750188827514648438e+00 -3.140368652343750000e+01 -3.654635846614837646e-01 4.224466085433959961e-01 1.709491014480590820e-02 1.505543440580368042e-01
5.940000000000000000e+02 1.940199255943298340e+00 -2.724499511718750000e+01 -1.386224031448364258e-01 7.903046607971191406e-01 1.955046802759170532e-01 5.471539497375488281e-01
5.950000000000000000e+02 5.973516106605529785e-01 -2.614013099670410156e+01 -1.473834831267595291e-02 6.210967898368835449e-01 1.819075345993041992e-01 2.414207309484481812e-01
5.960000000000000000e+02 5.975075244903564453e+00 -2.511646080017089844e+01 -5.004876479506492615e-02 7.120990157127380371e-01 1.986150890588760376e-01 3.042331635951995850e-01
5.970000000000000000e+02 1.719646215438842773e+00 -2.196666908264160156e+01 1.126026660203933716e-01 -5.307712554931640625e-01 -1.254505813121795654e-01 5.737643837928771973e-01
5.980000000000000000e+02 5.969491481781005859e+00 -2.227746009826660156e+01 2.808268964290618896e-01 2.343520164489746094e+00 7.873041033744812012e-01 6.250377297401428223e-01
5.990000000000000000e+02 5.621598362922668457e-01 -2.199173355102539062e+01 1.887446269392967224e-02 -1.214786767959594727e+00 -3.587736785411834717e-01 2.099753469228744507e-01
6.000000000000000000e+02 5.875352621078491211e-01 -1.644697952270507812e+01 -4.988278960809111595e-04 -1.911102056503295898e+00 -5.734802484512329102e-01 -5.234555900096893311e-02
6.010000000000000000e+02 5.957947969436645508e-01 -1.504223251342773438e+01 2.307486347854137421e-02 -1.741159200668334961e+00 -5.154253244400024414e-01 -8.385702222585678101e-02
6.020000000000000000e+02 6.013132929801940918e-01 -1.363031196594238281e+01 1.339145819656550884e-03 -1.507405400276184082e+00 -4.518198668956756592e-01 -1.081155017018318176e-01
6.030000000000000000e+02 1.805189847946166992e+00 -1.385981464385986328e+01 4.162548482418060303e-02 -9.615339040756225586e-01 -2.759725153446197510e-01 -2.562733292579650879e-01
6.040000000000000000e+02 5.872043967247009277e-01 -9.402484893798828125e+00 -3.093057544901967049e-03 -7.657703161239624023e-01 -2.306590229272842407e-01 -9.349256753921508789e-02
6.050000000000000000e+02 5.757666230201721191e-01 -8.006692886352539062e+00 -8.043027482926845551e-03 -5.579947829246520996e-01 -1.698113530874252319e-01 -7.825896888971328735e-02
6.060000000000000000e+02 4.005019664764404297e+00 -2.738765478134155273e+00 -1.171258687973022461e-01 -2.610209397971630096e-02 -4.296838864684104919e-02 -1.429973989725112915e-01
6.070000000000000000e+02 4.260200500488281250e+00 -3.478587388992309570e+00 -1.212723776698112488e-01 -2.227510884404182434e-02 -4.306424781680107117e-02 -1.744036674499511719e-01
6.080000000000000000e+02 7.269942474365234375e+01 -3.843068313598632812e+01 -1.791155338287353516e-01 8.188406944274902344e+00 2.402787446975708008e+00 1.110781356692314148e-01
6.090000000000000000e+02 5.652450180053710938e+01 -4.095811462402343750e+01 1.770091652870178223e-01 -2.591762244701385498e-01 -2.465012110769748688e-02 -1.378876417875289917e-01
6.100000000000000000e+02 3.236438369750976562e+01 -3.891598510742187500e+01 -1.026875257492065430e+00 2.811269044876098633e+00 5.353181362152099609e-01 4.155297577381134033e-01
6.110000000000000000e+02 9.207468986511230469e+00 -3.897047042846679688e+01 8.029866218566894531e-02 -9.725312143564224243e-02 -5.086337681859731674e-03 1.581219024956226349e-02
6.120000000000000000e+02 7.861243438720703125e+01 4.028009796142578125e+01 -1.892651431262493134e-03 5.031017780303955078e+00 1.508737564086914062e+00 -6.945036351680755615e-03
6.130000000000000000e+02 7.805970001220703125e+01 4.174689483642578125e+01 8.836085908114910126e-03 5.026612758636474609e+00 1.510634660720825195e+00 -2.448474057018756866e-03
6.140000000000000000e+02 7.874436187744140625e+01 3.884396743774414062e+01 -2.414605347439646721e-03 5.037096977233886719e+00 1.510404706001281738e+00 -4.757675807923078537e-03
6.150000000000000000e+02 7.942554473876953125e+01 3.475466918945312500e+01 4.990085493773221970e-03 5.070282459259033203e+00 1.522581815719604492e+00 -6.800792645663022995e-03
6.160000000000000000e+02 7.754573822021484375e+01 3.289566802978515625e+01 1.279470976442098618e-02 5.116355419158935547e+00 1.538745045661926270e+00 -5.702460184693336487e-02
6.170000000000000000e+02 7.940834045410156250e+01 3.356592178344726562e+01 -4.420830227900296450e-04 5.100919246673583984e+00 1.530143141746520996e+00 -1.341168954968452454e-02
6.180000000000000000e+02 7.916468811035156250e+01 3.083368492126464844e+01 4.079200793057680130e-03 5.172016143798828125e+00 1.552828550338745117e+00 -2.591946162283420563e-02
6.190000000000000000e+02 7.785666656494140625e+01 2.795950126647949219e+01 1.891484856605529785e-02 5.283627986907958984e+00 1.590762853622436523e+00 -1.089785173535346985e-01
6.200000000000000000e+02 7.930629730224609375e+01 2.650753211975097656e+01 3.010411281138658524e-03 5.377324104309082031e+00 1.614100337028503418e+00 -4.552265629172325134e-02
6.210000000000000000e+02 7.657976531982421875e+01 2.520007133483886719e+01 5.204899609088897705e-02 5.394498825073242188e+00 1.633964300155639648e+00 -2.418207079172134399e-01
6.220000000000000000e+02 7.932409667968750000e+01 2.511271476745605469e+01 4.541056696325540543e-03 5.478363513946533203e+00 1.644871354103088379e+00 -5.330425128340721130e-02
6.230000000000000000e+02 7.935065460205078125e+01 2.094076919555664062e+01 4.712818190455436707e-03 5.892548084259033203e+00 1.769178271293640137e+00 -7.929567247629165649e-02
6.240000000000000000e+02 7.935952758789062500e+01 1.955110168457031250e+01 2.918760292232036591e-03 6.073140621185302734e+00 1.822817802429199219e+00 -8.741331845521926880e-02
6.250000000000000000e+02 7.936659240722656250e+01 1.816194343566894531e+01 4.723038990050554276e-03 6.274607181549072266e+00 1.883799076080322266e+00 -9.596011787652969360e-02
6.260000000000000000e+02 7.935871887207031250e+01 1.399540519714355469e+01 3.513502888381481171e-03 6.985332489013671875e+00 2.096653938293457031e+00 -1.180020198225975037e-01
6.270000000000000000e+02 7.935774230957031250e+01 1.260161972045898438e+01 -1.057669287547469139e-03 7.247352123260498047e+00 2.173888444900512695e+00 -1.203094944357872009e-01
6.280000000000000000e+02 7.935784912109375000e+01 1.120723247528076172e+01 1.942901290021836758e-03 7.514768123626708984e+00 2.255013227462768555e+00 -1.215946078300476074e-01
6.290000000000000000e+02 7.935867309570312500e+01 7.018515586853027344e+00 -1.211839541792869568e-02 8.271003723144531250e+00 2.477665662765502930e+00 -9.600540250539779663e-02
6.300000000000000000e+02 7.935920715332031250e+01 5.621690750122070312e+00 -4.079657606780529022e-03 8.474197387695312500e+00 2.541035413742065430e+00 -7.902955263853073120e-02
6.310000000000000000e+02 7.936083221435546875e+01 4.225414752960205078e+00 -1.669764146208763123e-02 8.636614799499511719e+00 2.585974931716918945e+00 -5.562353879213333130e-02
6.320000000000000000e+02 7.937264251708984375e+01 4.078741371631622314e-02 -1.784794032573699951e-02 8.759563446044921875e+00 2.622514724731445312e+00 4.595978558063507080e-02
6.330000000000000000e+02 7.937917327880859375e+01 -1.353795886039733887e+00 -1.967810653150081635e-02 8.637407302856445312e+00 2.585318803787231445e+00 8.823773264884948730e-02
6.340000000000000000e+02 7.817143249511718750e+01 -4.077583789825439453e+00 -1.205821633338928223e-01 8.072762489318847656e+00 2.385654211044311523e+00 4.699934422969818115e-01
6.350000000000000000e+02 7.939204406738281250e+01 -4.144832611083984375e+00 -2.638189308345317841e-02 8.050370216369628906e+00 2.407196283340454102e+00 2.001332491636276245e-01
6.360000000000000000e+02 7.945915985107421875e+01 -8.308532714843750000e+00 -1.352443918585777283e-02 6.230138301849365234e+00 1.864984154701232910e+00 3.200660347938537598e-01
6.370000000000000000e+02 7.850105285644531250e+01 -1.080281352996826172e+01 1.249660477042198181e-01 5.954490661621093750e+00 1.823837041854858398e+00 7.058856487274169922e-01
6.380000000000000000e+02 7.949279785156250000e+01 -1.103195762634277344e+01 2.565297670662403107e-02 4.624713420867919922e+00 1.395110011100769043e+00 2.529706954956054688e-01
6.390000000000000000e+02 7.936998748779296875e+01 -1.521491336822509766e+01 6.746803224086761475e-02 4.358654499053955078e+00 1.327836751937866211e+00 -1.887332499027252197e-01
6.400000000000000000e+02 7.829304504394531250e+01 -1.797372245788574219e+01 2.997065894305706024e-02 6.950277328491210938e+00 2.094074487686157227e+00 -9.899512529373168945e-01
6.410000000000000000e+02 7.942115783691406250e+01 -1.806040763854980469e+01 -1.797623559832572937e-02 5.812929153442382812e+00 1.738485813140869141e+00 -3.928607702255249023e-01
6.420000000000000000e+02 7.939685058593750000e+01 -2.366262435913085938e+01 -1.064462959766387939e-02 9.148608207702636719e+00 2.741389036178588867e+00 -3.509592115879058838e-01
6.430000000000000000e+02 7.819690704345703125e+01 -2.501310157775878906e+01 -2.772165089845657349e-02 9.815118789672851562e+00 2.936218976974487305e+00 -8.536803126335144043e-01
6.440000000000000000e+02 7.940140533447265625e+01 -2.505393409729003906e+01 -4.406780470162630081e-03 9.853080749511718750e+00 2.954602003097534180e+00 -3.305561244487762451e-01
6.450000000000000000e+02 7.944675445556640625e+01 -2.919366073608398438e+01 -5.191369913518428802e-03 1.175800418853759766e+01 3.525843858718872070e+00 -2.714537978172302246e-01
6.460000000000000000e+02 7.814866638183593750e+01 -3.161548995971679688e+01 -9.974266588687896729e-02 1.177295112609863281e+01 3.501962423324584961e+00 -4.893639683723449707e-01
6.470000000000000000e+02 7.939714050292968750e+01 -3.191753578186035156e+01 4.384962376207113266e-03 1.265495014190673828e+01 3.797800540924072266e+00 -1.850764900445938110e-01
6.480000000000000000e+02 7.930100250244140625e+01 -3.602502822875976562e+01 -7.739664055407047272e-03 1.319403648376464844e+01 3.955889225006103516e+00 -5.349913984537124634e-02
6.490000000000000000e+02 7.922664642333984375e+01 -3.738745117187500000e+01 -9.271050989627838135e-02 1.310552024841308594e+01 3.903842926025390625e+00 6.972493976354598999e-02
6.500000000000000000e+02 7.905683135986328125e+01 -3.873252105712890625e+01 -4.806347191333770752e-03 1.289618301391601562e+01 3.867413043975830078e+00 1.249780803918838501e-01
6.510000000000000000e+02 7.872264099121093750e+01 -4.009815979003906250e+01 -1.453854739665985107e-01 1.258450794219970703e+01 3.731736898422241211e+00 2.653543353080749512e-01
6.520000000000000000e+02 6.636862277984619141e+00 3.774889373779296875e+01 3.735835489351302385e-04 4.133929323870688677e-04 2.360929502174258232e-04 -4.306463233660906553e-05
6.530000000000000000e+02 2.541600990295410156e+01 3.901866149902343750e+01 -1.846510730683803558e-02 -1.300046592950820923e-02 -9.439671412110328674e-03 3.288240358233451843e-02
6.540000000000000000e+02 4.783879470825195312e+01 4.133802032470703125e+01 -4.665634632110595703e-01 4.348057270050048828e+00 1.164448142051696777e+00 5.437522754073143005e-02
6.550000000000000000e+02 6.720368194580078125e+01 4.052247619628906250e+01 7.886718213558197021e-02 4.885630607604980469e+00 1.489349246025085449e+00 -2.073202515020966530e-03
6.560000000000000000e+02 3.818014860153198242e-01 2.175793886184692383e+00 -4.050137795275077224e-05 -7.136201475077541545e-06 -1.429127405572216958e-05 1.250544573849765584e-05
6.570000000000000000e+02 3.489186048507690430e+00 2.806325912475585938e+00 4.086710032424889505e-05 1.859404073911719024e-05 1.783834159141406417e-05 -1.865122067101765424e-05
6.580000000000000000e+02 5.024118900299072266e+00 2.677164077758789062e+00 2.712197783694136888e-05 3.725129136000759900e-05 1.931198130478151143e-05 -1.249998786079231650e-05
6.590000000000000000e+02 5.579991340637207031e-01 9.162061691284179688e+00 9.608091932022944093e-05 5.958652309345779940e-06 3.061187089770101011e-05 -2.475539440638385713e-05
6.600000000000000000e+02 5.792679190635681152e-01 1.198340988159179688e+01 1.275630784220993519e-04 4.030427589896135032e-06 3.947805089410394430e-05 -2.825021874741651118e-05
6.610000000000000000e+02 1.729731678962707520e+00 1.175823783874511719e+01 -1.344478660030290484e-04 -1.020533727569272742e-05 -4.339596125646494329e-05 3.185951936757192016e-05
6.620000000000000000e+02 6.161838173866271973e-01 1.621733283996582031e+01 -1.647483295528218150e-04 -1.770969720382709056e-05 -5.473741111927665770e-05 3.570842090994119644e-05
6.630000000000000000e+02 1.863389372825622559e+00 1.737991523742675781e+01 -1.862787612481042743e-04 -1.429168969480087981e-05 -6.017113628331571817e-05 3.707212090375833213e-05
6.640000000000000000e+02 6.212494373321533203e-01 1.762688636779785156e+01 1.758577709551900625e-04 -2.688923359528416768e-06 5.195065386942587793e-05 -3.507988003548234701e-05
6.650000000000000000e+02 6.403191685676574707e-01 2.186138534545898438e+01 -1.927246485138311982e-04 -2.886075708374846727e-05 -6.647562258876860142e-05 3.848495180136524141e-05
6.660000000000000000e+02 6.470677852630615234e-01 2.327266883850097656e+01 2.091983769787475467e-04 4.594253368850331753e-06 6.413778464775532484e-05 -5.073181455372832716e-05
6.670000000000000000e+02 1.949927091598510742e+00 2.300271034240722656e+01 -2.111951034748926759e-04 -3.591196218621917069e-05 -7.413212006213143468e-05 3.612135333241894841e-05
6.680000000000000000e+02 6.479060053825378418e-01 2.468306159973144531e+01 -2.338643971597775817e-04 -2.869930722226854414e-05 -7.876910967752337456e-05 5.851780952070839703e-05
6.690000000000000000e+02 6.188414096832275391e-01 2.889801597595214844e+01 3.434834361542016268e-04 9.292806498706340790e-05 1.309234503423795104e-04 -1.114029364543966949e-04
6.700000000000000000e+02 6.225416064262390137e-01 3.030197334289550781e+01 -3.467562783043831587e-04 9.396690438734367490e-05 -7.583681872347369790e-05 6.700879748677834868e-05
6.710000000000000000e+02 3.067433834075927734e+00 2.961340904235839844e+01 -3.036373527720570564e-04 5.278083699522539973e-05 -7.525695400545373559e-05 -1.832651832955889404e-05
6.720000000000000000e+02 6.364399194717407227e-01 3.169900512695312500e+01 3.486047789920121431e-04 2.064197469735518098e-04 1.665073505137115717e-04 -1.188678434118628502e-04
6.730000000000000000e+02 7.506603002548217773e-01 3.585685348510742188e+01 -3.464528417680412531e-04 2.986767794936895370e-04 -1.433282250218326226e-05 1.092566599254496396e-04
6.740000000000000000e+02 8.710774779319763184e-01 3.723932266235351562e+01 3.751846088562160730e-04 4.367301880847662687e-04 2.435744390822947025e-04 -1.567732397234067321e-04
6.750000000000000000e+02 1.088989019393920898e+00 3.859941101074218750e+01 -3.780369879677891731e-04 4.034026060253381729e-04 7.609685781062580645e-06 8.789632556727156043e-05
6.760000000000000000e+02 1.454564929008483887e+00 3.999554824829101562e+01 4.109470173716545105e-04 5.282494821585714817e-04 2.817589556798338890e-04 -1.647204480832442641e-04
6.770000000000000000e+02 1.052068328857421875e+01 1.787707448005676270e+00 2.787501944112591445e-05 4.169040767010301352e-05 2.086962740577291697e-05 2.083171921185567044e-06
6.780000000000000000e+02 8.947766304016113281e+00 1.864685773849487305e+00 2.708232204895466566e-05 4.164975325693376362e-05 2.061962368316017091e-05 3.838518750853836536e-06
6.790000000000000000e+02 8.948945999145507812e+00 2.596557617187500000e+00 -3.732613186002708972e-05 -4.080986036569811404e-05 -2.344079803151544183e-05 -6.680612386844586581e-06
6.800000000000000000e+02 8.163648605346679688e+00 1.870846748352050781e+00 -2.572925586719065905e-05 -4.226369128446094692e-05 -2.039788341789972037e-05 -3.186706862834398635e-06
6.810000000000000000e+02 5.819867610931396484e+00 1.880989074707031250e+00 2.157538983738049865e-05 4.120717858313582838e-05 1.883477125375065953e-05 -5.470103133120574057e-06
6.820000000000000000e+02 5.041625976562500000e+00 1.890706181526184082e+00 -2.255939944006968290e-05 -3.799708792939782143e-05 -1.816694566514343023e-05 9.898154530674219131e-06
6.830000000000000000e+02 4.265045166015625000e+00 1.907962918281555176e+00 2.454670902807265520e-05 3.203600135748274624e-05 1.697481275186873972e-05 -1.276765306101879105e-05
6.840000000000000000e+02 3.488569498062133789e+00 1.934621334075927734e+00 -2.600114021333865821e-05 -2.530976780690252781e-05 -1.539327240607235581e-05 1.205542230309220031e-05
6.850000000000000000e+02 2.708574533462524414e+00 1.976734042167663574e+00 1.930877988343127072e-05 2.193993350374512374e-05 1.237461401615291834e-05 -1.082881044567329809e-05
6.860000000000000000e+02 1.151116251945495605e+00 2.110113620758056641e+00 1.901273390103597194e-05 1.540985431347507983e-05 1.032677664625225589e-05 -1.686949872237164527e-05
6.870000000000000000e+02 1.281824493408203125e+01 1.435586452484130859e+00 -2.753588887571822852e-05 -4.635271398001350462e-05 -2.216657958342693746e-05 2.137959427273017354e-06
6.880000000000000000e+02 1.355646705627441406e+01 1.323039889335632324e+00 2.639297053974587470e-05 5.108391269459389150e-05 2.324306478840298951e-05 -2.999023081429186277e-06
6.890000000000000000e+02 1.499089813232421875e+01 1.128799796104431152e+00 1.703874841041397303e-05 5.798390702693723142e-05 2.250679608550854027e-05 4.202926447760546580e-06
6.900000000000000000e+02 1.570482921600341797e+01 1.049237132072448730e+00 -1.256181531061884016e-05 -5.868795415153726935e-05 -2.137492992915213108e-05 -1.443930250388802961e-05
6.910000000000000000e+02 1.641437721252441406e+01 1.006349802017211914e+00 1.037141191773116589e-05 5.874462294741533697e-05 2.073481118713971227e-05 2.736487840593326837e-05
6.920000000000000000e+02 1.783069801330566406e+01 1.001940011978149414e+00 3.530387039063498378e-05 3.457179627730511129e-05 2.096270145557355136e-05 4.056425314047373831e-05
6.930000000000000000e+02 1.988782691955566406e+01 5.209770202636718750e+00 -1.647362951189279556e-04 -1.573060944792814553e-05 -5.414007318904623389e-05 -4.329152943682856858e-05
6.940000000000000000e+02 2.052048301696777344e+01 2.958002805709838867e+00 -1.154798083007335663e-04 1.913843152578920126e-05 -2.890241376007907093e-05 1.149927811638917774e-05
6.950000000000000000e+02 2.114408493041992188e+01 1.778582453727722168e+00 -3.510029046083218418e-06 -7.473201094398973510e-06 -3.294969019407290034e-06 1.771456663846038282e-05
6.960000000000000000e+02 2.153110122680664062e+01 2.498229503631591797e+00 -2.522997965570539236e-05 -3.368114630575291812e-05 -1.767333742463961244e-05 -3.089356687269173563e-05
6.970000000000000000e+02 2.108504295349121094e+01 1.113523960113525391e+00 2.600516563688870519e-05 1.612638516235165298e-05 1.263946523977210745e-05 -2.010743628488853574e-05
6.980000000000000000e+02 1.936485099792480469e+01 1.045325875282287598e+00 6.067629510653205216e-05 1.757626023390912451e-06 1.873017572506796569e-05 3.459529125393601134e-06
6.990000000000000000e+02 1.939998245239257812e+01 1.988672256469726562e+00 -9.486724593443796039e-05 7.121031103451969102e-06 -2.632386349432636052e-05 -1.716410406515933573e-05
7.000000000000000000e+02 1.874004173278808594e+01 7.657138347625732422e+00 -1.819112221710383892e-04 -1.993277328438125551e-05 -6.055319681763648987e-05 -5.818244972033426166e-05
7.010000000000000000e+02 1.767789268493652344e+01 1.020632934570312500e+01 -1.901686337077990174e-04 -2.338424565095920116e-05 -6.406586180673912168e-05 -6.328264862531796098e-05
7.020000000000000000e+02 1.591247558593750000e+01 1.551489734649658203e+01 -2.246129151899367571e-04 -1.154178062279243022e-05 -7.084640674293041229e-05 -5.097672692500054836e-05
7.030000000000000000e+02 1.522808742523193359e+01 1.970073699951171875e+01 2.673375129234045744e-04 -2.157124799850862473e-05 7.372988329734653234e-05 2.273530844831839204e-05
7.040000000000000000e+02 1.519818496704101562e+01 2.111592292785644531e+01 -2.926820307038724422e-04 -1.285438247577985749e-05 -9.166092786472290754e-05 -1.099630117096239701e-05
7.050000000000000000e+02 1.527766704559326172e+01 2.395243072509765625e+01 -3.182639484293758869e-04 -8.189612344722263515e-06 -9.793607023311778903e-05 3.596839815145358443e-05
7.060000000000000000e+02 1.547228908538818359e+01 2.536965751647949219e+01 3.759586834348738194e-04 1.744420114846434444e-05 1.180208637379109859e-04 -2.020028478000313044e-05
7.070000000000000000e+02 1.644983482360839844e+01 3.145440673828125000e+01 1.853136200224980712e-04 1.082331946236081421e-04 8.806404366623610258e-05 6.909011863172054291e-04
7.080000000000000000e+02 1.764773559570312500e+01 3.068159294128417969e+01 1.046810881234705448e-03 5.831895396113395691e-04 4.890001146122813225e-04 1.690296776359900832e-04
7.090000000000000000e+02 2.012888336181640625e+01 3.412124252319335938e+01 2.959168283268809319e-03 9.907868225127458572e-04 1.184986555017530918e-03 2.093620365485548973e-03
7.100000000000000000e+02 2.249734687805175781e+01 3.584027481079101562e+01 6.077556405216455460e-03 1.062026713043451309e-03 2.141874982044100761e-03 2.043664222583174706e-03
7.110000000000000000e+02 2.546677017211914062e+01 3.709172058105468750e+01 -1.798258163034915924e-02 5.796991754323244095e-03 -3.655677195638418198e-03 6.165502592921257019e-03
7.120000000000000000e+02 2.697467231750488281e+01 3.716027069091796875e+01 -3.364175185561180115e-02 -3.358736867085099220e-03 -1.110014691948890686e-02 5.004949402064085007e-03
7.130000000000000000e+02 2.836223030090332031e+01 3.736301040649414062e+01 -8.838260173797607422e-02 -1.142811309546232224e-02 -2.994321286678314209e-02 2.669916674494743347e-02
7.140000000000000000e+02 3.116483116149902344e+01 3.710904312133789062e+01 -2.940939962863922119e-01 1.721433363854885101e-02 -8.306390047073364258e-02 1.183210313320159912e-01
7.150000000000000000e+02 3.802829360961914062e+01 3.458934402465820312e+01 2.422041743993759155e-01 1.234622478485107422e+00 4.430480003356933594e-01 -5.807988047599792480e-01
7.160000000000000000e+02 4.021884155273437500e+01 3.209803771972656250e+01 7.044981122016906738e-01 3.478168964385986328e+00 1.254800081253051758e+00 -1.325222373008728027e+00
7.170000000000000000e+02 4.294633102416992188e+01 2.648176002502441406e+01 3.915024101734161377e-01 6.103586196899414062e+00 1.948526620864868164e+00 -2.962590754032135010e-01
7.180000000000000000e+02 4.168478012084960938e+01 2.363928031921386719e+01 3.185072541236877441e-02 6.388647556304931641e+00 1.926149487495422363e+00 6.680599600076675415e-02
7.190000000000000000e+02 4.168168640136718750e+01 2.081442642211914062e+01 5.150191858410835266e-02 6.936206340789794922e+00 2.096312522888183594e+00 2.090505510568618774e-01
7.200000000000000000e+02 4.166587829589843750e+01 1.939552879333496094e+01 2.365387976169586182e-02 7.445489406585693359e+00 2.240742921829223633e+00 2.898743450641632080e-01
7.210000000000000000e+02 4.278524398803710938e+01 1.644727325439453125e+01 6.353397965431213379e-01 8.213918685913085938e+00 2.654777526855468750e+00 1.434714555740356445e+00
7.220000000000000000e+02 4.156797790527343750e+01 1.654784584045410156e+01 2.044063806533813477e-01 9.162018775939941406e+00 2.809927701950073242e+00 8.910908699035644531e-01
7.230000000000000000e+02 4.075490951538085938e+01 1.088096523284912109e+01 8.883126974105834961e-01 1.261609554290771484e+01 4.051322460174560547e+00 2.979874134063720703e+00
7.240000000000000000e+02 4.052077484130859375e+01 6.441842079162597656e+00 1.984626770019531250e+00 1.162238311767578125e+01 4.082102775573730469e+00 4.015614032745361328e+00
7.250000000000000000e+02 3.749897766113281250e+01 2.924452543258666992e+00 1.359581947326660156e+00 6.890388965606689453e+00 2.474991321563720703e+00 3.133280038833618164e+00
7.260000000000000000e+02 3.653062438964843750e+01 1.802358150482177734e+00 2.339148372411727905e-01 3.734617233276367188e+00 1.190559625625610352e+00 1.547073960304260254e+00
7.270000000000000000e+02 3.547260665893554688e+01 7.789594531059265137e-01 -1.000063776969909668e+00 1.359170675277709961e+00 1.077320575714111328e-01 7.993916422128677368e-02
7.280000000000000000e+02 3.026450920104980469e+01 -1.815037608146667480e+00 -2.514129877090454102e+00 -3.182975649833679199e-01 -8.497282266616821289e-01 -8.048826456069946289e-01
7.290000000000000000e+02 2.744499206542968750e+01 -2.047958612442016602e+00 -1.197851657867431641e+00 -5.763391405344009399e-02 -3.766456544399261475e-01 -1.648290604352951050e-01
7.300000000000000000e+02 2.277556991577148438e+01 -2.401775360107421875e+00 -1.824982762336730957e-01 -1.528796739876270294e-03 -5.520812049508094788e-02 -2.619548141956329346e-02
7.310000000000000000e+02 2.192315864562988281e+01 -2.547763824462890625e+00 -1.604810357093811035e-01 -1.577873155474662781e-02 -5.287792906165122986e-02 1.003260491415858269e-03
7.320000000000000000e+02 1.864876937866210938e+01 -2.807346343994140625e+00 -2.143322527408599854e-01 -3.013473935425281525e-02 -7.334010303020477295e-02 7.786913216114044189e-02
7.330000000000000000e+02 2.028182411193847656e+01 -2.712254285812377930e+00 -1.740362644195556641e-01 -2.928117476403713226e-02 -6.099523231387138367e-02 4.310100153088569641e-02
7.340000000000000000e+02 1.704977607727050781e+01 -2.752665519714355469e+00 -2.708729803562164307e-01 -2.246136032044887543e-02 -8.800029754638671875e-02 9.382278472185134888e-02
7.350000000000000000e+02 1.546505451202392578e+01 -2.650639533996582031e+00 -3.204109370708465576e-01 -1.180204376578330994e-02 -9.966389834880828857e-02 9.041714668273925781e-02
7.360000000000000000e+02 1.315729045867919922e+01 -2.374905347824096680e+00 -3.695612549781799316e-01 1.282888185232877731e-02 -1.070197075605392456e-01 5.273004993796348572e-02
7.370000000000000000e+02 1.168426609039306641e+01 -2.166445016860961914e+00 -3.743992447853088379e-01 3.175285458564758301e-02 -1.027939170598983765e-01 1.322661060839891434e-02
7.380000000000000000e+02 6.842087554931640625e+01 -1.595446300506591797e+01 -2.733640670776367188e-01 3.092001914978027344e+00 8.455913662910461426e-01 3.992078900337219238e-01
7.390000000000000000e+02 6.858202362060546875e+01 -1.593274974822998047e+01 -4.192118048667907715e-01 4.589643955230712891e+00 1.251129627227783203e+00 1.557026028633117676e+00
7.400000000000000000e+02 6.912301635742187500e+01 -1.581081771850585938e+01 6.414152681827545166e-02 7.675113677978515625e+00 2.321776628494262695e+00 3.523275852203369141e+00
7.410000000000000000e+02 6.897545623779296875e+01 -1.588733577728271484e+01 1.488827615976333618e-01 6.974686145782470703e+00 2.137070655822753906e+00 3.114230632781982422e+00
7.420000000000000000e+02 6.871415710449218750e+01 -1.809270668029785156e+01 -2.005463689565658569e-01 9.598216056823730469e+00 2.819300889968872070e+00 6.109561324119567871e-01
7.430000000000000000e+02 7.014370727539062500e+01 -1.591961479187011719e+01 -1.650275826454162598e+00 1.577494621276855469e+01 4.237401008605957031e+00 2.435084342956542969e+00
7.440000000000000000e+02 7.001375579833984375e+01 -1.213548183441162109e+01 7.423772811889648438e-01 1.559013938903808594e+01 4.899755001068115234e+00 -4.525728225708007812e+00
7.450000000000000000e+02 6.910583496093750000e+01 -1.218469142913818359e+01 1.914377331733703613e+00 7.886240482330322266e+00 2.940185308456420898e+00 -5.550902366638183594e+00
7.460000000000000000e+02 6.865041351318359375e+01 -1.254505252838134766e+01 3.217761039733886719e+00 4.573990345001220703e+00 2.337525367736816406e+00 -4.943741321563720703e+00
7.470000000000000000e+02 6.754849243164062500e+01 -1.241383838653564453e+01 9.470692873001098633e-01 2.209099292755126953e+00 9.468505978584289551e-01 -1.298339247703552246e+00
7.480000000000000000e+02 6.801859283447265625e+01 -1.235180950164794922e+01 2.351927518844604492e+00 2.832118749618530273e+00 1.555213809013366699e+00 -2.836793422698974609e+00
7.490000000000000000e+02 1.855554962158203125e+01 1.009241342544555664e+00 -5.577104093390516937e-05 -1.356920802209060639e-05 -2.080207377730403095e-05 -2.498245885362848639e-05
7.500000000000000000e+02 1.771846008300781250e+01 7.309288501739501953e+00 1.402777852490544319e-04 2.179119292122777551e-05 4.862069181399419904e-05 5.191184754949063063e-05
7.510000000000000000e+02 1.846182060241699219e+01 2.830177783966064453e+00 -8.992849325295537710e-05 -5.371386578190140426e-05 -4.309270661906339228e-05 -6.799810216762125492e-05
7.520000000000000000e+02 1.744418144226074219e+01 3.519937753677368164e+00 -3.034003384527750313e-05 -9.033101378008723259e-05 -3.620131610659882426e-05 -6.267723802011460066e-05
7.530000000000000000e+02 1.392308712005615234e+01 -2.468588352203369141e+00 -3.605729937553405762e-01 5.209689028561115265e-03 -1.066089943051338196e-01 6.787555664777755737e-02
7.540000000000000000e+02 1.023493576049804688e+01 -1.960019946098327637e+00 -3.637741506099700928e-01 4.616000875830650330e-02 -9.528423845767974854e-02 -1.830450072884559631e-02
7.550000000000000000e+02 1.097492694854736328e+01 -2.830491542816162109e+00 -3.207412064075469971e-01 6.270207464694976807e-02 -7.741174101829528809e-02 -1.301837246865034103e-02
7.560000000000000000e+02 1.025711441040039062e+01 -3.517864465713500977e+00 -2.751410603523254395e-01 9.338042885065078735e-02 -5.452819168567657471e-02 -4.265801608562469482e-02
7.570000000000000000e+02 9.488128662109375000e+00 -2.686523199081420898e+00 -3.076124191284179688e-01 6.776040792465209961e-02 -7.195560634136199951e-02 -5.599245801568031311e-02
7.580000000000000000e+02 1.431980228424072266e+01 1.919211387634277344e+00 3.281953104306012392e-05 5.449015952763147652e-05 2.619290717120748013e-05 -4.083146450284402817e-06
7.590000000000000000e+02 1.505573749542236328e+01 2.488819837570190430e+00 3.308124723844230175e-05 6.229167775018140674e-05 2.861187567759770900e-05 -8.954905752034392208e-06
7.600000000000000000e+02 1.501498985290527344e+01 1.815258264541625977e+00 -2.265474722662474960e-05 -6.287885480560362339e-05 -2.566007970017381012e-05 -3.883248211877798894e-07
7.610000000000000000e+02 1.205952835083007812e+01 1.557967901229858398e+00 2.808597128023393452e-05 4.396813892526552081e-05 2.161623342544771731e-05 -6.657095354967168532e-07
7.620000000000000000e+02 2.174522781372070312e+01 1.272542953491210938e+00 -2.022151875280542299e-06 -3.116246080026030540e-05 -9.955384484783280641e-06 1.593324486748315394e-05
7.630000000000000000e+02 1.475085163116455078e+01 -3.286909103393554688e+00 -2.671130299568176270e-01 6.415080279111862183e-03 -7.820938527584075928e-02 9.302006661891937256e-02
7.640000000000000000e+02 1.320716190338134766e+01 -3.111266136169433594e+00 -3.028827905654907227e-01 3.230933845043182373e-02 -8.117203414440155029e-02 5.540927872061729431e-02
7.650000000000000000e+02 1.633559417724609375e+01 -3.427910566329956055e+00 -2.189437448978424072e-01 -1.697493903338909149e-02 -7.077560573816299438e-02 1.127020940184593201e-01
7.660000000000000000e+02 1.135052967071533203e+01 2.408275842666625977e+00 3.944648051401600242e-05 4.108993016416206956e-05 2.416092320345342159e-05 1.050993432727409527e-06
7.670000000000000000e+02 1.361001682281494141e+01 2.040230035781860352e+00 -3.918389484169892967e-05 -4.843356146011501551e-05 -2.628523725434206426e-05 2.834158976838807575e-06
7.680000000000000000e+02 1.287873935699462891e+01 2.167606592178344727e+00 3.946799552068114281e-05 4.491076470003463328e-05 2.531362770241685212e-05 -1.550561478325107601e-06
7.690000000000000000e+02 7.084545898437500000e+01 -1.648303985595703125e+01 -1.230721950531005859e+00 1.544941043853759766e+01 4.265606403350830078e+00 5.315429717302322388e-02
7.700000000000000000e+02 7.071437835693359375e+01 -1.567948627471923828e+01 -6.661558151245117188e-01 1.826211929321289062e+01 5.278789043426513672e+00 -5.309143662452697754e-01
7.710000000000000000e+02 7.197869873046875000e+01 -1.429871463775634766e+01 6.683267593383789062e+00 1.441497802734375000e+01 6.329473495483398438e+00 -2.083287954330444336e+00
7.720000000000000000e+02 7.297285461425781250e+01 -1.461863422393798828e+01 3.822885274887084961e+00 1.223408412933349609e+01 4.817090988159179688e+00 -1.899872899055480957e+00
7.730000000000000000e+02 7.031619262695312500e+01 -1.109410667419433594e+01 -2.136208266019821167e-01 1.302825260162353516e+01 3.844389438629150391e+00 -3.207079648971557617e+00
7.740000000000000000e+02 7.117961883544921875e+01 -1.246541595458984375e+01 2.301084041595458984e+00 1.742659759521484375e+01 5.918304443359375000e+00 2.623940706253051758e-01
7.750000000000000000e+02 6.812492370605468750e+01 -1.033578872680664062e+01 1.156006097793579102e+00 6.711719036102294922e+00 2.360317707061767578e+00 -3.669545173645019531e+00
7.760000000000000000e+02 6.956363677978515625e+01 -1.225563240051269531e+01 1.484348535537719727e+00 1.242719745635986328e+01 4.173463821411132812e+00 -6.153853416442871094e+00
7.770000000000000000e+02 6.600588798522949219e+00 1.876422762870788574e+00 -2.291548298671841621e-05 -4.241147689754143357e-05 -1.959808832907583565e-05 1.774109136931656394e-06
7.780000000000000000e+02 1.636652946472167969e+00 7.544754505157470703e+00 9.068232611753046513e-05 1.507912020315416157e-05 3.172843571519479156e-05 -2.920456427091266960e-05
7.790000000000000000e+02 5.050315856933593750e+00 3.476750612258911133e+00 -3.113301499979570508e-05 -3.802491119131445885e-05 -2.074737676593940705e-05 1.451718435419024900e-05
7.800000000000000000e+02 1.179277420043945312e+00 3.343434095382690430e+00 -2.829439836204983294e-05 -1.386955773341469467e-05 -1.264918682863935828e-05 2.157121707568876445e-05
7.810000000000000000e+02 2.721877098083496094e+00 2.917658805847167969e+00 -3.525891224853694439e-05 -1.321054696745704859e-05 -1.454083758289925754e-05 8.794993846095167100e-06
7.820000000000000000e+02 1.954509258270263672e+00 3.111552476882934570e+00 1.379261811962351203e-05 1.860464362835045904e-05 9.719178706291131675e-06 -1.185170549433678389e-05
7.830000000000000000e+02 1.927859544754028320e+00 2.039219379425048828e+00 -1.558109579491429031e-05 -1.960194276762194932e-05 -1.055491156876087189e-05 1.326230267295613885e-05
7.840000000000000000e+02 8.153277397155761719e+00 2.610688209533691406e+00 3.448891948210075498e-05 4.266163523425348103e-05 2.314516677870415151e-05 5.300625161908101290e-06
7.850000000000000000e+02 7.382120609283447266e+00 1.873808026313781738e+00 2.363770909141749144e-05 4.276253821444697678e-05 1.992007310036569834e-05 1.171503640762239229e-06
7.860000000000000000e+02 8.160607337951660156e+00 3.349551677703857422e+00 -4.361434184829704463e-05 -4.308628922444768250e-05 -2.601018968562129885e-05 -8.160302058968227357e-06
7.870000000000000000e+02 7.366217136383056641e+00 2.618369340896606445e+00 -3.248874418204650283e-05 -4.283644375391304493e-05 -2.259755638078786433e-05 -2.845757308023166843e-06
7.880000000000000000e+02 1.056069278717041016e+01 2.503106117248535156e+00 -3.883432873408310115e-05 -3.996588202426210046e-05 -2.364006286370567977e-05 -3.480535042399424128e-06
7.890000000000000000e+02 1.784778022766113281e+01 -2.784517765045166016e+00 -2.423128038644790649e-01 -2.866438031196594238e-02 -8.129315823316574097e-02 8.936914056539535522e-02
7.900000000000000000e+02 1.553624439239501953e+01 -3.366268396377563477e+00 -2.427194416522979736e-01 -7.604940794408321381e-03 -7.509731501340866089e-02 1.071584001183509827e-01
7.910000000000000000e+02 1.795422172546386719e+01 -3.502198934555053711e+00 -1.667426079511642456e-01 -3.563920035958290100e-02 -6.071454286575317383e-02 1.087723448872566223e-01
7.920000000000000000e+02 1.714374923706054688e+01 -3.471841812133789062e+00 -1.920632719993591309e-01 -2.860504947602748871e-02 -6.620049476623535156e-02 1.156587973237037659e-01
7.930000000000000000e+02 2.044377517700195312e+01 -3.446121692657470703e+00 -1.091588512063026428e-01 -5.165714770555496216e-02 -4.824480041861534119e-02 5.512482300400733948e-02
7.940000000000000000e+02 2.298723602294921875e+01 -3.227163076400756836e+00 -1.274324357509613037e-01 -3.543909266591072083e-02 -4.886145889759063721e-02 -5.241579562425613403e-02
7.950000000000000000e+02 1.877197265625000000e+01 -3.513379573822021484e+00 -1.433330774307250977e-01 -4.464914277195930481e-02 -5.639466643333435059e-02 9.849524497985839844e-02
7.960000000000000000e+02 8.713027954101562500e+00 -2.647748947143554688e+00 -2.896532118320465088e-01 6.077554076910018921e-02 -6.866329908370971680e-02 -7.746876031160354614e-02
7.970000000000000000e+02 6.346106529235839844e+00 -2.611624479293823242e+00 -2.134626507759094238e-01 2.435083314776420593e-02 -5.673354864120483398e-02 -1.356933563947677612e-01
7.980000000000000000e+02 7.044236183166503906e+00 -1.869924783706665039e+00 -2.618521749973297119e-01 2.091314643621444702e-02 -7.228171080350875854e-02 -9.453625231981277466e-02
7.990000000000000000e+02 7.925626754760742188e+00 -2.626516103744506836e+00 -2.682819664478302002e-01 5.076627060770988464e-02 -6.525471061468124390e-02 -1.008548662066459656e-01
8.000000000000000000e+02 7.134863853454589844e+00 -2.615919113159179688e+00 -2.398331314325332642e-01 3.660232573747634888e-02 -6.096924096345901489e-02 -1.188512891530990601e-01
8.010000000000000000e+02 5.419987201690673828e+00 -1.873149752616882324e+00 -1.913093030452728271e-01 5.365059711039066315e-03 -5.578327178955078125e-02 -1.126130074262619019e-01
8.020000000000000000e+02 4.781600952148437500e+00 -2.652102947235107422e+00 -1.519169956445693970e-01 -3.575238399207592010e-03 -4.664767161011695862e-02 -1.459713578224182129e-01
8.030000000000000000e+02 1.776661515235900879e+00 -9.654100418090820312e+00 -2.540526725351810455e-02 -5.641464591026306152e-01 -1.768655180931091309e-01 -2.463327795267105103e-01
8.040000000000000000e+02 5.805014967918395996e-01 -6.605998516082763672e+00 -8.215098932851105928e-05 -3.749727606773376465e-01 -1.125164777040481567e-01 -7.035779207944869995e-02
8.050000000000000000e+02 2.960392951965332031e+00 -4.099388599395751953e+00 -6.459067016839981079e-02 -8.321890234947204590e-02 -4.434287175536155701e-02 -1.670561581850051880e-01
8.060000000000000000e+02 5.880332589149475098e-01 -3.679288148880004883e+00 -9.477308951318264008e-03 -1.149299815297126770e-01 -3.732218965888023376e-02 -4.323640465736389160e-02
8.070000000000000000e+02 2.526534843444824219e+01 -1.863163828849792480e+00 -3.850031495094299316e-01 -1.358600705862045288e-02 -1.195767447352409363e-01 -2.320989780128002167e-02
8.080000000000000000e+02 2.041726112365722656e+01 4.050076961517333984e+00 1.525231928098946810e-04 1.474528653488960117e-05 5.018054434913210571e-05 2.270175173180177808e-05
8.090000000000000000e+02 6.023366451263427734e+00 -2.803314781188964844e+01 -7.526194453239440918e-01 -2.574437260627746582e-01 -3.030189573764801025e-01 6.200104355812072754e-01
8.100000000000000000e+02 3.370497512817382812e+01 -1.760158157348632812e+01 -2.520876646041870117e+00 6.831290125846862793e-01 -5.513242483139038086e-01 5.447883605957031250e-01
8.110000000000000000e+02 4.147574234008789062e+01 -1.805440711975097656e+01 1.574350297451019287e-01 8.934456825256347656e+00 2.727567434310913086e+00 -4.934988319873809814e-01
8.120000000000000000e+02 3.932622528076171875e+01 -1.401111221313476562e+01 5.519016981124877930e-01 1.008833789825439453e+01 3.192071914672851562e+00 -3.733358681201934814e-01
8.130000000000000000e+02 7.753586292266845703e+00 -1.522760581970214844e+01 7.561489939689636230e-01 1.172129154205322266e+00 5.784834623336791992e-01 3.304485380649566650e-01
8.140000000000000000e+02 3.432698440551757812e+01 -1.878607940673828125e+01 -2.782130479812622070e+00 1.540922284126281738e+00 -3.723624348640441895e-01 5.514838099479675293e-01
8.150000000000000000e+02 3.836507415771484375e+01 -2.367492294311523438e+01 8.945179581642150879e-01 6.712538719177246094e+00 2.282117128372192383e+00 1.208033919334411621e+00
8.160000000000000000e+02 1.014768981933593750e+01 -3.368184280395507812e+01 -4.383108019828796387e-01 -3.853850662708282471e-01 -2.471087574958801270e-01 2.513900399208068848e-01
8.170000000000000000e+02 2.972598314285278320e+00 -1.549879550933837891e+01 1.904881745576858521e-01 -4.597012400627136230e-01 -8.076392114162445068e-02 -2.087429165840148926e-01
8.180000000000000000e+02 1.557243824005126953e+01 -1.687336921691894531e+01 6.546826958656311035e-01 2.319849655032157898e-02 2.033643573522567749e-01 -1.664868295192718506e-01
8.190000000000000000e+02 1.267124366760253906e+01 -1.491118240356445312e+01 1.209898471832275391e+00 3.340926766395568848e-01 4.631973505020141602e-01 3.368604481220245361e-01
8.200000000000000000e+02 2.837299156188964844e+01 -3.143224716186523438e+01 -2.217668145895004272e-01 2.730613052845001221e-01 1.538834907114505768e-02 3.873462975025177002e-01
8.210000000000000000e+02 3.040219116210937500e+01 -3.269907379150390625e+01 -5.426541343331336975e-02 1.980065584182739258e+00 5.777400732040405273e-01 1.308013439178466797e+00
8.220000000000000000e+02 1.314661884307861328e+01 -3.134832763671875000e+01 -1.149734497070312500e+00 -1.186756119132041931e-01 -3.805230557918548584e-01 2.907529473304748535e-01
8.230000000000000000e+02 1.040687274932861328e+01 -3.074858665466308594e+01 -1.602758049964904785e+00 -4.867447614669799805e-01 -6.268508434295654297e-01 6.487526297569274902e-01
8.240000000000000000e+02 5.622793674468994141e+00 -1.886490821838378906e+01 8.875564932823181152e-01 1.591977715492248535e+00 7.438602447509765625e-01 8.329659700393676758e-01
8.250000000000000000e+02 3.533321380615234375e+01 -3.003270912170410156e+01 1.499299705028533936e-01 5.298703193664550781e+00 1.634589910507202148e+00 8.196419477462768555e-01
8.260000000000000000e+02 3.612354660034179688e+01 -2.706861114501953125e+01 1.108344435691833496e+00 7.278397083282470703e+00 2.516022443771362305e+00 1.040046811103820801e+00
8.270000000000000000e+02 1.140016555786132812e+01 -1.617758941650390625e+01 2.070418834686279297e+00 2.811611890792846680e-01 7.054740190505981445e-01 4.496389329433441162e-01
8.280000000000000000e+02 1.132028865814208984e+01 -1.513058662414550781e+01 1.495874762535095215e+00 4.213901758193969727e-01 5.751794576644897461e-01 4.660324156284332275e-01
8.290000000000000000e+02 1.725395011901855469e+01 -1.630812263488769531e+01 5.444384217262268066e-01 -8.310454338788986206e-02 1.384001523256301880e-01 8.510485291481018066e-03
8.300000000000000000e+02 3.324750518798828125e+01 -2.883436203002929688e+01 2.050364971160888672e+00 5.015594482421875000e+00 2.119787931442260742e+00 2.713520526885986328e+00
8.310000000000000000e+02 6.412728428840637207e-01 -2.752842521667480469e+01 -2.549040690064430237e-02 1.105774998664855957e+00 3.240853548049926758e-01 1.932366043329238892e-01
8.320000000000000000e+02 8.867703437805175781e+00 -1.532262325286865234e+01 8.949627280235290527e-01 1.252687335014343262e+00 6.442950367927551270e-01 6.171463727951049805e-01
8.330000000000000000e+02 5.631155371665954590e-01 -2.061295127868652344e+01 3.474387526512145996e-02 -1.661092281341552734e+00 -4.879045188426971436e-01 1.419866085052490234e-01
8.340000000000000000e+02 1.804662132263183594e+01 -1.792845344543457031e+01 2.675262093544006348e-01 -2.429709210991859436e-02 7.296872884035110474e-02 -5.312078818678855896e-02
8.350000000000000000e+02 3.417755889892578125e+01 -3.054176712036132812e+01 -6.637268513441085815e-02 5.047671794891357422e+00 1.494389772415161133e+00 1.186352610588073730e+00
8.360000000000000000e+02 3.308541488647460938e+01 -3.124911117553710938e+01 1.020290553569793701e-01 4.189006805419921875e+00 1.287310838699340820e+00 1.609773635864257812e+00
8.370000000000000000e+02 3.782542037963867188e+01 -2.174231910705566406e+01 1.120757982134819031e-01 7.496990203857421875e+00 2.282719850540161133e+00 1.628073215484619141e+00
8.380000000000000000e+02 1.479630661010742188e+01 -3.793279647827148438e+01 -1.266200989484786987e-01 -3.136467635631561279e-01 -1.320800632238388062e-01 1.040465831756591797e-01
8.390000000000000000e+02 1.843822860717773438e+01 -1.674027061462402344e+01 4.052470624446868896e-01 -5.974878370761871338e-02 1.036494821310043335e-01 4.058161750435829163e-02
8.400000000000000000e+02 2.059796714782714844e+01 -1.857138633728027344e+01 1.088511645793914795e-01 -3.050484135746955872e-02 2.350389771163463593e-02 1.794644258916378021e-02
8.410000000000000000e+02 2.014882469177246094e+01 -3.181760215759277344e+01 -8.963754773139953613e-01 -6.869980716146528721e-04 -2.691187560558319092e-01 -3.673039376735687256e-02
8.420000000000000000e+02 2.271357536315917969e+01 -3.291281127929687500e+01 -6.849572658538818359e-01 -6.625138688832521439e-03 -2.074747234582901001e-01 -3.388918936252593994e-02
8.430000000000000000e+02 2.082702827453613281e+01 -1.732221794128417969e+01 1.860128939151763916e-01 -4.422223567962646484e-02 4.253719747066497803e-02 1.059053763747215271e-01
8.440000000000000000e+02 2.582588386535644531e+01 -1.843865776062011719e+01 -4.733124375343322754e-01 2.063047140836715698e-02 -1.358045935630798340e-01 2.119081467390060425e-02
8.450000000000000000e+02 2.327705574035644531e+01 -1.626171302795410156e+01 5.983671173453330994e-02 -8.179683238267898560e-02 -6.588036194443702698e-03 3.130492269992828369e-01
8.460000000000000000e+02 2.791507339477539062e+01 -1.699214744567871094e+01 -1.284957885742187500e+00 5.543573945760726929e-02 -3.688566386699676514e-01 5.494202971458435059e-01
8.470000000000000000e+02 2.869119071960449219e+01 -3.321008682250976562e+01 -7.902165502309799194e-02 9.428288936614990234e-01 2.591421604156494141e-01 8.716900348663330078e-01
8.480000000000000000e+02 2.702965927124023438e+01 -3.326681900024414062e+01 -2.540897727012634277e-01 4.712715744972229004e-01 6.515454500913619995e-02 4.164158701896667480e-01
8.490000000000000000e+02 2.550879287719726562e+01 -3.162475013732910156e+01 -8.034533262252807617e-01 5.400737375020980835e-02 -2.248337864875793457e-01 -5.707942415028810501e-03
8.500000000000000000e+02 1.482392978668212891e+01 -1.516650009155273438e+01 9.649087786674499512e-01 2.602338232100009918e-02 2.972796559333801270e-01 1.630620211362838745e-01
8.510000000000000000e+02 3.166403007507324219e+01 -1.640269470214843750e+01 -8.775182366371154785e-01 -7.081940174102783203e-01 -4.757136702537536621e-01 9.122825264930725098e-01
8.520000000000000000e+02 2.882404899597167969e+01 -1.664595603942871094e+01 -1.122049093246459961e+00 -5.915588885545730591e-02 -3.543615043163299561e-01 9.902176856994628906e-01
8.530000000000000000e+02 2.040934324264526367e+00 -3.177292633056640625e+01 -9.224198758602142334e-02 1.218982934951782227e+00 3.380222916603088379e-01 4.232926666736602783e-02
8.540000000000000000e+02 6.771231651306152344e+00 -2.968677330017089844e+01 -7.136918306350708008e-01 -2.262813895940780640e-01 -2.819919586181640625e-01 5.210593342781066895e-01
8.550000000000000000e+02 2.711337852478027344e+01 -1.822282218933105469e+01 -9.309828281402587891e-01 -1.382567267864942551e-02 -2.834425568580627441e-01 3.286206349730491638e-02
8.560000000000000000e+02 3.339839553833007812e+01 -1.617084121704101562e+01 -8.426639437675476074e-01 1.219750046730041504e+00 1.131258532404899597e-01 -3.877570480108261108e-02
8.570000000000000000e+02 2.321447944641113281e+01 -1.868322563171386719e+01 -7.181847840547561646e-02 -9.558590129017829895e-03 -2.441312000155448914e-02 4.598965495824813843e-02
8.580000000000000000e+02 1.713976502418518066e+00 -1.935601615905761719e+01 1.530055999755859375e-01 -1.002318978309631348e+00 -2.547940015792846680e-01 2.120501399040222168e-01
8.590000000000000000e+02 1.716553568840026855e+00 -2.066533279418945312e+01 1.403647959232330322e-01 -8.237861990928649902e-01 -2.050264179706573486e-01 4.096935689449310303e-01
8.600000000000000000e+02 1.450450801849365234e+01 -3.168217277526855469e+01 -1.054759383201599121e+00 -5.373928695917129517e-02 -3.325496017932891846e-01 2.304123193025588989e-01
8.610000000000000000e+02 1.694566154479980469e+01 -3.493821716308593750e+01 -5.319579243659973145e-01 -1.730833649635314941e-01 -2.115123867988586426e-01 1.169513538479804993e-01
8.620000000000000000e+02 1.349912166595458984e+01 -3.633118820190429688e+01 -2.422177642583847046e-01 -3.023169338703155518e-01 -1.633604019880294800e-01 1.818735301494598389e-01
8.630000000000000000e+02 1.156970882415771484e+01 -3.240761947631835938e+01 -9.439585804939270020e-01 -3.481902480125427246e-01 -3.876446485519409180e-01 4.727074801921844482e-01
8.640000000000000000e+02 1.288244247436523438e+01 -3.267485427856445312e+01 -9.006066918373107910e-01 -1.722878664731979370e-01 -3.218683600425720215e-01 3.356265425682067871e-01
8.650000000000000000e+02 3.712479782104492188e+01 -2.280022239685058594e+01 7.274605631828308105e-01 7.814933300018310547e+00 2.562718152999877930e+00 1.601740360260009766e+00
8.660000000000000000e+02 3.663267898559570312e+01 -2.386371231079101562e+01 1.477009534835815430e+00 8.434035301208496094e+00 2.973313570022583008e+00 1.675328373908996582e+00
8.670000000000000000e+02 2.161528587341308594e+01 -3.286293792724609375e+01 -7.473890185356140137e-01 -2.455162815749645233e-02 -2.315821945667266846e-01 -4.432971030473709106e-02
8.680000000000000000e+02 5.571583175659179688e+01 -3.372876739501953125e+01 -1.450417280197143555e+00 -3.804377466440200806e-02 -4.465382993221282959e-01 -3.207087218761444092e-01
8.690000000000000000e+02 5.603832626342773438e+01 -3.178178596496582031e+01 -1.457206249237060547e+00 -4.541853368282318115e-01 -5.734174847602844238e-01 7.485844492912292480e-01
8.700000000000000000e+02 2.884286117553710938e+01 -2.015079736709594727e+00 -1.814066290855407715e+00 -1.767157763242721558e-01 -5.972346067428588867e-01 -4.255209863185882568e-01
8.710000000000000000e+02 2.559776115417480469e+01 -3.066384077072143555e+00 -3.740569949150085449e-01 -7.745383679866790771e-02 -1.354532390832901001e-01 -2.518648505210876465e-01
8.720000000000000000e+02 3.900028610229492188e+01 5.435580730438232422e+00 2.328242063522338867e+00 1.272460365295410156e+01 4.515853404998779297e+00 5.274467945098876953e+00
8.730000000000000000e+02 7.567801666259765625e+01 -2.371901130676269531e+01 -8.588418364524841309e-02 9.709736824035644531e+00 2.887156009674072266e+00 -1.403596162796020508e+00
8.740000000000000000e+02 6.215837097167968750e+01 -1.700378894805908203e+00 -1.468795418739318848e+00 1.521031022071838379e+00 1.567067392170429230e-02 -8.647617697715759277e-01
8.750000000000000000e+02 6.854492950439453125e+01 -5.182908535003662109e+00 -1.115433499217033386e-01 7.045212745666503906e+00 2.080100774765014648e+00 -1.450267314910888672e+00
8.760000000000000000e+02 5.954377365112304688e+01 -6.800697445869445801e-01 -2.747795104980468750e+00 2.595919072628021240e-01 -7.464609742164611816e-01 -1.492511332035064697e-01
8.770000000000000000e+02 6.905081939697265625e+01 -2.831686973571777344e+01 -7.807775139808654785e-01 7.191003799438476562e+00 1.923067808151245117e+00 4.782871529459953308e-02
8.780000000000000000e+02 4.268674850463867188e+01 5.520808696746826172e-01 -3.018978834152221680e+00 9.871591567993164062e+00 2.055783748626708984e+00 1.503113150596618652e+00
8.790000000000000000e+02 4.239783859252929688e+01 -2.426948547363281250e+00 1.265218138694763184e+00 1.333928871154785156e+01 4.381351947784423828e+00 3.362247705459594727e+00
8.800000000000000000e+02 4.073567581176757812e+01 -1.516623878479003906e+01 7.922496199607849121e-01 1.148697185516357422e+01 3.683766365051269531e+00 -1.037308454513549805e+00
8.810000000000000000e+02 4.107737731933593750e+01 -1.658245277404785156e+01 8.381148576736450195e-01 1.060087966918945312e+01 3.431698322296142578e+00 -1.007944703102111816e+00
8.820000000000000000e+02 6.684651947021484375e+01 -3.323534011840820312e+01 -1.349773526191711426e+00 3.203644514083862305e+00 5.561613440513610840e-01 4.905718564987182617e-01
8.830000000000000000e+02 4.047881698608398438e+01 -1.376426887512207031e+01 4.754781723022460938e-01 1.190284252166748047e+01 3.713495969772338867e+00 -1.002655625343322754e+00
8.840000000000000000e+02 5.074058532714843750e+01 4.453886508941650391e+00 -1.649107813835144043e+00 3.148389160633087158e-01 -4.002806544303894043e-01 -1.862166225910186768e-01
8.850000000000000000e+02 4.321468734741210938e+01 -2.051365280151367188e+01 6.826286762952804565e-02 4.475557804107666016e+00 1.363146185874938965e+00 -1.134594917297363281e+00
8.860000000000000000e+02 6.205021286010742188e+01 -3.485475158691406250e+01 -1.206441283226013184e+00 -2.018344402313232422e-01 -4.224827289581298828e-01 -1.239430084824562073e-01
8.870000000000000000e+02 6.459068298339843750e+01 -3.295487594604492188e+01 -1.734730839729309082e+00 7.792618274688720703e-01 -2.866407036781311035e-01 5.933035165071487427e-02
8.880000000000000000e+02 6.478929138183593750e+01 -3.089558792114257812e+01 -2.004344463348388672e+00 -1.308118551969528198e-01 -6.405468583106994629e-01 -8.367231488227844238e-01
8.890000000000000000e+02 1.533512687683105469e+01 1.828636550903320312e+01 -2.464393328409641981e-04 -1.507783326815115288e-05 -7.845515210647135973e-05 -3.250033114454708993e-05
8.900000000000000000e+02 1.410295486450195312e+01 1.812685966491699219e+01 2.603371976874768734e-04 1.248588887392543256e-06 7.847573579056188464e-05 4.041664215037599206e-05
8.910000000000000000e+02 4.013954544067382812e+01 -6.487241268157958984e+00 1.389963507652282715e+00 1.220544624328613281e+01 4.078622817993164062e+00 1.321077585220336914e+00
8.920000000000000000e+02 6.469274902343750000e+01 -2.933088779449462891e+00 -5.306009650230407715e-01 4.303842544555664062e+00 1.131972551345825195e+00 -1.422260403633117676e+00
8.930000000000000000e+02 2.766217422485351562e+01 3.854782104492187500e+01 -5.359278619289398193e-02 -1.631002128124237061e-02 -2.097084186971187592e-02 5.393488705158233643e-02
8.940000000000000000e+02 5.306587600708007812e+01 1.074158072471618652e+00 -4.120792388916015625e+00 3.364537060260772705e-01 -1.135301589965820312e+00 6.557446122169494629e-01
8.950000000000000000e+02 5.371239471435546875e+01 2.313135862350463867e+00 -3.173059463500976562e+00 4.474086463451385498e-01 -8.176952004432678223e-01 -4.511678125709295273e-03
8.960000000000000000e+02 3.908080673217773438e+01 -1.263013648986816406e+01 7.019304037094116211e-01 9.989179611206054688e+00 3.207333087921142578e+00 -2.688759565353393555e-01
8.970000000000000000e+02 4.027836990356445312e+01 -1.238248729705810547e+01 4.678752124309539795e-01 1.240833091735839844e+01 3.862861633300781250e+00 -5.297447443008422852e-01
8.980000000000000000e+02 6.342852783203125000e+01 -2.313523054122924805e+00 -8.533455133438110352e-01 2.781416177749633789e+00 5.784211754798889160e-01 -1.317108392715454102e+00
8.990000000000000000e+02 6.085883331298828125e+01 -1.150458097457885742e+00 -2.139637231826782227e+00 7.280570268630981445e-01 -4.234740734100341797e-01 -4.786702692508697510e-01
9.000000000000000000e+02 6.580000305175781250e+01 -3.202267837524414062e+01 -1.641578912734985352e+00 1.723844170570373535e+00 2.467956766486167908e-02 1.601024717092514038e-01
9.010000000000000000e+02 5.689931869506835938e+01 4.602355509996414185e-02 -3.544490337371826172e+00 -2.226586453616619110e-02 -1.070026874542236328e+00 1.751047521829605103e-01
9.020000000000000000e+02 5.822036743164062500e+01 -2.881548106670379639e-01 -3.252643823623657227e+00 5.689350515604019165e-02 -9.587250947952270508e-01 5.387834087014198303e-02
9.030000000000000000e+02 4.969823074340820312e+01 3.394712924957275391e+00 -3.015541553497314453e+00 -5.861331149935722351e-02 -9.222465157508850098e-01 -7.062457501888275146e-02
9.040000000000000000e+02 6.721823883056640625e+01 -1.074046611785888672e+01 1.223511219024658203e+00 4.982146263122558594e+00 1.861697316169738770e+00 -2.726110935211181641e+00
9.050000000000000000e+02 2.647373008728027344e+01 4.125210952758789062e+01 4.434779658913612366e-02 -5.816441401839256287e-02 -4.144985228776931763e-03 1.916078850626945496e-02
9.060000000000000000e+02 6.731111145019531250e+01 -7.836522579193115234e+00 7.568411827087402344e-01 6.583241939544677734e+00 2.202024936676025391e+00 -2.627360105514526367e+00
9.070000000000000000e+02 5.390502548217773438e+01 -3.178601074218750000e+01 -9.657255411148071289e-01 1.096991077065467834e-01 -2.568079233169555664e-01 1.860637813806533813e-01
9.080000000000000000e+02 6.944072723388671875e+01 -2.668026161193847656e+01 4.016685765236616135e-03 8.914916992187500000e+00 2.675680160522460938e+00 -2.871660701930522919e-02
9.090000000000000000e+02 6.978607940673828125e+01 -2.365727043151855469e+01 7.100133299827575684e-01 1.099606704711914062e+01 3.511824131011962891e+00 3.525876402854919434e-01
9.100000000000000000e+02 3.433088302612304688e+01 -3.768584728240966797e+00 4.804500341415405273e-01 2.148109674453735352e+00 7.885679006576538086e-01 3.662956953048706055e-01
9.110000000000000000e+02 2.296725845336914062e+01 3.834558105468750000e+01 7.649605977348983288e-04 -7.044142112135887146e-03 -1.883754506707191467e-03 7.536951918154954910e-03
9.120000000000000000e+02 3.495497512817382812e+01 -1.016592621803283691e+00 -1.292638063430786133e+00 1.907871246337890625e+00 1.845699548721313477e-01 3.042672276496887207e-01
9.130000000000000000e+02 1.844208526611328125e+01 3.185193824768066406e+01 1.258589909411966801e-04 5.288828979246318340e-04 1.964225666597485542e-04 1.131465309299528599e-03
9.140000000000000000e+02 1.575104904174804688e+01 2.998405456542968750e+01 1.081076450645923615e-03 5.098562269267858937e-06 3.258525102864950895e-04 1.026645622914656997e-04
9.150000000000000000e+02 4.813867950439453125e+01 -2.392098045349121094e+01 -2.067189849913120270e-02 1.765432804822921753e-01 4.676141217350959778e-02 -4.390174895524978638e-02
9.160000000000000000e+02 4.692659759521484375e+01 -2.473564910888671875e+01 1.336392760276794434e-01 9.237176775932312012e-01 3.172070682048797607e-01 -4.210869073867797852e-01
9.170000000000000000e+02 4.959247207641601562e+01 -3.036426353454589844e+01 -3.454476892948150635e-01 7.984118461608886719e-01 1.358892470598220825e-01 -2.851745784282684326e-01
9.180000000000000000e+02 4.123471069335937500e+01 -7.967043399810791016e+00 7.984979748725891113e-01 1.660688972473144531e+01 5.221616268157958984e+00 1.259374976158142090e+00
9.190000000000000000e+02 5.104028320312500000e+01 -2.697435379028320312e+01 -2.171579450368881226e-01 -7.463967800140380859e-02 -8.753928542137145996e-02 1.300731599330902100e-01
9.200000000000000000e+02 5.097827529907226562e+01 -3.138181877136230469e+01 -5.901603102684020996e-01 6.164622306823730469e-01 7.890592329204082489e-03 -1.819027662277221680e-01
9.210000000000000000e+02 6.872914123535156250e+01 -1.939275360107421875e+01 -4.771262034773826599e-02 1.103020000457763672e+01 3.294746160507202148e+00 2.059862315654754639e-01
9.220000000000000000e+02 4.415734863281250000e+01 -2.158839607238769531e+01 1.988129764795303345e-01 2.910691022872924805e+00 9.328511953353881836e-01 -9.402456283569335938e-01
9.230000000000000000e+02 4.786998367309570312e+01 -2.580718231201171875e+01 7.718725502490997314e-02 6.814428567886352539e-01 2.275890260934829712e-01 -2.950240969657897949e-01
9.240000000000000000e+02 5.250981903076171875e+01 -3.205363464355468750e+01 -8.360810875892639160e-01 3.883310854434967041e-01 -1.343249976634979248e-01 -5.258203297853469849e-02
9.250000000000000000e+02 4.717177200317382812e+01 -2.292441940307617188e+01 3.597831726074218750e-02 3.407443165779113770e-01 1.130167916417121887e-01 -1.734060645103454590e-01
9.260000000000000000e+02 6.979265594482421875e+01 -2.224319267272949219e+01 6.688496470451354980e-02 1.156510448455810547e+01 3.489596843719482422e+00 1.957562267780303955e-01
9.270000000000000000e+02 6.975515747070312500e+01 -2.087765312194824219e+01 -1.450177580118179321e-01 1.146941947937011719e+01 3.397320508956909180e+00 1.508614569902420044e-01
9.280000000000000000e+02 7.070301055908203125e+01 -1.964020347595214844e+01 -6.331755518913269043e-01 1.188467884063720703e+01 3.375451087951660156e+00 3.129656910896301270e-01
9.290000000000000000e+02 1.610755157470703125e+01 1.114020061492919922e+01 -1.734177640173584223e-04 -2.368148852838203311e-05 -5.912977212574332952e-05 -6.098430822021327913e-05
9.300000000000000000e+02 1.562964439392089844e+01 1.247367286682128906e+01 1.894923334475606680e-04 1.540063931315671653e-05 6.146789382910355926e-05 6.493017281172797084e-05
9.310000000000000000e+02 1.703713417053222656e+01 3.558363342285156250e+01 3.142191853839904070e-04 -4.554827755782753229e-04 -4.237907342030666769e-05 -3.545374202076345682e-04
9.320000000000000000e+02 1.400962734222412109e+01 1.961713218688964844e+01 -3.023644676432013512e-04 3.327161266497569159e-06 -8.971118950285017490e-05 -5.112744111102074385e-05
9.330000000000000000e+02 1.517050552368164062e+01 1.382651710510253906e+01 -2.071836788672953844e-04 -1.057127428794046864e-05 -6.532648694701492786e-05 -6.596151797566562891e-05
9.340000000000000000e+02 1.881388473510742188e+01 4.985032081604003906e+00 1.235596282640472054e-04 2.997849333041813225e-05 4.606143920682370663e-05 5.112386133987456560e-05
9.350000000000000000e+02 1.464158248901367188e+01 2.706096267700195312e+01 6.394298397935926914e-04 -2.302681969013065100e-05 1.849209220381453633e-04 4.661444108933210373e-05
9.360000000000000000e+02 1.920379257202148438e+01 3.927048206329345703e+00 -1.274528185604140162e-04 -4.094293399248272181e-05 -5.051872722106054425e-05 -5.047355443821288645e-05
9.370000000000000000e+02 1.398898220062255859e+01 2.109189605712890625e+01 3.547687956597656012e-04 -3.635009488789364696e-05 9.552561095915734768e-05 3.172222204739227891e-05
9.380000000000000000e+02 1.819516754150390625e+01 8.922697067260742188e+00 1.859324111137539148e-04 2.219867747044190764e-05 6.243932875804603100e-05 6.023496825946494937e-05
9.390000000000000000e+02 1.678517341613769531e+01 3.265521526336669922e+00 -1.520172645541606471e-05 9.669249266153201461e-05 2.444723031658213586e-05 3.212612136849202216e-05
9.400000000000000000e+02 1.426906108856201172e+01 2.557128906250000000e+01 -3.879647119902074337e-04 3.495533019304275513e-05 -1.059028145391494036e-04 8.584062743466347456e-05
9.410000000000000000e+02 1.714928817749023438e+01 8.553066253662109375e+00 -1.510295260231941938e-04 -2.405808299954514951e-05 -5.252628398011438549e-05 -5.293330832500942051e-05
9.420000000000000000e+02 1.661076354980468750e+01 9.831276893615722656e+00 1.630008628126233816e-04 2.348903035453986377e-05 5.594696995103731751e-05 5.559002238442189991e-05
9.430000000000000000e+02 1.516626930236816406e+01 2.851928901672363281e+01 -3.186724788974970579e-04 1.270108914468437433e-04 -5.749847696279175580e-05 2.905551809817552567e-04
9.440000000000000000e+02 1.472974395751953125e+01 1.521259784698486328e+01 2.242664486402645707e-04 -1.132773286371957511e-05 6.388161273207515478e-05 5.451945617096498609e-05
9.450000000000000000e+02 1.708724021911621094e+01 1.776778101921081543e+00 1.419776799593819305e-05 7.651596388313919306e-05 2.721412056416738778e-05 4.681228892877697945e-05
9.460000000000000000e+02 7.943642425537109375e+01 -2.782083702087402344e+01 -6.362569052726030350e-03 1.115357875823974609e+01 3.344164848327636719e+00 -2.880477309226989746e-01
9.470000000000000000e+02 7.744995880126953125e+01 -3.805793380737304688e+01 -2.306962758302688599e-01 1.188893318176269531e+01 3.497471094131469727e+00 1.483997106552124023e-01
9.480000000000000000e+02 7.933311462402343750e+01 -3.465205001831054688e+01 -2.767419815063476562e-02 1.311252307891845703e+01 3.925454616546630859e+00 -8.456315100193023682e-02
9.490000000000000000e+02 7.923185729980468750e+01 3.604135894775390625e+01 -4.594048019498586655e-03 5.054257869720458984e+00 1.514899134635925293e+00 -8.817191235721111298e-03
9.500000000000000000e+02 7.942312622070312500e+01 -2.087231826782226562e+01 -1.118317432701587677e-02 7.576301097869873047e+00 2.269535303115844727e+00 -3.763568103313446045e-01
9.510000000000000000e+02 7.824631500244140625e+01 -2.639579200744628906e+01 -3.911731019616127014e-02 1.031143856048583984e+01 3.081696271896362305e+00 -7.808294892311096191e-01
9.520000000000000000e+02 7.943267822265625000e+01 -3.055889701843261719e+01 -3.438711911439895630e-02 1.226772022247314453e+01 3.669999837875366211e+00 -2.147869169712066650e-01
9.530000000000000000e+02 7.799062347412109375e+01 -3.428057479858398438e+01 -1.133586540818214417e-01 1.207494258880615234e+01 3.588475227355957031e+00 -3.021938204765319824e-01
9.540000000000000000e+02 7.805175781250000000e+01 -3.293698120117187500e+01 -9.384889900684356689e-02 1.190904045104980469e+01 3.544557332992553711e+00 -3.784491419792175293e-01
9.550000000000000000e+02 7.561193084716796875e+01 -3.803918075561523438e+01 -2.628502249717712402e-01 1.055878067016601562e+01 3.088779211044311523e+00 -4.890926778316497803e-01
9.560000000000000000e+02 7.672180175781250000e+01 -3.919905471801757812e+01 -1.431912481784820557e-01 1.199092197418212891e+01 3.554319381713867188e+00 -3.387793526053428650e-02
9.570000000000000000e+02 7.806437683105468750e+01 1.412933921813964844e+01 1.033230964094400406e-02 6.744072914123535156e+00 2.026321649551391602e+00 -3.361065089702606201e-01
9.580000000000000000e+02 7.936260223388671875e+01 1.538772583007812500e+01 3.383113536983728409e-03 6.733762264251708984e+00 2.021143674850463867e+00 -1.104536354541778564e-01
9.590000000000000000e+02 7.803920745849609375e+01 2.100670433044433594e+01 2.349285222589969635e-02 5.814680099487304688e+00 1.751451969146728516e+00 -2.243411242961883545e-01
9.600000000000000000e+02 7.934111785888671875e+01 2.233130645751953125e+01 4.608121700584888458e-03 5.734098434448242188e+00 1.721611976623535156e+00 -6.930666416883468628e-02
9.610000000000000000e+02 7.746199798583984375e+01 3.112691307067871094e+01 2.272540144622325897e-02 5.156614303588867188e+00 1.553801894187927246e+00 -7.749601453542709351e-02
9.620000000000000000e+02 7.927075958251953125e+01 2.791818809509277344e+01 2.206896198913455009e-03 5.292922019958496094e+00 1.588538646697998047e+00 -4.030522704124450684e-02
9.630000000000000000e+02 7.796865844726562500e+01 2.516008949279785156e+01 2.054019644856452942e-02 5.451551437377929688e+00 1.641627430915832520e+00 -1.526683270931243896e-01
9.640000000000000000e+02 7.798589324951171875e+01 2.378041648864746094e+01 2.093940787017345428e-02 5.555871009826660156e+00 1.673043251037597656e+00 -1.766322553157806396e-01
9.650000000000000000e+02 7.809996795654296875e+01 1.825480461120605469e+01 1.760795526206493378e-02 6.145916461944580078e+00 1.849057316780090332e+00 -2.737896442413330078e-01
9.660000000000000000e+02 7.807653045654296875e+01 1.551935482025146484e+01 1.554288063198328018e-02 6.532909393310546875e+00 1.964535713195800781e+00 -3.212396502494812012e-01
9.670000000000000000e+02 7.809831237792968750e+01 1.688926315307617188e+01 1.737734302878379822e-02 6.332309722900390625e+00 1.904906153678894043e+00 -2.958529889583587646e-01
9.680000000000000000e+02 7.806362152099609375e+01 1.273227977752685547e+01 6.412756163626909256e-03 6.965749263763427734e+00 2.091648578643798828e+00 -3.489469289779663086e-01
9.690000000000000000e+02 7.675483703613281250e+01 1.147171115875244141e+01 7.563210238004103303e-05 6.877904415130615234e+00 2.063394069671630859e+00 -5.516554713249206543e-01
9.700000000000000000e+02 7.806639862060546875e+01 8.531077384948730469e+00 -2.327125519514083862e-02 7.642824172973632812e+00 2.285865783691406250e+00 -3.229287266731262207e-01
9.710000000000000000e+02 7.935753631591796875e+01 9.812158584594726562e+00 -5.390417762100696564e-03 7.780235290527343750e+00 2.332453489303588867e+00 -1.172923967242240906e-01
9.720000000000000000e+02 7.942736053466796875e+01 -1.946972656250000000e+01 9.865183383226394653e-03 6.708099842071533203e+00 2.015389442443847656e+00 -3.820166885852813721e-01
9.730000000000000000e+02 7.824163818359375000e+01 -1.653111076354980469e+01 2.024142742156982422e-01 6.478493690490722656e+00 2.004272460937500000e+00 -8.716944456100463867e-01
9.740000000000000000e+02 7.938623809814453125e+01 -1.379900169372558594e+01 7.134304195642471313e-02 4.091012477874755859e+00 1.248706698417663574e+00 -3.888980299234390259e-02
9.750000000000000000e+02 7.849855804443359375e+01 -9.541022300720214844e+00 1.467202138155698776e-02 6.422782421112060547e+00 1.931236267089843750e+00 8.004254698753356934e-01
9.760000000000000000e+02 7.942107391357421875e+01 -6.934505939483642578e+00 -1.161023136228322983e-02 6.955025196075439453e+00 2.083024501800537109e+00 2.873026728630065918e-01
9.770000000000000000e+02 7.811544036865234375e+01 1.139663606882095337e-01 -8.848311007022857666e-02 8.399911880493164062e+00 2.493428707122802734e+00 7.779251039028167725e-02
9.780000000000000000e+02 7.936696624755859375e+01 1.435179710388183594e+00 -1.863767579197883606e-02 8.791160583496093750e+00 2.631756782531738281e+00 5.280546378344297409e-03
9.790000000000000000e+02 7.675786590576171875e+01 7.233242034912109375e+00 -7.704530656337738037e-02 7.466092586517333984e+00 2.216714143753051758e+00 -4.716039896011352539e-01
9.800000000000000000e+02 7.770510864257812500e+01 2.945463371276855469e+01 1.826963201165199280e-02 5.219102382659912109e+00 1.571211576461791992e+00 -9.433133155107498169e-02
9.810000000000000000e+02 7.806717681884765625e+01 9.934235572814941406e+00 -8.365105837583541870e-03 7.422647476196289062e+00 2.224284887313842773e+00 -3.451464176177978516e-01
9.820000000000000000e+02 7.684648895263671875e+01 1.705763489007949829e-01 -1.968608051538467407e-01 8.132785797119140625e+00 2.380777597427368164e+00 6.012505292892456055e-02
9.830000000000000000e+02 7.808280181884765625e+01 2.909741640090942383e+00 -6.957446783781051636e-02 8.309048652648925781e+00 2.471842288970947266e+00 -1.113435551524162292e-01
9.840000000000000000e+02 7.813463592529296875e+01 -1.280375361442565918e+00 -9.416890889406204224e-02 8.360494613647460938e+00 2.479897737503051758e+00 1.974838227033615112e-01
9.850000000000000000e+02 7.938581848144531250e+01 -2.748240709304809570e+00 -2.534880861639976501e-02 8.408962249755859375e+00 2.515084028244018555e+00 1.402507424354553223e-01
9.860000000000000000e+02 7.835645294189453125e+01 -8.258969306945800781e+00 -6.318502128124237061e-02 6.937656879425048828e+00 2.062341690063476562e+00 7.971144318580627441e-01
9.870000000000000000e+02 7.818996429443359375e+01 -5.494278430938720703e+00 -1.141273453831672668e-01 7.797395706176757812e+00 2.304980516433715820e+00 6.292498707771301270e-01
9.880000000000000000e+02 7.358068847656250000e+01 -1.198628425598144531e+01 1.974823951721191406e+00 1.135217952728271484e+01 3.998100996017456055e+00 1.043326258659362793e+00
9.890000000000000000e+02 7.949531555175781250e+01 -9.668234825134277344e+00 1.639861986041069031e-02 5.399745941162109375e+00 1.624843358993530273e+00 3.135170936584472656e-01
9.900000000000000000e+02 7.810939788818359375e+01 -1.501535034179687500e+01 3.949162065982818604e-01 6.181944370269775391e+00 1.973058104515075684e+00 -5.033701062202453613e-01
9.910000000000000000e+02 7.834833526611328125e+01 -1.210185527801513672e+01 2.619475126266479492e-01 5.768794536590576172e+00 1.809222698211669922e+00 4.568938016891479492e-01
9.920000000000000000e+02 7.717736053466796875e+01 -1.653332138061523438e+01 3.491714298725128174e-01 7.612788200378417969e+00 2.388587951660156250e+00 -1.230852007865905762e+00
9.930000000000000000e+02 7.939895629882812500e+01 -1.664216804504394531e+01 6.962877511978149414e-02 4.961308002471923828e+00 1.509281039237976074e+00 -3.427521288394927979e-01
9.940000000000000000e+02 7.828258514404296875e+01 -2.081309127807617188e+01 -3.099025785923004150e-02 8.199226379394531250e+00 2.450470924377441406e+00 -9.513458609580993652e-01
9.950000000000000000e+02 7.829818725585937500e+01 -1.940131759643554688e+01 -1.950744166970252991e-02 7.564252376556396484e+00 2.263423442840576172e+00 -1.007364749908447266e+00
9.960000000000000000e+02 4.120307922363281250e+01 3.424226760864257812e+01 -7.311208546161651611e-02 3.362980604171752930e+00 9.869605898857116699e-01 -5.365799069404602051e-01
9.970000000000000000e+02 4.082053375244140625e+01 3.072388839721679688e+01 6.306685209274291992e-01 4.680588722229003906e+00 1.593377232551574707e+00 -1.473090887069702148e+00
9.980000000000000000e+02 4.282095718383789062e+01 2.795583724975585938e+01 6.737173795700073242e-01 5.687884330749511719e+00 1.908480525016784668e+00 -3.867205381393432617e-01
9.990000000000000000e+02 3.429222106933593750e+01 -1.014586389064788818e-01 -2.131270408630371094e+00 -1.436061561107635498e-01 -6.824629306793212891e-01 -8.695239424705505371e-01
1.000000000000000000e+03 3.167038154602050781e+01 -1.429655909538269043e+00 -3.025354146957397461e+00 -6.427786946296691895e-01 -1.100439786911010742e+00 -1.215667843818664551e+00
1.001000000000000000e+03 3.659490585327148438e+01 3.513373947143554688e+01 -1.658458113670349121e-01 2.200320065021514893e-01 1.625586114823818207e-02 -1.650653183460235596e-01
1.002000000000000000e+03 3.272214889526367188e+01 3.693128585815429688e+01 -3.351811766624450684e-01 -4.946296662092208862e-02 -1.153932362794876099e-01 9.089595824480056763e-02
1.003000000000000000e+03 4.126895141601562500e+01 1.370511245727539062e+01 6.073091626167297363e-01 1.086766147613525391e+01 3.442491054534912109e+00 2.013306856155395508e+00
1.004000000000000000e+03 4.289463806152343750e+01 1.789649772644042969e+01 4.370798170566558838e-01 7.601294040679931641e+00 2.411512136459350586e+00 1.105549931526184082e+00
1.005000000000000000e+03 4.224810409545898438e+01 3.095452880859375000e+01 4.251591563224792480e-01 4.841198921203613281e+00 1.579907417297363281e+00 -5.618632435798645020e-01
1.006000000000000000e+03 3.936489868164062500e+01 1.325205445289611816e+00 -1.942595481872558594e+00 9.674892425537109375e+00 2.319689035415649414e+00 1.197355389595031738e+00
1.007000000000000000e+03 2.911184120178222656e+01 -3.084305286407470703e+00 -8.574253320693969727e-01 -3.648217916488647461e-01 -3.666741549968719482e-01 -7.035083770751953125e-01
1.008000000000000000e+03 4.042253875732421875e+01 9.489214897155761719e+00 1.275726675987243652e+00 1.396068668365478516e+01 4.570923805236816406e+00 3.802848339080810547e+00
1.009000000000000000e+03 3.844247055053710938e+01 -7.806340217590332031e+00 1.665705919265747070e+00 9.225769996643066406e+00 3.267442941665649414e+00 8.554247617721557617e-01
1.010000000000000000e+03 4.343603897094726562e+01 1.188639163970947266e+01 1.648815393447875977e+00 7.945545196533203125e+00 2.878308057785034180e+00 2.828836679458618164e+00
1.011000000000000000e+03 3.325530624389648438e+01 3.880445098876953125e+01 6.124178320169448853e-02 1.151100322604179382e-01 5.290554463863372803e-02 2.474048547446727753e-02
1.012000000000000000e+03 3.854159545898437500e+01 2.200203180313110352e+00 -1.004249095916748047e+00 9.032818794250488281e+00 2.408571004867553711e+00 1.859468817710876465e+00
1.013000000000000000e+03 2.488231277465820312e+01 -4.134469032287597656e+00 -7.351510971784591675e-02 -1.517061144113540649e-01 -6.756636500358581543e-02 -2.528615295886993408e-01
1.014000000000000000e+03 3.762905120849609375e+01 -5.022846221923828125e+00 1.004601955413818359e+00 7.360330104827880859e+00 2.509479522705078125e+00 9.760754704475402832e-01
1.015000000000000000e+03 3.625122070312500000e+01 -6.357329338788986206e-02 -1.314388036727905273e+00 4.078892707824707031e+00 8.293513655662536621e-01 8.858246207237243652e-01
1.016000000000000000e+03 3.741069412231445312e+01 1.020648479461669922e+00 -1.196493268013000488e+00 6.516733646392822266e+00 1.596072196960449219e+00 1.344851970672607422e+00
1.017000000000000000e+03 4.150168228149414062e+01 9.169600486755371094e+00 1.856275677680969238e+00 1.097515106201171875e+01 3.849428176879882812e+00 3.819359064102172852e+00
1.018000000000000000e+03 4.297198486328125000e+01 1.934256744384765625e+01 2.755783200263977051e-01 7.215391159057617188e+00 2.247290849685668945e+00 8.332657217979431152e-01
1.019000000000000000e+03 4.033207702636718750e+01 3.830289840698242188e+01 -2.793511748313903809e-01 2.416363716125488281e+00 6.411038041114807129e-01 -3.017189502716064453e-01
1.020000000000000000e+03 3.934539413452148438e+01 3.349736785888671875e+01 4.527589380741119385e-01 2.126283884048461914e+00 7.737128734588623047e-01 -9.714326262474060059e-01
1.021000000000000000e+03 4.167327117919921875e+01 2.505311965942382812e+01 4.421178996562957764e-02 6.336112499237060547e+00 1.914097189903259277e+00 -1.402394287288188934e-02
1.022000000000000000e+03 4.102513122558593750e+01 1.228992462158203125e+01 5.766505002975463867e-01 1.134218311309814453e+01 3.575649976730346680e+00 2.461402416229248047e+00
1.023000000000000000e+03 4.245333480834960938e+01 1.353815364837646484e+01 1.028144121170043945e+00 9.160432815551757812e+00 3.056572914123535156e+00 2.210819721221923828e+00
1.024000000000000000e+03 4.568202590942382812e+01 2.636596441268920898e+00 -3.407558441162109375e+00 1.525658845901489258e+00 -5.645698904991149902e-01 2.591305971145629883e+00
1.025000000000000000e+03 4.192615509033203125e+01 1.059617805480957031e+01 1.545802235603332520e+00 1.027172756195068359e+01 3.545258760452270508e+00 3.423490524291992188e+00
1.026000000000000000e+03 4.300532150268554688e+01 2.503945922851562500e+01 1.804676800966262817e-01 6.196660995483398438e+00 1.913138628005981445e+00 9.210139513015747070e-03
1.027000000000000000e+03 4.304632186889648438e+01 2.220367431640625000e+01 1.553253531455993652e-01 6.494886398315429688e+00 1.995063424110412598e+00 3.863316774368286133e-01
1.028000000000000000e+03 4.444908523559570312e+01 2.220210075378417969e+01 3.435159027576446533e-01 6.188474655151367188e+00 1.959597110748291016e+00 5.671728253364562988e-01
1.029000000000000000e+03 1.468770503997802734e+00 -3.997939300537109375e+01 -1.311173383146524429e-02 1.170245528221130371e+00 3.471401333808898926e-01 -9.940940141677856445e-02
1.030000000000000000e+03 2.942096233367919922e+00 3.770429229736328125e+01 3.270979796070605516e-04 4.741664743050932884e-04 2.403793332632631063e-04 -2.758421178441494703e-04
1.031000000000000000e+03 6.903906464576721191e-01 3.446725845336914062e+01 3.291095781605690718e-04 3.603765508159995079e-04 2.068458416033536196e-04 -1.425351074431091547e-04
1.032000000000000000e+03 6.395717859268188477e-01 2.609384727478027344e+01 2.766748948488384485e-04 3.447833296377211809e-05 9.334597416454926133e-05 -8.629336662124842405e-05
1.033000000000000000e+03 1.847204804420471191e+00 2.858257293701171875e+01 -3.068826918024569750e-04 4.538348366622813046e-05 -7.844976062187924981e-05 3.593335350160486996e-05
1.034000000000000000e+03 6.659068465232849121e-01 -3.593167495727539062e+01 -5.120948422700166702e-03 1.536763548851013184e+00 4.594927728176116943e-01 -4.667906090617179871e-02
1.035000000000000000e+03 6.364404201507568359e+00 -3.543416976928710938e+01 -7.336810231208801270e-02 1.752706617116928101e-01 3.057076968252658844e-02 -3.593456000089645386e-02
1.036000000000000000e+03 3.274179458618164062e+00 2.562681007385253906e+01 2.534253289923071861e-04 6.065089110052213073e-05 9.422287257621064782e-05 -1.086050033336505294e-04
1.037000000000000000e+03 1.908531904220581055e+00 3.129676818847656250e+01 -3.600938362069427967e-04 1.231929200002923608e-04 -7.107028068276122212e-05 -3.487114554445724934e-06
1.038000000000000000e+03 2.035124301910400391e+00 3.394581222534179688e+01 -3.543019702192395926e-04 1.804242201615124941e-04 -5.216332647250965238e-05 5.716855753234995063e-07
1.039000000000000000e+03 1.973491668701171875e+00 3.262444305419921875e+01 3.766893059946596622e-04 2.385418774792924523e-04 1.845693623181432486e-04 -1.688685006229206920e-04
1.040000000000000000e+03 5.155121326446533203e+00 3.731988906860351562e+01 3.294524212833493948e-04 1.610417821211740375e-04 1.471482682973146439e-04 -1.522491220384836197e-04
1.041000000000000000e+03 3.822008132934570312e+00 3.883583068847656250e+01 -1.687501790001988411e-04 3.199412312824279070e-04 4.535731932264752686e-05 -4.342336251283995807e-05
1.042000000000000000e+03 6.890416145324707031e-01 -3.038070487976074219e+01 -3.868417069315910339e-02 1.641486167907714844e+00 4.808405935764312744e-01 6.985662132501602173e-02
1.043000000000000000e+03 3.286672830581665039e+00 -2.687204360961914062e+01 -2.782581150531768799e-01 6.201618909835815430e-01 1.025711223483085632e-01 7.671642899513244629e-01
1.044000000000000000e+03 1.772153615951538086e+00 -1.667001342773437500e+01 9.285499155521392822e-02 -1.135431170463562012e+00 -3.127728402614593506e-01 -9.542530775070190430e-02
1.045000000000000000e+03 5.645582079887390137e-01 -2.337072563171386719e+01 1.313646789640188217e-02 -6.362922787666320801e-01 -1.869467496871948242e-01 2.484753727912902832e-01
1.046000000000000000e+03 2.336880683898925781e+00 -3.654138183593750000e+01 -1.074818987399339676e-02 1.113392353057861328e+00 3.307932615280151367e-01 -1.213469952344894409e-01
1.047000000000000000e+03 6.255042552947998047e-01 1.903788375854492188e+01 -1.830720284488052130e-04 -2.152121123799588531e-05 -6.137797754490748048e-05 3.706663483171723783e-05
1.048000000000000000e+03 5.940794348716735840e-01 1.339462566375732422e+01 -1.398209278704598546e-04 -1.225784399139229208e-05 -4.562363392324186862e-05 3.077271321672014892e-05
1.049000000000000000e+03 5.485300421714782715e-01 7.749365329742431641e+00 -7.961442315718159080e-05 -8.972994692157953978e-06 -2.657622644619550556e-05 2.082747778331395239e-05
1.050000000000000000e+03 5.260711669921875000e+00 -4.030317687988281250e+01 1.120678335428237915e-01 5.122768878936767578e-01 1.873034238815307617e-01 1.470808964222669601e-02
1.051000000000000000e+03 3.884968996047973633e+00 -3.881383132934570312e+01 2.944167517125606537e-02 8.876906633377075195e-01 2.751396894454956055e-01 -6.901109218597412109e-02
1.052000000000000000e+03 2.934547901153564453e+00 -3.483205413818359375e+01 -4.843961074948310852e-02 9.799271225929260254e-01 2.794462442398071289e-01 -8.629015088081359863e-02
1.053000000000000000e+03 1.791476726531982422e+00 -3.316966247558593750e+01 -5.804447829723358154e-02 1.311917304992675781e+00 3.761618435382843018e-01 -4.538328200578689575e-02
1.054000000000000000e+03 4.648668766021728516e+00 -2.978425407409667969e+01 -5.249487161636352539e-01 3.657288551330566406e-01 -4.776595160365104675e-02 3.322302401065826416e-01
1.055000000000000000e+03 2.801023244857788086e+00 -2.449972724914550781e+01 3.731703758239746094e-02 3.399359881877899170e-01 1.131759062409400940e-01 9.297807216644287109e-01
1.056000000000000000e+03 5.076037883758544922e+00 -1.717057991027832031e+01 6.219549775123596191e-01 8.808414936065673828e-01 4.508389532566070557e-01 1.961926519870758057e-01
1.057000000000000000e+03 2.989084959030151367e+00 -1.693808937072753906e+01 2.030816525220870972e-01 -3.944192826747894287e-01 -5.740129202604293823e-02 -2.959396503865718842e-02
1.058000000000000000e+03 1.818854331970214844e+00 -1.244265842437744141e+01 -7.159016095101833344e-03 -8.335935473442077637e-01 -2.522257566452026367e-01 -2.839213311672210693e-01
1.059000000000000000e+03 6.040502786636352539e-01 -1.221595001220703125e+01 1.848798710852861404e-04 -1.249248385429382324e+00 -3.747190535068511963e-01 -1.097182705998420715e-01
1.060000000000000000e+03 1.736347436904907227e+00 -6.965998649597167969e+00 -2.687509916722774506e-02 -3.223092555999755859e-01 -1.047553122043609619e-01 -1.861852407455444336e-01
1.061000000000000000e+03 1.620767474174499512e+00 -3.532753229141235352e+00 -2.726257219910621643e-02 -1.057213991880416870e-01 -3.989519178867340088e-02 -9.612841159105300903e-02
1.062000000000000000e+03 6.349557638168334961e-01 -5.170429229736328125e+00 -6.505889818072319031e-03 -2.201665490865707397e-01 -6.800173223018646240e-02 -6.027962267398834229e-02
1.063000000000000000e+03 4.530535340309143066e-01 4.918123722076416016e+00 -6.355174264172092080e-05 -9.610340612198342569e-07 -1.935383261297829449e-05 1.347779652860481292e-05
1.064000000000000000e+03 5.876907825469970703e+00 4.173687458038330078e+00 -4.047548645758070052e-05 -4.062094740220345557e-05 -2.432893052173312753e-05 8.645328307466115803e-06
1.065000000000000000e+03 1.686459302902221680e+00 1.036340999603271484e+01 1.212439019582234323e-04 6.244163614610442892e-06 3.824642044492065907e-05 -3.035642657778225839e-05
1.066000000000000000e+03 5.670318603515625000e-01 1.057364845275878906e+01 -1.128097719629295170e-04 -9.043419595400337130e-06 -3.655595719465054572e-05 2.758345544862095267e-05
1.067000000000000000e+03 1.779998421669006348e+00 1.315880393981933594e+01 1.421542838215827942e-04 6.761384611309040338e-06 4.467469989322125912e-05 -2.853223304555285722e-05
1.068000000000000000e+03 1.886368751525878906e+00 2.018682670593261719e+01 -2.086946624331176281e-04 -1.312745189352426678e-05 -6.654663593508303165e-05 3.187629044987261295e-05
1.069000000000000000e+03 1.869117498397827148e+00 1.878142547607421875e+01 1.986044080695137382e-04 -1.486892983848520089e-06 5.913525455980561674e-05 -3.003268102474976331e-05
1.070000000000000000e+03 1.959955573081970215e+00 2.441359138488769531e+01 2.318558836122974753e-04 4.844942304771393538e-05 8.409158908762037754e-05 -7.808053487678989768e-05
1.071000000000000000e+03 6.954441833496093750e+01 -1.730650901794433594e+01 -9.867357015609741211e-01 1.147637557983398438e+01 3.146891832351684570e+00 1.757614016532897949e+00
1.072000000000000000e+03 6.936635589599609375e+01 -1.650759315490722656e+01 -7.595988512039184570e-01 1.013549900054931641e+01 2.812770128250122070e+00 2.505164623260498047e+00
1.073000000000000000e+03 7.025590515136718750e+01 -1.734996795654296875e+01 -1.352842569351196289e+00 1.304737281799316406e+01 3.508358955383300781e+00 1.328459978103637695e+00
1.074000000000000000e+03 6.970073699951171875e+01 -1.956148910522460938e+01 -3.322609961032867432e-01 1.136953258514404297e+01 3.311181545257568359e+00 5.755451917648315430e-01
1.075000000000000000e+03 6.951977539062500000e+01 -1.047365760803222656e+01 2.690693140029907227e-01 1.009627532958984375e+01 3.109603404998779297e+00 -3.766698837280273438e+00
1.076000000000000000e+03 1.570428943634033203e+01 1.746549606323242188e+00 1.200537553813774139e-05 7.123252726159989834e-05 2.497137029422447085e-05 1.113974303734721616e-05
1.077000000000000000e+03 1.639440155029296875e+01 1.734810829162597656e+00 -5.263281309453304857e-06 -7.823912892490625381e-05 -2.505072370695415884e-05 -2.829076220223214477e-05
1.078000000000000000e+03 1.023915195465087891e+01 -2.749442577362060547e+00 -3.182161748409271240e-01 6.894106417894363403e-02 -7.478253543376922607e-02 -3.487761691212654114e-02
1.079000000000000000e+03 1.855613327026367188e+01 1.928130388259887695e+00 8.075568621279671788e-05 2.584796675364486873e-05 3.198109698132611811e-05 4.870321572525426745e-05
1.080000000000000000e+03 1.829262924194335938e+01 6.118198394775390625e+00 -1.300638250540941954e-04 -2.464455428707879037e-05 -4.641251507564447820e-05 -5.262087870505638421e-05
1.081000000000000000e+03 1.099694061279296875e+01 -3.590640306472778320e+00 -2.752674818038940430e-01 8.964587748050689697e-02 -5.568648502230644226e-02 -1.566784456372261047e-02
1.082000000000000000e+03 1.173991966247558594e+01 -3.674786329269409180e+00 -2.663684487342834473e-01 7.914566248655319214e-02 -5.616683512926101685e-02 1.123104710131883621e-02
1.083000000000000000e+03 1.245232295989990234e+01 -3.017102718353271484e+00 -3.122048676013946533e-01 4.283539950847625732e-02 -8.081083744764328003e-02 3.262532129883766174e-02
1.084000000000000000e+03 9.510397911071777344e+00 -3.460171222686767578e+00 -2.709697782993316650e-01 9.332396090030670166e-02 -5.329374596476554871e-02 -6.867236644029617310e-02
1.085000000000000000e+03 1.439052009582519531e+01 2.615326642990112305e+00 -4.993871334590949118e-05 -4.892942888545803726e-05 -2.966044303320813924e-05 5.158798558113630861e-06
1.086000000000000000e+03 1.623160552978515625e+01 3.035671472549438477e+00 2.069912079605273902e-05 -9.157258318737149239e-05 -2.126203798979986459e-05 -4.458263902051839978e-06
1.087000000000000000e+03 1.369331550598144531e+01 2.759139537811279297e+00 5.184494148124940693e-05 4.490207356866449118e-05 2.902410597016569227e-05 -2.533625433898123447e-07
1.088000000000000000e+03 1.212397193908691406e+01 2.293506860733032227e+00 -3.970612669945694506e-05 -4.272844671504572034e-05 -2.473037238814868033e-05 1.839718066776185879e-07
1.089000000000000000e+03 1.397524738311767578e+01 -3.200370073318481445e+00 -2.852517962455749512e-01 1.756717450916767120e-02 -8.030539005994796753e-02 7.652816176414489746e-02
1.090000000000000000e+03 1.481341743469238281e+01 -4.028879642486572266e+00 -1.948767304420471191e-01 1.762386783957481384e-02 -5.317585915327072144e-02 1.103149056434631348e-01
1.091000000000000000e+03 1.248963356018066406e+01 -3.767090797424316406e+00 -2.567465007305145264e-01 6.848786771297454834e-02 -5.647759139537811279e-02 3.869113326072692871e-02
1.092000000000000000e+03 1.325309467315673828e+01 -3.858925819396972656e+00 -2.378370314836502075e-01 5.207927152514457703e-02 -5.572732537984848022e-02 6.556634604930877686e-02
1.093000000000000000e+03 1.220202732086181641e+01 3.043764591217041016e+00 4.869673284702003002e-05 4.184150748187676072e-05 2.716147173487115651e-05 1.168863377642992418e-06
1.094000000000000000e+03 1.060867786407470703e+01 3.252154111862182617e+00 4.927579720970243216e-05 3.782584099099040031e-05 2.613049036881420761e-05 4.502849606069503352e-06
1.095000000000000000e+03 1.296298599243164062e+01 2.906483411788940430e+00 -5.005380444345064461e-05 -4.353607801022008061e-05 -2.807696364470757544e-05 -1.189094405162904877e-06
1.096000000000000000e+03 6.580569744110107422e+00 2.627270460128784180e+00 2.936921373475342989e-05 4.213285501464270055e-05 2.145061989722307771e-05 -1.085467602024436928e-06
1.097000000000000000e+03 4.286380290985107422e+00 3.580788135528564453e+00 3.105114228674210608e-05 3.415425089769996703e-05 1.956161759153474122e-05 -2.517238135624211282e-05
1.098000000000000000e+03 3.560550451278686523e+00 4.637199401855468750e+00 4.699509008787572384e-05 3.726212162291631103e-05 2.527716424083337188e-05 -5.049890387454070151e-05
1.099000000000000000e+03 4.254529953002929688e+00 2.733148813247680664e+00 -3.141808338114060462e-05 -3.020084477611817420e-05 -1.848567808337975293e-05 1.957303720701020211e-05
1.100000000000000000e+03 5.815111160278320312e+00 3.408064842224121094e+00 3.323937562527135015e-05 4.094130417797714472e-05 2.225420394097454846e-05 -6.885300535941496491e-06
1.101000000000000000e+03 9.756021499633789062e+00 2.565455913543701172e+00 3.792329880525358021e-05 3.972720514866523445e-05 2.329515154997352511e-05 5.808926289319060743e-06
1.102000000000000000e+03 6.589812278747558594e+00 3.373418569564819336e+00 -3.663143434096127748e-05 -4.271063153282739222e-05 -2.380261867074295878e-05 7.440924036927754059e-07
1.103000000000000000e+03 1.368660449981689453e+00 4.632799625396728516e+00 4.537982749752700329e-05 6.787723123125033453e-06 1.565026468597352505e-05 -2.598347418825142086e-05
1.104000000000000000e+03 3.927185237407684326e-01 3.536811113357543945e+00 5.569256609305739403e-05 3.120193241556989960e-06 1.764382795954588801e-05 -1.553034235257655382e-05
1.105000000000000000e+03 8.180729866027832031e+00 4.095557212829589844e+00 4.951859955326654017e-05 4.594443817040883005e-05 2.863891131710261106e-05 1.051010985975153744e-05
1.106000000000000000e+03 9.787891387939453125e+00 3.309311628341674805e+00 -4.832363993045873940e-05 -3.811533679254353046e-05 -2.593169301690068096e-05 -8.347442417289130390e-06
1.107000000000000000e+03 1.642033767700195312e+01 -4.162641525268554688e+00 -1.433947980403900146e-01 -1.673220098018646240e-02 -4.803809896111488342e-02 1.341899484395980835e-01
1.108000000000000000e+03 1.806192970275878906e+01 -4.233844757080078125e+00 -9.228859841823577881e-02 -4.722392186522483826e-02 -4.185375571250915527e-02 1.296609342098236084e-01
1.109000000000000000e+03 1.733329391479492188e+01 -4.960744857788085938e+00 -4.304606094956398010e-02 -3.756146132946014404e-02 -2.418225631117820740e-02 1.569418460130691528e-01
1.110000000000000000e+03 1.960446548461914062e+01 -3.493961334228515625e+00 -1.221382319927215576e-01 -4.751601815223693848e-02 -5.089627578854560852e-02 7.869099825620651245e-02
1.111000000000000000e+03 2.058916091918945312e+01 -4.200038909912109375e+00 -3.307481110095977783e-02 -7.599774748086929321e-02 -3.272176906466484070e-02 6.403597444295883179e-02
1.112000000000000000e+03 2.227401351928710938e+01 -4.128532409667968750e+00 -2.444809675216674805e-02 -8.468852937221527100e-02 -3.274098783731460571e-02 -1.833366043865680695e-02
1.113000000000000000e+03 2.212177467346191406e+01 -3.314276218414306641e+00 -1.095229536294937134e-01 -4.436001554131507874e-02 -4.616489261388778687e-02 -9.536102414131164551e-03
1.114000000000000000e+03 6.454666137695312500e+00 -3.360267639160156250e+00 -1.974082440137863159e-01 3.744633123278617859e-02 -4.798857495188713074e-02 -1.582066565752029419e-01
1.115000000000000000e+03 2.459152460098266602e+00 -3.172123193740844727e+00 -5.748567357659339905e-02 -7.572551071643829346e-02 -3.996335342526435852e-02 -1.238054856657981873e-01
1.116000000000000000e+03 3.851910352706909180e+00 -7.617937564849853516e+00 -8.638686686754226685e-02 -1.126057654619216919e-01 -5.969779193401336670e-02 -3.068794906139373779e-01
1.117000000000000000e+03 7.984237670898437500e+00 -3.389823913574218750e+00 -2.429748177528381348e-01 7.401766628026962280e-02 -5.068714171648025513e-02 -1.195584014058113098e-01
1.118000000000000000e+03 5.561951637268066406e+00 -2.618479728698730469e+00 -1.804837137460708618e-01 7.662557531148195267e-03 -5.184634774923324585e-02 -1.424928605556488037e-01
1.119000000000000000e+03 5.701459407806396484e+00 -3.357346534729003906e+00 -1.750033944845199585e-01 1.874890550971031189e-02 -4.687634482979774475e-02 -1.708857715129852295e-01
1.120000000000000000e+03 1.860855937004089355e+00 -5.649946689605712891e+00 -2.260275930166244507e-02 -2.158966809511184692e-01 -7.154983282089233398e-02 -1.626382619142532349e-01
1.121000000000000000e+03 8.750337600708007812e+00 -3.418380260467529297e+00 -2.602765262126922607e-01 8.664854615926742554e-02 -5.208839848637580872e-02 -9.574827551841735840e-02
1.122000000000000000e+03 1.560979843139648438e+01 -4.104524612426757812e+00 -1.711221486330032349e-01 1.300851581618189812e-03 -5.094638839364051819e-02 1.236234009265899658e-01
1.123000000000000000e+03 1.141522789001464844e+01 3.161405086517333984e+00 -4.913287557428702712e-05 -3.964756615459918976e-05 -2.663413397385738790e-05 -1.931198085003416054e-06
1.124000000000000000e+03 8.965987205505371094e+00 3.337587356567382812e+00 4.564688424579799175e-05 4.060643914272077382e-05 2.587599738035351038e-05 9.007920198200736195e-06
1.125000000000000000e+03 1.889403152465820312e+01 -4.244116306304931641e+00 -6.829028576612472534e-02 -5.847879871726036072e-02 -3.803072497248649597e-02 1.146349683403968811e-01
1.126000000000000000e+03 2.474696731567382812e+01 -3.094063043594360352e+00 -2.504258751869201660e-01 -3.976342454552650452e-02 -8.705679327249526978e-02 -1.615105420351028442e-01
1.127000000000000000e+03 2.031076049804687500e+01 1.974844455718994141e+00 6.828225014032796025e-05 -9.504494300927035511e-06 1.763332693371921778e-05 -2.467885315127205104e-05
1.128000000000000000e+03 2.143256950378417969e+01 -4.162802696228027344e+00 -2.840516157448291779e-02 -8.316335082054138184e-02 -3.347055241465568542e-02 2.679711394011974335e-02
1.129000000000000000e+03 2.071281814575195312e+01 -4.986729621887207031e+00 4.844654724001884460e-02 -1.117658838629722595e-01 -1.899579912424087524e-02 7.522591203451156616e-02
1.130000000000000000e+03 7.718414306640625000e+01 -1.934987068176269531e+01 -7.668101042509078979e-02 8.459064483642578125e+00 2.514714956283569336e+00 -1.396972537040710449e+00
1.131000000000000000e+03 6.856640625000000000e+01 -8.749309539794921875e+00 4.803935289382934570e-01 7.645631790161132812e+00 2.437807559967041016e+00 -3.009835004806518555e+00
1.132000000000000000e+03 7.538885498046875000e+01 -1.438513469696044922e+01 1.823587417602539062e+00 9.060866355895996094e+00 3.265336275100708008e+00 -7.554420828819274902e-01
1.133000000000000000e+03 7.632675933837890625e+01 -1.385558700561523438e+01 1.218747019767761230e+00 7.950177192687988281e+00 2.750677108764648438e+00 -2.772889435291290283e-01
1.134000000000000000e+03 7.265645599365234375e+01 -1.611323738098144531e+01 1.296197533607482910e+00 1.360460567474365234e+01 4.470241069793701172e+00 -2.579563617706298828e+00
1.135000000000000000e+03 1.990107536315917969e+01 -1.592609596252441406e+01 3.719431757926940918e-01 -1.120269820094108582e-01 7.797485589981079102e-02 1.608680188655853271e-01
1.136000000000000000e+03 2.326174736022949219e+01 -1.747842788696289062e+01 -6.404580920934677124e-02 -1.085553318262100220e-02 -2.247040346264839172e-02 1.890937536954879761e-01
1.137000000000000000e+03 6.882357025146484375e+01 -1.709994506835937500e+01 -4.509338140487670898e-01 8.036282539367675781e+00 2.275604724884033203e+00 1.318214416503906250e+00
1.138000000000000000e+03 6.962167358398437500e+01 -1.835407447814941406e+01 -6.418102979660034180e-01 1.138989162445068359e+01 3.224424600601196289e+00 1.142693042755126953e+00
1.139000000000000000e+03 6.847589111328125000e+01 -1.150217342376708984e+01 1.647048711776733398e+00 6.663223266601562500e+00 2.493081569671630859e+00 -4.338388919830322266e+00
1.140000000000000000e+03 6.724507904052734375e+01 -5.222119808197021484e+00 4.354224801063537598e-01 6.053949832916259766e+00 1.946811795234680176e+00 -1.588803768157958984e+00
1.141000000000000000e+03 6.710385131835937500e+01 -6.491291999816894531e+00 8.204426169395446777e-01 6.258134841918945312e+00 2.123573303222656250e+00 -2.208323955535888672e+00
1.142000000000000000e+03 4.074798202514648438e+01 -3.746449708938598633e+00 7.261989116668701172e-01 1.180605697631835938e+01 3.759676933288574219e+00 2.433826446533203125e+00
1.143000000000000000e+03 5.336470031738281250e+01 4.018507003784179688e+00 -1.843436598777770996e+00 5.200554728507995605e-01 -3.970143496990203857e-01 -3.740980923175811768e-01
1.144000000000000000e+03 1.879034614562988281e+01 -1.560741519927978516e+01 4.628742337226867676e-01 -1.286806464195251465e-01 1.002580821514129639e-01 1.335337758064270020e-01
1.145000000000000000e+03 2.844232940673828125e+01 -1.566424655914306641e+01 -4.425234794616699219e-01 -2.269231975078582764e-01 -2.008340060710906982e-01 8.689550161361694336e-01
1.146000000000000000e+03 2.684938812255859375e+01 -1.727499389648437500e+01 -6.898527741432189941e-01 4.870970547199249268e-02 -1.923429220914840698e-01 3.280583322048187256e-01
1.147000000000000000e+03 1.767842674255371094e+01 -1.521591567993164062e+01 6.092805266380310059e-01 -1.103331744670867920e-01 1.496842056512832642e-01 1.532037407159805298e-01
1.148000000000000000e+03 2.117507743835449219e+01 -1.514316654205322266e+01 3.496690988540649414e-01 -1.566246300935745239e-01 5.791334062814712524e-02 2.685144245624542236e-01
1.149000000000000000e+03 1.149253749847412109e+01 1.811233901977539062e+01 2.531567588448524475e-04 3.932667823391966522e-05 8.774502930464223027e-05 4.595420250552706420e-06
1.150000000000000000e+03 2.629323768615722656e+01 -3.476279067993164062e+01 -2.650847136974334717e-01 5.332450270652770996e-01 8.044809848070144653e-02 3.993336856365203857e-01
1.151000000000000000e+03 2.317661666870117188e+01 -1.500721645355224609e+01 2.153164297342300415e-01 -1.694979220628738403e-01 1.374555379152297974e-02 4.259596467018127441e-01
1.152000000000000000e+03 1.921896934509277344e+01 -3.338034820556640625e+01 -7.793238759040832520e-01 -4.862964898347854614e-02 -2.483860552310943604e-01 3.273063525557518005e-02
1.153000000000000000e+03 2.094392204284667969e+01 -3.447552490234375000e+01 -5.245432257652282715e-01 -4.389224946498870850e-02 -1.705306321382522583e-01 2.850298583507537842e-02
1.154000000000000000e+03 4.094991683959960938e+01 -2.395457267761230469e+00 5.283156037330627441e-01 1.075619411468505859e+01 3.385352849960327148e+00 1.720153570175170898e+00
1.155000000000000000e+03 3.641259765625000000e+01 -2.920429468154907227e+00 -9.779866039752960205e-02 4.942343711853027344e+00 1.453363537788391113e+00 8.688724040985107422e-01
1.156000000000000000e+03 5.197064971923828125e+01 -3.003619003295898438e+01 -4.578565359115600586e-01 1.660096645355224609e-01 -8.755405992269515991e-02 9.492217004299163818e-02
1.157000000000000000e+03 2.212850952148437500e+01 -3.387566375732421875e+01 -5.738387703895568848e-01 -1.025058515369892120e-02 -1.752268075942993164e-01 -1.936654909513890743e-03
1.158000000000000000e+03 2.553023338317871094e+01 -3.334263229370117188e+01 -4.296125769615173340e-01 1.644987910985946655e-01 -7.953413575887680054e-02 1.237338110804557800e-01
1.159000000000000000e+03 1.404877281188964844e+01 1.346232318878173828e+01 1.833255810197442770e-04 8.594734026701189578e-06 5.757609324064105749e-05 7.222820568131282926e-05
1.160000000000000000e+03 1.658579444885253906e+01 -1.473434352874755859e+01 7.185937166213989258e-01 -8.367686718702316284e-02 1.904750466346740723e-01 1.988285481929779053e-01
1.161000000000000000e+03 2.449763107299804688e+01 -1.628561401367187500e+01 -1.261989325284957886e-01 -5.435662716627120972e-02 -5.416666716337203979e-02 4.253709018230438232e-01
1.162000000000000000e+03 4.351473999023437500e+01 -2.525205230712890625e+01 1.683509051799774170e-01 3.241461515426635742e+00 1.022943735122680664e+00 -6.575211882591247559e-01
1.163000000000000000e+03 4.569345474243164062e+01 -2.552254295349121094e+01 1.861652433872222900e-01 1.825603723526000977e+00 6.035307049751281738e-01 -6.094387769699096680e-01
1.164000000000000000e+03 1.263093471527099609e+01 -3.388899612426757812e+01 -6.380475759506225586e-01 -2.940133512020111084e-01 -2.796182930469512939e-01 3.136955499649047852e-01
1.165000000000000000e+03 1.467861557006835938e+01 -3.517404174804687500e+01 -4.321349561214447021e-01 -2.667604088783264160e-01 -2.096686065196990967e-01 1.821137517690658569e-01
1.166000000000000000e+03 1.417431354522705078e+01 -3.311032485961914062e+01 -8.332276940345764160e-01 -1.750635504722595215e-01 -3.024873733520507812e-01 2.367142885923385620e-01
1.167000000000000000e+03 4.978174591064453125e+01 -2.802331733703613281e+01 -1.486999392509460449e-01 3.935036659240722656e-01 7.344111800193786621e-02 -1.268957704305648804e-01
1.168000000000000000e+03 4.195545196533203125e+01 -4.745898842811584473e-01 -1.463603615760803223e+00 1.034679985046386719e+01 2.664958953857421875e+00 7.473235130310058594e-01
1.169000000000000000e+03 4.076026535034179688e+01 -1.191808700561523438e+00 -5.133509039878845215e-01 1.026646614074707031e+01 2.925934553146362305e+00 8.148670196533203125e-01
1.170000000000000000e+03 6.059244537353515625e+01 -3.546119689941406250e+01 -7.699666023254394531e-01 -4.827089905738830566e-01 -3.758026659488677979e-01 -3.708873391151428223e-01
1.171000000000000000e+03 4.599811935424804688e+01 -2.369448280334472656e+01 1.911479979753494263e-01 1.343636512756347656e+00 4.604353308677673340e-01 -5.342403650283813477e-01
1.172000000000000000e+03 4.659267807006835938e+01 -2.664498710632324219e+01 9.317933768033981323e-02 1.385641932487487793e+00 4.436463713645935059e-01 -5.548419356346130371e-01
1.173000000000000000e+03 3.984991073608398438e+01 -8.002516746520996094e+00 1.528530836105346680e+00 1.190522861480712891e+01 4.030128002166748047e+00 1.253679394721984863e+00
1.174000000000000000e+03 7.321437072753906250e+01 -1.822187042236328125e+01 -5.325282812118530273e-01 1.229620647430419922e+01 3.529103517532348633e+00 -1.446040630340576172e+00
1.175000000000000000e+03 4.478820800781250000e+01 -2.445011711120605469e+01 1.681179553270339966e-01 2.294708490371704102e+00 7.388479113578796387e-01 -7.260321378707885742e-01
1.176000000000000000e+03 4.880707168579101562e+01 -2.692100906372070312e+01 -4.258080199360847473e-02 5.033668279647827148e-01 1.382358074188232422e-01 -2.240681499242782593e-01
1.177000000000000000e+03 7.084207916259765625e+01 -2.232152938842773438e+01 2.164746075868606567e-01 1.096323966979980469e+01 3.353914260864257812e+00 -1.047092024236917496e-02
1.178000000000000000e+03 7.076619720458984375e+01 -2.096861457824707031e+01 -2.889850139617919922e-01 1.145761585235595703e+01 3.350589275360107422e+00 7.990355789661407471e-02
1.179000000000000000e+03 4.307406234741210938e+01 -2.220301246643066406e+01 -2.990921214222908020e-02 4.253862857818603516e+00 1.267186045646667480e+00 -7.051349282264709473e-01
1.180000000000000000e+03 7.525463867187500000e+01 -3.526144790649414062e+01 -3.371980786323547363e-01 1.005465316772460938e+01 2.915236473083496094e+00 -2.883449792861938477e-01
1.181000000000000000e+03 7.661493682861328125e+01 -3.528749465942382812e+01 -2.941850423812866211e-01 1.122275447845458984e+01 3.278570890426635742e+00 -3.530668914318084717e-01
1.182000000000000000e+03 7.453076171875000000e+01 -2.374706649780273438e+01 -5.554761365056037903e-02 9.951566696166992188e+00 2.968805789947509766e+00 -1.355075478553771973e+00
1.183000000000000000e+03 7.834036254882812500e+01 -2.906225585937500000e+01 -4.132007434964179993e-02 1.116602897644042969e+01 3.337412595748901367e+00 -6.492332816123962402e-01
1.184000000000000000e+03 7.794377899169921875e+01 -3.561589813232421875e+01 -1.371471285820007324e-01 1.213478469848632812e+01 3.599291324615478516e+00 -1.262925714254379272e-01
1.185000000000000000e+03 7.446593475341796875e+01 -3.843846130371093750e+01 -1.988689899444580078e-01 9.055315971374511719e+00 2.656934022903442383e+00 -1.678146868944168091e-01
1.186000000000000000e+03 7.534556579589843750e+01 1.592732620239257812e+01 7.905036956071853638e-02 6.043598175048828125e+00 1.836794614791870117e+00 -6.603517532348632812e-01
1.187000000000000000e+03 7.675104522705078125e+01 1.568476486206054688e+01 3.883380070328712463e-02 6.308735370635986328e+00 1.904270768165588379e+00 -4.968608915805816650e-01
1.188000000000000000e+03 7.774001312255859375e+01 3.549247741699218750e+01 8.104147389531135559e-03 5.076212882995605469e+00 1.525295019149780273e+00 -3.160811960697174072e-02
1.189000000000000000e+03 7.563653564453125000e+01 3.372212982177734375e+01 3.699582070112228394e-02 5.079836845397949219e+00 1.535049796104431152e+00 -7.976950705051422119e-02
1.190000000000000000e+03 7.821982574462890625e+01 -2.221258735656738281e+01 -3.152090683579444885e-02 8.782376289367675781e+00 2.625256776809692383e+00 -9.241607785224914551e-01
1.191000000000000000e+03 7.690438842773437500e+01 -2.356369400024414062e+01 -5.966697260737419128e-02 9.533564567565917969e+00 2.842169284820556641e+00 -1.249716281890869141e+00
1.192000000000000000e+03 7.680290222167968750e+01 -3.121555709838867188e+01 -2.519877254962921143e-01 1.089517974853515625e+01 3.192957639694213867e+00 -7.868303656578063965e-01
1.193000000000000000e+03 7.830578613281250000e+01 -2.774585342407226562e+01 -2.236245572566986084e-02 1.077135562896728516e+01 3.224697828292846680e+00 -7.173673510551452637e-01
1.194000000000000000e+03 7.727871704101562500e+01 -2.895874214172363281e+01 -9.248279780149459839e-02 1.077493953704833984e+01 3.204737186431884766e+00 -9.132151603698730469e-01
1.195000000000000000e+03 7.716572570800781250e+01 -2.773813438415527344e+01 -9.964688122272491455e-02 1.047913455963134766e+01 3.113846063613891602e+00 -1.023492813110351562e+00
1.196000000000000000e+03 7.698426055908203125e+01 -2.501958465576171875e+01 -6.325381994247436523e-02 9.816364288330078125e+00 2.925933122634887695e+00 -1.189955830574035645e+00
1.197000000000000000e+03 7.330329132080078125e+01 -2.522408294677734375e+01 1.085508987307548523e-02 9.744020462036132812e+00 2.926462650299072266e+00 -1.300525546073913574e+00
1.198000000000000000e+03 7.667546844482421875e+01 -3.258119964599609375e+01 -2.897352874279022217e-01 1.102420711517333984e+01 3.220341444015502930e+00 -5.922669172286987305e-01
1.199000000000000000e+03 7.242126464843750000e+01 -3.011509895324707031e+01 -8.865856528282165527e-01 8.931362152099609375e+00 2.413432836532592773e+00 -9.223980903625488281e-01
1.200000000000000000e+03 7.534065246582031250e+01 -4.043950653076171875e+01 5.407684948295354843e-03 1.039420795440673828e+01 3.119884729385375977e+00 -3.251980543136596680e-01
1.201000000000000000e+03 7.800910186767578125e+01 2.239286994934082031e+01 2.129165641963481903e-02 5.678417682647705078e+00 1.709912776947021484e+00 -2.012237012386322021e-01
1.202000000000000000e+03 7.677636718750000000e+01 1.967651748657226562e+01 5.569337680935859680e-02 5.845816612243652344e+00 1.770452976226806641e+00 -3.849686980247497559e-01
1.203000000000000000e+03 7.524013519287109375e+01 2.243443107604980469e+01 1.054412648081779480e-01 5.479739665985107422e+00 1.675554275512695312e+00 -4.250015616416931152e-01
1.204000000000000000e+03 7.669724273681640625e+01 2.104063034057617188e+01 5.431795865297317505e-02 5.715963363647460938e+00 1.731084346771240234e+00 -3.555510342121124268e-01
1.205000000000000000e+03 7.674629974365234375e+01 1.287391853332519531e+01 1.549083925783634186e-02 6.676964759826660156e+00 2.007736682891845703e+00 -5.443912744522094727e-01
1.206000000000000000e+03 7.543395233154296875e+01 8.778731346130371094e+00 -7.476666569709777832e-02 6.916176795959472656e+00 2.052423000335693359e+00 -6.950033307075500488e-01
1.207000000000000000e+03 7.673491668701171875e+01 1.428330898284912109e+01 2.995960600674152374e-02 6.482772350311279297e+00 1.953819513320922852e+00 -5.288560986518859863e-01
1.208000000000000000e+03 7.660026550292968750e+01 2.382594108581542969e+01 5.489337444305419922e-02 5.483416557312011719e+00 1.661492943763732910e+00 -2.796144485473632812e-01
1.209000000000000000e+03 7.793825531005859375e+01 2.654099273681640625e+01 1.978249102830886841e-02 5.360343933105468750e+00 1.614037871360778809e+00 -1.311877071857452393e-01
1.210000000000000000e+03 7.700646209716796875e+01 -2.211819458007812500e+01 -8.751931786537170410e-02 9.236524581909179688e+00 2.744701623916625977e+00 -1.276358723640441895e+00
1.211000000000000000e+03 7.652153778076171875e+01 2.790478706359863281e+01 4.746572673320770264e-02 5.248683929443359375e+00 1.588844776153564453e+00 -1.716024279594421387e-01
1.212000000000000000e+03 7.696557617187500000e+01 -5.450071334838867188e+00 -2.688147425651550293e-01 8.121026992797851562e+00 2.355663776397705078e+00 7.762359380722045898e-01
1.213000000000000000e+03 7.720532226562500000e+01 -8.374164581298828125e+00 -9.845841675996780396e-02 7.709796905517578125e+00 2.283401489257812500e+00 1.107064843177795410e+00
1.214000000000000000e+03 7.806845092773437500e+01 5.716433048248291016e+00 -4.730836302042007446e-02 8.036223411560058594e+00 2.396674394607543945e+00 -2.445759475231170654e-01
1.215000000000000000e+03 7.678501129150390625e+01 2.974745988845825195e+00 -1.490115076303482056e-01 7.937857151031494141e+00 2.336653709411621094e+00 -2.121446877717971802e-01
1.216000000000000000e+03 7.619162750244140625e+01 3.558262634277343750e+01 1.750068739056587219e-02 5.061244010925292969e+00 1.523623466491699219e+00 -4.823121055960655212e-02
1.217000000000000000e+03 7.723561096191406250e+01 3.683419799804687500e+01 9.863930754363536835e-03 5.050989151000976562e+00 1.518255949020385742e+00 -2.978351898491382599e-02
1.218000000000000000e+03 7.806626892089843750e+01 7.123898029327392578e+00 -2.904166094958782196e-02 7.849957942962646484e+00 2.346274852752685547e+00 -2.934020161628723145e-01
1.219000000000000000e+03 7.676002502441406250e+01 5.809397220611572266e+00 -9.964311122894287109e-02 7.643077850341796875e+00 2.263030290603637695e+00 -4.076636433601379395e-01
1.220000000000000000e+03 7.690799713134765625e+01 -2.601904392242431641e+00 -2.468599975109100342e-01 8.193203926086425781e+00 2.383903264999389648e+00 3.828691244125366211e-01
1.221000000000000000e+03 7.758526611328125000e+01 -1.054658889770507812e+01 2.137685269117355347e-01 6.978933334350585938e+00 2.157810449600219727e+00 9.850788712501525879e-01
1.222000000000000000e+03 7.383478546142578125e+01 -1.487247085571289062e+01 2.682395219802856445e+00 1.106567001342773438e+01 4.124419689178466797e+00 -1.617930412292480469e+00
1.223000000000000000e+03 7.355086517333984375e+01 3.447232818603515625e+01 6.454234570264816284e-02 5.022100925445556641e+00 1.525992989540100098e+00 -8.686345070600509644e-02
1.224000000000000000e+03 7.598579406738281250e+01 3.091400337219238281e+01 4.229407384991645813e-02 5.140675067901611328e+00 1.554890751838684082e+00 -1.198195517063140869e-01
1.225000000000000000e+03 7.684781646728515625e+01 1.833407592773437500e+01 4.924284294247627258e-02 5.985868930816650391e+00 1.810533523559570312e+00 -4.248380661010742188e-01
1.226000000000000000e+03 7.675822448730468750e+01 1.006747817993164062e+01 -2.239375002682209015e-02 7.075029373168945312e+00 2.115790605545043945e+00 -5.410775542259216309e-01
1.227000000000000000e+03 7.813707733154296875e+01 -1.349291706085205078e+01 3.813727200031280518e-01 5.927284717559814453e+00 1.892597198486328125e+00 1.070906780660152435e-02
1.228000000000000000e+03 7.823410034179687500e+01 -6.902925491333007812e+00 -7.892536371946334839e-02 7.397753238677978516e+00 2.195648431777954102e+00 7.534338831901550293e-01
1.229000000000000000e+03 7.809622955322265625e+01 1.510848641395568848e+00 -7.164955884218215942e-02 8.379441261291503906e+00 2.492337465286254883e+00 -1.886672340333461761e-02
1.230000000000000000e+03 7.687649536132812500e+01 -1.216871261596679688e+00 -2.284527271986007690e-01 8.172472000122070312e+00 2.383205890655517578e+00 2.103961110115051270e-01
1.231000000000000000e+03 7.831501007080078125e+01 3.421764373779296875e+01 6.306344643235206604e-03 5.088410854339599609e+00 1.528415203094482422e+00 -3.193752095103263855e-02
1.232000000000000000e+03 7.676762390136718750e+01 4.388323783874511719e+00 -1.320786327123641968e-01 7.806402683258056641e+00 2.302297115325927734e+00 -3.185355663299560547e-01
1.233000000000000000e+03 7.697280883789062500e+01 -6.945941448211669922e+00 -2.377380579710006714e-01 8.013559341430664062e+00 2.332746505737304688e+00 9.987277388572692871e-01
1.234000000000000000e+03 7.694351959228515625e+01 -4.008328914642333984e+00 -2.779026329517364502e-01 8.163438796997070312e+00 2.365660905838012695e+00 5.721185207366943359e-01
1.235000000000000000e+03 7.474978637695312500e+01 -1.196520614624023438e+01 1.532561421394348145e+00 9.771377563476562500e+00 3.391181707382202148e+00 9.843350052833557129e-01
1.236000000000000000e+03 7.693690490722656250e+01 -1.292604255676269531e+01 8.704504370689392090e-01 7.342517852783203125e+00 2.463890552520751953e+00 2.925363183021545410e-01
1.237000000000000000e+03 7.720697784423828125e+01 -1.791742134094238281e+01 1.197902932763099670e-01 8.081667900085449219e+00 2.460437297821044922e+00 -1.387391090393066406e+00
1.238000000000000000e+03 1.393527793884277344e+01 5.723046302795410156e+00 4.760798037750646472e-05 1.052637162501923740e-05 1.744030487316194922e-05 1.304227316722972319e-05
1.239000000000000000e+03 1.938539314270019531e+01 2.943405389785766602e+00 1.239173870999366045e-04 1.473508837079862133e-05 4.159574018558487296e-05 4.592995901475660503e-05
1.240000000000000000e+03 4.264014816284179688e+01 1.499668598175048828e+01 8.753520250320434570e-01 8.702759742736816406e+00 2.873433589935302734e+00 1.874847650527954102e+00
1.241000000000000000e+03 4.416112136840820312e+01 1.781707954406738281e+01 7.323976755142211914e-01 6.958702087402343750e+00 2.307329893112182617e+00 1.416133761405944824e+00
1.242000000000000000e+03 1.448420429229736328e+01 3.050430679321289062e+01 -1.059274145518429577e-04 -6.283172115217894316e-05 -5.062773925601504743e-05 1.846168597694486380e-04
1.243000000000000000e+03 4.438429641723632812e+01 2.075246238708496094e+01 4.144521951675415039e-01 6.415300369262695312e+00 2.048925876617431641e+00 8.426603078842163086e-01
1.244000000000000000e+03 3.690412139892578125e+01 -1.469773769378662109e+01 1.341948807239532471e-01 6.548525333404541016e+00 2.004816055297851562e+00 6.203375756740570068e-02
1.245000000000000000e+03 3.911534118652343750e+01 -1.744316101074218750e+01 -2.981657087802886963e-01 8.363792419433593750e+00 2.419687986373901367e+00 6.872634887695312500e-01
1.246000000000000000e+03 4.365757751464843750e+01 1.340729427337646484e+01 1.389035105705261230e+00 7.840339183807373047e+00 2.768812179565429688e+00 2.439468145370483398e+00
1.247000000000000000e+03 4.437006759643554688e+01 2.506151390075683594e+01 4.069000780582427979e-01 5.849688529968261719e+00 1.876976609230041504e+00 1.171388253569602966e-01
1.248000000000000000e+03 4.432929611206054688e+01 2.650135612487792969e+01 5.514211058616638184e-01 5.557043075561523438e+00 1.832539319992065430e+00 -1.091882865875959396e-02
1.249000000000000000e+03 6.764037322998046875e+01 -9.091252326965332031e+00 8.191934823989868164e-01 6.559264659881591797e+00 2.213537454605102539e+00 -2.855906724929809570e+00
1.250000000000000000e+03 6.963447570800781250e+01 -1.127561855316162109e+01 4.933964908123016357e-01 1.100502204895019531e+01 3.449525594711303711e+00 -4.252677917480468750e+00
1.251000000000000000e+03 1.502552318572998047e+01 1.077194309234619141e+01 1.523921091575175524e-04 2.781762850645463914e-05 5.406292257248423994e-05 6.357253005262464285e-05
1.252000000000000000e+03 4.302291870117187500e+01 2.078088760375976562e+01 1.615664064884185791e-01 6.773128986358642578e+00 2.080408573150634766e+00 5.494777560234069824e-01
1.253000000000000000e+03 4.444019317626953125e+01 2.363320350646972656e+01 3.421937525272369385e-01 6.027227878570556641e+00 1.910826563835144043e+00 3.710747957229614258e-01
1.254000000000000000e+03 4.593001556396484375e+01 2.371789360046386719e+01 5.580254197120666504e-01 5.637018680572509766e+00 1.858513236045837402e+00 4.883034229278564453e-01
1.255000000000000000e+03 4.303999710083007812e+01 2.361826515197753906e+01 1.474412232637405396e-01 6.296520233154296875e+00 1.933188438415527344e+00 1.954408735036849976e-01
1.256000000000000000e+03 2.146132707595825195e+00 3.527729797363281250e+01 2.854190825019031763e-04 4.149012092966586351e-04 2.100960846291854978e-04 -2.038785169133916497e-04
1.257000000000000000e+03 5.652956485748291016e+00 3.507168197631835938e+01 4.827210796065628529e-04 1.734713878249749541e-04 1.968577416846528649e-04 -3.446631890255957842e-04
1.258000000000000000e+03 3.339877843856811523e+00 3.477141952514648438e+01 -4.409763205330818892e-04 1.810578542063012719e-04 -7.797553553245961666e-05 -1.701701112324371934e-04
1.259000000000000000e+03 3.173487186431884766e+00 3.088283920288085938e+01 3.824429586529731750e-04 1.202470375574193895e-04 1.508069981355220079e-04 -1.988283474929630756e-04
1.260000000000000000e+03 1.885210752487182617e+00 2.721195983886718750e+01 2.990783250425010920e-04 6.060516898287460208e-05 1.079050489352084696e-04 -1.199575854116119444e-04
1.261000000000000000e+03 3.319820880889892578e+00 2.418353080749511719e+01 -1.977875363081693649e-04 -5.667988443747162819e-05 -7.634022767888382077e-05 2.125187165802344680e-05
1.262000000000000000e+03 3.045632123947143555e+00 2.834445953369140625e+01 3.491829847916960716e-04 4.887341128778643906e-05 1.194169162772595882e-04 -1.308780047111213207e-04
1.263000000000000000e+03 4.685467720031738281e+00 2.557537841796875000e+01 -2.037995291175320745e-04 -1.544294354971498251e-05 -6.577274325536563993e-05 -2.916202174674253911e-05
1.264000000000000000e+03 3.325311660766601562e+00 3.216957092285156250e+01 -3.915487031918019056e-04 9.807061724131926894e-05 -8.804343087831512094e-05 -6.050318188499659300e-05
1.265000000000000000e+03 5.977498531341552734e+00 2.911196327209472656e+01 1.484764070482924581e-04 -1.517921919003129005e-04 -9.947327725967625156e-07 -1.950617443071678281e-04
1.266000000000000000e+03 5.391635417938232422e+00 4.007050323486328125e+01 1.469766866648569703e-04 3.831255016848444939e-04 1.590306492289528251e-04 -3.760108957067131996e-04
1.267000000000000000e+03 3.413261651992797852e+00 -3.564468002319335938e+01 -5.064979195594787598e-02 8.359028100967407227e-01 2.355759143829345703e-01 -1.291003674268722534e-01
1.268000000000000000e+03 2.023469924926757812e+00 -2.867326164245605469e+01 -1.518772691488265991e-01 9.928250908851623535e-01 2.522843480110168457e-01 3.801802098751068115e-01
1.269000000000000000e+03 3.384084939956665039e+00 -2.999061584472656250e+01 -3.232787549495697021e-01 7.801064252853393555e-01 1.370483040809631348e-01 2.811067998409271240e-01
1.270000000000000000e+03 1.659221291542053223e+00 -3.430930328369140625e+01 -1.372705562971532345e-03 1.370936989784240723e+00 4.108693003654479980e-01 -6.577431410551071167e-02
1.271000000000000000e+03 3.865391731262207031e+00 -3.456639099121093750e+01 -9.821838885545730591e-02 7.521405816078186035e-01 1.961766481399536133e-01 -8.878967911005020142e-02
1.272000000000000000e+03 2.053858518600463867e+00 -3.019001770019531250e+01 -1.533076614141464233e-01 1.123472929000854492e+00 2.910495698451995850e-01 1.911605149507522583e-01
1.273000000000000000e+03 1.918833851814270020e+00 2.159386253356933594e+01 2.168541832361370325e-04 1.105360115616349503e-05 6.837233377154916525e-05 -3.130903496639803052e-05
1.274000000000000000e+03 3.063557624816894531e+00 -1.125720882415771484e+01 -3.601470217108726501e-02 -3.503073155879974365e-01 -1.158966124057769775e-01 -3.619783818721771240e-01
1.275000000000000000e+03 3.105281352996826172e+00 1.716970634460449219e+01 1.962469541467726231e-04 4.609019924828317016e-06 6.025679249432869256e-05 -3.629309139796532691e-05
1.276000000000000000e+03 2.951998949050903320e+00 1.294159698486328125e+01 -1.482142397435382009e-04 -1.206800152431242168e-05 -4.808467201655730605e-05 3.378635301487520337e-05
1.277000000000000000e+03 1.729339957237243652e+00 -2.328033447265625000e+01 3.695005923509597778e-02 -1.967503130435943604e-01 -4.794007539749145508e-02 6.651934981346130371e-01
1.278000000000000000e+03 2.968788623809814453e+00 -2.320643234252929688e+01 9.028942137956619263e-02 2.181468605995178223e-01 9.253088384866714478e-02 8.568636178970336914e-01
1.279000000000000000e+03 1.790135264396667480e+00 -1.527207088470458984e+01 5.157401040196418762e-02 -1.067287206649780273e+00 -3.047139644622802734e-01 -2.026517242193222046e-01
1.280000000000000000e+03 3.047957181930541992e+00 -1.267500019073486328e+01 3.491548821330070496e-02 -3.810268044471740723e-01 -1.038333922624588013e-01 -3.524614274501800537e-01
1.281000000000000000e+03 1.733208060264587402e+00 -8.303467750549316406e+00 -1.609436422586441040e-02 -4.395922720432281494e-01 -1.367059946060180664e-01 -2.211071401834487915e-01
1.282000000000000000e+03 5.117730617523193359e+00 -4.084791660308837891e+00 -1.440912038087844849e-01 2.167250961065292358e-03 -4.257718473672866821e-02 -1.996748149394989014e-01
1.283000000000000000e+03 2.706213474273681641e+00 8.831770896911621094e+00 1.304937759414315224e-04 7.138176442822441459e-06 4.128958607907406986e-05 -2.791648148559033871e-05
1.284000000000000000e+03 1.571160793304443359e+00 6.062703609466552734e+00 -6.574139842996373773e-05 -1.675757266639266163e-05 -2.474969187460374087e-05 2.504140866221860051e-05
1.285000000000000000e+03 1.823300361633300781e+00 1.457231235504150391e+01 -1.547726133139804006e-04 -1.503072689956752583e-05 -5.094100197311490774e-05 3.411833313293755054e-05
1.286000000000000000e+03 3.093215703964233398e+00 1.577185630798339844e+01 -1.727335038594901562e-04 -1.648706347623374313e-05 -5.676617001881822944e-05 4.064921449753455818e-05
1.287000000000000000e+03 2.767361164093017578e+00 1.019391727447509766e+01 -1.347030629403889179e-04 -8.855822670739144087e-06 -4.306766641093418002e-05 3.092480255872942507e-05
1.288000000000000000e+03 2.846839189529418945e+00 -7.340670108795166016e+00 -4.783258214592933655e-02 -2.239103466272354126e-01 -8.152288198471069336e-02 -2.655758857727050781e-01
1.289000000000000000e+03 2.305829524993896484e+00 -4.667187213897705078e+00 -4.447548836469650269e-02 -1.441658586263656616e-01 -5.659240484237670898e-02 -1.550830155611038208e-01
1.290000000000000000e+03 4.118301391601562500e+00 -1.569715499877929688e+01 2.396193742752075195e-01 1.170600205659866333e-01 1.070038229227066040e-01 -1.913679391145706177e-01
1.291000000000000000e+03 1.726444482803344727e+00 -1.802979660034179688e+01 1.188241243362426758e-01 -1.111670374870300293e+00 -2.978538870811462402e-01 4.897616431117057800e-02
1.292000000000000000e+03 2.926965713500976562e+00 -2.190965461730957031e+01 2.462472617626190186e-01 1.121183261275291443e-01 1.075096800923347473e-01 7.853496670722961426e-01
1.293000000000000000e+03 2.911125898361206055e+00 -1.946665954589843750e+01 2.982119917869567871e-01 -1.935707777738571167e-01 3.139236941933631897e-02 4.439653754234313965e-01
1.294000000000000000e+03 1.717937946319580078e+00 -2.460681915283203125e+01 1.645356300286948681e-03 1.514912992715835571e-01 4.594099521636962891e-02 6.809692382812500000e-01
1.295000000000000000e+03 2.983573436737060547e+00 -2.560327529907226562e+01 -1.723981052637100220e-01 5.459887981414794922e-01 1.120772138237953186e-01 8.823565244674682617e-01
1.296000000000000000e+03 1.799657821655273438e+00 -2.591377258300781250e+01 -7.740382850170135498e-02 5.087862014770507812e-01 1.294147223234176636e-01 6.544229388236999512e-01
1.297000000000000000e+03 2.996167421340942383e+00 -9.880536079406738281e+00 -3.230149298906326294e-02 -3.050240874290466309e-01 -1.011976674199104309e-01 -3.428262770175933838e-01
1.298000000000000000e+03 2.882840633392333984e+00 -8.573990821838378906e+00 -5.650665611028671265e-02 -2.668956518173217773e-01 -9.702069312334060669e-02 -3.032546937465667725e-01
1.299000000000000000e+03 4.275348186492919922e+00 -3.631911087036132812e+01 -3.313190862536430359e-02 7.214211225509643555e-01 2.064867615699768066e-01 -9.459983557462692261e-02
1.300000000000000000e+03 3.187619924545288086e+00 2.133521842956542969e+01 -2.304383961018174887e-04 -1.695223181741312146e-05 -7.421719055855646729e-05 2.528711229388136417e-05
1.301000000000000000e+03 1.910425305366516113e+00 -3.543454360961914062e+01 -3.013868629932403564e-02 1.256220340728759766e+00 3.678244948387145996e-01 -1.168656647205352783e-01
1.302000000000000000e+03 5.049124240875244141e+00 -3.307915115356445312e+01 -2.141209095716476440e-01 3.620141744613647461e-01 4.436798021197319031e-02 1.822868175804615021e-02
1.303000000000000000e+03 3.004947423934936523e+00 -1.409376811981201172e+01 6.174144148826599121e-02 -4.355844259262084961e-01 -1.121528893709182739e-01 -3.190629482269287109e-01
1.304000000000000000e+03 2.855828285217285156e+00 1.155761814117431641e+01 1.403468922944739461e-04 8.329878255608491600e-06 4.460303171072155237e-05 -3.011055014212615788e-05
1.305000000000000000e+03 4.089691162109375000e+00 1.272737503051757812e+01 1.491404982516542077e-04 1.219229852722492069e-05 4.839984103455208242e-05 -4.067203553859144449e-05
1.306000000000000000e+03 3.037995815277099609e+00 1.435662555694580078e+01 1.552792818984016776e-04 1.280529249925166368e-05 5.042537304689176381e-05 -2.955010859295725822e-05
1.307000000000000000e+03 3.113982439041137695e+00 1.994042587280273438e+01 2.298648323630914092e-04 3.937243036489235237e-06 7.014062430243939161e-05 -2.791076076391618699e-05
1.308000000000000000e+03 3.271120548248291016e+00 2.274533653259277344e+01 2.418817166471853852e-04 4.380601603770628572e-05 8.570632053306326270e-05 -3.238180215703323483e-05
1.309000000000000000e+03 3.093202590942382812e+00 1.855444145202636719e+01 -2.181176241720095277e-04 -1.058744146575918421e-06 -6.575290899490937591e-05 3.694446786539629102e-05
1.310000000000000000e+03 7.050497436523437500e+01 -1.841347312927246094e+01 -9.833816289901733398e-01 1.242606544494628906e+01 3.432805061340332031e+00 6.579193472862243652e-01
1.311000000000000000e+03 4.428068923950195312e+01 1.928446388244628906e+01 5.538445115089416504e-01 6.622263908386230469e+00 2.152832508087158203e+00 1.100727081298828125e+00
1.312000000000000000e+03 4.317678070068359375e+01 1.027827453613281250e+01 1.889131665229797363e+00 8.093915939331054688e+00 2.994914293289184570e+00 3.231491088867187500e+00
1.313000000000000000e+03 4.535973358154296875e+01 3.086017799377441406e+01 3.509242534637451172e-01 4.729455471038818359e+00 1.524114012718200684e+00 1.841732263565063477e-01
1.314000000000000000e+03 8.976858139038085938e+00 -1.403325462341308594e+01 7.037340998649597168e-01 9.281745553016662598e-01 4.895725846290588379e-01 3.472473025321960449e-01
1.315000000000000000e+03 3.890401458740234375e+01 -1.129051494598388672e+01 9.892664551734924316e-01 1.028593540191650391e+01 3.382560491561889648e+00 2.111390233039855957e-01
1.316000000000000000e+03 1.554047584533691406e+01 -3.378450012207031250e+01 -7.143750190734863281e-01 -1.525866836309432983e-01 -2.600885033607482910e-01 1.424923241138458252e-01
1.317000000000000000e+03 6.819825744628906250e+01 -2.980970191955566406e+01 -1.277354359626770020e+00 5.480079174041748047e+00 1.260817408561706543e+00 1.718800216913223267e-01
1.318000000000000000e+03 7.073155975341796875e+01 -2.685942077636718750e+01 -1.587288975715637207e-01 8.964515686035156250e+00 2.641736030578613281e+00 -8.009907007217407227e-01
1.319000000000000000e+03 3.508272933959960938e+01 -3.188941574096679688e+01 -4.352503120899200439e-01 4.617059707641601562e+00 1.254542827606201172e+00 7.183941602706909180e-01
1.320000000000000000e+03 1.761469078063964844e+01 -3.672124481201171875e+01 -3.165507912635803223e-01 -1.871173977851867676e-01 -1.511004567146301270e-01 1.007605269551277161e-01
1.321000000000000000e+03 5.186199188232421875e+01 1.597041010856628418e+00 -4.538897514343261719e+00 3.668200075626373291e-01 -1.251623272895812988e+00 4.181548058986663818e-01
1.322000000000000000e+03 5.161860656738281250e+01 5.470314979553222656e+00 -8.267628550529479980e-01 5.227072834968566895e-01 -9.121667593717575073e-02 -2.344876378774642944e-01
1.323000000000000000e+03 2.926655578613281250e+01 -3.497463226318359375e+01 -3.668884038925170898e-01 1.586818218231201172e+00 3.659789562225341797e-01 8.951596021652221680e-01
1.324000000000000000e+03 1.453743457794189453e+01 1.211077785491943359e+01 -1.707392220851033926e-04 -2.126316030626185238e-05 -5.760071508120745420e-05 -7.153357728384435177e-05
1.325000000000000000e+03 4.776453018188476562e+00 -2.511048889160156250e+01 -1.459775716066360474e-01 6.369097828865051270e-01 1.472796499729156494e-01 9.034174084663391113e-01
1.326000000000000000e+03 4.051980495452880859e+00 -2.346918296813964844e+01 2.258671373128890991e-01 5.724363327026367188e-01 2.394910454750061035e-01 1.009382486343383789e+00
1.327000000000000000e+03 2.172027587890625000e+01 -3.597308731079101562e+01 -3.087176084518432617e-01 2.239720709621906281e-02 -8.589611947536468506e-02 8.066207170486450195e-02
1.328000000000000000e+03 2.742939758300781250e+01 -1.596827602386474609e+01 -3.369795680046081543e-01 -1.236442327499389648e-01 -1.381871402263641357e-01 8.459287881851196289e-01
1.329000000000000000e+03 3.955461502075195312e+01 3.566382408142089844e+00 -2.189910560846328735e-01 1.041760540008544922e+01 3.059584379196166992e+00 2.436844110488891602e+00
1.330000000000000000e+03 1.574944210052490234e+01 4.659458637237548828e+00 -6.707118882331997156e-05 1.237202241100021638e-06 -1.975019586097914726e-05 1.606206024007406086e-05
1.331000000000000000e+03 1.699031257629394531e+01 2.529367923736572266e+00 -1.235783429365255870e-06 -1.014815279631875455e-04 -3.081519389525055885e-05 -4.647637251764535904e-05
1.332000000000000000e+03 5.430846786499023438e+01 6.752159595489501953e-01 -3.827274084091186523e+00 1.342152357101440430e-01 -1.107917666435241699e+00 5.367313623428344727e-01
1.333000000000000000e+03 1.022093582153320312e+01 -3.217866897583007812e+01 -7.988395690917968750e-01 -5.537762045860290527e-01 -4.057847261428833008e-01 4.670211672782897949e-01
1.334000000000000000e+03 7.575007915496826172e+00 -3.016565704345703125e+01 -9.436087012290954590e-01 -5.118074417114257812e-01 -4.366248548030853271e-01 5.563949942588806152e-01
1.335000000000000000e+03 1.398711109161376953e+01 2.891257095336914062e+01 9.267425048165023327e-04 -1.452400319976732135e-04 2.344507520319893956e-04 2.532090911699924618e-05
1.336000000000000000e+03 1.609136199951171875e+01 8.146265029907226562e+00 1.209270194522105157e-04 2.401239180471748114e-05 4.348182483226992190e-05 5.399041765485890210e-05
1.337000000000000000e+03 1.670379066467285156e+01 6.911261081695556641e+00 -1.069727586582303047e-04 -2.794281135720666498e-05 -4.047467155032791197e-05 -5.734588557970710099e-05
1.338000000000000000e+03 3.701674270629882812e+01 -1.227297592163085938e+01 1.210083365440368652e+00 6.527621746063232422e+00 2.321311473846435547e+00 1.739223301410675049e-01
1.339000000000000000e+03 1.143024063110351562e+01 -3.380808639526367188e+01 -5.175850391387939453e-01 -3.947360813617706299e-01 -2.736963331699371338e-01 3.233832418918609619e-01
1.340000000000000000e+03 1.355892086029052734e+01 1.486236000061035156e+01 -1.988606090890243649e-04 -2.758691607596119866e-06 -6.048579234629869461e-05 -8.326663373736664653e-05
1.341000000000000000e+03 2.199897003173828125e+01 4.146977996826171875e+01 -5.469492636620998383e-03 -8.657992817461490631e-03 -4.238245543092489243e-03 -1.763984677381813526e-03
1.342000000000000000e+03 2.077049827575683594e+01 3.945790481567382812e+01 1.713571953587234020e-03 -5.832755472511053085e-03 -1.235755044035613537e-03 5.985907046124339104e-04
1.343000000000000000e+03 4.099343490600585938e+01 7.798700332641601562e+00 2.036957263946533203e+00 1.166352653503417969e+01 4.110145092010498047e+00 4.030972003936767578e+00
1.344000000000000000e+03 6.333229827880859375e+01 -3.385397720336914062e+01 -1.603650450706481934e+00 2.087150365114212036e-01 -4.184806346893310547e-01 -7.305041700601577759e-02
1.345000000000000000e+03 6.520713806152343750e+01 -3.641724014282226562e+01 -3.817548751831054688e-01 1.896774172782897949e+00 4.545058012008666992e-01 4.420489072799682617e-01
1.346000000000000000e+03 3.405968856811523438e+01 -2.781152486801147461e+00 -2.363882213830947876e-01 1.467135310173034668e+00 3.692241311073303223e-01 2.655207514762878418e-01
1.347000000000000000e+03 3.299222946166992188e+01 4.114717864990234375e+01 1.953157037496566772e-01 1.167304217815399170e-01 9.361384063959121704e-02 9.344504214823246002e-03
1.348000000000000000e+03 2.954924392700195312e+01 4.017730331420898438e+01 6.775178760290145874e-02 -1.038223728537559509e-01 -1.082117669284343719e-02 7.590986788272857666e-02
1.349000000000000000e+03 4.761291980743408203e+00 -2.249980354309082031e+01 3.615851402282714844e-01 1.208225965499877930e+00 4.709433317184448242e-01 8.783578276634216309e-01
1.350000000000000000e+03 4.905865192413330078e+00 -2.010447311401367188e+01 5.786316394805908203e-01 1.270276069641113281e+00 5.546723604202270508e-01 7.139493227005004883e-01
1.351000000000000000e+03 4.305786895751953125e+01 1.628490328788757324e+00 -3.183646440505981445e+00 8.129145622253417969e+00 1.483649611473083496e+00 2.379450082778930664e+00
1.352000000000000000e+03 6.136485576629638672e+00 -1.767030143737792969e+01 1.019319295883178711e+00 1.347003698348999023e+00 7.098969221115112305e-01 5.462927222251892090e-01
1.353000000000000000e+03 4.262923049926757812e+01 8.763021469116210938e+00 2.031822443008422852e+00 8.418748855590820312e+00 3.135171413421630859e+00 3.504575490951538086e+00
1.354000000000000000e+03 1.279300594329833984e+01 1.956512069702148438e+01 3.411092329770326614e-04 -1.840625191107392311e-05 9.681089431978762150e-05 6.221380317583680153e-05
1.355000000000000000e+03 1.279931545257568359e+01 1.797591972351074219e+01 -2.794408355839550495e-04 -1.522856291558127850e-05 -8.840081864036619663e-05 -6.761810072930529714e-05
1.356000000000000000e+03 4.320178604125976562e+01 2.823851585388183594e+00 -2.909596204757690430e+00 7.268372535705566406e+00 1.307632803916931152e+00 2.365053653717041016e+00
1.357000000000000000e+03 4.143332290649414062e+01 5.056367397308349609e+00 1.249309778213500977e-01 9.680386543273925781e+00 2.941595315933227539e+00 2.870459556579589844e+00
1.358000000000000000e+03 4.385515594482421875e+01 1.489044475555419922e+01 1.201630234718322754e+00 7.500478267669677734e+00 2.610632419586181641e+00 2.023668050765991211e+00
1.359000000000000000e+03 4.543629837036132812e+01 1.773448753356933594e+01 1.032694697380065918e+00 6.195168018341064453e+00 2.168358802795410156e+00 1.546387195587158203e+00
1.360000000000000000e+03 4.424151611328125000e+01 2.798263549804687500e+01 6.075546741485595703e-01 5.384419441223144531e+00 1.797592282295227051e+00 -6.538352370262145996e-02
1.361000000000000000e+03 1.535928440093994141e+01 3.358003997802734375e+01 2.901936240959912539e-04 -2.853899204637855291e-04 1.441110043742810376e-06 -2.997586561832576990e-04
1.362000000000000000e+03 1.512591838836669922e+01 3.205814361572265625e+01 1.747158239595592022e-03 -5.725266528315842152e-04 3.523894702084362507e-04 9.814988152356818318e-05
1.363000000000000000e+03 2.940050697326660156e+01 -4.299163818359375000e+00 1.642698943614959717e-01 -4.861265718936920166e-01 -9.655699878931045532e-02 -6.718915104866027832e-01
1.364000000000000000e+03 1.459772777557373047e+01 -1.190667438507080078e+01 5.327419638633728027e-01 1.602924615144729614e-01 2.079103291034698486e-01 3.661022484302520752e-01
1.365000000000000000e+03 1.555426120758056641e+01 -1.414506530761718750e+01 7.716477513313293457e-01 1.503960695117712021e-02 2.360062152147293091e-01 2.886793613433837891e-01
1.366000000000000000e+03 3.864594221115112305e+00 -1.898256874084472656e+01 5.187788605690002441e-01 2.706588506698608398e-01 2.368313223123550415e-01 4.220972061157226562e-01
1.367000000000000000e+03 4.021928310394287109e+00 -2.131547355651855469e+01 4.348976314067840576e-01 6.699676513671875000e-01 3.314595818519592285e-01 7.711768746376037598e-01
1.368000000000000000e+03 3.649331665039062500e+01 3.633384323120117188e+01 -3.051869943737983704e-02 5.583965182304382324e-01 1.583633422851562500e-01 -3.414484262466430664e-01
1.369000000000000000e+03 4.975165843963623047e+00 -2.373544883728027344e+01 1.617199629545211792e-01 1.228656530380249023e+00 4.171129465103149414e-01 7.964767217636108398e-01
1.370000000000000000e+03 6.379564666748046875e+01 -1.043109416961669922e+00 -1.317396879196166992e+00 3.490195751190185547e+00 6.518396735191345215e-01 -1.493141412734985352e+00
1.371000000000000000e+03 3.601118469238281250e+01 -2.589691352844238281e+01 1.656228780746459961e+00 8.116795539855957031e+00 2.931907415390014648e+00 1.254452109336853027e+00
1.372000000000000000e+03 4.402217864990234375e+01 1.635491943359375000e+01 9.847389459609985352e-01 7.206863880157470703e+00 2.457480907440185547e+00 1.747677445411682129e+00
1.373000000000000000e+03 5.432993316650390625e+01 -3.585319900512695312e+01 -7.913827896118164062e-01 1.642867326736450195e-01 -1.881288141012191772e-01 -4.122938215732574463e-01
1.374000000000000000e+03 5.910808563232421875e+01 -3.609587860107421875e+01 -6.856085062026977539e-01 -6.387327909469604492e-01 -3.973023891448974609e-01 -5.196017026901245117e-01
1.375000000000000000e+03 1.294584083557128906e+01 2.575795364379882812e+01 6.481845630332827568e-04 -3.181618376402184367e-05 1.849105174187570810e-04 9.612061694497242570e-05
1.376000000000000000e+03 3.828982162475585938e+01 1.893866658210754395e-01 -1.602913856506347656e+00 8.202183723449707031e+00 1.979781031608581543e+00 1.056683182716369629e+00
1.377000000000000000e+03 4.180103683471679688e+01 3.934447050094604492e+00 -1.101980090141296387e+00 9.144001007080078125e+00 2.412606239318847656e+00 2.413520574569702148e+00
1.378000000000000000e+03 5.161804580688476562e+01 3.542690038681030273e+00 -2.473648786544799805e+00 3.349547684192657471e-01 -6.416081786155700684e-01 -2.057765722274780273e-01
1.379000000000000000e+03 3.561829757690429688e+01 -1.984305024147033691e+00 -6.211964488029479980e-01 3.471120834350585938e+00 8.549773097038269043e-01 7.563868165016174316e-01
1.380000000000000000e+03 7.085590362548828125e+01 -3.040480995178222656e+01 -1.208290338516235352e+00 7.997254848480224609e+00 2.036689281463623047e+00 -5.035137534141540527e-01
1.381000000000000000e+03 1.401452255249023438e+01 2.255789375305175781e+01 -3.927018260583281517e-04 3.921259121852926910e-05 -1.060467766365036368e-04 -2.610573801575810649e-06
1.382000000000000000e+03 2.772182273864746094e+01 -3.112695932388305664e+00 -6.357008814811706543e-01 -2.534648776054382324e-01 -2.667497396469116211e-01 -5.247485637664794922e-01
1.383000000000000000e+03 2.795728874206542969e+01 -4.273806095123291016e+00 -2.140866778790950775e-02 -3.885389566421508789e-01 -1.229842901229858398e-01 -5.817714929580688477e-01
1.384000000000000000e+03 3.187060928344726562e+01 -3.203118515014648438e+01 4.126369487494230270e-03 2.965018033981323242e+00 8.907433152198791504e-01 1.491510391235351562e+00
1.385000000000000000e+03 3.414012527465820312e+01 -3.273683547973632812e+01 -6.899510622024536133e-01 4.109315872192382812e+00 1.025809407234191895e+00 8.266167640686035156e-01
1.386000000000000000e+03 5.736754608154296875e+01 1.172086477279663086e+00 -2.611825942993164062e+00 2.767286598682403564e-01 -7.005292177200317383e-01 -2.889298200607299805e-01
1.387000000000000000e+03 5.610321426391601562e+01 1.510136008262634277e+00 -2.812116384506225586e+00 2.598182260990142822e-01 -7.656894326210021973e-01 -9.824536740779876709e-02
1.388000000000000000e+03 4.348544692993164062e+01 3.436680221557617188e+01 -2.037200033664703369e-01 4.078905105590820312e+00 1.162555456161499023e+00 -8.786427229642868042e-02
1.389000000000000000e+03 4.064086532592773438e+01 3.621599960327148438e+01 -2.452223002910614014e-01 2.751350879669189453e+00 7.518385648727416992e-01 -4.594500958919525146e-01
1.390000000000000000e+03 5.796398162841796875e+00 -2.965071678161621094e+01 -6.639702916145324707e-01 8.120875805616378784e-02 -1.748284697532653809e-01 3.943176269531250000e-01
1.391000000000000000e+03 4.674555301666259766e+00 -2.818263626098632812e+01 -5.654641985893249512e-01 4.552145898342132568e-01 -3.307488933205604553e-02 5.468413233757019043e-01
1.392000000000000000e+03 3.637818908691406250e+01 -2.846141052246093750e+01 4.712449610233306885e-01 6.334732055664062500e+00 2.041793107986450195e+00 7.585881948471069336e-01
1.393000000000000000e+03 3.097532653808593750e+01 -3.988394498825073242e+00 1.789191961288452148e-01 -3.547038435935974121e-01 -5.273539572954177856e-02 -5.302833318710327148e-01
1.394000000000000000e+03 6.351692962646484375e+01 -3.624592208862304688e+01 -4.294244050979614258e-01 6.624864339828491211e-01 6.991860270500183105e-02 2.510569393634796143e-01
1.395000000000000000e+03 3.537777709960937500e+01 -1.785501480102539062e+01 -1.978009581565856934e+00 5.703317165374755859e+00 1.117592334747314453e+00 -1.841928064823150635e-01
1.396000000000000000e+03 4.697996902465820312e+01 2.658854961395263672e+00 -3.620081663131713867e+00 -7.206482291221618652e-01 -1.302219033241271973e+00 1.068603992462158203e+00
1.397000000000000000e+03 4.839085769653320312e+01 2.770761251449584961e+00 -4.028078079223632812e+00 -6.610132455825805664e-01 -1.406727313995361328e+00 1.167199090123176575e-01
1.398000000000000000e+03 4.124891662597656250e+01 2.354796528816223145e-01 -2.295886278152465820e+00 1.023120403289794922e+01 2.380595445632934570e+00 9.692623615264892578e-01
1.399000000000000000e+03 3.117409515380859375e+01 -3.450324630737304688e+01 -5.169439911842346191e-01 2.506351709365844727e+00 5.968223214149475098e-01 1.105269670486450195e+00
1.400000000000000000e+03 7.520366668701171875e+01 -2.089691925048828125e+01 -2.543983161449432373e-01 1.008060455322265625e+01 2.947861909866333008e+00 -1.484420061111450195e+00
1.401000000000000000e+03 6.254647064208984375e+01 -5.456696748733520508e-01 -1.514617443084716797e+00 2.352137804031372070e+00 2.512561082839965820e-01 -1.380569458007812500e+00
1.402000000000000000e+03 3.079920578002929688e+01 -1.593823146820068359e+01 -9.034538269042968750e-01 -5.737224817276000977e-01 -4.431529045104980469e-01 1.084477663040161133e+00
1.403000000000000000e+03 7.060493469238281250e+01 -2.859405517578125000e+01 -9.078250527381896973e-01 8.327133178710937500e+00 2.225792407989501953e+00 -7.131941318511962891e-01
1.404000000000000000e+03 6.413594055175781250e+01 2.800189852714538574e-01 -1.358265042304992676e+00 3.769159555435180664e+00 7.232683300971984863e-01 -1.609230637550354004e+00
1.405000000000000000e+03 4.367552566528320312e+01 3.262846374511718750e+01 6.641728430986404419e-02 4.439278125762939453e+00 1.351708650588989258e+00 -5.159542709589004517e-02
1.406000000000000000e+03 3.631236267089843750e+01 -1.864638519287109375e+01 -2.195377826690673828e+00 6.944249629974365234e+00 1.424661517143249512e+00 1.395037412643432617e+00
1.407000000000000000e+03 4.021003341674804688e+01 -1.809538078308105469e+01 -2.814799845218658447e-01 8.857129096984863281e+00 2.572694778442382812e+00 3.447500765323638916e-01
1.408000000000000000e+03 6.594671249389648438e+00 -1.496925449371337891e+01 5.693523287773132324e-01 1.101544737815856934e+00 5.012691617012023926e-01 1.089348495006561279e-01
1.409000000000000000e+03 4.380160140991210938e+01 3.100699234008789062e+01 3.591065406799316406e-01 4.759794712066650391e+00 1.535670399665832520e+00 -1.592247560620307922e-02
1.410000000000000000e+03 3.120559692382812500e+01 -1.356599998474121094e+01 9.972694516181945801e-01 1.716913431882858276e-01 3.506882488727569580e-01 6.933164000511169434e-01
1.411000000000000000e+03 2.939879989624023438e+01 -1.598816490173339844e+01 -5.882884263992309570e-01 -2.063787877559661865e-01 -2.384001612663269043e-01 1.028138995170593262e+00
1.412000000000000000e+03 3.788073730468750000e+01 -2.839871215820312500e+01 4.653945267200469971e-01 5.732030391693115234e+00 1.859227418899536133e+00 1.049741730093955994e-01
1.413000000000000000e+03 3.757371902465820312e+01 -2.690234565734863281e+01 8.699411153793334961e-01 6.356569290161132812e+00 2.167953252792358398e+00 3.249863386154174805e-01
1.414000000000000000e+03 4.197191619873046875e+01 2.864649772644042969e+00 -2.577961444854736328e+00 9.171504974365234375e+00 1.978062987327575684e+00 2.067527055740356445e+00
1.415000000000000000e+03 1.230554866790771484e+01 -1.390461540222167969e+01 9.374507069587707520e-01 3.956084251403808594e-01 3.999177515506744385e-01 4.273590147495269775e-01
1.416000000000000000e+03 1.122957038879394531e+01 -1.404727745056152344e+01 9.513413906097412109e-01 6.432693600654602051e-01 4.783832132816314697e-01 5.337997674942016602e-01
1.417000000000000000e+03 1.885586547851562500e+01 3.508442687988281250e+01 2.264637267217040062e-03 -1.633303181733936071e-04 6.303920526988804340e-04 -4.437991301529109478e-04
1.418000000000000000e+03 6.734176635742187500e+01 -4.113954067230224609e+00 -2.714183926582336426e-01 6.183158397674560547e+00 1.773522019386291504e+00 -1.300913214683532715e+00
1.419000000000000000e+03 1.280253505706787109e+01 2.107092094421386719e+01 -3.815296804532408714e-04 4.220473783789202571e-05 -1.017974791466258466e-04 -6.653876334894448519e-05
1.420000000000000000e+03 5.748775100708007812e+01 -3.727352905273437500e+01 -5.201510190963745117e-01 -4.801882803440093994e-01 -3.001017868518829346e-01 -4.305628240108489990e-01
1.421000000000000000e+03 5.393002510070800781e+00 -1.463879871368408203e+01 2.864485085010528564e-01 5.714055299758911133e-01 2.573561966419219971e-01 -1.833865493535995483e-01
1.422000000000000000e+03 7.381384372711181641e+00 -3.189185333251953125e+01 -5.001877546310424805e-01 -2.508970797061920166e-01 -2.253254354000091553e-01 2.166554629802703857e-01
1.423000000000000000e+03 8.991451263427734375e+00 -3.225062942504882812e+01 -6.313087940216064453e-01 -5.054404735565185547e-01 -3.410247564315795898e-01 3.016368448734283447e-01
1.424000000000000000e+03 4.669538974761962891e+00 -2.661487960815429688e+01 -5.014689564704895020e-01 5.437563657760620117e-01 1.268622837960720062e-02 8.394050598144531250e-01
1.425000000000000000e+03 6.498075866699218750e+01 -1.454237103462219238e+00 -1.129765629768371582e+00 4.454289436340332031e+00 9.973571300506591797e-01 -1.429709672927856445e+00
1.426000000000000000e+03 3.743329620361328125e+01 -1.964230537414550781e+01 -8.750900030136108398e-01 7.303498744964599609e+00 1.928522586822509766e+00 1.844668149948120117e+00
1.427000000000000000e+03 4.372492599487304688e+01 6.819861888885498047e+00 1.196495056152343750e+00 6.168289184570312500e+00 2.209435224533081055e+00 2.885161638259887695e+00
1.428000000000000000e+03 6.917150878906250000e+01 -1.167761802673339844e+01 1.399358987808227539e+00 9.611650466918945312e+00 3.303302764892578125e+00 -5.341214179992675781e+00
1.429000000000000000e+03 9.528941154479980469e+00 -4.225173473358154297e+00 -2.368381172418594360e-01 1.230450794100761414e-01 -3.413791209459304810e-02 -7.575114816427230835e-02
1.430000000000000000e+03 1.026991558074951172e+01 -4.277885437011718750e+00 -2.368177026510238647e-01 1.236662790179252625e-01 -3.394542634487152100e-02 -4.397388547658920288e-02
1.431000000000000000e+03 1.633941841125488281e+01 2.416462898254394531e+00 -5.530095222638919950e-06 9.541978215565904975e-05 2.696690717129968107e-05 2.064141335722524673e-05
1.432000000000000000e+03 1.768228340148925781e+01 2.680871009826660156e+00 4.026136957691051066e-05 8.496703230775892735e-05 3.756852311198599637e-05 6.668424612144008279e-05
1.433000000000000000e+03 1.784392738342285156e+01 4.723678588867187500e+00 -8.593669917900115252e-05 -4.738049028674140573e-05 -3.999515683972276747e-05 -6.630883581237867475e-05
1.434000000000000000e+03 1.381716918945312500e+01 3.495171785354614258e+00 -6.600573397008702159e-05 -3.878555435221642256e-05 -3.143738649669103324e-05 -8.492220331390853971e-06
1.435000000000000000e+03 1.100743865966796875e+01 -4.346583366394042969e+00 -2.289793342351913452e-01 1.175886988639831543e-01 -3.341718763113021851e-02 -1.351759117096662521e-02
1.436000000000000000e+03 1.571856880187988281e+01 3.008304119110107422e+00 1.598969356564339250e-05 6.961204053368419409e-05 2.568051968410145491e-05 -1.321581294178031385e-05
1.437000000000000000e+03 1.451074886322021484e+01 3.334053993225097656e+00 6.963076884858310223e-05 3.781437408179044724e-05 3.223354360670782626e-05 -2.201144752689287998e-06
1.438000000000000000e+03 7.217733383178710938e+00 -3.372363805770874023e+00 -2.238831818103790283e-01 5.812500789761543274e-02 -4.972745105624198914e-02 -1.436732858419418335e-01
1.439000000000000000e+03 8.778473854064941406e+00 -4.185449123382568359e+00 -2.317133992910385132e-01 1.164004579186439514e-01 -3.459388017654418945e-02 -1.061885505914688110e-01
1.440000000000000000e+03 1.570001506805419922e+01 2.403970479965209961e+00 -1.132041597884381190e-05 -7.966037082951515913e-05 -2.729423613345716149e-05 -1.005722651825635694e-06
1.441000000000000000e+03 1.402923965454101562e+01 -3.945545911788940430e+00 -2.201464325189590454e-01 3.678122535347938538e-02 -5.500956252217292786e-02 8.905675262212753296e-02
1.442000000000000000e+03 1.723870277404785156e+01 -4.204881191253662109e+00 -1.179459840059280396e-01 -3.132062405347824097e-02 -4.477998241782188416e-02 1.338196396827697754e-01
1.443000000000000000e+03 9.824881553649902344e+00 4.083088874816894531e+00 5.695165600627660751e-05 3.728341835085302591e-05 2.827052230713889003e-05 1.075696854968555272e-05
1.444000000000000000e+03 4.828643321990966797e+00 6.089474678039550781e+00 -1.532241753920970950e-06 -1.571179564052727073e-05 -5.173211320652626455e-06 4.241235001245513558e-05
1.445000000000000000e+03 8.201780319213867188e+00 4.859984874725341797e+00 -5.544368832488544285e-05 -5.060465628048405051e-05 -3.181450301781296730e-05 -1.209310721606016159e-05
1.446000000000000000e+03 7.372407436370849609e+00 3.357916355133056641e+00 3.917039794032461941e-05 4.437355528352782130e-05 2.506318560335785151e-05 4.297939995012711734e-06
1.447000000000000000e+03 3.530957698822021484e+00 3.697750329971313477e+00 -5.357615373213775456e-05 -1.779187732608988881e-05 -2.141040931746829301e-05 3.521471808198839426e-05
1.448000000000000000e+03 2.665960073471069336e+00 5.927568435668945312e+00 9.443720773560926318e-05 1.325655011896742508e-05 3.230812581023201346e-05 -2.317627695447299629e-05
1.449000000000000000e+03 2.152405977249145508e+00 4.162634849548339844e+00 3.255349156461306848e-06 1.414704570379399229e-06 1.401016106683528051e-06 7.796365025569684803e-06
1.450000000000000000e+03 2.815904378890991211e+00 3.808306694030761719e+00 7.275117241078987718e-05 -7.099547474354039878e-06 1.969548611668869853e-05 -1.519756824563955888e-05
1.451000000000000000e+03 1.328285884857177734e+01 -4.615475654602050781e+00 -1.817090213298797607e-01 7.820019125938415527e-02 -3.105265274643898010e-02 7.968904823064804077e-02
1.452000000000000000e+03 1.308007907867431641e+01 3.659072160720825195e+00 5.525858796318061650e-05 4.491473373491317034e-05 3.005199505423661321e-05 7.514704520872328430e-06
1.453000000000000000e+03 1.175232315063476562e+01 -4.429234504699707031e+00 -2.196541130542755127e-01 1.093606427311897278e-01 -3.308804333209991455e-02 1.806427724659442902e-02
1.454000000000000000e+03 1.250840282440185547e+01 -4.521627902984619141e+00 -2.001202255487442017e-01 9.456267207860946655e-02 -3.166726231575012207e-02 4.970885068178176880e-02
1.455000000000000000e+03 2.319984817504882812e+01 -5.010566234588623047e+00 9.933469444513320923e-02 -1.636111438274383545e-01 -1.928293518722057343e-02 -7.978175580501556396e-02
1.456000000000000000e+03 1.650409889221191406e+01 -4.922201633453369141e+00 -7.132522016763687134e-02 -1.430526189506053925e-02 -2.568914555013179779e-02 1.537482440471649170e-01
1.457000000000000000e+03 1.973885726928710938e+01 -4.231446743011474609e+00 -4.944255203008651733e-02 -7.058390229940414429e-02 -3.600793704390525818e-02 9.412047266960144043e-02
1.458000000000000000e+03 1.986076927185058594e+01 -4.996798038482666016e+00 3.156855702400207520e-02 -9.469219297170639038e-02 -1.893709041178226471e-02 1.082552447915077209e-01
1.459000000000000000e+03 6.540135383605957031e+00 -4.116968154907226562e+00 -1.879413872957229614e-01 5.705678462982177734e-02 -3.926537930965423584e-02 -1.829364299774169922e-01
1.460000000000000000e+03 4.495452404022216797e+00 -4.111378192901611328e+00 -1.174279004335403442e-01 -2.638857439160346985e-02 -4.314494132995605469e-02 -1.964250653982162476e-01
1.461000000000000000e+03 5.811941146850585938e+00 -4.095215320587158203e+00 -1.618861705064773560e-01 2.796845696866512299e-02 -4.017531499266624451e-02 -1.923478543758392334e-01
1.462000000000000000e+03 4.966928005218505859e+00 -3.383471488952636719e+00 -1.444390565156936646e-01 -5.515792407095432281e-03 -4.498645663261413574e-02 -1.724660396575927734e-01
1.463000000000000000e+03 3.615527153015136719e+00 -4.782707214355468750e+00 -8.449746668338775635e-02 -8.708289265632629395e-02 -5.147410929203033447e-02 -2.079798579216003418e-01
1.464000000000000000e+03 7.281586647033691406e+00 -4.137478351593017578e+00 -2.047948688268661499e-01 8.195225149393081665e-02 -3.685278445482254028e-02 -1.603032648563385010e-01
1.465000000000000000e+03 3.594553470611572266e+00 -3.708075284957885742e+00 -9.164540469646453857e-02 -5.770445615053176880e-02 -4.480495676398277283e-02 -1.709672957658767700e-01
1.466000000000000000e+03 4.127853393554687500e+00 -5.885148048400878906e+00 -9.824755042791366577e-02 -7.208324223756790161e-02 -5.109923705458641052e-02 -2.597297430038452148e-01
1.467000000000000000e+03 2.962918758392333984e+00 -6.242697715759277344e+00 -6.307742744684219360e-02 -1.715540885925292969e-01 -7.038944959640502930e-02 -2.407421320676803589e-01
1.468000000000000000e+03 1.407188510894775391e+01 -4.707364082336425781e+00 -1.538492143154144287e-01 5.555893480777740479e-02 -2.948708273470401764e-02 1.082307100296020508e-01
1.469000000000000000e+03 1.486813640594482422e+01 -4.796488285064697266e+00 -1.287307888269424438e-01 3.338120877742767334e-02 -2.860487438738346100e-02 1.289774924516677856e-01
1.470000000000000000e+03 7.089249420166015625e+01 -1.076709556579589844e+01 -3.856498599052429199e-01 1.366528415679931641e+01 3.983890295028686523e+00 -1.849617004394531250e+00
1.471000000000000000e+03 7.130748748779296875e+01 -1.126472377777099609e+01 1.993118822574615479e-01 1.442403697967529297e+01 4.387004852294921875e+00 -6.000962257385253906e-01
1.472000000000000000e+03 1.567877769470214844e+01 -4.870327472686767578e+00 -9.804104268550872803e-02 8.533074520528316498e-03 -2.685238979756832123e-02 1.469220221042633057e-01
1.473000000000000000e+03 7.376071166992187500e+01 -1.317157268524169922e+01 3.604387521743774414e+00 1.086211395263671875e+01 4.339950084686279297e+00 4.042800068855285645e-01
1.474000000000000000e+03 7.409281158447265625e+01 -1.426371765136718750e+01 2.905905961990356445e+00 1.050175189971923828e+01 4.022297382354736328e+00 -1.029964447021484375e+00
1.475000000000000000e+03 1.230767917633056641e+01 3.814054012298583984e+00 -5.429046723293140531e-05 -4.383361010695807636e-05 -2.943722392956260592e-05 -1.387496240567998029e-06
1.476000000000000000e+03 1.150064086914062500e+01 3.944038391113281250e+00 5.829963265568949282e-05 3.735204154509119689e-05 2.869550189643632621e-05 9.953635071724420413e-07
1.477000000000000000e+03 9.857151031494140625e+00 4.887056350708007812e+00 -6.433709495468065143e-05 -3.957493390771560371e-05 -3.117360756732523441e-05 -1.677312684478238225e-05
1.478000000000000000e+03 1.816659927368164062e+01 -4.988861560821533203e+00 -1.600771583616733551e-02 -5.824428796768188477e-02 -2.227560244500637054e-02 1.482442766427993774e-01
1.479000000000000000e+03 7.279517364501953125e+01 -1.534895515441894531e+01 2.730167388916015625e+00 1.297015285491943359e+01 4.710095882415771484e+00 -2.492478847503662109e+00
1.480000000000000000e+03 7.162611389160156250e+01 -1.664281463623046875e+01 -7.969814538955688477e-01 1.498793792724609375e+01 4.257287025451660156e+00 -1.012151956558227539e+00
1.481000000000000000e+03 2.399425315856933594e+01 -4.100634098052978516e+00 -4.778719320893287659e-02 -1.079273968935012817e-01 -4.671437665820121765e-02 -1.495207250118255615e-01
1.482000000000000000e+03 2.312638854980468750e+01 -4.102656841278076172e+00 -3.619070351123809814e-02 -9.640576690435409546e-02 -3.977894037961959839e-02 -7.757114619016647339e-02
1.483000000000000000e+03 2.404326820373535156e+01 -5.065770149230957031e+00 1.193529143929481506e-01 -2.080774456262588501e-01 -2.661735936999320984e-02 -1.597761809825897217e-01
1.484000000000000000e+03 7.018920135498046875e+01 -1.643988418579101562e+01 -1.505515456199645996e+00 1.472099494934082031e+01 3.964643955230712891e+00 1.744405269622802734e+00
1.485000000000000000e+03 2.154857254028320312e+01 -4.983899593353271484e+00 6.874825060367584229e-02 -1.247969940304756165e-01 -1.681462302803993225e-02 3.336523845791816711e-02
1.486000000000000000e+03 1.912645721435546875e+01 -1.451720714569091797e+01 5.146517157554626465e-01 -1.570158749818801880e-01 1.072907596826553345e-01 2.432271093130111694e-01
1.487000000000000000e+03 2.212212181091308594e+01 -1.628136253356933594e+01 1.610969901084899902e-01 -8.933224529027938843e-02 2.152942307293415070e-02 2.544429004192352295e-01
1.488000000000000000e+03 7.692396545410156250e+01 -1.512081241607666016e+01 8.284530043601989746e-01 7.550076961517333984e+00 2.513558864593505859e+00 -7.869400978088378906e-01
1.489000000000000000e+03 2.208504867553710938e+01 -1.520871734619140625e+01 2.914313375949859619e-01 -1.632807105779647827e-01 3.844519332051277161e-02 3.159948289394378662e-01
1.490000000000000000e+03 2.018819236755371094e+01 -1.482674598693847656e+01 4.047171175479888916e-01 -1.604750603437423706e-01 7.327261567115783691e-02 2.399163693189620972e-01
1.491000000000000000e+03 6.993893432617187500e+01 -9.956192970275878906e+00 -2.211093902587890625e-01 1.030415344238281250e+01 3.024913072586059570e+00 -3.009404420852661133e+00
1.492000000000000000e+03 7.270414733886718750e+01 -2.005997848510742188e+01 -5.685984492301940918e-01 1.161827564239501953e+01 3.314903020858764648e+00 -7.488373517990112305e-01
1.493000000000000000e+03 2.562218093872070312e+01 -1.642238998413085938e+01 -2.746461629867553711e-01 -2.242165990173816681e-02 -8.912035077810287476e-02 4.268532395362854004e-01
1.494000000000000000e+03 2.460132789611816406e+01 -1.503215217590332031e+01 1.645418405532836914e-01 -1.920553743839263916e-01 -8.254059590399265289e-03 5.245541334152221680e-01
1.495000000000000000e+03 5.910396194458007812e+01 1.990500807762145996e+00 -1.744475126266479492e+00 9.346210360527038574e-01 -2.429562360048294067e-01 -9.861454963684082031e-01
1.496000000000000000e+03 3.570787429809570312e+01 -1.679623985290527344e+01 -1.576664924621582031e+00 5.589226722717285156e+00 1.203768610954284668e+00 3.207195997238159180e-01
1.497000000000000000e+03 3.880792617797851562e+01 -6.370590209960937500e+00 1.440790534019470215e+00 9.638490676879882812e+00 3.323784351348876953e+00 1.209279894828796387e+00
1.498000000000000000e+03 3.853983688354492188e+01 -1.001315975189208984e+01 1.375107645988464355e+00 9.533864021301269531e+00 3.272691488265991211e+00 6.553778648376464844e-01
1.499000000000000000e+03 4.590619277954101562e+01 -2.879520988464355469e+01 -9.847006201744079590e-02 1.862051725387573242e+00 5.290744900703430176e-01 -6.428087353706359863e-01
1.500000000000000000e+03 2.653337860107421875e+01 -1.632847404479980469e+01 -5.081319212913513184e-01 -3.374101221561431885e-02 -1.625618785619735718e-01 6.042457818984985352e-01
1.501000000000000000e+03 2.474832344055175781e+01 -3.624302291870117188e+01 -2.488401532173156738e-01 3.811591267585754395e-01 3.969568759202957153e-02 2.083418220281600952e-01
1.502000000000000000e+03 9.136338233947753906e+00 -1.285925292968750000e+01 3.370251059532165527e-01 8.550550341606140137e-01 3.576240539550781250e-01 2.427906990051269531e-01
1.503000000000000000e+03 5.487786102294921875e+01 1.872798442840576172e+00 -3.005452632904052734e+00 3.483357429504394531e-01 -7.971350550651550293e-01 5.688113719224929810e-02
1.504000000000000000e+03 5.245890426635742188e+01 4.668106079101562500e+00 -1.401508808135986328e+00 5.083789229393005371e-01 -2.679389417171478271e-01 -3.608674108982086182e-01
1.505000000000000000e+03 9.436964988708496094e+00 2.108423042297363281e+01 2.443304692860692739e-04 5.467444862006232142e-05 8.970147609943524003e-05 6.117200973676517606e-05
1.506000000000000000e+03 4.226316070556640625e+01 -2.111840820312500000e+01 -2.540365755558013916e-01 5.630766391754150391e+00 1.613018870353698730e+00 -6.107285022735595703e-01
1.507000000000000000e+03 4.530216217041015625e+01 -2.738781547546386719e+01 6.132788956165313721e-02 2.125434875488281250e+00 6.560288667678833008e-01 -6.408466100692749023e-01
1.508000000000000000e+03 3.781785202026367188e+01 -2.001928091049194336e+00 -7.220517396926879883e-01 7.196569442749023438e+00 1.942355275154113770e+00 9.702443480491638184e-01
1.509000000000000000e+03 7.087655639648437500e+01 -2.374494552612304688e+01 5.017376542091369629e-01 1.033845806121826172e+01 3.252058506011962891e+00 -3.158754706382751465e-01
1.510000000000000000e+03 7.177658081054687500e+01 -2.103064918518066406e+01 -2.904443144798278809e-01 1.125718593597412109e+01 3.290022373199462891e+00 -2.470237612724304199e-01
1.511000000000000000e+03 1.823458290100097656e+01 3.748484611511230469e+00 8.477288793073967099e-05 6.431580550270155072e-05 4.472660657484084368e-05 6.834724626969546080e-05
1.512000000000000000e+03 3.928204727172851562e+01 -1.471733450889587402e+00 -8.797272443771362305e-01 9.283121109008789062e+00 2.521018266677856445e+00 9.449185729026794434e-01
1.513000000000000000e+03 4.275091171264648438e+01 -2.393701934814453125e+01 1.330710202455520630e-01 4.064042568206787109e+00 1.259134054183959961e+00 -5.200772881507873535e-01
1.514000000000000000e+03 7.433819580078125000e+01 -1.763180923461914062e+01 1.362260282039642334e-01 1.111547183990478516e+01 3.375509262084960938e+00 -1.855892896652221680e+00
1.515000000000000000e+03 7.536818695068359375e+01 1.443012619018554688e+01 5.617301911115646362e-02 6.212572097778320312e+00 1.880623459815979004e+00 -6.964799761772155762e-01
1.516000000000000000e+03 7.555622100830078125e+01 2.141644209623336792e-01 -3.560702800750732422e-01 7.910346508026123047e+00 2.266282796859741211e+00 -3.721044585108757019e-02
1.517000000000000000e+03 7.130532836914062500e+01 3.242802429199218750e+01 1.502560228109359741e-01 4.955019474029541016e+00 1.531582713127136230e+00 -1.467580944299697876e-01
1.518000000000000000e+03 7.495878601074218750e+01 3.202927398681640625e+01 5.589178204536437988e-02 5.095208644866943359e+00 1.545330047607421875e+00 -1.176632419228553772e-01
1.519000000000000000e+03 7.681307983398437500e+01 1.569150924682617188e+00 -1.854271143674850464e-01 8.054060935974121094e+00 2.360590219497680664e+00 -9.060524404048919678e-02
1.520000000000000000e+03 7.551844787597656250e+01 1.606198310852050781e+00 -3.009708523750305176e-01 7.766271114349365234e+00 2.239590167999267578e+00 -1.930326968431472778e-01
1.521000000000000000e+03 7.543798828125000000e+01 7.340442657470703125e+00 -1.257549524307250977e-01 7.101750373840332031e+00 2.092798709869384766e+00 -6.521207094192504883e-01
1.522000000000000000e+03 7.675796508789062500e+01 8.655023574829101562e+00 -4.566274210810661316e-02 7.274470329284667969e+00 2.168642282485961914e+00 -5.208688378334045410e-01
1.523000000000000000e+03 7.542793273925781250e+01 1.020037937164306641e+01 -3.100502677261829376e-02 6.738494396209716797e+00 2.012246847152709961e+00 -7.222889661788940430e-01
1.524000000000000000e+03 7.544637298583984375e+01 4.450426101684570312e+00 -2.209621518850326538e-01 7.453547000885009766e+00 2.169775485992431641e+00 -4.686123430728912354e-01
1.525000000000000000e+03 7.544041442871093750e+01 5.896207809448242188e+00 -1.803953498601913452e-01 7.286920070648193359e+00 2.131957292556762695e+00 -5.691817402839660645e-01
1.526000000000000000e+03 7.416305541992187500e+01 3.032235622406005859e+00 -3.903850018978118896e-01 7.319054126739501953e+00 2.078600883483886719e+00 -4.937677085399627686e-01
1.527000000000000000e+03 7.541777038574218750e+01 1.160407924652099609e+01 2.612639917060732841e-03 6.560043334960937500e+00 1.968796730041503906e+00 -7.250849604606628418e-01
1.528000000000000000e+03 7.406655120849609375e+01 1.031270503997802734e+01 -3.813521936535835266e-02 6.396601676940917969e+00 1.907539963722229004e+00 -8.830967545509338379e-01
1.529000000000000000e+03 7.238934326171875000e+01 -1.104508590698242188e+01 5.473622679710388184e-01 1.272209167480468750e+01 3.980836153030395508e+00 5.808123350143432617e-01
1.530000000000000000e+03 7.757889556884765625e+01 -9.546760559082031250e+00 1.596613228321075439e-02 7.193938255310058594e+00 2.162971258163452148e+00 1.052938461303710938e+00
1.531000000000000000e+03 7.682405090332031250e+01 1.702225494384765625e+01 4.123269394040107727e-02 6.153896331787109375e+00 1.858538627624511719e+00 -4.651482403278350830e-01
1.532000000000000000e+03 7.567129516601562500e+01 1.836853027343750000e+01 8.898637443780899048e-02 5.845129489898681641e+00 1.780234694480895996e+00 -5.313645005226135254e-01
1.533000000000000000e+03 7.530813598632812500e+01 2.101860618591308594e+01 1.021342873573303223e-01 5.587164878845214844e+00 1.706789731979370117e+00 -4.736936390399932861e-01
1.534000000000000000e+03 7.546858215332031250e+01 1.963917541503906250e+01 9.240296483039855957e-02 5.718032360076904297e+00 1.743130683898925781e+00 -5.101431608200073242e-01
1.535000000000000000e+03 7.568795013427734375e+01 -6.819135665893554688e+00 -4.029517173767089844e-01 8.609841346740722656e+00 2.462066888809204102e+00 9.585508108139038086e-01
1.536000000000000000e+03 7.571089935302734375e+01 -3.929738521575927734e+00 -4.409894049167633057e-01 8.285545349121093750e+00 2.353366851806640625e+00 5.132265686988830566e-01
1.537000000000000000e+03 7.516947174072265625e+01 -2.955125999450683594e+01 -3.829227685928344727e-01 1.011444568634033203e+01 2.919456958770751953e+00 -1.128723978996276855e+00
1.538000000000000000e+03 7.193376159667968750e+01 -2.232746696472167969e+01 5.417292192578315735e-02 1.067760658264160156e+01 3.219533920288085938e+00 -4.725690186023712158e-01
1.539000000000000000e+03 7.296149444580078125e+01 -1.915397453308105469e+01 -6.987800002098083496e-01 1.196066665649414062e+01 3.378566026687622070e+00 -9.753994941711425781e-01
1.540000000000000000e+03 7.718654632568359375e+01 -2.074672317504882812e+01 -7.990460842847824097e-02 8.831359863281250000e+00 2.625436544418334961e+00 -1.326313614845275879e+00
1.541000000000000000e+03 7.723995208740234375e+01 -1.163180637359619141e+01 4.882450699806213379e-01 7.100034236907958984e+00 2.276483774185180664e+00 7.918281555175781250e-01
1.542000000000000000e+03 7.621252441406250000e+01 -8.966667175292968750e+00 -6.726626306772232056e-02 8.441020011901855469e+00 2.512126207351684570e+00 1.248489022254943848e+00
1.543000000000000000e+03 7.588800811767578125e+01 -1.269758892059326172e+01 1.505152702331542969e+00 8.459841728210449219e+00 2.989498376846313477e+00 4.468617141246795654e-01
1.544000000000000000e+03 7.574020385742187500e+01 -5.357988834381103516e+00 -4.612581431865692139e-01 8.407363891601562500e+00 2.383831739425659180e+00 7.399666309356689453e-01
1.545000000000000000e+03 7.449949645996093750e+01 -3.881394863128662109e+00 -6.050369739532470703e-01 8.329961776733398438e+00 2.317477464675903320e+00 3.415714502334594727e-01
1.546000000000000000e+03 7.557841491699218750e+01 -1.159185647964477539e+00 -3.740583956241607666e-01 8.039733886718750000e+00 2.299702644348144531e+00 1.457666754722595215e-01
1.547000000000000000e+03 7.563053131103515625e+01 -2.531743764877319336e+00 -4.186716973781585693e-01 8.141562461853027344e+00 2.316867113113403320e+00 3.167216181755065918e-01
1.548000000000000000e+03 7.576739501953125000e+01 -2.510065841674804688e+01 -7.257367670536041260e-02 9.827880859375000000e+00 2.926592350006103516e+00 -1.381264805793762207e+00
1.549000000000000000e+03 7.706291198730468750e+01 -2.640798950195312500e+01 -7.617049664258956909e-02 1.013900661468505859e+01 3.018850803375244141e+00 -1.137901663780212402e+00
1.550000000000000000e+03 7.586434936523437500e+01 -2.649411201477050781e+01 -1.254089176654815674e-01 9.977704048156738281e+00 2.955688714981079102e+00 -1.339464664459228516e+00
1.551000000000000000e+03 7.419895935058593750e+01 2.735630416870117188e+01 1.257779747247695923e-01 5.163791179656982422e+00 1.586870789527893066e+00 -2.776183187961578369e-01
1.552000000000000000e+03 7.370368194580078125e+01 2.380595970153808594e+01 1.690631806850433350e-01 5.259188652038574219e+00 1.628475546836853027e+00 -4.341827034950256348e-01
1.553000000000000000e+03 7.659236907958984375e+01 2.654023551940917969e+01 5.074364691972732544e-02 5.321235179901123047e+00 1.611593604087829590e+00 -2.044300287961959839e-01
1.554000000000000000e+03 7.524679565429687500e+01 2.661733627319335938e+01 9.391959756612777710e-02 5.248602867126464844e+00 1.602756738662719727e+00 -2.673683464527130127e-01
1.555000000000000000e+03 7.479348754882812500e+01 -1.571380996704101562e+01 1.487473607063293457e+00 1.013290405273437500e+01 3.486113309860229492e+00 -1.654521584510803223e+00
1.556000000000000000e+03 7.608528137207031250e+01 -1.949039077758789062e+01 -9.518131613731384277e-02 9.351388931274414062e+00 2.776862382888793945e+00 -1.596503615379333496e+00
1.557000000000000000e+03 7.631187438964843750e+01 2.934983634948730469e+01 4.620927572250366211e-02 5.191621303558349609e+00 1.571349143981933594e+00 -1.375084370374679565e-01
1.558000000000000000e+03 7.494738769531250000e+01 2.913071823120117188e+01 8.044486492872238159e-02 5.155784130096435547e+00 1.570868730545043945e+00 -1.926866471767425537e-01
1.559000000000000000e+03 7.527187347412109375e+01 2.780095481872558594e+01 8.173751831054687500e-02 5.205679893493652344e+00 1.586225271224975586e+00 -2.130134552717208862e-01
1.560000000000000000e+03 7.502810668945312500e+01 -3.368198394775390625e+01 -4.597176313400268555e-01 1.006966114044189453e+01 2.882983207702636719e+00 -4.993412792682647705e-01
1.561000000000000000e+03 7.709114837646484375e+01 -3.002462387084960938e+01 -1.610791832208633423e-01 1.086055183410644531e+01 3.209841966629028320e+00 -8.549575209617614746e-01
1.562000000000000000e+03 7.472125244140625000e+01 -3.707374954223632812e+01 -3.040377795696258545e-01 9.412498474121093750e+00 2.732538223266601562e+00 -1.155646890401840210e-01
1.563000000000000000e+03 7.664033508300781250e+01 -3.644197463989257812e+01 -3.242648541927337646e-01 1.124694347381591797e+01 3.276803493499755859e+00 -9.855467826128005981e-02
1.564000000000000000e+03 7.630789184570312500e+01 -2.918476867675781250e+01 -2.129911333322525024e-01 1.044836711883544922e+01 3.070612907409667969e+00 -1.065566420555114746e+00
1.565000000000000000e+03 7.564681243896484375e+01 -3.646086883544921875e+01 -3.807781636714935303e-01 1.039518356323242188e+01 3.004321813583374023e+00 -4.352606534957885742e-01
1.566000000000000000e+03 7.426180267333984375e+01 -3.132794189453125000e+01 -6.058233976364135742e-01 9.674632072448730469e+00 2.720642566680908203e+00 -8.657572269439697266e-01
1.567000000000000000e+03 7.468699645996093750e+01 3.059148979187011719e+01 8.078885078430175781e-02 5.109057426452636719e+00 1.556953907012939453e+00 -1.604104042053222656e-01
1.568000000000000000e+03 4.592876434326171875e+01 2.221210670471191406e+01 5.924324393272399902e-01 5.755478858947753906e+00 1.904373407363891602e+00 7.303766012191772461e-01
1.569000000000000000e+03 1.686495780944824219e+01 3.384559249877929688e+01 2.143630990758538246e-03 -6.040892913006246090e-04 4.618625098373740911e-04 2.628295042086392641e-04
1.570000000000000000e+03 4.573284912109375000e+01 2.512714767456054688e+01 5.761986374855041504e-01 5.498137474060058594e+00 1.822300791740417480e+00 3.390812873840332031e-01
1.571000000000000000e+03 4.467629241943359375e+01 1.180054092407226562e+01 1.893264651298522949e+00 6.557364940643310547e+00 2.535188913345336914e+00 2.691190958023071289e+00
1.572000000000000000e+03 1.503650188446044922e+01 7.695204257965087891e+00 -9.140586189460009336e-05 -2.759100243565626442e-05 -3.569906039047054946e-05 -7.922008808236569166e-05
1.573000000000000000e+03 1.552718162536621094e+01 9.440094947814941406e+00 -1.363994961138814688e-04 -3.351868872414343059e-05 -5.097545363241806626e-05 -5.538457480724900961e-05
1.574000000000000000e+03 4.194800853729248047e+00 -1.433887672424316406e+01 1.980714052915573120e-01 8.699332922697067261e-02 8.551941812038421631e-02 -2.666921615600585938e-01
1.575000000000000000e+03 4.603795528411865234e+00 2.246444129943847656e+01 -2.253871789434924722e-04 -4.400245597935281694e-05 -8.081689156824722886e-05 2.652906005096156150e-05
1.576000000000000000e+03 2.932274818420410156e+00 -2.070944404602050781e+01 3.255721330642700195e-01 -1.494398340582847595e-02 9.318844228982925415e-02 5.691636800765991211e-01
1.577000000000000000e+03 2.877366304397583008e+00 -1.825126266479492188e+01 3.460042476654052734e-01 -4.123650789260864258e-01 -1.990824751555919647e-02 1.241668239235877991e-01
1.578000000000000000e+03 4.096269130706787109e+00 -1.701225471496582031e+01 4.713852703571319580e-01 1.733226329088211060e-01 1.934123784303665161e-01 4.654570296406745911e-02
1.579000000000000000e+03 4.586111545562744141e+00 -1.808885765075683594e+01 5.987260341644287109e-01 6.114588975906372070e-01 3.630554676055908203e-01 2.407301664352416992e-01
1.580000000000000000e+03 6.152252674102783203e+00 2.363129806518554688e+01 -1.565130514791235328e-04 -1.191919363918714225e-04 -8.271149999927729368e-05 7.231792551465332508e-05
1.581000000000000000e+03 5.987423896789550781e+00 2.599038696289062500e+01 1.058218040270730853e-04 2.746391692198812962e-05 3.998571628471836448e-05 1.920557951962109655e-05
1.582000000000000000e+03 3.147215127944946289e+00 2.702178192138671875e+01 -2.618910511955618858e-04 3.204263339284807444e-05 -6.895452679600566626e-05 2.863576082745566964e-05
1.583000000000000000e+03 4.231485366821289062e+00 2.929561233520507812e+01 3.820756392087787390e-04 9.468792268307879567e-05 1.430290722055360675e-04 -1.451456482755020261e-04
1.584000000000000000e+03 4.281268596649169922e+00 1.837499809265136719e+01 2.486444136593490839e-04 -1.197095116367563605e-05 7.100203947629779577e-05 -4.441126657184213400e-05
1.585000000000000000e+03 4.289916992187500000e+00 1.970320510864257812e+01 -2.562801237218081951e-04 1.311651885771425441e-05 -7.294908573385328054e-05 2.878611303458455950e-05
1.586000000000000000e+03 4.349646091461181641e+00 1.700911712646484375e+01 -1.965556730283424258e-04 -7.836653821868821979e-06 -6.131769623607397079e-05 4.992934918846003711e-05
1.587000000000000000e+03 4.765957355499267578e+00 2.399854660034179688e+01 2.774854074232280254e-04 7.062761869747191668e-05 1.044339151121675968e-04 -4.590463140630163252e-05
1.588000000000000000e+03 4.248564720153808594e+00 1.413709735870361328e+01 -1.633698411751538515e-04 -1.487365261709783226e-05 -5.347304977476596832e-05 4.035159145132638514e-05
1.589000000000000000e+03 4.244842529296875000e+00 -9.999545097351074219e+00 -7.446832209825515747e-02 -2.680133655667304993e-02 -3.038089908659458160e-02 -3.554239273071289062e-01
1.590000000000000000e+03 3.950726985931396484e+00 -8.717168807983398438e+00 -6.581950932741165161e-02 -1.032457947731018066e-01 -5.071959272027015686e-02 -3.257960677146911621e-01
1.591000000000000000e+03 4.283474922180175781e+00 -1.292705154418945312e+01 4.108462855219841003e-02 4.990980401635169983e-02 2.729832939803600311e-02 -3.545361459255218506e-01
1.592000000000000000e+03 3.446209669113159180e+00 -3.165070152282714844e+01 -2.243511527776718140e-01 7.722970843315124512e-01 1.643837839365005493e-01 7.285177707672119141e-02
1.593000000000000000e+03 4.995034694671630859e+00 1.116385459899902344e+01 9.255567420041188598e-05 5.144263923284597695e-05 4.319949221098795533e-05 -5.562498336075805128e-05
1.594000000000000000e+03 6.288047790527343750e+00 3.621538925170898438e+01 -1.038173446431756020e-03 4.618577659130096436e-04 -1.728947099763900042e-04 -3.011498192790895700e-04
1.595000000000000000e+03 4.193309783935546875e+00 3.661502075195312500e+01 -1.879336487036198378e-04 3.480392333585768938e-04 4.803167394129559398e-05 1.034184970194473863e-04
1.596000000000000000e+03 4.380284786224365234e+00 -1.145544052124023438e+01 -1.029255799949169159e-02 4.192305728793144226e-02 9.489148855209350586e-03 -3.581030368804931641e-01
1.597000000000000000e+03 3.943691015243530273e+00 1.136420345306396484e+01 -1.360426249448210001e-04 -1.811904076021164656e-05 -4.624850043910555542e-05 4.377472941996529698e-05
1.598000000000000000e+03 6.311669349670410156e+00 -3.266081237792968750e+01 -3.463796675205230713e-01 1.128503456711769104e-01 -7.005879282951354980e-02 7.850699871778488159e-02
1.599000000000000000e+03 2.600083589553833008e+00 -3.376351547241210938e+01 -5.279225483536720276e-02 1.049731492996215820e+00 2.990817725658416748e-01 -7.620827108621597290e-02
1.600000000000000000e+03 5.130019187927246094e+00 3.408943176269531250e+01 -1.124072223319672048e-04 -4.671184797189198434e-05 -4.773572072735987604e-05 -1.005111553240567446e-04
1.601000000000000000e+03 5.223655223846435547e+00 3.250902175903320312e+01 -9.077715367311611772e-05 -9.730516467243432999e-05 -5.642469477606937289e-05 -3.241718513891100883e-05
1.602000000000000000e+03 4.411552906036376953e+00 3.043404579162597656e+01 -2.119696000590920448e-04 -7.329157938329444733e-07 -6.381075218087062240e-05 -3.443879904807545245e-05
1.603000000000000000e+03 2.719121694564819336e+00 7.416798591613769531e+00 -1.164225104730576277e-04 -1.425051686965161934e-05 -3.920191011275164783e-05 2.911180672526825219e-05
1.604000000000000000e+03 3.699676275253295898e+00 8.780764579772949219e+00 -1.232187642017379403e-04 -2.044443681370466948e-05 -4.309896030463278294e-05 1.011933454719837755e-05
1.605000000000000000e+03 3.681598186492919922e+00 5.709167480468750000e+00 -1.570804488437715918e-05 -3.535098221618682146e-05 -1.531770794827025384e-05 3.633507003542035818e-05
1.606000000000000000e+03 5.128534317016601562e+00 4.285547733306884766e+00 3.421364090172573924e-05 3.781702616834081709e-05 2.160920121241360903e-05 -1.539813820272684097e-05
1.607000000000000000e+03 4.011176109313964844e+00 -4.325951576232910156e+00 -9.759172797203063965e-02 -4.675147309899330139e-02 -4.330296069383621216e-02 -2.024071812629699707e-01
1.608000000000000000e+03 4.575806427001953125e+01 2.070196151733398438e+01 6.830778717994689941e-01 5.882879734039306641e+00 1.969787359237670898e+00 9.675738215446472168e-01
1.609000000000000000e+03 3.240494728088378906e+00 -5.398457050323486328e+00 -6.269915401935577393e-02 -1.253536939620971680e-01 -5.641585588455200195e-02 -2.222820520401000977e-01
1.610000000000000000e+03 5.416986942291259766e+00 -3.718471527099609375e+01 1.698995567858219147e-02 4.237512350082397461e-01 1.322223544120788574e-01 -1.477797981351613998e-02
1.611000000000000000e+03 4.744915008544921875e+01 -2.788780593872070312e+01 -3.452780097723007202e-02 1.167119145393371582e+00 3.397774100303649902e-01 -4.657039642333984375e-01
1.612000000000000000e+03 3.475841140747070312e+01 -1.698264884948730469e+01 -1.441393494606018066e+00 3.552379369735717773e+00 6.332957744598388672e-01 -6.051405668258666992e-01
1.613000000000000000e+03 3.656434631347656250e+01 -1.566664886474609375e+01 -5.471739172935485840e-01 6.182489395141601562e+00 1.690594553947448730e+00 2.071963250637054443e-01
1.614000000000000000e+03 5.784064102172851562e+01 2.342694997787475586e+00 -1.890893101692199707e+00 6.672697067260742188e-01 -3.670870065689086914e-01 -7.512927651405334473e-01
1.615000000000000000e+03 1.730788993835449219e+01 5.768980979919433594e+00 9.451691585127264261e-05 3.008040403074119240e-05 3.737919541890732944e-05 6.495709385490044951e-05
1.616000000000000000e+03 6.839475250244140625e+01 -7.612144470214843750e+00 4.334392547607421875e-01 7.310295104980468750e+00 2.323120355606079102e+00 -2.441961288452148438e+00
1.617000000000000000e+03 3.356609106063842773e+00 -2.840816307067871094e+01 -3.760364055633544922e-01 7.089876532554626465e-01 9.988536685705184937e-02 5.406690835952758789e-01
1.618000000000000000e+03 3.205109024047851562e+01 -1.548498821258544922e+01 -8.881729841232299805e-02 3.131474852561950684e-01 6.729906052350997925e-02 4.931210279464721680e-01
1.619000000000000000e+03 3.106410789489746094e+01 -1.488726520538330078e+01 2.984384000301361084e-01 -1.677373945713043213e-01 3.921030089259147644e-02 7.802483439445495605e-01
1.620000000000000000e+03 6.950473022460937500e+01 -6.443082809448242188e+00 -2.085113674402236938e-01 8.002866744995117188e+00 2.338306427001953125e+00 -1.672302961349487305e+00
1.621000000000000000e+03 1.572743225097656250e+01 6.438022613525390625e+00 6.182133802212774754e-05 5.005119601264595985e-05 3.356176239321939647e-05 6.923824548721313477e-05
1.622000000000000000e+03 1.478481388092041016e+01 6.038565635681152344e+00 -8.109105692710727453e-05 -4.187220838502980769e-05 -3.688897777465172112e-05 -4.265472307452000678e-05
1.623000000000000000e+03 1.242513465881347656e+01 1.441864299774169922e+01 1.331521634710952640e-04 1.899052949738688767e-05 4.564280607155524194e-05 6.843393930466845632e-05
1.624000000000000000e+03 1.441742420196533203e+01 9.040003776550292969e+00 1.343271142104640603e-04 3.700639717862941325e-05 5.140004941495135427e-05 6.318015948636457324e-05
1.625000000000000000e+03 4.452056121826171875e+01 1.018919754028320312e+01 2.061027765274047852e+00 6.267050266265869141e+00 2.498423337936401367e+00 2.899708747863769531e+00
1.626000000000000000e+03 4.321748352050781250e+01 4.110508441925048828e+00 -1.343384504318237305e+00 6.917620658874511719e+00 1.672270774841308594e+00 2.729534387588500977e+00
1.627000000000000000e+03 4.444880676269531250e+01 2.696149826049804688e+00 -3.668100357055664062e+00 4.508820056915283203e+00 2.522158920764923096e-01 2.594320535659790039e+00
1.628000000000000000e+03 4.824134063720703125e+01 -3.185636901855468750e+01 -4.396979212760925293e-01 1.357103943824768066e+00 2.752217948436737061e-01 -5.137687325477600098e-01
1.629000000000000000e+03 7.879943847656250000e+00 -1.387747287750244141e+01 4.347794651985168457e-01 1.008740305900573730e+00 4.330559372901916504e-01 2.183731794357299805e-01
1.630000000000000000e+03 4.557910919189453125e+01 1.920907592773437500e+01 8.174617886543273926e-01 6.084498882293701172e+00 2.070588111877441406e+00 1.266284584999084473e+00
1.631000000000000000e+03 4.588191986083984375e+01 2.799884033203125000e+01 6.264235377311706543e-01 5.035997390747070312e+00 1.698726296424865723e+00 2.127162516117095947e-01
1.632000000000000000e+03 5.710128784179687500e+01 3.882349252700805664e+00 -1.335600852966308594e+00 8.689280748367309570e-01 -1.400018483400344849e-01 -9.115585684776306152e-01
1.633000000000000000e+03 1.233345031738281250e+01 -3.903178787231445312e+01 2.366998605430126190e-02 -3.034735321998596191e-01 -8.394106477499008179e-02 7.977259904146194458e-02
1.634000000000000000e+03 1.464956569671630859e+01 -1.343804168701171875e+01 7.423655390739440918e-01 1.137550026178359985e-01 2.568361461162567139e-01 3.337599337100982666e-01
1.635000000000000000e+03 5.882782936096191406e+00 -3.113993072509765625e+01 -5.113606452941894531e-01 1.055833026766777039e-01 -1.217331960797309875e-01 2.255706340074539185e-01
1.636000000000000000e+03 7.300408935546875000e+01 -2.774667739868164062e+00 -7.269241213798522949e-01 8.037095069885253906e+00 2.193051099777221680e+00 -8.048152178525924683e-02
1.637000000000000000e+03 4.509496688842773438e+01 1.479827976226806641e+01 1.474280714988708496e+00 6.451468944549560547e+00 2.377724885940551758e+00 2.110020637512207031e+00
1.638000000000000000e+03 3.881355285644531250e+01 -2.068768501281738281e+01 -2.581056058406829834e-01 7.538505077362060547e+00 2.184119939804077148e+00 1.421199440956115723e+00
1.639000000000000000e+03 3.837465286254882812e+01 -1.854385757446289062e+01 -1.094827771186828613e+00 8.195847511291503906e+00 2.130306005477905273e+00 1.304942369461059570e+00
1.640000000000000000e+03 3.905834579467773438e+01 -2.273152351379394531e+01 3.591350913047790527e-01 6.798178195953369141e+00 2.147193908691406250e+00 1.161305189132690430e+00
1.641000000000000000e+03 3.782677078247070312e+01 -2.476278114318847656e+01 1.193695306777954102e+00 6.577385902404785156e+00 2.331324338912963867e+00 8.358427286148071289e-01
1.642000000000000000e+03 4.488195037841796875e+01 1.331344318389892578e+01 1.702011942863464355e+00 6.489223957061767578e+00 2.457370758056640625e+00 2.374915361404418945e+00
1.643000000000000000e+03 3.904761123657226562e+01 -4.965146541595458984e+00 1.071538686752319336e+00 9.548208236694335938e+00 3.185924053192138672e+00 1.209656357765197754e+00
1.644000000000000000e+03 3.775053024291992188e+01 -9.061307907104492188e+00 1.732642769813537598e+00 8.001026153564453125e+00 2.920100450515747070e+00 7.282385230064392090e-01
1.645000000000000000e+03 4.906026458740234375e+01 4.611580848693847656e+00 -1.189937114715576172e+00 4.288179054856300354e-02 -3.441165983676910400e-01 1.910096108913421631e-01
1.646000000000000000e+03 4.802556991577148438e+01 4.105655193328857422e+00 -1.254267930984497070e+00 4.170265793800354004e-02 -3.637695908546447754e-01 7.471629977226257324e-01
1.647000000000000000e+03 4.195946884155273438e+01 7.450530529022216797e+00 1.833590984344482422e+00 9.422156333923339844e+00 3.376724243164062500e+00 3.674044132232666016e+00
1.648000000000000000e+03 3.939849472045898438e+01 -3.678650140762329102e+00 4.930148422718048096e-01 9.649869918823242188e+00 3.042865514755249023e+00 1.261369585990905762e+00
1.649000000000000000e+03 3.725511169433593750e+01 -3.876199007034301758e+00 4.344739019870758057e-01 6.570403575897216797e+00 2.101463317871093750e+00 9.385614395141601562e-01
1.650000000000000000e+03 4.282317352294921875e+01 7.013105869293212891e+00 1.538891673088073730e+00 7.722203254699707031e+00 2.778328418731689453e+00 3.260401487350463867e+00
1.651000000000000000e+03 4.470900726318359375e+01 8.539563179016113281e+00 1.923140168190002441e+00 5.500341892242431641e+00 2.227044582366943359e+00 2.761173963546752930e+00
1.652000000000000000e+03 7.583990478515625000e+01 4.041345214843750000e+01 1.214838493615388870e-02 5.027307510375976562e+00 1.511836767196655273e+00 -9.412074461579322815e-03
1.653000000000000000e+03 1.287087440490722656e+01 3.200846862792968750e+01 7.632055785506963730e-04 -6.237538182176649570e-04 4.183551936876028776e-05 -4.900644416920840740e-04
1.654000000000000000e+03 7.121563720703125000e+01 -1.813397789001464844e+01 -1.192873001098632812e+00 1.306572055816650391e+01 3.561854124069213867e+00 2.143352478742599487e-01
1.655000000000000000e+03 3.995328903198242188e+01 4.948643743991851807e-01 -2.284623622894287109e+00 9.765348434448242188e+00 2.244217395782470703e+00 9.604400396347045898e-01
1.656000000000000000e+03 4.078884887695312500e+01 3.063438177108764648e+00 -1.574722170829772949e+00 1.026148796081542969e+01 2.606029510498046875e+00 1.796518325805664062e+00
1.657000000000000000e+03 4.341445922851562500e+01 5.477024555206298828e+00 1.044502779841423035e-01 6.479313850402832031e+00 1.975129246711730957e+00 2.838449954986572266e+00
1.658000000000000000e+03 4.149799728393554688e+01 6.229516983032226562e+00 1.490203380584716797e+00 1.001466178894042969e+01 3.451459646224975586e+00 3.315190792083740234e+00
1.659000000000000000e+03 3.962806320190429688e+01 -1.543353271484375000e+01 5.208486914634704590e-01 9.720479011535644531e+00 3.072398185729980469e+00 -3.620354533195495605e-01
1.660000000000000000e+03 6.796699523925781250e+01 -3.456996154785156250e+01 -9.981921911239624023e-01 4.298198699951171875e+00 9.900020360946655273e-01 4.270251989364624023e-01
1.661000000000000000e+03 3.001601600646972656e+01 -1.511996459960937500e+01 -1.123489439487457275e-01 -3.682999908924102783e-01 -1.441946774721145630e-01 1.101867079734802246e+00
1.662000000000000000e+03 3.137110137939453125e+01 -1.224576187133789062e+01 1.513877630233764648e+00 5.250183343887329102e-01 6.116687655448913574e-01 5.357970595359802246e-01
1.663000000000000000e+03 7.083567810058593750e+01 -2.525915336608886719e+01 3.960293829441070557e-01 9.732032775878906250e+00 3.038418531417846680e+00 -5.839545726776123047e-01
1.664000000000000000e+03 6.308908843994140625e+01 -3.827044296264648438e+01 1.616761535406112671e-01 7.767940163612365723e-01 2.815410494804382324e-01 6.774911284446716309e-02
1.665000000000000000e+03 3.931365203857421875e+01 -3.496480882167816162e-01 -1.581267118453979492e+00 9.304589271545410156e+00 2.316996574401855469e+00 6.939772367477416992e-01
1.666000000000000000e+03 3.708758926391601562e+01 -9.655901789665222168e-01 -1.213013648986816406e+00 6.107215404510498047e+00 1.468260526657104492e+00 9.878866076469421387e-01
1.667000000000000000e+03 4.083813858032226562e+01 9.364524483680725098e-01 -2.554374456405639648e+00 1.012720966339111328e+01 2.271850585937500000e+00 8.123241662979125977e-01
1.668000000000000000e+03 3.673962783813476562e+01 -3.002674102783203125e+01 5.565162375569343567e-02 5.387637615203857422e+00 1.632986783981323242e+00 3.732113540172576904e-01
1.669000000000000000e+03 7.214792633056640625e+01 -2.846357727050781250e+01 -6.407881379127502441e-01 9.064139366149902344e+00 2.527005434036254883e+00 -1.102602124214172363e+00
1.670000000000000000e+03 3.621916198730468750e+01 -3.497573089599609375e+01 -1.077042460441589355e+00 4.061290740966796875e+00 8.952744007110595703e-01 3.467307984828948975e-01
1.671000000000000000e+03 2.938931465148925781e+01 -5.582561969757080078e+00 8.276483416557312012e-01 -4.367795288562774658e-01 1.172606423497200012e-01 -4.352306127548217773e-01
1.672000000000000000e+03 4.995365524291992188e+01 5.526545047760009766e+00 -5.501813292503356934e-01 3.962911069393157959e-01 -4.616706445813179016e-02 1.211676374077796936e-01
1.673000000000000000e+03 3.250388717651367188e+01 -3.379806280136108398e+00 1.282495353370904922e-02 8.460611850023269653e-02 2.922932058572769165e-02 -2.753198742866516113e-01
1.674000000000000000e+03 3.304650497436523438e+01 -8.570164680480957031e+00 2.004609346389770508e+00 1.738562107086181641e+00 1.122951507568359375e+00 3.322345316410064697e-01
1.675000000000000000e+03 7.340496063232421875e+01 -3.378889083862304688e+01 -6.761536598205566406e-01 8.977123260498046875e+00 2.490290880203247070e+00 -3.629707992076873779e-01
1.676000000000000000e+03 6.802576446533203125e+01 -3.215407943725585938e+01 -1.465180754661560059e+00 4.660573482513427734e+00 9.586177468299865723e-01 3.130989372730255127e-01
1.677000000000000000e+03 3.298504638671875000e+01 -4.334355831146240234e+00 6.893758773803710938e-01 7.739776372909545898e-01 4.390060603618621826e-01 9.486453980207443237e-02
1.678000000000000000e+03 1.107363700866699219e+01 1.687751770019531250e+01 -1.383106573484838009e-04 -3.029335175597225316e-06 -4.240199632477015257e-05 7.523119711549952626e-05
1.679000000000000000e+03 4.196565628051757812e+01 -2.271664047241210938e+01 -2.154268324375152588e-02 5.120182514190673828e+00 1.529592037200927734e+00 -1.822410672903060913e-01
1.680000000000000000e+03 4.121934127807617188e+01 -2.025215721130371094e+01 -3.704073429107666016e-01 7.180694580078125000e+00 2.043086051940917969e+00 2.229595035314559937e-01
1.681000000000000000e+03 2.011397361755371094e+01 3.616628265380859375e+01 3.169423202052712440e-03 -1.026996062137186527e-03 6.427281768992543221e-04 1.765451015671715140e-04
1.682000000000000000e+03 4.400835418701171875e+01 2.948243331909179688e+01 6.009344458580017090e-01 5.042499542236328125e+00 1.693030238151550293e+00 -7.089212536811828613e-02
1.683000000000000000e+03 4.312589645385742188e+01 3.626779937744140625e+01 -3.597027659416198730e-01 3.831102848052978516e+00 1.041419982910156250e+00 -1.349704861640930176e-01
1.684000000000000000e+03 2.656238937377929688e+01 -3.776061248779296875e+01 -3.210522830486297607e-01 9.578842520713806152e-01 1.910495907068252563e-01 3.599472641944885254e-01
1.685000000000000000e+03 6.291788864135742188e+01 7.051825523376464844e-01 -1.445485234260559082e+00 2.900702714920043945e+00 4.365652501583099365e-01 -1.604102134704589844e+00
1.686000000000000000e+03 6.670560455322265625e+01 -3.566564941406250000e+01 -6.656516790390014648e-01 3.125357627868652344e+00 7.379117608070373535e-01 5.137715935707092285e-01
1.687000000000000000e+03 3.842130661010742188e+01 -3.096832513809204102e+00 5.356946960091590881e-02 8.239370346069335938e+00 2.487881898880004883e+00 9.153977632522583008e-01
1.688000000000000000e+03 1.289993953704833984e+01 2.929939842224121094e+01 8.459688979201018810e-05 -2.341873623663559556e-04 -4.487714249989949167e-05 3.476174606475979090e-05
1.689000000000000000e+03 6.890041351318359375e+00 2.490005874633789062e+01 1.997877698158845305e-04 1.792224065866321325e-05 6.531300459755584598e-05 -1.851100532803684473e-04
1.690000000000000000e+03 1.287619209289550781e+01 2.409588050842285156e+01 -4.557896172627806664e-04 6.380383274517953396e-05 -1.175957368104718626e-04 -3.961291440646164119e-05
1.691000000000000000e+03 1.166975879669189453e+01 2.251770019531250000e+01 -3.496094141155481339e-04 2.193438740505371243e-05 -9.830250928644090891e-05 -1.175023644464090466e-04
1.692000000000000000e+03 5.262101364135742188e+01 2.858052015304565430e+00 -2.950439929962158203e+00 4.067096710205078125e-01 -7.631191015243530273e-01 -1.582477837800979614e-01
1.693000000000000000e+03 5.712984561920166016e+00 -1.183598327636718750e+01 -9.346555918455123901e-03 3.605498969554901123e-01 1.053609997034072876e-01 -2.717341482639312744e-01
1.694000000000000000e+03 6.204485893249511719e+00 -1.064154815673828125e+01 -2.528409846127033234e-02 3.478443622589111328e-01 9.676807373762130737e-02 -2.539629936218261719e-01
1.695000000000000000e+03 3.919543457031250000e+01 -2.824310493469238281e+01 2.883601188659667969e-01 5.164402008056640625e+00 1.635828614234924316e+00 -2.542903423309326172e-01
1.696000000000000000e+03 1.124114608764648438e+01 -1.298925209045410156e+01 5.559664964675903320e-01 6.352185010910034180e-01 3.573555052280426025e-01 3.785456717014312744e-01
1.697000000000000000e+03 6.529074096679687500e+01 -7.999082654714584351e-02 -1.279777765274047852e+00 4.570880413055419922e+00 9.873307347297668457e-01 -1.533643603324890137e+00
1.698000000000000000e+03 4.547039794921875000e+01 2.953819656372070312e+01 5.091427564620971680e-01 4.915644168853759766e+00 1.627436041831970215e+00 1.874368786811828613e-01
1.699000000000000000e+03 7.337671661376953125e+01 -2.675408172607421875e+01 -2.232486605644226074e-01 9.590496063232421875e+00 2.810174226760864258e+00 -1.363256096839904785e+00
1.700000000000000000e+03 6.899095916748046875e+01 -3.338132858276367188e+01 -1.208879113197326660e+00 5.606226921081542969e+00 1.319204330444335938e+00 1.901149749755859375e-01
1.701000000000000000e+03 7.382354736328125000e+01 -2.981356811523437500e+01 -6.359395384788513184e-01 9.530323028564453125e+00 2.668315172195434570e+00 -1.115398168563842773e+00
1.702000000000000000e+03 3.425483322143554688e+01 -3.585869598388671875e+01 -1.081583380699157715e+00 3.625130414962768555e+00 7.630641460418701172e-01 5.507594943046569824e-01
1.703000000000000000e+03 3.295257186889648438e+01 -3.376705169677734375e+01 -6.843839287757873535e-01 3.556622266769409180e+00 8.616715073585510254e-01 1.088920354843139648e+00
1.704000000000000000e+03 3.288787460327148438e+01 -1.487746906280517578e+01 3.123544752597808838e-01 9.930223226547241211e-01 3.916130363941192627e-01 3.695718348026275635e-01
1.705000000000000000e+03 4.595466232299804688e+01 3.415577697753906250e+01 -9.999370574951171875e-02 4.484089374542236328e+00 1.315228819847106934e+00 1.945508420467376709e-01
1.706000000000000000e+03 3.912724685668945312e+01 -2.549115943908691406e+01 7.456764578819274902e-01 5.919703006744384766e+00 1.999613881111145020e+00 3.851796984672546387e-01
1.707000000000000000e+03 3.190248680114746094e+01 -3.657612228393554688e+01 -8.442263007164001465e-01 2.764811754226684570e+00 5.761756300926208496e-01 7.763928174972534180e-01
1.708000000000000000e+03 5.259183406829833984e+00 -1.596781253814697266e+01 5.299575924873352051e-01 7.136009335517883301e-01 3.730675578117370605e-01 4.630681872367858887e-02
1.709000000000000000e+03 8.492514610290527344e+00 -3.477103424072265625e+01 -1.915528625249862671e-01 -2.210278958082199097e-01 -1.237742230296134949e-01 9.299585968255996704e-02
1.710000000000000000e+03 3.999438095092773438e+01 -1.679515457153320312e+01 2.314138859510421753e-01 9.416862487792968750e+00 2.894483089447021484e+00 4.227293655276298523e-02
1.711000000000000000e+03 3.857703018188476562e+01 -1.552522850036621094e+01 1.584194749593734741e-01 8.674142837524414062e+00 2.649768829345703125e+00 2.427797317504882812e-01
1.712000000000000000e+03 6.968171691894531250e+01 -1.625330352783203125e+01 -1.098009228706359863e+00 1.192535400390625000e+01 3.248203277587890625e+00 2.788473606109619141e+00
1.713000000000000000e+03 9.530505180358886719e+00 -4.979673385620117188e+00 -2.050486654043197632e-01 1.572841256856918335e-01 -1.432935986667871475e-02 -7.603061944246292114e-02
1.714000000000000000e+03 1.026031684875488281e+01 -5.032846927642822266e+00 -1.985600292682647705e-01 1.563387811183929443e-01 -1.266637165099382401e-02 -4.208869859576225281e-02
1.715000000000000000e+03 1.515044975280761719e+01 3.167155265808105469e+00 -5.031039836467243731e-05 -4.655601151171140373e-05 -2.905992369051091373e-05 1.399158099957276136e-05
1.716000000000000000e+03 1.640456581115722656e+01 5.327027320861816406e+00 -2.246621806989423931e-05 -4.542681926977820694e-05 -2.036791192949749529e-05 -7.235139491967856884e-05
1.717000000000000000e+03 1.397592544555664062e+01 4.255949974060058594e+00 7.240323611767962575e-05 4.267455733497627079e-05 3.452333839959464967e-05 3.514422132866457105e-05
1.718000000000000000e+03 6.632565498352050781e+00 4.118452072143554688e+00 4.137458017794415355e-05 4.400634134071879089e-05 2.561427572800312191e-05 -1.685959887254284695e-06
1.719000000000000000e+03 5.272165298461914062e+00 5.073899745941162109e+00 -4.305262700654566288e-05 -2.967946966236922890e-05 -2.181962918257340789e-05 1.975833583856001496e-05
1.720000000000000000e+03 4.360041618347167969e+00 4.452663421630859375e+00 -2.950241287180688232e-05 -3.848253982141613960e-05 -2.039548598986584693e-05 2.427139042993076146e-05
1.721000000000000000e+03 7.070460510253906250e+01 -1.022633457183837891e+01 -5.546224117279052734e-01 1.206941890716552734e+01 3.454439163208007812e+00 -2.297958374023437500e+00
1.722000000000000000e+03 3.728374242782592773e+00 7.546360969543457031e+00 1.137591898441314697e-04 2.175582631025463343e-05 4.065450411872006953e-05 5.106935986987082288e-06
1.723000000000000000e+03 1.323361015319824219e+01 4.420448303222656250e+00 -4.870873817708343267e-05 -5.798343045171350241e-05 -3.200765058863908052e-05 -9.951339052349794656e-06
1.724000000000000000e+03 1.327997589111328125e+01 -5.378076553344726562e+00 -1.229276359081268311e-01 1.055050566792488098e-01 -5.226773675531148911e-03 9.919311106204986572e-02
1.725000000000000000e+03 7.399952411651611328e+00 4.097788333892822266e+00 -4.580903987516649067e-05 -4.645203443942591548e-05 -2.767832302197348326e-05 -5.213584699959028512e-06
1.726000000000000000e+03 5.983168125152587891e+00 4.927547931671142578e+00 4.965013431501574814e-05 3.783537613344378769e-05 2.624565240694209933e-05 -1.537828393338713795e-05
1.727000000000000000e+03 8.989269256591796875e+00 4.096791744232177734e+00 -5.431142562883906066e-05 -4.137249197810888290e-05 -2.870517528208438307e-05 -1.281903496419545263e-05
1.728000000000000000e+03 7.426729202270507812e+00 6.312412261962890625e+00 3.636957990238443017e-05 6.947389192646369338e-05 3.175304300384595990e-05 4.969865585735533386e-06
1.729000000000000000e+03 1.098965549468994141e+01 -5.101252555847167969e+00 -1.896670013666152954e-01 1.521666646003723145e-01 -1.125010289251804352e-02 -6.667794659733772278e-03
1.730000000000000000e+03 1.173249340057373047e+01 -5.183480262756347656e+00 -1.707823276519775391e-01 1.406642943620681763e-01 -9.035409428179264069e-03 2.827990986406803131e-02
1.731000000000000000e+03 1.066858100891113281e+01 4.035971164703369141e+00 -6.004916212987154722e-05 -3.532344999257475138e-05 -2.861178290913812816e-05 -6.817806934122927487e-06
1.732000000000000000e+03 1.245390701293945312e+01 4.604569435119628906e+00 5.991498255752958357e-05 4.448192703421227634e-05 3.131907214992679656e-05 -3.108441660515381955e-06
1.733000000000000000e+03 8.027958869934082031e+00 -4.157397747039794922e+00 -2.215669602155685425e-01 1.018548011779785156e-01 -3.591364994645118713e-02 -1.367514729499816895e-01
1.734000000000000000e+03 6.629328727722167969e+00 -6.492357254028320312e+00 -1.513347923755645752e-01 1.415449976921081543e-01 -2.936938079074025154e-03 -2.268488407135009766e-01
1.735000000000000000e+03 7.547935485839843750e+01 -9.881735801696777344e+00 2.046407163143157959e-01 9.153395652770996094e+00 2.807410955429077148e+00 1.250716805458068848e+00
1.736000000000000000e+03 7.237801361083984375e+01 -1.223971557617187500e+01 2.423132896423339844e+00 1.346048927307128906e+01 4.765086650848388672e+00 1.054605126380920410e+00
1.737000000000000000e+03 2.080738639831542969e+01 -5.818732261657714844e+00 1.461002826690673828e-01 -1.501769274473190308e-01 -1.222996274009346962e-03 9.348709881305694580e-02
1.738000000000000000e+03 1.658132553100585938e+01 -5.713018417358398438e+00 3.306495957076549530e-03 -1.358219329267740250e-02 -3.082709386944770813e-03 1.805660724639892578e-01
1.739000000000000000e+03 1.249419784545898438e+01 -5.276664733886718750e+00 -1.529690027236938477e-01 1.274328231811523438e-01 -7.660854142159223557e-03 6.326036155223846436e-02
1.740000000000000000e+03 4.341722011566162109e+00 -5.227853775024414062e+00 -1.005955189466476440e-01 -4.326853528618812561e-02 -4.315921664237976074e-02 -2.398198544979095459e-01
1.741000000000000000e+03 3.942214965820312500e+00 -6.666672229766845703e+00 -7.999884337186813354e-02 -9.457542002201080322e-02 -5.237228050827980042e-02 -2.745528221130371094e-01
1.742000000000000000e+03 7.619732666015625000e+01 -1.665130043029785156e+01 5.781549215316772461e-01 8.808724403381347656e+00 2.816063642501831055e+00 -1.477078676223754883e+00
1.743000000000000000e+03 7.344582366943359375e+01 -1.730174255371093750e+01 9.589020907878875732e-02 1.219771575927734375e+01 3.688081741333007812e+00 -1.963485002517700195e+00
1.744000000000000000e+03 4.524420738220214844e+00 -4.660338878631591797e+00 -1.188430488109588623e-01 -3.023916482925415039e-02 -4.472466558218002319e-02 -2.200322598218917847e-01
1.745000000000000000e+03 5.166601181030273438e+00 -4.779526710510253906e+00 -1.310954988002777100e-01 5.417340435087680817e-03 -3.770344704389572144e-02 -2.220752686262130737e-01
1.746000000000000000e+03 5.868150234222412109e+00 -4.846051692962646484e+00 -1.586101651191711426e-01 4.321874305605888367e-02 -3.461742773652076721e-02 -2.182126939296722412e-01
1.747000000000000000e+03 6.612123966217041016e+00 -5.671445846557617188e+00 -1.627051681280136108e-01 1.035998240113258362e-01 -1.773160323500633240e-02 -2.185480445623397827e-01
1.748000000000000000e+03 1.573548603057861328e+01 -5.668181419372558594e+00 -2.866558358073234558e-02 1.750126294791698456e-02 -3.349296050146222115e-03 1.694700568914413452e-01
1.749000000000000000e+03 7.320603847503662109e+00 -4.907313346862792969e+00 -1.894567608833312988e-01 1.093533337116241455e-01 -2.403102815151214600e-02 -1.780740320682525635e-01
1.750000000000000000e+03 8.057787895202636719e+00 -4.921651840209960938e+00 -1.999169290065765381e-01 1.349590569734573364e-01 -1.948736235499382019e-02 -1.461308002471923828e-01
1.751000000000000000e+03 9.872345924377441406e+00 5.709791660308837891e+00 5.711729318136349320e-05 5.652938853017985821e-05 3.409400596865452826e-05 1.692773548711556941e-05
1.752000000000000000e+03 1.900891113281250000e+01 -5.001215934753417969e+00 8.286997675895690918e-03 -7.886307686567306519e-02 -2.117282524704933167e-02 1.337909549474716187e-01
1.753000000000000000e+03 1.408469581604003906e+01 -5.486971855163574219e+00 -9.491577744483947754e-02 7.966060191392898560e-02 -4.576551727950572968e-03 1.288105845451354980e-01
1.754000000000000000e+03 1.490130710601806641e+01 -5.592622280120849609e+00 -5.842507630586624146e-02 4.877774417400360107e-02 -2.894199918955564499e-03 1.552810966968536377e-01
1.755000000000000000e+03 1.911196899414062500e+01 -5.793249607086181641e+00 9.021414071321487427e-02 -1.002058535814285278e-01 -2.997514326125383377e-03 1.529270708560943604e-01
1.756000000000000000e+03 7.297575378417968750e+01 -1.150005149841308594e+01 1.353239297866821289e+00 1.203971576690673828e+01 4.017886638641357422e+00 9.825183153152465820e-01
1.757000000000000000e+03 2.242825889587402344e+01 -5.893194198608398438e+00 2.119747400283813477e-01 -2.068158090114593506e-01 1.547678722999989986e-03 1.391286728903651237e-03
1.758000000000000000e+03 2.237305641174316406e+01 -4.989039897918701172e+00 7.865820825099945068e-02 -1.447662711143493652e-01 -1.983242109417915344e-02 -1.997644081711769104e-02
1.759000000000000000e+03 6.944206237792968750e+01 -7.490750312805175781e+00 -9.486918151378631592e-02 8.292439460754394531e+00 2.459270954132080078e+00 -2.071521282196044922e+00
1.760000000000000000e+03 1.161285877227783203e+01 4.758936882019042969e+00 -6.824278534622862935e-05 -3.477232530713081360e-05 -3.090453174081631005e-05 5.552624884330725763e-07
1.761000000000000000e+03 9.004809379577636719e+00 4.881907463073730469e+00 5.839611185365356505e-05 4.710487337433733046e-05 3.165029556839726865e-05 1.448345938115380704e-05
1.762000000000000000e+03 7.462528991699218750e+01 -1.363284397125244141e+01 2.416430950164794922e+00 9.670617103576660156e+00 3.626114606857299805e+00 -3.253892362117767334e-01
1.763000000000000000e+03 1.826376533508300781e+01 -5.774955272674560547e+00 6.195953860878944397e-02 -7.384799420833587646e-02 -3.566536819562315941e-03 1.717321276664733887e-01
1.764000000000000000e+03 3.244511413574218750e+01 -1.355184650421142578e+01 1.060040116310119629e+00 1.016564965248107910e+00 6.229815483093261719e-01 4.184775352478027344e-01
1.765000000000000000e+03 2.493309593200683594e+01 -5.168247699737548828e+00 1.872547268867492676e-01 -2.602948248386383057e-01 -2.191202715039253235e-02 -2.397994697093963623e-01
1.766000000000000000e+03 7.496434020996093750e+01 -1.279646682739257812e+01 2.154181957244873047e+00 9.389952659606933594e+00 3.463240385055541992e+00 5.219230055809020996e-01
1.767000000000000000e+03 7.552701568603515625e+01 -1.154396629333496094e+01 1.024063825607299805e+00 8.979747772216796875e+00 3.001143455505371094e+00 1.068461418151855469e+00
1.768000000000000000e+03 4.038214492797851562e+01 -2.547896504402160645e-01 -1.919946074485778809e+00 1.010507392883300781e+01 2.455538511276245117e+00 5.877679586410522461e-01
1.769000000000000000e+03 2.162773132324218750e+01 -5.851731777191162109e+00 1.728330105543136597e-01 -1.789894998073577881e-01 -1.846945611760020256e-03 5.034624040126800537e-02
1.770000000000000000e+03 2.086859130859375000e+01 -6.691215515136718750e+00 2.411949634552001953e-01 -1.929248720407485962e-01 1.448102667927742004e-02 1.223589926958084106e-01
1.771000000000000000e+03 1.963421630859375000e+01 -1.249435806274414062e+01 5.228826999664306641e-01 -2.002252042293548584e-01 9.679725021123886108e-02 3.356501162052154541e-01
1.772000000000000000e+03 1.709804534912109375e+01 -1.373145580291748047e+01 6.399095058441162109e-01 -8.167730271816253662e-02 1.674696654081344604e-01 2.855491638183593750e-01
1.773000000000000000e+03 7.342829132080078125e+01 -5.019501686096191406e+00 -7.228590250015258789e-01 8.733764648437500000e+00 2.403271675109863281e+00 1.961691528558731079e-01
1.774000000000000000e+03 6.832808685302734375e+01 -2.684599637985229492e+00 -7.043440937995910645e-01 6.534821510314941406e+00 1.749143242835998535e+00 -1.042028546333312988e+00
1.775000000000000000e+03 3.773615646362304688e+01 -1.517991542816162109e+01 -8.817530423402786255e-02 7.525412082672119141e+00 2.231171131134033203e+00 2.803971469402313232e-01
1.776000000000000000e+03 3.793142318725585938e+01 -1.267650794982910156e+01 9.127092957496643066e-01 8.359591484069824219e+00 2.781690359115600586e+00 7.908332347869873047e-02
1.777000000000000000e+03 2.612414169311523438e+01 -1.366864299774169922e+01 4.760225415229797363e-01 -3.537540733814239502e-01 3.668053820729255676e-02 7.476472258567810059e-01
1.778000000000000000e+03 6.734231472015380859e+00 -1.360685157775878906e+01 2.163146734237670898e-01 7.859433293342590332e-01 3.006773889064788818e-01 -5.402441322803497314e-02
1.779000000000000000e+03 6.838091278076171875e+01 -6.433547019958496094e+00 2.112766206264495850e-01 7.136703014373779297e+00 2.204393863677978516e+00 -1.890523433685302734e+00
1.780000000000000000e+03 6.434236526489257812e+00 -1.635938835144042969e+01 7.819814682006835938e-01 1.285008430480957031e+00 6.200969815254211426e-01 2.791224420070648193e-01
1.781000000000000000e+03 4.686857604980468750e+01 5.210040569305419922e+00 -1.639122813940048218e-01 1.650495171546936035e+00 4.459748864173889160e-01 1.566217303276062012e+00
1.782000000000000000e+03 4.486297225952148438e+01 6.934279918670654297e+00 1.238459110260009766e+00 4.612201213836669922e+00 1.755198121070861816e+00 2.652356863021850586e+00
1.783000000000000000e+03 7.154897308349609375e+01 -1.747220802307128906e+01 -1.061981916427612305e+00 1.397312164306640625e+01 3.873342037200927734e+00 -5.224409699440002441e-01
1.784000000000000000e+03 4.571902084350585938e+01 3.973129749298095703e+00 -1.614709138870239258e+00 2.190240859985351562e+00 1.726595163345336914e-01 2.214987993240356445e+00
1.785000000000000000e+03 4.002529144287109375e+01 -2.191011810302734375e+01 -8.800534904003143311e-02 6.618042945861816406e+00 1.959011316299438477e+00 8.622352480888366699e-01
1.786000000000000000e+03 3.955395507812500000e+01 -2.572844982147216797e+00 -2.980854511260986328e-01 9.553129196166992188e+00 2.776513338088989258e+00 1.246630191802978516e+00
1.787000000000000000e+03 6.038435745239257812e+01 1.591381311416625977e+00 -1.627051472663879395e+00 1.395590305328369141e+00 -6.943832337856292725e-02 -1.240608930587768555e+00
1.788000000000000000e+03 5.661656188964843750e+01 2.674271106719970703e+00 -2.026577711105346680e+00 5.543795824050903320e-01 -4.416594207286834717e-01 -5.311489701271057129e-01
1.789000000000000000e+03 1.227379131317138672e+01 -1.300186347961425781e+01 7.020925879478454590e-01 4.650976955890655518e-01 3.501570820808410645e-01 4.576267004013061523e-01
1.790000000000000000e+03 1.311796951293945312e+01 -1.341446495056152344e+01 7.832622528076171875e-01 3.468915224075317383e-01 3.390461206436157227e-01 3.916886746883392334e-01
1.791000000000000000e+03 1.703254890441894531e+01 4.393737792968750000e+00 1.648544821364339441e-05 7.135242776712402701e-05 2.635136297612916678e-05 6.323613342829048634e-05
1.792000000000000000e+03 7.584503936767578125e+01 -1.551559162139892578e+01 1.119313359260559082e+00 8.853135108947753906e+00 2.991734504699707031e+00 -1.278060078620910645e+00
1.793000000000000000e+03 1.345207405090332031e+01 1.174578666687011719e+01 1.590621832292526960e-04 1.579600393597502261e-05 5.245745705906301737e-05 6.300519453361630440e-05
1.794000000000000000e+03 1.294631481170654297e+01 1.306555080413818359e+01 -1.538357319077476859e-04 -1.613171843928284943e-05 -5.099023474031127989e-05 -6.804419535910710692e-05
1.795000000000000000e+03 1.757088470458984375e+01 -1.278424739837646484e+01 5.696213841438293457e-01 -1.086968556046485901e-01 1.382773667573928833e-01 3.143991827964782715e-01
1.796000000000000000e+03 7.354773712158203125e+01 2.879841613769531250e+01 1.311181783676147461e-01 5.097475528717041016e+00 1.568578124046325684e+00 -2.362824529409408569e-01
1.797000000000000000e+03 7.545529174804687500e+01 -3.098150062561035156e+01 -3.713674247264862061e-01 1.029001712799072266e+01 2.975594997406005859e+00 -9.118272662162780762e-01
1.798000000000000000e+03 4.210544204711914062e+01 -2.923928642272949219e+01 -1.207137480378150940e-01 3.667948007583618164e+00 1.064170360565185547e+00 -6.845008134841918945e-01
1.799000000000000000e+03 4.447144699096679688e+01 -2.634846115112304688e+01 1.353295147418975830e-01 2.603772878646850586e+00 8.217307329177856445e-01 -7.121344208717346191e-01
1.800000000000000000e+03 4.390579223632812500e+01 -2.758736419677734375e+01 4.847846552729606628e-02 2.953342676162719727e+00 9.005463123321533203e-01 -7.344648241996765137e-01
1.801000000000000000e+03 7.602056121826171875e+01 -2.786314201354980469e+01 -2.029268145561218262e-01 1.018770885467529297e+01 2.995434522628784180e+00 -1.248980164527893066e+00
1.802000000000000000e+03 7.516764831542968750e+01 2.385515975952148438e+01 1.052829101681709290e-01 5.377840042114257812e+00 1.644936919212341309e+00 -3.713830411434173584e-01
1.803000000000000000e+03 7.466323852539062500e+01 -1.670168495178222656e+01 7.832961678504943848e-01 1.055049991607666016e+01 3.400138854980468750e+00 -1.953304886817932129e+00
1.804000000000000000e+03 7.626567077636718750e+01 -1.770610237121582031e+01 1.167467683553695679e-01 8.911061286926269531e+00 2.708342313766479492e+00 -1.604515552520751953e+00
1.805000000000000000e+03 7.508094787597656250e+01 -2.265035629272460938e+01 -1.054640337824821472e-01 9.874006271362304688e+00 2.930562496185302734e+00 -1.353651881217956543e+00
1.806000000000000000e+03 7.329776763916015625e+01 -2.366157150268554688e+01 4.972727224230766296e-02 1.004961395263671875e+01 3.029802560806274414e+00 -1.124638199806213379e+00
1.807000000000000000e+03 7.446836853027343750e+01 -6.564443588256835938e+00 -6.209367513656616211e-01 9.041860580444335938e+00 2.526277065277099609e+00 6.477119922637939453e-01
1.808000000000000000e+03 7.539862060546875000e+01 1.300311374664306641e+01 3.341008350253105164e-02 6.389516353607177734e+00 1.926877975463867188e+00 -7.181749343872070312e-01
1.809000000000000000e+03 7.391587066650390625e+01 1.600517272949218750e+01 1.236689761281013489e-01 5.797641277313232422e+00 1.776393055915832520e+00 -7.851334810256958008e-01
1.810000000000000000e+03 7.555669403076171875e+01 1.723438072204589844e+01 8.246909081935882568e-02 5.933081150054931641e+00 1.804665088653564453e+00 -5.984064936637878418e-01
1.811000000000000000e+03 7.409599304199218750e+01 8.883167266845703125e+00 -9.971681237220764160e-02 6.570641994476318359e+00 1.941277623176574707e+00 -8.651543259620666504e-01
1.812000000000000000e+03 7.422679901123046875e+01 1.622166395187377930e+00 -4.540217220783233643e-01 7.518240451812744141e+00 2.119265556335449219e+00 -3.329120278358459473e-01
1.813000000000000000e+03 7.547399902343750000e+01 3.016887664794921875e+00 -2.723558247089385986e-01 7.623785495758056641e+00 2.205428838729858398e+00 -3.394996225833892822e-01
1.814000000000000000e+03 7.425683593750000000e+01 2.604623436927795410e-01 -4.819731116294860840e-01 7.683182239532470703e+00 2.160362720489501953e+00 -1.776046603918075562e-01
1.815000000000000000e+03 7.508242034912109375e+01 2.530752182006835938e+01 1.034395843744277954e-01 5.302952766418457031e+00 1.621917724609375000e+00 -3.174615502357482910e-01
1.816000000000000000e+03 7.310646820068359375e+01 -8.343070983886718750e+00 -6.182247996330261230e-01 1.023018550872802734e+01 2.883588075637817383e+00 3.581523895263671875e-01
1.817000000000000000e+03 7.403749084472656250e+01 1.171315097808837891e+01 1.582917757332324982e-02 6.239227771759033203e+00 1.876517057418823242e+00 -8.849524259567260742e-01
1.818000000000000000e+03 7.626519012451171875e+01 -1.082264995574951172e+01 5.365898013114929199e-01 8.311884880065917969e+00 2.654542446136474609e+00 1.134641885757446289e+00
1.819000000000000000e+03 7.465570068359375000e+01 1.804170227050781250e+01 1.207023710012435913e-01 5.739195823669433594e+00 1.757969498634338379e+00 -6.522694230079650879e-01
1.820000000000000000e+03 7.686093139648437500e+01 -9.967224121093750000e+00 1.472402811050415039e-01 7.711743354797363281e+00 2.357695102691650391e+00 1.173295974731445312e+00
1.821000000000000000e+03 7.420756530761718750e+01 -1.248268032073974609e+01 2.379409551620483398e+00 1.037278652191162109e+01 3.825658798217773438e+00 8.490995168685913086e-01
1.822000000000000000e+03 7.071006774902343750e+01 -2.889644145965576172e+00 -7.814246416091918945e-01 7.589703559875488281e+00 2.042483806610107422e+00 -6.438432335853576660e-01
1.823000000000000000e+03 7.464035034179687500e+01 -2.662395286560058594e+01 -1.684588491916656494e-01 9.804216384887695312e+00 2.890727281570434570e+00 -1.409927845001220703e+00
1.824000000000000000e+03 7.232216644287109375e+01 -1.783999252319335938e+01 -9.227918982505798340e-01 1.330793285369873047e+01 3.715542316436767578e+00 -9.720479846000671387e-01
1.825000000000000000e+03 7.590303802490234375e+01 -2.175393486022949219e+01 -1.405097842216491699e-01 9.641674041748046875e+00 2.850349187850952148e+00 -1.417613267898559570e+00
1.826000000000000000e+03 7.320685577392578125e+01 3.241384887695312500e+01 1.003975570201873779e-01 5.026673316955566406e+00 1.538121223449707031e+00 -1.354529708623886108e-01
1.827000000000000000e+03 7.119887542724609375e+01 3.477239990234375000e+01 1.096732169389724731e-01 4.954484462738037109e+00 1.519247293472290039e+00 -8.750987052917480469e-02
1.828000000000000000e+03 7.412194824218750000e+01 7.434877872467041016e+00 -1.743401139974594116e-01 6.747691631317138672e+00 1.972005367279052734e+00 -8.167794346809387207e-01
1.829000000000000000e+03 7.413034820556640625e+01 4.494214057922363281e+00 -3.337393105030059814e-01 7.138739109039306641e+00 2.041499853134155273e+00 -6.265383362770080566e-01
1.830000000000000000e+03 7.617076873779296875e+01 -2.068432235717773438e+01 -1.885924637317657471e-01 9.411484718322753906e+00 2.766867637634277344e+00 -1.506350994110107422e+00
1.831000000000000000e+03 7.310854339599609375e+01 -2.218274116516113281e+01 -1.103114560246467590e-01 1.053228855133056641e+01 3.126593351364135742e+00 -8.941961526870727539e-01
1.832000000000000000e+03 7.294121551513671875e+01 -3.186588478088378906e+01 -9.239763617515563965e-01 8.964746475219726562e+00 2.412230968475341797e+00 -6.391190290451049805e-01
1.833000000000000000e+03 7.524775695800781250e+01 -3.223771667480468750e+01 -5.204938054084777832e-01 1.015373039245605469e+01 2.889971017837524414e+00 -7.023882269859313965e-01
1.834000000000000000e+03 7.398499298095703125e+01 1.451234912872314453e+01 9.528394043445587158e-02 5.950364112854003906e+00 1.813694357872009277e+00 -8.313527107238769531e-01
1.835000000000000000e+03 7.383800506591796875e+01 2.093763351440429688e+01 1.669183373451232910e-01 5.427816867828369141e+00 1.678420543670654297e+00 -5.751811265945434570e-01
1.836000000000000000e+03 7.142877197265625000e+01 -3.222649765014648438e+01 -1.163986086845397949e+00 7.861239433288574219e+00 2.009176015853881836e+00 -3.293696641921997070e-01
1.837000000000000000e+03 7.431119537353515625e+01 -7.729322433471679688e+00 -5.294187664985656738e-01 9.489366531372070312e+00 2.687984466552734375e+00 7.699657082557678223e-01
1.838000000000000000e+03 7.341564178466796875e+01 -9.538405418395996094e+00 -2.094303220510482788e-01 1.074728965759277344e+01 3.161357641220092773e+00 7.513074874877929688e-01
1.839000000000000000e+03 7.428669738769531250e+01 -2.507263183593750000e+00 -5.813118815422058105e-01 8.092693328857421875e+00 2.253414392471313477e+00 1.441318839788436890e-01
1.840000000000000000e+03 7.482839202880859375e+01 -2.807217979431152344e+01 -3.099311888217926025e-01 9.877644538879394531e+00 2.870313882827758789e+00 -1.330025315284729004e+00
1.841000000000000000e+03 7.496662139892578125e+01 -1.873116683959960938e+01 -1.830133348703384399e-01 1.047969627380371094e+01 3.089004993438720703e+00 -1.698587536811828613e+00
1.842000000000000000e+03 7.499176788330078125e+01 -1.974467277526855469e+01 -2.495080381631851196e-01 1.032937431335449219e+01 3.023959875106811523e+00 -1.572755813598632812e+00
1.843000000000000000e+03 9.401479721069335938e+00 2.993997573852539062e+01 6.200253264978528023e-04 3.135587030556052923e-05 1.954143517650663853e-04 1.511651680630166084e-05
1.844000000000000000e+03 4.134335517883300781e+00 2.824682998657226562e+01 -2.530605124775320292e-04 6.722376565448939800e-05 -5.575102477450855076e-05 -4.639609687728807330e-05
1.845000000000000000e+03 5.036773204803466797e+00 2.855025291442871094e+01 3.184731758665293455e-05 4.504577736952342093e-05 2.306792885065078735e-05 -1.078395071090199053e-04
1.846000000000000000e+03 1.844969940185546875e+01 -1.318336963653564453e+01 5.596921443939208984e-01 -1.486852765083312988e-01 1.233020573854446411e-01 3.082067966461181641e-01
1.847000000000000000e+03 1.874646759033203125e+01 -1.228569602966308594e+01 5.291601419448852539e-01 -1.711112558841705322e-01 1.074146628379821777e-01 3.247089684009552002e-01
1.848000000000000000e+03 4.822670364379882812e+01 2.021737861633300781e+01 1.104369640350341797e+00 5.052390575408935547e+00 1.847028136253356934e+00 1.074732065200805664e+00
1.849000000000000000e+03 1.019139957427978516e+01 -1.295758247375488281e+01 5.481234788894653320e-01 7.283653616905212402e-01 3.829466402530670166e-01 3.509401977062225342e-01
1.850000000000000000e+03 5.342980861663818359e+00 -9.672807693481445312e+00 -8.281381428241729736e-02 1.530752778053283691e-01 2.107843756675720215e-02 -3.158569633960723877e-01
1.851000000000000000e+03 8.954920768737792969e+00 2.465905189514160156e+01 -1.449731644243001938e-04 -4.829490353586152196e-05 -5.798041820526123047e-05 -1.438123872503638268e-04
1.852000000000000000e+03 1.156380939483642578e+01 2.560206413269042969e+01 -1.908811391331255436e-04 -1.023319273372180760e-04 -8.796391921350732446e-05 -1.922921364894136786e-04
1.853000000000000000e+03 2.678128623962402344e+01 -4.225490093231201172e+00 -7.983014732599258423e-02 -3.067255020141601562e-01 -1.159667000174522400e-01 -4.764758050441741943e-01
1.854000000000000000e+03 2.804169464111328125e+01 -5.473177433013916016e+00 5.137608051300048828e-01 -5.029127001762390137e-01 3.254434326663613319e-03 -5.085546970367431641e-01
1.855000000000000000e+03 3.744448852539062500e+01 -1.067582130432128906e+01 1.488471388816833496e+00 7.422214508056640625e+00 2.673205614089965820e+00 3.334703445434570312e-01
1.856000000000000000e+03 4.708009338378906250e+01 2.056588935852050781e+01 9.177649617195129395e-01 5.427986621856689453e+00 1.903725504875183105e+00 1.060246944427490234e+00
1.857000000000000000e+03 1.185475444793701172e+01 1.581412696838378906e+01 -8.719939796719700098e-05 -9.620503078622277826e-06 -2.904597022279631346e-05 -7.394717249553650618e-05
1.858000000000000000e+03 6.957436561584472656e+00 1.538435363769531250e+01 1.676251413300633430e-04 2.965896601381246001e-05 5.918523311265744269e-05 9.444880561204627156e-06
1.859000000000000000e+03 4.438546657562255859e+00 2.105375099182128906e+01 2.562159497756510973e-04 3.297492730780504644e-05 8.675726712681353092e-05 -2.344134918530471623e-05
1.860000000000000000e+03 4.352060794830322266e+00 1.557689666748046875e+01 1.719863939797505736e-04 2.110119567078072578e-05 5.792627780465409160e-05 -3.508251029415987432e-05
1.861000000000000000e+03 4.371826648712158203e+00 2.702035140991210938e+01 2.759391500148922205e-04 2.558238156780134887e-05 9.045645856531336904e-05 -7.668472972000017762e-05
1.862000000000000000e+03 6.946323871612548828e+00 -1.233329677581787109e+01 1.341703385114669800e-01 6.653044223785400391e-01 2.398424297571182251e-01 -9.339585155248641968e-02
1.863000000000000000e+03 4.675889015197753906e+00 3.156818962097167969e+01 3.428744967095553875e-04 1.523243263363838196e-04 1.485596440033987164e-04 -2.879482053685933352e-04
1.864000000000000000e+03 5.609611511230468750e+00 1.695443725585937500e+01 2.255026047350838780e-04 -1.202644398290431127e-06 6.728999142069369555e-05 -2.963616134366020560e-05
1.865000000000000000e+03 5.468973159790039062e+00 1.386266040802001953e+01 1.572249602759256959e-04 1.858060386439319700e-05 5.274167051538825035e-05 -7.205943256849423051e-05
1.866000000000000000e+03 5.932261943817138672e+00 2.210551834106445312e+01 2.116901596309617162e-04 1.102482347050681710e-04 9.658151975600048900e-05 -6.714978371746838093e-05
1.867000000000000000e+03 5.405428409576416016e+00 1.831533050537109375e+01 -2.752838772721588612e-04 5.247549052000977099e-05 -6.684251275146380067e-05 -2.229077608717489056e-06
1.868000000000000000e+03 5.690357685089111328e+00 2.067178916931152344e+01 -1.985565322684124112e-04 -4.569136581267230213e-05 -7.327437197091057897e-05 1.290345244342461228e-05
1.869000000000000000e+03 6.762609958648681641e+00 3.407167053222656250e+01 -1.193994030472822487e-04 1.871624590421561152e-05 -3.020494841621257365e-05 -1.317688875133171678e-04
1.870000000000000000e+03 3.779265975952148438e+01 -1.163385105133056641e+01 1.245692729949951172e+00 8.051892280578613281e+00 2.789275646209716797e+00 2.703823149204254150e-01
1.871000000000000000e+03 3.558393859863281250e+01 -1.553824996948242188e+01 -3.488536775112152100e-01 4.901441097259521484e+00 1.365776181221008301e+00 -1.581745296716690063e-01
1.872000000000000000e+03 3.805493831634521484e+00 1.004902744293212891e+01 1.207376189995557070e-04 2.291397504450287670e-05 4.309547875891439617e-05 -2.739800038398243487e-05
1.873000000000000000e+03 4.828319072723388672e+00 9.889842987060546875e+00 -8.422534301644191146e-05 -4.862946298089809716e-05 -3.985644070780836046e-05 3.005036705872043967e-05
1.874000000000000000e+03 5.521354675292968750e+00 -1.325166893005371094e+01 1.521769911050796509e-01 4.936176538467407227e-01 1.937383860349655151e-01 -2.356769889593124390e-01
1.875000000000000000e+03 4.661088466644287109e+00 8.726511001586914062e+00 8.079563849605619907e-05 4.550610537989996374e-05 3.789052425418049097e-05 -1.652610626479145139e-05
1.876000000000000000e+03 4.863743782043457031e+00 -6.993155479431152344e+00 -1.118582636117935181e-01 -8.524153381586074829e-03 -3.611472621560096741e-02 -2.983377873897552490e-01
1.877000000000000000e+03 4.557107925415039062e+00 3.551851272583007812e+01 -5.627154605463147163e-04 4.318852006690576673e-05 -1.558580843266099691e-04 -6.070164381526410580e-04
1.878000000000000000e+03 4.725031852722167969e+00 -7.794623851776123047e+00 -9.396675974130630493e-02 -1.035490352660417557e-02 -3.129649907350540161e-02 -3.014644086360931396e-01
1.879000000000000000e+03 5.777647972106933594e+00 -7.318644046783447266e+00 -1.234912574291229248e-01 1.231986805796623230e-01 -8.777174662100151181e-05 -2.751961648464202881e-01
1.880000000000000000e+03 5.435840225219726562e+01 3.479619979858398438e+00 -2.044396877288818359e+00 5.259546041488647461e-01 -4.555326700210571289e-01 -3.960209190845489502e-01
1.881000000000000000e+03 5.322550964355468750e+01 5.760430335998535156e+00 -6.286220550537109375e-01 7.193753719329833984e-01 2.722600474953651428e-02 -4.681638181209564209e-01
1.882000000000000000e+03 5.407466125488281250e+01 5.132320404052734375e+00 -9.598450660705566406e-01 6.851169466972351074e-01 -8.241844177246093750e-02 -5.852727293968200684e-01
1.883000000000000000e+03 1.416839599609375000e+01 7.077434062957763672e+00 5.691032583854394034e-06 9.637246876081917435e-06 4.598483883455628529e-06 5.051362313679419458e-05
1.884000000000000000e+03 4.120456314086914062e+01 -2.147536277770996094e+01 -3.144313991069793701e-01 6.475131511688232422e+00 1.848210096359252930e+00 3.253444135189056396e-01
1.885000000000000000e+03 4.046615982055664062e+01 -2.461883735656738281e+01 4.195071160793304443e-01 5.326469421386718750e+00 1.723792910575866699e+00 1.700658649206161499e-01
1.886000000000000000e+03 4.670949172973632812e+01 8.095149040222167969e+00 1.716483592987060547e+00 3.228811025619506836e+00 1.483588457107543945e+00 2.003016710281372070e+00
1.887000000000000000e+03 4.593344116210937500e+01 1.179167652130126953e+01 2.079262256622314453e+00 5.175367355346679688e+00 2.176388978958129883e+00 2.409170627593994141e+00
1.888000000000000000e+03 6.902314186096191406e+00 -9.765012741088867188e+00 -7.625769823789596558e-02 3.573760390281677246e-01 8.433549851179122925e-02 -1.994902789592742920e-01
1.889000000000000000e+03 1.323969936370849609e+01 8.833747863769531250e+00 -1.578990195412188768e-04 -2.539970046200323850e-05 -5.498961763805709779e-05 -2.096792559314053506e-05
1.890000000000000000e+03 1.394257164001464844e+01 1.042253684997558594e+01 -1.541063538752496243e-04 -2.457269692968111485e-05 -5.360371505958028138e-05 -6.652603042311966419e-05
1.891000000000000000e+03 4.658544540405273438e+01 1.618833732604980469e+01 1.475482225418090820e+00 5.503022193908691406e+00 2.093551397323608398e+00 1.770311117172241211e+00
1.892000000000000000e+03 1.277842712402343750e+01 -3.503731918334960938e+01 -3.808707296848297119e-01 -3.353953063488006592e-01 -2.148797959089279175e-01 2.362293601036071777e-01
1.893000000000000000e+03 2.579288673400878906e+01 -4.182399272918701172e+00 -7.402278482913970947e-02 -2.048376649618148804e-01 -8.365813642740249634e-02 -3.490808308124542236e-01
1.894000000000000000e+03 6.205781555175781250e+01 2.424240589141845703e+00 -1.230556368827819824e+00 2.513769388198852539e+00 3.849638998508453369e-01 -1.657175302505493164e+00
1.895000000000000000e+03 6.126092529296875000e+01 -4.794518649578094482e-02 -1.808810472488403320e+00 1.451691985130310059e+00 -1.071355491876602173e-01 -1.091886162757873535e+00
1.896000000000000000e+03 1.411242866516113281e+01 5.015190124511718750e+00 -5.347865953808650374e-05 -7.189527968876063824e-05 -3.761218249564990401e-05 -6.071126335882581770e-05
1.897000000000000000e+03 4.839883041381835938e+01 2.653064537048339844e+01 7.142807841300964355e-01 4.861160278320312500e+00 1.672632336616516113e+00 4.958083927631378174e-01
1.898000000000000000e+03 4.582712936401367188e+01 2.646138191223144531e+01 5.913158655166625977e-01 5.280279636383056641e+00 1.761478662490844727e+00 2.348002344369888306e-01
1.899000000000000000e+03 3.648799896240234375e+01 -1.324818515777587891e+01 9.229226112365722656e-01 5.880383491516113281e+00 2.040991783142089844e+00 1.289941817522048950e-01
1.900000000000000000e+03 1.537043952941894531e+01 3.876780033111572266e+00 5.886119106435216963e-05 2.224238050985150039e-05 2.433107147226110101e-05 -2.310301715624518692e-05
1.901000000000000000e+03 6.609360504150390625e+01 -1.688044071197509766e+00 -1.036306738853454590e+00 5.230364322662353516e+00 1.258217334747314453e+00 -1.341372370719909668e+00
1.902000000000000000e+03 4.612553024291992188e+01 1.323337459564208984e+01 1.895287871360778809e+00 5.404844760894775391e+00 2.190039873123168945e+00 2.221510410308837891e+00
1.903000000000000000e+03 3.446271133422851562e+01 -1.570885372161865234e+01 -5.529095530509948730e-01 2.738719701766967773e+00 6.557430624961853027e-01 -1.348908990621566772e-01
1.904000000000000000e+03 3.976020431518554688e+01 -1.946707344055175781e+01 -6.092162728309631348e-01 7.938052177429199219e+00 2.198650836944580078e+00 1.064619660377502441e+00
1.905000000000000000e+03 4.528443145751953125e+01 1.626958084106445312e+01 1.245692968368530273e+00 6.329672336578369141e+00 2.272609710693359375e+00 1.811101436614990234e+00
1.906000000000000000e+03 6.080156326293945312e+01 2.853828191757202148e+00 -1.213622093200683594e+00 1.887961387634277344e+00 2.023018002510070801e-01 -1.505735754966735840e+00
1.907000000000000000e+03 1.105759048461914062e+01 2.712715530395507812e+01 2.029978641076013446e-04 1.100731242331676185e-05 6.420155114028602839e-05 2.924982691183686256e-04
1.908000000000000000e+03 4.635874557495117188e+01 1.470084095001220703e+01 1.690769553184509277e+00 5.443906307220458984e+00 2.140402793884277344e+00 1.982378125190734863e+00
1.909000000000000000e+03 4.351212310791015625e+01 7.993037700653076172e+00 1.859937548637390137e+00 6.879790782928466797e+00 2.621918439865112305e+00 3.227430820465087891e+00
1.910000000000000000e+03 4.584172058105468750e+01 1.036052608489990234e+01 2.067826271057128906e+00 4.818825721740722656e+00 2.065995454788208008e+00 2.471433162689208984e+00
1.911000000000000000e+03 5.953897094726562500e+01 3.253394842147827148e+00 -1.238809227943420410e+00 1.398516893386840820e+00 4.791233316063880920e-02 -1.300121068954467773e+00
1.912000000000000000e+03 5.748895645141601562e+01 5.196657180786132812e+00 -7.136596441268920898e-01 1.155452966690063477e+00 1.325379908084869385e-01 -1.117667078971862793e+00
1.913000000000000000e+03 3.733247375488281250e+01 -1.603422355651855469e+01 -4.041320979595184326e-01 7.263937950134277344e+00 2.057941675186157227e+00 3.114916384220123291e-01
1.914000000000000000e+03 9.501976013183593750e+00 -5.724201679229736328e+00 -1.749763786792755127e-01 1.942114084959030151e-01 5.770509596914052963e-03 -7.377969473600387573e-02
1.915000000000000000e+03 7.173510742187500000e+01 -1.979836463928222656e+01 -7.459136843681335449e-01 1.197945880889892578e+01 3.370063543319702148e+00 -1.880358606576919556e-01
1.916000000000000000e+03 7.394378662109375000e+01 -1.959638404846191406e+01 -4.244689941406250000e-01 1.110938549041748047e+01 3.205474853515625000e+00 -1.359158754348754883e+00
1.917000000000000000e+03 5.240178298950195312e+01 6.457764625549316406e+00 -1.105741634964942932e-01 7.787243127822875977e-01 2.004450410604476929e-01 -3.112081587314605713e-01
1.918000000000000000e+03 1.313748931884765625e+01 3.441399383544921875e+01 2.461361291352659464e-04 -6.501738098450005054e-04 -1.212113056681118906e-04 -1.085036201402544975e-03
1.919000000000000000e+03 7.713259696960449219e+00 3.515844345092773438e+01 3.930951643269509077e-04 -9.833135845838114619e-05 8.842913666740059853e-05 -6.291515310294926167e-04
1.920000000000000000e+03 2.833652114868164062e+01 -1.284467029571533203e+01 9.016466140747070312e-01 -3.689616620540618896e-01 1.598054915666580200e-01 8.014553785324096680e-01
1.921000000000000000e+03 4.771946334838867188e+01 7.522939682006835938e+00 1.222307920455932617e+00 2.168344020843505859e+00 1.017195582389831543e+00 1.477416992187500000e+00
1.922000000000000000e+03 5.082939910888671875e+01 6.463624477386474609e+00 3.275093063712120056e-02 7.270143628120422363e-01 2.279295772314071655e-01 1.347480248659849167e-02
1.923000000000000000e+03 6.957463836669921875e+01 -3.968678283691406250e+01 -1.607031375169754028e-02 5.500112056732177734e+00 1.645212531089782715e+00 7.876215130090713501e-02
1.924000000000000000e+03 5.394366073608398438e+01 6.869451522827148438e+00 5.103644728660583496e-02 9.471018314361572266e-01 2.994414865970611572e-01 -5.696438550949096680e-01
1.925000000000000000e+03 5.598076629638671875e+01 4.176070690155029297e+00 -1.331606268882751465e+00 7.641688585281372070e-01 -1.702312380075454712e-01 -7.379514575004577637e-01
1.926000000000000000e+03 4.466488647460937500e+01 5.418653011322021484e+00 -8.949843794107437134e-02 4.357034683227539062e+00 1.280260920524597168e+00 2.655388832092285156e+00
1.927000000000000000e+03 4.089754867553710938e+01 -2.316955947875976562e+01 1.592822968959808350e-01 5.656411170959472656e+00 1.744708061218261719e+00 2.758076786994934082e-01
1.928000000000000000e+03 3.998746871948242188e+01 -2.366503143310546875e+01 4.122036397457122803e-01 5.842507362365722656e+00 1.876413345336914062e+00 5.171790122985839844e-01
1.929000000000000000e+03 1.493477439880371094e+01 3.525970840454101562e+01 1.487547764554619789e-03 -9.918531868606805801e-04 1.487083645770326257e-04 -2.683252678252756596e-04
1.930000000000000000e+03 7.203899383544921875e+01 -2.374923706054687500e+01 2.640047967433929443e-01 1.017117691040039062e+01 3.130554676055908203e+00 -7.263802886009216309e-01
1.931000000000000000e+03 1.159870815277099609e+01 1.960539054870605469e+01 -3.092255210503935814e-04 5.735986178478924558e-06 -9.104685886995866895e-05 -5.424893970484845340e-05
1.932000000000000000e+03 7.188686847686767578e+00 1.803352546691894531e+01 1.610135368537157774e-04 -2.667286207724828273e-05 4.030220225104130805e-05 -1.065994874807074666e-04
1.933000000000000000e+03 3.626816177368164062e+01 -6.200384140014648438e+00 1.538108229637145996e+00 5.151434898376464844e+00 2.006862878799438477e+00 8.793752193450927734e-01
1.934000000000000000e+03 6.067948150634765625e+01 -3.749776840209960938e+01 -7.974097132682800293e-02 -2.754868566989898682e-01 -1.065683439373970032e-01 -2.045255601406097412e-01
1.935000000000000000e+03 6.935550689697265625e+01 -3.594570159912109375e+01 -6.801425218582153320e-01 5.722686767578125000e+00 1.512763381004333496e+00 1.711859107017517090e-01
1.936000000000000000e+03 7.006716156005859375e+01 -3.259519195556640625e+01 -1.266347885131835938e+00 7.032823562622070312e+00 1.729942798614501953e+00 -1.079402938485145569e-01
1.937000000000000000e+03 3.836456680297851562e+01 -3.003579521179199219e+01 -1.988091319799423218e-01 5.019164562225341797e+00 1.446106553077697754e+00 -1.959655135869979858e-01
1.938000000000000000e+03 7.353963470458984375e+01 -2.827807617187500000e+01 -4.398034811019897461e-01 9.531957626342773438e+00 2.727646350860595703e+00 -1.289441466331481934e+00
1.939000000000000000e+03 3.542635345458984375e+01 -3.833164215087890625e+00 4.686588644981384277e-01 3.581714153289794922e+00 1.215111970901489258e+00 7.984137535095214844e-01
1.940000000000000000e+03 2.806143379211425781e+01 -7.941156387329101562e+00 1.233265757560729980e+00 -4.843513071537017822e-01 2.246743440628051758e-01 -6.875016540288925171e-02
1.941000000000000000e+03 3.164710617065429688e+01 -5.046202182769775391e+00 9.701015353202819824e-01 7.810685783624649048e-02 3.144625127315521240e-01 -2.525829374790191650e-01
1.942000000000000000e+03 7.011383056640625000e+00 1.225115489959716797e+01 -6.223835953278467059e-05 -5.493394564837217331e-05 -3.515169009915553033e-05 -2.760248753475025296e-05
1.943000000000000000e+03 2.561565589904785156e+01 -1.237555503845214844e+01 7.401868700981140137e-01 -4.506536126136779785e-01 8.685997873544692993e-02 5.650327205657958984e-01
1.944000000000000000e+03 2.167316627502441406e+01 -6.746640205383300781e+00 2.902333438396453857e-01 -2.299960702657699585e-01 1.807118020951747894e-02 8.613712340593338013e-02
1.945000000000000000e+03 3.542099761962890625e+01 -5.159179210662841797e+00 1.183355808258056641e+00 3.532158374786376953e+00 1.414654254913330078e+00 7.067781090736389160e-01
1.946000000000000000e+03 3.068045616149902344e+01 -6.019385814666748047e+00 1.168120384216308594e+00 -1.266102194786071777e-01 3.124530315399169922e-01 -2.523209750652313232e-01
1.947000000000000000e+03 3.356867980957031250e+01 -5.232258319854736328e+00 1.207666873931884766e+00 1.704611778259277344e+00 8.736835718154907227e-01 3.163504898548126221e-01
1.948000000000000000e+03 3.562029266357421875e+01 -3.322654342651367188e+01 -9.185032844543457031e-01 4.360537052154541016e+00 1.032610177993774414e+00 5.138556957244873047e-01
1.949000000000000000e+03 3.929853057861328125e+01 -3.188812637329101562e+01 -5.852961540222167969e-01 4.414670944213867188e+00 1.148812413215637207e+00 -3.312039971351623535e-01
1.950000000000000000e+03 3.904347229003906250e+01 -2.685093688964843750e+01 6.706446409225463867e-01 5.497969627380371094e+00 1.850584268569946289e+00 1.011019647121429443e-01
1.951000000000000000e+03 7.210089111328125000e+01 4.072254562377929688e+01 4.321371763944625854e-02 4.985768795013427734e+00 1.508694767951965332e+00 -2.071883156895637512e-02
1.952000000000000000e+03 7.433171844482421875e+01 3.672586822509765625e+01 3.765576332807540894e-02 5.031828880310058594e+00 1.520845413208007812e+00 -5.429038777947425842e-02
1.953000000000000000e+03 7.205681610107421875e+01 -2.527447700500488281e+01 1.725018471479415894e-01 9.644870758056640625e+00 2.945211887359619141e+00 -1.050119519233703613e+00
1.954000000000000000e+03 3.943121337890625000e+01 -2.439703941345214844e+01 6.250686645507812500e-01 5.925451278686523438e+00 1.965155959129333496e+00 5.105745792388916016e-01
1.955000000000000000e+03 3.750210189819335938e+01 -6.260621070861816406e+00 1.555527091026306152e+00 7.285617351531982422e+00 2.652343273162841797e+00 8.463636040687561035e-01
1.956000000000000000e+03 3.715747833251953125e+01 -7.455321788787841797e+00 1.745539426803588867e+00 6.686882495880126953e+00 2.529726505279541016e+00 8.746980428695678711e-01
1.957000000000000000e+03 7.206579589843750000e+01 -2.685284423828125000e+01 -2.523381412029266357e-01 9.303194046020507812e+00 2.715256929397583008e+00 -1.200193762779235840e+00
1.958000000000000000e+03 5.009405612945556641e+00 -3.477523422241210938e+01 -1.120275184512138367e-01 4.473031163215637207e-01 1.005826815962791443e-01 -2.620860747992992401e-02
1.959000000000000000e+03 8.970367431640625000e+00 1.727145957946777344e+01 -2.117332041962072253e-04 -2.159419091185554862e-05 -6.999821926001459360e-05 -1.157551887445151806e-04
1.960000000000000000e+03 1.164776706695556641e+01 2.106266212463378906e+01 3.583822690416127443e-04 -6.731817393301753327e-06 1.054951353580690920e-04 9.609603148419409990e-05
1.961000000000000000e+03 4.676222991943359375e+01 3.013308715820312500e+01 4.297370016574859619e-01 4.727360248565673828e+00 1.547129154205322266e+00 3.423949182033538818e-01
1.962000000000000000e+03 4.747894668579101562e+01 3.156620979309082031e+01 2.740276455879211426e-01 4.666895389556884766e+00 1.482276916503906250e+00 3.539174497127532959e-01
1.963000000000000000e+03 1.013153553009033203e+01 2.815759086608886719e+01 6.492240354418754578e-04 -1.716609258437529206e-04 1.432689459761604667e-04 -2.367109991610050201e-04
1.964000000000000000e+03 4.697636795043945312e+01 2.563214492797851562e+01 6.787667870521545410e-01 5.135429859161376953e+00 1.744258999824523926e+00 4.037386775016784668e-01
1.965000000000000000e+03 7.110313415527343750e+01 3.634751796722412109e+00 -6.179611086845397949e-01 6.490501403808593750e+00 1.761762142181396484e+00 -9.844307899475097656e-01
1.966000000000000000e+03 6.449124145507812500e+01 1.603259086608886719e+00 -1.238039731979370117e+00 3.968900680541992188e+00 8.192583322525024414e-01 -1.693735241889953613e+00
1.967000000000000000e+03 7.019598388671875000e+01 -3.422496032714843750e+01 -9.749072194099426270e-01 6.768264770507812500e+00 1.738007307052612305e+00 1.897397264838218689e-02
1.968000000000000000e+03 7.388372039794921875e+01 -3.574008941650390625e+01 -4.289888143539428711e-01 9.202860832214355469e+00 2.632161617279052734e+00 -1.729429513216018677e-01
1.969000000000000000e+03 1.165767574310302734e+01 2.401021575927734375e+01 4.293908714316785336e-04 1.326369874732336029e-05 1.327963691437616944e-04 2.025179564952850342e-04
1.970000000000000000e+03 1.052114582061767578e+01 2.242736053466796875e+01 2.929024049080908298e-04 4.713463931693695486e-05 1.020111085381358862e-04 1.383667840855196118e-04
1.971000000000000000e+03 1.401701164245605469e+01 3.293765640258789062e+01 6.585406372323632240e-04 -3.009982174262404442e-04 1.072627273970283568e-04 1.368072407785803080e-04
1.972000000000000000e+03 4.501198577880859375e+01 3.873252868652343750e+01 -4.473121166229248047e-01 3.973309755325317383e+00 1.057799339294433594e+00 -2.940589562058448792e-02
1.973000000000000000e+03 2.171450424194335938e+01 -4.117744445800781250e+01 -1.285195052623748779e-01 2.036697715520858765e-01 2.254508063197135925e-02 3.979508206248283386e-02
1.974000000000000000e+03 4.562303161621093750e+01 3.234887313842773438e+01 1.416271179914474487e-01 4.586762905120849609e+00 1.418516993522644043e+00 2.371865361928939819e-01
1.975000000000000000e+03 4.584674835205078125e+01 3.631984710693359375e+01 -3.080301582813262939e-01 4.278789997100830078e+00 1.191228032112121582e+00 1.096039116382598877e-01
1.976000000000000000e+03 4.227228164672851562e+01 -2.736917495727539062e+01 1.290812343358993530e-01 3.677592039108276367e+00 1.142001986503601074e+00 -5.899807810783386230e-01
1.977000000000000000e+03 5.504529190063476562e+01 -3.814842605590820312e+01 -3.146244883537292480e-01 -6.186346337199211121e-02 -1.129463836550712585e-01 -4.485149681568145752e-01
1.978000000000000000e+03 2.812593841552734375e+01 -4.118583297729492188e+01 -5.098859667778015137e-01 1.462836623191833496e+00 2.858851850032806396e-01 1.323950141668319702e-01
1.979000000000000000e+03 3.251495361328125000e+01 -4.131176757812500000e+01 -1.080128192901611328e+00 2.844381809234619141e+00 5.292760729789733887e-01 1.313726156949996948e-01
1.980000000000000000e+03 1.021324348449707031e+01 -5.789278984069824219e+00 -1.640438735485076904e-01 1.944044679403305054e-01 9.108180180191993713e-03 -3.531420603394508362e-02
1.981000000000000000e+03 1.093293571472167969e+01 -5.862467288970947266e+00 -1.473943144083023071e-01 1.886041760444641113e-01 1.236295979470014572e-02 9.904404869303107262e-04
1.982000000000000000e+03 1.469792079925537109e+01 4.111647605895996094e+00 -1.064699608832597733e-04 -1.311539745074696839e-05 -3.587560786399990320e-05 -1.034163869917392731e-05
1.983000000000000000e+03 4.778534412384033203e+00 7.124973773956298828e+00 1.589191379025578499e-04 -7.702051516389474273e-05 2.456958827679045498e-05 1.956244705070275813e-05
1.984000000000000000e+03 1.167350769042968750e+01 -5.941672801971435547e+00 -1.319256573915481567e-01 1.806067526340484619e-01 1.460433006286621094e-02 4.084710404276847839e-02
1.985000000000000000e+03 4.524622440338134766e+00 5.325796127319335938e+00 2.870637581509072334e-05 2.570362630649469793e-05 1.632300154597032815e-05 -2.189919541706331074e-05
1.986000000000000000e+03 6.700514793395996094e+00 4.858628273010253906e+00 -4.710364373750053346e-05 -4.636376979760825634e-05 -2.804022369673475623e-05 7.495921181543963030e-06
1.987000000000000000e+03 6.121311664581298828e+00 5.658613204956054688e+00 -6.783424032619222999e-05 -2.749976192717440426e-05 -2.860020140360575169e-05 3.647960329544730484e-05
1.988000000000000000e+03 6.271406173706054688e+00 6.394947528839111328e+00 9.532964759273454547e-05 1.245543262484716251e-05 3.233552342862822115e-05 -7.536439079558476806e-05
1.989000000000000000e+03 7.439013004302978516e+00 4.842469692230224609e+00 4.811985490960069001e-05 5.216047793510369956e-05 3.008410021720919758e-05 4.262746642780257389e-06
1.990000000000000000e+03 8.199245452880859375e+00 5.655694961547851562e+00 6.082677646190859377e-05 5.522732681129127741e-05 3.481623207335360348e-05 1.552240610180888325e-05
1.991000000000000000e+03 1.266627502441406250e+01 5.416741371154785156e+00 -7.969557918841019273e-05 -3.345728327985852957e-05 -3.394586019567213953e-05 1.023275308398297057e-05
1.992000000000000000e+03 1.243968582153320312e+01 -6.030519962310791016e+00 -1.015836745500564575e-01 1.608050912618637085e-01 1.776642538607120514e-02 8.144908398389816284e-02
1.993000000000000000e+03 1.323172760009765625e+01 -6.139750003814697266e+00 -7.388137280941009521e-02 1.392598152160644531e-01 1.961353048682212830e-02 1.180258616805076599e-01
1.994000000000000000e+03 5.834363460540771484e+00 -6.420125007629394531e+00 -1.419609487056732178e-01 8.110667765140533447e-02 -1.825628057122230530e-02 -2.577392458915710449e-01
1.995000000000000000e+03 8.795952796936035156e+00 -4.943242073059082031e+00 -2.060974091291427612e-01 1.504026800394058228e-01 -1.670841872692108154e-02 -1.124817430973052979e-01
1.996000000000000000e+03 8.687371253967285156e+00 -7.022986412048339844e+00 -1.311193108558654785e-01 2.688158452510833740e-01 4.130895435810089111e-02 -1.116175428032875061e-01
1.997000000000000000e+03 6.590367794036865234e+00 -4.886053085327148438e+00 -1.723836064338684082e-01 7.951832562685012817e-02 -2.785958535969257355e-02 -1.987687945365905762e-01
1.998000000000000000e+03 1.628980255126953125e+01 -9.707291603088378906e+00 3.531648814678192139e-01 9.082561358809471130e-03 1.086742281913757324e-01 3.190684914588928223e-01
1.999000000000000000e+03 1.483529853820800781e+01 -7.283174037933349609e+00 8.081898838281631470e-02 9.100816398859024048e-02 5.154814571142196655e-02 2.175368070602416992e-01
2.000000000000000000e+03 1.073733711242675781e+01 4.856462955474853516e+00 7.215077494038268924e-05 3.318957533338107169e-05 3.160210690111853182e-05 9.950133062375243753e-06
2.001000000000000000e+03 1.750411224365234375e+01 -6.561814785003662109e+00 1.117738038301467896e-01 -5.417972058057785034e-02 1.727822609245777130e-02 2.067105025053024292e-01
2.002000000000000000e+03 1.742230606079101562e+01 -5.748090267181396484e+00 3.327408805489540100e-02 -4.420128464698791504e-02 -3.278159769251942635e-03 1.790104508399963379e-01
2.003000000000000000e+03 2.004298019409179688e+01 -6.654720783233642578e+00 2.077959030866622925e-01 -1.582007259130477905e-01 1.487855613231658936e-02 1.539996564388275146e-01
2.004000000000000000e+03 1.996352767944335938e+01 -5.803392410278320312e+00 1.149391606450080872e-01 -1.257104426622390747e-01 -3.231385955587029457e-03 1.279917061328887939e-01
2.005000000000000000e+03 1.175134468078613281e+01 5.605131149291992188e+00 8.500705735059455037e-05 2.686931657081004232e-05 3.356291199452243745e-05 -1.635249304854369257e-06
2.006000000000000000e+03 7.341685295104980469e+00 -5.675748825073242188e+00 -1.740172654390335083e-01 1.441244930028915405e-01 -8.967831730842590332e-03 -1.878951042890548706e-01
2.007000000000000000e+03 1.405072307586669922e+01 -6.275618076324462891e+00 -3.101785108447074890e-02 1.065382137894630432e-01 2.265610732138156891e-02 1.563096940517425537e-01
2.008000000000000000e+03 1.489850521087646484e+01 -6.417412281036376953e+00 6.286391522735357285e-03 6.637464463710784912e-02 2.179831080138683319e-02 1.805415451526641846e-01
2.009000000000000000e+03 2.073416519165039062e+01 -1.267130565643310547e+01 5.084970593452453613e-01 -2.525331974029541016e-01 7.678914815187454224e-02 3.467376530170440674e-01
2.010000000000000000e+03 1.919823455810546875e+01 -6.625650882720947266e+00 1.711867451667785645e-01 -1.239082440733909607e-01 1.418354921042919159e-02 1.787930279970169067e-01
2.011000000000000000e+03 1.080712509155273438e+01 5.720197200775146484e+00 -8.297259773826226592e-05 -4.157313742325641215e-05 -3.736371945706196129e-05 -2.956438584078568965e-05
2.012000000000000000e+03 1.235945034027099609e+01 1.137812232971191406e+01 -1.470985298510640860e-04 -9.565428626956418157e-06 -4.699919008999131620e-05 -4.847744276048615575e-05
2.013000000000000000e+03 8.068234443664550781e+00 -1.266434574127197266e+01 2.286710888147354126e-01 7.801811695098876953e-01 3.026556968688964844e-01 4.226123169064521790e-02
2.014000000000000000e+03 7.127317047119140625e+01 -1.025498962402343750e+01 -5.398408770561218262e-01 1.272069168090820312e+01 3.654255151748657227e+00 -1.019374847412109375e+00
2.015000000000000000e+03 7.182328033447265625e+01 -1.061840343475341797e+01 -1.723919995129108429e-02 1.275065517425537109e+01 3.820024967193603516e+00 -2.097824364900588989e-01
2.016000000000000000e+03 7.159188842773437500e+01 -9.555085182189941406e+00 -6.067230105400085449e-01 1.163565731048583984e+01 3.308680295944213867e+00 -8.549329042434692383e-01
2.017000000000000000e+03 7.269606781005859375e+01 -9.136839866638183594e+00 -5.241291522979736328e-01 1.091313648223876953e+01 3.116702079772949219e+00 1.850888580083847046e-01
2.018000000000000000e+03 1.639135551452636719e+01 3.982337236404418945e+00 3.468258000793866813e-05 -5.560419231187552214e-05 -6.276484327827347443e-06 -1.479029197071213275e-05
2.019000000000000000e+03 7.198365783691406250e+01 -1.873834800720214844e+01 -9.181560873985290527e-01 1.262330245971679688e+01 3.511543989181518555e+00 -4.291609227657318115e-01
2.020000000000000000e+03 1.319157028198242188e+01 -1.183750343322753906e+01 4.884419441223144531e-01 3.665806353092193604e-01 2.565067708492279053e-01 3.894739449024200439e-01
2.021000000000000000e+03 1.033981609344482422e+01 -1.189397048950195312e+01 2.803554534912109375e-01 6.674074530601501465e-01 2.843288779258728027e-01 2.542880773544311523e-01
2.022000000000000000e+03 8.129339218139648438e+00 6.518269062042236328e+00 -7.522074884036555886e-05 -4.839636676479130983e-05 -3.708513395395129919e-05 -8.927468115871306509e-06
2.023000000000000000e+03 1.049334335327148438e+01 -1.089563846588134766e+01 2.010802030563354492e-01 5.478658080101013184e-01 2.246837913990020752e-01 1.799518615007400513e-01
2.024000000000000000e+03 2.016522979736328125e+01 -8.478403091430664062e+00 3.868717551231384277e-01 -2.253123074769973755e-01 4.846782982349395752e-02 2.278399914503097534e-01
2.025000000000000000e+03 1.943658447265625000e+01 -1.348618507385253906e+01 5.153264403343200684e-01 -1.894940435886383057e-01 9.774971008300781250e-02 2.961834967136383057e-01
2.026000000000000000e+03 1.671479606628417969e+01 -7.365942955017089844e+00 1.568175107240676880e-01 -1.812287420034408569e-02 4.160839319229125977e-02 2.377831488847732544e-01
2.027000000000000000e+03 3.731867599487304688e+01 -1.762414169311523438e+01 -1.073352932929992676e+00 7.238592624664306641e+00 1.849571943283081055e+00 7.281299233436584473e-01
2.028000000000000000e+03 2.402824783325195312e+01 -6.021006107330322266e+00 3.072383105754852295e-01 -2.870840728282928467e-01 6.046267226338386536e-03 -1.163788437843322754e-01
2.029000000000000000e+03 2.322260475158691406e+01 -5.942749977111816406e+00 2.430812418460845947e-01 -2.451591938734054565e-01 -6.233868189156055450e-04 -6.130744144320487976e-02
2.030000000000000000e+03 5.997661972045898438e+01 4.617027759552001953e+00 -7.597819566726684570e-01 1.826787829399108887e+00 3.201017677783966064e-01 -1.486125946044921875e+00
2.031000000000000000e+03 2.057169151306152344e+01 -1.376533985137939453e+01 4.705182015895843506e-01 -2.108595222234725952e-01 7.789760082960128784e-02 3.338845074176788330e-01
2.032000000000000000e+03 5.208633422851562500e+00 6.687753677368164062e+00 -7.978515350259840488e-05 5.238427911535836756e-05 -8.220263225666712970e-06 -1.438930394215276465e-05
2.033000000000000000e+03 4.157955932617187500e+01 -2.438330841064453125e+01 2.612402737140655518e-01 4.667053699493408203e+00 1.478488206863403320e+00 -2.043446451425552368e-01
2.034000000000000000e+03 8.695013046264648438e+00 2.788240432739257812e+01 3.703414986375719309e-04 -1.880560594145208597e-04 5.468563176691532135e-05 -4.610824689734727144e-04
2.035000000000000000e+03 9.248160362243652344e+00 1.594452476501464844e+01 1.867157843662425876e-04 8.212523425754625350e-06 5.847849388374015689e-05 1.006540405796840787e-04
2.036000000000000000e+03 5.497443389892578125e+01 4.589955806732177734e+00 -1.227381110191345215e+00 7.145744562149047852e-01 -1.538420021533966064e-01 -6.334180831909179688e-01
2.037000000000000000e+03 2.488711929321289062e+01 -6.168834209442138672e+00 3.796063363552093506e-01 -3.530432879924774170e-01 7.968909107148647308e-03 -1.841322332620620728e-01
2.038000000000000000e+03 1.600296211242675781e+01 -1.177112102508544922e+01 5.192531943321228027e-01 2.046680264174938202e-02 1.619160026311874390e-01 3.469475805759429932e-01
2.039000000000000000e+03 1.618778228759765625e+01 -1.320436668395996094e+01 6.465210914611816406e-01 -2.417827956378459930e-02 1.867028474807739258e-01 3.109401464462280273e-01
2.040000000000000000e+03 5.175160217285156250e+01 3.250836181640625000e+01 2.966519892215728760e-01 4.550487995147705078e+00 1.454141974449157715e+00 4.251267611980438232e-01
2.041000000000000000e+03 1.535743427276611328e+01 -1.258888626098632812e+01 6.290383934974670410e-01 6.522085517644882202e-02 2.082777619361877441e-01 3.638966083526611328e-01
2.042000000000000000e+03 1.135499286651611328e+01 -1.196856975555419922e+01 4.405720531940460205e-01 5.579501986503601074e-01 2.995566725730895996e-01 3.445589840412139893e-01
2.043000000000000000e+03 4.452313613891601562e+01 4.038334369659423828e+00 -1.302824378013610840e+00 4.219012260437011719e+00 8.748564124107360840e-01 2.771557569503784180e+00
2.044000000000000000e+03 5.899355888366699219e+00 3.328450393676757812e+01 -3.833102164207957685e-05 2.427338622510433197e-04 6.132085400167852640e-05 -4.544149851426482201e-04
2.045000000000000000e+03 7.176902770996093750e+01 -3.424208450317382812e+01 -8.560040593147277832e-01 7.897502899169921875e+00 2.112449645996093750e+00 -1.154179945588111877e-01
2.046000000000000000e+03 6.379873752593994141e+00 3.226683807373046875e+01 2.359623467782512307e-04 2.001748653128743172e-04 1.308411592617630959e-04 -1.295493275392800570e-04
2.047000000000000000e+03 7.551786804199218750e+01 -1.717440986633300781e+01 5.098862648010253906e-01 9.746686935424804688e+00 3.076971769332885742e+00 -1.766983985900878906e+00
2.048000000000000000e+03 7.175459289550781250e+01 1.542659878730773926e+00 -7.031688690185546875e-01 7.003715038299560547e+00 1.890163898468017578e+00 -6.824906468391418457e-01
2.049000000000000000e+03 6.746014404296875000e+01 -7.062224149703979492e-01 -1.076744794845581055e+00 5.862158298492431641e+00 1.435624003410339355e+00 -1.241328001022338867e+00
2.050000000000000000e+03 7.454151916503906250e+01 -2.517650604248046875e+01 -6.751117110252380371e-02 9.815606117248535156e+00 2.924428701400756836e+00 -1.408358573913574219e+00
2.051000000000000000e+03 7.122000122070312500e+01 2.426608085632324219e+01 2.851498126983642578e-01 5.016739845275878906e+00 1.590566873550415039e+00 -4.814683198928833008e-01
2.052000000000000000e+03 7.451499938964843750e+01 -5.239462375640869141e+00 -6.175130009651184082e-01 8.674130439758300781e+00 2.416985273361206055e+00 5.092698931694030762e-01
2.053000000000000000e+03 7.470455169677734375e+01 -9.175857543945312500e+00 -1.274866461753845215e-01 9.647453308105468750e+00 2.855989933013916016e+00 1.104104638099670410e+00
2.054000000000000000e+03 7.120075225830078125e+01 1.723065567016601562e+01 2.898167669773101807e-01 5.200788021087646484e+00 1.647181391716003418e+00 -9.067996740341186523e-01
2.055000000000000000e+03 7.253291320800781250e+01 1.454298782348632812e+01 1.481989473104476929e-01 5.644652366638183594e+00 1.737855434417724609e+00 -9.513971209526062012e-01
2.056000000000000000e+03 7.512528228759765625e+01 -1.796405029296875000e+01 1.050274372100830078e-01 1.025031089782714844e+01 3.106601476669311523e+00 -1.848649024963378906e+00
2.057000000000000000e+03 7.139463043212890625e+01 8.882681846618652344e+00 -1.486031115055084229e-01 5.883740425109863281e+00 1.720541119575500488e+00 -1.169888734817504883e+00
2.058000000000000000e+03 7.274510192871093750e+01 8.934406280517578125e+00 -1.232792809605598450e-01 6.221750736236572266e+00 1.829541444778442383e+00 -1.018250703811645508e+00
2.059000000000000000e+03 7.344454956054687500e+01 -6.668101310729980469e+00 -7.122962474822998047e-01 9.312500000000000000e+00 2.580061197280883789e+00 3.103573620319366455e-01
2.060000000000000000e+03 7.282135772705078125e+01 4.527935504913330078e+00 -4.404570460319519043e-01 6.795742988586425781e+00 1.906585812568664551e+00 -8.148334622383117676e-01
2.061000000000000000e+03 3.399425125122070312e+01 -1.441693305969238281e+01 6.106905937194824219e-01 2.460293769836425781e+00 9.212952852249145508e-01 4.694310203194618225e-02
2.062000000000000000e+03 7.158326721191406250e+01 4.742981910705566406e+00 -5.160592794418334961e-01 6.452926158905029297e+00 1.781059980392456055e+00 -9.885953664779663086e-01
2.063000000000000000e+03 7.573860168457031250e+00 3.280165863037109375e+01 5.497175880009308457e-05 -1.413726276950910687e-04 -2.592026066849939525e-05 -3.076300781685858965e-04
2.064000000000000000e+03 7.355064392089843750e+01 -1.077096748352050781e+01 5.645238161087036133e-01 1.116441440582275391e+01 3.518681526184082031e+00 1.047843933105468750e+00
2.065000000000000000e+03 7.413381958007812500e+01 5.972846508026123047e+00 -2.588080763816833496e-01 6.936583042144775391e+00 2.003332614898681641e+00 -7.473486661911010742e-01
2.066000000000000000e+03 4.208626937866210938e+01 -2.576231002807617188e+01 1.939045637845993042e-01 4.047426700592041016e+00 1.272399306297302246e+00 -4.911488592624664307e-01
2.067000000000000000e+03 7.401516723632812500e+01 1.310126304626464844e+01 5.822012200951576233e-02 6.086475849151611328e+00 1.843408823013305664e+00 -8.650580048561096191e-01
2.068000000000000000e+03 2.587930488586425781e+01 -5.302670001983642578e+00 2.523638010025024414e-01 -3.451202213764190674e-01 -2.782692387700080872e-02 -3.528338074684143066e-01
2.069000000000000000e+03 7.197766876220703125e+01 -3.141948699951171875e+00 -7.799253463745117188e-01 7.974967479705810547e+00 2.158512592315673828e+00 -3.022314906120300293e-01
2.070000000000000000e+03 7.422116088867187500e+01 -2.159667587280273438e+01 -2.501667737960815430e-01 1.038561916351318359e+01 3.040635585784912109e+00 -1.266979575157165527e+00
2.071000000000000000e+03 7.418175506591796875e+01 1.942279624938964844e+01 1.491364091634750366e-01 5.557354927062988281e+00 1.711947321891784668e+00 -6.307324767112731934e-01
2.072000000000000000e+03 7.235533905029296875e+01 1.719413185119628906e+01 2.088732570409774780e-01 5.448141098022460938e+00 1.697104334831237793e+00 -8.445070981979370117e-01
2.073000000000000000e+03 7.202661895751953125e+01 2.821775054931640625e+01 1.923826038837432861e-01 5.025742053985595703e+00 1.565437436103820801e+00 -2.864735126495361328e-01
2.074000000000000000e+03 7.064861297607421875e+01 2.702770805358886719e+01 2.708165049552917480e-01 4.943589210510253906e+00 1.564321756362915039e+00 -3.521174490451812744e-01
2.075000000000000000e+03 7.345113372802734375e+01 -7.526990413665771484e+00 -6.752565503120422363e-01 9.705535888671875000e+00 2.709083795547485352e+00 4.166779816150665283e-01
2.076000000000000000e+03 7.390123748779296875e+01 -8.701674461364746094e+00 -4.278811216354370117e-01 1.002051258087158203e+01 2.877789258956909180e+00 7.966854572296142578e-01
2.077000000000000000e+03 7.352812194824218750e+01 -2.055250549316406250e+01 -4.072074592113494873e-01 1.100281333923339844e+01 3.178681850433349609e+00 -1.084728002548217773e+00
2.078000000000000000e+03 7.420561218261718750e+01 -1.105963230133056641e+00 -5.562598109245300293e-01 7.871972084045410156e+00 2.194713830947875977e+00 -3.245000913739204407e-02
2.079000000000000000e+03 7.230274963378906250e+01 -1.727663755416870117e+00 -7.312162518501281738e-01 7.693497180938720703e+00 2.088684320449829102e+00 -2.949139475822448730e-01
2.080000000000000000e+03 7.117563629150390625e+01 -3.563048362731933594e+00 -7.694454193115234375e-01 7.804771900177001953e+00 2.110597848892211914e+00 -5.798925757408142090e-01
2.081000000000000000e+03 7.713420867919921875e+00 -1.034191703796386719e+01 -7.645734120160341263e-03 4.858100116252899170e-01 1.434492766857147217e-01 -1.188234686851501465e-01
2.082000000000000000e+03 3.486493682861328125e+01 -1.225426673889160156e+01 1.347814083099365234e+00 3.751188993453979492e+00 1.529700875282287598e+00 1.891704946756362915e-01
2.083000000000000000e+03 8.199886322021484375e+00 2.320982551574707031e+01 -1.199561029352480546e-05 -1.846517698140814900e-04 -5.899421375943347812e-05 -1.002141725621186197e-04
2.084000000000000000e+03 5.493193149566650391e+00 -8.159777641296386719e+00 -1.196392849087715149e-01 1.097639501094818115e-01 -2.962600206956267357e-03 -3.071864247322082520e-01
2.085000000000000000e+03 4.847658634185791016e+00 -8.630743980407714844e+00 -9.171927720308303833e-02 2.473972737789154053e-02 -2.009386569261550903e-02 -3.326801955699920654e-01
2.086000000000000000e+03 7.006101608276367188e+00 2.671702194213867188e+01 1.140678868978284299e-04 -3.975434083258733153e-05 2.229406527476385236e-05 -1.625960721867159009e-04
2.087000000000000000e+03 5.484847545623779297e+00 2.731960678100585938e+01 4.397737211547791958e-05 -8.956620877142995596e-05 -1.367665117868455127e-05 -1.244408776983618736e-04
2.088000000000000000e+03 5.656409740447998047e+00 1.537568950653076172e+01 -1.969024015124887228e-04 -8.664096640131901950e-06 -6.166994717204943299e-05 5.518910256796516478e-05
2.089000000000000000e+03 6.498123168945312500e+00 1.326358604431152344e+01 -5.839915047545218840e-06 -2.844703885784838349e-05 -1.028608585329493508e-05 8.138004341162741184e-05
2.090000000000000000e+03 5.162105560302734375e+00 1.248639869689941406e+01 -1.270022767130285501e-04 -2.916724770329892635e-05 -4.685085878008976579e-05 8.318652544403448701e-05
2.091000000000000000e+03 6.243412017822265625e+00 1.884635353088378906e+01 -5.911417247261852026e-05 -6.173870133352465928e-06 -1.958641223609447479e-05 4.002381683676503599e-05
2.092000000000000000e+03 5.359626293182373047e+00 1.945649337768554688e+01 2.671324182301759720e-04 -1.125726248574210331e-05 7.676254608668386936e-05 -1.219360729010077193e-05
2.093000000000000000e+03 7.420538425445556641e+00 1.392622661590576172e+01 -1.468896807637065649e-04 1.671269092184957117e-05 -3.905309858964756131e-05 -6.707336433464661241e-05
2.094000000000000000e+03 9.939069747924804688e+00 9.007050514221191406e+00 -3.715138518600724638e-05 -1.424958736606640741e-05 -1.542029167467262596e-05 -1.517811961093684658e-05
2.095000000000000000e+03 3.018101119995117188e+01 -7.111078262329101562e+00 1.455448389053344727e+00 -1.617689281702041626e-01 3.881038427352905273e-01 -1.253356635570526123e-01
2.096000000000000000e+03 5.592731475830078125e+00 8.515484809875488281e+00 -3.768174428842030466e-05 -7.541150989709421992e-05 -3.392797589185647666e-05 5.486936788656748831e-05
2.097000000000000000e+03 1.184194087982177734e+01 1.263813018798828125e+01 1.381523179588839412e-04 1.193803291243966669e-05 4.502710362430661917e-05 4.308192728785797954e-05
2.098000000000000000e+03 8.196385383605957031e+00 9.220498085021972656e+00 -1.585353893460705876e-04 2.025465801125392318e-05 -4.148422158323228359e-05 -1.587819133419543505e-05
2.099000000000000000e+03 4.993740558624267578e+00 -6.210472583770751953e+00 -1.136998236179351807e-01 1.142982579767704010e-02 -3.068099915981292725e-02 -2.701029479503631592e-01
2.100000000000000000e+03 6.329329299926757812e+01 1.998268485069274902e+00 -1.234472274780273438e+00 3.229914188385009766e+00 5.986325740814208984e-01 -1.717093229293823242e+00
2.101000000000000000e+03 5.829676437377929688e+01 3.595720767974853516e+00 -1.266998410224914551e+00 1.055893540382385254e+00 -6.333146244287490845e-02 -1.081787705421447754e+00
2.102000000000000000e+03 5.306027603149414062e+01 7.526569366455078125e+00 4.505058228969573975e-01 1.055172443389892578e+00 4.517034590244293213e-01 -3.091914951801300049e-01
2.103000000000000000e+03 4.927274703979492188e+01 2.461001586914062500e+01 8.671330809593200684e-01 4.811576843261718750e+00 1.703613042831420898e+00 6.390819549560546875e-01
2.104000000000000000e+03 4.766246795654296875e+01 2.850499343872070312e+01 5.568197965621948242e-01 4.822315216064453125e+00 1.613740444183349609e+00 3.898670971393585205e-01
2.105000000000000000e+03 2.732577514648437500e+01 -1.326892948150634766e+01 6.677678227424621582e-01 -4.039375782012939453e-01 7.914908230304718018e-02 7.788499593734741211e-01
2.106000000000000000e+03 2.311263465881347656e+01 -1.023511886596679688e+01 6.491094827651977539e-01 -4.094220697879791260e-01 7.190621644258499146e-02 3.103592991828918457e-01
2.107000000000000000e+03 1.051902008056640625e+01 2.106970405578613281e+01 -2.587986818980425596e-04 -1.566083301440812647e-05 -8.233785047195851803e-05 -9.130032412940636277e-05
2.108000000000000000e+03 3.247944641113281250e+01 -5.886565685272216797e+00 1.435124516487121582e+00 8.248969316482543945e-01 6.780064702033996582e-01 8.196624368429183960e-02
2.109000000000000000e+03 4.709278869628906250e+01 9.231493949890136719e+00 1.820741415023803711e+00 3.268484354019165039e+00 1.526767730712890625e+00 1.902322649955749512e+00
2.110000000000000000e+03 3.465756988525390625e+01 -4.612819671630859375e+00 9.648122787475585938e-01 2.805520296096801758e+00 1.131099820137023926e+00 4.134859144687652588e-01
2.111000000000000000e+03 2.299826622009277344e+01 -1.205546092987060547e+01 5.950997471809387207e-01 -3.676336705684661865e-01 6.823983043432235718e-02 4.314345121383666992e-01
2.112000000000000000e+03 1.491683292388916016e+01 5.007870674133300781e+00 1.364251802442595363e-04 2.711032720981165767e-05 4.906065441900864244e-05 4.576537685352377594e-05
2.113000000000000000e+03 3.508922195434570312e+01 -6.060788154602050781e+00 1.502407312393188477e+00 3.416232109069824219e+00 1.475591897964477539e+00 5.091586709022521973e-01
2.114000000000000000e+03 4.598024749755859375e+01 8.974136352539062500e+00 1.879732728004455566e+00 4.222485065460205078e+00 1.830665349960327148e+00 2.381393432617187500e+00
2.115000000000000000e+03 4.975236511230468750e+01 1.284998321533203125e+01 2.002484321594238281e+00 3.074753284454345703e+00 1.523171305656433105e+00 1.225369572639465332e+00
2.116000000000000000e+03 3.615531539916992188e+01 -1.176352119445800781e+01 1.365222334861755371e+00 5.559496879577636719e+00 2.077415943145751953e+00 2.334769964218139648e-01
2.117000000000000000e+03 5.564153289794921875e+01 7.257299423217773438e+00 1.504775732755661011e-01 1.183609485626220703e+00 4.002261161804199219e-01 -8.470099568367004395e-01
2.118000000000000000e+03 4.794723129272460938e+01 1.609693336486816406e+01 1.656296491622924805e+00 4.709753036499023438e+00 1.909814834594726562e+00 1.578996062278747559e+00
2.119000000000000000e+03 4.943169403076171875e+01 1.809327507019042969e+01 1.514989972114562988e+00 4.400937557220458984e+00 1.774778246879577637e+00 1.189380526542663574e+00
2.120000000000000000e+03 1.076757526397705078e+01 1.515783309936523438e+01 1.538860669825226068e-04 -2.170185325667262077e-05 3.965526411775499582e-05 4.923112282995134592e-05
2.121000000000000000e+03 7.984734535217285156e+00 1.259789371490478516e+01 1.202888670377433300e-04 2.025247522396966815e-05 4.216240267851389945e-05 6.262362148845568299e-05
2.122000000000000000e+03 3.614304351806640625e+01 -4.480955600738525391e+00 7.837706804275512695e-01 4.711663246154785156e+00 1.648630261421203613e+00 8.220956325531005859e-01
2.123000000000000000e+03 4.667150497436523438e+01 -3.359247970581054688e+01 -5.598261356353759766e-01 1.927664995193481445e+00 4.103516340255737305e-01 -6.090489625930786133e-01
2.124000000000000000e+03 4.735980224609375000e+01 1.312674140930175781e+01 2.013276100158691406e+00 4.424513816833496094e+00 1.931336998939514160e+00 1.946898221969604492e+00
2.125000000000000000e+03 4.875846481323242188e+01 1.432890319824218750e+01 1.942948222160339355e+00 3.941655158996582031e+00 1.765380978584289551e+00 1.537771701812744141e+00
2.126000000000000000e+03 7.052409362792968750e+01 -9.687808990478515625e+00 -4.699099659919738770e-01 1.124460887908935547e+01 3.232409715652465820e+00 -2.282088041305541992e+00
2.127000000000000000e+03 3.650047302246093750e+01 -1.080281829833984375e+01 1.617161870002746582e+00 5.961839675903320312e+00 2.273700475692749023e+00 3.583422601222991943e-01
2.128000000000000000e+03 3.692890548706054688e+01 -9.959288597106933594e+00 1.681400179862976074e+00 6.755171775817871094e+00 2.530971527099609375e+00 4.931456446647644043e-01
2.129000000000000000e+03 4.717293167114257812e+01 1.176447200775146484e+01 2.103556632995605469e+00 4.178723812103271484e+00 1.884684085845947266e+00 2.005243778228759766e+00
2.130000000000000000e+03 1.024358463287353516e+01 2.510810279846191406e+01 2.967623004224151373e-04 6.263920658966526389e-05 1.078204586519859731e-04 1.389969547744840384e-04
2.131000000000000000e+03 6.940975189208984375e+01 3.212674331665039062e+01 2.006177753210067749e-01 4.889947891235351562e+00 1.527169585227966309e+00 -1.528610438108444214e-01
2.132000000000000000e+03 3.114634895324707031e+01 -7.603386878967285156e+00 1.691300034523010254e+00 2.463323026895523071e-01 5.812897086143493652e-01 5.204688757658004761e-02
2.133000000000000000e+03 8.928380012512207031e+00 3.357389450073242188e+01 1.959670626092702150e-04 -6.553440471179783344e-05 3.912979809683747590e-05 -1.722039887681603432e-04
2.134000000000000000e+03 2.949607849121093750e+01 -1.154161167144775391e+01 1.395138859748840332e+00 -2.848529517650604248e-01 3.330857455730438232e-01 6.135650277137756348e-01
2.135000000000000000e+03 6.811446380615234375e+01 -1.488763570785522461e+00 -8.859913945198059082e-01 6.270382404327392578e+00 1.615317225456237793e+00 -1.059755802154541016e+00
2.136000000000000000e+03 2.169264984130859375e+01 -7.630235671997070312e+00 3.889180123805999756e-01 -2.785343825817108154e-01 3.311508893966674805e-02 1.333915442228317261e-01
2.137000000000000000e+03 5.871688079833984375e+01 4.982483386993408203e+00 -7.252584099769592285e-01 1.439585447311401367e+00 2.142981290817260742e-01 -1.305789113044738770e+00
2.138000000000000000e+03 4.752374267578125000e+01 2.216478729248046875e+01 8.418216705322265625e-01 5.248078346252441406e+00 1.826969981193542480e+00 8.110654354095458984e-01
2.139000000000000000e+03 4.581429672241210938e+01 5.334758281707763672e+00 3.608531504869461060e-02 2.787660360336303711e+00 8.471236824989318848e-01 2.306638240814208984e+00
2.140000000000000000e+03 4.607102966308593750e+01 6.795213699340820312e+00 1.017893910408020020e+00 3.261846065521240234e+00 1.283921957015991211e+00 2.125105619430541992e+00
2.141000000000000000e+03 2.474781227111816406e+01 -1.381865310668945312e+01 3.559882044792175293e-01 -2.860060334205627441e-01 2.099465020000934601e-02 5.989082455635070801e-01
2.142000000000000000e+03 2.587460327148437500e+01 -1.551412296295166016e+01 -3.744479641318321228e-02 -1.536684334278106689e-01 -5.733397230505943298e-02 6.965528130531311035e-01
2.143000000000000000e+03 6.973760223388671875e+01 -5.316573619842529297e+00 -4.159926176071166992e-01 7.741042613983154297e+00 2.197515010833740234e+00 -1.172388315200805664e+00
2.144000000000000000e+03 6.921908855438232422e+00 -3.819978713989257812e+01 6.772125512361526489e-02 1.314333826303482056e-01 5.974639207124710083e-02 -3.515319898724555969e-02
2.145000000000000000e+03 3.665397262573242188e+01 -1.666357040405273438e+01 -8.630775213241577148e-01 6.340758323669433594e+00 1.643304228782653809e+00 5.385617613792419434e-01
2.146000000000000000e+03 6.679008483886718750e+01 -4.100660705566406250e+01 2.341723591089248657e-01 3.459332704544067383e+00 1.108051538467407227e+00 1.293263584375381470e-01
2.147000000000000000e+03 6.574547576904296875e+01 -3.835262298583984375e+01 1.465563941746950150e-02 2.446888685226440430e+00 7.384632825851440430e-01 3.835434317588806152e-01
2.148000000000000000e+03 3.738233566284179688e+01 -3.262446212768554688e+01 -7.747555971145629883e-01 4.465225219726562500e+00 1.107140898704528809e+00 -2.467042766511440277e-03
2.149000000000000000e+03 3.977928543090820312e+01 -2.950495910644531250e+01 -3.988797590136528015e-02 4.691342353820800781e+00 1.395436286926269531e+00 -4.142814278602600098e-01
2.150000000000000000e+03 4.060663986206054688e+01 -2.712160301208496094e+01 2.535165250301361084e-01 4.656998157501220703e+00 1.473154425621032715e+00 -3.467171490192413330e-01
2.151000000000000000e+03 4.048162078857421875e+01 -2.849717521667480469e+01 1.284420937299728394e-01 4.496159553527832031e+00 1.387380480766296387e+00 -4.413784742355346680e-01
2.152000000000000000e+03 1.973228836059570312e+01 -3.651694869995117188e+01 -3.092645108699798584e-01 -9.984409064054489136e-02 -1.227325797080993652e-01 7.837806642055511475e-02
2.153000000000000000e+03 2.048936462402343750e+01 -3.872476959228515625e+01 -1.506752520799636841e-01 -6.909647025167942047e-03 -4.727546870708465576e-02 8.426223695278167725e-02
2.154000000000000000e+03 3.813999176025390625e+01 -3.454231643676757812e+01 -1.044128060340881348e+00 4.087595939636230469e+00 9.130403995513916016e-01 -5.452372506260871887e-02
2.155000000000000000e+03 7.233458709716796875e+01 -3.632309722900390625e+01 -5.381121039390563965e-01 8.011371612548828125e+00 2.241977930068969727e+00 6.455239653587341309e-02
2.156000000000000000e+03 9.427678108215332031e+00 -6.462783813476562500e+00 -1.433091312646865845e-01 2.349222898483276367e-01 2.748394943773746490e-02 -6.932294368743896484e-02
2.157000000000000000e+03 1.299962997436523438e+01 -7.611878871917724609e+00 2.047400735318660736e-02 2.146894782781600952e-01 7.054904848337173462e-02 1.631012409925460815e-01
2.158000000000000000e+03 1.083667373657226562e+01 -6.640781879425048828e+00 -1.129608377814292908e-01 2.340126037597656250e-01 3.631553053855895996e-02 1.369365118443965912e-02
2.159000000000000000e+03 5.480636596679687500e+00 5.802415847778320312e+00 5.737331230193376541e-05 1.339825030299834907e-05 2.123146805388387293e-05 -2.979629061883315444e-05
2.160000000000000000e+03 5.276747226715087891e+00 7.651762008666992188e+00 -5.208127549849450588e-05 7.834617281332612038e-05 7.879469194449484348e-06 -4.738472489407286048e-05
2.161000000000000000e+03 1.279060268402099609e+01 6.178614616394042969e+00 1.264573802473023534e-04 4.650020855478942394e-06 3.933221887564286590e-05 -4.391759648569859564e-05
2.162000000000000000e+03 1.343586730957031250e+01 5.174765586853027344e+00 2.126824438164476305e-05 6.661184306722134352e-05 2.636402678035665303e-05 -8.629703529550170060e-07
2.163000000000000000e+03 1.158380413055419922e+01 -6.706904888153076172e+00 -8.444807678461074829e-02 2.207441776990890503e-01 4.088883101940155029e-02 5.580793321132659912e-02
2.164000000000000000e+03 8.999673843383789062e+00 5.699404239654541016e+00 -6.560890324180945754e-05 -5.049440369475632906e-05 -3.483099135337397456e-05 -7.138191904232371598e-06
2.165000000000000000e+03 6.776426315307617188e+00 5.583666324615478516e+00 4.450200140126980841e-05 5.414233964984305203e-05 2.959330231533385813e-05 -2.680047873582225293e-05
2.166000000000000000e+03 1.313872909545898438e+01 -6.884162902832031250e+00 -1.946280151605606079e-02 1.706809252500534058e-01 4.536543786525726318e-02 1.436644047498703003e-01
2.167000000000000000e+03 1.057839107513427734e+01 7.438386917114257812e+00 -6.283537368290126324e-05 -6.264742842176929116e-05 -3.764484063140116632e-05 -6.109262903919443488e-05
2.168000000000000000e+03 5.867417812347412109e+00 -5.614354610443115234e+00 -1.434062421321868896e-01 6.177147105336189270e-02 -2.449043095111846924e-02 -2.347138226032257080e-01
2.169000000000000000e+03 1.324609851837158203e+01 7.690993785858154297e+00 1.760670129442587495e-04 -9.302354555984493345e-06 5.002939724363386631e-05 -1.868362232926301658e-05
2.170000000000000000e+03 8.777133941650390625e+00 -9.180540084838867188e+00 -3.425639122724533081e-02 4.196926355361938477e-01 1.156308725476264954e-01 -6.593304872512817383e-02
2.171000000000000000e+03 8.072814941406250000e+00 -5.667672157287597656e+00 -1.804826706647872925e-01 1.706275045871734619e-01 -2.956552198156714439e-03 -1.521937847137451172e-01
2.172000000000000000e+03 2.098608589172363281e+01 -1.053968620300292969e+01 5.159947872161865234e-01 -2.887696623802185059e-01 6.816754490137100220e-02 3.140131235122680664e-01
2.173000000000000000e+03 7.492089271545410156e+00 -7.215373516082763672e+00 -1.414913833141326904e-01 2.362960278987884521e-01 2.844139561057090759e-02 -1.848498880863189697e-01
2.174000000000000000e+03 2.322649955749511719e+01 -6.878489971160888672e+00 4.064697325229644775e-01 -3.171231448650360107e-01 2.680397965013980865e-02 -3.255135146901011467e-03
2.175000000000000000e+03 1.664877510070800781e+01 -6.533380031585693359e+00 7.901985943317413330e-02 -1.450629904866218567e-02 1.935406774282455444e-02 2.070493102073669434e-01
2.176000000000000000e+03 1.577187824249267578e+01 -6.503138542175292969e+00 4.507177323102951050e-02 2.779575996100902557e-02 2.186026051640510559e-02 2.007962763309478760e-01
2.177000000000000000e+03 8.794006347656250000e+00 -5.680747509002685547e+00 -1.802011281251907349e-01 1.894684135913848877e-01 2.780189272016286850e-03 -1.125135049223899841e-01
2.178000000000000000e+03 1.595355987548828125e+01 -8.263666152954101562e+00 2.031704634428024292e-01 3.549220412969589233e-02 7.159879803657531738e-02 2.665020525455474854e-01
2.179000000000000000e+03 1.840670394897460938e+01 -7.446408748626708984e+00 2.196507006883621216e-01 -1.053924411535263062e-01 3.427748009562492371e-02 2.248904854059219360e-01
2.180000000000000000e+03 1.394955825805664062e+01 -7.050569057464599609e+00 1.935272477567195892e-02 1.404428631067276001e-01 4.793867468833923340e-02 1.775999963283538818e-01
2.181000000000000000e+03 1.253003311157226562e+01 -1.120206642150878906e+01 3.652106821537017822e-01 3.840974867343902588e-01 2.247924506664276123e-01 3.231946825981140137e-01
2.182000000000000000e+03 1.757190704345703125e+01 -7.393899917602539062e+00 1.861932575702667236e-01 -6.629224121570587158e-02 3.597030788660049438e-02 2.307711243629455566e-01
2.183000000000000000e+03 1.834802627563476562e+01 -6.594684600830078125e+00 1.418495476245880127e-01 -9.074322134256362915e-02 1.533190067857503891e-02 1.942177116870880127e-01
2.184000000000000000e+03 9.858598709106445312e+00 6.523694515228271484e+00 -4.565871131489984691e-05 -7.183051639003679156e-05 -3.524676867527887225e-05 -2.003266854444518685e-05
2.185000000000000000e+03 7.291152191162109375e+01 -1.030747222900390625e+01 1.232899427413940430e-01 1.153867816925048828e+01 3.498590230941772461e+00 6.422604322433471680e-01
2.186000000000000000e+03 7.037667083740234375e+01 -8.377368927001953125e+00 -4.584029614925384521e-01 9.778110504150390625e+00 2.795912265777587891e+00 -1.831249237060546875e+00
2.187000000000000000e+03 1.221052455902099609e+01 7.002422332763671875e+00 1.596249057911336422e-04 -1.780059210432227701e-05 4.254729356034658849e-05 -1.615712062630336732e-05
2.188000000000000000e+03 1.152434539794921875e+01 6.848388195037841797e+00 -3.700012166518718004e-05 -7.638560055056586862e-05 -3.401571666472591460e-05 -6.003079761285334826e-05
2.189000000000000000e+03 6.049995899200439453e+00 1.097658824920654297e+01 -8.168689964804798365e-05 -6.945536006242036819e-05 -4.534268009592778981e-05 5.060512194177135825e-05
2.190000000000000000e+03 1.175410842895507812e+01 9.840088844299316406e+00 -1.157592341769486666e-04 -1.811405854823533446e-05 -4.016198727185837924e-05 -3.877958806697279215e-05
2.191000000000000000e+03 8.569789886474609375e+00 1.431060028076171875e+01 1.472626754548400640e-04 6.912742264830740169e-06 4.625262226909399033e-05 5.132471778779290617e-05
2.192000000000000000e+03 6.681663990020751953e+00 -7.405397891998291016e+00 -1.317002177238464355e-01 1.905719637870788574e-01 1.766152493655681610e-02 -2.336860895156860352e-01
2.193000000000000000e+03 2.912698554992675781e+01 -6.797739982604980469e+00 1.203381299972534180e+00 -3.800235688686370850e-01 2.470073103904724121e-01 -2.451698780059814453e-01
2.194000000000000000e+03 2.583329582214355469e+01 -6.466980934143066406e+00 5.897264480590820312e-01 -4.431627094745635986e-01 4.396912828087806702e-02 -2.209856063127517700e-01
2.195000000000000000e+03 2.247558593750000000e+01 -7.733234405517578125e+00 4.574362635612487793e-01 -3.259830474853515625e-01 3.943596407771110535e-02 1.020942181348800659e-01
2.196000000000000000e+03 2.245653152465820312e+01 -6.816360950469970703e+00 3.361521363258361816e-01 -2.734129428863525391e-01 1.882176473736763000e-02 4.118067398667335510e-02
2.197000000000000000e+03 2.800926589965820312e+01 -6.702285289764404297e+00 9.915769696235656738e-01 -5.249855518341064453e-01 1.399774253368377686e-01 -2.710951566696166992e-01
2.198000000000000000e+03 2.689442443847656250e+01 -5.405981063842773438e+00 3.701224029064178467e-01 -4.134316146373748779e-01 -1.299275644123554230e-02 -4.179444611072540283e-01
2.199000000000000000e+03 7.460025787353515625e+01 -1.482946205139160156e+01 2.168951988220214844e+00 1.000466442108154297e+01 3.652085065841674805e+00 -1.329628944396972656e+00
2.200000000000000000e+03 2.095941543579101562e+01 -8.437245368957519531e+00 4.107179343700408936e-01 -2.620972096920013428e-01 4.458621889352798462e-02 2.008514702320098877e-01
2.201000000000000000e+03 2.363448715209960938e+01 -1.320042514801025391e+01 4.333500564098358154e-01 -3.071588873863220215e-01 3.785734996199607849e-02 4.861024320125579834e-01
2.202000000000000000e+03 6.808844089508056641e+00 1.995368766784667969e+01 1.163808337878435850e-04 4.625468864105641842e-05 4.879065818386152387e-05 1.376078762405086309e-05
2.203000000000000000e+03 8.952420234680175781e+00 -7.936997890472412109e+00 -8.478157967329025269e-02 3.313411176204681396e-01 7.396785914897918701e-02 -7.667253166437149048e-02
2.204000000000000000e+03 1.350520324707031250e+01 6.412128925323486328e+00 -5.558740667765960097e-05 6.959332949918461964e-06 -1.458842234569601715e-05 -2.467719241394661367e-05
2.205000000000000000e+03 1.044232749938964844e+01 2.378774642944335938e+01 -1.758713769959285855e-04 -6.777438102290034294e-05 -7.309373177122324705e-05 -1.342904142802581191e-04
2.206000000000000000e+03 7.824731349945068359e+00 2.410564422607421875e+01 2.122040132235269994e-05 3.450303120189346373e-05 1.671702921157702804e-05 1.296687114518135786e-04
2.207000000000000000e+03 7.250289154052734375e+01 1.590214252471923828e+01 1.838283687829971313e-01 5.537066459655761719e+00 1.716268420219421387e+00 -8.997641205787658691e-01
2.208000000000000000e+03 5.191522216796875000e+01 2.387127876281738281e+01 1.056505084037780762e+00 4.348434448242187500e+00 1.621481895446777344e+00 6.028560400009155273e-01
2.209000000000000000e+03 7.418134307861328125e+01 -1.131564712524414062e+01 1.099502563476562500e+00 1.041078567504882812e+01 3.453086614608764648e+00 1.167319655418395996e+00
2.210000000000000000e+03 7.411556243896484375e+01 -1.855718612670898438e+01 -2.986473739147186279e-01 1.120131969451904297e+01 3.270801782608032227e+00 -1.658638358116149902e+00
2.211000000000000000e+03 7.034524536132812500e+01 -9.130284309387207031e+00 -3.973856866359710693e-01 1.017214202880859375e+01 2.932426929473876953e+00 -2.249866962432861328e+00
2.212000000000000000e+03 7.096144104003906250e+01 -9.236925125122070312e+00 -6.653922796249389648e-01 1.108388328552246094e+01 3.125547170639038086e+00 -1.512278556823730469e+00
2.213000000000000000e+03 7.287583923339843750e+01 6.035706043243408203e+00 -3.249528706073760986e-01 6.600788593292236328e+00 1.882750749588012695e+00 -9.070755243301391602e-01
2.214000000000000000e+03 7.283186340332031250e+01 7.486598968505859375e+00 -2.165261507034301758e-01 6.411407470703125000e+00 1.858464479446411133e+00 -9.779813885688781738e-01
2.215000000000000000e+03 5.479246520996093750e+01 6.218852996826171875e+00 -3.452048301696777344e-01 8.917871713638305664e-01 1.639747023582458496e-01 -7.105280160903930664e-01
2.216000000000000000e+03 1.680591773986816406e+01 -8.185610771179199219e+00 2.253058105707168579e-01 -2.804738096892833710e-02 5.917752906680107117e-02 2.618542611598968506e-01
2.217000000000000000e+03 1.210433864593505859e+01 8.751494407653808594e+00 1.073492021532729268e-04 4.720455763163045049e-05 4.636612720787525177e-05 3.845498576993122697e-05
2.218000000000000000e+03 4.856492614746093750e+01 1.297498130798339844e+01 2.031507730484008789e+00 3.652960777282714844e+00 1.705340504646301270e+00 1.610457539558410645e+00
2.219000000000000000e+03 1.383420085906982422e+01 -1.265099716186523438e+01 6.717809438705444336e-01 2.319475412368774414e-01 2.711185514926910400e-01 4.024507105350494385e-01
2.220000000000000000e+03 1.149007701873779297e+01 -7.477223396301269531e+00 -4.969264939427375793e-02 2.710291743278503418e-01 6.640096008777618408e-02 7.740969955921173096e-02
2.221000000000000000e+03 3.494747161865234375e+01 -1.369294929504394531e+01 7.353636622428894043e-01 3.725599527359008789e+00 1.338289022445678711e+00 6.385382264852523804e-02
2.222000000000000000e+03 3.588795471191406250e+01 -1.431260395050048828e+01 3.347002863883972168e-01 4.971010208129882812e+00 1.591713070869445801e+00 1.913439109921455383e-02
2.223000000000000000e+03 5.639637756347656250e+01 5.287017822265625000e+00 -7.381321191787719727e-01 1.038869857788085938e+00 9.022133052349090576e-02 -9.350123405456542969e-01
2.224000000000000000e+03 6.639104461669921875e+01 -3.797735273838043213e-01 -1.151421427726745605e+00 5.247026443481445312e+00 1.228681564331054688e+00 -1.386166810989379883e+00
2.225000000000000000e+03 7.382209777832031250e+01 2.242726135253906250e+01 1.676844358444213867e-01 5.340133666992187500e+00 1.652345538139343262e+00 -5.154759287834167480e-01
2.226000000000000000e+03 2.192268562316894531e+01 -1.252995204925537109e+01 4.976336359977722168e-01 -2.903093695640563965e-01 6.219727173447608948e-02 3.896686434745788574e-01
2.227000000000000000e+03 7.254880523681640625e+01 1.316810321807861328e+01 1.008775234222412109e-01 5.764935970306396484e+00 1.759744048118591309e+00 -1.000633955001831055e+00
2.228000000000000000e+03 7.119928741455078125e+01 1.035276985168457031e+01 -3.057842142879962921e-02 5.673440933227539062e+00 1.692858815193176270e+00 -1.188869595527648926e+00
2.229000000000000000e+03 1.025435447692871094e+01 1.624039268493652344e+01 -2.088167093461379409e-04 6.284402479650452733e-05 -4.379180609248578548e-05 -1.136768696596845984e-04
2.230000000000000000e+03 7.174571990966796875e+01 1.830410385131835938e+01 2.715897560119628906e-01 5.260385990142822266e+00 1.659592747688293457e+00 -8.098883628845214844e-01
2.231000000000000000e+03 6.600817108154296875e+01 2.576896667480468750e+00 -1.047544360160827637e+00 4.714542388916015625e+00 1.100099444389343262e+00 -1.630891680717468262e+00
2.232000000000000000e+03 7.052686309814453125e+01 5.087128162384033203e+00 -5.569778084754943848e-01 6.091264724731445312e+00 1.660286068916320801e+00 -1.176000237464904785e+00
2.233000000000000000e+03 6.186231136322021484e+00 -8.935623168945312500e+00 -9.058399498462677002e-02 2.517331242561340332e-01 4.834473878145217896e-02 -2.598923146724700928e-01
2.234000000000000000e+03 4.820856094360351562e+01 9.395236968994140625e+00 1.771541595458984375e+00 2.668174743652343750e+00 1.331914901733398438e+00 1.530010461807250977e+00
2.235000000000000000e+03 7.123398590087890625e+01 -4.833601951599121094e+00 -6.781166791915893555e-01 8.277647972106933594e+00 2.279859542846679688e+00 -6.640138626098632812e-01
2.236000000000000000e+03 7.262104034423828125e+01 -4.493293285369873047e+00 -7.514001727104187012e-01 8.454732894897460938e+00 2.310999870300292969e+00 -1.232654526829719543e-01
2.237000000000000000e+03 9.038882255554199219e+00 1.861955451965332031e+01 2.915420045610517263e-04 9.101293471758253872e-06 9.019298886414617300e-05 1.066096228896640241e-04
2.238000000000000000e+03 7.861393451690673828e+00 1.908977890014648438e+01 -1.946743868757039309e-04 8.549905942345503718e-06 -5.583734309766441584e-05 -1.026149311655899510e-05
2.239000000000000000e+03 3.356921386718750000e+01 -9.931036949157714844e+00 1.999100685119628906e+00 2.241113185882568359e+00 1.272064089775085449e+00 3.887105584144592285e-01
2.240000000000000000e+03 7.285368442535400391e+00 -1.123839759826660156e+01 2.137176692485809326e-03 5.522190332412719727e-01 1.663068681955337524e-01 -1.344462186098098755e-01
2.241000000000000000e+03 3.347724533081054688e+01 -1.325347518920898438e+01 1.118419766426086426e+00 2.001905441284179688e+00 9.360975027084350586e-01 2.894485294818878174e-01
2.242000000000000000e+03 7.103448486328125000e+01 1.179790306091308594e+01 8.221958577632904053e-02 5.517621040344238281e+00 1.679952144622802734e+00 -1.167268872261047363e+00
2.243000000000000000e+03 6.247257614135742188e+01 3.721413612365722656e+00 -9.197075963020324707e-01 2.849986791610717773e+00 5.790837407112121582e-01 -1.742762327194213867e+00
2.244000000000000000e+03 6.854512023925781250e+01 -3.909359693527221680e+00 -4.315840005874633789e-01 6.803739070892333984e+00 1.911646485328674316e+00 -1.122770190238952637e+00
2.245000000000000000e+03 7.054141998291015625e+01 -6.500650882720947266e+00 -5.480591058731079102e-01 8.712972640991210938e+00 2.449473857879638672e+00 -1.142702937126159668e+00
2.246000000000000000e+03 3.663477325439453125e+01 -8.557373046875000000e+00 1.900847792625427246e+00 6.170094490051269531e+00 2.421282768249511719e+00 6.983665823936462402e-01
2.247000000000000000e+03 3.597171401977539062e+01 -7.222397327423095703e+00 1.802677989006042480e+00 4.932597160339355469e+00 2.020582675933837891e+00 6.998715996742248535e-01
2.248000000000000000e+03 5.857954502105712891e+00 9.684413909912109375e+00 6.544774078065529466e-05 6.196842878125607967e-05 3.822485086857341230e-05 -4.087449269718490541e-05
2.249000000000000000e+03 6.415597915649414062e+00 7.238343238830566406e+00 -1.023483491735532880e-04 -3.636646215454675257e-05 -4.161444303463213146e-05 7.670546619920060039e-05
2.250000000000000000e+03 7.050901794433593750e+01 -7.444362163543701172e+00 -5.357678532600402832e-01 9.231433868408203125e+00 2.608699798583984375e+00 -1.485442876815795898e+00
2.251000000000000000e+03 7.364523410797119141e+00 1.000531196594238281e+01 -1.242774596903473139e-04 -1.951523154275491834e-05 -4.313780664233490825e-05 -4.662975334213115275e-05
2.252000000000000000e+03 6.564253234863281250e+01 1.247838973999023438e+00 -1.202421426773071289e+00 4.654033660888671875e+00 1.035483717918395996e+00 -1.589926362037658691e+00
2.253000000000000000e+03 6.368367767333984375e+01 3.292253017425537109e+00 -9.930685758590698242e-01 3.474450111389160156e+00 7.444144487380981445e-01 -1.770802617073059082e+00
2.254000000000000000e+03 9.437563896179199219e+00 3.168755531311035156e+01 -5.283985046844463795e-06 -4.584456910379230976e-04 -1.391188998240977526e-04 -3.786331799346953630e-04
2.255000000000000000e+03 5.166222000122070312e+01 7.196274757385253906e+00 4.204755127429962158e-01 9.019386768341064453e-01 3.967242538928985596e-01 -5.390946939587593079e-02
2.256000000000000000e+03 6.123643493652343750e+01 4.176792621612548828e+00 -8.495094180107116699e-01 2.292642831802368164e+00 4.329400062561035156e-01 -1.647879838943481445e+00
2.257000000000000000e+03 6.046520996093750000e+01 6.046586036682128906e+00 -3.461772203445434570e-01 2.198006153106689453e+00 5.555486679077148438e-01 -1.565563082695007324e+00
2.258000000000000000e+03 7.099816894531250000e+01 2.056109046936035156e+01 3.299538195133209229e-01 5.065985202789306641e+00 1.618781685829162598e+00 -7.115762829780578613e-01
2.259000000000000000e+03 7.239969635009765625e+01 2.056101036071777344e+01 2.436500489711761475e-01 5.253495216369628906e+00 1.649143576622009277e+00 -6.596683263778686523e-01
2.260000000000000000e+03 1.071506023406982422e+01 1.217859840393066406e+01 -1.324822369497269392e-04 -7.960027687659021467e-06 -4.213267675368115306e-05 -3.471404124866239727e-05
2.261000000000000000e+03 5.003805541992187500e+01 -3.305488967895507812e+01 -5.942528843879699707e-01 1.003968715667724609e+00 1.229147538542747498e-01 -4.252774119377136230e-01
2.262000000000000000e+03 4.841248703002929688e+01 -2.916388511657714844e+01 -2.003595978021621704e-01 9.709092974662780762e-01 2.311649173498153687e-01 -3.834343552589416504e-01
2.263000000000000000e+03 8.720840454101562500e+00 2.570890998840332031e+01 4.341955354902893305e-04 -1.493615286562999245e-06 1.298105780733749270e-04 1.670566707616671920e-04
2.264000000000000000e+03 3.506212615966796875e+01 -9.214810371398925781e+00 2.019397497177124023e+00 3.965949058532714844e+00 1.795603990554809570e+00 4.415222704410552979e-01
2.265000000000000000e+03 2.778562164306640625e+01 -1.169823360443115234e+01 1.119986653327941895e+00 -4.622879326343536377e-01 1.973096132278442383e-01 5.988175868988037109e-01
2.266000000000000000e+03 2.501302528381347656e+01 -8.640049934387207031e+00 8.028463125228881836e-01 -4.969442486763000488e-01 9.177061915397644043e-02 1.148533001542091370e-01
2.267000000000000000e+03 3.487244796752929688e+01 -7.035439014434814453e+00 1.829671502113342285e+00 3.349227428436279297e+00 1.553669691085815430e+00 4.960109889507293701e-01
2.268000000000000000e+03 7.164797973632812500e+01 2.185558509826660156e+01 2.843613624572753906e-01 5.113319873809814453e+00 1.619304299354553223e+00 -6.026419997215270996e-01
2.269000000000000000e+03 2.999125480651855469e+01 -1.305999565124511719e+01 1.002933740615844727e+00 -2.600648999214172363e-01 2.228606641292572021e-01 8.018791079521179199e-01
2.270000000000000000e+03 3.235316085815429688e+01 -1.226399612426757812e+01 1.524840712547302246e+00 1.108833193778991699e+00 7.901021838188171387e-01 4.809876978397369385e-01
2.271000000000000000e+03 9.328266143798828125e+00 -1.179468250274658203e+01 2.280389666557312012e-01 6.796329617500305176e-01 2.723015844821929932e-01 1.322938650846481323e-01
2.272000000000000000e+03 7.048079681396484375e+01 2.909125685691833496e-01 -8.646989464759826660e-01 6.849611282348632812e+00 1.795473694801330566e+00 -7.951711416244506836e-01
2.273000000000000000e+03 7.298845672607421875e+01 3.283556401729583740e-01 -6.305943131446838379e-01 7.488520622253417969e+00 2.057377815246582031e+00 -3.581650853157043457e-01
2.274000000000000000e+03 4.817589187622070312e+01 1.046483230590820312e+01 1.975185871124267578e+00 3.182306766510009766e+00 1.547247767448425293e+00 1.618747115135192871e+00
2.275000000000000000e+03 4.869960784912109375e+01 8.365153312683105469e+00 1.580903291702270508e+00 2.003655433654785156e+00 1.075367569923400879e+00 1.250706672668457031e+00
2.276000000000000000e+03 4.796707153320312500e+01 1.903649330139160156e+01 1.219893097877502441e+00 5.072348594665527344e+00 1.887672543525695801e+00 1.248858809471130371e+00
2.277000000000000000e+03 5.211978912353515625e+01 1.949008560180664062e+01 1.489211201667785645e+00 3.859046697616577148e+00 1.604477405548095703e+00 7.340437769889831543e-01
2.278000000000000000e+03 7.169132995605468750e+01 6.091853618621826172e+00 -3.775868415832519531e-01 6.290187358856201172e+00 1.773780226707458496e+00 -1.064057588577270508e+00
2.279000000000000000e+03 3.640888977050781250e+01 -5.253509521484375000e+00 1.161623358726501465e+00 5.212131977081298828e+00 1.912126541137695312e+00 8.017557859420776367e-01
2.280000000000000000e+03 7.096613311767578125e+01 1.321787929534912109e+01 1.605520844459533691e-01 5.395122528076171875e+00 1.666702389717102051e+00 -1.118806004524230957e+00
2.281000000000000000e+03 7.150261688232421875e+01 -7.615916728973388672e+00 -7.258150577545166016e-01 9.779991149902343750e+00 2.716252803802490234e+00 -7.722076773643493652e-01
2.282000000000000000e+03 7.121102142333984375e+01 -8.491709709167480469e+00 -6.881506443023681641e-01 1.044182300567626953e+01 2.926101684570312500e+00 -1.221457362174987793e+00
2.283000000000000000e+03 4.048302459716796875e+01 -3.414018249511718750e+01 -9.352291822433471680e-01 3.788868188858032227e+00 8.560916781425476074e-01 -4.750916063785552979e-01
2.284000000000000000e+03 4.684610366821289062e+01 -3.036734390258789062e+01 -2.459174245595932007e-01 1.663007616996765137e+00 4.251270592212677002e-01 -5.965833067893981934e-01
2.285000000000000000e+03 5.635935974121093750e+01 6.363085746765136719e+00 -1.999245882034301758e-01 1.176278352737426758e+00 2.929061055183410645e-01 -9.547327756881713867e-01
2.286000000000000000e+03 1.060781764984130859e+01 2.964651107788085938e+01 -1.486375113017857075e-04 -2.733049914240837097e-04 -1.265827449969947338e-04 -4.770725354319438338e-05
2.287000000000000000e+03 2.857001876831054688e+01 -1.035625648498535156e+01 1.414977073669433594e+00 -4.133588671684265137e-01 3.004854619503021240e-01 3.975302875041961670e-01
2.288000000000000000e+03 7.285423278808593750e+01 -5.927412986755371094e+00 -7.508825063705444336e-01 8.992889404296875000e+00 2.472602128982543945e+00 4.594970494508743286e-02
2.289000000000000000e+03 7.185677337646484375e+01 -4.006037235260009766e+00 -7.692504525184631348e-01 8.166282653808593750e+00 2.219109535217285156e+00 -3.504493236541748047e-01
2.290000000000000000e+03 6.292559432983398438e+01 4.997270584106445312e+00 -6.552560329437255859e-01 3.124001264572143555e+00 7.406235337257385254e-01 -1.776295185089111328e+00
2.291000000000000000e+03 2.453898048400878906e+01 -1.274491977691650391e+01 5.945839285850524902e-01 -3.968771398067474365e-01 5.931204184889793396e-02 5.647419691085815430e-01
2.292000000000000000e+03 1.025391292572021484e+01 1.842141532897949219e+01 -2.312480646651238203e-04 -3.239079524064436555e-05 -7.909165287856012583e-05 -1.068292913259938359e-04
2.293000000000000000e+03 7.047604370117187500e+01 1.909298133850097656e+01 3.514166176319122314e-01 5.033041954040527344e+00 1.615337610244750977e+00 -8.116864562034606934e-01
2.294000000000000000e+03 1.170253944396972656e+01 3.318421554565429688e+01 -6.846630276413634419e-05 -8.214242370740976185e-06 -2.300416235812008381e-05 -7.991091842995956540e-05
2.295000000000000000e+03 4.760245132446289062e+01 1.455988693237304688e+01 1.853045225143432617e+00 4.603287220001220703e+00 1.936899781227111816e+00 1.803481101989746094e+00
2.296000000000000000e+03 4.808126068115234375e+01 1.765877914428710938e+01 1.444188833236694336e+00 4.875759601593017578e+00 1.895984530448913574e+00 1.407376527786254883e+00
2.297000000000000000e+03 5.072043991088867188e+01 1.887889289855957031e+01 1.512186050415039062e+00 4.099572181701660156e+00 1.683527469635009766e+00 9.691147208213806152e-01
2.298000000000000000e+03 8.224160194396972656e+00 2.987131500244140625e+01 1.228089531650766730e-04 -3.566675295587629080e-04 -7.015757000772282481e-05 -3.002675366587936878e-04
2.299000000000000000e+03 7.437107086181640625e+00 2.833768272399902344e+01 1.710827491478994489e-04 -2.325371024198830128e-04 -1.843630525399930775e-05 -2.856148930732160807e-04
2.300000000000000000e+03 9.867016792297363281e+00 2.627619934082031250e+01 -6.585964729310944676e-05 -4.113102477276697755e-05 -3.209720307495445013e-05 -2.128271153196692467e-04
2.301000000000000000e+03 6.713519287109375000e+01 -1.766785860061645508e+00 -9.318373203277587891e-01 5.846352577209472656e+00 1.474354505538940430e+00 -1.197389006614685059e+00
2.302000000000000000e+03 6.888584136962890625e+01 2.826553535461425781e+01 3.168441057205200195e-01 4.827767848968505859e+00 1.543383598327636719e+00 -2.903527021408081055e-01
2.303000000000000000e+03 1.042885780334472656e+01 1.972143173217773438e+01 2.646698267199099064e-04 3.223631210858002305e-05 8.907183655537664890e-05 8.328548574354499578e-05
2.304000000000000000e+03 4.058155059814453125e+01 -2.577915382385253906e+01 4.252459704875946045e-01 4.822700023651123047e+00 1.574383854866027832e+00 -1.265497058629989624e-01
2.305000000000000000e+03 2.492086410522460938e+01 -1.136897563934326172e+01 8.001124858856201172e-01 -4.779115915298461914e-01 9.666025638580322266e-02 4.658385813236236572e-01
2.306000000000000000e+03 1.676400566101074219e+01 -1.231307029724121094e+01 5.713390111923217773e-01 -4.747745767235755920e-02 1.571584641933441162e-01 3.420583903789520264e-01
2.307000000000000000e+03 1.205206203460693359e+01 3.617458724975585938e+01 4.157492367085069418e-05 2.512531646061688662e-04 8.784842793829739094e-05 3.780710176215507090e-05
2.308000000000000000e+03 3.169796180725097656e+01 -6.697682380676269531e+00 1.593211770057678223e+00 4.216974973678588867e-01 6.044727563858032227e-01 1.690736226737499237e-02
2.309000000000000000e+03 6.482020378112792969e+00 2.783556556701660156e+01 5.597287236014381051e-05 1.056739783962257206e-04 4.849405377171933651e-05 1.566498576721642166e-05
2.310000000000000000e+03 8.422254562377929688e+00 2.654524993896484375e+01 3.313206616439856589e-05 4.507595804170705378e-05 2.346240580664016306e-05 -4.102567036170512438e-04
2.311000000000000000e+03 7.144809722900390625e+01 3.020586585998535156e+01 1.877174079418182373e-01 4.971766948699951172e+00 1.547845363616943359e+00 -2.239434421062469482e-01
2.312000000000000000e+03 6.959238433837890625e+01 3.018720054626464844e+01 2.458633184432983398e-01 4.883677482604980469e+00 1.538862228393554688e+00 -2.245036214590072632e-01
2.313000000000000000e+03 4.918495941162109375e+01 1.570833110809326172e+01 1.785343885421752930e+00 4.095750331878662109e+00 1.764328360557556152e+00 1.372023105621337891e+00
2.314000000000000000e+03 4.925123596191406250e+01 7.295408248901367188e+00 8.294432163238525391e-01 1.245974063873291016e+00 6.226251721382141113e-01 7.587113380432128906e-01
2.315000000000000000e+03 1.011655521392822266e+01 -6.560251712799072266e+00 -1.297457218170166016e-01 2.362630665302276611e-01 3.195520117878913879e-02 -3.026493638753890991e-02
2.316000000000000000e+03 1.293756484985351562e+01 6.867787837982177734e+00 -1.402281777700409293e-04 4.084569445694796741e-05 -2.981474426633212715e-05 8.040074317250400782e-05
2.317000000000000000e+03 6.852747440338134766e+00 6.280898571014404297e+00 -1.705097020021639764e-05 -7.382533658528700471e-05 -2.726289130805525929e-05 6.101727194618433714e-05
2.318000000000000000e+03 8.977451324462890625e+00 6.565689086914062500e+00 5.732281351811252534e-05 6.572479469468817115e-05 3.691428355523385108e-05 -1.423262801836244762e-05
2.319000000000000000e+03 1.235449790954589844e+01 -6.777163505554199219e+00 -6.247507780790328979e-02 2.040857225656509399e-01 4.248319193720817566e-02 9.923824667930603027e-02
2.320000000000000000e+03 1.374652767181396484e+01 -7.794927120208740234e+00 7.101021707057952881e-02 1.709347665309906006e-01 7.258349657058715820e-02 2.031445652246475220e-01
2.321000000000000000e+03 8.763024330139160156e+00 -6.383191585540771484e+00 -1.572305262088775635e-01 2.273101210594177246e-01 2.102388069033622742e-02 -1.078286692500114441e-01
2.322000000000000000e+03 8.087855339050292969e+00 -6.381164073944091797e+00 -1.612965464591979980e-01 2.145164757966995239e-01 1.596597954630851746e-02 -1.537515819072723389e-01
2.323000000000000000e+03 1.578824138641357422e+01 -7.389667987823486328e+00 1.226440668106079102e-01 3.476632013916969299e-02 4.722311720252037048e-02 2.317425906658172607e-01
2.324000000000000000e+03 7.233047485351562500e+01 -7.988759994506835938e+00 -7.494227290153503418e-01 1.018700504302978516e+01 2.831274509429931641e+00 -2.301620543003082275e-01
2.325000000000000000e+03 7.196576690673828125e+01 -8.783370971679687500e+00 -6.961667537689208984e-01 1.078676605224609375e+01 3.027179718017578125e+00 -4.116055369377136230e-01
2.326000000000000000e+03 1.396263408660888672e+01 -9.882535934448242188e+00 2.719835937023162842e-01 2.129516899585723877e-01 1.454805880784988403e-01 3.072645962238311768e-01
2.327000000000000000e+03 1.521514225006103516e+01 -8.658356666564941406e+00 2.098566591739654541e-01 8.156965672969818115e-02 8.742789179086685181e-02 2.746415734291076660e-01
2.328000000000000000e+03 1.114775848388671875e+01 8.536394119262695312e+00 -7.683966396143659949e-05 -5.465812500915490091e-05 -3.944933632737956941e-05 -4.929887290927581489e-05
2.329000000000000000e+03 1.925778579711914062e+01 -7.497974395751953125e+00 2.576183080673217773e-01 -1.498351693153381348e-01 3.233494237065315247e-02 2.073643803596496582e-01
2.330000000000000000e+03 2.090499877929687500e+01 -7.571976184844970703e+00 3.382016420364379883e-01 -2.294349074363708496e-01 3.263001888990402222e-02 1.660906672477722168e-01
2.331000000000000000e+03 2.009935188293457031e+01 -7.543303489685058594e+00 2.903698980808258057e-01 -1.880394071340560913e-01 3.069914877414703369e-02 1.871170550584793091e-01
2.332000000000000000e+03 1.074952507019042969e+01 6.600339412689208984e+00 6.948928057681769133e-05 5.627979771816171706e-05 3.773072239710018039e-05 4.606321090250276029e-05
2.333000000000000000e+03 8.140536308288574219e+00 -7.026923656463623047e+00 -1.370077878236770630e-01 2.474227398633956909e-01 3.312448784708976746e-02 -1.429142504930496216e-01
2.334000000000000000e+03 1.842863464355468750e+01 -8.331380844116210938e+00 2.932843863964080811e-01 -1.218395158648490906e-01 5.143346637487411499e-02 2.529363930225372314e-01
2.335000000000000000e+03 1.927829551696777344e+01 -9.266177177429199219e+00 3.990810513496398926e-01 -1.821098625659942627e-01 6.509135663509368896e-02 2.768369913101196289e-01
2.336000000000000000e+03 1.757246971130371094e+01 -9.105419158935546875e+00 3.322041034698486328e-01 -8.051708340644836426e-02 7.550610601902008057e-02 2.940625250339508057e-01
2.337000000000000000e+03 7.276441955566406250e+01 -7.223466873168945312e+00 -7.559597492218017578e-01 9.673056602478027344e+00 2.675129175186157227e+00 -2.269609132781624794e-03
2.338000000000000000e+03 1.741987800598144531e+01 -1.052805233001708984e+01 4.356958866119384766e-01 -7.385361194610595703e-02 1.085526868700981140e-01 3.338983058929443359e-01
2.339000000000000000e+03 6.918859863281250000e+01 2.843765318393707275e-01 -9.652920961380004883e-01 6.404106616973876953e+00 1.631644368171691895e+00 -1.033877730369567871e+00
2.340000000000000000e+03 7.168767547607421875e+01 2.778379678726196289e+00 -6.486300230026245117e-01 6.769148826599121094e+00 1.836155652999877930e+00 -8.250330686569213867e-01
2.341000000000000000e+03 1.223041534423828125e+01 7.789476394653320312e+00 -1.391920231981202960e-04 -3.482800093479454517e-05 -5.220600723987445235e-05 -4.836600419366732240e-05
2.342000000000000000e+03 1.076142311096191406e+01 9.483224868774414062e+00 6.430556095438078046e-05 3.538389864843338728e-05 2.990683788084425032e-05 4.420530240167863667e-05
2.343000000000000000e+03 9.261378288269042969e+00 2.350377273559570312e+01 2.054492215393111110e-04 9.042666351888328791e-05 8.876276115188375115e-05 1.237312972079962492e-04
2.344000000000000000e+03 2.056494903564453125e+01 -1.164962768554687500e+01 5.196235775947570801e-01 -2.638286948204040527e-01 7.673846185207366943e-02 3.541851043701171875e-01
2.345000000000000000e+03 3.328743362426757812e+01 -1.213725471496582031e+01 1.540957689285278320e+00 1.920470595359802246e+00 1.038428425788879395e+00 3.377229869365692139e-01
2.346000000000000000e+03 3.259381484985351562e+01 -7.272392749786376953e+00 1.795120596885681152e+00 1.179261803627014160e+00 8.923147320747375488e-01 2.051915824413299561e-01
2.347000000000000000e+03 2.403603172302246094e+01 -1.082910156250000000e+01 7.458765506744384766e-01 -4.671728610992431641e-01 8.361111581325531006e-02 3.459147214889526367e-01
2.348000000000000000e+03 7.292121887207031250e+01 -8.751972317695617676e-01 -6.755115389823913574e-01 7.660797595977783203e+00 2.095585823059082031e+00 -2.434052377939224243e-01
2.349000000000000000e+03 4.575545787811279297e+00 7.774787902832031250e+00 -1.035184031934477389e-04 -2.896176010835915804e-05 -3.974404899054206908e-05 2.285157097503542900e-05
2.350000000000000000e+03 2.168914031982421875e+01 -1.020342922210693359e+01 5.644466280937194824e-01 -3.374087512493133545e-01 6.811136752367019653e-02 3.006841838359832764e-01
2.351000000000000000e+03 2.402875137329101562e+01 -1.173682498931884766e+01 6.561112999916076660e-01 -4.231903553009033203e-01 6.987628340721130371e-02 4.534544050693511963e-01
2.352000000000000000e+03 2.546881675720214844e+01 -7.387878894805908203e+00 7.176698446273803711e-01 -4.772970974445343018e-01 7.211182266473770142e-02 -9.399839490652084351e-02
2.353000000000000000e+03 2.475208854675292969e+01 -7.024932384490966797e+00 5.613265633583068848e-01 -4.184867441654205322e-01 4.285194352269172668e-02 -1.092554703354835510e-01
2.354000000000000000e+03 1.155371093750000000e+01 -1.094614791870117188e+01 2.423638254404067993e-01 4.891931414604187012e-01 2.194670885801315308e-01 2.647872567176818848e-01
2.355000000000000000e+03 1.125236797332763672e+01 1.098315048217773438e+01 1.262959412997588515e-04 4.333316155680222437e-06 3.918877700925804675e-05 3.902670869138091803e-05
2.356000000000000000e+03 8.590294837951660156e+00 7.850044727325439453e+00 -6.871094228699803352e-05 2.594989564386196434e-05 -1.282831362914294004e-05 6.545253086187585723e-07
2.357000000000000000e+03 5.006042861938476562e+01 1.685458755493164062e+01 1.692830920219421387e+00 4.026241779327392578e+00 1.715721845626831055e+00 1.167031407356262207e+00
2.358000000000000000e+03 1.389374160766601562e+01 -1.118464660644531250e+01 4.476163387298583984e-01 2.387088537216186523e-01 2.058975547552108765e-01 3.692580759525299072e-01
2.359000000000000000e+03 1.264029026031494141e+01 -9.651584625244140625e+00 1.793449372053146362e-01 3.239223062992095947e-01 1.509801745414733887e-01 2.394420653581619263e-01
2.360000000000000000e+03 6.825467681884765625e+01 1.915312051773071289e+00 -9.816180467605590820e-01 5.805009841918945312e+00 1.447017550468444824e+00 -1.296666383743286133e+00
2.361000000000000000e+03 3.105031967163085938e+01 -9.926956176757812500e+00 1.872694253921508789e+00 3.848114907741546631e-01 6.772516965866088867e-01 3.533862829208374023e-01
2.362000000000000000e+03 3.390127182006835938e+01 -6.877067565917968750e+00 1.763361573219299316e+00 2.425200223922729492e+00 1.256568551063537598e+00 3.457399308681488037e-01
2.363000000000000000e+03 8.317442893981933594e+00 -1.159878253936767578e+01 1.229909211397171021e-01 6.790680885314941406e-01 2.406177073717117310e-01 3.652767837047576904e-02
2.364000000000000000e+03 2.146426200866699219e+01 -1.143120384216308594e+01 5.648600459098815918e-01 -3.151542842388153076e-01 7.491172105073928833e-02 3.579062521457672119e-01
2.365000000000000000e+03 1.528025341033935547e+01 -1.116618633270263672e+01 4.721684455871582031e-01 9.023517370223999023e-02 1.687210798263549805e-01 3.611705005168914795e-01
2.366000000000000000e+03 7.003770351409912109e+00 -8.327715873718261719e+00 -1.138564124703407288e-01 2.651360332965850830e-01 4.538388922810554504e-02 -2.095217406749725342e-01
2.367000000000000000e+03 7.806518077850341797e+00 -7.922589778900146484e+00 -1.088047549128532410e-01 2.937826514244079590e-01 5.549337342381477356e-02 -1.585697084665298462e-01
2.368000000000000000e+03 9.643336296081542969e+00 -9.066924095153808594e+00 -2.557246387004852295e-02 4.194550216197967529e-01 1.181647703051567078e-01 1.358202565461397171e-02
2.369000000000000000e+03 6.974459075927734375e+01 1.019151401519775391e+01 -2.227441640570759773e-03 5.276804924011230469e+00 1.582373142242431641e+00 -1.318985700607299805e+00
2.370000000000000000e+03 7.157569885253906250e+01 7.449326515197753906e+00 -2.577037811279296875e-01 6.087833881378173828e+00 1.749039053916931152e+00 -1.118495106697082520e+00
2.371000000000000000e+03 2.673375701904296875e+01 -1.197644042968750000e+01 9.345361590385437012e-01 -4.809911847114562988e-01 1.360635012388229370e-01 6.181978583335876465e-01
2.372000000000000000e+03 2.867055892944335938e+01 -1.145142555236816406e+01 1.292992591857910156e+00 -3.769995272159576416e-01 2.747979164123535156e-01 6.121302247047424316e-01
2.373000000000000000e+03 3.561632156372070312e+01 -1.273914813995361328e+01 1.158326387405395508e+00 4.713127613067626953e+00 1.761436104774475098e+00 1.398806422948837280e-01
2.374000000000000000e+03 1.019011306762695312e+01 1.343502998352050781e+01 1.381012552883476019e-04 5.199352472118334845e-06 4.299018473830074072e-05 3.869390275212936103e-05
2.375000000000000000e+03 7.054756164550781250e+01 -2.050618171691894531e+00 -8.145253062248229980e-01 7.342366695404052734e+00 1.958352327346801758e+00 -6.623689532279968262e-01
2.376000000000000000e+03 6.938893127441406250e+01 1.171943664550781250e+01 1.355191767215728760e-01 5.107999801635742188e+00 1.573055624961853027e+00 -1.275723934173583984e+00
2.377000000000000000e+03 8.344198226928710938e+00 1.130177783966064453e+01 -1.293553068535402417e-04 -3.842174191959202290e-05 -5.033311390434391797e-05 -2.491969280526973307e-05
2.378000000000000000e+03 8.307449340820312500e+00 2.014077758789062500e+01 2.619654696900397539e-04 -1.884690937004052103e-05 7.293556700460612774e-05 -5.395919288275763392e-06
2.379000000000000000e+03 3.605260467529296875e+01 -9.542024612426757812e+00 1.927664041519165039e+00 5.393386840820312500e+00 2.196315288543701172e+00 5.206829905509948730e-01
2.380000000000000000e+03 3.554562759399414062e+01 -8.235322952270507812e+00 1.968719601631164551e+00 4.442811965942382812e+00 1.923459529876708984e+00 5.532789230346679688e-01
2.381000000000000000e+03 7.585216522216796875e+00 -9.076998710632324219e+00 -6.413192301988601685e-02 3.738118410110473633e-01 9.290397167205810547e-02 -1.637894511222839355e-01
2.382000000000000000e+03 8.161857604980468750e+00 -9.628678321838378906e+00 -5.489389598369598389e-02 4.338334798812866211e-01 1.136818751692771912e-01 -1.016330346465110779e-01
2.383000000000000000e+03 8.588396072387695312e+00 -1.067892169952392578e+01 3.651401028037071228e-02 5.656571388244628906e-01 1.806513518095016479e-01 -2.058579213917255402e-02
2.384000000000000000e+03 7.870134353637695312e+00 1.702039146423339844e+01 4.396686927066184580e-05 1.086134652723558247e-04 4.577410072670318186e-05 9.226613474311307073e-05
2.385000000000000000e+03 7.055918121337890625e+01 1.527546286582946777e+00 -8.293904066085815430e-01 6.640819549560546875e+00 1.743428707122802734e+00 -9.044256806373596191e-01
2.386000000000000000e+03 7.177459716796875000e+01 -7.934972047805786133e-01 -7.907186746597290039e-01 7.399322509765625000e+00 1.982581138610839844e+00 -4.981169700622558594e-01
2.387000000000000000e+03 7.251599788665771484e+00 2.320475959777832031e+01 1.902793592307716608e-04 1.810283429222181439e-04 1.113923062803223729e-04 -2.667105218279175460e-05
2.388000000000000000e+03 3.351248931884765625e+01 -7.689491748809814453e+00 1.934372663497924805e+00 2.044389009475708008e+00 1.193628430366516113e+00 3.651671409606933594e-01
2.389000000000000000e+03 9.252009391784667969e+00 8.446893692016601562e+00 6.178598414408043027e-05 -3.247332278988324106e-05 8.793797860562335700e-06 -4.195659585093380883e-06
2.390000000000000000e+03 6.730384349822998047e+00 9.352633476257324219e+00 -3.539791578077711165e-05 -5.305929153109900653e-05 -2.653716182976495475e-05 2.441094511596020311e-05
2.391000000000000000e+03 7.069957733154296875e+01 -5.649909496307373047e+00 -5.952251553535461426e-01 8.349373817443847656e+00 2.326244592666625977e+00 -9.305065870285034180e-01
2.392000000000000000e+03 7.138530731201171875e+01 -6.134984493255615234e+00 -7.079908251762390137e-01 8.916286468505859375e+00 2.462488651275634766e+00 -7.222471237182617188e-01
2.393000000000000000e+03 6.233247375488281250e+01 6.810485363006591797e+00 -2.306726276874542236e-01 2.958966255187988281e+00 8.184880614280700684e-01 -1.694948434829711914e+00
2.394000000000000000e+03 1.803767013549804688e+01 -1.188634490966796875e+01 5.255875587463378906e-01 -1.245281547307968140e-01 1.203178316354751587e-01 3.352359235286712646e-01
2.395000000000000000e+03 1.708246040344238281e+01 -9.676872253417968750e+00 3.643950521945953369e-01 -5.309135094285011292e-02 9.339110553264617920e-02 3.083879649639129639e-01
2.396000000000000000e+03 1.008166599273681641e+01 1.725865745544433594e+01 2.576145634520798922e-04 1.254365542990854010e-05 8.104746666504070163e-05 1.183647545985877514e-04
2.397000000000000000e+03 5.092711257934570312e+01 1.297702121734619141e+01 1.948432445526123047e+00 2.798808813095092773e+00 1.424172401428222656e+00 8.975256085395812988e-01
2.398000000000000000e+03 9.551218032836914062e+00 1.167214012145996094e+01 1.142678083851933479e-04 2.800289439619518816e-05 4.268121119821444154e-05 4.326213820604607463e-05
2.399000000000000000e+03 7.158669948577880859e+00 1.104517555236816406e+01 8.071224874584004283e-05 6.614687299588695168e-05 4.405773506732657552e-05 8.679356142238248140e-06
2.400000000000000000e+03 7.062568664550781250e+01 6.076356887817382812e+00 -4.299848675727844238e-01 5.993875026702880859e+00 1.669167041778564453e+00 -1.192240834236145020e+00
2.401000000000000000e+03 6.972190856933593750e+01 -3.446646451950073242e+00 -6.561065316200256348e-01 7.311141490936279297e+00 1.996510505676269531e+00 -8.966030478477478027e-01
2.402000000000000000e+03 3.066449928283691406e+01 -1.088099861145019531e+01 1.692962646484375000e+00 2.494431287050247192e-01 5.827217698097229004e-01 4.494637846946716309e-01
2.403000000000000000e+03 3.152549171447753906e+01 -1.118422985076904297e+01 1.729775071144104004e+00 5.796400904655456543e-01 6.928245425224304199e-01 4.694584906101226807e-01
2.404000000000000000e+03 5.633392715454101562e+01 8.352660179138183594e+00 4.742347300052642822e-01 1.437646865844726562e+00 5.735644698143005371e-01 -8.782948255538940430e-01
2.405000000000000000e+03 5.464976882934570312e+01 7.981895446777343750e+00 4.995030164718627930e-01 1.208529710769653320e+00 5.124098062515258789e-01 -5.868824124336242676e-01
2.406000000000000000e+03 8.429507255554199219e+00 2.109107208251953125e+01 -1.593899069121107459e-04 -4.567695941659621894e-05 -6.152006244519725442e-05 3.185165769536979496e-05
2.407000000000000000e+03 5.218458557128906250e+01 8.091228485107421875e+00 7.745718955993652344e-01 1.151422142982482910e+00 5.777982473373413086e-01 -5.064847692847251892e-02
2.408000000000000000e+03 1.161314105987548828e+01 -9.947001457214355469e+00 1.704241037368774414e-01 4.130879342555999756e-01 1.750536113977432251e-01 2.122177332639694214e-01
2.409000000000000000e+03 1.219287395477294922e+01 2.811927795410156250e+01 3.536744916345924139e-04 -1.581383403390645981e-04 5.866084393346682191e-05 -2.044093416770920157e-04
2.410000000000000000e+03 4.845712280273437500e+01 6.814981937408447266e+00 8.116555809974670410e-01 1.446880459785461426e+00 6.775608062744140625e-01 1.107418537139892578e+00
2.411000000000000000e+03 6.950901794433593750e+01 2.125757217407226562e+01 4.202260076999664307e-01 4.854036808013916016e+00 1.582278728485107422e+00 -6.915923357009887695e-01
2.412000000000000000e+03 2.910251426696777344e+01 -1.231145477294921875e+01 1.144268751144409180e+00 -3.410752117633819580e-01 2.409580498933792114e-01 7.298601865768432617e-01
2.413000000000000000e+03 7.482486724853515625e+01 -1.065843200683593750e+01 5.342153906822204590e-01 9.733702659606933594e+00 3.080375432968139648e+00 1.209521532058715820e+00
2.414000000000000000e+03 6.960955810546875000e+01 2.537487220764160156e+01 3.586247563362121582e-01 4.852340698242187500e+00 1.563289642333984375e+00 -4.325598180294036865e-01
2.415000000000000000e+03 7.026184844970703125e+01 2.279086875915527344e+01 3.597275018692016602e-01 4.936471939086914062e+00 1.588859915733337402e+00 -5.811821222305297852e-01
2.416000000000000000e+03 4.853480148315429688e+01 5.506961345672607422e+00 -2.256057858467102051e-01 6.952517628669738770e-01 1.408938020467758179e-01 8.235394954681396484e-01
2.417000000000000000e+03 5.624908447265625000e+01 1.020599555969238281e+01 9.959678053855895996e-01 1.785913825035095215e+00 8.345645070075988770e-01 -7.167950868606567383e-01
2.418000000000000000e+03 6.111604690551757812e+01 7.462745189666748047e+00 -2.790490351617336273e-02 2.563675642013549805e+00 7.607312202453613281e-01 -1.576974034309387207e+00
2.419000000000000000e+03 6.987869262695312500e+01 1.766247367858886719e+01 3.766161203384399414e-01 4.969883441925048828e+00 1.603949904441833496e+00 -9.305124282836914062e-01
2.420000000000000000e+03 7.097666931152343750e+01 1.461406421661376953e+01 2.201603651046752930e-01 5.308933258056640625e+00 1.658728122711181641e+00 -1.061201572418212891e+00
2.421000000000000000e+03 7.205519104003906250e+01 -6.726398944854736328e+00 -7.703318595886230469e-01 9.421513557434082031e+00 2.595354557037353516e+00 -4.109447002410888672e-01
2.422000000000000000e+03 7.203805541992187500e+01 -5.346597194671630859e+00 -7.669578194618225098e-01 8.730955123901367188e+00 2.389199256896972656e+00 -3.424848914146423340e-01
2.423000000000000000e+03 5.911997985839843750e+01 6.555039405822753906e+00 -1.603652983903884888e-01 1.814757108688354492e+00 4.963175356388092041e-01 -1.390176653861999512e+00
2.424000000000000000e+03 5.752785873413085938e+01 8.212833404541015625e+00 3.549991548061370850e-01 1.702256321907043457e+00 6.171766519546508789e-01 -1.092867970466613770e+00
2.425000000000000000e+03 6.865155029296875000e+01 9.717192649841308594e+00 -2.255730703473091125e-02 5.030357837677001953e+00 1.502340197563171387e+00 -1.404684662818908691e+00
2.426000000000000000e+03 5.116376876831054688e+01 1.763600540161132812e+01 1.628317832946777344e+00 3.849554300308227539e+00 1.643361687660217285e+00 9.343745708465576172e-01
2.427000000000000000e+03 4.918514633178710938e+01 1.011501121520996094e+01 1.850538134574890137e+00 2.374295473098754883e+00 1.267450094223022461e+00 1.200563192367553711e+00
2.428000000000000000e+03 9.399756431579589844e+00 2.229973030090332031e+01 -1.429125550203025341e-04 -8.722994971321895719e-05 -6.904274778207764030e-05 -7.349382940446957946e-05
2.429000000000000000e+03 4.114733505249023438e+01 -3.089689826965332031e+01 -3.818574249744415283e-01 3.900039911270141602e+00 1.055454730987548828e+00 -6.330453157424926758e-01
2.430000000000000000e+03 4.282184982299804688e+01 -3.297861480712890625e+01 -6.674431562423706055e-01 3.323569297790527344e+00 7.968378067016601562e-01 -6.330725550651550293e-01
2.431000000000000000e+03 6.713305664062500000e+01 2.243043184280395508e+00 -1.018189072608947754e+00 5.281065464019775391e+00 1.278862953186035156e+00 -1.484527826309204102e+00
2.432000000000000000e+03 6.448087310791015625e+01 5.678305149078369141e+00 -5.491292476654052734e-01 3.789318084716796875e+00 9.720566272735595703e-01 -1.769063234329223633e+00
2.433000000000000000e+03 6.857991790771484375e+01 3.427291488647460938e+01 1.755365729331970215e-01 4.870426654815673828e+00 1.513788938522338867e+00 -9.479038417339324951e-02
2.434000000000000000e+03 5.098747634887695312e+01 2.565584564208984375e+01 8.772475719451904297e-01 4.524026393890380859e+00 1.620382189750671387e+00 5.798759460449218750e-01
2.435000000000000000e+03 9.679676055908203125e+00 1.469561767578125000e+01 -1.672338548814877868e-04 1.265346509171649814e-05 -4.637411620933562517e-05 -6.628515984630212188e-05
2.436000000000000000e+03 1.071759605407714844e+01 -7.440809249877929688e+00 -7.067734003067016602e-02 2.829513549804687500e-01 6.368220597505569458e-02 2.603317238390445709e-02
2.437000000000000000e+03 9.959236145019531250e+00 -7.358520507812500000e+00 -9.671462327241897583e-02 2.864604592323303223e-01 5.692375078797340393e-02 -2.016320824623107910e-02
2.438000000000000000e+03 1.928386497497558594e+01 -8.393780708312988281e+00 3.320737481117248535e-01 -1.643839776515960693e-01 5.030693113803863525e-02 2.478657811880111694e-01
2.439000000000000000e+03 1.225655364990234375e+01 -7.512030601501464844e+00 -7.753543555736541748e-03 2.417977899312973022e-01 7.021327316761016846e-02 1.229210868477821350e-01
2.440000000000000000e+03 1.761642074584960938e+01 -8.240943908691406250e+00 2.596839368343353271e-01 -7.256259024143218994e-02 5.613640695810317993e-02 2.621915936470031738e-01
2.441000000000000000e+03 7.412424468994140625e+01 -1.002341651916503906e+01 1.849337667226791382e-01 1.029754924774169922e+01 3.144744873046875000e+00 1.107951760292053223e+00
2.442000000000000000e+03 1.454675960540771484e+01 -8.097660064697265625e+00 1.338097900152206421e-01 1.310650259256362915e-01 7.946244627237319946e-02 2.410924285650253296e-01
2.443000000000000000e+03 1.661030769348144531e+01 -1.099016857147216797e+01 4.608728587627410889e-01 -1.795417815446853638e-02 1.328756064176559448e-01 3.446772992610931396e-01
2.444000000000000000e+03 1.569795417785644531e+01 -9.313542366027832031e+00 2.888459861278533936e-01 5.957643315196037292e-02 1.045267283916473389e-01 3.008651137351989746e-01
2.445000000000000000e+03 1.148342800140380859e+01 -9.058458328247070312e+00 5.675842985510826111e-02 3.663712739944458008e-01 1.269389092922210693e-01 1.460970342159271240e-01
2.446000000000000000e+03 2.727428817749023438e+01 -9.298954010009765625e+00 1.202962756156921387e+00 -5.345691442489624023e-01 2.005180716514587402e-01 1.990652978420257568e-01
2.447000000000000000e+03 9.840350151062011719e+00 7.265943050384521484e+00 5.455545033328235149e-05 5.704209252144210041e-05 3.347926394781097770e-05 4.375046773930080235e-05
2.448000000000000000e+03 1.135975551605224609e+01 7.658635139465332031e+00 7.428933167830109596e-05 7.190200994955375791e-05 4.385740248835645616e-05 6.454389949794858694e-05
2.449000000000000000e+03 9.317253112792968750e+00 1.987175178527832031e+01 -2.682196791283786297e-04 2.898829961850424297e-06 -7.959624781506136060e-05 -7.218589598778635263e-05
2.450000000000000000e+03 2.166959571838378906e+01 -8.444675445556640625e+00 4.600163400173187256e-01 -3.028654158115386963e-01 4.714527726173400879e-02 1.857643276453018188e-01
2.451000000000000000e+03 2.247549438476562500e+01 -8.682456016540527344e+00 5.293906331062316895e-01 -3.565130531787872314e-01 5.186326801776885986e-02 1.799224615097045898e-01
2.452000000000000000e+03 9.637682914733886719e+00 -9.940050125122070312e+00 4.680139198899269104e-02 5.005517601966857910e-01 1.642059385776519775e-01 4.047560319304466248e-02
2.453000000000000000e+03 2.237356567382812500e+01 -1.099631309509277344e+01 5.892114043235778809e-01 -3.654066026210784912e-01 6.714143604040145874e-02 3.404351174831390381e-01
2.454000000000000000e+03 1.970093154907226562e+01 -1.153596115112304688e+01 5.027471184730529785e-01 -2.180287688970565796e-01 8.541550487279891968e-02 3.338195681571960449e-01
2.455000000000000000e+03 1.034123992919921875e+01 8.229569435119628906e+00 5.235433491179719567e-05 4.352549512987025082e-05 2.876395046769175678e-05 3.743529669009149075e-05
2.456000000000000000e+03 9.652693748474121094e+00 7.876559734344482422e+00 -5.913810673519037664e-05 7.428266144415829331e-06 -1.551295099488925189e-05 -3.096124055446125567e-05
2.457000000000000000e+03 5.537397003173828125e+01 9.091595649719238281e+00 7.933532595634460449e-01 1.463339686393737793e+00 6.770079135894775391e-01 -6.471794843673706055e-01
2.458000000000000000e+03 8.793161392211914062e+00 8.988747596740722656e+00 -2.599479194032028317e-05 5.465564026962965727e-05 8.598253771197050810e-06 -2.372327617194969207e-05
2.459000000000000000e+03 6.522774505615234375e+01 4.210522651672363281e+00 -8.068669438362121582e-01 4.226129531860351562e+00 1.025778770446777344e+00 -1.728763103485107422e+00
2.460000000000000000e+03 8.300992965698242188e+00 2.214834213256835938e+01 1.213900977745652199e-04 1.529655564809218049e-04 8.230669482145458460e-05 5.580221568379784003e-06
2.461000000000000000e+03 1.317689132690429688e+01 -1.046869468688964844e+01 2.925969660282135010e-01 3.356145620346069336e-01 1.884634494781494141e-01 3.164903819561004639e-01
2.462000000000000000e+03 5.012130737304687500e+01 1.506135272979736328e+01 1.880575299263000488e+00 3.560420513153076172e+00 1.632298707962036133e+00 1.173217773437500000e+00
2.463000000000000000e+03 4.967338943481445312e+01 1.139845848083496094e+01 1.942826509475708008e+00 2.627197980880737305e+00 1.371007323265075684e+00 1.154588580131530762e+00
2.464000000000000000e+03 6.677084350585937500e+01 9.033492803573608398e-01 -1.167111396789550781e+00 5.272344589233398438e+00 1.231569886207580566e+00 -1.448649048805236816e+00
2.465000000000000000e+03 6.793870544433593750e+01 5.096371769905090332e-01 -1.074292302131652832e+00 5.894858360290527344e+00 1.446169853210449219e+00 -1.236291289329528809e+00
2.466000000000000000e+03 1.592193603515625000e+01 -1.042625236511230469e+01 3.985045552253723145e-01 3.673868253827095032e-02 1.305729746818542480e-01 3.382570743560791016e-01
2.467000000000000000e+03 5.695112228393554688e+00 7.124437808990478516e+00 1.380661415169015527e-04 -7.785334673826582730e-06 3.908424332621507347e-05 -2.711552406253758818e-05
2.468000000000000000e+03 5.695689678192138672e+00 6.465248584747314453e+00 -1.058645430020987988e-04 1.172928386949934065e-05 -2.824057810357771814e-05 2.458664675941690803e-05
2.469000000000000000e+03 2.479331588745117188e+01 -7.765558719635009766e+00 7.074261903762817383e-01 -4.707027375698089600e-01 7.101702690124511719e-02 -2.573623089119791985e-03
2.470000000000000000e+03 8.813890457153320312e+00 -9.890689849853515625e+00 -3.090637503191828728e-03 4.958301484584808350e-01 1.478218585252761841e-01 -1.600127853453159332e-02
2.471000000000000000e+03 9.513363838195800781e+00 -1.083083248138427734e+01 1.014318093657493591e-01 6.025019884109497070e-01 2.111801505088806152e-01 1.084503158926963806e-01
2.472000000000000000e+03 2.927513122558593750e+01 -8.796614646911621094e+00 1.568804264068603516e+00 -2.950349748134613037e-01 3.821307718753814697e-01 1.222566813230514526e-01
2.473000000000000000e+03 2.900265121459960938e+01 -7.872657299041748047e+00 1.380635857582092285e+00 -3.894401192665100098e-01 2.973587214946746826e-01 -4.764103889465332031e-02
2.474000000000000000e+03 1.731599998474121094e+01 -1.144618129730224609e+01 4.951108098030090332e-01 -8.360426127910614014e-02 1.234519705176353455e-01 3.341754376888275146e-01
2.475000000000000000e+03 9.069946289062500000e+00 1.298949718475341797e+01 -1.428220130037516356e-04 -2.421495310045429505e-06 -4.357305078883655369e-05 -5.531707574846222997e-05
2.476000000000000000e+03 7.036456298828125000e+01 -4.299583435058593750e+00 -6.247085332870483398e-01 7.723946094512939453e+00 2.129771232604980469e+00 -8.462639451026916504e-01
2.477000000000000000e+03 7.052987670898437500e+01 -9.541236162185668945e-01 -8.484784960746765137e-01 7.083851337432861328e+00 1.870611786842346191e+00 -7.069710493087768555e-01
2.478000000000000000e+03 7.145127868652343750e+01 -2.332201957702636719e+00 -8.040034770965576172e-01 7.644608974456787109e+00 2.052181720733642578e+00 -4.467419087886810303e-01
2.479000000000000000e+03 2.330393409729003906e+01 -8.701459884643554688e+00 6.121235489845275879e-01 -4.047641158103942871e-01 6.220782175660133362e-02 1.707470417022705078e-01
2.480000000000000000e+03 3.253452301025390625e+01 -9.538438796997070312e+00 1.986558198928833008e+00 1.315944671630859375e+00 9.907508492469787598e-01 3.882861435413360596e-01
2.481000000000000000e+03 2.749707031250000000e+01 -1.050500202178955078e+01 1.218665361404418945e+00 -5.060521960258483887e-01 2.137839645147323608e-01 4.256338775157928467e-01
2.482000000000000000e+03 3.208495330810546875e+01 -8.119019508361816406e+00 1.908966422080993652e+00 8.580990433692932129e-01 8.301196694374084473e-01 2.242442965507507324e-01
2.483000000000000000e+03 3.156669807434082031e+01 -9.023941993713378906e+00 1.874177932739257812e+00 6.160526275634765625e-01 7.470691800117492676e-01 2.639718651771545410e-01
2.484000000000000000e+03 1.953912162780761719e+01 -1.008052921295166016e+01 4.570527374744415283e-01 -2.152419537305831909e-01 7.254323363304138184e-02 2.991850078105926514e-01
2.485000000000000000e+03 6.971871948242187500e+01 5.639868736267089844e+00 -5.056238174438476562e-01 5.764475822448730469e+00 1.577655553817749023e+00 -1.290481209754943848e+00
2.486000000000000000e+03 6.889557647705078125e+01 1.970333290100097656e+01 4.702876806259155273e-01 4.765828609466552734e+00 1.570834875106811523e+00 -7.965741753578186035e-01
2.487000000000000000e+03 6.835927581787109375e+01 1.815559005737304688e+01 4.899546504020690918e-01 4.692845821380615234e+00 1.554840087890625000e+00 -9.147246479988098145e-01
2.488000000000000000e+03 1.057632541656494141e+01 -9.967049598693847656e+00 8.263980597257614136e-02 4.851872920989990234e-01 1.703481376171112061e-01 1.386948525905609131e-01
2.489000000000000000e+03 8.339997291564941406e+00 -8.540150642395019531e+00 -9.475621581077575684e-02 3.551054000854492188e-01 7.810475677251815796e-02 -1.034533306956291199e-01
2.490000000000000000e+03 3.558943939208984375e+01 -1.047989654541015625e+01 1.751876592636108398e+00 4.731925010681152344e+00 1.945140480995178223e+00 3.420360088348388672e-01
2.491000000000000000e+03 6.894823455810546875e+01 8.586004257202148438e+00 -1.728551834821701050e-01 5.220514774322509766e+00 1.514297962188720703e+00 -1.401838898658752441e+00
2.492000000000000000e+03 7.008300018310546875e+01 8.684044837951660156e+00 -1.837604641914367676e-01 5.539789199829101562e+00 1.606808662414550781e+00 -1.317895889282226562e+00
2.493000000000000000e+03 6.935344696044921875e+01 1.477112770080566406e+01 3.198509216308593750e-01 4.945228099822998047e+00 1.579523682594299316e+00 -1.132350325584411621e+00
2.494000000000000000e+03 7.172953128814697266e+00 2.198373222351074219e+01 -9.241140651283785701e-05 -1.542850077385082841e-04 -7.400892354780808091e-05 -1.679140268606715836e-06
2.495000000000000000e+03 6.172839355468750000e+01 5.513689517974853516e+00 -5.079718232154846191e-01 2.644077301025390625e+00 6.408316493034362793e-01 -1.692328572273254395e+00
2.496000000000000000e+03 9.312039375305175781e+00 9.765610694885253906e+00 -1.514523592049954459e-05 -2.860707172658294439e-05 -1.312569202127633616e-05 2.159922041755635291e-05
2.497000000000000000e+03 8.390016555786132812e+00 1.013428783416748047e+01 1.531240850454196334e-04 2.745582241914235055e-05 5.417397551354952157e-05 1.189487466035643592e-05
2.498000000000000000e+03 2.834285926818847656e+01 -9.156332015991210938e+00 1.422638058662414551e+00 -4.448035955429077148e-01 2.933503389358520508e-01 1.942259371280670166e-01
2.499000000000000000e+03 1.323208999633789062e+01 3.071306610107421875e+01 9.113873820751905441e-04 -8.838147914502769709e-05 2.469017927069216967e-04 3.777988022193312645e-04
2.500000000000000000e+03 1.210430431365966797e+01 3.092935752868652344e+01 1.689442142378538847e-04 -4.319884756114333868e-04 -7.891328277764841914e-05 -2.633670228533446789e-04
2.501000000000000000e+03 7.885716915130615234e+00 2.733575630187988281e+01 1.261478755623102188e-04 -1.923494164657313377e-05 3.207387999282218516e-05 2.384698600508272648e-04
2.502000000000000000e+03 9.213803291320800781e+00 2.866611289978027344e+01 -2.707255189307034016e-04 -1.291519874939695001e-04 -1.199632461066357791e-04 -8.860773959895595908e-05
2.503000000000000000e+03 6.792929077148437500e+01 2.200227165222167969e+01 5.242749452590942383e-01 4.645172595977783203e+00 1.550834178924560547e+00 -6.300665736198425293e-01
2.504000000000000000e+03 6.665587615966796875e+01 5.374480724334716797e+00 -6.159243583679199219e-01 4.718100070953369141e+00 1.230652689933776855e+00 -1.641748547554016113e+00
2.505000000000000000e+03 6.636561584472656250e+01 3.939542293548583984e+00 -8.314073681831359863e-01 4.743648052215576172e+00 1.173672199249267578e+00 -1.643462300300598145e+00
2.506000000000000000e+03 2.688756942749023438e+01 -6.680271148681640625e+00 7.511476874351501465e-01 -5.068693161010742188e-01 7.328350096940994263e-02 -2.821129262447357178e-01
2.507000000000000000e+03 6.408436584472656250e+01 4.542436599731445312e+00 -7.369841933250427246e-01 3.652664899826049805e+00 8.747042417526245117e-01 -1.775839447975158691e+00
2.508000000000000000e+03 6.346352386474609375e+01 6.209243774414062500e+00 -4.049308896064758301e-01 3.394087076187133789e+00 8.967468142509460449e-01 -1.748191475868225098e+00
2.509000000000000000e+03 5.027219390869140625e+01 7.715638160705566406e+00 9.315624237060546875e-01 1.177576899528503418e+00 6.327418088912963867e-01 4.103108048439025879e-01
2.510000000000000000e+03 1.015047931671142578e+01 1.049491024017333984e+01 -7.791157258907333016e-05 -6.554061656061094254e-06 -2.533969018259085715e-05 -5.492726631928235292e-05
2.511000000000000000e+03 5.282391738891601562e+01 2.206150627136230469e+01 1.247130036354064941e+00 4.093428134918212891e+00 1.602167367935180664e+00 6.012656688690185547e-01
2.512000000000000000e+03 4.977756500244140625e+01 1.409027194976806641e+01 1.964003682136535645e+00 3.455458164215087891e+00 1.625838518142700195e+00 1.243079781532287598e+00
2.513000000000000000e+03 5.127953338623046875e+01 8.182816505432128906e+00 9.258458018302917480e-01 1.150871276855468750e+00 6.230151057243347168e-01 1.798539608716964722e-01
2.514000000000000000e+03 2.325073814392089844e+01 -7.787593364715576172e+00 5.153379440307617188e-01 -3.708701431751251221e-01 4.334034398198127747e-02 7.081039249897003174e-02
2.515000000000000000e+03 3.235761642456054688e+01 -1.114968109130859375e+01 1.818699240684509277e+00 1.225500822067260742e+00 9.132599830627441406e-01 4.446805715560913086e-01
2.516000000000000000e+03 6.938793945312500000e+01 1.658751368522644043e+00 -9.390063285827636719e-01 6.248513698577880859e+00 1.592852234840393066e+00 -1.104143738746643066e+00
2.517000000000000000e+03 6.922404479980468750e+01 -1.093701481819152832e+00 -9.212240576744079590e-01 6.643548011779785156e+00 1.716697096824645996e+00 -9.468597769737243652e-01
2.518000000000000000e+03 1.088163852691650391e+01 3.151522827148437500e+01 7.357071735896170139e-04 -3.605668462114408612e-05 2.098951517837122083e-04 -1.598948001628741622e-04
2.519000000000000000e+03 1.036987781524658203e+01 3.478969192504882812e+01 4.390784888528287411e-04 -4.425657680258154869e-04 -1.046184365804947447e-06 -4.692587244790047407e-04
2.520000000000000000e+03 7.068526458740234375e+01 2.673460960388183594e+00 -7.668861746788024902e-01 6.513475894927978516e+00 1.723976969718933105e+00 -9.839683175086975098e-01
2.521000000000000000e+03 7.007266998291015625e+01 4.080029964447021484e+00 -6.388909816741943359e-01 6.117253303527832031e+00 1.643508791923522949e+00 -1.157104492187500000e+00
2.522000000000000000e+03 5.367120361328125000e+01 8.700302124023437500e+00 8.357622027397155762e-01 1.297127723693847656e+00 6.398670077323913574e-01 -3.464978635311126709e-01
2.523000000000000000e+03 5.111250686645507812e+01 1.136351776123046875e+01 1.796301364898681641e+00 2.221338987350463867e+00 1.205292105674743652e+00 6.934108138084411621e-01
2.524000000000000000e+03 6.512100219726562500e+01 6.532415866851806641e+00 -3.850494027137756348e-01 4.066445827484130859e+00 1.104418873786926270e+00 -1.715053439140319824e+00
2.525000000000000000e+03 2.138155364990234375e+01 -9.079298019409179688e+00 4.748399257659912109e-01 -2.926767766475677490e-01 5.464894324541091919e-02 2.346225529909133911e-01
2.526000000000000000e+03 2.093644905090332031e+01 -9.735865592956542969e+00 5.030273795127868652e-01 -2.942567169666290283e-01 6.263120472431182861e-02 2.627433836460113525e-01
2.527000000000000000e+03 1.688883018493652344e+01 -8.950915336608886719e+00 2.878262102603912354e-01 -2.260213159024715424e-02 7.956722378730773926e-02 2.899048626422882080e-01
2.528000000000000000e+03 9.149931907653808594e+00 7.353333950042724609e+00 -1.447641079721506685e-05 -5.410508674685843289e-05 -2.057444908132310957e-05 1.610070103197358549e-05
2.529000000000000000e+03 1.061535072326660156e+01 -8.259180068969726562e+00 -3.446710482239723206e-02 3.487884700298309326e-01 9.429641067981719971e-02 5.580963939428329468e-02
2.530000000000000000e+03 2.700014686584472656e+01 -8.021028518676757812e+00 1.083204865455627441e+00 -5.486564040184020996e-01 1.603645384311676025e-01 -3.283573687076568604e-02
2.531000000000000000e+03 1.143619918823242188e+01 -8.257967948913574219e+00 1.070057507604360580e-02 3.093492984771728516e-01 9.601496160030364990e-02 1.056528612971305847e-01
2.532000000000000000e+03 1.408833408355712891e+01 -8.773859977722167969e+00 1.824568957090377808e-01 1.711994260549545288e-01 1.060968935489654541e-01 2.649684548377990723e-01
2.533000000000000000e+03 1.058096885681152344e+01 -9.095645904541015625e+00 3.394065797328948975e-02 4.029907584190368652e-01 1.310794204473495483e-01 8.457513898611068726e-02
2.534000000000000000e+03 8.401234626770019531e+00 -7.527023315429687500e+00 -1.262285262346267700e-01 2.834826111793518066e-01 4.717622697353363037e-02 -1.230183839797973633e-01
2.535000000000000000e+03 1.622986602783203125e+01 -9.019375801086425781e+00 2.753559648990631104e-01 7.550655864179134369e-03 8.487198501825332642e-02 2.914083003997802734e-01
2.536000000000000000e+03 1.461777019500732422e+01 -9.291128158569335938e+00 2.394534647464752197e-01 1.523627787828445435e-01 1.175448745489120483e-01 2.869676351547241211e-01
2.537000000000000000e+03 1.520235538482666016e+01 -9.885437965393066406e+00 3.235519826412200928e-01 9.690290689468383789e-02 1.261364668607711792e-01 3.213040530681610107e-01
2.538000000000000000e+03 2.376825332641601562e+01 -9.444097518920898438e+00 7.053078413009643555e-01 -4.532088935375213623e-01 7.562968879938125610e-02 2.199095040559768677e-01
2.539000000000000000e+03 2.013606452941894531e+01 -1.083696937561035156e+01 5.157907009124755859e-01 -2.514745295047760010e-01 7.929486036300659180e-02 3.288595974445343018e-01
2.540000000000000000e+03 1.851649856567382812e+01 -1.037446975708007812e+01 4.479867219924926758e-01 -1.542305350303649902e-01 8.812685310840606689e-02 3.159138262271881104e-01
2.541000000000000000e+03 1.280683898925781250e+01 -8.349028587341308594e+00 8.017099648714065552e-02 2.536459267139434814e-01 1.001450791954994202e-01 1.914509832859039307e-01
2.542000000000000000e+03 1.217333984375000000e+01 -8.218854904174804688e+00 2.229888550937175751e-02 2.877389490604400635e-01 9.301134943962097168e-02 1.416621059179306030e-01
2.543000000000000000e+03 1.458400249481201172e+01 -1.053045082092285156e+01 3.683947324752807617e-01 1.697857230901718140e-01 1.614541411399841309e-01 3.392074406147003174e-01
2.544000000000000000e+03 6.856427001953125000e+01 7.480659961700439453e+00 -2.881900966167449951e-01 5.188172817230224609e+00 1.469994783401489258e+00 -1.450469255447387695e+00
2.545000000000000000e+03 3.193751335144042969e+01 -1.038352870941162109e+01 1.885340213775634766e+00 9.640383124351501465e-01 8.548135757446289062e-01 3.948105871677398682e-01
2.546000000000000000e+03 3.461775207519531250e+01 -1.018250846862792969e+01 1.933655142784118652e+00 3.417686700820922852e+00 1.605402588844299316e+00 4.126639366149902344e-01
2.547000000000000000e+03 2.009297752380371094e+01 -9.409377098083496094e+00 4.423061907291412354e-01 -2.379424273967742920e-01 6.130912527441978455e-02 2.711899876594543457e-01
2.548000000000000000e+03 6.727793121337890625e+01 2.033091545104980469e+01 5.832567811012268066e-01 4.536038398742675781e+00 1.535788536071777344e+00 -7.419966459274291992e-01
2.549000000000000000e+03 6.953842163085937500e+01 1.622709274291992188e+01 3.640692532062530518e-01 4.934050083160400391e+00 1.589435696601867676e+00 -1.033742904663085938e+00
2.550000000000000000e+03 6.413969421386718750e+01 7.289590358734130859e+00 -2.050125151872634888e-01 3.662156105041503906e+00 1.037143111228942871e+00 -1.704051017761230469e+00
2.551000000000000000e+03 5.982738876342773438e+01 8.160194396972656250e+00 2.123589813709259033e-01 2.189479351043701172e+00 7.205514907836914062e-01 -1.404037952423095703e+00
2.552000000000000000e+03 2.597951889038085938e+01 -8.287534713745117188e+00 9.130388498306274414e-01 -5.405429601669311523e-01 1.117487624287605286e-01 1.035681273788213730e-02
2.553000000000000000e+03 2.966490554809570312e+01 -1.049630165100097656e+01 1.630784273147583008e+00 -1.938612759113311768e-01 4.310768842697143555e-01 4.050672054290771484e-01
2.554000000000000000e+03 3.007384872436523438e+01 -9.467153549194335938e+00 1.686743974685668945e+00 -4.328481853008270264e-02 4.930377602577209473e-01 2.503859996795654297e-01
2.555000000000000000e+03 5.067446517944335938e+01 1.422523880004882812e+01 1.939126968383789062e+00 3.140736341476440430e+00 1.523959040641784668e+00 1.020913243293762207e+00
2.556000000000000000e+03 5.088431930541992188e+01 1.587423992156982422e+01 1.834441900253295898e+00 3.524160146713256836e+00 1.607580542564392090e+00 1.018511772155761719e+00
2.557000000000000000e+03 2.410201644897460938e+01 -8.678678512573242188e+00 7.016490101814270020e-01 -4.610818326473236084e-01 7.217014580965042114e-02 1.416114121675491333e-01
2.558000000000000000e+03 6.929203796386718750e+01 1.327065563201904297e+01 2.397273480892181396e-01 5.005635738372802734e+00 1.573608875274658203e+00 -1.220651149749755859e+00
2.559000000000000000e+03 6.966391754150390625e+01 2.932443380355834961e+00 -7.897951602935791016e-01 6.157456874847412109e+00 1.610298514366149902e+00 -1.139812469482421875e+00
2.560000000000000000e+03 5.174291610717773438e+01 1.673539543151855469e+01 1.764010787010192871e+00 3.477724790573120117e+00 1.572520732879638672e+00 8.377920389175415039e-01
2.561000000000000000e+03 4.987580490112304688e+01 9.099155426025390625e+00 1.555336713790893555e+00 1.882773637771606445e+00 1.031433105468750000e+00 8.484531044960021973e-01
2.562000000000000000e+03 5.256632232666015625e+01 9.401481628417968750e+00 1.211245179176330566e+00 1.493755340576171875e+00 8.115001320838928223e-01 2.686654031276702881e-02
2.563000000000000000e+03 5.230058288574218750e+01 1.791267013549804688e+01 1.636261224746704102e+00 3.583211183547973633e+00 1.565841794013977051e+00 7.191520929336547852e-01
2.564000000000000000e+03 6.870418548583984375e+01 2.370215225219726562e+01 4.393246471881866455e-01 4.761977195739746094e+00 1.560390591621398926e+00 -5.279523730278015137e-01
2.565000000000000000e+03 6.749662017822265625e+01 3.627977132797241211e+00 -8.493438363075256348e-01 5.255839824676513672e+00 1.321948766708374023e+00 -1.503356575965881348e+00
2.566000000000000000e+03 5.121606445312500000e+01 9.630971908569335938e+00 1.488041877746582031e+00 1.648834109306335449e+00 9.410628080368041992e-01 4.450517296791076660e-01
2.567000000000000000e+03 6.859635925292968750e+01 3.273992061614990234e+00 -8.271072506904602051e-01 5.709536075592041016e+00 1.464728713035583496e+00 -1.327881097793579102e+00
2.568000000000000000e+03 3.522496414184570312e+01 -1.140061569213867188e+01 1.594475030899047852e+00 4.174099445343017578e+00 1.730572342872619629e+00 2.752152085304260254e-01
2.569000000000000000e+03 3.429981231689453125e+01 -1.114465808868408203e+01 1.737331032752990723e+00 3.039509773254394531e+00 1.433052301406860352e+00 3.204992711544036865e-01
2.570000000000000000e+03 6.817638397216796875e+01 6.388333320617675781e+00 -4.686200320720672607e-01 5.197017192840576172e+00 1.418519139289855957e+00 -1.498194217681884766e+00
2.571000000000000000e+03 7.033925628662109375e+01 7.251419067382812500e+00 -3.124495446681976318e-01 5.784255504608154297e+00 1.641541838645935059e+00 -1.264063477516174316e+00
2.572000000000000000e+03 6.666597747802734375e+01 1.008893775939941406e+01 9.928116202354431152e-02 4.462067604064941406e+00 1.368404626846313477e+00 -1.491746306419372559e+00
2.573000000000000000e+03 1.346228599548339844e+01 -8.528750419616699219e+00 1.165623813867568970e-01 2.268198579549789429e-01 1.030146703124046326e-01 2.222435623407363892e-01
2.574000000000000000e+03 1.349467849731445312e+01 -9.231212615966796875e+00 1.887919902801513672e-01 2.497260421514511108e-01 1.315554082393646240e-01 2.646338343620300293e-01
2.575000000000000000e+03 1.231116390228271484e+01 -8.870833396911621094e+00 9.944686293601989746e-02 3.101437389850616455e-01 1.228771805763244629e-01 1.909204274415969849e-01
2.576000000000000000e+03 2.402721023559570312e+01 -7.804908752441406250e+00 6.276412010192871094e-01 -4.292037785053253174e-01 5.953122675418853760e-02 4.075102135539054871e-02
2.577000000000000000e+03 1.877530860900878906e+01 -1.139974308013916016e+01 5.000036358833312988e-01 -1.647558212280273438e-01 1.005743369460105896e-01 3.413749337196350098e-01
2.578000000000000000e+03 2.529457855224609375e+01 -9.604560852050781250e+00 8.868199586868286133e-01 -5.250298976898193359e-01 1.085370182991027832e-01 2.241016030311584473e-01
2.579000000000000000e+03 5.337445831298828125e+01 1.073856258392333984e+01 1.429930925369262695e+00 1.768450736999511719e+00 9.595144987106323242e-01 -1.550771947950124741e-02
2.580000000000000000e+03 5.546454620361328125e+01 1.298552417755126953e+01 1.499798893928527832e+00 2.301650762557983398e+00 1.140434861183166504e+00 -2.530878186225891113e-01
2.581000000000000000e+03 6.764720916748046875e+01 1.166701698303222656e+01 2.108606994152069092e-01 4.655927181243896484e+00 1.460036277770996094e+00 -1.379794836044311523e+00
2.582000000000000000e+03 6.728088378906250000e+01 9.396323204040527344e+00 -5.339304730296134949e-02 4.688331604003906250e+00 1.390481472015380859e+00 -1.516912937164306641e+00
2.583000000000000000e+03 6.757154083251953125e+01 7.898773670196533203e+00 -2.211358398199081421e-01 4.835985660552978516e+00 1.384454965591430664e+00 -1.539231896400451660e+00
2.584000000000000000e+03 5.210292434692382812e+01 1.350299835205078125e+01 1.886656403541564941e+00 2.637726306915283203e+00 1.357314825057983398e+00 6.464476585388183594e-01
2.585000000000000000e+03 5.160608673095703125e+01 1.484480857849121094e+01 1.878381133079528809e+00 3.079286336898803711e+00 1.487300276756286621e+00 8.210549354553222656e-01
2.586000000000000000e+03 5.373244476318359375e+01 1.282484340667724609e+01 1.658118128776550293e+00 2.278695583343505859e+00 1.181044220924377441e+00 1.100027188658714294e-01
2.587000000000000000e+03 5.703437805175781250e+01 9.334280014038085938e+00 7.556650638580322266e-01 1.837758541107177734e+00 7.780270576477050781e-01 -9.156672358512878418e-01
2.588000000000000000e+03 6.795574188232421875e+01 1.659797668457031250e+01 4.860678613185882568e-01 4.629256248474121094e+00 1.534597158432006836e+00 -1.031824707984924316e+00
2.589000000000000000e+03 5.448617935180664062e+01 1.186477088928222656e+01 1.492829680442810059e+00 2.063101291656494141e+00 1.066779255867004395e+00 -1.493308842182159424e-01
2.590000000000000000e+03 5.254575347900390625e+01 1.195852375030517578e+01 1.711128592491149902e+00 2.103264570236206055e+00 1.144317984580993652e+00 3.308722674846649170e-01
2.591000000000000000e+03 5.134134292602539062e+01 2.117946815490722656e+01 1.292849659919738770e+00 4.234561443328857422e+00 1.658223390579223633e+00 7.761423587799072266e-01
2.592000000000000000e+03 6.549446105957031250e+01 5.491282463073730469e+00 -5.833562016487121582e-01 4.263671398162841797e+00 1.104094505310058594e+00 -1.708317279815673828e+00
2.593000000000000000e+03 6.592812347412109375e+01 7.426465034484863281e+00 -2.735058069229125977e-01 4.314578533172607422e+00 1.212321758270263672e+00 -1.647273898124694824e+00
2.594000000000000000e+03 6.768324279785156250e+01 1.501744747161865234e+01 4.444705545902252197e-01 4.580461025238037109e+00 1.507479429244995117e+00 -1.149421811103820801e+00
2.595000000000000000e+03 6.307509994506835938e+01 8.007874488830566406e+00 -2.353376522660255432e-02 3.271094083786010742e+00 9.742680788040161133e-01 -1.665343880653381348e+00
2.596000000000000000e+03 5.984121322631835938e+01 1.220673370361328125e+01 9.467507600784301758e-01 2.685258626937866211e+00 1.089602828025817871e+00 -1.056208491325378418e+00
2.597000000000000000e+03 6.790543365478515625e+01 5.052594661712646484e+00 -6.295114755630493164e-01 5.237996578216552734e+00 1.382545471191406250e+00 -1.496738195419311523e+00
2.598000000000000000e+03 5.738937377929687500e+01 1.137244319915771484e+01 1.099729895591735840e+00 2.172110557556152344e+00 9.815521240234375000e-01 -7.876672744750976562e-01
2.599000000000000000e+03 6.576145172119140625e+01 9.262483596801757812e+00 2.933020144701004028e-02 4.185054302215576172e+00 1.264315366744995117e+00 -1.565610289573669434e+00
2.600000000000000000e+03 6.573074340820312500e+01 1.368284225463867188e+01 5.038992762565612793e-01 4.160654067993164062e+00 1.399365901947021484e+00 -1.264293789863586426e+00
2.601000000000000000e+03 6.750846099853515625e+01 1.334721851348876953e+01 3.619105219841003418e-01 4.567892551422119141e+00 1.478940844535827637e+00 -1.271954894065856934e+00
2.602000000000000000e+03 6.703154754638671875e+01 6.749271869659423828e+00 -3.981311321258544922e-01 4.746674060821533203e+00 1.304562926292419434e+00 -1.599758267402648926e+00
2.603000000000000000e+03 5.946641540527343750e+01 1.044457054138183594e+01 7.274308800697326660e-01 2.418006181716918945e+00 9.436311125755310059e-01 -1.195292234420776367e+00
2.604000000000000000e+03 5.468573760986328125e+01 1.371096897125244141e+01 1.615751385688781738e+00 2.469852447509765625e+00 1.225681185722351074e+00 -1.353272330015897751e-02
2.605000000000000000e+03 6.772237396240234375e+01 1.032899761199951172e+01 7.500584423542022705e-02 4.752069473266601562e+00 1.448122620582580566e+00 -1.441318631172180176e+00
2.606000000000000000e+03 6.195501327514648438e+01 8.780175209045410156e+00 1.907161474227905273e-01 2.940949440002441406e+00 9.394996762275695801e-01 -1.566700935363769531e+00
2.607000000000000000e+03 5.320108795166015625e+01 1.399077796936035156e+01 1.784499883651733398e+00 2.604925632476806641e+00 1.316827654838562012e+00 3.807018697261810303e-01
2.608000000000000000e+03 5.254322433471679688e+01 1.590276718139648438e+01 1.811179518699645996e+00 3.141151189804077148e+00 1.485699176788330078e+00 6.749581098556518555e-01
2.609000000000000000e+03 6.663076782226562500e+01 8.491160392761230469e+00 -1.330293416976928711e-01 4.524332046508789062e+00 1.317390799522399902e+00 -1.585367083549499512e+00
2.610000000000000000e+03 6.461970520019531250e+01 1.751059913635253906e+01 7.936429381370544434e-01 4.026088714599609375e+00 1.445919513702392578e+00 -8.899385333061218262e-01
2.611000000000000000e+03 6.599261474609375000e+01 1.537533569335937500e+01 5.898410081863403320e-01 4.239915847778320312e+00 1.448927044868469238e+00 -1.127484202384948730e+00
2.612000000000000000e+03 4.899965667724609375e+01 2.152995681762695312e+01 1.060018062591552734e+00 4.853331089019775391e+00 1.774004697799682617e+00 8.966837525367736816e-01
2.613000000000000000e+03 5.005223464965820312e+01 2.025723648071289062e+01 1.312961339950561523e+00 4.427326679229736328e+00 1.722086429595947266e+00 9.576719999313354492e-01
2.614000000000000000e+03 5.364796066284179688e+01 2.018443107604980469e+01 1.442614793777465820e+00 3.740076780319213867e+00 1.554807543754577637e+00 5.176867246627807617e-01
2.615000000000000000e+03 6.610214233398437500e+01 1.116732120513916016e+01 2.595208883285522461e-01 4.238802433013916016e+00 1.349496960639953613e+00 -1.447222232818603516e+00
2.616000000000000000e+03 6.690517425537109375e+01 2.936088371276855469e+01 3.633318543434143066e-01 4.716174602508544922e+00 1.523851990699768066e+00 -2.050587087869644165e-01
2.617000000000000000e+03 6.699961853027343750e+01 2.458968353271484375e+01 5.256571173667907715e-01 4.596228599548339844e+00 1.536565661430358887e+00 -4.397407472133636475e-01
2.618000000000000000e+03 5.536987304687500000e+01 1.103364276885986328e+01 1.265344381332397461e+00 1.878151297569274902e+00 9.430487155914306641e-01 -4.516442716121673584e-01
2.619000000000000000e+03 6.142174530029296875e+01 1.224050331115722656e+01 7.817404270172119141e-01 3.024405479431152344e+00 1.141843795776367188e+00 -1.205588340759277344e+00
2.620000000000000000e+03 6.078949737548828125e+01 9.695274353027343750e+00 4.899982511997222900e-01 2.688804149627685547e+00 9.536407589912414551e-01 -1.380579948425292969e+00
2.621000000000000000e+03 6.904459381103515625e+01 4.597343921661376953e+00 -6.446028947830200195e-01 5.685534000396728516e+00 1.512279391288757324e+00 -1.341536402702331543e+00
2.622000000000000000e+03 6.922811126708984375e+01 6.677603721618652344e+00 -4.166325926780700684e-01 5.497115135192871094e+00 1.524144768714904785e+00 -1.380515217781066895e+00
2.623000000000000000e+03 5.421758270263671875e+01 1.624929428100585938e+01 1.703626275062561035e+00 3.005659818649291992e+00 1.412785768508911133e+00 3.099557757377624512e-01
2.624000000000000000e+03 6.806424713134765625e+01 8.890930175781250000e+00 -1.204755529761314392e-01 4.859991550445556641e+00 1.421854853630065918e+00 -1.501067161560058594e+00
2.625000000000000000e+03 6.402685546875000000e+01 1.097415256500244141e+01 3.809336423873901367e-01 3.640958070755004883e+00 1.206567525863647461e+00 -1.473892927169799805e+00
2.626000000000000000e+03 5.527057266235351562e+01 1.700776672363281250e+01 1.613703489303588867e+00 3.061398029327392578e+00 1.402530431747436523e+00 1.481352001428604126e-01
2.627000000000000000e+03 5.522941207885742188e+01 2.102404212951660156e+01 1.343200325965881348e+00 3.715721607208251953e+00 1.517676591873168945e+00 3.098723590373992920e-01
2.628000000000000000e+03 5.538712310791015625e+01 1.467067909240722656e+01 1.572936892509460449e+00 2.636646986007690430e+00 1.262875199317932129e+00 -8.455929160118103027e-02
2.629000000000000000e+03 6.557582855224609375e+01 2.097022438049316406e+01 7.098102569580078125e-01 4.316015243530273438e+00 1.507747650146484375e+00 -6.438766717910766602e-01
2.630000000000000000e+03 6.503756713867187500e+01 1.923366928100585938e+01 7.654853463172912598e-01 4.172772407531738281e+00 1.481477379798889160e+00 -7.617275714874267578e-01
2.631000000000000000e+03 5.838162231445312500e+01 1.282285881042480469e+01 1.162044882774353027e+00 2.516318082809448242e+00 1.103508949279785156e+00 -7.840297818183898926e-01
2.632000000000000000e+03 5.621895980834960938e+01 1.422947502136230469e+01 1.497281312942504883e+00 2.564448833465576172e+00 1.218519091606140137e+00 -2.720552384853363037e-01
2.633000000000000000e+03 6.518724060058593750e+01 2.543832588195800781e+01 5.959326028823852539e-01 4.469805717468261719e+00 1.519721508026123047e+00 -3.256962299346923828e-01
2.634000000000000000e+03 6.294623565673828125e+01 9.925375938415527344e+00 3.251155614852905273e-01 3.285485506057739258e+00 1.083180308341979980e+00 -1.532649636268615723e+00
2.635000000000000000e+03 6.394311904907226562e+01 9.094219207763671875e+00 1.119140833616256714e-01 3.579836845397949219e+00 1.107525348663330078e+00 -1.609589338302612305e+00
2.636000000000000000e+03 6.315775299072265625e+01 1.173255443572998047e+01 5.589253306388854980e-01 3.482474327087402344e+00 1.212419867515563965e+00 -1.358847379684448242e+00
2.637000000000000000e+03 5.637221145629882812e+01 1.225115394592285156e+01 1.334319353103637695e+00 2.224552392959594727e+00 1.067661523818969727e+00 -4.979116618633270264e-01
2.638000000000000000e+03 5.721408462524414062e+01 1.362774562835693359e+01 1.372446060180664062e+00 2.520997524261474609e+00 1.168033123016357422e+00 -4.927915036678314209e-01
2.639000000000000000e+03 5.027576065063476562e+01 2.282192993164062500e+01 1.053386092185974121e+00 4.590943813323974609e+00 1.693298935890197754e+00 7.477079033851623535e-01
2.640000000000000000e+03 5.478630447387695312e+01 1.531636619567871094e+01 1.672672390937805176e+00 2.760812044143676758e+00 1.330045342445373535e+00 1.210963055491447449e-01
2.641000000000000000e+03 6.492883300781250000e+01 1.013420867919921875e+01 2.196889370679855347e-01 3.865121841430664062e+00 1.225443243980407715e+00 -1.540817260742187500e+00
2.642000000000000000e+03 6.445741271972656250e+01 2.348407936096191406e+01 7.268988490104675293e-01 4.300392150878906250e+00 1.508187294006347656e+00 -4.085907936096191406e-01
2.643000000000000000e+03 5.363365554809570312e+01 2.488367843627929688e+01 1.001687169075012207e+00 4.222005367279052734e+00 1.567107796669006348e+00 4.789869487285614014e-01
2.644000000000000000e+03 6.290711212158203125e+01 1.800005149841308594e+01 9.502023458480834961e-01 3.789691686630249023e+00 1.421968221664428711e+00 -7.422040700912475586e-01
2.645000000000000000e+03 6.266014862060546875e+01 1.393530273437500000e+01 8.103339076042175293e-01 3.428741455078125000e+00 1.271722555160522461e+00 -1.139464378356933594e+00
2.646000000000000000e+03 6.146967697143554688e+01 1.368073940277099609e+01 9.465981721878051758e-01 3.112697362899780273e+00 1.217788696289062500e+00 -1.057460546493530273e+00
2.647000000000000000e+03 6.194327545166015625e+01 1.090356826782226562e+01 5.605909228324890137e-01 3.074658155441284180e+00 1.090574741363525391e+00 -1.366089344024658203e+00
2.648000000000000000e+03 6.425766754150390625e+01 1.577451610565185547e+01 7.695710062980651855e-01 3.866132736206054688e+00 1.390711069107055664e+00 -1.045424103736877441e+00
2.649000000000000000e+03 6.274585342407226562e+01 1.267591094970703125e+01 6.792858839035034180e-01 3.421548128128051758e+00 1.230250239372253418e+00 -1.258396863937377930e+00
2.650000000000000000e+03 5.901602172851562500e+01 1.439813804626464844e+01 1.218907356262207031e+00 2.873474359512329102e+00 1.227714538574218750e+00 -7.299469709396362305e-01
2.651000000000000000e+03 5.784334182739257812e+01 1.518435096740722656e+01 1.386711955070495605e+00 2.837994098663330078e+00 1.267411828041076660e+00 -4.419380128383636475e-01
2.652000000000000000e+03 6.508698272705078125e+01 1.216442775726318359e+01 4.420512020587921143e-01 3.974740743637084961e+00 1.325037598609924316e+00 -1.378575801849365234e+00
2.653000000000000000e+03 6.196055984497070312e+01 1.488283824920654297e+01 9.632030129432678223e-01 3.373245000839233398e+00 1.300934433937072754e+00 -9.672245383262634277e-01
2.654000000000000000e+03 5.873154067993164062e+01 2.234371566772460938e+01 1.119789838790893555e+00 3.828644037246704102e+00 1.484530210494995117e+00 -5.171415582299232483e-02
2.655000000000000000e+03 6.623777008056640625e+01 2.275186538696289062e+01 6.232020258903503418e-01 4.464147567749023438e+00 1.526204943656921387e+00 -5.399309396743774414e-01
2.656000000000000000e+03 6.331190490722656250e+01 2.621018981933593750e+01 6.580568552017211914e-01 4.363280296325683594e+00 1.506401181221008301e+00 -1.998377740383148193e-01
2.657000000000000000e+03 5.861361312866210938e+01 1.642904663085937500e+01 1.337984681129455566e+00 3.096401691436767578e+00 1.330315828323364258e+00 -4.437515139579772949e-01
2.658000000000000000e+03 6.325447082519531250e+01 1.978728294372558594e+01 9.055392146110534668e-01 3.963884830474853516e+00 1.460827231407165527e+00 -6.184471845626831055e-01
2.659000000000000000e+03 6.070842361450195312e+01 1.531868839263916016e+01 1.106214165687561035e+00 3.213819503784179688e+00 1.296010136604309082e+00 -8.031618595123291016e-01
2.660000000000000000e+03 5.656746292114257812e+01 1.743103027343750000e+01 1.498014926910400391e+00 3.137958288192749023e+00 1.390792012214660645e+00 -4.845931380987167358e-02
2.661000000000000000e+03 5.547541809082031250e+01 2.583979988098144531e+01 9.272819757461547852e-01 4.181009769439697266e+00 1.532487511634826660e+00 3.439712524414062500e-01
2.662000000000000000e+03 6.268467712402343750e+01 2.417752647399902344e+01 7.950854897499084473e-01 4.208908557891845703e+00 1.501198172569274902e+00 -2.619278728961944580e-01
2.663000000000000000e+03 6.106153488159179688e+01 1.673528861999511719e+01 1.118066906929016113e+00 3.407464027404785156e+00 1.357659220695495605e+00 -6.903473138809204102e-01
2.664000000000000000e+03 5.667425537109375000e+01 1.571194362640380859e+01 1.500314593315124512e+00 2.862446546554565430e+00 1.308828353881835938e+00 -2.143520712852478027e-01
2.665000000000000000e+03 6.132065963745117188e+01 2.029123306274414062e+01 1.052595019340515137e+00 3.787506341934204102e+00 1.452030420303344727e+00 -4.208393692970275879e-01
2.666000000000000000e+03 5.619841384887695312e+01 2.372545623779296875e+01 1.101246476173400879e+00 3.975348472595214844e+00 1.522978544235229492e+00 2.534048557281494141e-01
2.667000000000000000e+03 6.598534393310546875e+01 2.742140960693359375e+01 4.724092483520507812e-01 4.604924678802490234e+00 1.523200154304504395e+00 -2.598810791969299316e-01
2.668000000000000000e+03 6.107107543945312500e+01 2.481242752075195312e+01 8.481021523475646973e-01 4.138721466064453125e+00 1.496047139167785645e+00 -1.424906551837921143e-01
2.669000000000000000e+03 5.972967910766601562e+01 1.686933708190917969e+01 1.243484735488891602e+00 3.274899005889892578e+00 1.355515122413635254e+00 -5.371089577674865723e-01
2.670000000000000000e+03 5.596070480346679688e+01 1.921100997924804688e+01 1.450654268264770508e+00 3.441858768463134766e+00 1.467753887176513672e+00 1.537002176046371460e-01
2.671000000000000000e+03 6.256973266601562500e+01 1.627636909484863281e+01 9.618085622787475586e-01 3.576641798019409180e+00 1.361535072326660156e+00 -8.849294781684875488e-01
2.672000000000000000e+03 5.933532333374023438e+01 2.030527305603027344e+01 1.198639035224914551e+00 3.630036592483520508e+00 1.448602676391601562e+00 -2.293015867471694946e-01
2.673000000000000000e+03 6.120520782470703125e+01 1.837073898315429688e+01 1.110425591468811035e+00 3.579419136047363281e+00 1.406953454017639160e+00 -5.654579997062683105e-01
2.674000000000000000e+03 5.954753494262695312e+01 1.568325328826904297e+01 1.227860689163208008e+00 3.088163137435913086e+00 1.294807076454162598e+00 -6.472662687301635742e-01
2.675000000000000000e+03 5.801191329956054688e+01 1.792022132873535156e+01 1.378148317337036133e+00 3.255630970001220703e+00 1.390133738517761230e+00 -2.361888289451599121e-01
2.676000000000000000e+03 6.187652969360351562e+01 2.225920486450195312e+01 9.505539536476135254e-01 3.984663486480712891e+00 1.480565309524536133e+00 -3.271220326423645020e-01
2.677000000000000000e+03 5.743080520629882812e+01 2.659046936035156250e+01 8.485854268074035645e-01 4.189865589141845703e+00 1.511535286903381348e+00 2.102402150630950928e-01
2.678000000000000000e+03 5.957419204711914062e+01 2.489243316650390625e+01 9.291695952415466309e-01 4.066771507263183594e+00 1.498782277107238770e+00 3.803190309554338455e-03
2.679000000000000000e+03 5.270178985595703125e+01 2.681090545654296875e+01 8.118255734443664551e-01 4.389991760253906250e+00 1.560545206069946289e+00 4.992342591285705566e-01
2.680000000000000000e+03 5.795627593994140625e+01 2.438367080688476562e+01 1.006153225898742676e+00 4.020496845245361328e+00 1.507995009422302246e+00 1.168701127171516418e-01
2.681000000000000000e+03 6.024700164794921875e+01 1.389747333526611328e+01 1.066186070442199707e+00 2.996342897415161133e+00 1.218758702278137207e+00 -9.054112434387207031e-01
2.682000000000000000e+03 6.406755828857421875e+01 1.410464668273925781e+01 6.968693137168884277e-01 3.744851827621459961e+00 1.332516312599182129e+00 -1.190800905227661133e+00
2.683000000000000000e+03 5.955532836914062500e+01 1.837975502014160156e+01 1.228615641593933105e+00 3.439685583114624023e+00 1.400490283966064453e+00 -4.040043652057647705e-01
2.684000000000000000e+03 5.753646469116210938e+01 1.980645561218261719e+01 1.336320042610168457e+00 3.510736703872680664e+00 1.454116940498352051e+00 -2.367573790252208710e-02
2.685000000000000000e+03 6.029191970825195312e+01 2.328674888610839844e+01 9.952834844589233398e-01 3.964466571807861328e+00 1.487924933433532715e+00 -1.476351320743560791e-01
2.686000000000000000e+03 1.740781021118164062e+01 4.159793853759765625e+01 -1.573687768541276455e-03 1.300767908105626702e-04 -4.330833035055547953e-04 6.142189959064126015e-04
2.687000000000000000e+03 1.435950374603271484e+01 3.716110610961914062e+01 -1.052612438797950745e-03 -3.375383384991437197e-04 -4.170452302787452936e-04 -1.573514891788363457e-03
2.688000000000000000e+03 8.500880241394042969e+00 4.101264953613281250e+01 -5.453220219351351261e-04 1.995719649130478501e-04 -1.037250258377753198e-04 2.272512792842462659e-04
2.689000000000000000e+03 6.489132690429687500e+01 3.064207839965820312e+01 3.773555755615234375e-01 4.646646976470947266e+00 1.507200717926025391e+00 -1.048457846045494080e-01
2.690000000000000000e+03 6.139194107055664062e+01 2.678739738464355469e+01 7.215167284011840820e-01 4.283043384552001953e+00 1.501368045806884766e+00 -6.630385667085647583e-02
2.691000000000000000e+03 3.716194915771484375e+01 -4.101435852050781250e+01 -1.411053538322448730e+00 3.541175603866577148e+00 6.390366554260253906e-01 3.844200819730758667e-02
2.692000000000000000e+03 8.655780792236328125e+00 3.675597763061523438e+01 -6.398053374141454697e-04 -1.300487492699176073e-04 -2.309562260052189231e-04 -3.277999348938465118e-04
2.693000000000000000e+03 4.349232101440429688e+01 4.122431182861328125e+01 -4.496837258338928223e-01 3.361790657043457031e+00 8.736320734024047852e-01 -4.114305600523948669e-02
2.694000000000000000e+03 5.148584747314453125e+01 3.618435287475585938e+01 -7.881543040275573730e-02 4.578112125396728516e+00 1.349789023399353027e+00 2.928179800510406494e-01
2.695000000000000000e+03 4.901435089111328125e+01 -3.511022949218750000e+01 -6.663209795951843262e-01 1.374397397041320801e+00 2.124229222536087036e-01 -5.464997291564941406e-01
2.696000000000000000e+03 1.261219310760498047e+01 -4.133156967163085938e+01 8.764576166868209839e-02 -3.194842040538787842e-01 -6.955152750015258789e-02 3.585683554410934448e-02
2.697000000000000000e+03 1.174015045166015625e+01 -3.698491287231445312e+01 -1.213855147361755371e-01 -3.078270554542541504e-01 -1.287637799978256226e-01 1.396212279796600342e-01
2.698000000000000000e+03 7.632619476318359375e+01 -3.730462646484375000e+01 -3.673899769783020020e-01 1.128611755371093750e+01 3.275618314743041992e+00 -1.529938727617263794e-01
2.699000000000000000e+03 2.484788131713867188e+01 -3.987297821044921875e+01 -2.276470810174942017e-01 6.215535402297973633e-01 1.181719303131103516e-01 1.430405974388122559e-01
2.700000000000000000e+03 5.170978546142578125e+01 -3.833073806762695312e+01 -4.767188131809234619e-01 7.066045403480529785e-01 6.896571815013885498e-02 -3.505864143371582031e-01
2.701000000000000000e+03 5.214543151855468750e+01 -3.373696517944335938e+01 -8.444257974624633789e-01 6.127119064331054688e-01 -6.951417773962020874e-02 -3.383887410163879395e-01
2.702000000000000000e+03 7.253937530517578125e+01 -4.102363586425781250e+01 5.515708122402429581e-03 7.849858283996582031e+00 2.356612205505371094e+00 3.334153443574905396e-02
2.703000000000000000e+03 6.794616699218750000e+01 3.110402488708496094e+01 2.785224020481109619e-01 4.802465915679931641e+00 1.524296522140502930e+00 -1.762934625148773193e-01
2.704000000000000000e+03 5.149384689331054688e+01 2.859897422790527344e+01 6.255725026130676270e-01 4.503185272216796875e+00 1.538627266883850098e+00 5.080107450485229492e-01
2.705000000000000000e+03 1.728270339965820312e+01 -4.129724502563476562e+01 -7.155594881623983383e-03 -2.657642066478729248e-01 -8.187593519687652588e-02 1.205474231392145157e-02
2.706000000000000000e+03 4.470041275024414062e+01 -3.568571472167968750e+01 -8.528386950492858887e-01 2.530295372009277344e+00 5.032370090484619141e-01 -4.973630309104919434e-01
2.707000000000000000e+03 5.953799819946289062e+01 3.266866302490234375e+01 3.544376194477081299e-01 4.550716876983642578e+00 1.471546292304992676e+00 1.527507454156875610e-01
2.708000000000000000e+03 5.940911483764648438e+01 2.949773597717285156e+01 5.946550965309143066e-01 4.386528491973876953e+00 1.494355082511901855e+00 1.333463191986083984e-01
2.709000000000000000e+03 4.870369338989257812e+01 3.654988861083984375e+01 -2.168946117162704468e-01 4.495020866394042969e+00 1.283437967300415039e+00 2.280462980270385742e-01
2.710000000000000000e+03 8.197020530700683594e+00 -4.127883148193359375e+01 1.369433850049972534e-01 6.986816227436065674e-02 6.204346194863319397e-02 -9.345787577331066132e-03
2.711000000000000000e+03 5.213932037353515625e+01 -4.108108139038085938e+01 -3.062373995780944824e-01 5.122739076614379883e-01 6.181094795465469360e-02 -1.289236247539520264e-01
2.712000000000000000e+03 4.781772232055664062e+01 -3.766860961914062500e+01 -7.541091442108154297e-01 1.757612228393554688e+00 3.010509014129638672e-01 -4.389839172363281250e-01
2.713000000000000000e+03 6.072774124145507812e+01 3.644298171997070312e+01 1.578872352838516235e-01 4.712945938110351562e+00 1.461249947547912598e+00 9.415731579065322876e-02
2.714000000000000000e+03 6.425215148925781250e+01 3.490739822387695312e+01 2.198406904935836792e-01 4.745703220367431641e+00 1.489663243293762207e+00 -1.069786772131919861e-02
2.715000000000000000e+03 6.750161743164062500e+01 3.700923919677734375e+01 1.276322901248931885e-01 4.862691402435302734e+00 1.497097015380859375e+00 -3.215278685092926025e-02
2.716000000000000000e+03 5.942477035522460938e+01 2.694822692871093750e+01 7.825241088867187500e-01 4.224798679351806641e+00 1.502196788787841797e+00 7.460543513298034668e-02
2.717000000000000000e+03 3.734482574462890625e+01 4.113875198364257812e+01 -1.614967174828052521e-02 1.337805032730102539e+00 3.964965939521789551e-01 -1.350153237581253052e-01
2.718000000000000000e+03 6.256683731079101562e+01 3.189155197143554688e+01 3.638139665126800537e-01 4.600576877593994141e+00 1.489317297935485840e+00 1.699020341038703918e-02
2.719000000000000000e+03 5.334247970581054688e+01 3.028411102294921875e+01 4.963052272796630859e-01 4.488922595977783203e+00 1.495568275451660156e+00 4.359764754772186279e-01
2.720000000000000000e+03 4.838348770141601562e+01 3.893877792358398438e+01 -3.805547654628753662e-01 4.371044158935546875e+00 1.197146892547607422e+00 1.369977742433547974e-01
2.721000000000000000e+03 1.284205055236816406e+01 4.144760894775390625e+01 -1.077000517398118973e-03 -1.046036559273488820e-04 -3.544812789186835289e-04 -7.178066298365592957e-04
2.722000000000000000e+03 5.431719589233398438e+01 3.456496429443359375e+01 1.439018994569778442e-01 4.602563858032226562e+00 1.423939704895019531e+00 3.082712590694427490e-01
2.723000000000000000e+03 4.987949371337890625e+01 3.451174163818359375e+01 8.923930115997791290e-03 4.565024852752685547e+00 1.372184753417968750e+00 3.311509490013122559e-01
2.724000000000000000e+03 4.820715332031250000e+01 3.319307708740234375e+01 7.988453656435012817e-02 4.552491664886474609e+00 1.389712929725646973e+00 3.533837795257568359e-01
2.725000000000000000e+03 6.179927825927734375e+01 2.916037750244140625e+01 5.494891405105590820e-01 4.436745166778564453e+00 1.495870232582092285e+00 -2.408930333331227303e-03
2.726000000000000000e+03 5.619154739379882812e+01 3.199034690856933594e+01 3.842164576053619385e-01 4.510686397552490234e+00 1.468470811843872070e+00 2.869938313961029053e-01
2.727000000000000000e+03 6.786289978027343750e+01 -1.261986160278320312e+01 1.779620170593261719e+00 2.121807813644409180e+00 1.170428395271301270e+00 -2.158501863479614258e+00
2.728000000000000000e+03 2.616667175292968750e+01 -1.904943823814392090e+00 -6.475110650062561035e-01 -4.266937077045440674e-02 -2.070541381835937500e-01 -1.628867723047733307e-02
2.729000000000000000e+03 6.843309783935546875e+01 -1.250748157501220703e+01 2.547885894775390625e+00 4.184651851654052734e+00 2.019761323928833008e+00 -3.990790843963623047e+00
2.730000000000000000e+03 6.919645690917968750e+01 -1.246942806243896484e+01 2.823332548141479492e+00 8.171470642089843750e+00 3.298441171646118164e+00 -6.152983188629150391e+00
2.731000000000000000e+03 5.480400848388671875e+01 -3.276485443115234375e+01 -1.509104251861572266e+00 1.514590829610824585e-01 -4.072935581207275391e-01 3.487320244312286377e-02
2.732000000000000000e+03 7.667459487915039062e+00 -1.678846931457519531e+01 1.537686228752136230e+00 1.897935509681701660e+00 1.030686497688293457e+00 1.001887083053588867e+00
2.733000000000000000e+03 3.735124588012695312e+00 -2.477096176147460938e+01 -1.029559224843978882e-01 5.742214322090148926e-01 1.413796544075012207e-01 1.029639959335327148e+00
2.734000000000000000e+03 6.919878387451171875e+01 -1.606497383117675781e+01 -1.094282865524291992e-01 8.455646514892578125e+00 2.503865480422973633e+00 3.264106273651123047e+00
2.735000000000000000e+03 6.940350341796875000e+01 -1.598345756530761719e+01 -4.822836816310882568e-01 9.610065460205078125e+00 2.738334417343139648e+00 3.162339210510253906e+00
2.736000000000000000e+03 7.251898956298828125e+01 -1.695009613037109375e+01 -1.937230378389358521e-01 1.392635631561279297e+01 4.119790077209472656e+00 -1.872953891754150391e+00
2.737000000000000000e+03 4.186467361450195312e+01 1.838938236236572266e+00 -2.815142154693603516e+00 9.777729034423828125e+00 2.088776111602783203e+00 1.350564837455749512e+00
2.738000000000000000e+03 4.172507476806640625e+01 9.348002672195434570e-01 -2.505030632019042969e+00 9.951275825500488281e+00 2.233873605728149414e+00 1.049600601196289062e+00
2.739000000000000000e+03 3.249165344238281250e+01 -1.649152946472167969e+01 -8.171241879463195801e-01 3.899100795388221741e-02 -2.334399670362472534e-01 3.076772689819335938e-01
2.740000000000000000e+03 6.891423797607421875e+01 -1.644081497192382812e+01 1.827373355627059937e-01 7.647105693817138672e+00 2.348953008651733398e+00 2.234063148498535156e+00
2.741000000000000000e+03 6.858757019042968750e+01 -1.221207141876220703e+01 2.245951175689697266e+00 5.378056049346923828e+00 2.287202119827270508e+00 -4.702929973602294922e+00
2.742000000000000000e+03 6.887617492675781250e+01 -1.226930522918701172e+01 2.223198652267456055e+00 6.561052799224853516e+00 2.635275602340698242e+00 -5.253292560577392578e+00
2.743000000000000000e+03 3.707781219482421875e+01 -2.563649559020996094e+01 1.396190762519836426e+00 7.050540924072265625e+00 2.534019470214843750e+00 9.283341765403747559e-01
2.744000000000000000e+03 3.618436431884765625e+01 -2.487086296081542969e+01 1.675247430801391602e+00 8.392889976501464844e+00 3.020441293716430664e+00 1.501746654510498047e+00
2.745000000000000000e+03 6.847952365875244141e+00 -3.080446434020996094e+01 -7.522892355918884277e-01 -6.684049218893051147e-02 -2.457389235496520996e-01 2.420725226402282715e-01
2.746000000000000000e+03 8.065814971923828125e+00 -3.290059280395507812e+01 -4.579776227474212646e-01 -2.825478911399841309e-01 -2.221576571464538574e-01 1.602050513029098511e-01
2.747000000000000000e+03 6.564991760253906250e+01 -3.422682571411132812e+01 -1.147020697593688965e+00 1.961802124977111816e+00 2.444344162940979004e-01 4.387997388839721680e-01
2.748000000000000000e+03 1.816130447387695312e+01 3.369412994384765625e+01 1.544811879284679890e-03 -2.993736125063151121e-04 3.736314829438924789e-04 1.076634740456938744e-03
2.749000000000000000e+03 7.226674652099609375e+01 -9.900922775268554688e+00 -3.420214354991912842e-01 1.182793903350830078e+01 3.445775270462036133e+00 9.108160436153411865e-02
2.750000000000000000e+03 7.013092803955078125e+01 -1.045754718780517578e+01 -1.190241649746894836e-01 1.154640102386474609e+01 3.428213119506835938e+00 -3.166430473327636719e+00
2.751000000000000000e+03 6.964435577392578125e+01 -9.356184959411621094e+00 -6.851322203874588013e-02 9.707729339599609375e+00 2.891764879226684570e+00 -2.761705875396728516e+00
2.752000000000000000e+03 6.947382354736328125e+01 -8.487288475036621094e+00 -6.010203808546066284e-02 8.868412017822265625e+00 2.642493009567260742e+00 -2.557728528976440430e+00
2.753000000000000000e+03 1.593166637420654297e+01 -3.624346923828125000e+01 -3.450689017772674561e-01 -2.205671519041061401e-01 -1.696908175945281982e-01 1.246646642684936523e-01
2.754000000000000000e+03 1.364908790588378906e+01 -3.429563903808593750e+01 -5.903509259223937988e-01 -2.276137769222259521e-01 -2.453894168138504028e-01 2.332014590501785278e-01
2.755000000000000000e+03 1.145985317230224609e+01 -3.529782867431640625e+01 -2.884598672389984131e-01 -3.365636169910430908e-01 -1.875070482492446899e-01 1.913567334413528442e-01
2.756000000000000000e+03 9.945535659790039062e+00 -3.521529006958007812e+01 -2.223690599203109741e-01 -3.161310851573944092e-01 -1.615500450134277344e-01 1.668633818626403809e-01
2.757000000000000000e+03 4.236867523193359375e+01 5.838549137115478516e+00 5.371668338775634766e-01 8.237420082092285156e+00 2.632375955581665039e+00 3.102754592895507812e+00
2.758000000000000000e+03 3.695303440093994141e+00 -3.323220825195312500e+01 -1.294819712638854980e-01 7.814995050430297852e-01 1.956052631139755249e-01 -4.871890880167484283e-03
2.759000000000000000e+03 7.205399990081787109e+00 -3.395470046997070312e+01 -2.446267604827880859e-01 -6.510425359010696411e-02 -9.291930496692657471e-02 7.111828774213790894e-02
2.760000000000000000e+03 7.377780914306640625e+01 -1.560655212402343750e+01 2.023418664932250977e+00 1.150821304321289062e+01 4.059489250183105469e+00 -2.115676403045654297e+00
2.761000000000000000e+03 7.090646362304687500e+01 -1.733221244812011719e+01 -1.372571349143981934e+00 1.403681182861328125e+01 3.799272298812866211e+00 4.225252866744995117e-01
2.762000000000000000e+03 4.688722610473632812e+01 3.959073781967163086e+00 -1.574846506118774414e+00 8.050023317337036133e-01 -2.309532761573791504e-01 1.658406853675842285e+00
2.763000000000000000e+03 6.717478942871093750e+01 -2.948826074600219727e+00 -5.306009650230407715e-01 6.007169723510742188e+00 1.642970681190490723e+00 -1.214655399322509766e+00
2.764000000000000000e+03 3.039183807373046875e+01 -1.194839286804199219e+01 1.493376970291137695e+00 3.907541744410991669e-03 4.491853415966033936e-01 5.639544725418090820e-01
2.765000000000000000e+03 5.104372024536132812e+00 -5.480490207672119141e+00 -1.324052959680557251e-01 7.444102782756090164e-03 -3.748835623264312744e-02 -2.477544546127319336e-01
2.766000000000000000e+03 4.778970336914062500e+01 5.173546791076660156e+00 -4.557912349700927734e-01 1.002438068389892578e+00 1.639940440654754639e-01 1.147901415824890137e+00
2.767000000000000000e+03 8.967928886413574219e+00 -3.347385787963867188e+01 -4.125828444957733154e-01 -3.719660639762878418e-01 -2.353646755218505859e-01 2.242679148912429810e-01
2.768000000000000000e+03 3.431776046752929688e+01 -1.287439060211181641e+01 1.219911575317382812e+00 2.916690826416015625e+00 1.240980744361877441e+00 1.867416054010391235e-01
2.769000000000000000e+03 4.061256027221679688e+01 1.864932656288146973e+00 -2.041375637054443359e+00 1.015374660491943359e+01 2.433711290359497070e+00 1.287717700004577637e+00
2.770000000000000000e+03 5.544797134399414062e+01 3.036040067672729492e+00 -2.134158611297607422e+00 5.476512312889099121e-01 -4.759521782398223877e-01 -4.349778294563293457e-01
2.771000000000000000e+03 3.832562637329101562e+01 -1.444397735595703125e+01 5.390186905860900879e-01 8.507006645202636719e+00 2.713807582855224609e+00 -1.048667207360267639e-01
2.772000000000000000e+03 7.274414825439453125e+01 -2.100093650817871094e+01 -4.005423188209533691e-01 1.110796642303466797e+01 3.212227344512939453e+00 -6.985900402069091797e-01
2.773000000000000000e+03 7.658500671386718750e+01 -3.394532394409179688e+01 -2.059321254491806030e-01 1.105123996734619141e+01 3.253592252731323242e+00 -4.318195581436157227e-01
2.774000000000000000e+03 3.577041864395141602e+00 3.586198043823242188e+01 1.891970896394923329e-04 5.547908949665725231e-04 2.231963881058618426e-04 -1.889647828647866845e-04
2.775000000000000000e+03 3.347170114517211914e+00 3.349238204956054688e+01 4.362390609458088875e-04 1.974664774024859071e-04 1.901116629596799612e-04 -1.943744573509320617e-04
2.776000000000000000e+03 2.676557350158691406e+01 -1.488413619995117188e+01 2.483052574098110199e-02 -2.197665870189666748e-01 -5.848081782460212708e-02 7.386766076087951660e-01
2.777000000000000000e+03 1.945543289184570312e+01 -3.474324798583984375e+01 -5.238295793533325195e-01 -9.834730625152587891e-02 -1.866530776023864746e-01 6.475114077329635620e-02
2.778000000000000000e+03 4.431095600128173828e+00 3.349512481689453125e+01 -2.247172815259546041e-04 2.282602799823507667e-04 1.062901674231397919e-06 -3.269366570748388767e-04
2.779000000000000000e+03 8.013731002807617188e+00 3.132931709289550781e+01 2.032742777373641729e-04 1.568674197187647223e-04 1.080425063264556229e-04 -1.894643064588308334e-04
2.780000000000000000e+03 1.235197353363037109e+01 -1.208564186096191406e+01 4.846656322479248047e-01 4.426661133766174316e-01 2.781995236873626709e-01 3.583986163139343262e-01
2.781000000000000000e+03 3.413115310668945312e+01 -1.205486297607421875e+01 1.504189848899841309e+00 2.716612339019775391e+00 1.266240715980529785e+00 2.960731387138366699e-01
2.782000000000000000e+03 7.575691223144531250e+01 -1.849925994873046875e+01 2.985453605651855469e-02 9.490197181701660156e+00 2.856015682220458984e+00 -1.709691643714904785e+00
2.783000000000000000e+03 3.749237442016601562e+01 -1.372530555725097656e+01 5.651275515556335449e-01 7.487675666809082031e+00 2.415840864181518555e+00 -2.407817170023918152e-02
2.784000000000000000e+03 7.532041931152343750e+01 -8.136790275573730469e+00 -3.381191194057464600e-01 8.984815597534179688e+00 2.594008922576904297e+00 1.079453349113464355e+00
2.785000000000000000e+03 5.555533599853515625e+01 5.611223697662353516e+00 -5.893132090568542480e-01 9.022885560989379883e-01 9.389260411262512207e-02 -8.010743856430053711e-01
2.786000000000000000e+03 2.261052131652832031e+01 -1.375193977355957031e+01 4.363091886043548584e-01 -2.635198235511779785e-01 5.183680728077888489e-02 4.171065390110015869e-01
2.787000000000000000e+03 7.376247882843017578e+00 -6.446439743041992188e+00 -1.561229974031448364e-01 1.800467967987060547e-01 7.177140563726425171e-03 -1.930996924638748169e-01
2.788000000000000000e+03 3.330670166015625000e+01 -1.102746295928955078e+01 1.817762851715087891e+00 1.952881217002868652e+00 1.131193161010742188e+00 4.136049449443817139e-01
2.789000000000000000e+03 2.399398994445800781e+01 -6.936523914337158203e+00 4.601191580295562744e-01 -3.626922369003295898e-01 2.922807633876800537e-02 -6.363335251808166504e-02
2.790000000000000000e+03 2.981701087951660156e+01 -8.069188117980957031e+00 1.570815443992614746e+00 -1.617812067270278931e-01 4.227102696895599365e-01 5.230921786278486252e-03
2.791000000000000000e+03 3.064697074890136719e+01 -8.539647102355957031e+00 1.771993875503540039e+00 1.116139069199562073e-01 5.650823116302490234e-01 1.292678415775299072e-01
2.792000000000000000e+03 3.450042343139648438e+01 -7.974738121032714844e+00 1.979734659194946289e+00 3.178447484970092773e+00 1.547454595565795898e+00 4.309221804141998291e-01
2.793000000000000000e+03 3.404418945312500000e+01 -8.919551849365234375e+00 2.037985324859619141e+00 2.696351051330566406e+00 1.420300960540771484e+00 4.226216375827789307e-01
2.794000000000000000e+03 9.302734375000000000e+00 2.718151473999023438e+01 9.226936526829376817e-05 -3.607855251175351441e-05 1.685724237177055329e-05 4.216972447466105223e-04
2.795000000000000000e+03 6.943393707275390625e+01 -2.327480792999267578e+00 -7.473297715187072754e-01 6.916223526000976562e+00 1.850668191909790039e+00 -8.858569264411926270e-01
2.796000000000000000e+03 7.207317352294921875e+01 2.569766426086425781e+01 2.246346026659011841e-01 5.077545642852783203e+00 1.590654015541076660e+00 -4.066798388957977295e-01
2.797000000000000000e+03 5.517283916473388672e+00 3.048614501953125000e+01 2.527325887058395892e-05 1.815410068957135081e-04 6.204428063938394189e-05 -1.460394123569130898e-04
2.798000000000000000e+03 7.075748920440673828e+00 2.955918121337890625e+01 1.336754794465377927e-04 1.548489090055227280e-04 8.655731653561815619e-05 -4.473539593163877726e-05
2.799000000000000000e+03 4.325567722320556641e+00 3.450996017456054688e+01 5.612015957012772560e-04 2.262441557832062244e-04 2.362337108934298158e-04 1.510876609245315194e-05
2.800000000000000000e+03 1.131067562103271484e+01 1.391819953918457031e+01 -1.343080512015148997e-04 -4.932249794364906847e-06 -4.177209120825864375e-05 -4.336678830441087484e-05
2.801000000000000000e+03 4.916699600219726562e+01 6.273543357849121094e+00 2.682424783706665039e-01 8.202780485153198242e-01 3.265561759471893311e-01 5.693139433860778809e-01
2.802000000000000000e+03 1.592573165893554688e+01 3.524246454238891602e+00 -2.495764601917471737e-05 -2.725598960751085542e-06 -8.304973562189843506e-06 1.704150577097607311e-06
2.803000000000000000e+03 4.145853996276855469e+00 6.608693599700927734e+00 -8.260545291705057025e-05 2.426846185699105263e-05 -1.750109731801785529e-05 -4.745189653476700187e-05
2.804000000000000000e+03 3.397974777221679688e+01 -6.073477745056152344e+00 1.508228659629821777e+00 2.340435028076171875e+00 1.154599070549011230e+00 3.719667494297027588e-01
2.805000000000000000e+03 4.711249923706054688e+01 6.409673690795898438e+00 7.726560235023498535e-01 2.092833042144775391e+00 8.596467375755310059e-01 1.683379769325256348e+00
2.806000000000000000e+03 4.793462371826171875e+01 6.041377544403076172e+00 4.435710310935974121e-01 1.343872666358947754e+00 5.362331271171569824e-01 1.178214073181152344e+00
2.807000000000000000e+03 7.306596374511718750e+01 2.668393707275390625e+01 1.722424477338790894e-01 5.118758201599121094e+00 1.587300181388854980e+00 -3.275912702083587646e-01
2.808000000000000000e+03 3.315490341186523438e+01 -6.534029483795166016e+00 1.668979167938232422e+00 1.440236330032348633e+00 9.327646493911743164e-01 2.749228477478027344e-01
2.809000000000000000e+03 7.174771118164062500e+01 3.370710611343383789e-01 -7.616508007049560547e-01 7.188061714172363281e+00 1.927923202514648438e+00 -5.860493779182434082e-01
2.810000000000000000e+03 8.354806900024414062e+00 2.870021057128906250e+01 2.585347392596304417e-04 1.313539687544107437e-04 1.169666138594038785e-04 1.675058156251907349e-04
2.811000000000000000e+03 2.627021217346191406e+01 -9.452988624572753906e+00 1.063151001930236816e+00 -5.544966459274291992e-01 1.525963097810745239e-01 2.192108780145645142e-01
2.812000000000000000e+03 2.642879486083984375e+01 -1.066476345062255859e+01 1.016772270202636719e+00 -5.216200351715087891e-01 1.485456675291061401e-01 4.024304747581481934e-01
2.813000000000000000e+03 1.839297676086425781e+01 -9.295963287353515625e+00 3.687882125377655029e-01 -1.298675388097763062e-01 7.167620211839675903e-02 2.885987460613250732e-01
2.814000000000000000e+03 2.454779243469238281e+01 -1.004693126678466797e+01 7.613548040390014648e-01 -4.753368198871612549e-01 8.580540120601654053e-02 2.904598116874694824e-01
2.815000000000000000e+03 6.486292266845703125e+01 2.914864778518676758e+00 -1.028542757034301758e+00 4.111783504486083984e+00 9.249722361564636230e-01 -1.723487854003906250e+00
2.816000000000000000e+03 2.538556671142578125e+01 -1.055541229248046875e+01 9.183658957481384277e-01 -5.279319286346435547e-01 1.171301752328872681e-01 3.812633454799652100e-01
2.817000000000000000e+03 7.464614868164062500e+00 5.588490962982177734e+00 -4.373451884021051228e-05 -6.428937194868922234e-05 -3.240716614527627826e-05 -2.627177764225052670e-06
2.818000000000000000e+03 7.339676666259765625e+01 -3.957761764526367188e+00 -7.075552940368652344e-01 8.381797790527343750e+00 2.302272796630859375e+00 1.230921447277069092e-01
2.819000000000000000e+03 9.270670890808105469e+00 -7.202598571777343750e+00 -1.218131408095359802e-01 2.795528471469879150e-01 4.732191562652587891e-02 -6.650003045797348022e-02
2.820000000000000000e+03 8.154662132263183594e+00 1.565483951568603516e+01 -1.223438885062932968e-04 -4.468551196623593569e-05 -5.010881795897148550e-05 -5.955222513875924051e-05
2.821000000000000000e+03 2.221533584594726562e+01 -9.551397323608398438e+00 5.753839612007141113e-01 -3.657607436180114746e-01 6.288696080446243286e-02 2.446233034133911133e-01
2.822000000000000000e+03 7.722222328186035156e+00 2.585188293457031250e+01 -9.801243868423625827e-05 -1.169438401120714843e-04 -6.448688509408384562e-05 1.667879405431449413e-04
2.823000000000000000e+03 6.805601596832275391e+00 1.687394523620605469e+01 -1.756681158440187573e-04 -2.696161209314595908e-05 -6.078891601646319032e-05 5.703160059056244791e-05
2.824000000000000000e+03 4.898382568359375000e+01 1.939309883117675781e+01 1.299983978271484375e+00 4.738112926483154297e+00 1.811429142951965332e+00 1.125432014465332031e+00
2.825000000000000000e+03 1.200752544403076172e+01 6.344599246978759766e+00 -1.120267770602367818e-04 2.526108073652721941e-05 -2.602970744192134589e-05 5.617339411401189864e-05
2.826000000000000000e+03 9.736727714538574219e+00 -8.196117401123046875e+00 -6.343506276607513428e-02 3.491739332675933838e-01 8.572165668010711670e-02 -2.039382234215736389e-02
2.827000000000000000e+03 7.105181884765625000e+01 1.596510791778564453e+01 2.628624439239501953e-01 5.245177268981933594e+00 1.652411818504333496e+00 -9.856012463569641113e-01
2.828000000000000000e+03 5.875204849243164062e+01 9.023773193359375000e+00 4.537357687950134277e-01 2.010988712310791016e+00 7.394173741340637207e-01 -1.255534887313842773e+00
2.829000000000000000e+03 6.121217250823974609e+00 1.222024059295654297e+01 6.220529758138582110e-05 7.643524440936744213e-05 4.159216405241750181e-05 -7.802235631970688701e-05
2.830000000000000000e+03 5.812909317016601562e+01 1.020721626281738281e+01 8.305635452270507812e-01 2.100998401641845703e+00 8.794685602188110352e-01 -9.766461253166198730e-01
2.831000000000000000e+03 5.406591415405273438e+01 1.453197765350341797e+01 1.692845344543457031e+00 2.636688232421875000e+00 1.298860073089599609e+00 1.775901615619659424e-01
2.832000000000000000e+03 5.337532424926757812e+01 1.519342708587646484e+01 1.798063993453979492e+00 2.858222484588623047e+00 1.396885871887207031e+00 4.594506025314331055e-01
2.833000000000000000e+03 7.512117862701416016e+00 2.081713867187500000e+01 4.195723522570915520e-05 5.430505916592665017e-05 2.887868686229921877e-05 1.173290274891769513e-05
2.834000000000000000e+03 7.113042354583740234e+00 6.922876834869384766e+00 -3.809587360592558980e-05 4.066066321684047580e-05 7.694364398957986850e-07 -3.678938082884997129e-05
2.835000000000000000e+03 5.561077117919921875e+01 1.573616695404052734e+01 1.600833773612976074e+00 2.848824262619018555e+00 1.334897398948669434e+00 -1.057084556668996811e-02
2.836000000000000000e+03 8.234662055969238281e+00 8.514225006103515625e+00 9.977661102311685681e-05 -5.668751327903009951e-06 2.823235809046309441e-05 2.904957727878354490e-05
2.837000000000000000e+03 7.464513778686523438e+00 9.174391746520996094e+00 1.316581765422597528e-04 -8.636292477604001760e-06 3.690656376420520246e-05 6.144528015283867717e-05
2.838000000000000000e+03 7.460882186889648438e+00 8.272826194763183594e+00 -1.084788382286205888e-04 -2.715056325541809201e-05 -4.068882117280736566e-05 -1.061494913301430643e-05
2.839000000000000000e+03 6.533231735229492188e+00 8.266430854797363281e+00 7.591438043164089322e-05 5.995466563035733998e-05 4.076071127201430500e-05 -5.512152711162343621e-05
2.840000000000000000e+03 6.386662292480468750e+01 1.271707820892333984e+01 5.868712067604064941e-01 3.678744077682495117e+00 1.279684543609619141e+00 -1.303187251091003418e+00
2.841000000000000000e+03 1.628620338439941406e+01 -1.255944609642028809e+00 -4.871716499328613281e-01 -1.311350986361503601e-02 -1.500855386257171631e-01 5.049034208059310913e-02
2.842000000000000000e+03 1.779829025268554688e+01 -2.059187889099121094e+00 -3.245112895965576172e-01 -1.398395653814077377e-02 -1.015485674142837524e-01 5.989805608987808228e-02
2.843000000000000000e+03 1.623538208007812500e+01 -1.994474172592163086e+00 -3.782438933849334717e-01 -1.822047494351863861e-02 -1.189393103122711182e-01 7.905869930982589722e-02
2.844000000000000000e+03 1.858121871948242188e+01 -2.091711521148681641e+00 -2.827776670455932617e-01 -2.419283613562583923e-02 -9.209115058183670044e-02 5.118512734770774841e-02
2.845000000000000000e+03 1.856809425354003906e+01 -1.350533485412597656e+00 -3.709053695201873779e-01 -9.543891996145248413e-03 -1.141347810626029968e-01 2.076974511146545410e-02
2.846000000000000000e+03 1.704577255249023438e+01 -1.287305474281311035e+00 -4.349001646041870117e-01 -2.553167054429650307e-03 -1.312360018491744995e-01 3.875310719013214111e-02
2.847000000000000000e+03 1.701626777648925781e+01 -2.026717901229858398e+00 -3.557517528533935547e-01 -1.579138264060020447e-02 -1.114629432559013367e-01 7.529439032077789307e-02
2.848000000000000000e+03 1.780648040771484375e+01 -1.318892598152160645e+00 -3.950549960136413574e-01 -5.363790784031152725e-03 -1.201256364583969116e-01 3.366873785853385925e-02
2.849000000000000000e+03 2.016102409362792969e+01 -1.984116315841674805e+00 -2.369242757558822632e-01 -1.380830351263284683e-02 -7.521977275609970093e-02 2.449379861354827881e-02
2.850000000000000000e+03 1.932956504821777344e+01 -1.326877713203430176e+00 -3.275530636310577393e-01 -1.086011435836553574e-02 -1.015239506959915161e-01 1.067883567884564400e-03
2.851000000000000000e+03 2.095439147949218750e+01 -1.900163888931274414e+00 -2.123449146747589111e-01 -9.206843562424182892e-03 -6.646552681922912598e-02 4.199024755507707596e-03
2.852000000000000000e+03 1.936882019042968750e+01 -2.066858530044555664e+00 -2.542435824871063232e-01 -1.977675408124923706e-02 -8.220610022544860840e-02 4.278678447008132935e-02
2.853000000000000000e+03 2.174835014343261719e+01 -1.814883351325988770e+00 -1.936264336109161377e-01 -1.251387596130371094e-02 -6.184209510684013367e-02 -4.858881700783967972e-03
2.854000000000000000e+03 2.161623764038085938e+01 -1.084643244743347168e+00 -2.284586280584335327e-01 -5.592972971498966217e-03 -7.021547853946685791e-02 -2.172697521746158600e-02
2.855000000000000000e+03 2.009082221984863281e+01 -1.247412800788879395e+00 -2.727117538452148438e-01 -2.211452228948473930e-03 -8.247695863246917725e-02 -1.161850988864898682e-02
2.856000000000000000e+03 2.085324478149414062e+01 -1.166737556457519531e+00 -2.433725297451019287e-01 -4.766159690916538239e-03 -7.444160431623458862e-02 -1.532311830669641495e-02
2.857000000000000000e+03 2.387390518188476562e+01 -4.479292035102844238e-01 -4.928650707006454468e-02 -9.761120309121906757e-04 -1.507878582924604416e-02 2.395991049706935883e-02
2.858000000000000000e+03 2.338660240173339844e+01 -1.393575310707092285e+00 -2.135711759328842163e-01 3.285251185297966003e-02 -5.421559885144233704e-02 -1.083453651517629623e-02
2.859000000000000000e+03 2.463154602050781250e+01 -7.788130044937133789e-01 -1.331890821456909180e-01 -2.886411175131797791e-02 -4.861595854163169861e-02 5.337752029299736023e-02
2.860000000000000000e+03 2.316317939758300781e+01 -6.830692291259765625e-01 -1.210424304008483887e-01 2.650670520961284637e-02 -2.836071699857711792e-02 -3.393049817532300949e-03
2.861000000000000000e+03 2.239013290405273438e+01 -9.233466386795043945e-01 -1.881617605686187744e-01 -6.894289050251245499e-03 -5.851681157946586609e-02 -2.398554421961307526e-02
2.862000000000000000e+03 2.256301116943359375e+01 -1.645976901054382324e+00 -1.940060257911682129e-01 1.435163058340549469e-02 -5.389631539583206177e-02 -1.477070385590195656e-03
2.863000000000000000e+03 2.414787673950195312e+01 -1.146310925483703613e+00 -2.345353662967681885e-01 2.501256763935089111e-02 -6.285683810710906982e-02 6.998404860496520996e-03
2.864000000000000000e+03 2.268977355957031250e+01 7.519461512565612793e-01 -3.179713530698791146e-05 -1.532148780825082213e-05 -1.413558584317797795e-05 -1.676772808423265815e-05
2.865000000000000000e+03 2.288392829895019531e+01 3.258301690220832825e-02 1.094138315238524228e-05 5.063143817096715793e-06 4.801358045369852334e-06 -4.508450729190371931e-06
2.866000000000000000e+03 2.203942871093750000e+01 5.569665431976318359e-01 7.713431841693818569e-06 3.341213960084132850e-05 1.233767216035630554e-05 3.567645308066857979e-06
2.867000000000000000e+03 2.220252990722656250e+01 -1.685228794813156128e-01 -8.002844879229087383e-06 -5.468561084853718057e-06 -4.041421561851166189e-06 -1.537509206173126586e-06
2.868000000000000000e+03 2.341383171081542969e+01 3.852292895317077637e-01 -2.290397560500423424e-06 -6.247799319680780172e-06 -2.561459041316993535e-06 1.438867457181913778e-06
2.869000000000000000e+03 2.086642074584960938e+01 -3.808408677577972412e-01 -9.369859981234185398e-06 -1.084481755242450163e-05 -6.064403351047076285e-06 4.889260480922530405e-07
2.870000000000000000e+03 2.032355690002441406e+01 -5.136474370956420898e-01 2.940336344181559980e-06 2.995874820044264197e-05 9.869725545286200941e-06 2.197989772412256571e-07
2.871000000000000000e+03 2.127867507934570312e+01 4.179379940032958984e-01 -1.257708026969339699e-05 -1.973597863980103284e-05 -9.693917490949388593e-06 1.315121880907099694e-05
2.872000000000000000e+03 1.928600883483886719e+01 1.842018812894821167e-01 -3.941408431273885071e-05 -2.195196884713368490e-06 -1.248278385901357979e-05 4.112034730496816337e-06
2.873000000000000000e+03 1.994704437255859375e+01 -1.048566401004791260e-02 -3.184384468113421462e-06 -2.259313532704254612e-06 -1.633109491194773000e-06 -1.506886110291816294e-05
2.874000000000000000e+03 1.923109054565429688e+01 -5.657521486282348633e-01 1.395215713273501024e-05 -1.302428245253395289e-06 3.794918484345544130e-06 -6.207525075296871364e-06
2.875000000000000000e+03 2.048274993896484375e+01 3.226658403873443604e-01 3.841904981527477503e-05 5.171858902031090111e-06 1.307727325183805078e-05 -2.314185849172645248e-06
2.876000000000000000e+03 2.150494194030761719e+01 -3.022379875183105469e-01 3.306535973024438135e-06 6.878870408399961889e-06 3.055621846215217374e-06 -1.196417997562093660e-06
2.877000000000000000e+03 1.981065368652343750e+01 -5.720503926277160645e-01 -1.416506506757286843e-06 -2.335940189368557185e-05 -7.432772235915763304e-06 1.348155001323902979e-05
2.878000000000000000e+03 1.707793617248535156e+01 -5.109162330627441406e-01 -5.354394943424267694e-06 -2.567463707237038761e-05 -9.308709195465780795e-06 -1.239670564245898277e-05
2.879000000000000000e+03 1.633993148803710938e+01 -4.782602787017822266e-01 5.221781975706107914e-06 4.293751408113166690e-05 1.444778808945557103e-05 1.091049489332363009e-05
2.880000000000000000e+03 1.781616592407226562e+01 -5.415064096450805664e-01 8.688805792189668864e-06 6.871676760056288913e-06 4.668144811148522422e-06 9.806566595216281712e-06
2.881000000000000000e+03 1.854128074645996094e+01 1.711868941783905029e-01 3.345143704791553319e-05 1.275385056942468509e-05 1.386158601235365495e-05 1.341188453807262704e-05
2.882000000000000000e+03 1.855440711975097656e+01 -5.699911117553710938e-01 -7.995515261427499354e-06 4.735807124234270304e-06 -9.779124638953362592e-07 -4.330994215706596151e-06
2.883000000000000000e+03 1.639075088500976562e+01 2.602692842483520508e-01 -1.104893362935399637e-05 -4.583201007335446775e-05 -1.706428338366094977e-05 -2.395086085016373545e-05
2.884000000000000000e+03 1.710744285583496094e+01 2.284961640834808350e-01 1.568231891724281013e-05 3.668928184197284281e-05 1.571147913637105376e-05 2.930771915998775512e-05
2.885000000000000000e+03 1.782435607910156250e+01 1.987887471914291382e-01 -2.424307058390695602e-05 -2.420520831947214901e-05 -1.453448385291267186e-05 -2.781154216791037470e-05
2.886000000000000000e+03 1.421318435668945312e+01 5.040000677108764648e-01 1.367514960293192416e-05 5.114983287057839334e-05 1.944749419635627419e-05 3.818174263869877905e-06
2.887000000000000000e+03 1.412459087371826172e+01 -2.306861728429794312e-01 -5.148234777152538300e-06 -5.483948189066722989e-05 -1.799631536414381117e-05 -5.620357569569023326e-06
2.888000000000000000e+03 1.338628387451171875e+01 -1.375386416912078857e-01 5.835792308062082157e-06 5.053131462773308158e-05 1.691013312665745616e-05 4.661706498154671863e-06
2.889000000000000000e+03 1.486306858062744141e+01 -3.233485221862792969e-01 5.345771114662056789e-06 5.597696144832298160e-05 1.839681863202713430e-05 7.009453838691115379e-06
2.890000000000000000e+03 1.566856193542480469e+01 3.219058215618133545e-01 1.228869223268702626e-05 4.996664574719034135e-05 1.867660103016532958e-05 1.462161890231072903e-05
2.891000000000000000e+03 1.560165977478027344e+01 -4.155019819736480713e-01 -5.095115739095490426e-06 -5.238571247900836170e-05 -1.724424873827956617e-05 -8.714748219063039869e-06
2.892000000000000000e+03 1.348572158813476562e+01 5.957868695259094238e-01 -1.563437945151235908e-05 -4.946806802763603628e-05 -1.953073297045193613e-05 -2.250484385513118468e-06
2.893000000000000000e+03 1.494081592559814453e+01 4.126985073089599609e-01 -1.200158749270485714e-05 -5.189009243622422218e-05 -1.916750443342607468e-05 -8.316521416418254375e-06
2.894000000000000000e+03 1.115022563934326172e+01 2.165033817291259766e-01 -5.925497589487349615e-06 -3.840773206320591271e-05 -1.329996848653536290e-05 -3.673447963592479937e-06
2.895000000000000000e+03 1.122651290893554688e+01 9.537453055381774902e-01 1.707770752545911819e-05 4.063121741637587547e-05 1.731267730065155774e-05 2.699580818443791941e-06
2.896000000000000000e+03 1.040434932708740234e+01 3.321511745452880859e-01 4.942949999531265348e-06 3.766070221900008619e-05 1.278109539271099493e-05 3.369073738213046454e-06
2.897000000000000000e+03 1.189680099487304688e+01 9.631319344043731689e-02 5.552391485252883285e-06 4.047551192343235016e-05 1.380837147735292092e-05 3.448078814471955411e-06
2.898000000000000000e+03 1.274307727813720703e+01 7.053368687629699707e-01 1.583209814270958304e-05 4.564367554849013686e-05 1.844273174356203526e-05 1.472999656471074559e-06
2.899000000000000000e+03 1.264393043518066406e+01 -2.822761237621307373e-02 -5.479314495460130274e-06 -4.464381709112785757e-05 -1.503693965787533671e-05 -3.981981535616796464e-06
2.900000000000000000e+03 1.046920776367187500e+01 1.071231842041015625e+00 -1.567994695506058633e-05 -3.822923463303595781e-05 -1.617275484022684395e-05 -3.322813881823094562e-06
2.901000000000000000e+03 1.198451900482177734e+01 8.317164182662963867e-01 -1.688672273303382099e-05 -4.326556882006116211e-05 -1.804568637453485280e-05 -2.184173808927880600e-06
2.902000000000000000e+03 8.874713897705078125e+00 3.907073438167572021e-01 5.248477009445196018e-06 3.922784526366740465e-05 1.334289663645904511e-05 4.070738668815465644e-06
2.903000000000000000e+03 9.645540237426757812e+00 3.903963863849639893e-01 -6.384200787579175085e-06 -3.746479342225939035e-05 -1.315469853579998016e-05 -3.890155312546994537e-06
2.904000000000000000e+03 7.374577522277832031e+00 1.131132245063781738e+00 -1.587980841577518731e-05 -4.027989416499622166e-05 -1.684791095613036305e-05 -4.287612682674080133e-06
2.905000000000000000e+03 7.331357002258300781e+00 3.911322057247161865e-01 5.127532404003432021e-06 4.279252243577502668e-05 1.437601622455986217e-05 3.450919166425592266e-06
2.906000000000000000e+03 5.045433998107910156e+00 1.131745219230651855e+00 1.470316874474519864e-05 3.719222513609565794e-05 1.556861934659536928e-05 -2.806208613037597388e-06
2.907000000000000000e+03 2.715631723403930664e+00 1.131616950035095215e+00 -1.448702005291124806e-05 -2.408367254247423261e-05 -1.157120732386829332e-05 9.454380233364645392e-06
2.908000000000000000e+03 2.699708461761474609e+00 3.916168808937072754e-01 4.914799774269340560e-06 3.134580401820130646e-05 1.087818145606433973e-05 -3.085414618908544071e-06
2.909000000000000000e+03 1.939137935638427734e+00 1.131583452224731445e+00 1.226129643328022212e-05 2.107000182149931788e-05 9.999389476433862001e-06 -1.404629620083142072e-05
2.910000000000000000e+03 1.927764058113098145e+00 3.915834426879882812e-01 -4.441729288373608142e-06 -2.231894541182555258e-05 -8.028202501009218395e-06 6.370467872329754755e-06
2.911000000000000000e+03 1.156864285469055176e+00 3.912966847419738770e-01 8.355319550901185721e-06 1.021516618493478745e-05 5.571145720750791952e-06 -6.782214768463745713e-06
2.912000000000000000e+03 3.880036771297454834e-01 1.130522727966308594e+00 3.803642539423890412e-05 5.001536010240670294e-06 1.291138869419228286e-05 -1.074037754733581096e-05
2.913000000000000000e+03 3.857289254665374756e-01 3.905227184295654297e-01 -9.791181582841090858e-06 -2.030731593549717218e-06 -3.546573907442507334e-06 2.599199888209113851e-06
2.914000000000000000e+03 4.243989944458007812e+00 3.916435539722442627e-01 5.311937911756103858e-06 3.988155367551371455e-05 1.355804761260515079e-05 -4.058893523506412748e-07
2.915000000000000000e+03 3.472155570983886719e+00 3.916060328483581543e-01 -5.701390364265535027e-06 -3.648702841019257903e-05 -1.265652554138796404e-05 1.396755237692559604e-06
2.916000000000000000e+03 4.269012451171875000e+00 1.131643533706665039e+00 -1.643449286348186433e-05 -3.327037484268657863e-05 -1.491146031185053289e-05 5.044632416684180498e-06
2.917000000000000000e+03 5.015861988067626953e+00 3.917452692985534668e-01 -5.585375674854731187e-06 -4.229742989991791546e-05 -1.436484217265387997e-05 -4.495172163387906039e-07
2.918000000000000000e+03 5.788088321685791016e+00 3.919011354446411133e-01 4.854439794144127518e-06 4.367511792224831879e-05 1.455886740586720407e-05 1.585528934811009094e-06
2.919000000000000000e+03 6.598729610443115234e+00 1.131563067436218262e+00 1.451130538043798879e-05 4.036623431602492929e-05 1.646326199988834560e-05 2.427761273793294095e-06
2.920000000000000000e+03 6.560058593750000000e+00 3.915631175041198730e-01 -5.561776106333127245e-06 -4.382808037917129695e-05 -1.481695653637871146e-05 -2.651281192811438814e-06
2.921000000000000000e+03 8.103197097778320312e+00 3.908808529376983643e-01 -5.994079856463940814e-06 -4.099953366676345468e-05 -1.409808373864507303e-05 -3.803862227869103663e-06
2.922000000000000000e+03 8.150966644287109375e+00 1.130880832672119141e+00 1.592348053236491978e-05 3.934082997147925198e-05 1.657929351495113224e-05 5.409171080827945843e-06
2.923000000000000000e+03 8.927033424377441406e+00 1.130707383155822754e+00 -1.686696305114310235e-05 -3.832609945675358176e-05 -1.655791857047006488e-05 -5.733179932576604187e-06
2.924000000000000000e+03 9.702409744262695312e+00 1.130396366119384766e+00 1.721414992061909288e-05 3.754865247174166143e-05 1.642884126340504736e-05 5.445433544082334265e-06
2.925000000000000000e+03 5.822209835052490234e+00 1.131901144981384277e+00 -1.477240220992825925e-05 -3.950031532440334558e-05 -1.628181416890583932e-05 1.349118292637285776e-07
2.926000000000000000e+03 3.492628335952758789e+00 1.131605982780456543e+00 1.607163358130492270e-05 2.864172529370989650e-05 1.341400820820126683e-05 -6.534667136293137446e-06
2.927000000000000000e+03 1.163688659667968750e+00 1.131296634674072266e+00 -2.121358011208940297e-05 -1.515724216005764902e-05 -1.091124704544199631e-05 1.931688530021347106e-05
2.928000000000000000e+03 1.328147125244140625e+01 -9.107246994972229004e-01 -5.464556813240051270e-01 -1.300192996859550476e-02 -1.678372919559478760e-01 7.180792838335037231e-02
2.929000000000000000e+03 1.470345211029052734e+01 -1.836183547973632812e+00 -4.321740865707397461e-01 -7.355187088251113892e-03 -1.318587809801101685e-01 7.188829034566879272e-02
2.930000000000000000e+03 1.318203258514404297e+01 -1.644050240516662598e+00 -4.463083744049072266e-01 -1.093795290216803551e-03 -1.342206448316574097e-01 5.940658226609230042e-02
2.931000000000000000e+03 1.478120040893554688e+01 -1.100136518478393555e+00 -5.259181857109069824e-01 -1.125456392765045166e-02 -1.611518263816833496e-01 7.167086005210876465e-02
2.932000000000000000e+03 1.546425342559814453e+01 -1.930399060249328613e+00 -4.041240513324737549e-01 -1.915953867137432098e-02 -1.269850730895996094e-01 7.471041381359100342e-02
2.933000000000000000e+03 1.553115558624267578e+01 -1.192991256713867188e+00 -5.187651515007019043e-01 -1.177271269261837006e-02 -1.591613590717315674e-01 6.547225266695022583e-02
2.934000000000000000e+03 1.403127861022949219e+01 -1.006039500236511230e+00 -5.374265909194946289e-01 -5.856121890246868134e-03 -1.629848182201385498e-01 7.154630869626998901e-02
2.935000000000000000e+03 1.394268608093261719e+01 -1.740725755691528320e+00 -4.432277083396911621e-01 -6.542856339365243912e-03 -1.349311769008636475e-01 6.976434588432312012e-02
2.936000000000000000e+03 1.171745300292968750e+01 -1.416588187217712402e+00 -4.395665228366851807e-01 1.271408796310424805e-02 -1.280557364225387573e-01 3.227044641971588135e-02
2.937000000000000000e+03 1.027132415771484375e+01 -1.186757922172546387e+00 -4.114719331264495850e-01 3.352668881416320801e-02 -1.133835762739181519e-01 2.214146079495549202e-03
2.938000000000000000e+03 1.244032764434814453e+01 -1.534988999366760254e+00 -4.453775286674499512e-01 1.737595186568796635e-03 -1.330919712781906128e-01 4.440617933869361877e-02
2.939000000000000000e+03 1.253947448730468750e+01 -8.014244437217712402e-01 -5.374251604080200195e-01 -7.823850959539413452e-03 -1.635747104883193970e-01 7.281391322612762451e-02
2.940000000000000000e+03 1.180517101287841797e+01 -6.811850070953369141e-01 -5.099729299545288086e-01 -8.033343590795993805e-03 -1.554018855094909668e-01 6.639064103364944458e-02
2.941000000000000000e+03 1.107078933715820312e+01 -5.637502074241638184e-01 -4.758268892765045166e-01 -7.180256652645766735e-04 -1.429634690284729004e-01 5.616880953311920166e-02
2.942000000000000000e+03 1.099450206756591797e+01 -1.300992131233215332e+00 -4.213741123676300049e-01 2.046653442084789276e-02 -1.202722713351249695e-01 1.465338096022605896e-02
2.943000000000000000e+03 1.033618259429931641e+01 -4.476772546768188477e-01 -4.251316487789154053e-01 7.632343564182519913e-03 -1.252497881650924683e-01 3.529043495655059814e-02
2.944000000000000000e+03 9.576753616333007812e+00 -3.928347527980804443e-01 -4.037803709506988525e-01 1.369441300630569458e-02 -1.170257925987243652e-01 8.240033872425556183e-03
2.945000000000000000e+03 9.504050254821777344e+00 -1.132834792137145996e+00 -3.878129422664642334e-01 2.885771170258522034e-02 -1.076865643262863159e-01 -7.744835224002599716e-03
2.946000000000000000e+03 8.792594909667968750e+00 -3.964475393295288086e-01 -4.053477346897125244e-01 2.841314533725380898e-03 -1.207519322633743286e-01 -9.921175427734851837e-03
2.947000000000000000e+03 8.008638381958007812e+00 -3.979170620441436768e-01 -3.799467980861663818e-01 4.277271684259176254e-03 -1.127008572220802307e-01 -1.702784933149814606e-02
2.948000000000000000e+03 7.224994659423828125e+00 -3.992207646369934082e-01 -3.415003418922424316e-01 1.021085423417389393e-03 -1.021437793970108032e-01 -2.305856533348560333e-02
2.949000000000000000e+03 6.441524982452392578e+00 -4.004793763160705566e-01 -2.931630909442901611e-01 2.080596983432769775e-03 -8.732475340366363525e-02 -2.605393156409263611e-02
2.950000000000000000e+03 5.658351421356201172e+00 -4.034211039543151855e-01 -2.396542280912399292e-01 -3.163332294207066298e-04 -7.199116796255111694e-02 -2.850576676428318024e-02
2.951000000000000000e+03 4.875236511230468750e+00 -4.076028764247894287e-01 -1.831161528825759888e-01 5.608250503428280354e-04 -5.476659908890724182e-02 -2.859685383737087250e-02
2.952000000000000000e+03 4.092308998107910156e+00 -4.107097685337066650e-01 -1.281323283910751343e-01 -3.182807471603155136e-03 -3.939454257488250732e-02 -2.728439308702945709e-02
2.953000000000000000e+03 2.531672000885009766e+00 -4.164903461933135986e-01 -3.809534758329391479e-02 -5.738630890846252441e-03 -1.315019372850656509e-02 -1.654171384871006012e-02
2.954000000000000000e+03 2.214911937713623047e+00 -1.156490325927734375e+00 -4.242341592907905579e-02 -1.639793813228607178e-02 -1.764640584588050842e-02 -3.878156095743179321e-02
2.955000000000000000e+03 3.740455806255340576e-01 -5.643077492713928223e-01 3.362496208865195513e-04 1.072661834768950939e-03 4.226734454277902842e-04 5.453229532577097416e-04
2.956000000000000000e+03 1.421646475791931152e+00 -1.153123378753662109e+00 -2.033889852464199066e-02 -1.743783056735992432e-02 -1.133301854133605957e-02 -2.089626714587211609e-02
2.957000000000000000e+03 8.692774772644042969e+00 -1.136447548866271973e+00 -3.524632155895233154e-01 2.093571797013282776e-02 -9.945825487375259399e-02 -2.816404588520526886e-02
2.958000000000000000e+03 7.881700515747070312e+00 -1.137917041778564453e+00 -3.268994092941284180e-01 1.110479980707168579e-02 -9.473837912082672119e-02 -4.958808794617652893e-02
2.959000000000000000e+03 7.070939540863037109e+00 -1.139220714569091797e+00 -2.911607325077056885e-01 9.710688143968582153e-03 -8.443501591682434082e-02 -6.177113577723503113e-02
2.960000000000000000e+03 6.260352134704589844e+00 -1.140479445457458496e+00 -2.516345977783203125e-01 3.888247301802039146e-03 -7.432390749454498291e-02 -7.155295461416244507e-02
2.961000000000000000e+03 5.450060844421386719e+00 -1.143421053886413574e+00 -2.061838209629058838e-01 2.103002276271581650e-03 -6.122424453496932983e-02 -7.578220963478088379e-02
2.962000000000000000e+03 4.639828681945800781e+00 -1.147602915763854980e+00 -1.613829582929611206e-01 -4.390073474496603012e-03 -4.973190650343894958e-02 -7.558914273977279663e-02
2.963000000000000000e+03 3.829783916473388672e+00 -1.150709748268127441e+00 -1.168550625443458557e-01 -6.690889131277799606e-03 -3.706378489732742310e-02 -7.065618038177490234e-02
2.964000000000000000e+03 3.020616531372070312e+00 -1.151894450187683105e+00 -7.589992880821228027e-02 -1.649303734302520752e-02 -2.771789021790027618e-02 -5.883361026644706726e-02
2.965000000000000000e+03 3.310259342193603516e+00 -4.118944704532623291e-01 -7.781673222780227661e-02 -1.609553350135684013e-03 -2.382788434624671936e-02 -2.210796810686588287e-02
2.966000000000000000e+03 1.765524148941040039e+00 -4.131233394145965576e-01 -1.138996798545122147e-02 -3.026151796802878380e-03 -4.324836190789937973e-03 -7.115765474736690521e-03
2.967000000000000000e+03 1.067645549774169922e+00 -3.868701159954071045e-01 -1.006350154057145119e-03 -2.614461816847324371e-03 -1.086243544705212116e-03 -1.290340209379792213e-03
2.968000000000000000e+03 6.966503262519836426e-01 -1.126870155334472656e+00 -1.866609090939164162e-03 -3.245688043534755707e-03 -1.533689093776047230e-03 -2.675906755030155182e-03
2.969000000000000000e+03 6.990837097167968750e+01 -1.402609348297119141e+01 2.558639907836914062e+01 9.845493316650390625e+00 1.062956714630126953e+01 1.421208095550537109e+01
2.970000000000000000e+03 6.991551971435546875e+01 -1.404417705535888672e+01 2.003050804138183594e+01 2.357573318481445312e+01 1.308187294006347656e+01 2.136622619628906250e+01
2.971000000000000000e+03 6.992605590820312500e+01 -1.406052398681640625e+01 1.695956993103027344e+01 3.494726562500000000e+01 1.557205009460449219e+01 2.251066780090332031e+01
2.972000000000000000e+03 6.993956756591796875e+01 -1.407450962066650391e+01 1.325044250488281250e+01 4.565128326416015625e+01 1.767051887512207031e+01 2.109840011596679688e+01
2.973000000000000000e+03 6.995554351806640625e+01 -1.408559989929199219e+01 1.108770847320556641e+01 5.459548950195312500e+01 1.970495986938476562e+01 1.735424041748046875e+01
2.974000000000000000e+03 6.997337341308593750e+01 -1.409337234497070312e+01 9.484840393066406250e+00 6.133391571044921875e+01 2.124562644958496094e+01 1.181873035430908203e+01
2.975000000000000000e+03 6.999237060546875000e+01 -1.409752845764160156e+01 9.999552726745605469e+00 6.530802154541015625e+01 2.259227180480957031e+01 5.549934387207031250e+00
2.976000000000000000e+03 7.001181793212890625e+01 -1.409791088104248047e+01 1.201170921325683594e+01 6.636817169189453125e+01 2.351396560668945312e+01 -1.039444327354431152e+00
2.977000000000000000e+03 7.003096771240234375e+01 -1.409450435638427734e+01 1.578886985778808594e+01 6.493407440185546875e+01 2.421688270568847656e+01 -6.530437946319580078e+00
2.978000000000000000e+03 7.004908752441406250e+01 -1.408743953704833984e+01 2.061607360839843750e+01 6.122575378417968750e+01 2.455254745483398438e+01 -1.075452041625976562e+01
2.979000000000000000e+03 7.006548309326171875e+01 -1.407698631286621094e+01 2.568754959106445312e+01 5.672359085083007812e+01 2.472334289550781250e+01 -1.282202053070068359e+01
2.980000000000000000e+03 7.007953643798828125e+01 -1.406354236602783203e+01 3.119368934631347656e+01 5.165644454956054688e+01 2.485504150390625000e+01 -1.295002079010009766e+01
2.981000000000000000e+03 7.009070587158203125e+01 -1.404762268066406250e+01 3.489920425415039062e+01 4.707874298095703125e+01 2.459338378906250000e+01 -1.162972831726074219e+01
2.982000000000000000e+03 7.009856414794921875e+01 -1.402983474731445312e+01 3.820171737670898438e+01 4.388686752319335938e+01 2.462657546997070312e+01 -8.640616416931152344e+00
2.983000000000000000e+03 7.010282135009765625e+01 -1.401085758209228516e+01 3.971594619750976562e+01 4.207297134399414062e+01 2.453667449951171875e+01 -5.253693103790283203e+00
2.984000000000000000e+03 7.010329437255859375e+01 -1.399141502380371094e+01 3.971158599853515625e+01 4.140173721313476562e+01 2.433399581909179688e+01 -1.242758631706237793e+00
2.985000000000000000e+03 7.009998321533203125e+01 -1.397225189208984375e+01 3.870287322998046875e+01 4.283217239379882812e+01 2.446051406860351562e+01 1.928897023200988770e+00
2.986000000000000000e+03 7.009300994873046875e+01 -1.395409774780273438e+01 3.598404312133789062e+01 4.553770065307617188e+01 2.445652198791503906e+01 4.940074920654296875e+00
2.987000000000000000e+03 7.008264160156250000e+01 -1.393764591217041016e+01 3.261036300659179688e+01 4.931230545043945312e+01 2.457680130004882812e+01 6.558726310729980469e+00
2.988000000000000000e+03 7.006926727294921875e+01 -1.392352581024169922e+01 2.827482795715332031e+01 5.347924804687500000e+01 2.452622222900390625e+01 6.826392173767089844e+00
2.989000000000000000e+03 7.005340576171875000e+01 -1.391227626800537109e+01 2.419538879394531250e+01 5.823273086547851562e+01 2.472843551635742188e+01 5.145991325378417969e+00
2.990000000000000000e+03 7.003565216064453125e+01 -1.390432643890380859e+01 1.997737312316894531e+01 6.188357543945312500e+01 2.455828475952148438e+01 1.816321134567260742e+00
2.991000000000000000e+03 7.001670074462890625e+01 -1.389998054504394531e+01 1.676220893859863281e+01 6.395398712158203125e+01 2.421485900878906250e+01 -3.026735067367553711e+00
2.992000000000000000e+03 6.999726104736328125e+01 -1.389940357208251953e+01 1.550519466400146484e+01 6.400493621826171875e+01 2.385303878784179688e+01 -8.882163047790527344e+00
2.993000000000000000e+03 6.997808074951171875e+01 -1.390261840820312500e+01 1.545127296447753906e+01 6.115538787841796875e+01 2.298199844360351562e+01 -1.500672721862792969e+01
2.994000000000000000e+03 6.995989227294921875e+01 -1.390950107574462891e+01 1.713008308410644531e+01 5.564365768432617188e+01 2.183212280273437500e+01 -2.042702102661132812e+01
2.995000000000000000e+03 6.994338989257812500e+01 -1.391979122161865234e+01 1.996178245544433594e+01 4.811766433715820312e+01 2.042383384704589844e+01 -2.418341255187988281e+01
2.996000000000000000e+03 6.992919921875000000e+01 -1.393309307098388672e+01 2.344379425048828125e+01 3.852219772338867188e+01 1.858979797363281250e+01 -2.602376937866210938e+01
2.997000000000000000e+03 6.991786956787109375e+01 -1.394890022277832031e+01 2.623435783386230469e+01 2.864306068420410156e+01 1.646322631835937500e+01 -2.558770370483398438e+01
2.998000000000000000e+03 6.990983581542968750e+01 -1.396660900115966797e+01 2.868087196350097656e+01 1.859476470947265625e+01 1.418269062042236328e+01 -2.247629928588867188e+01
2.999000000000000000e+03 6.990539550781250000e+01 -1.398554325103759766e+01 2.906746482849121094e+01 9.609354019165039062e+00 1.160304546356201172e+01 -1.749571418762207031e+01
3.000000000000000000e+03 6.990471649169921875e+01 -1.400497913360595703e+01 2.786329269409179688e+01 2.606902360916137695e+00 9.141058921813964844e+00 -6.371748924255371094e+00
