# el_label, x, y, sXX, sYY, sZZ, sXY
1.000000000000000000e+00 1.863804435729980469e+01 -9.929746985435485840e-01 -3.753657102584838867e+00 -1.544268131256103516e+00 -1.589377641677856445e+00 -2.101450443267822266e+00
2.000000000000000000e+00 1.843939971923828125e+01 -1.005548596382141113e+00 8.806222677230834961e-01 5.902317166328430176e-01 4.412561953067779541e-01 2.598159909248352051e-01
3.000000000000000000e+00 1.824075698852539062e+01 -1.018122434616088867e+00 7.601841092109680176e-01 -2.769140005111694336e-01 1.449810266494750977e-01 -2.092700451612472534e-01
4.000000000000000000e+00 1.804211425781250000e+01 -1.030696392059326172e+00 1.069335460662841797e+00 1.659463495016098022e-01 3.705845475196838379e-01 -9.131464362144470215e-02
5.000000000000000000e+00 1.864741706848144531e+01 -1.050622701644897461e+00 7.061955928802490234e+00 -1.833904266357421875e+00 1.568415522575378418e+00 -9.305033832788467407e-02
6.000000000000000000e+00 1.845502090454101562e+01 -1.101628541946411133e+00 3.406836748123168945e+00 -5.003538727760314941e-02 1.007040381431579590e+00 8.783086389303207397e-02
7.000000000000000000e+00 1.826262664794921875e+01 -1.152634382247924805e+00 3.918081760406494141e+00 3.995483219623565674e-01 1.295289039611816406e+00 6.450232863426208496e-01
8.000000000000000000e+00 1.807023239135742188e+01 -1.203640222549438477e+00 3.243299007415771484e+00 -5.681846663355827332e-02 9.559441804885864258e-01 3.060393929481506348e-01
9.000000000000000000e+00 1.866783332824707031e+01 -1.105342745780944824e+00 1.117435073852539062e+01 7.634244561195373535e-01 3.581332445144653320e+00 4.222596645355224609e+00
1.000000000000000000e+01 1.848904991149902344e+01 -1.192828774452209473e+00 7.599384784698486328e+00 3.927882015705108643e-01 2.397651910781860352e+00 2.159274816513061523e+00
1.100000000000000000e+01 1.831026649475097656e+01 -1.280314683914184570e+00 5.764493465423583984e+00 8.744014501571655273e-01 1.991668462753295898e+00 1.662283182144165039e+00
1.200000000000000000e+01 1.813148307800292969e+01 -1.367800712585449219e+00 5.429434299468994141e+00 7.743083834648132324e-01 1.861122727394104004e+00 1.686636924743652344e+00
1.300000000000000000e+01 1.869851303100585938e+01 -1.155041098594665527e+00 1.293258190155029297e+01 4.747375488281250000e+00 5.303987026214599609e+00 7.766986846923828125e+00
1.400000000000000000e+01 1.854018211364746094e+01 -1.275659322738647461e+00 8.972531318664550781e+00 2.860740661621093750e+00 3.549981594085693359e+00 4.784402370452880859e+00
1.500000000000000000e+01 1.838185119628906250e+01 -1.396277427673339844e+00 7.559986114501953125e+00 2.313348293304443359e+00 2.962000370025634766e+00 3.593650817871093750e+00
1.600000000000000000e+01 1.822352027893066406e+01 -1.516895651817321777e+00 6.494791984558105469e+00 2.005011558532714844e+00 2.549941062927246094e+00 2.955327987670898438e+00
1.700000000000000000e+01 1.873828125000000000e+01 -1.197815775871276855e+00 1.211004924774169922e+01 1.012948131561279297e+01 6.671859264373779297e+00 1.023592185974121094e+01
1.800000000000000000e+01 1.860646247863769531e+01 -1.346950411796569824e+00 9.260719299316406250e+00 6.372779846191406250e+00 4.690049648284912109e+00 6.839982032775878906e+00
1.900000000000000000e+01 1.847464370727539062e+01 -1.496084928512573242e+00 7.662196159362792969e+00 4.996838092803955078e+00 3.797710418701171875e+00 5.219413757324218750e+00
2.000000000000000000e+01 1.834282493591308594e+01 -1.645219564437866211e+00 6.839015960693359375e+00 4.181048393249511719e+00 3.306019306182861328e+00 4.351178646087646484e+00
2.100000000000000000e+01 1.878561592102050781e+01 -1.232029795646667480e+00 1.038920974731445312e+01 1.595097923278808594e+01 7.902056694030761719e+00 1.106680965423583984e+01
2.200000000000000000e+01 1.868535232543945312e+01 -1.403973817825317383e+00 8.208939552307128906e+00 1.061816215515136719e+01 5.648130893707275391e+00 7.740326881408691406e+00
2.300000000000000000e+01 1.858509063720703125e+01 -1.575917840003967285e+00 7.111304283142089844e+00 8.315638542175292969e+00 4.628082752227783203e+00 6.225712299346923828e+00
2.400000000000000000e+01 1.848482704162597656e+01 -1.747861862182617188e+00 6.198572635650634766e+00 7.107225418090820312e+00 3.991739511489868164e+00 5.146250724792480469e+00
2.500000000000000000e+01 1.883870506286621094e+01 -1.256374120712280273e+00 8.151267051696777344e+00 2.153645324707031250e+01 8.906315803527832031e+00 1.007283115386962891e+01
2.600000000000000000e+01 1.877383422851562500e+01 -1.444547653198242188e+00 6.978714466094970703e+00 1.490443038940429688e+01 6.564943790435791016e+00 7.462374210357666016e+00
2.700000000000000000e+01 1.870896530151367188e+01 -1.632721066474914551e+00 5.914844989776611328e+00 1.180832576751708984e+01 5.316951274871826172e+00 6.089699745178222656e+00
2.800000000000000000e+01 1.864409637451171875e+01 -1.820894598960876465e+00 5.369208812713623047e+00 1.010531139373779297e+01 4.642355918884277344e+00 5.253984451293945312e+00
2.900000000000000000e+01 1.889551734924316406e+01 -1.269916892051696777e+00 6.726125717163085938e+00 2.615754127502441406e+01 9.865099906921386719e+00 7.592245578765869141e+00
3.000000000000000000e+01 1.886852455139160156e+01 -1.467118978500366211e+00 5.664500713348388672e+00 1.862713050842285156e+01 7.287489414215087891e+00 5.978397369384765625e+00
3.100000000000000000e+01 1.884152984619140625e+01 -1.664320945739746094e+00 5.013539314270019531e+00 1.507464504241943359e+01 6.026454925537109375e+00 4.993544101715087891e+00
3.200000000000000000e+01 1.881453514099121094e+01 -1.861523032188415527e+00 4.327907562255859375e+00 1.268033695220947266e+01 5.102473258972167969e+00 4.231132984161376953e+00
3.300000000000000000e+01 1.895388031005859375e+01 -1.272140026092529297e+00 6.193896770477294922e+00 2.915848922729492188e+01 1.060571575164794922e+01 4.114289760589599609e+00
3.400000000000000000e+01 1.896579551696777344e+01 -1.470824122428894043e+00 5.206582069396972656e+00 2.148086547851562500e+01 8.006234169006347656e+00 3.703450918197631836e+00
3.500000000000000000e+01 1.897770881652832031e+01 -1.669508218765258789e+00 4.354951858520507812e+00 1.751839637756347656e+01 6.562004089355468750e+00 3.034225225448608398e+00
3.600000000000000000e+01 1.898962402343750000e+01 -1.868192315101623535e+00 3.838343381881713867e+00 1.504179573059082031e+01 5.664041519165039062e+00 2.528827905654907227e+00
3.700000000000000000e+01 1.901155853271484375e+01 -1.262958288192749023e+00 7.181901454925537109e+00 3.052445793151855469e+01 1.131190776824951172e+01 4.922261536121368408e-01
3.800000000000000000e+01 1.906192588806152344e+01 -1.455521345138549805e+00 5.479219913482666016e+00 2.304222106933593750e+01 8.556432723999023438e+00 9.551774859428405762e-01
3.900000000000000000e+01 1.911229324340820312e+01 -1.648084282875061035e+00 4.561205863952636719e+00 1.908909797668457031e+01 7.095091342926025391e+00 7.389822006225585938e-01
4.000000000000000000e+01 1.916266059875488281e+01 -1.840647339820861816e+00 3.914425134658813477e+00 1.652788543701171875e+01 6.132693290710449219e+00 5.014377236366271973e-01
4.100000000000000000e+01 1.906634712219238281e+01 -1.242723226547241211e+00 9.246671676635742188e+00 3.025111389160156250e+01 1.184933567047119141e+01 -2.702934980392456055e+00
4.200000000000000000e+01 1.915323829650878906e+01 -1.421796202659606934e+00 6.791486263275146484e+00 2.346930885314941406e+01 9.078238487243652344e+00 -1.662904977798461914e+00
4.300000000000000000e+01 1.924013137817382812e+01 -1.600869059562683105e+00 5.510941505432128906e+00 1.951325988769531250e+01 7.507260322570800781e+00 -1.544662594795227051e+00
4.400000000000000000e+01 1.932702255249023438e+01 -1.779942035675048828e+00 4.809940814971923828e+00 1.696907997131347656e+01 6.533705711364746094e+00 -1.466396927833557129e+00
4.500000000000000000e+01 1.911614608764648438e+01 -1.212209105491638184e+00 1.218389701843261719e+01 2.895389366149902344e+01 1.234133720397949219e+01 -4.894567012786865234e+00
4.600000000000000000e+01 1.923623847961425781e+01 -1.370939254760742188e+00 8.779155731201171875e+00 2.276744079589843750e+01 9.463978767395019531e+00 -3.778388500213623047e+00
4.700000000000000000e+01 1.935633087158203125e+01 -1.529669404029846191e+00 7.262097358703613281e+00 1.905561828613281250e+01 7.895314693450927734e+00 -3.373678207397460938e+00
4.800000000000000000e+01 1.947642135620117188e+01 -1.688399672508239746e+00 6.273632049560546875e+00 1.639184379577636719e+01 6.799642562866210938e+00 -3.170032262802124023e+00
4.900000000000000000e+01 1.915905380249023438e+01 -1.172583580017089844e+00 1.528660774230957031e+01 2.701101684570312500e+01 1.268928718566894531e+01 -5.950819015502929688e+00
5.000000000000000000e+01 1.930775070190429688e+01 -1.304896712303161621e+00 1.127918434143066406e+01 2.144528007507324219e+01 9.817338943481445312e+00 -4.995170116424560547e+00
5.100000000000000000e+01 1.945644569396972656e+01 -1.437209963798522949e+00 9.346096038818359375e+00 1.785794067382812500e+01 8.161211013793945312e+00 -4.533576011657714844e+00
5.200000000000000000e+01 1.960514068603515625e+01 -1.569523096084594727e+00 8.193505287170410156e+00 1.538515090942382812e+01 7.073596954345703125e+00 -4.285646915435791016e+00
5.300000000000000000e+01 1.919342422485351562e+01 -1.125363111495971680e+00 1.817098617553710938e+01 2.511610794067382812e+01 1.298612785339355469e+01 -5.851931095123291016e+00
5.400000000000000000e+01 1.936503410339355469e+01 -1.226195931434631348e+00 1.374557781219482422e+01 1.978135681152343750e+01 1.005808067321777344e+01 -5.242338180541992188e+00
5.500000000000000000e+01 1.953664398193359375e+01 -1.327028751373291016e+00 1.149727058410644531e+01 1.647250747680664062e+01 8.390933036804199219e+00 -4.819828033447265625e+00
5.600000000000000000e+01 1.970825576782226562e+01 -1.427861690521240234e+00 1.004682731628417969e+01 1.417344760894775391e+01 7.266082763671875000e+00 -4.616821765899658203e+00
5.700000000000000000e+01 1.921794509887695312e+01 -1.072354674339294434e+00 2.039208221435546875e+01 2.354532623291015625e+01 1.318122291564941406e+01 -4.846598625183105469e+00
5.800000000000000000e+01 1.940590095520019531e+01 -1.137848615646362305e+00 1.580875492095947266e+01 1.833166694641113281e+01 1.024212646484375000e+01 -4.551421642303466797e+00
5.900000000000000000e+01 1.959385871887207031e+01 -1.203342437744140625e+00 1.325494861602783203e+01 1.521111965179443359e+01 8.539820671081542969e+00 -4.276180267333984375e+00
6.000000000000000000e+01 1.978181648254394531e+01 -1.268836379051208496e+00 1.158255863189697266e+01 1.306964111328125000e+01 7.395659923553466797e+00 -4.117281436920166016e+00
6.100000000000000000e+01 1.923167610168457031e+01 -1.015586853027343750e+00 2.171872138977050781e+01 2.261273574829101562e+01 1.329943752288818359e+01 -3.245485305786132812e+00
6.200000000000000000e+01 1.942878723144531250e+01 -1.043235421180725098e+00 1.709305572509765625e+01 1.741519165039062500e+01 1.035247421264648438e+01 -3.159878730773925781e+00
6.300000000000000000e+01 1.962589836120605469e+01 -1.070884108543395996e+00 1.433246803283691406e+01 1.442357158660888672e+01 8.626811981201171875e+00 -3.076411962509155273e+00
6.400000000000000000e+01 1.982300949096679688e+01 -1.098532676696777344e+00 1.250222301483154297e+01 1.234346675872802734e+01 7.453706741333007812e+00 -3.027365207672119141e+00
6.500000000000000000e+01 1.923409271240234375e+01 -9.572318792343139648e-01 2.206217765808105469e+01 2.248246002197265625e+01 1.336339092254638672e+01 -1.361658811569213867e+00
6.600000000000000000e+01 1.943281555175781250e+01 -9.459772706031799316e-01 1.736514854431152344e+01 1.721643829345703125e+01 1.037447643280029297e+01 -1.434444427490234375e+00
6.700000000000000000e+01 1.963153839111328125e+01 -9.347226619720458984e-01 1.452702903747558594e+01 1.434521102905273438e+01 8.661671638488769531e+00 -1.542185425758361816e+00
6.800000000000000000e+01 1.983026123046875000e+01 -9.234679937362670898e-01 1.264466953277587891e+01 1.222727775573730469e+01 7.461584091186523438e+00 -1.674322962760925293e+00
6.900000000000000000e+01 1.922510337829589844e+01 -8.995230793952941895e-01 2.134439086914062500e+01 2.303474998474121094e+01 1.331374263763427734e+01 4.570423960685729980e-01
7.000000000000000000e+01 1.941783142089843750e+01 -8.497959375381469727e-01 1.661899375915527344e+01 1.793055534362792969e+01 1.036486434936523438e+01 2.173312604427337646e-01
7.100000000000000000e+01 1.961056137084960938e+01 -8.000687956809997559e-01 1.377682113647460938e+01 1.487694644927978516e+01 8.596130371093750000e+00 -6.028379499912261963e-02
7.200000000000000000e+01 1.980328941345214844e+01 -7.503415942192077637e-01 1.189184188842773438e+01 1.294421005249023438e+01 7.450815677642822266e+00 -3.831106722354888916e-01
7.300000000000000000e+01 1.920504951477050781e+01 -8.446686863899230957e-01 1.973717498779296875e+01 2.444316673278808594e+01 1.325410270690917969e+01 1.861011505126953125e+00
7.400000000000000000e+01 1.938441085815429688e+01 -7.583719491958618164e-01 1.489915180206298828e+01 1.919020271301269531e+01 1.022680664062500000e+01 1.434059023857116699e+00
7.500000000000000000e+01 1.956377029418945312e+01 -6.720752120018005371e-01 1.224816417694091797e+01 1.615330314636230469e+01 8.520440101623535156e+00 9.367071986198425293e-01
7.600000000000000000e+01 1.974313163757324219e+01 -5.857784152030944824e-01 1.033939456939697266e+01 1.403948211669921875e+01 7.313663005828857422e+00 6.344931125640869141e-01
7.700000000000000000e+01 1.917470169067382812e+01 -7.947678565979003906e-01 1.725401687622070312e+01 2.620260238647460938e+01 1.303698539733886719e+01 2.588809013366699219e+00
7.800000000000000000e+01 1.933382987976074219e+01 -6.752038598060607910e-01 1.264025688171386719e+01 2.100469779968261719e+01 1.009348583221435547e+01 1.825204133987426758e+00
7.900000000000000000e+01 1.949295806884765625e+01 -5.556398630142211914e-01 1.006556606292724609e+01 1.765290451049804688e+01 8.315541267395019531e+00 1.288334369659423828e+00
8.000000000000000000e+01 1.965208625793457031e+01 -4.360758662223815918e-01 8.401793479919433594e+00 1.546716690063476562e+01 7.160688400268554688e+00 9.139446616172790527e-01
8.100000000000000000e+01 1.913521766662597656e+01 -7.517301440238952637e-01 1.445022010803222656e+01 2.838337707519531250e+01 1.285007858276367188e+01 2.260879278182983398e+00
8.200000000000000000e+01 1.926802444458007812e+01 -6.034743189811706543e-01 9.992754936218261719e+00 2.261729240417480469e+01 9.783014297485351562e+00 1.336706995964050293e+00
8.300000000000000000e+01 1.940083122253417969e+01 -4.552185237407684326e-01 7.826007843017578125e+00 1.928853416442871094e+01 8.134363174438476562e+00 7.303377985954284668e-01
8.400000000000000000e+01 1.953363800048828125e+01 -3.069626986980438232e-01 6.255128383636474609e+00 1.676905632019042969e+01 6.907255649566650391e+00 4.569791853427886963e-01
8.500000000000000000e+01 1.908811187744140625e+01 -7.172024846076965332e-01 1.137891578674316406e+01 3.008878898620605469e+01 1.244031143188476562e+01 9.015962481498718262e-01
8.600000000000000000e+01 1.918951416015625000e+01 -5.459282398223876953e-01 7.752349376678466797e+00 2.398548507690429688e+01 9.521349906921386719e+00 -2.105401456356048584e-01
8.700000000000000000e+01 1.929091835021972656e+01 -3.746539950370788574e-01 5.615920066833496094e+00 2.026063728332519531e+01 7.762967109680175781e+00 -5.173058509826660156e-01
8.800000000000000000e+01 1.939232063293457031e+01 -2.033797353506088257e-01 4.529818534851074219e+00 1.790552902221679688e+01 6.730604171752929688e+00 -8.534806966781616211e-01
8.900000000000000000e+01 1.903518676757812500e+01 -6.925061941146850586e-01 9.076612472534179688e+00 3.119710540771484375e+01 1.208211517333984375e+01 -1.626394152641296387e+00
9.000000000000000000e+01 1.910130500793457031e+01 -5.047677159309387207e-01 5.812717914581298828e+00 2.431541442871093750e+01 9.038439750671386719e+00 -2.394227743148803711e+00
9.100000000000000000e+01 1.916742324829101562e+01 -3.170292973518371582e-01 4.285754680633544922e+00 2.055290412902832031e+01 7.451597690582275391e+00 -2.515200376510620117e+00
9.200000000000000000e+01 1.923354148864746094e+01 -1.292908489704132080e-01 2.998273611068725586e+00 1.807936286926269531e+01 6.323290824890136719e+00 -2.533270835876464844e+00
9.300000000000000000e+01 1.897846412658691406e+01 -6.785863041877746582e-01 7.419893264770507812e+00 3.086389732360839844e+01 1.148513698577880859e+01 -4.867921829223632812e+00
9.400000000000000000e+01 1.900676727294921875e+01 -4.815679490566253662e-01 5.052845478057861328e+00 2.358480072021484375e+01 8.591293334960937500e+00 -5.007177352905273438e+00
9.500000000000000000e+01 1.903507232666015625e+01 -2.845495939254760742e-01 3.459162950515747070e+00 1.969803428649902344e+01 6.947159290313720703e+00 -4.739187717437744141e+00
9.600000000000000000e+01 1.906337547302246094e+01 -8.753123134374618530e-02 2.506871938705444336e+00 1.728598594665527344e+01 5.937857627868652344e+00 -4.475509643554687500e+00
9.700000000000000000e+01 1.892011833190917969e+01 -6.759755611419677734e-01 7.289968967437744141e+00 2.900413513183593750e+01 1.088823127746582031e+01 -8.353281021118164062e+00
9.800000000000000000e+01 1.890952301025390625e+01 -4.772166609764099121e-01 5.041172504425048828e+00 2.141966056823730469e+01 7.938249588012695312e+00 -7.492459297180175781e+00
9.900000000000000000e+01 1.889892959594726562e+01 -2.784577906131744385e-01 3.689509868621826172e+00 1.782269859313964844e+01 6.453662872314453125e+00 -6.793634891510009766e+00
1.000000000000000000e+02 1.888833427429199219e+01 -7.969893515110015869e-02 2.616773843765258789e+00 1.548886585235595703e+01 5.431692123413085938e+00 -6.265623092651367188e+00
1.010000000000000000e+02 1.886237907409667969e+01 -6.847738027572631836e-01 8.203670501708984375e+00 2.530383300781250000e+01 1.005225086212158203e+01 -1.133480548858642578e+01
1.020000000000000000e+02 1.881329345703125000e+01 -4.918804168701171875e-01 6.125398635864257812e+00 1.816536140441894531e+01 7.287228107452392578e+00 -9.392317771911621094e+00
1.030000000000000000e+02 1.876420593261718750e+01 -2.989870309829711914e-01 4.440298080444335938e+00 1.482397651672363281e+01 5.779282569885253906e+00 -8.198800086975097656e+00
1.040000000000000000e+02 1.871512031555175781e+01 -1.060936674475669861e-01 3.447627782821655273e+00 1.299177742004394531e+01 4.931821823120117188e+00 -7.449173927307128906e+00
1.050000000000000000e+02 1.880745887756347656e+01 -7.046443819999694824e-01 1.037232112884521484e+01 2.022606468200683594e+01 9.179515838623046875e+00 -1.316828250885009766e+01
1.060000000000000000e+02 1.872175788879394531e+01 -5.249980092048645020e-01 7.458039283752441406e+00 1.393010997772216797e+01 6.416444778442382812e+00 -1.019478797912597656e+01
1.070000000000000000e+02 1.863605880737304688e+01 -3.453516960144042969e-01 5.793222904205322266e+00 1.130967140197753906e+01 5.130868434906005859e+00 -8.704987525939941406e+00
1.080000000000000000e+02 1.855035781860351562e+01 -1.657053679227828979e-01 4.390263557434082031e+00 9.717995643615722656e+00 4.232477664947509766e+00 -7.700738906860351562e+00
1.090000000000000000e+02 1.875745773315429688e+01 -7.348268628120422363e-01 1.259510135650634766e+01 1.420680522918701172e+01 8.040572166442871094e+00 -1.327696514129638672e+01
1.100000000000000000e+02 1.863842201232910156e+01 -5.753021836280822754e-01 9.016025543212890625e+00 9.399903297424316406e+00 5.524778366088867188e+00 -9.713231086730957031e+00
1.110000000000000000e+02 1.851938819885253906e+01 -4.157775044441223145e-01 6.756845951080322266e+00 7.553082466125488281e+00 4.292978763580322266e+00 -8.017587661743164062e+00
1.120000000000000000e+02 1.840035438537597656e+01 -2.562528550624847412e-01 5.402783870697021484e+00 6.602813720703125000e+00 3.601679325103759766e+00 -7.163541316986083984e+00
1.130000000000000000e+02 1.871428871154785156e+01 -7.741662859916687012e-01 1.455961608886718750e+01 8.031137466430664062e+00 6.777225971221923828e+00 -1.148714065551757812e+01
1.140000000000000000e+02 1.856647491455078125e+01 -6.408678889274597168e-01 9.551378250122070312e+00 5.178353309631347656e+00 4.418919563293457031e+00 -7.797863006591796875e+00
1.150000000000000000e+02 1.841866111755371094e+01 -5.075694918632507324e-01 7.260511875152587891e+00 4.293115139007568359e+00 3.466088056564331055e+00 -6.457716941833496094e+00
1.160000000000000000e+02 1.827084732055664062e+01 -3.742710947990417480e-01 5.571274757385253906e+00 3.912097692489624023e+00 2.845011711120605469e+00 -5.637370586395263672e+00
1.170000000000000000e+02 1.867960548400878906e+01 -8.211572170257568359e-01 1.440292167663574219e+01 2.747392654418945312e+00 5.145094394683837891e+00 -7.950191974639892578e+00
1.180000000000000000e+02 1.850866889953613281e+01 -7.191860675811767578e-01 9.160323143005371094e+00 1.848436832427978516e+00 3.302628040313720703e+00 -4.947877407073974609e+00
1.190000000000000000e+02 1.833773231506347656e+01 -6.172149181365966797e-01 6.180874824523925781e+00 2.106456756591796875e+00 2.486199617385864258e+00 -4.115633010864257812e+00
1.200000000000000000e+02 1.816679573059082031e+01 -5.152438282966613770e-01 5.017870426177978516e+00 1.914088964462280273e+00 2.079587936401367188e+00 -3.913222789764404297e+00
1.210000000000000000e+02 1.865473365783691406e+01 -8.740013837814331055e-01 1.209249114990234375e+01 -1.316179156303405762e+00 3.232893705368041992e+00 -2.882110595703125000e+00
1.220000000000000000e+02 1.846721458435058594e+01 -8.072596788406372070e-01 5.879892349243164062e+00 6.004008054733276367e-01 1.944087862968444824e+00 -2.000942945480346680e+00
1.230000000000000000e+02 1.827969741821289062e+01 -7.405180335044860840e-01 4.866971015930175781e+00 9.695847630500793457e-01 1.750966668128967285e+00 -2.340789079666137695e+00
1.240000000000000000e+02 1.809218025207519531e+01 -6.737763285636901855e-01 3.286464691162109375e+00 3.107488751411437988e-01 1.079164028167724609e+00 -1.815061092376708984e+00
1.250000000000000000e+02 1.864062500000000000e+01 -9.306765794754028320e-01 2.739165306091308594e+00 -1.915109038352966309e+00 2.472168952226638794e-01 1.176101922988891602e+00
1.260000000000000000e+02 1.844370079040527344e+01 -9.017184376716613770e-01 3.748211383819580078e+00 8.580144643783569336e-01 1.381867766380310059e+00 -1.041565895080566406e+00
1.270000000000000000e+02 1.824677658081054688e+01 -8.727602362632751465e-01 2.012665271759033203e+00 -2.802735865116119385e-01 5.197174549102783203e-01 -3.857735395431518555e-01
1.280000000000000000e+02 1.804985427856445312e+01 -8.438020348548889160e-01 1.167267084121704102e+00 2.172509431838989258e-01 4.153554141521453857e-01 -4.490444660186767578e-01
1.290000000000000000e+02 1.756978034973144531e+01 -1.820448160171508789e+00 4.636767387390136719e+00 8.607026934623718262e-01 1.649240970611572266e+00 1.546685457229614258e+00
1.300000000000000000e+02 1.701692390441894531e+01 -1.012623786926269531e+00 1.080135583877563477e+00 -2.141288295388221741e-02 3.176168203353881836e-01 -4.123339429497718811e-02
1.310000000000000000e+02 1.960894584655761719e+01 -1.848954558372497559e+00 5.693317413330078125e+00 1.441605091094970703e+01 6.032810688018798828e+00 -3.201656818389892578e+00
1.320000000000000000e+02 2.032553100585937500e+01 -1.138734817504882812e+00 9.927110671997070312e+00 9.023120880126953125e+00 5.685069084167480469e+00 -2.881609678268432617e+00
1.330000000000000000e+02 1.992577743530273438e+01 -4.467285275459289551e-01 8.712420463562011719e+00 1.247323513031005859e+01 6.355696678161621094e+00 3.645921349525451660e-01
1.340000000000000000e+02 1.607737731933593750e+01 -5.097908973693847656e-01 -2.163197278976440430e+00 1.606037914752960205e-01 -6.007780432701110840e-01 -7.870512455701828003e-02
1.350000000000000000e+02 1.713912963867187500e+01 -6.549060940742492676e-01 -7.994055151939392090e-01 1.520587056875228882e-01 -1.942040324211120605e-01 -4.164944589138031006e-01
1.360000000000000000e+02 1.793006706237792969e+01 4.286065697669982910e-01 2.265731811523437500e+00 5.117303848266601562e+00 2.214910745620727539e+00 -5.316338539123535156e+00
1.370000000000000000e+02 1.926425170898437500e+01 9.809059649705886841e-02 2.169104099273681641e+00 1.607387733459472656e+01 5.472894668579101562e+00 -2.773034095764160156e+00
1.380000000000000000e+02 1.881762123107910156e+01 -2.055322170257568359e+00 3.958255052566528320e+00 1.169827175140380859e+01 4.696958065032958984e+00 3.498769044876098633e+00
1.390000000000000000e+02 1.783028793334960938e+01 -1.059722065925598145e+00 1.197857737541198730e+00 -1.352533251047134399e-01 3.187813460826873779e-01 -9.484659880399703979e-02
1.400000000000000000e+02 1.593027496337890625e+01 -2.240909814834594727e+00 2.771332263946533203e+00 2.126924842596054077e-01 8.952074646949768066e-01 6.260710954666137695e-01
1.410000000000000000e+02 1.614468193054199219e+01 -2.242773771286010742e+00 2.950310945510864258e+00 2.129037231206893921e-01 9.489644169807434082e-01 6.985698938369750977e-01
1.420000000000000000e+02 1.699208450317382812e+01 -1.617118477821350098e+00 3.114715576171875000e+00 1.417843103408813477e-01 9.769499897956848145e-01 4.033399522304534912e-01
1.430000000000000000e+02 1.740999221801757812e+01 -1.037905097007751465e+00 1.121135354042053223e+00 3.646913915872573853e-02 3.472813367843627930e-01 1.878879405558109283e-02
1.440000000000000000e+02 1.669084548950195312e+01 -2.153742313385009766e+00 3.387963533401489258e+00 3.995319902896881104e-01 1.136248588562011719e+00 8.924100995063781738e-01
1.450000000000000000e+02 1.944822692871093750e+01 3.243016898632049561e-01 1.340010404586791992e+00 1.448591995239257812e+01 4.747778892517089844e+00 -2.398324251174926758e+00
1.460000000000000000e+02 2.007429885864257812e+01 -5.585746169090270996e-01 9.157026290893554688e+00 1.114488697052001953e+01 6.090573787689208984e+00 -2.497020065784454346e-01
1.470000000000000000e+02 1.943507575988769531e+01 -1.954126119613647461e+00 4.413625240325927734e+00 1.482490825653076172e+01 5.771560192108154297e+00 -1.668950200080871582e+00
1.480000000000000000e+02 1.960752487182617188e+01 -2.145383358001708984e+00 4.281583309173583984e+00 1.296478271484375000e+01 5.173910140991210938e+00 -2.121846199035644531e+00
1.490000000000000000e+02 1.922950553894042969e+01 -2.008815288543701172e+00 3.691078901290893555e+00 1.483951377868652344e+01 5.559177875518798828e+00 1.554128527641296387e-01
1.500000000000000000e+02 1.615264511108398438e+01 5.371679663658142090e-01 9.644501656293869019e-02 1.268840789794921875e+00 4.095857441425323486e-01 -1.640150547027587891e+00
1.510000000000000000e+02 1.633431816101074219e+01 1.261983066797256470e-01 -2.921651601791381836e-01 6.858924031257629395e-01 1.181181669235229492e-01 -1.161471605300903320e+00
1.520000000000000000e+02 1.654316520690917969e+01 5.232779979705810547e-01 5.011999607086181641e-01 1.397873163223266602e+00 5.697219371795654297e-01 -2.061471939086914062e+00
1.530000000000000000e+02 1.605336761474609375e+01 -7.258100509643554688e-01 -2.625579833984375000e+00 8.176624774932861328e-02 -7.631441354751586914e-01 1.803515404462814331e-01
1.540000000000000000e+02 1.666741561889648438e+01 -7.479751110076904297e-01 -2.273530006408691406e+00 9.816862642765045166e-03 -6.791139245033264160e-01 2.302921749651432037e-02
1.550000000000000000e+02 1.754812431335449219e+01 -5.422002077102661133e-01 1.078904271125793457e+00 3.471476137638092041e-01 4.278155565261840820e-01 -1.161128520965576172e+00
1.560000000000000000e+02 1.770010948181152344e+01 -4.297527670860290527e-01 2.275151014328002930e+00 7.421777248382568359e-01 9.051986336708068848e-01 -2.108759880065917969e+00
1.570000000000000000e+02 1.784074401855468750e+01 -8.011677265167236328e-01 3.448800146579742432e-01 -1.043734252452850342e-01 7.215198129415512085e-02 -4.395105540752410889e-01
1.580000000000000000e+02 2.005261039733886719e+01 -9.374506473541259766e-01 1.114361095428466797e+01 1.064256286621093750e+01 6.535851955413818359e+00 -1.925010442733764648e+00
1.590000000000000000e+02 1.889214515686035156e+01 1.497548073530197144e-01 1.863902449607849121e+00 1.398093795776367188e+01 4.753452301025390625e+00 -5.747780799865722656e+00
1.600000000000000000e+02 1.837126922607421875e+01 2.036506980657577515e-01 2.849843740463256836e+00 8.136740684509277344e+00 3.295975208282470703e+00 -6.546710968017578125e+00
1.610000000000000000e+02 1.781936836242675781e+01 -2.631308734416961670e-01 3.302286148071289062e+00 1.761031508445739746e+00 1.518995285034179688e+00 -3.392674922943115234e+00
1.620000000000000000e+02 1.821451759338378906e+01 -1.804711937904357910e+00 6.075145721435546875e+00 3.608547449111938477e+00 2.905107975006103516e+00 3.769393920898437500e+00
1.630000000000000000e+02 1.859845161437988281e+01 -2.042110204696655273e+00 4.707566261291503906e+00 8.967488288879394531e+00 4.102516651153564453e+00 4.354842185974121094e+00
1.640000000000000000e+02 1.988016319274902344e+01 -1.557043671607971191e+00 8.882143974304199219e+00 1.252008438110351562e+01 6.420668125152587891e+00 -4.391006469726562500e+00
1.650000000000000000e+02 1.681750869750976562e+01 -1.012722253799438477e+00 1.092952370643615723e+00 2.624704129993915558e-02 3.357598185539245605e-01 -3.633292764425277710e-02
1.660000000000000000e+02 1.655802536010742188e+01 -2.280473470687866211e+00 3.358975887298583984e+00 4.129098653793334961e-01 1.131565690040588379e+00 9.331831336021423340e-01
1.670000000000000000e+02 1.622448158264160156e+01 -9.851429462432861328e-01 1.176084041595458984e+00 6.013438905938528478e-05 3.528432548046112061e-01 -5.678136646747589111e-02
1.680000000000000000e+02 1.619788932800292969e+01 -1.182865977287292480e+00 1.485968589782714844e+00 -4.357179626822471619e-03 4.444834291934967041e-01 -5.789471417665481567e-02
1.690000000000000000e+02 1.602691459655761719e+01 -9.781422019004821777e-01 1.204280614852905273e+00 -1.262654457241296768e-02 3.574962317943572998e-01 -4.400197416543960571e-02
1.700000000000000000e+02 2.002468681335449219e+01 -1.145968675613403320e+00 1.118923664093017578e+01 1.072196960449218750e+01 6.573361873626708984e+00 -3.072526693344116211e+00
1.710000000000000000e+02 2.029153060913085938e+01 -7.501417994499206543e-01 9.417225837707519531e+00 9.195903778076171875e+00 5.583939075469970703e+00 -1.285983324050903320e+00
1.720000000000000000e+02 1.792481040954589844e+01 -9.268406033515930176e-02 3.659830570220947266e+00 3.139790296554565430e+00 2.039886236190795898e+00 -4.624023437500000000e+00
1.730000000000000000e+02 1.968838310241699219e+01 -1.529994010925292969e-01 5.252188205718994141e+00 1.508726787567138672e+01 6.101836681365966797e+00 1.850427240133285522e-01
1.740000000000000000e+02 1.789126586914062500e+01 -5.829183459281921387e-01 2.620317220687866211e+00 6.311744451522827148e-01 9.754475355148315430e-01 -1.917476415634155273e+00
1.750000000000000000e+02 1.799367332458496094e+01 -3.983570933341979980e-01 3.963390111923217773e+00 1.537739038467407227e+00 1.650338768959045410e+00 -3.457660198211669922e+00
1.760000000000000000e+02 2.003392601013183594e+01 -7.413292527198791504e-01 1.052241992950439453e+01 1.097894573211669922e+01 6.450409889221191406e+00 -6.837605834007263184e-01
1.770000000000000000e+02 1.854692268371582031e+01 2.337610572576522827e-01 2.342571258544921875e+00 9.898661613464355469e+00 3.672369956970214844e+00 -6.560320377349853516e+00
1.780000000000000000e+02 1.908110427856445312e+01 1.333011239767074585e-01 1.694861531257629395e+00 1.544186115264892578e+01 5.141016960144042969e+00 -4.402578830718994141e+00
1.790000000000000000e+02 1.852107429504394531e+01 4.352192580699920654e-01 1.825481295585632324e+00 9.626827239990234375e+00 3.435692787170410156e+00 -6.252149581909179688e+00
1.800000000000000000e+02 1.871296882629394531e+01 1.985625773668289185e-01 2.049321651458740234e+00 1.202279853820800781e+01 4.221636295318603516e+00 -6.431310176849365234e+00
1.810000000000000000e+02 1.981826019287109375e+01 -2.942758202552795410e-01 6.998133659362792969e+00 1.384456157684326172e+01 6.252808570861816406e+00 5.545191764831542969e-01
1.820000000000000000e+02 1.839309692382812500e+01 -1.940992355346679688e+00 5.571501731872558594e+00 6.366997718811035156e+00 3.581549882888793945e+00 4.514522075653076172e+00
1.830000000000000000e+02 1.879702377319335938e+01 -2.362600326538085938e+00 3.499843835830688477e+00 9.989072799682617188e+00 4.046674728393554688e+00 2.948935985565185547e+00
1.840000000000000000e+02 1.827779197692871094e+01 -2.098058938980102539e+00 5.192247390747070312e+00 5.551721572875976562e+00 3.223190546035766602e+00 4.017652511596679688e+00
1.850000000000000000e+02 1.757678413391113281e+01 -2.288003683090209961e+00 4.752713680267333984e+00 1.825019240379333496e+00 1.973319888114929199e+00 2.326498031616210938e+00
1.860000000000000000e+02 1.907237434387207031e+01 -2.142963171005249023e+00 3.392807960510253906e+00 1.348571681976318359e+01 5.063557624816894531e+00 1.684534311294555664e+00
1.870000000000000000e+02 2.005566596984863281e+01 -1.746140837669372559e+00 7.506765365600585938e+00 1.103815555572509766e+01 5.563476085662841797e+00 -4.248330116271972656e+00
1.880000000000000000e+02 1.890075111389160156e+01 4.042410850524902344e-01 1.030901432037353516e+00 1.258267784118652344e+01 4.084073543548583984e+00 -5.181321620941162109e+00
1.890000000000000000e+02 1.871214103698730469e+01 4.230970144271850586e-01 1.401741743087768555e+00 1.147259521484375000e+01 3.862301111221313477e+00 -5.893355846405029297e+00
1.900000000000000000e+02 1.832748603820800781e+01 4.328716993331909180e-01 2.054341316223144531e+00 7.894394397735595703e+00 2.984620809555053711e+00 -6.116437911987304688e+00
1.910000000000000000e+02 1.732405281066894531e+01 4.542322158813476562e-01 1.725033283233642578e+00 2.700453996658325195e+00 1.327646136283874512e+00 -3.697417259216308594e+00
1.920000000000000000e+02 1.772681808471679688e+01 4.370580315589904785e-01 2.230192899703979492e+00 3.984184026718139648e+00 1.864313006401062012e+00 -4.750953197479248047e+00
1.930000000000000000e+02 1.633521652221679688e+01 3.256386816501617432e-01 9.977514296770095825e-02 9.740549325942993164e-01 3.221490383148193359e-01 -1.583599448204040527e+00
1.940000000000000000e+02 1.612401199340820312e+01 1.194444447755813599e-01 -5.139960646629333496e-01 4.648740887641906738e-01 -1.473660394549369812e-02 -9.213917851448059082e-01
1.950000000000000000e+02 1.944526672363281250e+01 -2.250069618225097656e+00 3.497071743011474609e+00 1.276671600341796875e+01 4.879136085510253906e+00 -9.475038647651672363e-01
1.960000000000000000e+02 1.992571258544921875e+01 -1.901988387107849121e+00 6.279598236083984375e+00 1.197189331054687500e+01 5.475447654724121094e+00 -3.884428501129150391e+00
1.970000000000000000e+02 1.996482086181640625e+01 -1.360071897506713867e+00 1.019598197937011719e+01 1.150656604766845703e+01 6.510764598846435547e+00 -4.101358890533447266e+00
1.980000000000000000e+02 1.987267875671386719e+01 1.813230291008949280e-02 4.439023494720458984e+00 1.326160717010498047e+01 5.310189247131347656e+00 -1.572585850954055786e-02
1.990000000000000000e+02 2.018737792968750000e+01 -1.233501195907592773e+00 1.011588191986083984e+01 9.836751937866210938e+00 5.985790252685546875e+00 -3.305658102035522461e+00
2.000000000000000000e+02 2.021684265136718750e+01 -4.177317917346954346e-01 7.789539813995361328e+00 1.033520030975341797e+01 5.437422275543212891e+00 -1.845632912591099739e-03
2.010000000000000000e+02 1.959726905822753906e+01 2.555356323719024658e-01 2.200103759765625000e+00 1.416700649261474609e+01 4.910133361816406250e+00 -1.297136068344116211e+00
2.020000000000000000e+02 2.030398178100585938e+01 -9.475846290588378906e-01 9.843744277954101562e+00 9.014545440673828125e+00 5.657486915588378906e+00 -2.048451900482177734e+00
2.030000000000000000e+02 2.027371788024902344e+01 -5.725748538970947266e-01 8.798096656799316406e+00 9.569195747375488281e+00 5.510188102722167969e+00 -6.030319929122924805e-01
2.040000000000000000e+02 2.026508522033691406e+01 -1.472245931625366211e+00 8.808511734008789062e+00 9.518684387207031250e+00 5.498158931732177734e+00 -3.792295455932617188e+00
2.050000000000000000e+02 1.927520942687988281e+01 3.560879826545715332e-01 9.250875115394592285e-01 1.429052543640136719e+01 4.564683914184570312e+00 -3.286298274993896484e+00
2.060000000000000000e+02 1.977846145629882812e+01 -2.034739017486572266e+00 5.239833354949951172e+00 1.269337463378906250e+01 5.379962444305419922e+00 -3.251181364059448242e+00
2.070000000000000000e+02 1.924942970275878906e+01 -2.138365507125854492e+00 3.466561317443847656e+00 1.386063098907470703e+01 5.198157787322998047e+00 1.812285929918289185e-01
2.080000000000000000e+02 1.909015274047851562e+01 3.848819136619567871e-01 9.056324362754821777e-01 1.370789527893066406e+01 4.384057998657226562e+00 -4.198456764221191406e+00
2.090000000000000000e+02 1.686930084228515625e+01 -7.683099508285522461e-01 -2.094521522521972656e+00 -1.805588230490684509e-02 -6.337732076644897461e-01 2.161773853003978729e-02
2.100000000000000000e+02 1.651023292541503906e+01 -5.073499679565429688e-01 -1.489263415336608887e+00 8.940830826759338379e-02 -4.199565351009368896e-01 -2.988242506980895996e-01
2.110000000000000000e+02 1.762033462524414062e+01 -7.792944312095642090e-01 -2.639422714710235596e-01 1.719053834676742554e-01 -2.761106379330158234e-02 -4.385917782783508301e-01
2.120000000000000000e+02 1.740941429138183594e+01 -7.911171317100524902e-01 -9.220858216285705566e-01 8.828873932361602783e-02 -2.501391172409057617e-01 -2.403129637241363525e-01
2.130000000000000000e+02 1.689369010925292969e+01 -2.092249393463134766e+00 3.661211490631103516e+00 4.852808117866516113e-01 1.243947625160217285e+00 1.018865108489990234e+00
2.140000000000000000e+02 1.641911697387695312e+01 -1.000178813934326172e+00 1.141448736190795898e+00 9.612098336219787598e-03 3.453182578086853027e-01 -5.035301297903060913e-02
2.150000000000000000e+02 1.618667411804199219e+01 -2.012600183486938477e+00 2.792348146438598633e+00 1.515434831380844116e-01 8.831675052642822266e-01 4.878923892974853516e-01
2.160000000000000000e+02 1.621909523010253906e+01 -1.356976985931396484e+00 1.831955790519714355e+00 -6.279832217842340469e-03 5.477027893066406250e-01 -7.122656825231388211e-05
2.170000000000000000e+02 1.661607933044433594e+01 -1.014189362525939941e+00 1.110713958740234375e+00 -8.040200918912887573e-03 3.308021128177642822e-01 -5.396121367812156677e-02
2.180000000000000000e+02 1.715738677978515625e+01 -1.245201349258422852e+00 1.958836197853088379e+00 2.594501897692680359e-02 5.954343676567077637e-01 1.259302161633968353e-02
2.190000000000000000e+02 1.904710197448730469e+01 -2.307797670364379883e+00 3.102163791656494141e+00 1.191447353363037109e+01 4.504991054534912109e+00 1.527548432350158691e+00
2.200000000000000000e+02 1.713741302490234375e+01 -2.273723840713500977e+00 4.059805393218994141e+00 9.520002603530883789e-01 1.503541588783264160e+00 1.546697854995727539e+00
2.210000000000000000e+02 1.736704826354980469e+01 -2.253637313842773438e+00 4.406409263610839844e+00 1.320815324783325195e+00 1.718167304992675781e+00 1.879930496215820312e+00
2.220000000000000000e+02 1.794989204406738281e+01 -2.337019205093383789e+00 4.696575641632080078e+00 3.558710098266601562e+00 2.476585865020751953e+00 3.075762271881103516e+00
2.230000000000000000e+02 1.857659149169921875e+01 -2.314697504043579102e+00 4.015824317932128906e+00 8.337991714477539062e+00 3.706144809722900391e+00 3.651739835739135742e+00
2.240000000000000000e+02 1.835274696350097656e+01 -2.318571567535400391e+00 4.501513004302978516e+00 6.456086635589599609e+00 3.287279844284057617e+00 3.861170530319213867e+00
2.250000000000000000e+02 1.775726509094238281e+01 -2.334288120269775391e+00 4.850985527038574219e+00 2.768609762191772461e+00 2.285878658294677734e+00 2.815074205398559570e+00
2.260000000000000000e+02 1.734229278564453125e+01 -1.970510482788085938e+00 4.286735534667968750e+00 8.605716824531555176e-01 1.544192075729370117e+00 1.432798743247985840e+00
2.270000000000000000e+02 1.597877693176269531e+01 -1.807139277458190918e+00 2.353654384613037109e+00 4.745147004723548889e-02 7.203317284584045410e-01 2.102807015180587769e-01
2.280000000000000000e+02 1.636321258544921875e+01 -2.247659683227539062e+00 3.162273645401000977e+00 3.204892277717590332e-01 1.044828891754150391e+00 7.959968447685241699e-01
2.290000000000000000e+02 1.646391868591308594e+01 -7.368703484535217285e-01 -2.448224306106567383e+00 1.760849263519048691e-03 -7.339390516281127930e-01 3.466640040278434753e-02
2.300000000000000000e+02 1.611205863952636719e+01 -8.803898096084594727e-02 -1.047119259834289551e+00 3.432171046733856201e-01 -2.111706286668777466e-01 -6.637520194053649902e-01
2.310000000000000000e+02 1.633631896972656250e+01 -7.508140057325363159e-02 -6.238440871238708496e-01 4.423514902591705322e-01 -5.444777011871337891e-02 -8.440843224525451660e-01
2.320000000000000000e+02 1.734946823120117188e+01 -1.259847879409790039e+00 2.081006050109863281e+00 6.078153103590011597e-02 6.425362825393676758e-01 -2.402662998065352440e-03
2.330000000000000000e+02 1.634853553771972656e+01 5.308686494827270508e-01 3.074239790439605713e-01 1.215747356414794922e+00 4.569514095783233643e-01 -1.794757485389709473e+00
2.340000000000000000e+02 1.826785278320312500e+01 -7.616320252418518066e-02 4.239814281463623047e+00 5.913105487823486328e+00 3.045875787734985352e+00 -6.359139442443847656e+00
2.350000000000000000e+02 1.712294006347656250e+01 4.658801555633544922e-01 1.356618285179138184e+00 2.222810745239257812e+00 1.073828697204589844e+00 -3.171639204025268555e+00
2.360000000000000000e+02 1.751724243164062500e+01 -9.386408329010009766e-02 2.108225345611572266e+00 1.535693883895874023e+00 1.093175768852233887e+00 -2.900803804397583008e+00
2.370000000000000000e+02 1.752512741088867188e+01 4.452404677867889404e-01 1.972391128540039062e+00 3.134446144104003906e+00 1.532051205635070801e+00 -4.108876228332519531e+00
2.380000000000000000e+02 1.652157783508300781e+01 3.286686837673187256e-01 3.178174495697021484e-01 1.099168658256530762e+00 4.250958263874053955e-01 -1.789321303367614746e+00
2.390000000000000000e+02 1.751569747924804688e+01 1.719020456075668335e-01 2.191143035888671875e+00 2.425089597702026367e+00 1.384869813919067383e+00 -3.710061311721801758e+00
2.400000000000000000e+02 1.692482185363769531e+01 4.826194047927856445e-01 1.043472409248352051e+00 1.909419059753417969e+00 8.858674764633178711e-01 -2.744372606277465820e+00
2.410000000000000000e+02 1.626000785827636719e+01 -7.299566864967346191e-01 -2.600350141525268555e+00 2.351838164031505585e-02 -7.730495333671569824e-01 6.409077346324920654e-02
2.420000000000000000e+02 1.786339759826660156e+01 -1.285097718238830566e+00 3.389545679092407227e+00 1.565150916576385498e-01 1.063818216323852539e+00 5.042065382003784180e-01
2.430000000000000000e+02 1.795203399658203125e+01 -1.476282715797424316e+00 5.040887355804443359e+00 5.667880773544311523e-01 1.682302594184875488e+00 1.368902921676635742e+00
2.440000000000000000e+02 1.673424148559570312e+01 -2.302727937698364258e+00 3.627729654312133789e+00 5.652771592140197754e-01 1.257902026176452637e+00 1.132502317428588867e+00
2.450000000000000000e+02 1.703112411499023438e+01 -1.819676041603088379e+00 3.561249971389770508e+00 3.281750977039337158e-01 1.166827559471130371e+00 7.314284443855285645e-01
2.460000000000000000e+02 1.609679985046386719e+01 -2.974623143672943115e-01 -1.444156765937805176e+00 2.458339333534240723e-01 -3.594968616962432861e-01 -3.567511141300201416e-01
2.470000000000000000e+02 1.651313209533691406e+01 -1.532946586608886719e+00 2.325254917144775391e+00 3.328566253185272217e-02 7.075621485710144043e-01 1.179345622658729553e-01
2.480000000000000000e+02 1.595649242401123047e+01 -2.023080348968505859e+00 2.537616252899169922e+00 1.235956251621246338e-01 7.983635663986206055e-01 4.155467450618743896e-01
2.490000000000000000e+02 1.845417404174804688e+01 9.319580160081386566e-03 3.643686532974243164e+00 8.827869415283203125e+00 3.741466760635375977e+00 -7.119802474975585938e+00
2.500000000000000000e+02 1.806369781494140625e+01 -1.653662681579589844e+00 5.950378417968750000e+00 1.923070311546325684e+00 2.362034797668457031e+00 2.726852893829345703e+00
2.510000000000000000e+02 1.672599029541015625e+01 -5.210357308387756348e-01 -1.132477641105651855e+00 1.284746527671813965e-01 -3.012008965015411377e-01 -4.121021628379821777e-01
2.520000000000000000e+02 1.727367210388183594e+01 -3.374540507793426514e-01 9.387869238853454590e-01 5.710723400115966797e-01 4.529577791690826416e-01 -1.520263671875000000e+00
2.530000000000000000e+02 1.745869445800781250e+01 -1.617022871971130371e+00 3.895276784896850586e+00 3.796986639499664307e-01 1.282492637634277344e+00 8.103990554809570312e-01
2.540000000000000000e+02 1.697650146484375000e+01 -1.208892107009887695e+00 1.748492836952209473e+00 -1.522848149761557579e-03 5.240910053253173828e-01 -3.102682344615459442e-02
2.550000000000000000e+02 1.772035789489746094e+01 -2.153924703598022461e+00 4.879820346832275391e+00 2.032062530517578125e+00 2.073564767837524414e+00 2.507176876068115234e+00
2.560000000000000000e+02 1.641653442382812500e+01 -2.009490013122558594e+00 3.021247625350952148e+00 2.035505026578903198e-01 9.674394130706787109e-01 6.032700538635253906e-01
2.570000000000000000e+02 1.600046539306640625e+01 -1.390013694763183594e+00 1.837265014648437500e+00 9.486122988164424896e-03 5.540253520011901855e-01 -2.747035585343837738e-02
2.580000000000000000e+02 1.772963905334472656e+01 -7.775481045246124268e-02 2.854103803634643555e+00 2.161395549774169922e+00 1.504649758338928223e+00 -3.736962318420410156e+00
2.590000000000000000e+02 1.663778877258300781e+01 -1.990036129951477051e+00 3.238936185836791992e+00 2.913725674152374268e-01 1.059092640876770020e+00 6.904842257499694824e-01
2.600000000000000000e+02 1.702001762390136719e+01 -3.233826756477355957e-01 1.537497192621231079e-01 4.483634531497955322e-01 1.806339621543884277e-01 -1.150008559226989746e+00
2.610000000000000000e+02 1.686751747131347656e+01 2.239943891763687134e-01 8.431885838508605957e-01 1.227917790412902832e+00 6.213319301605224609e-01 -2.182902336120605469e+00
2.620000000000000000e+02 1.681383705139160156e+01 -3.976590186357498169e-02 3.636424541473388672e-01 7.353100776672363281e-01 3.296857476234436035e-01 -1.531177639961242676e+00
2.630000000000000000e+02 1.668190574645996094e+01 -1.798959612846374512e+00 3.037294626235961914e+00 1.584152132272720337e-01 9.587129354476928711e-01 4.843249320983886719e-01
2.640000000000000000e+02 1.677746582031250000e+01 -2.908897399902343750e-01 -3.500571250915527344e-01 3.414019644260406494e-01 -2.596545964479446411e-03 -9.294746518135070801e-01
2.650000000000000000e+02 1.692877578735351562e+01 -2.288597345352172852e+00 3.792472600936889648e+00 7.349306941032409668e-01 1.358220934867858887e+00 1.302647471427917480e+00
2.660000000000000000e+02 1.621993064880371094e+01 -1.785630822181701660e+00 2.528817892074584961e+00 7.650408148765563965e-02 7.815966010093688965e-01 2.715530097484588623e-01
2.670000000000000000e+02 1.624521064758300781e+01 -1.555536866188049316e+00 2.183718442916870117e+00 3.308264911174774170e-02 6.650403141975402832e-01 8.730206638574600220e-02
2.680000000000000000e+02 1.599483299255371094e+01 -1.594842076301574707e+00 2.091653347015380859e+00 1.814100332558155060e-02 6.329383254051208496e-01 9.960976243019104004e-02
2.690000000000000000e+02 1.600867462158203125e+01 -1.186461448669433594e+00 1.456387996673583984e+00 -2.237214334309101105e-02 4.302047491073608398e-01 -5.816796049475669861e-02
2.700000000000000000e+02 1.636582565307617188e+01 -1.222068071365356445e+00 1.662695407867431641e+00 2.174893207848072052e-02 5.053333044052124023e-01 -4.721581563353538513e-02
2.710000000000000000e+02 1.710475921630859375e+01 -2.035371065139770508e+00 3.921046018600463867e+00 6.124165654182434082e-01 1.360038757324218750e+00 1.179951190948486328e+00
2.720000000000000000e+02 1.812456893920898438e+01 -1.975505471229553223e+00 5.688380718231201172e+00 3.787081480026245117e+00 2.842638731002807617e+00 3.623813867568969727e+00
2.730000000000000000e+02 1.629580879211425781e+01 -5.050978064537048340e-01 -1.760946869850158691e+00 1.296111941337585449e-01 -4.894006848335266113e-01 -1.511197984218597412e-01
2.740000000000000000e+02 1.705415916442871094e+01 -8.020986318588256836e-01 -1.896851062774658203e+00 4.408245533704757690e-02 -5.558305978775024414e-01 1.236079260706901550e-02
2.750000000000000000e+02 1.722363471984863281e+01 -8.096600770950317383e-01 -1.445221900939941406e+00 4.625450447201728821e-02 -4.196902215480804443e-01 -1.150329783558845520e-01
2.760000000000000000e+02 1.632271385192871094e+01 -2.868958115577697754e-01 -1.150271534919738770e+00 2.502933144569396973e-01 -2.699934542179107666e-01 -5.239326953887939453e-01
2.770000000000000000e+02 1.613683509826660156e+01 3.275470733642578125e-01 -2.842959761619567871e-01 8.711504936218261719e-01 1.760563552379608154e-01 -1.159269094467163086e+00
2.780000000000000000e+02 1.668359565734863281e+01 2.858525812625885010e-01 5.455242395401000977e-01 1.164257287979125977e+00 5.129344463348388672e-01 -1.953511834144592285e+00
2.790000000000000000e+02 1.673365020751953125e+01 5.055532455444335938e-01 8.165236115455627441e-01 1.556943774223327637e+00 7.120402455329895020e-01 -2.400686740875244141e+00
2.800000000000000000e+02 1.732574272155761719e+01 -5.716195702552795410e-01 6.186914630234241486e-03 2.724840044975280762e-01 8.360127359628677368e-02 -7.884935736656188965e-01
2.810000000000000000e+02 1.656899261474609375e+01 -1.267992258071899414e+00 1.800419807434082031e+00 1.167326327413320541e-02 5.436279177665710449e-01 -2.761749923229217529e-02
2.820000000000000000e+02 1.708611869812011719e+01 1.971998661756515503e-01 1.235611200332641602e+00 1.531435370445251465e+00 8.301140069961547852e-01 -2.568428039550781250e+00
2.830000000000000000e+02 1.730256652832031250e+01 1.808395832777023315e-01 1.697952985763549805e+00 1.848036766052246094e+00 1.063796877861022949e+00 -3.045998811721801758e+00
2.840000000000000000e+02 1.772694778442382812e+01 1.675692647695541382e-01 2.589916467666625977e+00 3.006625652313232422e+00 1.678962588310241699e+00 -4.285621166229248047e+00
2.850000000000000000e+02 1.721301078796386719e+01 -1.024419903755187988e+00 1.067299365997314453e+00 2.131809107959270477e-02 3.265852332115173340e-01 -3.639909997582435608e-02
2.860000000000000000e+02 1.752398872375488281e+01 -1.299269437789916992e+00 2.696569204330444336e+00 3.781049698591232300e-02 8.203138709068298340e-01 8.838357776403427124e-02
2.870000000000000000e+02 1.761388969421386719e+01 -1.063274145126342773e+00 1.214074373245239258e+00 -1.841893047094345093e-02 3.586966395378112793e-01 2.182267978787422180e-02
2.880000000000000000e+02 1.765553283691406250e+01 -1.441332101821899414e+00 3.744072198867797852e+00 1.960926055908203125e-01 1.182049393653869629e+00 6.113888621330261230e-01
2.890000000000000000e+02 1.813114166259765625e+01 4.268991053104400635e-01 2.171200275421142578e+00 6.422042369842529297e+00 2.577972888946533203e+00 -5.780440807342529297e+00
2.900000000000000000e+02 1.794801521301269531e+01 1.495487093925476074e-01 3.093627691268920898e+00 4.239362239837646484e+00 2.199897050857543945e+00 -5.207152843475341797e+00
2.910000000000000000e+02 1.816976928710937500e+01 1.584477573633193970e-01 3.216828584671020508e+00 5.932456016540527344e+00 2.744785308837890625e+00 -5.999461174011230469e+00
2.920000000000000000e+02 1.944688606262207031e+01 1.237525567412376404e-01 2.539870738983154297e+00 1.549375343322753906e+01 5.410087585449218750e+00 -1.876381397247314453e+00
2.930000000000000000e+02 1.973331069946289062e+01 1.434249132871627808e-01 3.336033105850219727e+00 1.387593650817871094e+01 5.163590908050537109e+00 -7.426337003707885742e-01
2.940000000000000000e+02 2.000304985046386719e+01 -1.234417185187339783e-01 5.609296798706054688e+00 1.218761253356933594e+01 5.339072704315185547e+00 2.048296183347702026e-01
2.950000000000000000e+02 2.011631584167480469e+01 -2.727909088134765625e-01 6.740856647491455078e+00 1.104232788085937500e+01 5.334955215454101562e+00 1.659013330936431885e-01
2.960000000000000000e+02 2.031882095336914062e+01 -1.307021498680114746e+00 9.231217384338378906e+00 9.074112892150878906e+00 5.491599082946777344e+00 -3.514900207519531250e+00
2.970000000000000000e+02 2.012588882446289062e+01 -1.424786329269409180e+00 9.459085464477539062e+00 1.051481056213378906e+01 5.992168903350830078e+00 -4.053024291992187500e+00
2.980000000000000000e+02 2.017685699462890625e+01 -1.608709692955017090e+00 8.439037322998046875e+00 1.053288936614990234e+01 5.691577911376953125e+00 -4.359065532684326172e+00
2.990000000000000000e+02 1.975568199157714844e+01 -1.716459631919860840e+00 7.174656867980957031e+00 1.362170600891113281e+01 6.238908767700195312e+00 -4.083236217498779297e+00
3.000000000000000000e+02 1.902007865905761719e+01 -2.029244661331176758e+00 3.440798759460449219e+00 1.385105228424072266e+01 5.187555313110351562e+00 2.147819757461547852e+00
3.010000000000000000e+02 1.929546737670898438e+01 -2.340035200119018555e+00 3.186326742172241211e+00 1.218417739868164062e+01 4.611151218414306641e+00 2.082745879888534546e-01
3.020000000000000000e+02 1.913939666748046875e+01 -2.397970199584960938e+00 3.091315269470214844e+00 1.180552673339843750e+01 4.469052314758300781e+00 9.545832276344299316e-01
3.030000000000000000e+02 1.898043441772460938e+01 -2.408607959747314453e+00 3.188149690628051758e+00 1.110960865020751953e+01 4.289327621459960938e+00 1.801962971687316895e+00
3.040000000000000000e+02 1.814904022216796875e+01 -2.338331937789916992e+00 4.695408344268798828e+00 4.795246124267578125e+00 2.847196340560913086e+00 3.437950372695922852e+00
3.050000000000000000e+02 1.811757850646972656e+01 -2.147389888763427734e+00 5.055891990661621094e+00 4.266161441802978516e+00 2.796616077423095703e+00 3.460150480270385742e+00
3.060000000000000000e+02 1.811064910888671875e+01 -2.191386371850967407e-01 4.448798656463623047e+00 3.634430170059204102e+00 2.424968719482421875e+00 -5.247833728790283203e+00
3.070000000000000000e+02 1.862560272216796875e+01 6.614826619625091553e-02 2.796846866607666016e+00 1.133812904357910156e+01 4.240492820739746094e+00 -6.985356330871582031e+00
3.080000000000000000e+02 1.776634025573730469e+01 -1.624672651290893555e+00 4.903046131134033203e+00 7.788209319114685059e-01 1.704560160636901855e+00 1.496404409408569336e+00
3.090000000000000000e+02 1.788824844360351562e+01 -1.785843133926391602e+00 5.364116668701171875e+00 1.629326581954956055e+00 2.098032951354980469e+00 2.299507141113281250e+00
3.100000000000000000e+02 1.793763160705566406e+01 -1.958662390708923340e+00 5.560852050781250000e+00 2.559196949005126953e+00 2.436014652252197266e+00 2.999168872833251953e+00
3.110000000000000000e+02 1.890831565856933594e+01 -2.211571693420410156e+00 3.453075647354125977e+00 1.159255123138427734e+01 4.513688087463378906e+00 2.642803668975830078e+00
3.120000000000000000e+02 1.954563713073730469e+01 -3.291796892881393433e-02 3.595362186431884766e+00 1.579686260223388672e+01 5.817667484283447266e+00 -6.604627966880798340e-01
3.130000000000000000e+02 1.916651916503906250e+01 -2.232439279556274414e+00 3.146544694900512695e+00 1.281406497955322266e+01 4.788182735443115234e+00 8.130823969841003418e-01
3.140000000000000000e+02 1.793308448791503906e+01 -2.148283243179321289e+00 5.179700374603271484e+00 3.179577350616455078e+00 2.507783174514770508e+00 3.132849216461181641e+00
3.150000000000000000e+02 1.773579597473144531e+01 -1.953599572181701660e+00 5.005444049835205078e+00 1.582168579101562500e+00 1.976283788681030273e+00 2.153744697570800781e+00
3.160000000000000000e+02 1.654389572143554688e+01 1.554222553968429565e-01 1.947631686925888062e-01 8.220944404602050781e-01 3.050572872161865234e-01 -1.527888417243957520e+00
3.170000000000000000e+02 1.657247543334960938e+01 -4.626635462045669556e-02 -1.511951237916946411e-01 5.911102890968322754e-01 1.319745630025863647e-01 -1.203306436538696289e+00
3.180000000000000000e+02 1.705063247680664062e+01 -6.560219824314117432e-02 9.167832136154174805e-01 8.999811410903930664e-01 5.450292825698852539e-01 -1.923076510429382324e+00
3.190000000000000000e+02 1.728438377380371094e+01 -8.255830407142639160e-02 1.430850744247436523e+00 1.196864128112792969e+00 7.883144617080688477e-01 -2.378725767135620117e+00
3.200000000000000000e+02 1.736245536804199219e+01 -1.444612741470336914e+00 3.251050710678100586e+00 6.685858964920043945e-02 9.953728318214416504e-01 3.626881539821624756e-01
3.210000000000000000e+02 1.706101799011230469e+01 -1.437895417213439941e+00 2.643614292144775391e+00 5.279815569519996643e-02 8.089237213134765625e-01 1.454813778400421143e-01
3.220000000000000000e+02 1.679323959350585938e+01 -1.232198834419250488e+00 1.786749362945556641e+00 1.412657275795936584e-02 5.402627587318420410e-01 -3.104854188859462738e-02
3.230000000000000000e+02 1.687973976135253906e+01 -1.377149462699890137e+00 2.228308439254760742e+00 2.641629613935947418e-02 6.764174103736877441e-01 5.019154399633407593e-02
3.240000000000000000e+02 1.750795364379882812e+01 -3.319659829139709473e-01 1.847500681877136230e+00 9.171331524848937988e-01 8.293901681900024414e-01 -2.147984266281127930e+00
3.250000000000000000e+02 1.682777595520019531e+01 -1.909323334693908691e+00 3.363247394561767578e+00 2.577870190143585205e-01 1.086310267448425293e+00 7.177717089653015137e-01
3.260000000000000000e+02 1.725447845458984375e+01 -1.741513848304748535e+00 3.852705240249633789e+00 3.159229755401611328e-01 1.250588417053222656e+00 8.211182355880737305e-01
3.270000000000000000e+02 1.645711135864257812e+01 -1.777494072914123535e+00 2.783193349838256836e+00 9.181027859449386597e-02 8.625010848045349121e-01 3.325072228908538818e-01
3.280000000000000000e+02 1.676848411560058594e+01 -1.578835606575012207e+00 2.724879026412963867e+00 7.080964744091033936e-02 8.387065529823303223e-01 2.317083328962326050e-01
3.290000000000000000e+02 1.695209884643554688e+01 -5.573338866233825684e-01 -8.191612958908081055e-01 1.306476742029190063e-01 -2.065540850162506104e-01 -5.165480375289916992e-01
3.300000000000000000e+02 1.654921531677246094e+01 -2.808745801448822021e-01 -7.156656384468078613e-01 3.116216957569122314e-01 -1.212131828069686890e-01 -7.056177258491516113e-01
3.310000000000000000e+02 1.718266296386718750e+01 -1.550697207450866699e+00 3.194883346557617188e+00 1.678778380155563354e-01 1.008828401565551758e+00 4.023345112800598145e-01
3.320000000000000000e+02 1.506327152252197266e+01 -8.831968531012535095e-03 -2.104252338409423828e+00 1.995258778333663940e-01 -5.714179873466491699e-01 -1.368040591478347778e-01
3.330000000000000000e+02 1.420136165618896484e+01 5.162845849990844727e-01 -1.782544612884521484e+00 1.930717229843139648e-01 -4.768418669700622559e-01 -1.194736585021018982e-01
3.340000000000000000e+02 1.400118732452392578e+01 -2.044020295143127441e-01 -3.169232845306396484e+00 -5.131770670413970947e-02 -9.661651253700256348e-01 3.547606766223907471e-01
3.350000000000000000e+02 1.538434600830078125e+01 -3.218433558940887451e-01 -2.415905714035034180e+00 8.816246688365936279e-02 -6.983230113983154297e-01 1.002366021275520325e-01
3.360000000000000000e+02 1.461059284210205078e+01 -3.734866380691528320e-01 -3.079347848892211914e+00 -8.067681640386581421e-02 -9.480074048042297363e-01 3.699631094932556152e-01
3.370000000000000000e+02 1.546986865997314453e+01 4.339480996131896973e-01 -8.609900474548339844e-01 6.363021731376647949e-01 -6.740636378526687622e-02 -8.396002650260925293e-01
3.380000000000000000e+02 1.584442138671875000e+01 3.468579351902008057e-01 -4.972603321075439453e-01 5.497382283210754395e-01 1.574336737394332886e-02 -9.712510704994201660e-01
3.390000000000000000e+02 1.347519969940185547e+01 6.037764549255371094e-01 -2.129776477813720703e+00 1.309196352958679199e-01 -5.996570587158203125e-01 1.286818832159042358e-01
3.400000000000000000e+02 1.333856773376464844e+01 -1.248825266957283020e-01 -3.221001863479614258e+00 -4.045113921165466309e-03 -9.675140976905822754e-01 4.033377468585968018e-01
3.410000000000000000e+02 1.493105506896972656e+01 4.856469929218292236e-01 -1.346791028976440430e+00 4.186560511589050293e-01 -2.784404754638671875e-01 -4.875747561454772949e-01
3.420000000000000000e+02 1.576030921936035156e+01 -2.625505626201629639e-01 -1.924986600875854492e+00 2.874386906623840332e-01 -4.912643730640411377e-01 -2.027021199464797974e-01
3.430000000000000000e+02 1.574546146392822266e+01 -4.752478301525115967e-01 -2.398242473602294922e+00 9.844755381345748901e-02 -6.899384856224060059e-01 1.111741438508033752e-01
3.440000000000000000e+02 1.579035949707031250e+01 -5.409984663128852844e-02 -1.344226717948913574e+00 4.227090179920196533e-01 -2.764553129673004150e-01 -5.080680251121520996e-01
3.450000000000000000e+02 1.577852535247802734e+01 5.699904561042785645e-01 -4.437288641929626465e-01 7.672353386878967285e-01 9.705194085836410522e-02 -1.183513164520263672e+00
3.460000000000000000e+02 1.583876705169677734e+01 1.426810026168823242e-01 -7.641317844390869141e-01 5.583136081695556641e-01 -6.174545735120773315e-02 -7.958593964576721191e-01
3.470000000000000000e+02 1.550805091857910156e+01 1.261813044548034668e-01 -1.254438281059265137e+00 4.398120641708374023e-01 -2.443878650665283203e-01 -5.636720061302185059e-01
3.480000000000000000e+02 1.567504024505615234e+01 -6.832272410392761230e-01 -2.850161790847778320e+00 -2.747083827853202820e-02 -8.632897734642028809e-01 2.843043506145477295e-01
3.490000000000000000e+02 1.513991069793701172e+01 -5.697146654129028320e-01 -3.010737657546997070e+00 -1.860806159675121307e-02 -9.088037610054016113e-01 4.093824923038482666e-01
3.500000000000000000e+02 1.115022563934326172e+01 2.165033817291259766e-01 -3.335291385650634766e+00 -8.336115628480911255e-02 -1.025595784187316895e+00 5.596292018890380859e-01
3.510000000000000000e+02 1.122651290893554688e+01 9.537453055381774902e-01 -2.377624034881591797e+00 -6.415012478828430176e-02 -7.325322628021240234e-01 3.846561014652252197e-01
3.520000000000000000e+02 1.040434932708740234e+01 3.321511745452880859e-01 -3.405750989913940430e+00 -1.532376557588577271e-01 -1.067696571350097656e+00 4.905121922492980957e-01
3.530000000000000000e+02 1.189680099487304688e+01 9.631319344043731689e-02 -3.334468603134155273e+00 -8.245876431465148926e-02 -1.025078177452087402e+00 5.433477163314819336e-01
3.540000000000000000e+02 1.274307727813720703e+01 7.053368687629699707e-01 -2.291072607040405273e+00 1.081294193863868713e-01 -6.548829078674316406e-01 2.300263643264770508e-01
3.550000000000000000e+02 1.264393043518066406e+01 -2.822761237621307373e-02 -3.278052330017089844e+00 -2.990492060780525208e-02 -9.923871755599975586e-01 4.911046326160430908e-01
3.560000000000000000e+02 1.046920776367187500e+01 1.071231842041015625e+00 -2.224714756011962891e+00 -1.538651287555694580e-01 -7.135739922523498535e-01 4.192452430725097656e-01
3.570000000000000000e+02 1.198451900482177734e+01 8.317164182662963867e-01 -2.329606056213378906e+00 3.428312391042709351e-02 -6.885969042778015137e-01 3.375428915023803711e-01
3.580000000000000000e+02 8.874713897705078125e+00 3.907073438167572021e-01 -2.675492525100708008e+00 -7.227821741253137589e-03 -8.048161268234252930e-01 2.043295800685882568e-01
3.590000000000000000e+02 9.645540237426757812e+00 3.903963863849639893e-01 -3.180599927902221680e+00 -1.066595017910003662e-01 -9.861778020858764648e-01 3.124856352806091309e-01
3.600000000000000000e+02 7.374577522277832031e+00 1.131132245063781738e+00 -1.567780137062072754e+00 -2.120916917920112610e-02 -4.766967892646789551e-01 4.592812061309814453e-01
3.610000000000000000e+02 7.331357002258300781e+00 3.911322057247161865e-01 -1.932006478309631348e+00 -2.807990880683064461e-03 -5.804443359375000000e-01 1.735139638185501099e-01
3.620000000000000000e+02 5.045433998107910156e+00 1.131745219230651855e+00 -8.519033789634704590e-01 -2.721660025417804718e-02 -2.637360095977783203e-01 3.941325247287750244e-01
3.630000000000000000e+02 2.715631723403930664e+00 1.131616950035095215e+00 -2.871819138526916504e-01 -6.347870826721191406e-02 -1.051981896162033081e-01 2.362210601568222046e-01
3.640000000000000000e+02 2.699708461761474609e+00 3.916168808937072754e-01 -2.362558245658874512e-01 -1.419744547456502914e-02 -7.513598352670669556e-02 8.452486991882324219e-02
3.650000000000000000e+02 1.939137935638427734e+00 1.131583452224731445e+00 -1.590446829795837402e-01 -7.526420801877975464e-02 -7.029266655445098877e-02 1.579399555921554565e-01
3.660000000000000000e+02 1.927764058113098145e+00 3.915834426879882812e-01 -9.703258424997329712e-02 -1.778468117117881775e-02 -3.444518148899078369e-02 5.162327736616134644e-02
3.670000000000000000e+02 1.156864285469055176e+00 3.912966847419738770e-01 -2.441281825304031372e-02 -1.394574251025915146e-02 -1.150756794959306717e-02 1.916920021176338196e-02
3.680000000000000000e+02 3.880036771297454834e-01 1.130522727966308594e+00 -1.309621240943670273e-02 -2.117784880101680756e-02 -1.028221845626831055e-02 1.744123920798301697e-02
3.690000000000000000e+02 3.857289254665374756e-01 3.905227184295654297e-01 -2.480431692674756050e-03 -2.322075655683875084e-03 -1.440752181224524975e-03 2.321845386177301407e-03
3.700000000000000000e+02 4.243989944458007812e+00 3.916435539722442627e-01 -6.807073950767517090e-01 -9.024803526699542999e-03 -2.069196701049804688e-01 1.309207230806350708e-01
3.710000000000000000e+02 3.472155570983886719e+00 3.916060328483581543e-01 -4.352400600910186768e-01 -1.136015169322490692e-02 -1.339800655841827393e-01 1.103209704160690308e-01
3.720000000000000000e+02 4.269012451171875000e+00 1.131643533706665039e+00 -6.392425298690795898e-01 -3.887845575809478760e-02 -2.034363001585006714e-01 3.569443225860595703e-01
3.730000000000000000e+02 5.015861988067626953e+00 3.917452692985534668e-01 -9.618092775344848633e-01 -6.582135800272226334e-03 -2.905174195766448975e-01 1.461890041828155518e-01
3.740000000000000000e+02 5.788088321685791016e+00 3.919011354446411133e-01 -1.267921209335327148e+00 -4.566128365695476532e-03 -3.817462027072906494e-01 1.570449471473693848e-01
3.750000000000000000e+02 6.598729610443115234e+00 1.131563067436218262e+00 -1.321660280227661133e+00 -1.501087937504053116e-02 -4.010013639926910400e-01 4.403146207332611084e-01
3.760000000000000000e+02 6.560058593750000000e+00 3.915631175041198730e-01 -1.592284917831420898e+00 -5.207550246268510818e-03 -4.792477190494537354e-01 1.659735143184661865e-01
3.770000000000000000e+02 8.103197097778320312e+00 3.908808529376983643e-01 -2.289388656616210938e+00 -1.115605793893337250e-02 -6.901633739471435547e-01 1.860995590686798096e-01
3.780000000000000000e+02 8.150966644287109375e+00 1.130880832672119141e+00 -1.809626102447509766e+00 -1.918689347803592682e-02 -5.486438870429992676e-01 4.719176590442657471e-01
3.790000000000000000e+02 8.927033424377441406e+00 1.130707383155822754e+00 -2.056033372879028320e+00 -7.359247654676437378e-02 -6.388877034187316895e-01 5.251488685607910156e-01
3.800000000000000000e+02 9.702409744262695312e+00 1.130396366119384766e+00 -2.110631942749023438e+00 -1.645645648241043091e-01 -6.825589537620544434e-01 5.296089053153991699e-01
3.810000000000000000e+02 5.822209835052490234e+00 1.131901144981384277e+00 -1.081665039062500000e+00 -2.219201996922492981e-02 -3.311571180820465088e-01 4.220635890960693359e-01
3.820000000000000000e+02 3.492628335952758789e+00 1.131605982780456543e+00 -4.474879801273345947e-01 -5.209485441446304321e-02 -1.498748511075973511e-01 3.045722544193267822e-01
3.830000000000000000e+02 1.163688659667968750e+00 1.131296634674072266e+00 -6.474077701568603516e-02 -6.712658703327178955e-02 -3.956020995974540710e-02 7.497429847717285156e-02
3.840000000000000000e+02 1.400326251983642578e+01 -9.973704218864440918e-01 9.005525112152099609e-01 -1.349740941077470779e-02 2.661165297031402588e-01 -3.205749019980430603e-02
3.850000000000000000e+02 1.326867008209228516e+01 -9.036783576011657715e-01 7.419035434722900391e-01 3.585245227441191673e-03 2.236466407775878906e-01 -1.274055615067481995e-02
3.860000000000000000e+02 1.571550464630126953e+01 -1.983834385871887207e+00 2.336742639541625977e+00 4.719716031104326248e-03 7.024387121200561523e-01 3.323861360549926758e-01
3.870000000000000000e+02 1.313092327117919922e+01 -1.632197618484497070e+00 1.058852434158325195e+00 -3.467255085706710815e-02 3.072539567947387695e-01 1.325961649417877197e-01
3.880000000000000000e+02 1.438090896606445312e+01 -1.883116245269775391e+00 1.604502320289611816e+00 -4.517331719398498535e-02 4.677986800670623779e-01 1.848732829093933105e-01
3.890000000000000000e+02 1.475551223754882812e+01 -1.574171066284179688e+00 1.512728452682495117e+00 -2.355629578232765198e-02 4.467516541481018066e-01 8.420790731906890869e-02
3.900000000000000000e+02 1.573537826538085938e+01 -1.421415448188781738e+00 1.725157737731933594e+00 6.388744711875915527e-02 5.367135405540466309e-01 1.983582414686679840e-02
3.910000000000000000e+02 1.559072780609130859e+01 -2.187675237655639648e+00 2.467822313308715820e+00 4.895184561610221863e-02 7.550322413444519043e-01 4.562261104583740234e-01
3.920000000000000000e+02 1.575633907318115234e+01 -1.803784489631652832e+00 2.182517766952514648e+00 2.442239783704280853e-02 6.620820164680480957e-01 2.017415314912796021e-01
3.930000000000000000e+02 1.523934650421142578e+01 -1.535990595817565918e+00 1.584212660789489746e+00 -5.327302962541580200e-03 4.736655950546264648e-01 7.834880053997039795e-02
3.940000000000000000e+02 1.555198287963867188e+01 -1.575098991394042969e+00 1.824716567993164062e+00 1.753816381096839905e-02 5.526764392852783203e-01 1.084997877478599548e-01
3.950000000000000000e+02 1.570492362976074219e+01 -1.207571506500244141e+00 1.482753992080688477e+00 8.083751052618026733e-02 4.690774381160736084e-01 -5.938928946852684021e-02
3.960000000000000000e+02 1.529618358612060547e+01 -1.934805274009704590e+00 2.100929021835327148e+00 2.726588770747184753e-02 6.384584307670593262e-01 2.876207828521728516e-01
3.970000000000000000e+02 1.555845832824707031e+01 -1.821178317070007324e+00 2.095555067062377930e+00 -9.690850041806697845e-03 6.257592439651489258e-01 2.440863698720932007e-01
3.980000000000000000e+02 1.576578998565673828e+01 -1.611070752143859863e+00 2.055132627487182617e+00 3.758045285940170288e-02 6.278139352798461914e-01 9.888861328363418579e-02
3.990000000000000000e+02 1.563986682891845703e+01 -9.550147056579589844e-01 1.111407876014709473e+00 3.603614121675491333e-02 3.442331850528717041e-01 -1.073612198233604431e-01
4.000000000000000000e+02 1.473659801483154297e+01 -1.046429753303527832e+00 1.035482406616210938e+00 -7.346318103373050690e-03 3.084408044815063477e-01 -6.403603404760360718e-02
4.010000000000000000e+02 1.487631893157958984e+01 -2.008020639419555664e+00 1.961607933044433594e+00 7.808479946106672287e-03 5.908249020576477051e-01 2.838084399700164795e-01
4.020000000000000000e+02 1.529831695556640625e+01 -1.135904431343078613e+00 1.245859861373901367e+00 -2.766093239188194275e-02 3.654596805572509766e-01 -8.401442319154739380e-02
4.030000000000000000e+02 1.379974651336669922e+01 -1.717637896537780762e+00 1.307446002960205078e+00 -2.716105990111827850e-02 3.840854763984680176e-01 1.390230357646942139e-01
4.040000000000000000e+02 1.092641353607177734e+01 -1.991483211517333984e+00 7.068778276443481445e-01 -2.439106442034244537e-02 2.047460377216339111e-01 2.323595285415649414e-01
4.050000000000000000e+02 4.199880123138427734e+00 -1.933589339256286621e+00 2.111011743545532227e-02 3.085825592279434204e-02 1.559051219373941422e-02 5.710994359105825424e-03
4.060000000000000000e+02 5.984411239624023438e-01 -1.069939327239990234e+01 -3.372591361403465271e-02 -2.615329623222351074e-01 -8.857765793800354004e-02 -6.551716476678848267e-02
4.070000000000000000e+02 9.882081985473632812e+00 -1.650265693664550781e+01 2.282917022705078125e+00 1.068272471427917480e+00 1.005356788635253906e+00 1.806482315063476562e+00
4.080000000000000000e+02 1.130746746063232422e+01 -1.618782806396484375e+01 2.615345828235149384e-02 5.203119516372680664e-01 1.639396250247955322e-01 9.226370453834533691e-01
4.090000000000000000e+02 1.272669601440429688e+01 -1.615544128417968750e+01 -2.200843572616577148e+00 -3.110234439373016357e-01 -7.535600662231445312e-01 8.889876604080200195e-01
4.100000000000000000e+02 1.602698326110839844e+01 -1.570724582672119141e+01 -2.210525035858154297e+00 -2.948798537254333496e-01 -7.516214847564697266e-01 1.043871879577636719e+00
4.110000000000000000e+02 1.823716735839843750e+01 -1.424939346313476562e+01 -1.377456903457641602e+00 4.256107509136199951e-01 -2.855538427829742432e-01 7.792742848396301270e-01
4.120000000000000000e+02 1.422829055786132812e+01 -2.388965845108032227e+00 1.781623721122741699e+00 -8.303367532789707184e-03 5.319961309432983398e-01 4.021953940391540527e-01
4.130000000000000000e+02 1.300751781463623047e+01 -2.256718635559082031e+00 1.324723720550537109e+00 -3.711954876780509949e-02 3.862812519073486328e-01 3.170804977416992188e-01
4.140000000000000000e+02 1.226355648040771484e+01 -2.722800254821777344e+00 1.225518226623535156e+00 -2.173731103539466858e-02 3.611342608928680420e-01 4.407148063182830811e-01
4.150000000000000000e+02 9.870295524597167969e+00 -1.349524211883544922e+01 -1.553331315517425537e-01 2.154616355895996094e+00 5.997849106788635254e-01 2.449661254882812500e+00
4.160000000000000000e+02 1.112305068969726562e+01 -1.393033027648925781e+01 -1.604857109487056732e-02 1.106626987457275391e+00 3.271735310554504395e-01 2.531413316726684570e+00
4.170000000000000000e+02 1.791849970817565918e+00 -1.072107315063476562e+01 -7.423958182334899902e-02 1.583529859781265259e-01 2.523401938378810883e-02 -1.287650913000106812e-01
4.180000000000000000e+02 7.430963039398193359e+00 -1.819996452331542969e+01 2.962852716445922852e+00 7.323754310607910156e+00 3.085982084274291992e+00 3.702506780624389648e+00
4.190000000000000000e+02 6.061810255050659180e-01 -1.773559188842773438e+01 2.339975535869598389e-02 -1.932856082916259766e+00 -5.728368759155273438e-01 -1.069226190447807312e-01
4.200000000000000000e+02 8.470233917236328125e+00 -1.710869407653808594e+01 3.738361120223999023e+00 4.669892787933349609e+00 2.522476196289062500e+00 3.242082357406616211e+00
4.210000000000000000e+02 6.016167640686035156e+00 -2.204297447204589844e+01 7.806548476219177246e-01 9.242488861083984375e+00 3.006942987442016602e+00 1.876542210578918457e+00
4.220000000000000000e+02 6.420643806457519531e+00 -2.082174873352050781e+01 1.159235477447509766e+00 9.512365341186523438e+00 3.201480388641357422e+00 2.835014104843139648e+00
4.230000000000000000e+02 5.553328990936279297e-01 -2.467886924743652344e+01 4.281087592244148254e-02 9.263948798179626465e-01 2.907617092132568359e-01 5.169922709465026855e-01
4.240000000000000000e+02 5.017009258270263672e+00 -2.323660850524902344e+01 8.013645410537719727e-01 6.676318645477294922e+00 2.243304967880249023e+00 1.612268686294555664e+00
4.250000000000000000e+02 7.626097202301025391e-01 -2.888975143432617188e+01 -4.335915297269821167e-02 4.694762706756591797e+00 1.395421147346496582e+00 4.530310332775115967e-01
4.260000000000000000e+02 7.126915454864501953e+00 -2.794050979614257812e+01 -1.235974550247192383e+00 1.944775879383087158e-01 -3.124490678310394287e-01 6.516153812408447266e-01
4.270000000000000000e+02 6.399325370788574219e+00 -2.679673194885253906e+01 -3.324965238571166992e-01 3.061522722244262695e+00 8.187078833580017090e-01 2.283361554145812988e-01
4.280000000000000000e+02 3.706303119659423828e+00 -2.768752288818359375e+01 -7.647008895874023438e-01 3.659428358078002930e+00 8.684182167053222656e-01 1.715848803520202637e+00
4.290000000000000000e+02 9.065999031066894531e+00 -3.004047393798828125e+01 -2.893061399459838867e+00 -1.329627633094787598e+00 -1.266806721687316895e+00 1.516617298126220703e+00
4.300000000000000000e+02 8.071184158325195312e+00 -2.897852897644042969e+01 -1.654020667076110840e+00 -8.156760334968566895e-01 -7.409090399742126465e-01 1.368346929550170898e+00
4.310000000000000000e+02 7.293880462646484375e+00 -2.987602615356445312e+01 -2.079134464263916016e+00 6.029811501502990723e-01 -4.428459703922271729e-01 6.915374994277954102e-01
4.320000000000000000e+02 3.115591287612915039e+00 -3.753755569458007812e+01 -5.041988566517829895e-02 3.928157329559326172e+00 1.163321256637573242e+00 -3.532741963863372803e-01
4.330000000000000000e+02 8.611290454864501953e-01 -3.725154876708984375e+01 -2.097783796489238739e-02 5.199126243591308594e+00 1.553444623947143555e+00 -1.771814227104187012e-01
4.340000000000000000e+02 7.158131599426269531e-01 -3.184306716918945312e+01 -1.046055555343627930e-01 5.718379974365234375e+00 1.684132337570190430e+00 1.372927576303482056e-01
4.350000000000000000e+02 8.248598098754882812e+00 -4.130502319335937500e+01 3.852382302284240723e-01 1.229668021202087402e+00 4.844718575477600098e-01 -2.741166576743125916e-02
4.360000000000000000e+02 1.029298496246337891e+01 -3.677281570434570312e+01 -1.125017628073692322e-01 9.167607873678207397e-02 -6.247704848647117615e-03 1.099672839045524597e-01
4.370000000000000000e+02 1.575731468200683594e+01 -3.186316108703613281e+01 -2.301224708557128906e+00 -1.352103501558303833e-01 -7.309305071830749512e-01 4.348351061344146729e-01
4.380000000000000000e+02 8.196894645690917969e+00 -3.091152572631835938e+01 -2.136314630508422852e+00 1.298240721225738525e-01 -6.019471883773803711e-01 4.721981287002563477e-01
4.390000000000000000e+02 1.654022216796875000e+01 -3.640055847167968750e+01 -6.034179925918579102e-01 -4.789067804813385010e-01 -3.246974349021911621e-01 3.526957035064697266e-01
4.400000000000000000e+02 1.551646804809570312e+01 -3.901165008544921875e+01 -2.140555903315544128e-02 -5.513826608657836914e-01 -1.718364655971527100e-01 2.507484555244445801e-01
4.410000000000000000e+02 1.868411064147949219e+01 -3.222154617309570312e+01 -1.912207365036010742e+00 -1.473908573389053345e-01 -6.178794503211975098e-01 8.205815404653549194e-02
4.420000000000000000e+02 1.717585754394531250e+01 -3.219629287719726562e+01 -2.108331680297851562e+00 -1.460141390562057495e-01 -6.763037443161010742e-01 2.567338645458221436e-01
4.430000000000000000e+02 2.401037597656250000e+01 -3.873817062377929688e+01 -4.415751099586486816e-01 3.613856732845306396e-01 -2.405683696269989014e-02 2.660582065582275391e-01
4.440000000000000000e+02 2.431486511230468750e+01 -3.497442626953125000e+01 -7.717775702476501465e-01 1.306535750627517700e-01 -1.923372000455856323e-01 2.749512791633605957e-01
4.450000000000000000e+02 2.985374641418457031e+01 -3.100617599487304688e+01 8.841535449028015137e-02 7.744162678718566895e-01 2.588494718074798584e-01 9.022464752197265625e-01
4.460000000000000000e+02 2.424023056030273438e+01 -3.169315147399902344e+01 -1.582442998886108398e+00 -2.403005259111523628e-03 -4.754537940025329590e-01 -1.053327992558479309e-01
4.470000000000000000e+02 3.109801292419433594e+01 -3.029134368896484375e+01 1.430362820625305176e+00 2.165264368057250977e+00 1.078688144683837891e+00 1.701485037803649902e+00
4.480000000000000000e+02 3.035811805725097656e+01 -3.513990783691406250e+01 -8.698661923408508301e-01 2.564092159271240234e+00 5.082677602767944336e-01 1.202881336212158203e+00
4.490000000000000000e+02 3.502817916870117188e+01 -3.843309402465820312e+01 -1.701747775077819824e+00 4.493895053863525391e+00 8.376441597938537598e-01 2.984552979469299316e-01
4.500000000000000000e+02 3.707410812377929688e+01 -3.654414367675781250e+01 -1.733575224876403809e+00 5.096309185028076172e+00 1.008820176124572754e+00 6.396053731441497803e-02
4.510000000000000000e+02 4.516656494140625000e+01 -2.920087814331054688e+01 2.031140476465225220e-01 3.167308092117309570e+00 1.011126637458801270e+00 -1.360416412353515625e+00
4.520000000000000000e+02 4.340638732910156250e+01 -2.053852844238281250e+01 6.884327530860900879e-01 4.534339904785156250e+00 1.566831707954406738e+00 -1.632672071456909180e+00
4.530000000000000000e+02 4.435020828247070312e+01 -1.994897842407226562e+01 9.918891191482543945e-01 2.362605810165405273e+00 1.006348490715026855e+00 -1.418323040008544922e+00
4.540000000000000000e+02 4.244680786132812500e+01 -1.771326828002929688e+01 1.612436532974243164e+00 9.842895507812500000e+00 3.436599493026733398e+00 -2.753396511077880859e+00
4.550000000000000000e+02 4.188309478759765625e+01 -1.631561279296875000e+01 1.079072713851928711e+00 1.311637306213378906e+01 4.258633613586425781e+00 -2.413338184356689453e+00
4.560000000000000000e+02 3.557312774658203125e+01 -2.199878120422363281e+01 7.345342040061950684e-01 1.528807067871093750e+01 4.806781768798828125e+00 2.251559682190418243e-02
4.570000000000000000e+02 3.516721343994140625e+01 -1.984890937805175781e+01 1.454650044441223145e+00 1.270923805236816406e+01 4.249166488647460938e+00 -1.836140155792236328e+00
4.580000000000000000e+02 3.622063827514648438e+01 -2.090816688537597656e+01 1.523259878158569336e+00 1.336216449737548828e+01 4.465627193450927734e+00 -1.951203793287277222e-01
4.590000000000000000e+02 3.540270233154296875e+01 -2.324100494384765625e+01 4.123642742633819580e-01 1.597403526306152344e+01 4.915919780731201172e+00 1.191161751747131348e+00
4.600000000000000000e+02 3.518613052368164062e+01 -2.451377868652343750e+01 1.870582342147827148e+00 1.713660812377929688e+01 5.702157020568847656e+00 2.760625839233398438e+00
4.610000000000000000e+02 3.482837295532226562e+01 -2.576044654846191406e+01 2.053666114807128906e+00 1.361175823211669922e+01 4.699627399444580078e+00 4.343629360198974609e+00
4.620000000000000000e+02 3.443955612182617188e+01 -2.696557426452636719e+01 2.197804450988769531e+00 9.870249748229980469e+00 3.620416164398193359e+00 3.995300531387329102e+00
4.630000000000000000e+02 3.223672866821289062e+01 -2.957829666137695312e+01 2.045261621475219727e+00 3.794472455978393555e+00 1.751920223236083984e+00 2.616643667221069336e+00
4.640000000000000000e+02 3.465262222290039062e+01 -2.847079658508300781e+01 1.523044109344482422e+00 8.203064918518066406e+00 2.917832612991333008e+00 2.469394683837890625e+00
4.650000000000000000e+02 3.545112609863281250e+01 -3.165516471862792969e+01 -7.752255797386169434e-01 6.413914680480957031e+00 1.691606640815734863e+00 7.506173849105834961e-01
4.660000000000000000e+02 4.075961685180664062e+01 -3.711698150634765625e+01 -1.516346096992492676e+00 4.729572772979736328e+00 9.639679789543151855e-01 -4.983516037464141846e-01
4.670000000000000000e+02 5.171527862548828125e+01 -2.973406791687011719e+01 -1.093170195817947388e-01 6.120701432228088379e-01 1.508259326219558716e-01 -2.779010534286499023e-01
4.680000000000000000e+02 5.302414321899414062e+01 -2.890288925170898438e+01 -1.376990228891372681e-01 1.075390353798866272e-01 -9.047998115420341492e-03 -6.082761567085981369e-03
4.690000000000000000e+02 5.317588043212890625e+01 -3.177988624572753906e+01 -6.407485604286193848e-01 6.743414402008056641e-01 1.007786020636558533e-02 -2.437712103128433228e-01
4.700000000000000000e+02 4.621632766723632812e+01 -2.361241912841796875e+01 6.710845232009887695e-01 1.533542871475219727e+00 6.613882184028625488e-01 -9.475242495536804199e-01
4.710000000000000000e+02 4.702976989746093750e+01 -4.070769500732421875e+01 -9.133675098419189453e-01 2.946841001510620117e+00 6.100420355796813965e-01 -2.758774757385253906e-01
4.720000000000000000e+02 5.058314514160156250e+01 -3.788411712646484375e+01 -4.671039581298828125e-01 1.707695364952087402e+00 3.721774220466613770e-01 -5.740140080451965332e-01
4.730000000000000000e+02 5.477806854248046875e+01 -3.095385169982910156e+01 -7.203561663627624512e-01 -8.939402550458908081e-02 -2.429250627756118774e-01 2.138289660215377808e-01
4.740000000000000000e+02 5.875205612182617188e+01 -3.793003082275390625e+01 1.668927222490310669e-01 1.287210583686828613e-01 8.868413418531417847e-02 -3.156950175762176514e-01
4.750000000000000000e+02 5.675268173217773438e+01 -3.556262588500976562e+01 -4.619824886322021484e-01 1.020640209317207336e-01 -1.079755425453186035e-01 -5.674721598625183105e-01
4.760000000000000000e+02 5.800071716308593750e+01 -3.270154190063476562e+01 -2.373315095901489258e+00 -2.064271867275238037e-01 -7.739226818084716797e-01 2.444405257701873779e-01
4.770000000000000000e+02 5.667509078979492188e+01 -3.235947036743164062e+01 -1.590648293495178223e+00 -2.067338526248931885e-01 -5.392146706581115723e-01 3.414025604724884033e-01
4.780000000000000000e+02 5.945057678222656250e+01 -3.294295883178710938e+01 -2.880927562713623047e+00 -1.605932116508483887e-01 -9.124562740325927734e-01 -3.310251608490943909e-02
4.790000000000000000e+02 5.680345535278320312e+01 -3.412658309936523438e+01 -1.116221785545349121e+00 1.862791366875171661e-02 -3.292781710624694824e-01 -4.438607692718505859e-01
4.800000000000000000e+02 5.517076492309570312e+01 -3.262403106689453125e+01 -9.712677001953125000e-01 1.551624238491058350e-01 -2.448315769433975220e-01 -7.475137244910001755e-03
4.810000000000000000e+02 6.266631317138671875e+01 -4.093053054809570312e+01 4.903059601783752441e-01 1.545558691024780273e+00 6.107594370841979980e-01 1.595033407211303711e-01
4.820000000000000000e+02 6.362814331054687500e+01 -3.172269630432128906e+01 -1.646601200103759766e+00 2.556286156177520752e-01 -4.172917604446411133e-01 -3.400587737560272217e-01
4.830000000000000000e+02 6.235447692871093750e+01 -3.242026138305664062e+01 -2.248312711715698242e+00 -1.335882693529129028e-01 -7.145702838897705078e-01 -5.984407663345336914e-01
4.840000000000000000e+02 6.094627761840820312e+01 -3.289498901367187500e+01 -2.781145334243774414e+00 -3.717323243618011475e-01 -9.458633065223693848e-01 -3.384353518486022949e-01
4.850000000000000000e+02 6.788593292236328125e+01 -3.817622756958007812e+01 -3.016628026962280273e-01 4.726533889770507812e+00 1.327461361885070801e+00 4.412285685539245605e-01
4.860000000000000000e+02 7.340509033203125000e+01 -3.639286422729492188e+01 -5.321549773216247559e-01 8.391590118408203125e+00 2.357830524444580078e+00 -3.729485869407653809e-01
4.870000000000000000e+02 7.929447937011718750e+01 -3.334194183349609375e+01 2.715717768296599388e-03 1.062227344512939453e+01 3.187496662139892578e+00 -2.016930580139160156e-01
4.880000000000000000e+02 7.815033721923828125e+01 -3.052682685852050781e+01 -7.574807852506637573e-02 9.454436302185058594e+00 2.813606500625610352e+00 -7.269775271415710449e-01
4.890000000000000000e+02 7.938014984130859375e+01 -2.640349388122558594e+01 1.550135016441345215e-02 7.691639900207519531e+00 2.312142372131347656e+00 -3.127309679985046387e-01
4.900000000000000000e+02 7.819748687744140625e+01 -2.363899612426757812e+01 9.782144427299499512e-02 7.317799091339111328e+00 2.224686145782470703e+00 -5.808712840080261230e-01
4.910000000000000000e+02 7.938671112060546875e+01 -2.227279090881347656e+01 4.522971063852310181e-02 6.057159423828125000e+00 1.830716729164123535e+00 -1.775433570146560669e-01
4.920000000000000000e+02 6.861369323730468750e+01 -1.487329578399658203e+01 9.567942619323730469e-01 1.749606132507324219e+01 5.535856246948242188e+00 -2.281545639038085938e+00
4.930000000000000000e+02 6.879277801513671875e+01 -1.764129829406738281e+01 7.651093602180480957e-02 1.586820030212402344e+01 4.783413410186767578e+00 -3.583570420742034912e-01
4.940000000000000000e+02 6.890183258056640625e+01 -2.174560737609863281e+01 7.557246834039688110e-02 1.480022239685058594e+01 4.462738513946533203e+00 -1.423445716500282288e-02
4.950000000000000000e+02 7.070246124267578125e+01 -2.390892219543457031e+01 1.211824655532836914e+00 1.161224079132080078e+01 3.847219467163085938e+00 7.331142574548721313e-02
4.960000000000000000e+02 6.836949920654296875e+01 -2.671942138671875000e+01 1.313143491744995117e+00 1.116049671173095703e+01 3.742092132568359375e+00 2.570230722427368164e+00
4.970000000000000000e+02 6.684968566894531250e+01 -2.888423347473144531e+01 1.127900481224060059e+00 4.814990997314453125e+00 1.782867431640625000e+00 2.037761688232421875e+00
4.980000000000000000e+02 6.483383941650390625e+01 -3.090577697753906250e+01 -7.726867198944091797e-01 1.020268797874450684e+00 7.427460700273513794e-02 2.719735205173492432e-01
4.990000000000000000e+02 7.795793151855468750e+01 -4.164272689819335938e+01 1.746452599763870239e-01 1.090330982208251953e+01 3.323386669158935547e+00 4.919281229376792908e-02
5.000000000000000000e+02 7.785147857666015625e+01 -3.693083572387695312e+01 -9.875078499317169189e-02 1.060281467437744141e+01 3.151219129562377930e+00 -1.654040366411209106e-01
5.010000000000000000e+02 7.818535614013671875e+01 -1.649876785278320312e+01 1.130942329764366150e-01 6.366274356842041016e+00 1.943810582160949707e+00 3.345805406570434570e-02
5.020000000000000000e+02 7.937868499755859375e+01 -1.245228481292724609e+01 1.927568763494491577e-02 5.843394279479980469e+00 1.758800983428955078e+00 1.718613952398300171e-01
5.030000000000000000e+02 6.742015838623046875e+01 -1.085267925262451172e+01 1.297714829444885254e+00 9.964741706848144531e+00 3.378736972808837891e+00 -3.450067996978759766e+00
5.040000000000000000e+02 7.805248260498046875e+01 -9.516259193420410156e+00 1.205220259726047516e-02 7.229707717895507812e+00 2.172528028488159180e+00 5.428012013435363770e-01
5.050000000000000000e+02 7.932958984375000000e+01 -5.480218887329101562e+00 -1.592195220291614532e-02 7.892541885375976562e+00 2.362986087799072266e+00 1.942633241415023804e-01
5.060000000000000000e+02 7.175472259521484375e+01 1.618193745613098145e+00 -6.584172844886779785e-01 7.015929698944091797e+00 1.907253742218017578e+00 -4.692580997943878174e-01
5.070000000000000000e+02 5.319081878662109375e+01 1.697716140747070312e+01 1.607747197151184082e+00 3.183636426925659180e+00 1.437415003776550293e+00 1.102353572845458984e+00
5.080000000000000000e+02 4.845522689819335938e+01 2.369724082946777344e+01 5.879232287406921387e-01 4.381194114685058594e+00 1.490735292434692383e+00 1.105378746986389160e+00
5.090000000000000000e+02 4.151488876342773438e+01 2.824336242675781250e+01 2.931678295135498047e-01 4.822870254516601562e+00 1.534811377525329590e+00 -4.299628734588623047e-01
5.100000000000000000e+02 4.287963485717773438e+01 2.689287376403808594e+01 2.642801105976104736e-01 4.545971393585205078e+00 1.443075418472290039e+00 4.255264252424240112e-02
5.110000000000000000e+02 4.165052032470703125e+01 2.541136169433593750e+01 3.735111281275749207e-02 4.945250988006591797e+00 1.494780659675598145e+00 5.721810832619667053e-02
5.120000000000000000e+02 4.274765014648437500e+01 1.710928726196289062e+01 4.494127929210662842e-01 7.219751834869384766e+00 2.300749301910400391e+00 1.249248385429382324e+00
5.130000000000000000e+02 4.800889587402343750e+01 1.062020969390869141e+01 2.019733905792236328e+00 3.387417793273925781e+00 1.622145414352416992e+00 2.149058341979980469e+00
5.140000000000000000e+02 5.875619506835937500e+01 8.849251270294189453e-01 -1.972486138343811035e+00 4.174610972404479980e-01 -4.665075242519378662e-01 -3.571473062038421631e-01
5.150000000000000000e+02 6.054130554199218750e+01 -2.145418882369995117e+00 -2.666889429092407227e+00 -9.258548170328140259e-02 -8.278424739837646484e-01 6.264781355857849121e-01
5.160000000000000000e+02 6.413854217529296875e+01 -4.397509098052978516e+00 8.785337805747985840e-01 3.148944139480590820e+00 1.208243370056152344e+00 -1.709512948989868164e+00
5.170000000000000000e+02 6.518251800537109375e+01 -5.465220451354980469e+00 1.254600882530212402e+00 5.729624748229980469e+00 2.095267772674560547e+00 -2.170870542526245117e+00
5.180000000000000000e+02 6.592853546142578125e+01 -6.804157257080078125e+00 9.711044430732727051e-01 6.804409027099609375e+00 2.332653999328613281e+00 -2.243832588195800781e+00
5.190000000000000000e+02 6.691038513183593750e+01 -9.558242797851562500e+00 1.041907787322998047e+00 8.284274101257324219e+00 2.797854661941528320e+00 -2.968486547470092773e+00
5.200000000000000000e+02 6.607901000976562500e+01 -4.195737361907958984e+00 -1.494982391595840454e-01 5.835631370544433594e+00 1.705839991569519043e+00 -1.117615461349487305e+00
5.210000000000000000e+02 6.746678161621093750e+01 -4.700953483581542969e+00 -7.979892194271087646e-02 6.629670619964599609e+00 1.964961528778076172e+00 -9.789326190948486328e-01
5.220000000000000000e+02 7.802115631103515625e+01 -2.456228733062744141e+00 -7.068628817796707153e-02 8.310259819030761719e+00 2.471872091293334961e+00 2.879899740219116211e-01
5.230000000000000000e+02 7.935401916503906250e+01 2.924690961837768555e+00 -1.928368769586086273e-02 8.882897377014160156e+00 2.659084081649780273e+00 -2.590239979326725006e-03
5.240000000000000000e+02 7.265646362304687500e+01 9.364517211914062500e+00 -6.242392584681510925e-02 6.434529304504394531e+00 1.911631584167480469e+00 -7.559302449226379395e-01
5.250000000000000000e+02 6.611713409423828125e+01 1.909539413452148438e+01 6.413678526878356934e-01 4.676747322082519531e+00 1.595434546470642090e+00 -3.028609156608581543e-01
5.260000000000000000e+02 5.803833007812500000e+01 2.603208351135253906e+01 5.861673951148986816e-01 4.214379787445068359e+00 1.440164089202880859e+00 6.586155295372009277e-01
5.270000000000000000e+02 5.330720520019531250e+01 3.298525238037109375e+01 -3.529678285121917725e-01 4.320225715637207031e+00 1.190177321434020996e+00 7.299385070800781250e-01
5.280000000000000000e+02 4.071281814575195312e+01 3.099717521667480469e+01 7.305263727903366089e-02 2.435864925384521484e+00 7.526752948760986328e-01 -5.187900662422180176e-01
5.290000000000000000e+02 3.538512420654296875e+01 3.574814987182617188e+01 -2.520656824111938477e+00 -4.064305126667022705e-01 -8.781262636184692383e-01 1.053289651870727539e+00
5.300000000000000000e+02 3.913875198364257812e+01 3.374831008911132812e+01 -9.733483791351318359e-01 6.021879315376281738e-01 -1.113481298089027405e-01 2.397141605615615845e-01
5.310000000000000000e+02 7.807776641845703125e+01 4.575702190399169922e+00 -4.943945631384849548e-02 8.359489440917968750e+00 2.493015050888061523e+00 -1.281201541423797607e-01
5.320000000000000000e+02 7.934838104248046875e+01 8.481030464172363281e+00 -5.739796906709671021e-03 8.367352485656738281e+00 2.508483648300170898e+00 -7.483752816915512085e-02
5.330000000000000000e+02 7.317588806152343750e+01 1.690003013610839844e+01 1.800536364316940308e-01 6.148758888244628906e+00 1.898643732070922852e+00 -4.936330914497375488e-01
5.340000000000000000e+02 6.407205963134765625e+01 2.260204124450683594e+01 6.599420309066772461e-01 4.562381267547607422e+00 1.566696882247924805e+00 4.162614047527313232e-02
5.350000000000000000e+02 5.361273574829101562e+01 2.915524291992187500e+01 1.507213264703750610e-01 4.200081825256347656e+00 1.305240988731384277e+00 8.870164752006530762e-01
5.360000000000000000e+02 4.403672790527343750e+01 3.831781005859375000e+01 -1.513039350509643555e+00 2.872186422348022461e+00 4.077441096305847168e-01 1.472819298505783081e-01
5.370000000000000000e+02 3.837432861328125000e+01 3.842641448974609375e+01 -1.685842633247375488e+00 7.645007371902465820e-01 -2.764025628566741943e-01 -5.761382635682821274e-03
5.380000000000000000e+02 3.561647796630859375e+01 3.788151931762695312e+01 -1.961707115173339844e+00 -1.099574938416481018e-01 -6.214994192123413086e-01 4.412881135940551758e-01
5.390000000000000000e+02 3.424451828002929688e+01 3.643186569213867188e+01 -2.557664871215820312e+00 -4.315749108791351318e-01 -8.967719674110412598e-01 8.036602139472961426e-01
5.400000000000000000e+02 3.089754104614257812e+01 3.854624938964843750e+01 -2.559049606323242188e+00 -3.874281346797943115e-01 -8.839433193206787109e-01 2.423575669527053833e-01
5.410000000000000000e+02 2.977711105346679688e+01 3.738090133666992188e+01 -3.044237852096557617e+00 -2.370568364858627319e-01 -9.843884110450744629e-01 2.322336733341217041e-01
5.420000000000000000e+02 2.163640975952148438e+01 3.945655059814453125e+01 -1.732695817947387695e+00 -1.523551195859909058e-01 -5.655152797698974609e-01 -2.076308876276016235e-01
5.430000000000000000e+02 2.253639984130859375e+01 3.604193115234375000e+01 -2.197699785232543945e+00 -4.451192319393157959e-01 -7.928456664085388184e-01 -9.078262448310852051e-01
5.440000000000000000e+02 1.671883392333984375e+01 3.273958969116210938e+01 -8.869969844818115234e-01 1.462735056877136230e+00 1.727214157581329346e-01 -3.573752939701080322e-01
5.450000000000000000e+02 1.617462348937988281e+01 3.126949119567871094e+01 -6.525244712829589844e-01 1.933156728744506836e+00 3.841896951198577881e-01 -2.084729671478271484e-01
5.460000000000000000e+02 1.588075923919677734e+01 2.673238563537597656e+01 2.702891230583190918e-01 4.273416042327880859e+00 1.363111495971679688e+00 8.946984410285949707e-01
5.470000000000000000e+02 1.691477775573730469e+01 2.937685203552246094e+01 5.275204777717590332e-02 1.962031126022338867e+00 6.044349670410156250e-01 4.682249128818511963e-01
5.480000000000000000e+02 7.805748748779296875e+01 1.146773815155029297e+01 3.753365483134984970e-03 7.645342350006103516e+00 2.294728755950927734e+00 -2.496887892484664917e-01
5.490000000000000000e+02 7.935249328613281250e+01 1.680692100524902344e+01 1.077953027561306953e-03 7.272291660308837891e+00 2.182010889053344727e+00 -6.296753883361816406e-02
5.500000000000000000e+02 7.219379425048828125e+01 2.381710433959960938e+01 2.067563533782958984e-01 5.853211402893066406e+00 1.817990303039550781e+00 -1.649896800518035889e-01
5.510000000000000000e+02 6.633969879150390625e+01 3.029958343505859375e+01 1.710844635963439941e-01 5.234428882598876953e+00 1.621653914451599121e+00 1.840362995862960815e-01
5.520000000000000000e+02 5.260125350952148438e+01 4.076097869873046875e+01 -9.254115819931030273e-01 4.408060073852539062e+00 1.044794559478759766e+00 1.433713585138320923e-01
5.530000000000000000e+02 7.803099822998046875e+01 1.970442581176757812e+01 2.375283464789390564e-02 6.847467899322509766e+00 2.061366319656372070e+00 -1.379860341548919678e-01
5.540000000000000000e+02 7.933814239501953125e+01 2.373735237121582031e+01 7.852275855839252472e-03 6.776119232177734375e+00 2.035191297531127930e+00 -2.107045799493789673e-02
5.550000000000000000e+02 7.104310607910156250e+01 3.282278060913085938e+01 3.162670508027076721e-02 5.823966979980468750e+00 1.756678223609924316e+00 7.157140970230102539e-02
5.560000000000000000e+02 6.246027755737304688e+01 4.105345535278320312e+01 -2.856389284133911133e-01 5.187260150909423828e+00 1.470486402511596680e+00 5.427405238151550293e-02
5.570000000000000000e+02 5.846810150146484375e+01 3.732659530639648438e+01 -4.040173292160034180e-01 4.810368061065673828e+00 1.321905136108398438e+00 3.142478466033935547e-01
5.580000000000000000e+02 7.664501953125000000e+01 2.251042747497558594e+01 4.654821753501892090e-02 6.532128334045410156e+00 1.973603010177612305e+00 -1.399296969175338745e-01
5.590000000000000000e+02 7.926496887207031250e+01 2.932377052307128906e+01 1.034808927215635777e-03 6.672497749328613281e+00 2.002059698104858398e+00 -8.323183283209800720e-04
5.600000000000000000e+02 6.656726074218750000e+01 3.832086563110351562e+01 -1.123292073607444763e-01 5.498688220977783203e+00 1.615907669067382812e+00 9.720267355442047119e-02
5.610000000000000000e+02 6.258198165893554688e+01 3.809127807617187500e+01 -2.479218542575836182e-01 5.159106731414794922e+00 1.473355412483215332e+00 1.758402138948440552e-01
5.620000000000000000e+02 7.932843017578125000e+01 3.210482788085937500e+01 -6.317107472568750381e-04 6.670592784881591797e+00 2.000988245010375977e+00 4.258158151060342789e-03
5.630000000000000000e+02 7.930361175537109375e+01 3.750868988037109375e+01 -7.783270906656980515e-03 6.672477722167968750e+00 1.999408364295959473e+00 -9.332654066383838654e-03
5.640000000000000000e+02 7.285578918457031250e+01 3.740279006958007812e+01 -3.201614320278167725e-02 6.049915790557861328e+00 1.805369853973388672e+00 5.584179982542991638e-02
5.650000000000000000e+02 1.847155380249023438e+01 3.896052932739257812e+01 -1.601087331771850586e+00 7.786507606506347656e-01 -2.467309832572937012e-01 -1.193521320819854736e-01
5.660000000000000000e+02 1.628089523315429688e+01 3.729217147827148438e+01 -1.432944893836975098e+00 1.375031828880310059e+00 -1.737390831112861633e-02 -2.821450233459472656e-01
5.670000000000000000e+02 8.056477546691894531e+00 4.103248214721679688e+01 -6.665370464324951172e-01 2.689851522445678711e+00 6.069943308830261230e-01 -2.003092169761657715e-01
5.680000000000000000e+02 2.498112201690673828e+00 3.706977081298828125e+01 -1.205738410353660583e-01 3.238444805145263672e+00 9.353612661361694336e-01 -3.273235261440277100e-01
5.690000000000000000e+02 7.338131666183471680e-01 3.319725418090820312e+01 -1.422891113907098770e-02 2.692147493362426758e+00 8.033755421638488770e-01 -1.999877542257308960e-01
5.700000000000000000e+02 2.090332746505737305e+00 3.016407203674316406e+01 -3.009849414229393005e-02 1.876923203468322754e+00 5.540474057197570801e-01 -6.393977403640747070e-01
5.710000000000000000e+02 6.673269867897033691e-01 2.754565429687500000e+01 -3.861882723867893219e-03 8.641484975814819336e-01 2.580859661102294922e-01 -2.420722097158432007e-01
5.720000000000000000e+02 1.963977217674255371e+00 2.591180992126464844e+01 4.963041748851537704e-03 6.910197138786315918e-01 2.087948322296142578e-01 -6.630676984786987305e-01
5.730000000000000000e+02 1.301178550720214844e+01 1.638163757324218750e+01 1.063753008842468262e+00 5.908269882202148438e+00 2.091606855392456055e+00 -1.379508137702941895e+00
5.740000000000000000e+02 1.631310462951660156e+01 1.412949943542480469e+01 8.065165281295776367e-01 8.537032127380371094e+00 2.803064584732055664e+00 -2.507097244262695312e+00
5.750000000000000000e+02 1.530932998657226562e+01 1.827792739868164062e+01 4.544252455234527588e-01 9.182534217834472656e+00 2.891087770462036133e+00 -1.273331165313720703e+00
5.760000000000000000e+02 1.391594696044921875e+01 2.120759773254394531e+01 3.538109958171844482e-01 6.599627017974853516e+00 2.086031436920166016e+00 -8.111276626586914062e-01
5.770000000000000000e+02 1.530367183685302734e+01 2.395673561096191406e+01 2.129258066415786743e-01 6.856982231140136719e+00 2.120972394943237305e+00 2.534945011138916016e-01
5.780000000000000000e+02 1.274705791473388672e+01 2.924648094177246094e+01 -5.125318765640258789e-01 3.266323089599609375e+00 8.261373639106750488e-01 -9.796709418296813965e-01
5.790000000000000000e+02 1.358355617523193359e+01 2.737388610839843750e+01 -1.337322890758514404e-01 3.885170698165893555e+00 1.125431537628173828e+00 -7.036784291267395020e-01
5.800000000000000000e+02 1.441209125518798828e+01 2.561171913146972656e+01 2.785013914108276367e-01 4.935730457305908203e+00 1.564269542694091797e+00 -2.369127422571182251e-01
5.810000000000000000e+02 1.993564486503601074e+00 4.166062164306640625e+01 -4.256508313119411469e-03 3.646495819091796875e+00 1.092671751976013184e+00 -1.267830957658588886e-03
5.820000000000000000e+02 6.462189555168151855e-01 2.046600532531738281e+01 1.766124553978443146e-02 -1.532082200050354004e+00 -4.543262720108032227e-01 -1.757271438837051392e-01
5.830000000000000000e+02 1.868620276451110840e+00 1.603424263000488281e+01 8.264479041099548340e-02 -1.489863395690917969e+00 -4.221656024456024170e-01 -1.838852018117904663e-01
5.840000000000000000e+02 7.315765380859375000e+00 1.065109348297119141e+01 7.749515771865844727e-01 9.727938771247863770e-01 5.243236422538757324e-01 1.194477733224630356e-02
5.850000000000000000e+02 1.932380867004394531e+01 6.370613574981689453e+00 1.888965845108032227e+00 8.748114585876464844e+00 3.191123962402343750e+00 -3.984049558639526367e+00
5.860000000000000000e+02 1.673642349243164062e+01 1.279304695129394531e+01 1.025467514991760254e+00 8.763789176940917969e+00 2.936776876449584961e+00 -2.783358097076416016e+00
5.870000000000000000e+02 6.091416478157043457e-01 1.482983970642089844e+01 1.587755978107452393e-02 -2.480171442031860352e+00 -7.392882108688354492e-01 -3.092127852141857147e-02
5.880000000000000000e+02 1.630992889404296875e+00 9.038559913635253906e+00 5.400781705975532532e-02 -1.477838873863220215e+00 -4.271493256092071533e-01 3.184107244014739990e-01
5.890000000000000000e+02 9.770745277404785156e+00 1.838921189308166504e+00 -1.444606423377990723e+00 -7.684450596570968628e-02 -4.564352631568908691e-01 5.231968164443969727e-01
5.900000000000000000e+02 1.131811904907226562e+01 1.654194712638854980e+00 -1.510215878486633301e+00 4.414552822709083557e-02 -4.398211240768432617e-01 2.612367570400238037e-01
5.910000000000000000e+02 1.429862689971923828e+01 1.162048935890197754e+00 -9.329378604888916016e-01 6.127966046333312988e-01 -9.604237228631973267e-02 -5.983154177665710449e-01
5.920000000000000000e+02 1.609660148620605469e+01 8.506882190704345703e-01 1.376796513795852661e-01 1.342746853828430176e+00 4.441279470920562744e-01 -1.885419249534606934e+00
5.930000000000000000e+02 1.653005409240722656e+01 8.661593198776245117e-01 6.374420523643493652e-01 1.965172052383422852e+00 7.807842493057250977e-01 -2.476682901382446289e+00
5.940000000000000000e+02 1.929981803894042969e+01 6.595464944839477539e-01 4.500940740108489990e-01 1.289721965789794922e+01 4.004194259643554688e+00 -3.317468404769897461e+00
5.950000000000000000e+02 2.044846725463867188e+01 -2.974856197834014893e-01 6.677216529846191406e+00 9.115708351135253906e+00 4.737877845764160156e+00 -2.939486503601074219e-01
5.960000000000000000e+02 2.064437294006347656e+01 -1.142462134361267090e+00 8.707386970520019531e+00 7.263648986816406250e+00 4.791310787200927734e+00 -2.905349731445312500e+00
5.970000000000000000e+02 2.001339721679687500e+01 -2.297457933425903320e+00 4.834229469299316406e+00 1.044766330718994141e+01 4.584568023681640625e+00 -3.169488430023193359e+00
5.980000000000000000e+02 2.176285362243652344e+01 -1.393031215667724609e+01 -1.191727399826049805e+00 7.873914241790771484e-01 -1.213008016347885132e-01 2.378521114587783813e-01
5.990000000000000000e+02 2.959997367858886719e+01 -1.769100379943847656e+01 -5.319352149963378906e+00 -2.088040411472320557e-01 -1.658446788787841797e+00 -5.131300091743469238e-01
6.000000000000000000e+02 3.385364532470703125e+01 -1.757459449768066406e+01 -1.765056967735290527e+00 3.888600826263427734e+00 6.370632052421569824e-01 -1.337719440460205078e+00
6.010000000000000000e+02 3.258934402465820312e+01 -1.782543563842773438e+01 -3.213200092315673828e+00 1.044859647750854492e+00 -6.505021452903747559e-01 -8.616048097610473633e-02
6.020000000000000000e+02 3.782151412963867188e+01 -1.644744873046875000e+01 -3.922250568866729736e-01 1.031373119354248047e+01 2.976451873779296875e+00 -1.325033307075500488e-01
6.030000000000000000e+02 4.020930862426757812e+01 -1.063594245910644531e+01 6.339424252510070801e-01 1.330237483978271484e+01 4.180895328521728516e+00 -2.449928075075149536e-01
6.040000000000000000e+02 3.377727127075195312e+01 -4.653865694999694824e-01 -4.959539175033569336e-01 1.564608216285705566e-01 -1.018479242920875549e-01 -1.823676675558090210e-01
6.050000000000000000e+02 3.860086059570312500e+01 4.775516986846923828e+00 2.286391258239746094e+00 1.032079315185546875e+01 3.782155275344848633e+00 4.615131378173828125e+00
6.060000000000000000e+02 3.696696472167968750e+01 2.433706998825073242e+00 1.303383350372314453e+00 4.746900558471679688e+00 1.815085172653198242e+00 2.554453134536743164e+00
6.070000000000000000e+02 5.031840801239013672e-01 6.388641834259033203e+00 7.171116303652524948e-04 -1.307634472846984863e+00 -3.920751810073852539e-01 1.456526815891265869e-01
6.080000000000000000e+02 1.681079483032226562e+01 -1.741754913330078125e+01 -3.007097244262695312e+00 -3.484514057636260986e-01 -1.006664633750915527e+00 1.305520892143249512e+00
6.090000000000000000e+02 2.455346107482910156e+01 -1.857200431823730469e+01 -3.618679046630859375e+00 6.685491651296615601e-02 -1.065547227859497070e+00 -3.455939292907714844e-01
6.100000000000000000e+02 2.579327583312988281e+01 -1.730162620544433594e+01 -3.307353496551513672e+00 1.048958897590637207e-01 -9.607372283935546875e-01 -1.231418624520301819e-01
6.110000000000000000e+02 3.044833183288574219e+01 -1.699160194396972656e+01 -4.174766540527343750e+00 -4.750294983386993408e-01 -1.394938826560974121e+00 -2.812940180301666260e-01
6.120000000000000000e+02 5.992543220520019531e+00 -2.554428863525390625e+01 -9.438486769795417786e-03 5.365149974822998047e+00 1.606713414192199707e+00 1.584421545267105103e-01
6.130000000000000000e+02 4.118637466430664062e+01 2.963002967834472656e+01 2.167138159275054932e-01 3.654516458511352539e+00 1.161369085311889648e+00 -6.685673594474792480e-01
6.140000000000000000e+02 4.012934112548828125e+01 3.243143463134765625e+01 -4.392430484294891357e-01 1.384549498558044434e+00 2.835919260978698730e-01 -1.429278552532196045e-01
6.150000000000000000e+02 4.156694412231445312e+01 1.708730316162109375e+01 1.355510205030441284e-01 7.845302581787109375e+00 2.394256114959716797e+00 6.719172000885009766e-01
6.160000000000000000e+02 4.092397308349609375e+01 1.154176330566406250e+01 6.405705213546752930e-01 1.091946887969970703e+01 3.468011856079101562e+00 2.465312242507934570e+00
6.170000000000000000e+02 5.047741699218750000e+01 1.965117096900939941e+00 -3.318017482757568359e+00 4.935561493039131165e-02 -9.805985689163208008e-01 5.362681746482849121e-01
6.180000000000000000e+02 5.114936828613281250e+01 1.004884317517280579e-01 -3.884025096893310547e+00 -2.547590732574462891e-01 -1.241635322570800781e+00 1.223304510116577148e+00
6.190000000000000000e+02 5.244195556640625000e+01 -3.235560655593872070e-01 -3.636827468872070312e+00 1.431321073323488235e-02 -1.086754202842712402e+00 8.776338696479797363e-01
6.200000000000000000e+02 5.649772262573242188e+01 -1.026877760887145996e+00 -4.409480571746826172e+00 -1.725603342056274414e-01 -1.374612212181091309e+00 6.621130704879760742e-01
6.210000000000000000e+02 5.921650695800781250e+01 -1.672383546829223633e+00 -3.631253004074096680e+00 -2.348411232233047485e-01 -1.159828186035156250e+00 7.672524452209472656e-01
6.220000000000000000e+02 6.182745361328125000e+01 -2.735940217971801758e+00 -1.454509139060974121e+00 2.966481745243072510e-01 -3.473582863807678223e-01 1.186931133270263672e-01
6.230000000000000000e+02 4.115027999877929688e+01 1.292818832397460938e+01 5.200904011726379395e-01 1.005633735656738281e+01 3.172928333282470703e+00 2.097752094268798828e+00
6.240000000000000000e+02 3.983797454833984375e+01 7.372236251831054688e+00 2.014474391937255859e+00 1.318139266967773438e+01 4.558760166168212891e+00 4.637526988983154297e+00
6.250000000000000000e+02 4.258113861083984375e+01 -2.480378866195678711e+00 2.139403104782104492e+00 1.481373786926269531e+01 5.085942268371582031e+00 4.600103378295898438e+00
6.260000000000000000e+02 4.414351654052734375e+01 1.237633705139160156e+00 -6.690544486045837402e-01 5.852457046508789062e+00 1.555020809173583984e+00 2.661449432373046875e+00
6.270000000000000000e+02 4.018340301513671875e+01 5.621556758880615234e+00 1.474364042282104492e+00 1.084194183349609375e+01 3.694891691207885742e+00 3.630309581756591797e+00
6.280000000000000000e+02 3.924440002441406250e+01 6.053600788116455078e+00 2.220278501510620117e+00 1.222697925567626953e+01 4.334177494049072266e+00 4.966828346252441406e+00
6.290000000000000000e+02 3.575069046020507812e+01 -5.529735684394836426e-01 3.490490913391113281e-01 3.244859218597412109e+00 1.078172445297241211e+00 1.204497098922729492e+00
6.300000000000000000e+02 3.496757888793945312e+01 3.596544265747070312e-01 -1.796130239963531494e-01 9.233024716377258301e-01 2.231068313121795654e-01 3.511703014373779297e-01
6.310000000000000000e+02 2.976960754394531250e+01 -1.970765471458435059e+00 2.684559345245361328e+00 8.253388106822967529e-03 8.078438639640808105e-01 -3.036639690399169922e-01
6.320000000000000000e+02 3.115221023559570312e+01 -1.621992707252502441e+00 1.001646161079406738e+00 -1.709509938955307007e-01 2.492085397243499756e-01 -2.864454090595245361e-01
6.330000000000000000e+02 2.832597732543945312e+01 -2.223280906677246094e+00 4.564070224761962891e+00 1.914548724889755249e-01 1.426657557487487793e+00 -6.645684838294982910e-01
6.340000000000000000e+02 2.681502532958984375e+01 -2.149114131927490234e+00 6.418888092041015625e+00 7.759153842926025391e-01 2.158441066741943359e+00 -1.525658130645751953e+00
6.350000000000000000e+02 2.541617202758789062e+01 -1.602084517478942871e+00 6.242619037628173828e+00 1.501096844673156738e+00 2.323114633560180664e+00 -2.413192033767700195e+00
6.360000000000000000e+02 1.901197242736816406e+01 3.318688964843750000e+01 -7.684990763664245605e-01 -6.438515614718198776e-03 -2.324812859296798706e-01 -4.581919014453887939e-01
6.370000000000000000e+02 1.994570159912109375e+01 3.435300827026367188e+01 -1.398185849189758301e+00 -3.585244417190551758e-01 -5.270130634307861328e-01 -7.005965709686279297e-01
6.380000000000000000e+02 2.114648818969726562e+01 3.529219818115234375e+01 -1.832677483558654785e+00 -4.452995955944061279e-01 -6.833931207656860352e-01 -8.269731402397155762e-01
6.390000000000000000e+02 2.837986373901367188e+01 3.737815475463867188e+01 -3.003802537918090820e+00 -2.999803125858306885e-01 -9.911348819732666016e-01 -1.387120336294174194e-01
6.400000000000000000e+02 4.703740310668945312e+01 1.526560902595520020e+00 -5.147494792938232422e+00 -5.413617491722106934e-01 -1.706657052040100098e+00 1.047284364700317383e+00
6.410000000000000000e+02 4.031785583496093750e+01 8.743947029113769531e+00 1.474385857582092285e+00 1.299332046508789062e+01 4.340312004089355469e+00 3.913011312484741211e+00
6.420000000000000000e+02 4.168357467651367188e+01 -1.487056636810302734e+01 3.667208552360534668e-01 1.483538818359375000e+01 4.560632705688476562e+00 -1.805486083030700684e+00
6.430000000000000000e+02 4.134615707397460938e+01 -1.071250247955322266e+01 4.421636462211608887e-01 1.558991527557373047e+01 4.809623718261718750e+00 -6.532267928123474121e-01
6.440000000000000000e+02 4.187080001831054688e+01 -5.165685653686523438e+00 7.400879263877868652e-01 1.414983844757080078e+01 4.466978073120117188e+00 3.294327020645141602e+00
6.450000000000000000e+02 4.220158386230468750e+01 -3.819790363311767578e+00 1.009453773498535156e+00 1.440457344055175781e+01 4.624208450317382812e+00 3.492677688598632812e+00
6.460000000000000000e+02 2.790361785888671875e+01 -1.571615600585937500e+01 -1.699994444847106934e+00 -4.249045252799987793e-02 -5.227454304695129395e-01 -1.264228820800781250e-01
6.470000000000000000e+02 3.121803092956542969e+01 -1.362619113922119141e+01 6.042996644973754883e-01 1.319100856781005859e+00 5.770201086997985840e-01 -1.384861350059509277e+00
6.480000000000000000e+02 4.029757308959960938e+01 -1.201417827606201172e+01 4.998207390308380127e-01 1.356152629852294922e+01 4.218404293060302734e+00 -7.601106762886047363e-01
6.490000000000000000e+02 1.398570919036865234e+01 -1.426917362213134766e+01 -6.188782453536987305e-01 -2.723677754402160645e-01 -2.673738002777099609e-01 1.724089503288269043e+00
6.500000000000000000e+02 4.237239837646484375e+01 -2.848736763000488281e+01 2.630233168601989746e-01 5.048956394195556641e+00 1.593593835830688477e+00 -1.387090325355529785e+00
6.510000000000000000e+02 6.840958404541015625e+01 -2.886004638671875000e+01 -4.223151877522468567e-02 8.457544326782226562e+00 2.524593830108642578e+00 1.208808064460754395e+00
6.520000000000000000e+02 6.200341415405273438e+01 1.158992886543273926e+00 -1.295131921768188477e+00 2.120107412338256836e+00 2.474926412105560303e-01 -1.278133153915405273e+00
6.530000000000000000e+02 6.013280868530273438e+01 4.593111276626586914e-01 -1.818358302116394043e+00 7.989895939826965332e-01 -3.058106005191802979e-01 -6.648071408271789551e-01
6.540000000000000000e+02 5.828967285156250000e+01 -2.373529225587844849e-01 -2.904553890228271484e+00 -3.193700453266501427e-03 -8.723242878913879395e-01 1.524234861135482788e-01
6.550000000000000000e+02 5.367298889160156250e+01 9.998850822448730469e+00 1.506488561630249023e+00 1.665802359580993652e+00 9.516872763633728027e-01 4.945333003997802734e-01
6.560000000000000000e+02 5.967042922973632812e+01 7.418702125549316406e+00 3.534977734088897705e-01 2.065146446228027344e+00 7.255932688713073730e-01 -8.891038298606872559e-01
6.570000000000000000e+02 4.885385131835937500e+01 9.731635093688964844e+00 1.912655591964721680e+00 2.641572475433349609e+00 1.366268396377563477e+00 1.848789572715759277e+00
6.580000000000000000e+02 4.551531219482421875e+01 2.783870935440063477e+00 -1.610759615898132324e+00 3.295609951019287109e+00 5.054550766944885254e-01 3.374395847320556641e+00
6.590000000000000000e+02 7.288700866699218750e+01 1.080030536651611328e+01 2.884289994835853577e-02 6.386573314666748047e+00 1.924624919891357422e+00 -7.134324908256530762e-01
6.600000000000000000e+02 6.452613067626953125e+01 1.132965278625488281e+01 5.103841423988342285e-01 3.928020954132080078e+00 1.331521511077880859e+00 -9.129843711853027344e-01
6.610000000000000000e+02 4.632634353637695312e+01 1.860352706909179688e+01 9.368326663970947266e-01 5.165704250335693359e+00 1.830761075019836426e+00 1.602098107337951660e+00
6.620000000000000000e+02 4.647306442260742188e+01 1.595173931121826172e+01 1.380163669586181641e+00 5.125735282897949219e+00 1.951769709587097168e+00 2.005195140838623047e+00
6.630000000000000000e+02 7.289465332031250000e+01 1.812953186035156250e+01 2.018833160400390625e-01 6.040482044219970703e+00 1.872709512710571289e+00 -4.359440803527832031e-01
6.640000000000000000e+02 6.480112457275390625e+01 2.006023025512695312e+01 7.229150533676147461e-01 4.478434562683105469e+00 1.560404777526855469e+00 -1.557052731513977051e-01
6.650000000000000000e+02 5.407926940917968750e+01 1.964034080505371094e+01 1.314387679100036621e+00 3.510288715362548828e+00 1.447402954101562500e+00 1.002238750457763672e+00
6.660000000000000000e+02 7.280657196044921875e+01 2.623229789733886719e+01 1.381443738937377930e-01 5.956342220306396484e+00 1.828345894813537598e+00 -7.321834564208984375e-02
6.670000000000000000e+02 6.668643188476562500e+01 2.792693328857421875e+01 2.898844480514526367e-01 5.171042919158935547e+00 1.638278126716613770e+00 1.178959608078002930e-01
6.680000000000000000e+02 5.584106445312500000e+01 2.461017990112304688e+01 7.480358481407165527e-01 3.985463619232177734e+00 1.420049786567687988e+00 8.250249028205871582e-01
6.690000000000000000e+02 4.637720870971679688e+01 2.518444442749023438e+01 3.454429805278778076e-01 4.469953060150146484e+00 1.444618821144104004e+00 8.016485571861267090e-01
6.700000000000000000e+02 7.251395416259765625e+01 3.069099617004394531e+01 6.203746795654296875e-02 5.958447933197021484e+00 1.806145548820495605e+00 2.947437018156051636e-02
6.710000000000000000e+02 6.346482849121093750e+01 3.236783218383789062e+01 6.100502237677574158e-02 5.042779922485351562e+00 1.531135559082031250e+00 3.080582022666931152e-01
6.720000000000000000e+02 5.516117477416992188e+01 3.107435417175292969e+01 -3.312134370207786560e-02 4.368809700012207031e+00 1.300706505775451660e+00 7.402683496475219727e-01
6.730000000000000000e+02 4.983672714233398438e+01 3.203213500976562500e+01 -4.007497131824493408e-01 4.087048530578613281e+00 1.105889678001403809e+00 8.323434591293334961e-01
6.740000000000000000e+02 1.134706783294677734e+01 3.476325225830078125e+01 -1.039494037628173828e+00 2.490887641906738281e+00 4.354181289672851562e-01 -8.240572810173034668e-01
6.750000000000000000e+02 1.430218410491943359e+01 1.664882469177246094e+01 9.455568790435791016e-01 7.312273502349853516e+00 2.477349042892456055e+00 -1.499124526977539062e+00
6.760000000000000000e+02 1.316404724121093750e+01 9.761535644531250000e+00 1.400582075119018555e+00 4.275376319885253906e+00 1.702787518501281738e+00 -1.509676933288574219e+00
6.770000000000000000e+02 4.531747436523437500e+01 -2.094242668151855469e+01 6.213061809539794922e-01 1.292441248893737793e+00 5.741242170333862305e-01 -9.022870063781738281e-01
6.780000000000000000e+02 9.485608100891113281e+00 -1.864883422851562500e+00 4.328191578388214111e-01 4.769825842231512070e-03 1.312766969203948975e-01 1.881987303495407104e-01
6.790000000000000000e+02 8.736741065979003906e+00 -1.864175558090209961e+00 3.313471674919128418e-01 2.388909831643104553e-02 1.065708771347999573e-01 1.708335280418395996e-01
6.800000000000000000e+02 7.981427192687988281e+00 -1.870411634445190430e+00 2.470638602972030640e-01 2.931816503405570984e-02 8.291460573673248291e-02 1.440386325120925903e-01
6.810000000000000000e+02 6.466292858123779297e+00 -1.890196084976196289e+00 1.213861703872680664e-01 3.725887089967727661e-02 4.759351164102554321e-02 8.331187069416046143e-02
6.820000000000000000e+02 4.956753730773925781e+00 -1.913379430770874023e+00 4.297877848148345947e-02 3.777185082435607910e-02 2.422518841922283173e-02 2.740183658897876740e-02
6.830000000000000000e+02 3.442147970199584961e+00 -1.971069216728210449e+00 6.206006743013858795e-03 2.723090536892414093e-02 1.003107428550720215e-02 -1.608632877469062805e-02
6.840000000000000000e+02 3.530814647674560547e+00 -2.907431840896606445e+00 4.408105835318565369e-02 5.382519960403442383e-02 2.937187626957893372e-02 8.863856084644794464e-03
6.850000000000000000e+02 1.921125769615173340e+00 -2.086757183074951172e+00 -1.155756646767258644e-03 -4.592495039105415344e-03 -1.724475412629544735e-03 -3.314650058746337891e-02
6.860000000000000000e+02 1.154743909835815430e+00 -2.146033763885498047e+00 7.280188146978616714e-04 -2.209812961518764496e-02 -6.411033682525157928e-03 -3.025163151323795319e-02
6.870000000000000000e+02 3.854387700557708740e-01 -2.189674377441406250e+00 -1.025068666785955429e-02 -4.764104261994361877e-02 -1.736751757562160492e-02 -1.116667594760656357e-02
6.880000000000000000e+02 2.107117652893066406e+00 -4.160579681396484375e+01 2.976565957069396973e-01 4.490123271942138672e+00 1.436334013938903809e+00 -8.445376157760620117e-02
6.890000000000000000e+02 1.130817651748657227e+00 -3.857129287719726562e+01 -3.705816715955734253e-02 4.885863304138183594e+00 1.454641580581665039e+00 -2.246523350477218628e-01
6.900000000000000000e+02 6.026917099952697754e-01 -3.462448501586914062e+01 -2.845385298132896423e-02 5.762016773223876953e+00 1.720068931579589844e+00 -5.121760442852973938e-02
6.910000000000000000e+02 6.424146890640258789e-01 -3.325956344604492188e+01 -2.224352397024631500e-02 5.840314865112304688e+00 1.745421290397644043e+00 8.483677171170711517e-03
6.920000000000000000e+02 4.838879108428955078e+00 -3.103033638000488281e+01 -1.143393516540527344e+00 3.055734634399414062e+00 5.737023353576660156e-01 3.998905420303344727e-01
6.930000000000000000e+02 1.992039203643798828e+00 -2.701226615905761719e+01 -2.461321353912353516e-01 3.400636434555053711e+00 9.463512897491455078e-01 1.532820820808410645e+00
6.940000000000000000e+02 5.977025032043457031e-01 -2.606116485595703125e+01 6.622523814439773560e-02 2.413705348968505859e+00 7.439792156219482422e-01 6.553145051002502441e-01
6.950000000000000000e+02 5.726764678955078125e+00 -2.429615783691406250e+01 3.894543647766113281e-01 7.307258605957031250e+00 2.309013843536376953e+00 8.590421080589294434e-01
6.960000000000000000e+02 1.597346186637878418e+00 -2.175756454467773438e+01 3.109597265720367432e-01 5.258416533470153809e-01 2.510403990745544434e-01 7.812523841857910156e-01
6.970000000000000000e+02 6.851181030273437500e+00 -1.954371261596679688e+01 1.603898406028747559e+00 8.809285163879394531e+00 3.123955011367797852e+00 3.333344697952270508e+00
6.980000000000000000e+02 5.283276438713073730e-01 -2.191858100891113281e+01 1.375726908445358276e-01 -1.403193235397338867e+00 -3.796861469745635986e-01 3.046555817127227783e-01
6.990000000000000000e+02 6.203409433364868164e-01 -1.633488464355468750e+01 3.023361042141914368e-02 -1.616550326347351074e+00 -4.758950173854827881e-01 -1.670933067798614502e-01
7.000000000000000000e+02 6.265615820884704590e-01 -1.493305683135986328e+01 -3.465482732281088829e-03 -1.198675155639648438e+00 -3.606421947479248047e-01 -1.975841671228408813e-01
7.010000000000000000e+02 6.245358586311340332e-01 -1.352654170989990234e+01 -2.847442030906677246e-02 -7.930107712745666504e-01 -2.464455664157867432e-01 -1.596983820199966431e-01
7.020000000000000000e+02 1.884018182754516602e+00 -1.354680347442626953e+01 -6.076237186789512634e-02 1.236679032444953918e-01 1.887165941298007965e-02 -3.762298226356506348e-01
7.030000000000000000e+02 5.805673599243164062e-01 -9.279231071472167969e+00 -2.065109321847558022e-03 -1.535842865705490112e-01 -4.669481888413429260e-02 -2.333784662187099457e-02
7.040000000000000000e+02 5.660080909729003906e-01 -7.852841854095458984e+00 -1.166562363505363464e-02 -1.172869727015495300e-01 -3.868578001856803894e-02 -5.533126182854175568e-03
7.050000000000000000e+02 5.471398234367370605e-01 -6.416230678558349609e+00 8.226594887673854828e-03 -1.074945181608200073e-01 -2.978037670254707336e-02 -1.219741534441709518e-03
7.060000000000000000e+02 7.492835235595703125e+01 -3.635950851440429688e+01 -4.036027789115905762e-01 9.005072593688964844e+00 2.580440998077392578e+00 -5.112308263778686523e-01
7.070000000000000000e+02 5.466083526611328125e+01 -3.955057144165039062e+01 7.360402494668960571e-02 5.512664318084716797e-01 1.874611377716064453e-01 -3.118480443954467773e-01
7.080000000000000000e+02 3.141840171813964844e+01 -3.918716430664062500e+01 -1.300264120101928711e+00 3.186064958572387695e+00 5.657402276992797852e-01 5.065142512321472168e-01
7.090000000000000000e+02 1.250007724761962891e+01 -4.147013473510742188e+01 3.587782382965087891e-01 -2.653723359107971191e-01 2.802176587283611298e-02 4.760838672518730164e-02
7.100000000000000000e+02 7.471643066406250000e+01 3.998981857299804688e+01 -3.740703454241156578e-03 6.282183647155761719e+00 1.883532762527465820e+00 4.374402016401290894e-02
7.110000000000000000e+02 7.915979003906250000e+01 3.870296096801757812e+01 4.585171118378639221e-03 6.648639678955078125e+00 1.995967388153076172e+00 -9.631219319999217987e-03
7.120000000000000000e+02 7.866594696044921875e+01 3.995261764526367188e+01 -1.342353876680135727e-02 6.619622230529785156e+00 1.981859683990478516e+00 -2.348647452890872955e-02
7.130000000000000000e+02 7.790809631347656250e+01 3.759964752197265625e+01 -7.224698550999164581e-03 6.558634757995605469e+00 1.965422987937927246e+00 -2.257379237562417984e-03
7.140000000000000000e+02 7.929507446289062500e+01 3.483047103881835938e+01 -4.159185104072093964e-03 6.684041976928710938e+00 2.003964900970458984e+00 4.429035820066928864e-03
7.150000000000000000e+02 7.791358947753906250e+01 3.346459579467773438e+01 -1.582739991135895252e-03 6.547478675842285156e+00 1.963768720626831055e+00 6.617172155529260635e-03
7.160000000000000000e+02 7.932420349121093750e+01 3.347041702270507812e+01 2.474399516358971596e-03 6.676947593688964844e+00 2.003826618194580078e+00 6.067650392651557922e-03
7.170000000000000000e+02 7.927536773681640625e+01 3.072293472290039062e+01 2.391642658039927483e-03 6.668696403503417969e+00 2.001326322555541992e+00 2.274785889312624931e-03
7.180000000000000000e+02 7.665663146972656250e+01 2.782518005371093750e+01 2.369007840752601624e-02 6.433257579803466797e+00 1.937084197998046875e+00 -2.019182406365871429e-02
7.190000000000000000e+02 7.932819366455078125e+01 2.651294708251953125e+01 5.929617211222648621e-03 6.700086116790771484e+00 2.011804819107055664e+00 -9.592742659151554108e-03
7.200000000000000000e+02 7.669601440429687500e+01 2.521784591674804688e+01 3.810386359691619873e-02 6.466629505157470703e+00 1.951419949531555176e+00 -7.340952008962631226e-02
7.210000000000000000e+02 7.933663177490234375e+01 2.512348747253417969e+01 -1.546573708765208721e-03 6.731541633605957031e+00 2.018998622894287109e+00 -1.371569465845823288e-02
7.220000000000000000e+02 7.933922576904296875e+01 2.096932411193847656e+01 7.556443102657794952e-03 6.915773868560791016e+00 2.076999187469482422e+00 -3.730225935578346252e-02
7.230000000000000000e+02 7.934333801269531250e+01 1.958126449584960938e+01 1.260960940271615982e-03 7.014102935791015625e+00 2.104609012603759766e+00 -4.603120684623718262e-02
7.240000000000000000e+02 7.934809112548828125e+01 1.819397354125976562e+01 6.683459505438804626e-03 7.133285999298095703e+00 2.141990900039672852e+00 -5.521799623966217041e-02
7.250000000000000000e+02 7.935260009765625000e+01 1.403524398803710938e+01 -2.192930114688351750e-04 7.604531764984130859e+00 2.281293630599975586e+00 -7.655055075883865356e-02
7.260000000000000000e+02 7.935261535644531250e+01 1.264684963226318359e+01 4.145042505115270615e-03 7.791348934173583984e+00 2.338648080825805664e+00 -8.161347359418869019e-02
7.270000000000000000e+02 7.935140228271484375e+01 1.125850772857666016e+01 -2.832218306139111519e-03 7.985050678253173828e+00 2.394665479660034180e+00 -8.211696147918701172e-02
7.280000000000000000e+02 7.934906768798828125e+01 7.092068195343017578e+00 -2.245839219540357590e-03 8.542633056640625000e+00 2.562116146087646484e+00 -6.707813590764999390e-02
7.290000000000000000e+02 7.935253906250000000e+01 5.702612400054931641e+00 -1.076156552881002426e-02 8.695250511169433594e+00 2.605346679687500000e+00 -5.173169821500778198e-02
7.300000000000000000e+02 7.935520172119140625e+01 4.314736366271972656e+00 -6.901576183736324310e-03 8.815406799316406250e+00 2.642551422119140625e+00 -3.344643115997314453e-02
7.310000000000000000e+02 7.933759307861328125e+01 1.272233128547668457e-01 -2.145257033407688141e-02 8.829224586486816406e+00 2.642331838607788086e+00 6.170210242271423340e-02
7.320000000000000000e+02 7.933464813232421875e+01 -1.274078845977783203e+00 -1.121578924357891083e-02 8.701560974121093750e+00 2.607103586196899414e+00 9.468455612659454346e-02
7.330000000000000000e+02 7.801256561279296875e+01 -3.876126527786254883e+00 -7.665602862834930420e-02 8.161832809448242188e+00 2.425553083419799805e+00 3.799396455287933350e-01
7.340000000000000000e+02 7.933260345458984375e+01 -4.078211307525634766e+00 -1.057623978704214096e-02 8.228932380676269531e+00 2.465507030487060547e+00 1.651301234960556030e-01
7.350000000000000000e+02 7.933660125732421875e+01 -8.273129463195800781e+00 -5.535863805562257767e-03 7.086485862731933594e+00 2.124284982681274414e+00 2.242906093597412109e-01
7.360000000000000000e+02 7.810780334472656250e+01 -1.090813064575195312e+01 4.734658449888229370e-02 6.958417892456054688e+00 2.101729393005371094e+00 4.981403946876525879e-01
7.370000000000000000e+02 7.936408996582031250e+01 -1.105710315704345703e+01 7.478566374629735947e-03 6.227574825286865234e+00 1.870516061782836914e+00 2.021363228559494019e-01
7.380000000000000000e+02 7.939004516601562500e+01 -1.524255943298339844e+01 2.351982146501541138e-02 5.328058242797851562e+00 1.605473518371582031e+00 7.440206408500671387e-02
7.390000000000000000e+02 7.815451812744140625e+01 -1.792177772521972656e+01 1.076078563928604126e-01 6.446513175964355469e+00 1.966236233711242676e+00 -1.307921409606933594e-01
7.400000000000000000e+02 7.937806701660156250e+01 -1.804654884338378906e+01 7.421440444886684418e-03 5.304639339447021484e+00 1.593618273735046387e+00 -3.919015824794769287e-02
7.410000000000000000e+02 7.940089416503906250e+01 -2.366041374206542969e+01 -3.338796086609363556e-03 6.503541469573974609e+00 1.950060844421386719e+00 -2.236258089542388916e-01
7.420000000000000000e+02 7.821553802490234375e+01 -2.493814849853515625e+01 6.481588631868362427e-02 7.644062995910644531e+00 2.312663793563842773e+00 -6.894785761833190918e-01
7.430000000000000000e+02 7.940523529052734375e+01 -2.502807044982910156e+01 3.271294757723808289e-02 7.047481060028076172e+00 2.124058246612548828e+00 -2.595110833644866943e-01
7.440000000000000000e+02 7.932556915283203125e+01 -2.919807624816894531e+01 -1.238734647631645203e-02 8.975363731384277344e+00 2.688892841339111328e+00 -3.200471103191375732e-01
7.450000000000000000e+02 7.803392028808593750e+01 -3.173547172546386719e+01 -9.050198644399642944e-02 9.748446464538574219e+00 2.897383451461791992e+00 -6.768323183059692383e-01
7.460000000000000000e+02 7.934250640869140625e+01 -3.196246719360351562e+01 -6.353814154863357544e-02 1.021439552307128906e+01 3.045257091522216797e+00 -2.535550296306610107e-01
7.470000000000000000e+02 7.931063079833984375e+01 -3.610026550292968750e+01 -6.888404488563537598e-03 1.111362934112548828e+01 3.332022190093994141e+00 -8.750875294208526611e-02
7.480000000000000000e+02 7.922281646728515625e+01 -3.742074584960937500e+01 -6.252738833427429199e-02 1.116391468048095703e+01 3.330416202545166016e+00 -5.274942144751548767e-03
7.490000000000000000e+02 7.900141143798828125e+01 -3.872835922241210938e+01 -2.489180304110050201e-03 1.111478900909423828e+01 3.333689928054809570e+00 3.060223348438739777e-02
7.500000000000000000e+02 7.864012908935546875e+01 -4.008552932739257812e+01 -1.138660460710525513e-01 1.097552394866943359e+01 3.258497476577758789e+00 1.339018046855926514e-01
7.510000000000000000e+02 7.511830329895019531e+00 3.632733917236328125e+01 -6.058158874511718750e-01 2.679042577743530273e+00 6.219680309295654297e-01 -7.749929428100585938e-01
7.520000000000000000e+02 2.700218772888183594e+01 3.716905975341796875e+01 -2.775553941726684570e+00 -7.720881700515747070e-02 -8.558288812637329102e-01 -4.512523114681243896e-01
7.530000000000000000e+02 4.288459396362304688e+01 4.108246612548828125e+01 -1.623088240623474121e+00 2.423220396041870117e+00 2.400396317243576050e-01 2.157825231552124023e-02
7.540000000000000000e+02 6.715340423583984375e+01 4.112949371337890625e+01 -1.343401521444320679e-01 5.566281318664550781e+00 1.629582405090332031e+00 2.975912950932979584e-02
7.550000000000000000e+02 3.919945657253265381e-01 2.189257383346557617e+00 -1.563022471964359283e-02 -1.454199999570846558e-01 -4.831506684422492981e-02 5.857246369123458862e-02
7.560000000000000000e+02 3.642064332962036133e+00 2.859876871109008789e+00 -3.084831833839416504e-01 -2.060471326112747192e-01 -1.543590873479843140e-01 6.157839298248291016e-01
7.570000000000000000e+02 2.763619184494018555e+00 8.862291336059570312e+00 1.338498443365097046e-01 -9.860804080963134766e-01 -2.556691765785217285e-01 4.556223154067993164e-01
7.580000000000000000e+02 1.563925623893737793e+00 7.669151782989501953e+00 4.164163768291473389e-02 -1.283453822135925293e+00 -3.725436627864837646e-01 3.723273873329162598e-01
7.590000000000000000e+02 5.383794307708740234e-01 9.198058128356933594e+00 1.399649307131767273e-02 -2.044876098632812500e+00 -6.092638969421386719e-01 1.077802404761314392e-01
7.600000000000000000e+02 5.790222287178039551e-01 1.200928783416748047e+01 1.884724199771881104e-02 -2.448837995529174805e+00 -7.289972305297851562e-01 4.092599451541900635e-02
7.610000000000000000e+02 1.746704697608947754e+00 1.182166194915771484e+01 7.622049003839492798e-02 -1.680096507072448730e+00 -4.811627864837646484e-01 1.288366466760635376e-01
7.620000000000000000e+02 6.188494563102722168e-01 1.623814964294433594e+01 1.740973070263862610e-02 -2.365665674209594727e+00 -7.044767737388610840e-01 -6.970962136983871460e-02
7.630000000000000000e+02 1.897018909454345703e+00 1.743204498291015625e+01 7.527869194746017456e-02 -1.311653137207031250e+00 -3.709123134613037109e-01 -2.879853248596191406e-01
7.640000000000000000e+02 6.286793947219848633e-01 1.764717102050781250e+01 1.607912033796310425e-02 -2.163323402404785156e+00 -6.441732645034790039e-01 -1.075050607323646545e-01
7.650000000000000000e+02 6.505324244499206543e-01 2.187692642211914062e+01 5.351932719349861145e-03 -1.120710730552673340e+00 -3.346076607704162598e-01 -1.985580325126647949e-01
7.660000000000000000e+02 6.524730920791625977e-01 2.329095268249511719e+01 1.422199141234159470e-02 -6.612799763679504395e-01 -1.941173970699310303e-01 -2.212345600128173828e-01
7.670000000000000000e+02 1.951072931289672852e+00 2.306248283386230469e+01 3.504467010498046875e-02 -9.732116013765335083e-02 -1.868294738233089447e-02 -6.076710224151611328e-01
7.680000000000000000e+02 6.542229056358337402e-01 2.470699882507324219e+01 3.063731419388204813e-04 -1.655877232551574707e-01 -4.958440735936164856e-02 -2.342665046453475952e-01
7.690000000000000000e+02 6.804637312889099121e-01 2.896079826354980469e+01 2.865939750336110592e-04 1.366891980171203613e+00 4.101535677909851074e-01 -2.384164482355117798e-01
7.700000000000000000e+02 6.965918540954589844e-01 3.037502288818359375e+01 -7.278108038008213043e-03 1.843743085861206055e+00 5.509395003318786621e-01 -2.298459112644195557e-01
7.710000000000000000e+02 3.490190982818603516e+00 2.996084403991699219e+01 -8.132366836071014404e-02 1.984922289848327637e+00 5.710796117782592773e-01 -9.625541567802429199e-01
7.720000000000000000e+02 7.139638662338256836e-01 3.178591537475585938e+01 -3.455473575741052628e-03 2.289232969284057617e+00 6.857331991195678711e-01 -2.190895378589630127e-01
7.730000000000000000e+02 7.992990016937255859e-01 3.600417709350585938e+01 -2.761122211813926697e-02 3.302727937698364258e+00 9.825350642204284668e-01 -1.309723109006881714e-01
7.740000000000000000e+02 8.570091128349304199e-01 3.739123153686523438e+01 -2.420017868280410767e-02 3.479338169097900391e+00 1.036541461944580078e+00 -8.661415427923202515e-02
7.750000000000000000e+02 9.713491797447204590e-01 3.876518249511718750e+01 -4.928383044898509979e-03 3.594822168350219727e+00 1.076968193054199219e+00 -6.753402948379516602e-02
7.760000000000000000e+02 1.269185543060302734e+00 4.013561630249023438e+01 -5.171690136194229126e-02 3.642019748687744141e+00 1.077090859413146973e+00 -1.929562725126743317e-02
7.770000000000000000e+02 1.054914188385009766e+01 1.770707130432128906e+00 -1.480895280838012695e+00 -4.551873728632926941e-02 -4.579242169857025146e-01 4.218795001506805420e-01
7.780000000000000000e+02 8.208743095397949219e+00 1.869304060935974121e+00 -1.328686118125915527e+00 -4.025028273463249207e-02 -4.106809496879577637e-01 6.553328037261962891e-01
7.790000000000000000e+02 8.989274024963378906e+00 1.858451604843139648e+00 -1.383718848228454590e+00 -8.143473416566848755e-02 -4.395460784435272217e-01 6.237238049507141113e-01
7.800000000000000000e+02 5.977040290832519531e+00 3.413716077804565430e+00 -4.073954522609710693e-01 -8.372777700424194336e-02 -1.473369598388671875e-01 8.071722984313964844e-01
7.810000000000000000e+02 6.650137424468994141e+00 1.878654122352600098e+00 -1.032098770141601562e+00 -3.492559492588043213e-02 -3.201073110103607178e-01 6.363187432289123535e-01
7.820000000000000000e+02 5.097795963287353516e+00 1.895565271377563477e+00 -7.084074020385742188e-01 -6.189211085438728333e-02 -2.310898602008819580e-01 5.834784507751464844e-01
7.830000000000000000e+02 4.319043636322021484e+00 1.920514583587646484e+00 -5.505557656288146973e-01 -8.515960723161697388e-02 -1.907146126031875610e-01 5.379973053932189941e-01
7.840000000000000000e+02 3.536911249160766602e+00 1.963153243064880371e+00 -4.042553007602691650e-01 -1.210392192006111145e-01 -1.575883626937866211e-01 4.767063856124877930e-01
7.850000000000000000e+02 2.751383304595947266e+00 2.022810220718383789e+00 -2.707289755344390869e-01 -1.627457737922668457e-01 -1.300424188375473022e-01 3.923177719116210938e-01
7.860000000000000000e+02 1.963586688041687012e+00 2.089898109436035156e+00 -1.589745581150054932e-01 -1.930543631315231323e-01 -1.056086719036102295e-01 2.911586463451385498e-01
7.870000000000000000e+02 1.283945655822753906e+01 1.402558684349060059e+00 -1.402725219726562500e+00 3.024145364761352539e-01 -3.300932049751281738e-01 -1.934143900871276855e-02
7.880000000000000000e+02 1.358072376251220703e+01 1.281258821487426758e+00 -1.200035452842712402e+00 3.810110390186309814e-01 -2.457073330879211426e-01 -2.831220924854278564e-01
7.890000000000000000e+02 1.499667453765869141e+01 1.037642836570739746e+00 -6.452072858810424805e-01 8.032067418098449707e-01 4.739983752369880676e-02 -9.484722614288330078e-01
7.900000000000000000e+02 1.565754985809326172e+01 9.249994158744812012e-01 -2.628111243247985840e-01 1.157233476638793945e+00 2.683266997337341309e-01 -1.466096401214599609e+00
7.910000000000000000e+02 1.675314712524414062e+01 8.468842506408691406e-01 9.269058704376220703e-01 2.348626375198364258e+00 9.826596379280090332e-01 -2.942226648330688477e+00
7.920000000000000000e+02 1.714765167236328125e+01 7.742083072662353516e-01 1.450385451316833496e+00 2.950637102127075195e+00 1.320306777954101562e+00 -3.673839569091796875e+00
7.930000000000000000e+02 1.810712432861328125e+01 6.795546412467956543e-01 1.563648462295532227e+00 6.772428989410400391e+00 2.500823259353637695e+00 -5.579712867736816406e+00
7.940000000000000000e+02 1.990847778320312500e+01 5.057292461395263672e+00 1.384092807769775391e+00 8.104451179504394531e+00 2.846563339233398438e+00 -3.618092775344848633e+00
7.950000000000000000e+02 2.064638137817382812e+01 3.728044986724853516e+00 7.055006027221679688e-01 6.839639186859130859e+00 2.263541936874389648e+00 -2.648162364959716797e+00
7.960000000000000000e+02 1.994027709960937500e+01 4.613258540630340576e-01 2.005735635757446289e+00 1.180657577514648438e+01 4.143693447113037109e+00 -9.024263620376586914e-01
7.970000000000000000e+02 1.971607017517089844e+01 5.439882874488830566e-01 1.194196820259094238e+00 1.276006984710693359e+01 4.186279773712158203e+00 -1.652035951614379883e+00
7.980000000000000000e+02 2.041533279418945312e+01 1.069221854209899902e+00 4.846981465816497803e-01 9.218105316162109375e+00 2.910840988159179688e+00 -1.123633503913879395e+00
7.990000000000000000e+02 2.059895133972167969e+01 -6.945336461067199707e-01 8.157335281372070312e+00 7.765505790710449219e+00 4.776852130889892578e+00 -1.499759078025817871e+00
8.000000000000000000e+02 2.017318153381347656e+01 -2.154910802841186523e+00 5.633796691894531250e+00 9.983125686645507812e+00 4.685076713562011719e+00 -3.765998363494873047e+00
8.010000000000000000e+02 2.032118988037109375e+01 -2.002615690231323242e+00 6.426482677459716797e+00 9.339877128601074219e+00 4.729907989501953125e+00 -4.090588569641113281e+00
8.020000000000000000e+02 1.961434745788574219e+01 -2.474699974060058594e+00 3.363177061080932617e+00 1.150677204132080078e+01 4.460984706878662109e+00 -1.518826484680175781e+00
8.030000000000000000e+02 1.754081726074218750e+01 -2.568845510482788086e+00 4.250784873962402344e+00 2.252410173416137695e+00 1.950958609580993652e+00 2.449859142303466797e+00
8.040000000000000000e+02 1.634360694885253906e+01 -2.535474300384521484e+00 3.279123783111572266e+00 4.574519693851470947e-01 1.120972752571105957e+00 1.052022814750671387e+00
8.050000000000000000e+02 1.509836483001708984e+01 -3.017045021057128906e+00 2.520547628402709961e+00 2.163490355014801025e-01 8.210690021514892578e-01 9.018726348876953125e-01
8.060000000000000000e+02 1.234408760070800781e+01 -2.174532175064086914e+00 1.083514690399169922e+00 -4.006402939558029175e-02 3.130352199077606201e-01 2.836234271526336670e-01
8.070000000000000000e+02 1.362456798553466797e+01 -2.323835372924804688e+00 1.545272231101989746e+00 -3.047194518148899078e-02 4.544400870800018311e-01 3.660576045513153076e-01
8.080000000000000000e+02 1.481205272674560547e+01 -2.459972143173217773e+00 2.124573707580566406e+00 2.746646478772163391e-02 6.456120610237121582e-01 4.796899557113647461e-01
8.090000000000000000e+02 1.163753414154052734e+01 -2.081066131591796875e+00 8.815836310386657715e-01 -2.608986943960189819e-02 2.566481232643127441e-01 2.592880725860595703e-01
8.100000000000000000e+02 1.413748741149902344e+01 -1.636389350891113281e+01 -3.320097684860229492e+00 -4.731177091598510742e-01 -1.137964606285095215e+00 1.258991122245788574e+00
8.110000000000000000e+02 1.971443557739257812e+01 -1.705727005004882812e+01 -2.648668050765991211e+00 2.457022964954376221e-01 -7.208896875381469727e-01 5.883539915084838867e-01
8.120000000000000000e+02 1.933553314208984375e+01 -1.829678535461425781e+01 -2.906446456909179688e+00 1.462016999721527100e-02 -8.675478696823120117e-01 7.418992519378662109e-01
8.130000000000000000e+02 2.193029594421386719e+01 -1.867656135559082031e+01 -3.083971977233886719e+00 1.643254458904266357e-01 -8.758940100669860840e-01 1.423716098070144653e-01
8.140000000000000000e+02 2.458299827575683594e+01 -1.741397857666015625e+01 -3.136985540390014648e+00 2.215161174535751343e-01 -8.746407628059387207e-01 -9.791582077741622925e-02
8.150000000000000000e+02 2.122273635864257812e+01 -1.609450531005859375e+01 -2.290463209152221680e+00 5.033504962921142578e-01 -5.361338257789611816e-01 3.886595070362091064e-01
8.160000000000000000e+02 2.841926765441894531e+01 -1.795420837402343750e+01 -4.710232257843017578e+00 -3.731926158070564270e-02 -1.424265384674072266e+00 -6.589198112487792969e-01
8.170000000000000000e+02 3.603176879882812500e+01 -2.600174331665039062e+01 1.977301597595214844e+00 1.132470321655273438e+01 3.990601301193237305e+00 1.112064361572265625e+00
8.180000000000000000e+02 2.697058868408203125e+01 -3.147097015380859375e+01 -1.314340591430664062e+00 1.235365122556686401e-01 -3.572412133216857910e-01 9.422668069601058960e-02
8.190000000000000000e+02 2.286676597595214844e+01 -3.178013420104980469e+01 -1.689612269401550293e+00 -2.294137515127658844e-02 -5.137661099433898926e-01 -9.798225015401840210e-02
8.200000000000000000e+02 2.447386932373046875e+01 -3.335233306884765625e+01 -1.102639079093933105e+00 5.973139405250549316e-02 -3.128723204135894775e-01 9.244013577699661255e-02
8.210000000000000000e+02 2.151222801208496094e+01 -3.189309692382812500e+01 -1.755695939064025879e+00 -2.519911341369152069e-02 -5.342684984207153320e-01 -6.277167052030563354e-02
8.220000000000000000e+02 2.048350334167480469e+01 -3.366690826416015625e+01 -1.427954554557800293e+00 -9.276255220174789429e-02 -4.562151432037353516e-01 1.045864149928092957e-01
8.230000000000000000e+02 1.650053787231445312e+01 -3.394480514526367188e+01 -1.465166568756103516e+00 -3.337195217609405518e-01 -5.396658182144165039e-01 3.784880042076110840e-01
8.240000000000000000e+02 1.167954826354980469e+01 -3.115936660766601562e+01 -3.098348379135131836e+00 -3.429505825042724609e-01 -1.032389640808105469e+00 9.053173661231994629e-01
8.250000000000000000e+02 3.115573120117187500e+01 3.714402008056640625e+01 -2.847495317459106445e+00 -1.830548495054244995e-01 -9.091650247573852539e-01 5.670273900032043457e-01
8.260000000000000000e+02 3.778738021850585938e+01 3.467812347412109375e+01 -1.615146040916442871e+00 -6.209609284996986389e-02 -5.031726360321044922e-01 6.017645597457885742e-01
8.270000000000000000e+02 4.163319015502929688e+01 2.682351112365722656e+01 8.709502965211868286e-02 4.993101119995117188e+00 1.524058818817138672e+00 -7.799402624368667603e-02
8.280000000000000000e+02 4.163287734985351562e+01 2.124179458618164062e+01 2.415957301855087280e-02 5.769938468933105469e+00 1.738229393959045410e+00 2.040783762931823730e-01
8.290000000000000000e+02 4.162325286865234375e+01 1.985949134826660156e+01 2.194064483046531677e-02 6.271778106689453125e+00 1.888115644454956055e+00 2.557885944843292236e-01
8.300000000000000000e+02 4.161186981201171875e+01 1.847456359863281250e+01 1.160929873585700989e-01 7.082596778869628906e+00 2.159606933593750000e+00 4.187772572040557861e-01
8.310000000000000000e+02 4.148999404907226562e+01 1.569698715209960938e+01 2.826329171657562256e-01 8.872717857360839844e+00 2.746605396270751953e+00 1.063903331756591797e+00
8.320000000000000000e+02 4.066331100463867188e+01 1.014342212677001953e+01 1.062566161155700684e+00 1.212746810913085938e+01 3.957010269165039062e+00 3.109098911285400391e+00
8.330000000000000000e+02 4.537080001831054688e+01 4.119026184082031250e+00 -1.879646778106689453e-01 3.690985679626464844e+00 1.050906300544738770e+00 2.971210956573486328e+00
8.340000000000000000e+02 3.785090255737304688e+01 3.562577724456787109e+00 2.088720560073852539e+00 7.758086204528808594e+00 2.954042196273803711e+00 3.829771518707275391e+00
8.350000000000000000e+02 3.601831054687500000e+01 1.351875066757202148e+00 5.260490179061889648e-01 2.531392574310302734e+00 9.172324538230895996e-01 1.259702086448669434e+00
8.360000000000000000e+02 3.249250030517578125e+01 -1.125203371047973633e+00 -1.398854851722717285e-01 -1.469998955726623535e-01 -8.606561273336410522e-02 -3.783908486366271973e-01
8.370000000000000000e+02 2.062137413024902344e+01 -1.375701308250427246e+00 8.410820007324218750e+00 7.564380168914794922e+00 4.792560100555419922e+00 -3.523627281188964844e+00
8.380000000000000000e+02 1.950590324401855469e+01 6.163047552108764648e-01 6.063413023948669434e-01 1.307090568542480469e+01 4.103174209594726562e+00 -2.445456981658935547e+00
8.390000000000000000e+02 1.876452255249023438e+01 7.639961242675781250e+00 1.776033520698547363e+00 8.936483383178710938e+00 3.213755130767822266e+00 -3.893790483474731445e+00
8.400000000000000000e+02 1.771323776245117188e+01 1.018775367736816406e+01 1.359109044075012207e+00 8.652288436889648438e+00 3.003419160842895508e+00 -3.371548175811767578e+00
8.410000000000000000e+02 1.720490837097167969e+01 1.147862625122070312e+01 1.294584512710571289e+00 8.800217628479003906e+00 3.028440713882446289e+00 -3.137202262878417969e+00
8.420000000000000000e+02 1.555133914947509766e+01 1.686544036865234375e+01 7.267238497734069824e-01 9.331031799316406250e+00 3.017326593399047852e+00 -1.935113430023193359e+00
8.430000000000000000e+02 1.517790699005126953e+01 2.112787628173828125e+01 1.180380061268806458e-01 7.805038928985595703e+00 2.376923084259033203e+00 -3.293166756629943848e-01
8.440000000000000000e+02 1.521737575531005859e+01 2.254365730285644531e+01 9.335011988878250122e-02 7.209208488464355469e+00 2.190767526626586914e+00 -8.731023222208023071e-02
8.450000000000000000e+02 1.550765514373779297e+01 2.536217308044433594e+01 3.450249433517456055e-01 5.927239894866943359e+00 1.881679415702819824e+00 7.286946177482604980e-01
8.460000000000000000e+02 1.754063987731933594e+01 3.066340446472167969e+01 -1.487606912851333618e-01 1.115457057952880859e+00 2.900089323520660400e-01 1.592976301908493042e-01
8.470000000000000000e+02 2.398442840576171875e+01 3.669467544555664062e+01 -2.638986110687255859e+00 -4.983178973197937012e-01 -9.411911964416503906e-01 -8.146013021469116211e-01
8.480000000000000000e+02 2.554417228698730469e+01 3.710388565063476562e+01 -2.776558637619018555e+00 -2.939392626285552979e-01 -9.211493730545043945e-01 -6.036205291748046875e-01
8.490000000000000000e+02 4.850793075561523438e+01 1.232885360717773438e+00 -5.168138027191162109e+00 -6.316805481910705566e-01 -1.739945530891418457e+00 1.449964761734008789e+00
8.500000000000000000e+02 5.377522659301757812e+01 -5.937878489494323730e-01 -3.985213041305541992e+00 -2.730672247707843781e-02 -1.203755974769592285e+00 6.188043951988220215e-01
8.510000000000000000e+02 5.513202285766601562e+01 -8.006624579429626465e-01 -4.339046955108642578e+00 -8.697853237390518188e-02 -1.327807545661926270e+00 5.826761722564697266e-01
8.520000000000000000e+02 5.786137771606445312e+01 -1.314369797706604004e+00 -4.124365806579589844e+00 -1.698573827743530273e-01 -1.288267016410827637e+00 7.531297802925109863e-01
8.530000000000000000e+02 6.303562545776367188e+01 -3.477649927139282227e+00 -1.350112557411193848e-01 1.387503027915954590e+00 3.757475316524505615e-01 -7.114317417144775391e-01
8.540000000000000000e+02 6.640848541259765625e+01 -8.239727973937988281e+00 6.849796175956726074e-01 7.255578041076660156e+00 2.382167339324951172e+00 -2.495158910751342773e+00
8.550000000000000000e+02 6.790682983398437500e+01 -1.215995788574218750e+01 1.436319231986999512e+00 1.234553527832031250e+01 4.134556293487548828e+00 -3.802567720413208008e+00
8.560000000000000000e+02 6.832690429687500000e+01 -1.349760437011718750e+01 1.386838555335998535e+00 1.542855834960937500e+01 5.044619083404541016e+00 -3.543530464172363281e+00
8.570000000000000000e+02 6.994976043701171875e+01 -1.874395370483398438e+01 1.759733557701110840e-01 1.426401615142822266e+01 4.331996917724609375e+00 -5.011946558952331543e-01
8.580000000000000000e+02 6.884997558593750000e+01 -2.037886428833007812e+01 -7.049893029034137726e-03 1.492578601837158203e+01 4.475620746612548828e+00 -1.120761185884475708e-01
8.590000000000000000e+02 6.898903656005859375e+01 -2.311144638061523438e+01 2.054189443588256836e-01 1.539248085021972656e+01 4.679369926452636719e+00 3.123360574245452881e-01
8.600000000000000000e+02 6.905637359619140625e+01 -2.444648170471191406e+01 1.060186266899108887e+00 1.504475212097167969e+01 4.831481456756591797e+00 1.433682322502136230e+00
8.610000000000000000e+02 6.763223266601562500e+01 -2.778569221496582031e+01 1.210681438446044922e+00 7.511270999908447266e+00 2.616585731506347656e+00 2.850485563278198242e+00
8.620000000000000000e+02 5.111708068847656250e+01 -2.692612075805664062e+01 1.019175648689270020e-01 2.511194348335266113e-01 1.059111058712005615e-01 -1.919961720705032349e-01
8.630000000000000000e+02 5.016838836669921875e+01 -2.592248344421386719e+01 1.887258589267730713e-01 3.284755349159240723e-01 1.551604270935058594e-01 -2.369028478860855103e-01
8.640000000000000000e+02 4.726606750488281250e+01 -2.293175888061523438e+01 3.942075371742248535e-01 5.866543054580688477e-01 2.942585647106170654e-01 -4.706539809703826904e-01
8.650000000000000000e+02 4.601723480224609375e+01 -2.540725135803222656e+01 6.639963984489440918e-01 2.066865682601928711e+00 8.192586302757263184e-01 -1.160166621208190918e+00
8.660000000000000000e+02 4.338449859619140625e+01 -1.890904617309570312e+01 1.369793653488159180e+00 4.911216259002685547e+00 1.884303092956542969e+00 -2.316991567611694336e+00
8.670000000000000000e+02 4.154440689086914062e+01 -1.347635841369628906e+01 4.099304974079132080e-01 1.503449726104736328e+01 4.633328437805175781e+00 -1.314056754112243652e+00
8.680000000000000000e+02 4.038928222656250000e+01 -1.337456321716308594e+01 3.788663148880004883e-01 1.312121772766113281e+01 4.050024986267089844e+00 -1.080627083778381348e+00
8.690000000000000000e+02 4.136246109008789062e+01 -7.914600372314453125e+00 7.850848436355590820e-01 1.693633651733398438e+01 5.316426277160644531e+00 1.213429093360900879e+00
8.700000000000000000e+02 4.154984283447265625e+01 -6.523411750793457031e+00 1.130144000053405762e+00 1.629202270507812500e+01 5.226649761199951172e+00 2.820393800735473633e+00
8.710000000000000000e+02 4.377193069458007812e+01 -6.652883440256118774e-02 1.481708049774169922e+00 7.104988098144531250e+00 2.576008796691894531e+00 3.659027576446533203e+00
8.720000000000000000e+02 1.910367202758789062e+01 6.674369573593139648e-01 3.331887125968933105e-01 1.255566692352294922e+01 3.866656780242919922e+00 -4.093782424926757812e+00
8.730000000000000000e+02 1.722669982910156250e+01 8.610199928283691406e+00 1.623795628547668457e+00 7.468413352966308594e+00 2.727662801742553711e+00 -3.193443298339843750e+00
8.740000000000000000e+02 1.828967285156250000e+01 7.006484270095825195e-01 1.363055109977722168e+00 7.741549968719482422e+00 2.731381654739379883e+00 -5.732368946075439453e+00
8.750000000000000000e+02 1.802452850341796875e+01 9.021646380424499512e-01 1.166283130645751953e+00 6.582043170928955078e+00 2.324497938156127930e+00 -5.280145645141601562e+00
8.760000000000000000e+02 1.870392608642578125e+01 7.458760142326354980e-01 5.586809515953063965e-01 1.050220489501953125e+01 3.318265676498413086e+00 -5.307168006896972656e+00
8.770000000000000000e+02 1.695733070373535156e+01 8.194196224212646484e-01 1.174025654792785645e+00 2.584591388702392578e+00 1.127585053443908691e+00 -3.274126291275024414e+00
8.780000000000000000e+02 1.610274314880371094e+01 1.212658047676086426e+00 3.781021833419799805e-01 1.721510410308837891e+00 6.298837661743164062e-01 -2.215625524520874023e+00
8.790000000000000000e+02 1.782339477539062500e+01 1.070546150207519531e+00 1.054746866226196289e+00 5.911731243133544922e+00 2.089943408966064453e+00 -4.912964344024658203e+00
8.800000000000000000e+02 1.734732055664062500e+01 1.138481616973876953e+00 1.044807314872741699e+00 4.121073246002197266e+00 1.549764275550842285e+00 -4.051910400390625000e+00
8.810000000000000000e+02 1.840849113464355469e+01 1.042329907417297363e+00 5.141731500625610352e-01 8.532078742980957031e+00 2.713875770568847656e+00 -5.232688426971435547e+00
8.820000000000000000e+02 2.462596321105957031e+01 -3.337011098861694336e+00 5.071656227111816406e+00 1.428844809532165527e+00 1.950150251388549805e+00 -1.966787099838256836e+00
8.830000000000000000e+02 1.891362190246582031e+01 7.108336687088012695e-01 3.974882662296295166e-01 1.157515621185302734e+01 3.591793537139892578e+00 -4.800168037414550781e+00
8.840000000000000000e+02 2.035088729858398438e+01 -1.109352186322212219e-01 5.557401657104492188e+00 9.924063682556152344e+00 4.644439697265625000e+00 5.486040934920310974e-02
8.850000000000000000e+02 2.429054069519042969e+01 -6.887966990470886230e-01 3.121292352676391602e+00 6.561534404754638672e-01 1.133233785629272461e+00 -1.679746747016906738e+00
8.860000000000000000e+02 2.053569602966308594e+01 -4.878858029842376709e-01 7.670000076293945312e+00 8.338620185852050781e+00 4.802586078643798828e+00 -8.051729798316955566e-01
8.870000000000000000e+02 2.063651084899902344e+01 -9.140838980674743652e-01 8.502500534057617188e+00 7.396580696105957031e+00 4.769724369049072266e+00 -2.249081611633300781e+00
8.880000000000000000e+02 2.330074310302734375e+01 3.488607406616210938e-01 9.464515447616577148e-01 -2.426038682460784912e-01 2.111542969942092896e-01 -2.004867494106292725e-01
8.890000000000000000e+02 2.108911323547363281e+01 -1.135514616966247559e+00 7.538759231567382812e+00 5.667706966400146484e+00 3.961939811706542969e+00 -2.915085554122924805e+00
8.900000000000000000e+02 2.053602027893066406e+01 2.647666931152343750e-01 3.926492452621459961e+00 9.313180923461914062e+00 3.971902132034301758e+00 -8.822759240865707397e-02
8.910000000000000000e+02 2.071832847595214844e+01 -1.432801336050033569e-01 5.446784973144531250e+00 8.059533119201660156e+00 4.051895141601562500e+00 -4.899695217609405518e-01
8.920000000000000000e+02 2.047399330139160156e+01 -1.834237933158874512e+00 7.147847175598144531e+00 8.579331398010253906e+00 4.718153476715087891e+00 -4.105565547943115234e+00
8.930000000000000000e+02 2.238115692138671875e+01 1.400088191032409668e+00 4.406005609780550003e-03 5.540101528167724609e-01 1.675248593091964722e-01 1.155672073364257812e-01
8.940000000000000000e+02 2.024687385559082031e+01 8.458863198757171631e-02 4.488500118255615234e+00 1.045243072509765625e+01 4.482279300689697266e+00 4.300493746995925903e-02
8.950000000000000000e+02 2.287145042419433594e+01 -4.313344955444335938e-01 3.958215236663818359e+00 9.948630332946777344e-01 1.485923528671264648e+00 -1.885031938552856445e+00
8.960000000000000000e+02 2.056574821472167969e+01 -1.606766104698181152e+00 7.958560466766357422e+00 7.918487548828125000e+00 4.763114452362060547e+00 -3.887803316116333008e+00
8.970000000000000000e+02 1.919957923889160156e+01 -2.660876035690307617e+00 2.822356939315795898e+00 1.047741794586181641e+01 3.989932537078857422e+00 7.083244919776916504e-01
8.980000000000000000e+02 1.960506439208984375e+01 -2.849512577056884766e+00 2.897646903991699219e+00 9.950795173645019531e+00 3.854532718658447266e+00 -8.802651762962341309e-01
8.990000000000000000e+02 1.975438880920410156e+01 -2.696213006973266602e+00 3.312515258789062500e+00 1.034355449676513672e+01 4.096820831298828125e+00 -1.600654840469360352e+00
9.000000000000000000e+02 1.862069511413574219e+01 1.158321380615234375e+00 4.106643795967102051e-02 9.509938240051269531e+00 2.865301370620727539e+00 -4.872555732727050781e+00
9.010000000000000000e+02 1.594993400573730469e+01 -2.524168729782104492e+00 2.937708854675292969e+00 2.614058256149291992e-01 9.597343802452087402e-01 8.500190973281860352e-01
9.020000000000000000e+02 1.775054168701171875e+01 -2.612032413482666016e+00 4.300810813903808594e+00 3.129223823547363281e+00 2.229010343551635742e+00 2.804491519927978516e+00
9.030000000000000000e+02 1.897522926330566406e+01 -2.631454229354858398e+00 2.865078687667846680e+00 9.891923904418945312e+00 3.827100753784179688e+00 1.745990514755249023e+00
9.040000000000000000e+02 1.844036674499511719e+01 -2.956132411956787109e+00 3.226673364639282227e+00 6.468603610992431641e+00 2.908583164215087891e+00 2.686026573181152344e+00
9.050000000000000000e+02 1.694181060791015625e+01 -2.523593902587890625e+00 3.904308080673217773e+00 1.019033789634704590e+00 1.477002620697021484e+00 1.578264832496643066e+00
9.060000000000000000e+02 1.816084861755371094e+01 -2.620303392410278320e+00 4.135750770568847656e+00 5.262766361236572266e+00 2.819555044174194336e+00 3.291351079940795898e+00
9.070000000000000000e+02 1.613857841491699219e+01 -2.521325111389160156e+00 3.132369518280029297e+00 3.669416904449462891e-01 1.049793362617492676e+00 9.339370131492614746e-01
9.080000000000000000e+02 1.412460422515869141e+01 -2.877269268035888672e+00 1.968919515609741211e+00 1.409468241035938263e-02 5.949042439460754395e-01 6.145417690277099609e-01
9.090000000000000000e+02 1.465652275085449219e+01 -2.930242061614990234e+00 2.243346691131591797e+00 9.707999229431152344e-02 7.021280527114868164e-01 7.279385328292846680e-01
9.100000000000000000e+02 1.353988170623779297e+01 -2.826780557632446289e+00 1.691027522087097168e+00 1.427680603228509426e-03 5.077365636825561523e-01 5.397501587867736816e-01
9.110000000000000000e+02 1.542999362945556641e+01 -3.154210805892944336e+00 2.708169698715209961e+00 3.234245777130126953e-01 9.094783067703247070e-01 1.061257719993591309e+00
9.120000000000000000e+02 1.292026519775390625e+01 -2.776158332824707031e+00 1.444836378097534180e+00 -2.224751189351081848e-02 4.267766773700714111e-01 4.908775687217712402e-01
9.130000000000000000e+02 1.021404266357421875e+01 -1.907668590545654297e+00 5.554273128509521484e-01 -4.445424769073724747e-03 1.652945578098297119e-01 2.079015374183654785e-01
9.140000000000000000e+02 1.017965412139892578e+01 -2.595841169357299805e+00 6.903479099273681641e-01 1.004521083086729050e-02 2.101179361343383789e-01 3.347540199756622314e-01
9.150000000000000000e+02 1.088101577758789062e+01 -2.627867698669433594e+00 8.427023291587829590e-01 -1.694355858489871025e-03 2.523024082183837891e-01 3.674875199794769287e-01
9.160000000000000000e+02 9.467022895812988281e+00 -2.581984281539916992e+00 5.591274499893188477e-01 3.274774178862571716e-02 1.775625646114349365e-01 3.029148876667022705e-01
9.170000000000000000e+02 1.441247081756591797e+01 1.751827478408813477e+00 -3.795178532600402832e-01 9.925239682197570801e-01 1.839018464088439941e-01 -9.968619346618652344e-01
9.180000000000000000e+02 1.565721702575683594e+01 1.392020583152770996e+00 1.420846581459045410e-01 1.675249338150024414e+00 5.452002286911010742e-01 -1.862631678581237793e+00
9.190000000000000000e+02 1.208030319213867188e+01 1.529967546463012695e+00 -1.524786472320556641e+00 1.742449700832366943e-01 -4.051624536514282227e-01 1.277821511030197144e-01
9.200000000000000000e+02 8.736401557922363281e+00 -2.589181423187255859e+00 4.430203735828399658e-01 4.753133654594421387e-02 1.471655219793319702e-01 2.680312395095825195e-01
9.210000000000000000e+02 6.486672878265380859e+00 -2.678840875625610352e+00 1.901216655969619751e-01 8.339560031890869141e-02 8.205518126487731934e-02 1.499173641204833984e-01
9.220000000000000000e+02 7.223812580108642578e+00 -1.879827022552490234e+00 1.759613007307052612e-01 4.064305499196052551e-02 6.498130410909652710e-02 1.196735873818397522e-01
9.230000000000000000e+02 7.239451885223388672e+00 -2.643350362777709961e+00 2.599639594554901123e-01 7.489463686943054199e-02 1.004575714468955994e-01 1.883101314306259155e-01
9.240000000000000000e+02 7.991501808166503906e+00 -2.611403703689575195e+00 3.411817848682403564e-01 6.843192130327224731e-02 1.228841096162796021e-01 2.331866323947906494e-01
9.250000000000000000e+02 5.710821151733398438e+00 -1.901058673858642578e+00 7.921333611011505127e-02 3.992493078112602234e-02 3.574148193001747131e-02 6.115889549255371094e-02
9.260000000000000000e+02 5.740740776062011719e+00 -2.713597774505615234e+00 1.395963132381439209e-01 7.538998872041702271e-02 6.449589133262634277e-02 9.965345263481140137e-02
9.270000000000000000e+02 4.263585090637207031e+00 -2.795459985733032227e+00 6.516933441162109375e-02 7.023234665393829346e-02 4.062050208449363708e-02 3.719126805663108826e-02
9.280000000000000000e+02 2.683955907821655273e+00 -2.024465560913085938e+00 -1.592651708051562309e-03 1.333399489521980286e-02 3.522402839735150337e-03 -3.256195411086082458e-02
9.290000000000000000e+02 1.689783215522766113e+00 -7.849057197570800781e+00 -9.077255614101886749e-03 8.887551724910736084e-02 2.393947914242744446e-02 6.199196446686983109e-03
9.300000000000000000e+02 3.741004228591918945e+00 -3.841033458709716797e+00 7.485409826040267944e-02 1.097677946090698242e-01 5.538656935095787048e-02 5.159067362546920776e-02
9.310000000000000000e+02 4.181429147720336914e-01 -3.576154947280883789e+00 1.142174191772937775e-02 -8.293973654508590698e-02 -2.145539782941341400e-02 -8.219789713621139526e-03
9.320000000000000000e+02 4.897469282150268555e-01 -4.984076499938964844e+00 -7.265016436576843262e-03 -1.013625189661979675e-01 -3.258826211094856262e-02 -3.118572523817420006e-03
9.330000000000000000e+02 8.274739265441894531e+00 2.613256216049194336e+00 -8.495200872421264648e-01 -1.742236316204071045e-02 -2.600827515125274658e-01 7.069165706634521484e-01
9.340000000000000000e+02 1.368918800354003906e+01 1.917009711265563965e+00 -5.637959241867065430e-01 8.103774785995483398e-01 7.397448271512985229e-02 -6.412369608879089355e-01
9.350000000000000000e+02 1.142352485656738281e+01 2.340930223464965820e+00 -8.746282458305358887e-01 2.405621111392974854e-01 -1.902198344469070435e-01 1.484566032886505127e-01
9.360000000000000000e+02 1.294190883636474609e+01 2.065953016281127930e+00 -7.262488007545471191e-01 5.675114989280700684e-01 -4.762118309736251831e-02 -3.184087276458740234e-01
9.370000000000000000e+02 5.873553276062011719e+00 1.883705615997314453e+00 -8.693451285362243652e-01 -4.240449890494346619e-02 -2.735248804092407227e-01 6.134135127067565918e-01
9.380000000000000000e+02 7.428862571716308594e+00 1.875147223472595215e+00 -1.183846354484558105e+00 -2.639908343553543091e-02 -3.630736172199249268e-01 6.432432532310485840e-01
9.390000000000000000e+02 6.707242012023925781e+00 2.637736797332763672e+00 -7.299880981445312500e-01 -4.184355214238166809e-02 -2.315494865179061890e-01 7.511823177337646484e-01
9.400000000000000000e+02 5.243020057678222656e+00 3.431382894515991211e+00 -3.605131208896636963e-01 -1.313884109258651733e-01 -1.475704610347747803e-01 7.888524532318115234e-01
9.410000000000000000e+02 1.240957736968994141e+00 3.456246376037597656e+00 -5.039843916893005371e-02 -4.341339766979217529e-01 -1.453597247600555420e-01 2.978257834911346436e-01
9.420000000000000000e+02 2.860667705535888672e+00 3.045449972152709961e+00 -2.015411555767059326e-01 -2.921731770038604736e-01 -1.481142938137054443e-01 5.400241017341613770e-01
9.430000000000000000e+02 2.058260679244995117e+00 3.268312454223632812e+00 -1.126103028655052185e-01 -3.820300996303558350e-01 -1.483921259641647339e-01 4.301291704177856445e-01
9.440000000000000000e+02 1.176812171936035156e+00 2.147529125213623047e+00 -6.975032389163970947e-02 -2.075361609458923340e-01 -8.318594098091125488e-02 1.793900728225708008e-01
9.450000000000000000e+02 9.853416442871093750e+00 2.538166999816894531e+00 -8.871588110923767090e-01 3.663345798850059509e-02 -2.551576197147369385e-01 5.041609406471252441e-01
9.460000000000000000e+02 7.487718105316162109e+00 2.628777742385864258e+00 -8.123068213462829590e-01 -2.422214299440383911e-02 -2.509586811065673828e-01 7.479438781738281250e-01
9.470000000000000000e+02 1.064482498168945312e+01 2.455760955810546875e+00 -8.872207403182983398e-01 1.170707195997238159e-01 -2.310450077056884766e-01 3.221308887004852295e-01
9.480000000000000000e+02 2.093148469924926758e+00 -3.182726478576660156e+01 -3.294528722763061523e-01 4.641270637512207031e+00 1.293545365333557129e+00 2.347545027732849121e-01
9.490000000000000000e+02 3.145176315307617188e+01 -1.757800865173339844e+01 -5.239644050598144531e+00 -4.656212925910949707e-01 -1.711579561233520508e+00 2.153157293796539307e-01
9.500000000000000000e+02 4.131344223022460938e+01 -1.839858627319335938e+01 3.232309818267822266e-01 1.005921649932861328e+01 3.114734172821044922e+00 -4.914360940456390381e-01
9.510000000000000000e+02 3.922950363159179688e+01 -1.451323127746582031e+01 4.669569432735443115e-01 1.127508163452148438e+01 3.522611618041992188e+00 -6.399544477462768555e-01
9.520000000000000000e+02 7.856457710266113281e+00 -1.595592117309570312e+01 8.330889344215393066e-01 4.590711593627929688e+00 1.627140164375305176e+00 1.806408047676086426e+00
9.530000000000000000e+02 3.443451690673828125e+01 -1.880915641784667969e+01 -7.415547370910644531e-01 6.008153915405273438e+00 1.579979777336120605e+00 -1.905188798904418945e+00
9.540000000000000000e+02 3.844157791137695312e+01 -2.344011497497558594e+01 1.851408481597900391e+00 9.367674827575683594e+00 3.365725040435791016e+00 5.418201088905334473e-01
9.550000000000000000e+02 9.211352348327636719e+00 -3.427895355224609375e+01 -6.665487289428710938e-01 1.523763835430145264e-01 -1.542517095804214478e-01 1.446801573038101196e-01
9.560000000000000000e+02 1.774463176727294922e+00 -1.909210395812988281e+01 1.990110278129577637e-01 -8.429440855979919434e-02 3.441498428583145142e-02 7.215350866317749023e-02
9.570000000000000000e+02 1.551612186431884766e+01 -1.681734466552734375e+01 -3.323321580886840820e+00 -7.246721982955932617e-01 -1.214398145675659180e+00 1.370143294334411621e+00
9.580000000000000000e+02 1.263488769531250000e+01 -1.514678573608398438e+01 -9.543122649192810059e-01 -1.603263467550277710e-01 -3.343915641307830811e-01 1.732889413833618164e+00
9.590000000000000000e+02 2.844329643249511719e+01 -3.142292594909667969e+01 -8.073635101318359375e-01 3.834572434425354004e-01 -1.271718740463256836e-01 4.370800256729125977e-01
9.600000000000000000e+02 3.075160408020019531e+01 -3.209161758422851562e+01 -2.143329828977584839e-01 2.347578048706054688e+00 6.399735212326049805e-01 1.626248359680175781e+00
9.610000000000000000e+02 1.305429267883300781e+01 -3.140259742736816406e+01 -2.742669582366943359e+00 -2.408277541399002075e-01 -8.950492143630981445e-01 6.951534152030944824e-01
9.620000000000000000e+02 1.028497409820556641e+01 -3.080729484558105469e+01 -3.473756551742553711e+00 -8.700913190841674805e-01 -1.303154349327087402e+00 1.292929291725158691e+00
9.630000000000000000e+02 3.174400329589843750e+00 -1.771599388122558594e+01 5.207686424255371094e-01 1.702821254730224609e+00 6.670769453048706055e-01 -5.561191588640213013e-02
9.640000000000000000e+02 3.533498764038085938e+01 -3.016262435913085938e+01 -3.196264207363128662e-01 7.066850662231445312e+00 2.024167299270629883e+00 7.404491901397705078e-01
9.650000000000000000e+02 2.214580535888671875e+01 -1.741197013854980469e+01 -2.832938671112060547e+00 3.320817351341247559e-01 -7.502570748329162598e-01 2.448499649763107300e-01
9.660000000000000000e+02 3.607622909545898438e+01 -2.716751670837402344e+01 1.081622362136840820e+00 1.013169193267822266e+01 3.363994121551513672e+00 9.709733724594116211e-01
9.670000000000000000e+02 1.108333206176757812e+01 -1.509895896911621094e+01 6.590173393487930298e-02 8.159401416778564453e-01 2.645525634288787842e-01 2.083001852035522461e+00
9.680000000000000000e+02 1.728657722473144531e+01 -1.628462982177734375e+01 -2.629653215408325195e+00 -6.515213102102279663e-02 -8.084416389465332031e-01 8.836572766304016113e-01
9.690000000000000000e+02 3.325965499877929688e+01 -2.881105232238769531e+01 2.373691558837890625e+00 6.260664939880371094e+00 2.590306997299194336e+00 3.320331811904907227e+00
9.700000000000000000e+02 6.762146353721618652e-01 -2.746200561523437500e+01 -9.136658161878585815e-02 3.750564813613891602e+00 1.097759485244750977e+00 5.751475691795349121e-01
9.710000000000000000e+02 9.464861869812011719e+00 -1.537315464019775391e+01 7.181780338287353516e-01 2.771420955657958984e+00 1.046879649162292480e+00 2.625948190689086914e+00
9.720000000000000000e+02 1.652446031570434570e+00 -2.043572235107421875e+01 2.869232296943664551e-01 7.961721718311309814e-02 1.099621355533599854e-01 4.330882728099822998e-01
9.730000000000000000e+02 1.806407165527343750e+01 -1.791821289062500000e+01 -2.915541172027587891e+00 -2.502928376197814941e-01 -9.497502446174621582e-01 9.639273285865783691e-01
9.740000000000000000e+02 3.419614791870117188e+01 -3.057141494750976562e+01 -4.914697110652923584e-01 6.514562129974365234e+00 1.806927680969238281e+00 1.268741726875305176e+00
9.750000000000000000e+02 3.306400680541992188e+01 -3.111406707763671875e+01 -8.200780302286148071e-02 5.297380924224853516e+00 1.564612030982971191e+00 1.886578798294067383e+00
9.760000000000000000e+02 3.767346191406250000e+01 -2.177671623229980469e+01 1.240913391113281250e+00 1.079713439941406250e+01 3.611414432525634766e+00 8.279616236686706543e-01
9.770000000000000000e+02 1.532622623443603516e+01 -3.537463378906250000e+01 -8.626601696014404297e-01 -4.298854172229766846e-01 -3.877636790275573730e-01 4.771358370780944824e-01
9.780000000000000000e+02 1.850319862365722656e+01 -1.672623825073242188e+01 -2.581502914428710938e+00 1.785054951906204224e-01 -7.208992242813110352e-01 8.422544598579406738e-01
9.790000000000000000e+02 2.062578201293945312e+01 -1.855903625488281250e+01 -2.927819967269897461e+00 5.908090248703956604e-02 -8.606217503547668457e-01 4.171238541603088379e-01
9.800000000000000000e+02 2.014604949951171875e+01 -3.201591873168945312e+01 -1.748714327812194824e+00 5.846850108355283737e-04 -5.244389176368713379e-01 -4.908612743020057678e-02
9.810000000000000000e+02 2.271820068359375000e+01 -3.452620315551757812e+01 -1.043854832649230957e+00 3.491695225238800049e-02 -3.026813566684722900e-01 1.304550915956497192e-01
9.820000000000000000e+02 2.092793273925781250e+01 -1.728446197509765625e+01 -2.724970102310180664e+00 3.868095874786376953e-01 -7.014481425285339355e-01 4.465532004833221436e-01
9.830000000000000000e+02 2.585655975341796875e+01 -1.839255714416503906e+01 -4.049686908721923828e+00 -3.838616982102394104e-02 -1.226421952247619629e+00 -5.608577132225036621e-01
9.840000000000000000e+02 2.351978492736816406e+01 -1.627237129211425781e+01 -2.416987180709838867e+00 4.274599552154541016e-01 -5.968582034111022949e-01 1.314006000757217407e-01
9.850000000000000000e+02 2.811160087585449219e+01 -1.686846542358398438e+01 -3.558481931686401367e+00 -6.516923755407333374e-02 -1.087095379829406738e+00 -1.901198029518127441e-01
9.860000000000000000e+02 2.863625526428222656e+01 -3.314518737792968750e+01 -4.718572199344635010e-01 9.905003309249877930e-01 1.555929332971572876e-01 9.516402482986450195e-01
9.870000000000000000e+02 2.712538146972656250e+01 -3.297973632812500000e+01 -7.628157138824462891e-01 4.276153147220611572e-01 -1.005601212382316589e-01 4.162334799766540527e-01
9.880000000000000000e+02 2.559705543518066406e+01 -3.156260490417480469e+01 -1.490349888801574707e+00 5.384986847639083862e-02 -4.309500157833099365e-01 -5.819363519549369812e-02
9.890000000000000000e+02 1.401327323913574219e+01 -1.527594566345214844e+01 -1.559428334236145020e+00 -6.382590532302856445e-01 -6.593062281608581543e-01 1.393885016441345215e+00
9.900000000000000000e+02 3.175061416625976562e+01 -1.640868568420410156e+01 -1.231377124786376953e+00 3.052488565444946289e-01 -2.778384983539581299e-01 -1.395839333534240723e+00
9.910000000000000000e+02 2.905970954895019531e+01 -1.663856887817382812e+01 -2.869181632995605469e+00 -1.332947164773941040e-01 -9.007429480552673340e-01 -3.056308720260858536e-03
9.920000000000000000e+02 2.715190696716308594e+01 -1.816921234130859375e+01 -4.600559234619140625e+00 -1.306065320968627930e-01 -1.419349670410156250e+00 -6.155259013175964355e-01
9.930000000000000000e+02 3.352754211425781250e+01 -1.612160301208496094e+01 -1.495784759521484375e+00 3.941703796386718750e+00 7.337757349014282227e-01 -1.802026271820068359e+00
9.940000000000000000e+02 2.324366760253906250e+01 -1.866802215576171875e+01 -3.364637374877929688e+00 7.087565958499908447e-02 -9.881285429000854492e-01 -1.281104087829589844e-01
9.950000000000000000e+02 1.441096878051757812e+01 -3.160795021057128906e+01 -2.518447160720825195e+00 -1.593550443649291992e-01 -8.033406734466552734e-01 5.641679763793945312e-01
9.960000000000000000e+02 1.524590396881103516e+01 -3.327839660644531250e+01 -1.758314371109008789e+00 -2.770543396472930908e-01 -6.106106042861938477e-01 4.828321039676666260e-01
9.970000000000000000e+02 1.122887706756591797e+01 -3.281422805786132812e+01 -1.719965577125549316e+00 -6.171195507049560547e-01 -7.011255621910095215e-01 8.218627572059631348e-01
9.980000000000000000e+02 1.270990753173828125e+01 -3.299893569946289062e+01 -1.831315875053405762e+00 -3.923090100288391113e-01 -6.670874357223510742e-01 7.240355610847473145e-01
9.990000000000000000e+02 3.713649368286132812e+01 -2.274465179443359375e+01 1.431117892265319824e+00 1.158642768859863281e+01 3.905263662338256836e+00 6.126804947853088379e-01
1.000000000000000000e+03 3.677509307861328125e+01 -2.387048912048339844e+01 2.001653909683227539e+00 1.227202796936035156e+01 4.282104492187500000e+00 9.819876551628112793e-01
1.001000000000000000e+03 1.645698785781860352e+00 -2.306864166259765625e+01 2.288302481174468994e-01 1.009838700294494629e+00 3.716006577014923096e-01 1.107946634292602539e+00
1.002000000000000000e+03 1.407567882537841797e+01 -3.300373840332031250e+01 -1.840935230255126953e+00 -3.098346590995788574e-01 -6.452309489250183105e-01 6.236016750335693359e-01
1.003000000000000000e+03 2.179427528381347656e+01 -3.343235778808593750e+01 -1.316502928733825684e+00 -2.802400104701519012e-02 -4.033580720424652100e-01 5.674687679857015610e-03
1.004000000000000000e+03 4.986285018920898438e+01 6.417235732078552246e-01 -4.550876140594482422e+00 -4.897207617759704590e-01 -1.512179136276245117e+00 1.514334440231323242e+00
1.005000000000000000e+03 4.094685745239257812e+01 6.975565433502197266e+00 1.801671981811523438e+00 1.046436405181884766e+01 3.679810762405395508e+00 3.628451108932495117e+00
1.006000000000000000e+03 4.561428070068359375e+01 1.300930619239807129e+00 -2.165399551391601562e+00 2.109052181243896484e+00 -1.690417155623435974e-02 1.742088437080383301e+00
1.007000000000000000e+03 7.500218963623046875e+01 -2.468766975402832031e+01 3.925110101699829102e-01 9.195844650268554688e+00 2.876506567001342773e+00 -1.087054491043090820e+00
1.008000000000000000e+03 2.657689285278320312e+01 4.129321670532226562e+01 -2.082696437835693359e+00 -6.027255058288574219e-01 -8.056266307830810547e-01 -7.004813104867935181e-02
1.009000000000000000e+03 4.206274795532226562e+01 3.130215644836425781e+01 -3.429446816444396973e-01 3.039597511291503906e+00 8.089958429336547852e-01 1.428109407424926758e-01
1.010000000000000000e+03 4.171771621704101562e+01 3.282463836669921875e+01 -8.886377215385437012e-01 2.436437606811523438e+00 4.643400013446807861e-01 2.309083491563796997e-01
1.011000000000000000e+03 4.025700759887695312e+01 3.542705154418945312e+01 -1.487510800361633301e+00 1.441815137863159180e+00 -1.370869576930999756e-02 9.871229529380798340e-02
1.012000000000000000e+03 6.930050659179687500e+01 -7.445285797119140625e+00 1.367514580488204956e-02 8.524623870849609375e+00 2.561489820480346680e+00 -8.944461345672607422e-01
1.013000000000000000e+03 1.303265666961669922e+01 2.440675163269042969e+01 3.404354751110076904e-01 4.825993061065673828e+00 1.549928545951843262e+00 -8.016568422317504883e-01
1.014000000000000000e+03 2.151902198791503906e+01 2.516691207885742188e+00 1.003401726484298706e-01 4.363392353057861328e+00 1.339119791984558105e+00 -1.148452997207641602e+00
1.015000000000000000e+03 6.234342193603515625e+01 -1.745885968208312988e+00 -1.483310818672180176e+00 1.595762610435485840e+00 3.373555839061737061e-02 -7.875422239303588867e-01
1.016000000000000000e+03 1.985663795471191406e+01 3.700494003295898438e+01 -1.669667243957519531e+00 1.994218826293945312e-01 -4.410736262798309326e-01 -3.133590817451477051e-01
1.017000000000000000e+03 3.021140098571777344e+01 -3.113194704055786133e+00 3.313208818435668945e+00 -5.401793494820594788e-02 9.777572154998779297e-01 -1.107626676559448242e+00
1.018000000000000000e+03 3.648263931274414062e+01 3.521716690063476562e+01 -2.256063699722290039e+00 -3.736549019813537598e-01 -7.889156341552734375e-01 9.005274176597595215e-01
1.019000000000000000e+03 3.273580932617187500e+01 3.696412658691406250e+01 -2.702132225036621094e+00 -2.996690571308135986e-01 -9.005403518676757812e-01 6.665468215942382812e-01
1.020000000000000000e+03 4.050004959106445312e+01 -1.614001083374023438e+01 6.991572380065917969e-01 1.176588439941406250e+01 3.739512681961059570e+00 -7.338688969612121582e-01
1.021000000000000000e+03 6.874666595458984375e+01 -1.626252174377441406e+01 4.054119288921356201e-01 1.700507164001464844e+01 5.223145008087158203e+00 -9.101221561431884766e-01
1.022000000000000000e+03 7.018004608154296875e+01 -1.162093353271484375e+01 6.759337186813354492e-01 1.123549461364746094e+01 3.573428392410278320e+00 -7.780422568321228027e-01
1.023000000000000000e+03 4.246081924438476562e+01 2.986890792846679688e+01 9.768043644726276398e-03 3.677468538284301758e+00 1.106171011924743652e+00 1.744438409805297852e-01
1.024000000000000000e+03 3.158206367492675781e+01 -2.660853624343872070e+00 2.417272806167602539e+00 -1.195498481392860413e-01 6.893169283866882324e-01 -6.389431357383728027e-01
1.025000000000000000e+03 4.234457397460937500e+01 2.049636989831924438e-01 -4.845175147056579590e-01 1.055023860931396484e+01 3.019716501235961914e+00 2.101297616958618164e+00
1.026000000000000000e+03 4.311014175415039062e+01 -1.209734082221984863e+00 3.144065141677856445e+00 1.173502731323242188e+01 4.463727474212646484e+00 5.148138523101806641e+00
1.027000000000000000e+03 1.387524318695068359e+01 1.969656944274902344e+01 5.896806120872497559e-01 6.930994987487792969e+00 2.256202697753906250e+00 -1.107755661010742188e+00
1.028000000000000000e+03 1.590900039672851562e+01 1.548421382904052734e+01 7.603633403778076172e-01 8.777259826660156250e+00 2.861286878585815430e+00 -2.332151174545288086e+00
1.029000000000000000e+03 2.773086547851562500e+01 3.858051681518554688e+01 -2.672271966934204102e+00 -3.842155635356903076e-01 -9.169462323188781738e-01 -7.513570785522460938e-02
1.030000000000000000e+03 5.965606689453125000e+01 -6.421360969543457031e-01 -2.508409738540649414e+00 2.359585613012313843e-01 -6.817353367805480957e-01 -5.847550928592681885e-02
1.031000000000000000e+03 4.003359985351562500e+01 -3.411699295043945312e+00 1.419993042945861816e+00 1.074395370483398438e+01 3.649183988571166992e+00 2.271911144256591797e+00
1.032000000000000000e+03 4.279746627807617188e+01 1.849495887756347656e+01 2.977635860443115234e-01 6.586164951324462891e+00 2.065178632736206055e+00 9.631322026252746582e-01
1.033000000000000000e+03 6.937088012695312500e+01 -2.817409896850585938e+01 -2.923631370067596436e-01 9.632821083068847656e+00 2.802137374877929688e+00 2.041907906532287598e-01
1.034000000000000000e+03 6.592152404785156250e+01 -2.995187759399414062e+01 1.992249637842178345e-01 2.084084510803222656e+00 6.849928498268127441e-01 1.172153234481811523e+00
1.035000000000000000e+03 6.994886779785156250e+01 -2.971537017822265625e+01 -6.553633809089660645e-01 8.505133628845214844e+00 2.354931116104125977e+00 -5.708859860897064209e-02
1.036000000000000000e+03 2.559854507446289062e+01 3.907244491577148438e+01 -2.276326656341552734e+00 -4.609802961349487305e-01 -8.211920857429504395e-01 -3.164818286895751953e-01
1.037000000000000000e+03 4.169964599609375000e+01 -2.021330261230468750e+01 2.258320599794387817e-01 8.191302299499511719e+00 2.525140285491943359e+00 -6.781548857688903809e-01
1.038000000000000000e+03 5.558572769165039062e+01 -3.451657867431640625e+01 -8.073626160621643066e-01 2.951913177967071533e-01 -1.536513864994049072e-01 -5.065132379531860352e-01
1.039000000000000000e+03 5.850114822387695312e+01 -3.574903869628906250e+01 -3.737615048885345459e-01 -9.531842172145843506e-02 -1.407239735126495361e-01 -4.297230541706085205e-01
1.040000000000000000e+03 4.086973571777343750e+01 2.793865680694580078e+00 -6.737385988235473633e-01 9.944713592529296875e+00 2.781292438507080078e+00 2.120518445968627930e+00
1.041000000000000000e+03 4.049309158325195312e+01 -6.340225696563720703e+00 1.455841541290283203e+00 1.318619632720947266e+01 4.392611503601074219e+00 1.487577915191650391e+00
1.042000000000000000e+03 4.144127273559570312e+01 -1.209406185150146484e+01 -1.101745851337909698e-02 1.482536792755126953e+01 4.444304943084716797e+00 -9.938256740570068359e-01
1.043000000000000000e+03 4.046976852416992188e+01 -1.474034118652343750e+01 7.572766542434692383e-01 1.273373126983642578e+01 4.047302246093750000e+00 -1.186342835426330566e+00
1.044000000000000000e+03 2.344051742553710938e+01 3.853672790527343750e+01 -2.015476226806640625e+00 -4.272272288799285889e-01 -7.328110933303833008e-01 -3.659125566482543945e-01
1.045000000000000000e+03 6.329829788208007812e+01 -3.406224060058593750e+01 -8.497685790061950684e-01 8.772511482238769531e-01 8.244772441685199738e-03 4.281570613384246826e-01
1.046000000000000000e+03 6.445694732666015625e+01 -3.307652664184570312e+01 -1.047374725341796875e+00 1.791070818901062012e+00 2.231087982654571533e-01 6.541051864624023438e-01
1.047000000000000000e+03 1.823781394958496094e+01 3.193252754211425781e+01 -4.047840833663940430e-01 4.667705893516540527e-01 1.859595067799091339e-02 -1.491541713476181030e-01
1.048000000000000000e+03 1.566394996643066406e+01 2.985593032836914062e+01 -3.897135257720947266e-01 2.528453350067138672e+00 6.416219472885131836e-01 -1.055778190493583679e-01
1.049000000000000000e+03 4.135516738891601562e+01 1.430925559997558594e+01 5.290104746818542480e-01 9.716484069824218750e+00 3.073648452758789062e+00 1.653033137321472168e+00
1.050000000000000000e+03 4.267362976074218750e+01 1.571492099761962891e+01 6.955254077911376953e-01 7.701572895050048828e+00 2.519129514694213867e+00 1.638718724250793457e+00
1.051000000000000000e+03 4.256176757812500000e+01 1.431410503387451172e+01 8.982565999031066895e-01 8.176400184631347656e+00 2.722397089004516602e+00 1.913926601409912109e+00
1.052000000000000000e+03 3.342960357666015625e+01 3.882500839233398438e+01 -2.131200313568115234e+00 -3.552996218204498291e-01 -7.459499835968017578e-01 3.567100167274475098e-01
1.053000000000000000e+03 1.615297698974609375e+01 1.112316799163818359e+01 1.328791022300720215e+00 7.457691192626953125e+00 2.635944604873657227e+00 -2.659518957138061523e+00
1.054000000000000000e+03 1.562417697906494141e+01 1.243294048309326172e+01 1.228689908981323242e+00 7.375221252441406250e+00 2.581173419952392578e+00 -2.473045110702514648e+00
1.055000000000000000e+03 4.274747848510742188e+01 2.839382171630859375e+01 2.760937511920928955e-01 4.071552276611328125e+00 1.304293751716613770e+00 1.088119968771934509e-01
1.056000000000000000e+03 4.384597015380859375e+01 3.010075759887695312e+01 -1.539618521928787231e-01 3.682975053787231445e+00 1.058704018592834473e+00 5.104692578315734863e-01
1.057000000000000000e+03 1.739220619201660156e+01 3.427057647705078125e+01 -1.253549098968505859e+00 1.046567320823669434e+00 -6.209453567862510681e-02 -4.066820442676544189e-01
1.058000000000000000e+03 1.636709403991699219e+01 2.806517982482910156e+01 1.902534365653991699e-01 2.927716732025146484e+00 9.353910684585571289e-01 7.158486843109130859e-01
1.059000000000000000e+03 4.430032730102539062e+01 -2.156535911560058594e+01 7.097269892692565918e-01 3.090678453445434570e+00 1.140121579170227051e+00 -1.436666488647460938e+00
1.060000000000000000e+03 3.877058410644531250e+01 2.960183382034301758e+00 3.215863108634948730e-01 8.987761497497558594e+00 2.792804241180419922e+00 2.528123378753662109e+00
1.061000000000000000e+03 3.956702423095703125e+01 4.263947010040283203e+00 8.699938654899597168e-01 1.018652725219726562e+01 3.316956281661987305e+00 3.126025438308715820e+00
1.062000000000000000e+03 2.646573638916015625e+01 -3.327399969100952148e+00 4.729151248931884766e+00 1.280321955680847168e+00 1.802842020988464355e+00 -1.765725016593933105e+00
1.063000000000000000e+03 4.221124267578125000e+01 1.147947025299072266e+01 1.199840426445007324e+00 9.173208236694335938e+00 3.111914634704589844e+00 2.937886953353881836e+00
1.064000000000000000e+03 1.513788509368896484e+01 1.378420162200927734e+01 9.746645092964172363e-01 7.480858325958251953e+00 2.536656856536865234e+00 -2.226681470870971680e+00
1.065000000000000000e+03 1.474560832977294922e+01 2.705566978454589844e+01 -1.400264538824558258e-02 4.210527896881103516e+00 1.258957624435424805e+00 -1.280831247568130493e-01
1.066000000000000000e+03 2.883392715454101562e+01 -3.574772596359252930e+00 4.109800815582275391e+00 3.362662792205810547e-01 1.333820223808288574e+00 -1.650285005569458008e+00
1.067000000000000000e+03 4.158444976806640625e+01 8.471310615539550781e+00 1.884034156799316406e+00 9.960392951965332031e+00 3.553328275680541992e+00 3.543727874755859375e+00
1.068000000000000000e+03 3.444171142578125000e+01 -1.521499276161193848e+00 9.635545611381530762e-01 1.655654549598693848e+00 7.857627272605895996e-01 6.542948484420776367e-01
1.069000000000000000e+03 3.806981277465820312e+01 -1.643371105194091797e+00 7.102568745613098145e-01 7.463374137878417969e+00 2.452089309692382812e+00 1.535311102867126465e+00
1.070000000000000000e+03 1.402245616912841797e+01 2.268699455261230469e+01 2.971472442150115967e-01 6.228293418884277344e+00 1.957632184028625488e+00 -4.794460833072662354e-01
1.071000000000000000e+03 1.823019218444824219e+01 8.909537315368652344e+00 1.598179817199707031e+00 8.838874816894531250e+00 3.131116390228271484e+00 -3.616988658905029297e+00
1.072000000000000000e+03 1.382265853881835938e+01 2.546011209487915039e+00 -1.005534455180168152e-01 1.229989886283874512e+00 3.388309478759765625e-01 -9.298278093338012695e-01
1.073000000000000000e+03 1.417923831939697266e+01 2.415092086791992188e+01 3.980726599693298340e-01 5.624083518981933594e+00 1.806646943092346191e+00 -2.633266448974609375e-01
1.074000000000000000e+03 4.283047485351562500e+01 1.987241363525390625e+01 1.780145317316055298e-01 6.167609691619873047e+00 1.903687238693237305e+00 7.575159668922424316e-01
1.075000000000000000e+03 1.517413139343261719e+01 2.846619033813476562e+01 -2.405894845724105835e-01 3.338660240173339844e+00 9.294212460517883301e-01 -2.872595191001892090e-02
1.076000000000000000e+03 1.469680309295654297e+01 1.518812179565429688e+01 8.965876102447509766e-01 7.531905174255371094e+00 2.528547763824462891e+00 -1.810845255851745605e+00
1.077000000000000000e+03 3.791537094116210938e+01 4.105336380004882812e+01 -1.679132342338562012e+00 7.322831749916076660e-01 -2.840547859668731689e-01 1.364101190119981766e-02
1.078000000000000000e+03 3.776016616821289062e+01 1.802343606948852539e+00 1.613110005855560303e-01 6.932120323181152344e+00 2.128029346466064453e+00 2.187033414840698242e+00
1.079000000000000000e+03 4.164046859741210938e+01 2.262524032592773438e+01 2.579119801521301270e-02 5.391584873199462891e+00 1.625212788581848145e+00 1.490099281072616577e-01
1.080000000000000000e+03 4.164783477783203125e+01 2.401324081420898438e+01 1.053952146321535110e-02 5.120472908020019531e+00 1.539303660392761230e+00 1.089013665914535522e-01
1.081000000000000000e+03 4.290626525878906250e+01 2.542563056945800781e+01 1.105447784066200256e-01 4.875208377838134766e+00 1.495725870132446289e+00 1.959827840328216553e-01
1.082000000000000000e+03 4.240703201293945312e+01 1.290940856933593750e+01 9.634028077125549316e-01 8.775135993957519531e+00 2.921561717987060547e+00 2.323765754699707031e+00
1.083000000000000000e+03 4.527080154418945312e+01 2.392506027221679688e+01 3.205379843711853027e-01 4.814083099365234375e+00 1.540386199951171875e+00 7.369377613067626953e-01
1.084000000000000000e+03 4.285462951660156250e+01 2.124347305297851562e+01 1.099959537386894226e-01 5.706754207611083984e+00 1.745025038719177246e+00 5.482581853866577148e-01
1.085000000000000000e+03 4.287678527832031250e+01 2.261798858642578125e+01 9.414882957935333252e-02 5.373092174530029297e+00 1.640172362327575684e+00 4.375232458114624023e-01
1.086000000000000000e+03 5.011373138427734375e+01 3.841518640518188477e+00 -8.435255289077758789e-01 2.752754986286163330e-01 -1.704750061035156250e-01 5.856062769889831543e-01
1.087000000000000000e+03 3.922865676879882812e+01 -1.324688720703125000e+01 5.592205524444580078e-01 1.171112442016601562e+01 3.681103467941284180e+00 -8.049708604812622070e-01
1.088000000000000000e+03 6.691731262207031250e+01 -3.101779365539550781e+01 -9.811001420021057129e-01 4.888417243957519531e+00 1.172195076942443848e+00 1.122146487236022949e+00
1.089000000000000000e+03 6.979383087158203125e+01 -1.605184173583984375e+01 1.008784055709838867e+00 1.463580036163330078e+01 4.693375110626220703e+00 -1.288521647453308105e+00
1.090000000000000000e+03 4.131792831420898438e+01 -9.319145202636718750e+00 1.636792272329330444e-01 1.585036373138427734e+01 4.804212570190429688e+00 8.018989861011505127e-02
1.091000000000000000e+03 6.483753967285156250e+01 -3.317121505737304688e+00 -5.158551931381225586e-01 4.533489704132080078e+00 1.205290436744689941e+00 -1.347136974334716797e+00
1.092000000000000000e+03 5.298088455200195312e+01 1.017826795578002930e+00 -3.283417463302612305e+00 2.262645512819290161e-01 -9.171458482742309570e-01 6.861138343811035156e-01
1.093000000000000000e+03 5.351838302612304688e+01 2.255867242813110352e+00 -2.266245365142822266e+00 3.249467611312866211e-01 -5.823895931243896484e-01 3.233882486820220947e-01
1.094000000000000000e+03 6.361782836914062500e+01 -2.479167699813842773e+00 -9.174550175666809082e-01 2.817805290222167969e+00 5.701050758361816406e-01 -1.184298038482666016e+00
1.095000000000000000e+03 6.101346588134765625e+01 -1.139213204383850098e+00 -2.033196210861206055e+00 7.027173042297363281e-01 -3.991436660289764404e-01 -3.966336846351623535e-01
1.096000000000000000e+03 5.692642974853515625e+01 1.005613952875137329e-01 -3.068997383117675781e+00 -5.114297941327095032e-02 -9.360421299934387207e-01 2.862464189529418945e-01
1.097000000000000000e+03 5.558039093017578125e+01 3.967002034187316895e-01 -3.120995759963989258e+00 -6.253496557474136353e-02 -9.550591707229614258e-01 4.324438273906707764e-01
1.098000000000000000e+03 5.394600296020507812e+01 -2.990313148498535156e+01 -2.237628698348999023e-01 1.586849428713321686e-02 -6.236831098794937134e-02 1.164541319012641907e-01
1.099000000000000000e+03 5.352842712402343750e+01 -3.314215850830078125e+01 -6.443649530410766602e-01 7.181234955787658691e-01 2.212757617235183716e-02 -4.336641728878021240e-01
1.100000000000000000e+03 7.055931091308593750e+01 -2.737253761291503906e+01 2.568335831165313721e-01 9.766627311706542969e+00 3.007038354873657227e+00 -4.560846686363220215e-01
1.101000000000000000e+03 6.960767364501953125e+01 -2.587152481079101562e+01 1.249663472175598145e+00 1.232589626312255859e+01 4.072668075561523438e+00 1.008006334304809570e+00
1.102000000000000000e+03 4.113682937622070312e+01 -3.623516321182250977e+00 1.410356521606445312e+00 1.244878005981445312e+01 4.157741069793701172e+00 3.251076221466064453e+00
1.103000000000000000e+03 4.079152679443359375e+01 -4.959722042083740234e+00 9.719372391700744629e-01 1.328335952758789062e+01 4.276588916778564453e+00 2.475576400756835938e+00
1.104000000000000000e+03 4.921373367309570312e+01 2.665353059768676758e+00 -2.402790784835815430e+00 -1.441589742898941040e-01 -7.640849351882934570e-01 5.587567687034606934e-01
1.105000000000000000e+03 6.827279663085937500e+01 -9.153313636779785156e+00 2.870718240737915039e-01 9.259139060974121094e+00 2.863863229751586914e+00 -1.913222908973693848e+00
1.106000000000000000e+03 7.038317108154296875e+01 -2.265961456298828125e+01 7.086702585220336914e-01 1.318187427520751953e+01 4.167163372039794922e+00 5.008932352066040039e-01
1.107000000000000000e+03 6.962081146240234375e+01 -1.465498542785644531e+01 1.491624355316162109e+00 1.418423557281494141e+01 4.702757835388183594e+00 -1.457843899726867676e+00
1.108000000000000000e+03 6.578673553466796875e+01 -3.221701812744140625e+01 -1.083635926246643066e+00 2.968968629837036133e+00 5.655997991561889648e-01 9.057662487030029297e-01
1.109000000000000000e+03 3.764694595336914062e+01 3.795000910758972168e-02 -8.033958077430725098e-02 6.632739067077636719e+00 1.965719819068908691e+00 1.760957479476928711e+00
1.110000000000000000e+03 4.920998001098632812e+01 -2.492808914184570312e+01 2.254012972116470337e-01 3.833817541599273682e-01 1.826349198818206787e-01 -3.227152824401855469e-01
1.111000000000000000e+03 4.992493820190429688e+01 -2.773279571533203125e+01 1.764900982379913330e-01 7.743440270423889160e-01 2.852502465248107910e-01 -4.637886881828308105e-01
1.112000000000000000e+03 4.823989105224609375e+01 -2.393554878234863281e+01 3.315070867538452148e-01 4.606806933879852295e-01 2.376563400030136108e-01 -3.866821229457855225e-01
1.113000000000000000e+03 4.807230377197265625e+01 -2.573547935485839844e+01 4.585474431514739990e-01 9.927101731300354004e-01 4.353772699832916260e-01 -7.186052799224853516e-01
1.114000000000000000e+03 6.902384948730468750e+01 -1.185992622375488281e+01 8.362263441085815430e-01 1.205202007293701172e+01 3.866474151611328125e+00 -1.882330417633056641e+00
1.115000000000000000e+03 6.865586853027343750e+01 -1.049901962280273438e+01 5.452299714088439941e-01 1.049884891510009766e+01 3.313223838806152344e+00 -1.986755728721618652e+00
1.116000000000000000e+03 5.207257843017578125e+01 -2.791649818420410156e+01 2.673081355169415474e-03 1.898307800292968750e-01 5.775116011500358582e-02 -1.035199463367462158e-01
1.117000000000000000e+03 4.944225311279296875e+01 -2.964445877075195312e+01 2.033884823322296143e-02 1.344721794128417969e+00 4.095181822776794434e-01 -7.113092541694641113e-01
1.118000000000000000e+03 6.881764984130859375e+01 -1.901193618774414062e+01 7.206909358501434326e-02 1.524613666534423828e+01 4.595461845397949219e+00 -1.725708395242691040e-01
1.119000000000000000e+03 7.135515594482421875e+01 -2.093675994873046875e+01 4.938416481018066406e-01 1.248166847229003906e+01 3.892652988433837891e+00 -1.577914506196975708e-01
1.120000000000000000e+03 5.129363632202148438e+01 -3.146883010864257812e+01 -3.280399441719055176e-01 1.107506155967712402e+00 2.338398545980453491e-01 -5.451217889785766602e-01
1.121000000000000000e+03 4.525504684448242188e+01 -2.258100318908691406e+01 7.361053228378295898e-01 2.130347251892089844e+00 8.599358201026916504e-01 -1.145630121231079102e+00
1.122000000000000000e+03 4.628765869140625000e+01 -2.193435287475585938e+01 4.851671159267425537e-01 8.564719557762145996e-01 4.024917185306549072e-01 -6.026330590248107910e-01
1.123000000000000000e+03 5.178910446166992188e+01 -3.238322448730468750e+01 -4.424940049648284912e-01 1.081129193305969238e+00 1.915905624628067017e-01 -5.342369675636291504e-01
1.124000000000000000e+03 4.902877044677734375e+01 -2.672387313842773438e+01 3.189790844917297363e-01 8.864544034004211426e-01 3.616300523281097412e-01 -6.083409190177917480e-01
1.125000000000000000e+03 7.003687286376953125e+01 -2.005742263793945312e+01 1.744588464498519897e-01 1.397559547424316406e+01 4.245016098022460938e+00 -2.732150256633758545e-01
1.126000000000000000e+03 7.017195892333984375e+01 -2.136602592468261719e+01 1.769421994686126709e-01 1.381878089904785156e+01 4.198717117309570312e+00 -4.502474516630172729e-02
1.127000000000000000e+03 7.728647613525390625e+01 -3.795233154296875000e+01 -1.821869015693664551e-01 1.037170314788818359e+01 3.056854724884033203e+00 -5.918360501527786255e-02
1.128000000000000000e+03 7.930079650878906250e+01 -3.473766326904296875e+01 -5.413984879851341248e-02 1.091940689086914062e+01 3.259579896926879883e+00 -1.434795558452606201e-01
1.129000000000000000e+03 7.933187866210937500e+01 -2.779649543762207031e+01 4.122098442167043686e-03 8.356832504272460938e+00 2.508286476135253906e+00 -3.314181268215179443e-01
1.130000000000000000e+03 7.800492095947265625e+01 3.223406219482421875e+01 5.034647416323423386e-03 6.553245544433593750e+00 1.967483997344970703e+00 7.050381042063236237e-03
1.131000000000000000e+03 7.926848602294921875e+01 3.618778228759765625e+01 -1.030856161378324032e-03 6.684423446655273438e+00 2.005017757415771484e+00 -6.044564652256667614e-04
1.132000000000000000e+03 7.937547302246093750e+01 -2.086912727355957031e+01 -8.303379639983177185e-03 5.718880653381347656e+00 1.713173270225524902e+00 -1.340547651052474976e-01
1.133000000000000000e+03 7.796063232421875000e+01 -2.764771842956542969e+01 -4.526278004050254822e-03 8.583948135375976562e+00 2.573826551437377930e+00 -8.714368343353271484e-01
1.134000000000000000e+03 7.816013336181640625e+01 -2.624470710754394531e+01 7.160273194313049316e-02 8.080032348632812500e+00 2.445490360260009766e+00 -7.758232355117797852e-01
1.135000000000000000e+03 7.936397552490234375e+01 -3.059465789794921875e+01 1.244753785431385040e-02 9.615093231201171875e+00 2.888262033462524414e+00 -3.207262456417083740e-01
1.136000000000000000e+03 7.790010833740234375e+01 -3.460240173339843750e+01 -1.153521090745925903e-01 1.031124496459960938e+01 3.058767795562744141e+00 -4.014847278594970703e-01
1.137000000000000000e+03 7.783002471923828125e+01 -3.310828018188476562e+01 -1.702876240015029907e-01 9.991696357727050781e+00 2.946422576904296875e+00 -5.810874104499816895e-01
1.138000000000000000e+03 7.520679473876953125e+01 -3.774351501464843750e+01 -3.345132768154144287e-01 9.341526031494140625e+00 2.702103853225708008e+00 -4.898009002208709717e-01
1.139000000000000000e+03 7.644583129882812500e+01 -3.909114074707031250e+01 -1.753001362085342407e-01 1.036118507385253906e+01 3.055765390396118164e+00 -1.837779879570007324e-01
1.140000000000000000e+03 7.806882476806640625e+01 1.422102260589599609e+01 1.516097225248813629e-02 7.333415508270263672e+00 2.204572916030883789e+00 -2.290852665901184082e-01
1.141000000000000000e+03 7.935344696044921875e+01 1.542090034484863281e+01 5.845207255333662033e-03 7.430902004241943359e+00 2.231024265289306641e+00 -7.121332734823226929e-02
1.142000000000000000e+03 7.801341247558593750e+01 2.108104515075683594e+01 1.768206618726253510e-02 6.764293670654296875e+00 2.034592866897583008e+00 -1.136517003178596497e-01
1.143000000000000000e+03 7.933780670166015625e+01 2.235415840148925781e+01 -9.502614557277411222e-05 6.836967945098876953e+00 2.051061868667602539e+00 -2.861847914755344391e-02
1.144000000000000000e+03 7.774634552001953125e+01 3.089020538330078125e+01 4.328651353716850281e-03 6.536184310913085938e+00 1.962153792381286621e+00 1.761401188559830189e-03
1.145000000000000000e+03 7.793944549560546875e+01 2.793840217590332031e+01 1.269582100212574005e-02 6.555617809295654297e+00 1.970494031906127930e+00 -1.871821656823158264e-02
1.146000000000000000e+03 7.930229949951171875e+01 2.791250991821289062e+01 6.885057664476335049e-04 6.681036949157714844e+00 2.004517555236816406e+00 -2.423966769129037857e-03
1.147000000000000000e+03 7.801561737060546875e+01 2.518375205993652344e+01 1.734802499413490295e-02 6.608702182769775391e+00 1.987815022468566895e+00 -4.679727926850318909e-02
1.148000000000000000e+03 7.800711059570312500e+01 2.381945991516113281e+01 1.493282336741685867e-02 6.647881031036376953e+00 1.998844146728515625e+00 -6.687950342893600464e-02
1.149000000000000000e+03 7.804913330078125000e+01 1.833163261413574219e+01 1.798269525170326233e-02 6.946351051330566406e+00 2.089300155639648438e+00 -1.636360734701156616e-01
1.150000000000000000e+03 7.806478118896484375e+01 1.696115684509277344e+01 2.116483077406883240e-02 7.062946319580078125e+00 2.125233411788940430e+00 -1.877271234989166260e-01
1.151000000000000000e+03 7.806579589843750000e+01 1.284401798248291016e+01 5.643490701913833618e-03 7.486495971679687500e+00 2.247641801834106445e+00 -2.420842945575714111e-01
1.152000000000000000e+03 7.677235412597656250e+01 1.165013790130615234e+01 5.059026181697845459e-03 7.314152240753173828e+00 2.195763349533081055e+00 -3.898197710514068604e-01
1.153000000000000000e+03 7.804592132568359375e+01 8.707237243652343750e+00 -1.113754045218229294e-02 7.963441848754882812e+00 2.385691165924072266e+00 -2.372612804174423218e-01
1.154000000000000000e+03 7.934982299804687500e+01 9.869606971740722656e+00 9.447006159462034702e-04 8.179572105407714844e+00 2.454155206680297852e+00 -8.088840544223785400e-02
1.155000000000000000e+03 7.937264251708984375e+01 -1.945714569091796875e+01 4.296401515603065491e-02 5.462515354156494141e+00 1.651643753051757812e+00 -9.920077025890350342e-02
1.156000000000000000e+03 7.938767242431640625e+01 -1.384689044952392578e+01 2.140988223254680634e-02 5.532869338989257812e+00 1.666283845901489258e+00 1.253844797611236572e-01
1.157000000000000000e+03 7.932982635498046875e+01 -6.878911495208740234e+00 -3.332571359351277351e-03 7.507405281066894531e+00 2.251221656799316406e+00 2.139304131269454956e-01
1.158000000000000000e+03 7.803227996826171875e+01 3.811021149158477783e-01 -6.617198139429092407e-02 8.465067863464355469e+00 2.519668579101562500e+00 1.046968623995780945e-01
1.159000000000000000e+03 7.934626770019531250e+01 1.528380751609802246e+00 -9.466278366744518280e-03 8.889328956604003906e+00 2.663958787918090820e+00 2.651621028780937195e-02
1.160000000000000000e+03 7.674979400634765625e+01 7.524467468261718750e+00 -4.788472875952720642e-02 7.721652507781982422e+00 2.302130222320556641e+00 -3.471023440361022949e-01
1.161000000000000000e+03 7.775110626220703125e+01 2.939993286132812500e+01 7.380893919616937637e-03 6.531895160675048828e+00 1.961782813072204590e+00 -2.281091641634702682e-03
1.162000000000000000e+03 7.645586395263671875e+01 3.847010803222656250e+01 -1.869826577603816986e-02 6.490837097167968750e+00 1.941641569137573242e+00 1.103226188570261002e-02
1.163000000000000000e+03 7.804914855957031250e+01 1.008904838562011719e+01 -8.571139536798000336e-03 7.805355072021484375e+00 2.339035034179687500e+00 -2.477853298187255859e-01
1.164000000000000000e+03 7.676673126220703125e+01 6.329242587089538574e-01 -1.744333952665328979e-01 8.178849220275878906e+00 2.401324748992919922e+00 8.763492107391357422e-02
1.165000000000000000e+03 7.807997131347656250e+01 3.197147369384765625e+00 -5.703503638505935669e-02 8.443044662475585938e+00 2.515802860260009766e+00 -6.674639135599136353e-02
1.166000000000000000e+03 7.802111816406250000e+01 -1.037636041641235352e+00 -8.018396794795989990e-02 8.409799575805664062e+00 2.498884677886962891e+00 1.958241760730743408e-01
1.167000000000000000e+03 7.933426666259765625e+01 -2.675636053085327148e+00 -2.199223078787326813e-02 8.501089096069335938e+00 2.543729066848754883e+00 1.317843943834304810e-01
1.168000000000000000e+03 7.800772857666015625e+01 -8.121344566345214844e+00 -1.190855819731950760e-02 7.498349666595458984e+00 2.245932340621948242e+00 5.496256351470947266e-01
1.169000000000000000e+03 7.799498748779296875e+01 -5.296789646148681641e+00 -5.136406421661376953e-02 7.969852447509765625e+00 2.375546455383300781e+00 4.608780741691589355e-01
1.170000000000000000e+03 7.934908294677734375e+01 -9.664870262145996094e+00 9.404683485627174377e-03 6.651989459991455078e+00 1.998418331146240234e+00 2.195854336023330688e-01
1.171000000000000000e+03 7.819994354248046875e+01 -1.509093856811523438e+01 1.183924153447151184e-01 6.397933959960937500e+00 1.954897880554199219e+00 1.703032255172729492e-01
1.172000000000000000e+03 7.815908813476562500e+01 -1.230434989929199219e+01 6.569770723581314087e-02 6.712859153747558594e+00 2.033566951751708984e+00 4.139626622200012207e-01
1.173000000000000000e+03 7.938675689697265625e+01 -1.664260673522949219e+01 3.514409810304641724e-02 5.255405426025390625e+00 1.587164878845214844e+00 5.194315221160650253e-03
1.174000000000000000e+03 7.814270019531250000e+01 -2.082489776611328125e+01 1.051221936941146851e-01 6.769720554351806641e+00 2.062452793121337891e+00 -3.774400055408477783e-01
1.175000000000000000e+03 7.813740539550781250e+01 -1.936845397949218750e+01 8.347190171480178833e-02 6.590831279754638672e+00 2.002290964126586914e+00 -2.366440147161483765e-01
1.176000000000000000e+03 1.498743176460266113e+00 -3.997818374633789062e+01 -3.668019175529479980e-02 4.599195957183837891e+00 1.368754625320434570e+00 -2.654841840267181396e-01
1.177000000000000000e+03 2.651401519775390625e+00 3.831687164306640625e+01 -1.298896372318267822e-01 3.333187341690063477e+00 9.609892964363098145e-01 -2.123263478279113770e-01
1.178000000000000000e+03 7.602716684341430664e-01 3.460493469238281250e+01 -1.488365139812231064e-02 3.037237644195556641e+00 9.067061543464660645e-01 -1.717316210269927979e-01
1.179000000000000000e+03 6.588438153266906738e-01 2.612798690795898438e+01 5.983081646263599396e-03 3.486821353435516357e-01 1.063995659351348877e-01 -2.416286468505859375e-01
1.180000000000000000e+03 2.039592266082763672e+00 2.874987411499023438e+01 -2.233148925006389618e-02 1.498627662658691406e+00 4.428888261318206787e-01 -6.614767313003540039e-01
1.181000000000000000e+03 6.702930927276611328e-01 -3.595092773437500000e+01 -3.545717895030975342e-02 5.515671730041503906e+00 1.644064426422119141e+00 -1.282130330801010132e-01
1.182000000000000000e+03 6.935039520263671875e+00 -3.537887191772460938e+01 -2.823027670383453369e-01 1.440106153488159180e+00 3.473410010337829590e-01 -1.639735549688339233e-01
1.183000000000000000e+03 3.395464658737182617e+00 2.854150390625000000e+01 -4.470048844814300537e-02 1.687557458877563477e+00 4.928570687770843506e-01 -9.901800751686096191e-01
1.184000000000000000e+03 3.237492084503173828e+00 2.571532249450683594e+01 2.195487730205059052e-02 1.048444986343383789e+00 3.211199641227722168e-01 -9.768652915954589844e-01
1.185000000000000000e+03 2.138918876647949219e+00 3.156890869140625000e+01 -4.280092939734458923e-02 2.219448804855346680e+00 6.529943346977233887e-01 -6.060034632682800293e-01
1.186000000000000000e+03 2.260285377502441406e+00 3.436499786376953125e+01 -8.755999803543090820e-02 2.805083513259887695e+00 8.152570128440856934e-01 -4.947495758533477783e-01
1.187000000000000000e+03 2.189794301986694336e+00 3.297272872924804688e+01 -5.842315033078193665e-02 2.530146121978759766e+00 7.415168881416320801e-01 -5.585744380950927734e-01
1.188000000000000000e+03 4.036452770233154297e+00 3.820571899414062500e+01 -2.584565877914428711e-01 3.173620223999023438e+00 8.745490908622741699e-01 -4.598227143287658691e-01
1.189000000000000000e+03 3.238180875778198242e+00 3.938292694091796875e+01 -1.363616734743118286e-01 3.424821615219116211e+00 9.865379929542541504e-01 -2.446361184120178223e-01
1.190000000000000000e+03 7.784302234649658203e-01 -3.036648941040039062e+01 -9.070941805839538574e-02 5.329844951629638672e+00 1.571740627288818359e+00 3.232159912586212158e-01
1.191000000000000000e+03 3.248694658279418945e+00 -2.634000968933105469e+01 -1.630254983901977539e-01 3.540236234664916992e+00 1.013163208961486816e+00 1.976262092590332031e+00
1.192000000000000000e+03 1.854888796806335449e+00 -1.770919036865234375e+01 1.963828504085540771e-01 -7.331792265176773071e-02 3.691947832703590393e-02 -1.714366823434829712e-01
1.193000000000000000e+03 5.800979733467102051e-01 -1.913490104675292969e+01 5.986039340496063232e-02 -2.064594268798828125e+00 -6.014202237129211426e-01 -6.009788718074560165e-03
1.194000000000000000e+03 5.459684729576110840e-01 -2.052679252624511719e+01 1.546474266797304153e-02 -1.956345319747924805e+00 -5.822641849517822266e-01 8.393596857786178589e-02
1.195000000000000000e+03 5.358285903930664062e-01 -2.330514526367187500e+01 -2.956635085865855217e-03 -3.506383299827575684e-01 -1.060784831643104553e-01 4.584624171257019043e-01
1.196000000000000000e+03 2.412033081054687500e+00 -3.645304870605468750e+01 -4.873596504330635071e-02 4.410540580749511719e+00 1.308541297912597656e+00 -2.877199649810791016e-01
1.197000000000000000e+03 6.387056112289428711e-01 1.905740547180175781e+01 1.370449550449848175e-02 -1.884331822395324707e+00 -5.611882209777832031e-01 -1.405500322580337524e-01
1.198000000000000000e+03 5.961077809333801270e-01 1.341985416412353516e+01 1.318964827805757523e-02 -2.508171558380126953e+00 -7.484945654869079590e-01 3.427070565521717072e-03
1.199000000000000000e+03 5.192807912826538086e-01 7.797055721282958984e+00 6.869729142636060715e-03 -1.708500146865844727e+00 -5.104891061782836914e-01 1.356053352355957031e-01
1.200000000000000000e+03 5.365472793579101562e+00 -4.030423355102539062e+01 2.927266657352447510e-01 2.593147993087768555e+00 8.657624125480651855e-01 3.010801225900650024e-02
1.201000000000000000e+03 4.019846916198730469e+00 -3.879225158691406250e+01 4.320732876658439636e-02 3.714335680007934570e+00 1.127262830734252930e+00 -1.673181653022766113e-01
1.202000000000000000e+03 2.675424575805664062e+00 -3.466455078125000000e+01 -1.805212944746017456e-01 4.281780719757080078e+00 1.230377912521362305e+00 -1.978173255920410156e-01
1.203000000000000000e+03 5.519250392913818359e+00 -2.771659278869628906e+01 -1.330888986587524414e+00 3.246260881423950195e+00 5.746116042137145996e-01 1.186726093292236328e+00
1.204000000000000000e+03 1.896674513816833496e+00 -3.324080276489257812e+01 -1.150430217385292053e-01 4.857201099395751953e+00 1.422647476196289062e+00 -9.819760918617248535e-03
1.205000000000000000e+03 4.495439052581787109e+00 -2.890368843078613281e+01 -1.163704276084899902e+00 3.549304485321044922e+00 7.156800627708435059e-01 1.184396624565124512e+00
1.206000000000000000e+03 3.830055952072143555e+00 -2.440636444091796875e+01 4.371876120567321777e-01 3.707946777343750000e+00 1.243540287017822266e+00 2.000041961669921875e+00
1.207000000000000000e+03 4.110407352447509766e+00 -2.220341110229492188e+01 8.944510817527770996e-01 4.558019161224365234e+00 1.635740995407104492e+00 1.806142807006835938e+00
1.208000000000000000e+03 1.892457008361816406e+00 -1.632509613037109375e+01 1.024722307920455933e-01 -2.423562807962298393e-03 3.001460060477256775e-02 -3.827548027038574219e-01
1.209000000000000000e+03 3.164003849029541016e+00 -1.356346702575683594e+01 -1.981613636016845703e-01 1.121583342552185059e+00 2.770265936851501465e-01 -3.213568925857543945e-01
1.210000000000000000e+03 6.144768595695495605e-01 -1.211543750762939453e+01 -9.166272357106208801e-03 -4.747831821441650391e-01 -1.451848298311233521e-01 -1.172018721699714661e-01
1.211000000000000000e+03 1.844934821128845215e+00 -1.213931083679199219e+01 -1.161240786314010620e-01 1.718932986259460449e-01 1.673076488077640533e-02 -2.531668841838836670e-01
1.212000000000000000e+03 5.061326503753662109e+00 -3.606203794479370117e+00 1.290261298418045044e-01 1.192273646593093872e-01 7.447604835033416748e-02 1.090584620833396912e-01
1.213000000000000000e+03 2.794624567031860352e+00 -3.070104598999023438e+00 2.619503997266292572e-02 4.387901723384857178e-02 2.102221734821796417e-02 -1.040819659829139709e-02
1.214000000000000000e+03 2.032377004623413086e+00 -3.265684127807617188e+00 1.591579616069793701e-02 5.428411532193422318e-03 6.403262261301279068e-03 -2.800226956605911255e-02
1.215000000000000000e+03 1.241025090217590332e+00 -3.455037355422973633e+00 6.009456701576709747e-03 -3.443767130374908447e-02 -8.528464473783969879e-03 -2.167283557355403900e-02
1.216000000000000000e+03 4.653763473033905029e-01 4.976181983947753906e+00 -2.865104703232645988e-03 -8.876307606697082520e-01 -2.671487629413604736e-01 1.415675431489944458e-01
1.217000000000000000e+03 2.836956262588500977e+00 5.364110946655273438e+00 -2.688682824373245239e-02 -6.060583591461181641e-01 -1.898835599422454834e-01 6.386227011680603027e-01
1.218000000000000000e+03 1.691498160362243652e+00 1.042294979095458984e+01 7.401471585035324097e-02 -1.615509390830993652e+00 -4.624483883380889893e-01 2.317348271608352661e-01
1.219000000000000000e+03 5.594249367713928223e-01 1.060158634185791016e+01 1.019499357789754868e-02 -2.293930292129516602e+00 -6.851205825805664062e-01 7.784710079431533813e-02
1.220000000000000000e+03 1.797084093093872070e+00 1.322720813751220703e+01 7.840082049369812012e-02 -1.678540229797363281e+00 -4.800418317317962646e-01 2.570594660937786102e-02
1.221000000000000000e+03 1.945485711097717285e+00 2.023433876037597656e+01 6.214446946978569031e-02 -7.829537987709045410e-01 -2.162428051233291626e-01 -4.742285013198852539e-01
1.222000000000000000e+03 1.926268100738525391e+00 1.883357620239257812e+01 7.358333468437194824e-02 -1.064343929290771484e+00 -2.972281575202941895e-01 -3.914870023727416992e-01
1.223000000000000000e+03 1.950502634048461914e+00 2.448275947570800781e+01 2.447614446282386780e-02 2.848499715328216553e-01 9.279783815145492554e-02 -6.412379741668701172e-01
1.224000000000000000e+03 1.774759864807128906e+01 7.365849614143371582e-01 1.645187616348266602e+00 4.851938247680664062e+00 1.949137806892395020e+00 -4.896008491516113281e+00
1.225000000000000000e+03 1.757804298400878906e+01 1.114951014518737793e+00 1.036006927490234375e+00 5.069984436035156250e+00 1.831797480583190918e+00 -4.482489585876464844e+00
1.226000000000000000e+03 1.710195922851562500e+01 1.105509281158447266e+00 1.037918686866760254e+00 3.376271247863769531e+00 1.324256896972656250e+00 -3.705899715423583984e+00
1.227000000000000000e+03 1.871053886413574219e+01 4.833189010620117188e+00 7.216904163360595703e-01 7.575469970703125000e+00 2.489148139953613281e+00 -3.112416982650756836e+00
1.228000000000000000e+03 1.837438392639160156e+01 -2.637800931930541992e+00 3.806357860565185547e+00 6.605594635009765625e+00 3.123585700988769531e+00 3.238422155380249023e+00
1.229000000000000000e+03 1.654815483093261719e+01 -2.523739099502563477e+00 3.485390663146972656e+00 5.835352540016174316e-01 1.220677733421325684e+00 1.170900344848632812e+00
1.230000000000000000e+03 1.695056152343750000e+01 -2.774272441864013672e+00 3.867754220962524414e+00 1.316771030426025391e+00 1.555357575416564941e+00 1.836996078491210938e+00
1.231000000000000000e+03 1.733935356140136719e+01 -2.549450397491455078e+00 4.237505435943603516e+00 1.768181562423706055e+00 1.801706075668334961e+00 2.177456617355346680e+00
1.232000000000000000e+03 1.590749549865722656e+01 -3.030958414077758789e+00 3.071693420410156250e+00 5.254600644111633301e-01 1.079146027565002441e+00 1.212123751640319824e+00
1.233000000000000000e+03 1.786779785156250000e+01 -3.174523353576660156e+00 3.506715297698974609e+00 4.050252437591552734e+00 2.267090320587158203e+00 2.663270235061645508e+00
1.234000000000000000e+03 1.710354232788085938e+01 -3.065778017044067383e+00 3.709913492202758789e+00 1.900916218757629395e+00 1.683248877525329590e+00 2.131133079528808594e+00
1.235000000000000000e+03 1.878390502929687500e+01 -2.601493358612060547e+00 3.158551931381225586e+00 8.992314338684082031e+00 3.645259857177734375e+00 2.669327974319458008e+00
1.236000000000000000e+03 1.986873817443847656e+01 3.083453416824340820e+00 -5.173279643058776855e-01 8.199014663696289062e+00 2.304506063461303711e+00 -2.427305221557617188e+00
1.237000000000000000e+03 2.105367469787597656e+01 -1.769119977951049805e+00 7.118807315826416016e+00 5.897762298583984375e+00 3.904970884323120117e+00 -3.867168188095092773e+00
1.238000000000000000e+03 2.202711868286132812e+01 -9.357646107673645020e-01 6.191534519195556641e+00 2.599617004394531250e+00 2.637345314025878906e+00 -2.661182403564453125e+00
1.239000000000000000e+03 2.167304420471191406e+01 -1.291619688272476196e-01 4.137104511260986328e+00 4.053553581237792969e+00 2.457197427749633789e+00 -1.458499431610107422e+00
1.240000000000000000e+03 2.104371643066406250e+01 -8.426777720451354980e-01 7.375449180603027344e+00 5.826824665069580078e+00 3.960682153701782227e+00 -2.203740358352661133e+00
1.241000000000000000e+03 2.012460708618164062e+01 3.027928471565246582e-01 3.069253444671630859e+00 1.113903522491455078e+01 4.262486457824707031e+00 -4.174859523773193359e-01
1.242000000000000000e+03 1.984424400329589844e+01 1.934246897697448730e+00 -8.924396634101867676e-01 9.536419868469238281e+00 2.593194007873535156e+00 -2.396881341934204102e+00
1.243000000000000000e+03 1.942347717285156250e+01 -2.587480783462524414e+00 2.962668895721435547e+00 1.105068683624267578e+01 4.204006671905517578e+00 -3.383260071277618408e-01
1.244000000000000000e+03 1.662901687622070312e+01 1.237736344337463379e+00 7.462936043739318848e-01 2.681276082992553711e+00 1.028270840644836426e+00 -2.997766733169555664e+00
1.245000000000000000e+03 1.345675754547119141e+01 -3.343746900558471680e+00 1.776631593704223633e+00 4.195807501673698425e-02 5.455768704414367676e-01 7.441092729568481445e-01
1.246000000000000000e+03 1.157736206054687500e+01 -2.670672893524169922e+00 1.019803524017333984e+00 -1.963096298277378082e-02 3.000517785549163818e-01 4.012867212295532227e-01
1.247000000000000000e+03 1.220528602600097656e+01 -3.280312299728393555e+00 1.323161363601684570e+00 6.650283467024564743e-03 3.989435136318206787e-01 6.102077364921569824e-01
1.248000000000000000e+03 9.469619750976562500e+00 -3.276202201843261719e+00 6.500901579856872559e-01 6.922377645969390869e-02 2.157941758632659912e-01 4.282005131244659424e-01
1.249000000000000000e+03 1.153914165496826172e+01 -3.265340566635131836e+00 1.125922560691833496e+00 1.359042339026927948e-02 3.418539166450500488e-01 5.598345994949340820e-01
1.250000000000000000e+03 1.824090957641601562e+01 6.123061180114746094e+00 1.478027582168579102e+00 7.461410522460937500e+00 2.681831359863281250e+00 -3.277331352233886719e+00
1.251000000000000000e+03 1.629042816162109375e+01 1.618476629257202148e+00 5.393528938293457031e-01 2.611800193786621094e+00 9.453459382057189941e-01 -2.718688488006591797e+00
1.252000000000000000e+03 1.017111206054687500e+01 -3.264076232910156250e+00 7.902231216430664062e-01 4.881666600704193115e-02 2.517119348049163818e-01 4.727000594139099121e-01
1.253000000000000000e+03 8.753238677978515625e+00 -3.301327466964721680e+00 5.250109434127807617e-01 9.323864430189132690e-02 1.854748725891113281e-01 3.831497132778167725e-01
1.254000000000000000e+03 1.284674072265625000e+01 -3.303929090499877930e+00 1.540808439254760742e+00 1.474979240447282791e-02 4.666674435138702393e-01 6.616665124893188477e-01
1.255000000000000000e+03 1.572250556945800781e+01 2.428785324096679688e+00 4.342611730098724365e-01 2.711160659790039062e+00 9.436265826225280762e-01 -2.336355209350585938e+00
1.256000000000000000e+03 1.507508945465087891e+01 1.562532663345336914e+00 -1.355164796113967896e-01 1.343681335449218750e+00 3.624494671821594238e-01 -1.378084182739257812e+00
1.257000000000000000e+03 1.218605709075927734e+01 2.208323717117309570e+00 -8.234840631484985352e-01 3.931298255920410156e-01 -1.291062831878662109e-01 -7.308798283338546753e-02
1.258000000000000000e+03 1.692454910278320312e+01 1.502409696578979492e+00 7.229316234588623047e-01 3.671587944030761719e+00 1.318355917930603027e+00 -3.590641021728515625e+00
1.259000000000000000e+03 1.507918453216552734e+01 5.953793048858642578e+00 1.136444449424743652e+00 4.149837970733642578e+00 1.585884690284729004e+00 -2.042494773864746094e+00
1.260000000000000000e+03 5.787688255310058594e+00 -3.557821989059448242e+00 1.764770150184631348e-01 1.398164629936218262e-01 9.488804638385772705e-02 1.719411164522171021e-01
1.261000000000000000e+03 2.819256067276000977e+00 -7.908785343170166016e+00 -4.925142601132392883e-02 2.961391210556030273e-01 7.406630367040634155e-02 5.740660056471824646e-02
1.262000000000000000e+03 7.278251171112060547e+00 -3.408869981765747070e+00 3.165266811847686768e-01 1.356585621833801270e-01 1.356555819511413574e-01 2.821615934371948242e-01
1.263000000000000000e+03 8.022207260131835938e+00 -3.345345973968505859e+00 4.162709116935729980e-01 1.136813536286354065e-01 1.589856743812561035e-01 3.336073458194732666e-01
1.264000000000000000e+03 5.003051757812500000e+00 -2.746823787689208984e+00 1.051854193210601807e-01 6.978883594274520874e-02 5.249227583408355713e-02 7.495792955160140991e-02
1.265000000000000000e+03 6.528898239135742188e+00 -3.484794378280639648e+00 2.417645603418350220e-01 1.387531012296676636e-01 1.141552925109863281e-01 2.203083485364913940e-01
1.266000000000000000e+03 5.087014198303222656e+00 -4.526164531707763672e+00 1.399954557418823242e-01 2.070800811052322388e-01 1.041226610541343689e-01 1.862596124410629272e-01
1.267000000000000000e+03 1.479211211204528809e+00 -4.839479446411132812e+00 1.386930048465728760e-02 -7.255640346556901932e-03 1.984097994863986969e-03 -4.551548045128583908e-03
1.268000000000000000e+03 1.230312156677246094e+01 2.895500659942626953e+00 -2.846727967262268066e-01 6.968398690223693848e-01 1.236501261591911316e-01 -2.682983279228210449e-01
1.269000000000000000e+03 9.937651634216308594e+00 3.278259992599487305e+00 -4.079446792602539062e-01 2.117357999086380005e-01 -5.886266753077507019e-02 4.111441373825073242e-01
1.270000000000000000e+03 1.306202697753906250e+01 2.723763942718505859e+00 -2.095930278301239014e-01 9.281969666481018066e-01 2.155811935663223267e-01 -5.871073007583618164e-01
1.271000000000000000e+03 4.411808013916015625e+00 2.738143920898437500e+00 -4.242342412471771240e-01 -1.452202796936035156e-01 -1.708363592624664307e-01 6.729139089584350586e-01
1.272000000000000000e+03 5.175347805023193359e+00 2.675115585327148438e+00 -5.351532101631164551e-01 -9.782818704843521118e-02 -1.898944228887557983e-01 7.130947113037109375e-01
1.273000000000000000e+03 5.937389373779296875e+00 2.648502349853515625e+00 -6.402292251586914062e-01 -6.886183470487594604e-02 -2.127273231744766235e-01 7.412439584732055664e-01
1.274000000000000000e+03 5.255048751831054688e+00 4.184664726257324219e+00 -1.848848611116409302e-01 -1.620245873928070068e-01 -1.040728315711021423e-01 8.199899792671203613e-01
1.275000000000000000e+03 1.410012960433959961e+00 4.827590465545654297e+00 -1.759108901023864746e-02 -7.204568982124328613e-01 -2.214144021272659302e-01 3.989733755588531494e-01
1.276000000000000000e+03 4.149895906448364258e-01 3.574890613555908203e+00 -1.448163855820894241e-02 -4.621164798736572266e-01 -1.429794430732727051e-01 1.136097237467765808e-01
1.277000000000000000e+03 9.062594413757324219e+00 2.586084127426147461e+00 -8.873085975646972656e-01 6.731325760483741760e-03 -2.641731798648834229e-01 6.181798577308654785e-01
1.278000000000000000e+03 7.524117469787597656e+00 3.394235610961914062e+00 -4.569804668426513672e-01 7.376259192824363708e-03 -1.348812729120254517e-01 7.718875408172607422e-01
1.279000000000000000e+03 7.529672622680664062e+00 4.183951854705810547e+00 -1.641924232244491577e-01 7.793344557285308838e-02 -2.587769180536270142e-02 7.493461966514587402e-01
1.280000000000000000e+03 1.074542903900146484e+01 3.180353403091430664e+00 -3.721774816513061523e-01 3.335158526897430420e-01 -1.159849204123020172e-02 2.191531062126159668e-01
1.281000000000000000e+03 8.324550628662109375e+00 3.373705387115478516e+00 -4.630219042301177979e-01 6.487879902124404907e-02 -1.194429323077201843e-01 6.973649859428405762e-01
1.282000000000000000e+03 3.917146682739257812e+01 -1.195633411407470703e+01 7.379390001296997070e-01 1.146343135833740234e+01 3.660411119461059570e+00 -6.180285215377807617e-01
1.283000000000000000e+03 2.007096099853515625e+01 -1.589999103546142578e+01 -2.200776576995849609e+00 5.021598935127258301e-01 -5.095850229263305664e-01 5.670553445816040039e-01
1.284000000000000000e+03 2.336724090576171875e+01 -1.745080184936523438e+01 -2.932830333709716797e+00 3.119259476661682129e-01 -7.862713336944580078e-01 8.261563628911972046e-02
1.285000000000000000e+03 6.890699768066406250e+01 -6.111811161041259766e+00 -1.583609730005264282e-01 7.849880695343017578e+00 2.307456016540527344e+00 -8.298326730728149414e-01
1.286000000000000000e+03 6.786114501953125000e+01 -7.791652679443359375e+00 3.587743341922760010e-01 8.290367126464843750e+00 2.594742298126220703e+00 -1.951329827308654785e+00
1.287000000000000000e+03 5.404248809814453125e+01 3.456223011016845703e+00 -1.364955902099609375e+00 4.278920888900756836e-01 -2.811191678047180176e-01 8.157469332218170166e-02
1.288000000000000000e+03 1.891931915283203125e+01 -1.561649227142333984e+01 -2.156874179840087891e+00 3.700843155384063721e-01 -5.360369682312011719e-01 6.393113136291503906e-01
1.289000000000000000e+03 2.893361663818359375e+01 -1.564194488525390625e+01 -1.806725978851318359e+00 -7.631658017635345459e-02 -5.649127364158630371e-01 -3.161278665065765381e-01
1.290000000000000000e+03 2.698715972900390625e+01 -1.710751342773437500e+01 -3.290813684463500977e+00 2.754534780979156494e-02 -9.789804816246032715e-01 -2.562417089939117432e-01
1.291000000000000000e+03 1.777369880676269531e+01 -1.523431682586669922e+01 -1.871243834495544434e+00 1.817149519920349121e-01 -5.068587064743041992e-01 7.987605929374694824e-01
1.292000000000000000e+03 2.150340270996093750e+01 -1.497753238677978516e+01 -1.726228356361389160e+00 6.678805351257324219e-01 -3.175043463706970215e-01 3.646722137928009033e-01
1.293000000000000000e+03 1.282838630676269531e+01 2.291484642028808594e+01 4.575148224830627441e-01 5.198793888092041016e+00 1.696892619132995605e+00 -8.804552555084228516e-01
1.294000000000000000e+03 1.244645404815673828e+01 1.975538253784179688e+01 7.589805126190185547e-01 5.453493118286132812e+00 1.863742113113403320e+00 -1.240203261375427246e+00
1.295000000000000000e+03 2.585993194580078125e+01 -3.314128112792968750e+01 -9.860054850578308105e-01 2.254705578088760376e-01 -2.281604707241058350e-01 1.438003778457641602e-01
1.296000000000000000e+03 2.843093490600585938e+01 -3.495336151123046875e+01 -6.160609722137451172e-01 1.472499847412109375e+00 2.569316923618316650e-01 9.833161234855651855e-01
1.297000000000000000e+03 2.370426750183105469e+01 -1.513813877105712891e+01 -1.713700413703918457e+00 5.294899344444274902e-01 -3.552631437778472900e-01 1.580511033535003662e-01
1.298000000000000000e+03 1.910480690002441406e+01 -3.398600006103515625e+01 -1.361016988754272461e+00 -1.993037164211273193e-01 -4.680962264537811279e-01 2.276258915662765503e-01
1.299000000000000000e+03 2.029266738891601562e+01 -3.514346313476562500e+01 -9.425919651985168457e-01 -2.110237032175064087e-01 -3.460847139358520508e-01 1.827166974544525146e-01
1.300000000000000000e+03 3.635028076171875000e+01 -2.694534540176391602e+00 1.465639114379882812e+00 4.825563430786132812e+00 1.887360692024230957e+00 1.139570593833923340e+00
1.301000000000000000e+03 5.254537963867187500e+01 -3.072007179260253906e+01 -4.516142606735229492e-01 5.917986631393432617e-01 4.205531999468803406e-02 -1.523642241954803467e-01
1.302000000000000000e+03 5.080690765380859375e+01 -2.875168418884277344e+01 3.242719685658812523e-03 6.603044271469116211e-01 1.990641355514526367e-01 -3.848524391651153564e-01
1.303000000000000000e+03 2.303066062927246094e+01 -3.322365188598632812e+01 -1.264274597167968750e+00 -1.240921020507812500e-02 -3.830051422119140625e-01 3.634268790483474731e-02
1.304000000000000000e+03 2.673903656005859375e+01 -3.434696578979492188e+01 -6.314075589179992676e-01 6.277303695678710938e-01 -1.103154267184436321e-03 5.426828265190124512e-01
1.305000000000000000e+03 1.395004558563232422e+01 1.340202522277832031e+01 1.157256364822387695e+00 6.201691150665283203e+00 2.207684278488159180e+00 -1.802539706230163574e+00
1.306000000000000000e+03 4.394483947753906250e+01 1.713683509826660156e+01 7.421168088912963867e-01 6.441627979278564453e+00 2.155123472213745117e+00 1.610505104064941406e+00
1.307000000000000000e+03 1.665503120422363281e+01 -1.473480796813964844e+01 -1.530484795570373535e+00 7.584825158119201660e-03 -4.568699896335601807e-01 9.809978604316711426e-01
1.308000000000000000e+03 2.464426803588867188e+01 -1.628451156616210938e+01 -2.447999954223632812e+00 3.134135603904724121e-01 -6.403759121894836426e-01 9.128107130527496338e-02
1.309000000000000000e+03 2.204322814941406250e+01 -3.602339935302734375e+01 -7.103840112686157227e-01 -4.740849882364273071e-02 -2.273377627134323120e-01 1.751763671636581421e-01
1.310000000000000000e+03 4.236467742919921875e+01 -2.300067329406738281e+01 7.511553764343261719e-01 5.637172222137451172e+00 1.916498303413391113e+00 -1.143809199333190918e+00
1.311000000000000000e+03 4.691057968139648438e+01 -2.660285377502441406e+01 4.880726337432861328e-01 1.776984453201293945e+00 6.795170903205871582e-01 -1.063453078269958496e+00
1.312000000000000000e+03 7.162202453613281250e+01 -2.212140274047851562e+01 7.278472185134887695e-01 1.171434783935546875e+01 3.732658386230468750e+00 -3.123914897441864014e-01
1.313000000000000000e+03 1.774428749084472656e+01 7.375332355499267578e+00 1.687120795249938965e+00 7.479331493377685547e+00 2.749935626983642578e+00 -3.307931900024414062e+00
1.314000000000000000e+03 1.669403839111328125e+01 9.850432395935058594e+00 1.464474081993103027e+00 7.552424907684326172e+00 2.705069541931152344e+00 -2.973616361618041992e+00
1.315000000000000000e+03 1.426278972625732422e+01 -3.437720108032226562e+01 -1.193701028823852539e+00 -4.114736616611480713e-01 -4.815524220466613770e-01 5.116891264915466309e-01
1.316000000000000000e+03 6.356324195861816406e+00 -2.881826782226562500e+01 -1.536380052566528320e+00 1.976935982704162598e+00 1.321667879819869995e-01 7.700060009956359863e-01
1.317000000000000000e+03 4.784467697143554688e+01 -3.228665924072265625e+01 -2.688928246498107910e-01 2.241820812225341797e+00 5.918784141540527344e-01 -1.061002135276794434e+00
1.318000000000000000e+03 4.401679992675781250e+01 1.987239646911621094e+01 3.791528940200805664e-01 5.796462535858154297e+00 1.852684497833251953e+00 1.056662678718566895e+00
1.319000000000000000e+03 4.412301254272460938e+01 2.540254020690917969e+01 2.296893000602722168e-01 4.689179420471191406e+00 1.475660681724548340e+00 3.995868265628814697e-01
1.320000000000000000e+03 4.713920593261718750e+01 -2.468776512145996094e+01 5.425612330436706543e-01 1.182032465934753418e+00 5.173780918121337891e-01 -8.155955672264099121e-01
1.321000000000000000e+03 4.195999526977539062e+01 -1.024485707283020020e+00 1.274186253547668457e+00 1.083837223052978516e+01 3.633767604827880859e+00 2.212885618209838867e+00
1.322000000000000000e+03 4.153371429443359375e+01 -2.303718328475952148e+00 2.077721118927001953e+00 1.166425609588623047e+01 4.122593402862548828e+00 3.065335273742675781e+00
1.323000000000000000e+03 6.155596923828125000e+01 -3.493020629882812500e+01 -6.986697316169738770e-01 1.290551275014877319e-01 -1.708843708038330078e-01 2.839389443397521973e-01
1.324000000000000000e+03 4.028323745727539062e+01 -7.775353908538818359e+00 1.533545732498168945e+00 1.337661647796630859e+01 4.473048686981201172e+00 1.249651551246643066e+00
1.325000000000000000e+03 4.289491653442382812e+01 2.400515174865722656e+01 9.107247740030288696e-02 5.091009616851806641e+00 1.554624557495117188e+00 3.171947896480560303e-01
1.326000000000000000e+03 4.410042190551757812e+01 2.397039604187011719e+01 1.967032700777053833e-01 4.980541229248046875e+00 1.553173422813415527e+00 5.422412753105163574e-01
1.327000000000000000e+03 4.405350494384765625e+01 2.122883224487304688e+01 2.688820958137512207e-01 5.533543109893798828e+00 1.740727543830871582e+00 8.696684241294860840e-01
1.328000000000000000e+03 4.796577453613281250e+01 -2.753771591186523438e+01 3.868591487407684326e-01 1.470329523086547852e+00 5.571566224098205566e-01 -8.962461948394775391e-01
1.329000000000000000e+03 7.572933959960937500e+01 -1.925802612304687500e+01 3.605274856090545654e-01 8.565484046936035156e+00 2.677803277969360352e+00 -4.258114397525787354e-01
1.330000000000000000e+03 4.353175354003906250e+01 1.146360111236572266e+01 1.592348694801330566e+00 7.456245899200439453e+00 2.714578390121459961e+00 2.832600116729736328e+00
1.331000000000000000e+03 4.369862365722656250e+01 1.292897510528564453e+01 1.396002769470214844e+00 7.290540695190429688e+00 2.605962991714477539e+00 2.526433944702148438e+00
1.332000000000000000e+03 6.969109344482421875e+01 -8.819250106811523438e+00 4.253793507814407349e-02 9.470996856689453125e+00 2.854060411453247070e+00 -9.672338962554931641e-01
1.333000000000000000e+03 7.107373046875000000e+01 -1.846244621276855469e+01 4.517925083637237549e-01 1.302740669250488281e+01 4.043759822845458984e+00 -6.333101391792297363e-01
1.334000000000000000e+03 4.429471588134765625e+01 -2.321809005737304688e+01 7.819106578826904297e-01 3.266201257705688477e+00 1.214433550834655762e+00 -1.366692423820495605e+00
1.335000000000000000e+03 4.524099731445312500e+01 -2.422342109680175781e+01 7.414814233779907227e-01 2.507224798202514648e+00 9.746118187904357910e-01 -1.245819091796875000e+00
1.336000000000000000e+03 7.506927490234375000e+01 -3.336147689819335938e+01 -4.622526466846466064e-01 9.151433944702148438e+00 2.606754302978515625e+00 -8.550540208816528320e-01
1.337000000000000000e+03 7.691123962402343750e+01 -3.606971740722656250e+01 -2.548904716968536377e-01 1.002257061004638672e+01 2.930304050445556641e+00 -3.896688818931579590e-01
1.338000000000000000e+03 7.426450347900390625e+01 -2.284646224975585938e+01 5.156714916229248047e-01 9.685101509094238281e+00 3.060231685638427734e+00 -8.426727652549743652e-01
1.339000000000000000e+03 7.793584442138671875e+01 -2.913257789611816406e+01 -1.389954891055822372e-02 9.035608291625976562e+00 2.706512451171875000e+00 -8.759907484054565430e-01
1.340000000000000000e+03 7.559734344482421875e+01 1.449094390869140625e+01 6.363555788993835449e-02 6.792738914489746094e+00 2.056912183761596680e+00 -4.452183842658996582e-01
1.341000000000000000e+03 7.807099914550781250e+01 1.559062099456787109e+01 1.366739533841609955e-02 7.191509246826171875e+00 2.161552906036376953e+00 -2.094852030277252197e-01
1.342000000000000000e+03 7.781375885009765625e+01 3.477397918701171875e+01 2.429045736789703369e-03 6.538375377655029297e+00 1.962241291999816895e+00 1.032264996320009232e-02
1.343000000000000000e+03 7.817064666748046875e+01 -2.225912666320800781e+01 7.704006135463714600e-02 7.039152622222900391e+00 2.134857654571533203e+00 -4.931823015213012695e-01
1.344000000000000000e+03 7.695668792724609375e+01 -2.371495819091796875e+01 1.625765264034271240e-01 8.117223739624023438e+00 2.483940124511718750e+00 -8.550928831100463867e-01
1.345000000000000000e+03 7.593802642822265625e+01 -3.155273056030273438e+01 -3.293102085590362549e-01 9.346481323242187500e+00 2.705151319503784180e+00 -1.048895716667175293e+00
1.346000000000000000e+03 7.609427642822265625e+01 -3.689892959594726562e+01 -3.839619755744934082e-01 1.003460216522216797e+01 2.895191907882690430e+00 -3.627451658248901367e-01
1.347000000000000000e+03 7.657075500488281250e+01 -2.945891571044921875e+01 -1.390856355428695679e-01 9.145843505859375000e+00 2.702027320861816406e+00 -1.184752821922302246e+00
1.348000000000000000e+03 7.670133972167968750e+01 -2.724217224121093750e+01 7.453657686710357666e-02 8.709321975708007812e+00 2.635157346725463867e+00 -1.133650064468383789e+00
1.349000000000000000e+03 7.700615692138671875e+01 -2.604387092590332031e+01 4.074209928512573242e-02 8.466676712036132812e+00 2.552225589752197266e+00 -1.040359377861022949e+00
1.350000000000000000e+03 7.650560760498046875e+01 -3.472169113159179688e+01 -3.005496263504028320e-01 9.761631965637207031e+00 2.838324785232543945e+00 -5.524937510490417480e-01
1.351000000000000000e+03 7.391493225097656250e+01 -3.321869659423828125e+01 -6.052260994911193848e-01 8.969976425170898438e+00 2.509424924850463867e+00 -7.510521411895751953e-01
1.352000000000000000e+03 7.497344970703125000e+01 -4.039130020141601562e+01 -1.288034021854400635e-01 9.222323417663574219e+00 2.728055953979492188e+00 -2.805349230766296387e-01
1.353000000000000000e+03 7.800464630126953125e+01 2.245337295532226562e+01 2.180630341172218323e-02 6.698470592498779297e+00 2.016083240509033203e+00 -8.902718871831893921e-02
1.354000000000000000e+03 7.671773529052734375e+01 1.977068519592285156e+01 5.204610526561737061e-02 6.656331539154052734e+00 2.012513399124145508e+00 -2.146623879671096802e-01
1.355000000000000000e+03 7.524606323242187500e+01 2.251720237731933594e+01 9.427407383918762207e-02 6.330671787261962891e+00 1.927483797073364258e+00 -1.789487898349761963e-01
1.356000000000000000e+03 7.667364501953125000e+01 2.113823699951171875e+01 5.338271334767341614e-02 6.586462020874023438e+00 1.991953492164611816e+00 -1.752013713121414185e-01
1.357000000000000000e+03 7.679587554931640625e+01 1.301448059082031250e+01 2.499574609100818634e-02 7.184654712677001953e+00 2.162895202636718750e+00 -3.746280372142791748e-01
1.358000000000000000e+03 7.541212463378906250e+01 9.064458847045898438e+00 -4.718140512704849243e-02 7.217814445495605469e+00 2.151190042495727539e+00 -5.074830651283264160e-01
1.359000000000000000e+03 7.681288909912109375e+01 1.437279319763183594e+01 3.130184859037399292e-02 7.060802936553955078e+00 2.127631425857543945e+00 -3.495470583438873291e-01
1.360000000000000000e+03 7.664875793457031250e+01 2.387553977966308594e+01 4.587035626173019409e-02 6.491359233856201172e+00 1.961168885231018066e+00 -1.061864346265792847e-01
1.361000000000000000e+03 7.800827026367187500e+01 2.655289840698242188e+01 9.769104421138763428e-03 6.582704544067382812e+00 1.977742075920104980e+00 -2.747391536831855774e-02
1.362000000000000000e+03 7.699134826660156250e+01 -2.230388641357421875e+01 2.132996171712875366e-01 7.865300655364990234e+00 2.423580169677734375e+00 -6.994830965995788574e-01
1.363000000000000000e+03 7.350361633300781250e+01 -2.005314445495605469e+01 5.607039928436279297e-01 1.056686878204345703e+01 3.338271856307983398e+00 -5.489318966865539551e-01
1.364000000000000000e+03 7.693833160400390625e+01 -2.082419204711914062e+01 2.090058922767639160e-01 7.755992889404296875e+00 2.389499664306640625e+00 -5.400486588478088379e-01
1.365000000000000000e+03 7.547850799560546875e+01 -9.481026649475097656e+00 4.232868179678916931e-02 8.252548217773437500e+00 2.488463163375854492e+00 7.467948198318481445e-01
1.366000000000000000e+03 7.705606842041015625e+01 -1.360046577453613281e+01 1.946404576301574707e-01 7.328062057495117188e+00 2.256810903549194336e+00 3.959879279136657715e-01
1.367000000000000000e+03 7.555372619628906250e+01 -2.064042806625366211e+00 -2.716883122920989990e-01 8.053858757019042969e+00 2.334651231765747070e+00 3.249185085296630859e-01
1.368000000000000000e+03 7.666893005371093750e+01 -8.020953178405761719e+00 -4.529850929975509644e-02 7.880014419555664062e+00 2.350414752960205078e+00 7.151105403900146484e-01
1.369000000000000000e+03 7.806526947021484375e+01 5.947125434875488281e+00 -2.986844629049301147e-02 8.249964714050292969e+00 2.466028928756713867e+00 -1.801559329032897949e-01
1.370000000000000000e+03 7.549581146240234375e+01 6.303748130798339844e+00 -1.221632510423660278e-01 7.486963272094726562e+00 2.209439992904663086e+00 -4.179611504077911377e-01
1.371000000000000000e+03 7.641808319091796875e+01 3.531276321411132812e+01 -1.299111545085906982e-02 6.451057434082031250e+00 1.931419968605041504e+00 1.511374861001968384e-02
1.372000000000000000e+03 7.771700286865234375e+01 3.613827133178710938e+01 -1.913789100944995880e-02 6.536860466003417969e+00 1.955316781997680664e+00 3.907156642526388168e-03
1.373000000000000000e+03 7.805139923095703125e+01 7.325450897216796875e+00 -2.495372667908668518e-02 8.111997604370117188e+00 2.426113128662109375e+00 -2.136634290218353271e-01
1.374000000000000000e+03 7.678393554687500000e+01 6.156801700592041016e+00 -7.670711725950241089e-02 7.849461078643798828e+00 2.331826210021972656e+00 -2.982331514358520508e-01
1.375000000000000000e+03 7.675453948974609375e+01 -2.246277332305908203e+00 -1.785659193992614746e-01 8.166048049926757812e+00 2.396244764328002930e+00 3.410634398460388184e-01
1.376000000000000000e+03 7.676351165771484375e+01 -9.440895080566406250e+00 3.211139887571334839e-02 7.747585296630859375e+00 2.333909034729003906e+00 7.161077857017517090e-01
1.377000000000000000e+03 7.704014587402343750e+01 -1.637378311157226562e+01 2.770853042602539062e-01 7.334290504455566406e+00 2.283412694931030273e+00 3.555556293576955795e-03
1.378000000000000000e+03 7.681198120117187500e+01 3.277380371093750000e+01 -1.676196698099374771e-04 6.465275764465332031e+00 1.939532399177551270e+00 1.572288200259208679e-02
1.379000000000000000e+03 7.372250366210937500e+01 3.441960144042968750e+01 1.110111363232135773e-03 6.122068405151367188e+00 1.836953520774841309e+00 4.901923984289169312e-02
1.380000000000000000e+03 7.619104766845703125e+01 3.135847663879394531e+01 9.237070567905902863e-03 6.373882293701171875e+00 1.914935827255249023e+00 2.454824373126029968e-02
1.381000000000000000e+03 7.676129913330078125e+01 1.841744041442871094e+01 5.328029766678810120e-02 6.742660999298095703e+00 2.038782358169555664e+00 -2.522531747817993164e-01
1.382000000000000000e+03 7.556266784667968750e+01 1.711756134033203125e+01 8.697252720594406128e-02 6.608572959899902344e+00 2.008663654327392578e+00 -3.681221604347229004e-01
1.383000000000000000e+03 7.674886322021484375e+01 1.027946662902832031e+01 -9.126658551394939423e-03 7.449176311492919922e+00 2.232014894485473633e+00 -3.918223977088928223e-01
1.384000000000000000e+03 7.819164276123046875e+01 -1.369669723510742188e+01 8.901631832122802734e-02 6.513310432434082031e+00 1.980697989463806152e+00 3.188780844211578369e-01
1.385000000000000000e+03 7.707736206054687500e+01 -1.497591972351074219e+01 2.478239238262176514e-01 7.274279594421386719e+00 2.256630897521972656e+00 2.442521154880523682e-01
1.386000000000000000e+03 7.798801422119140625e+01 -6.714622020721435547e+00 -4.349535331130027771e-02 7.745203971862792969e+00 2.310512542724609375e+00 5.184869766235351562e-01
1.387000000000000000e+03 7.806102752685546875e+01 1.797472119331359863e+00 -7.383210211992263794e-02 8.479249000549316406e+00 2.521625041961669922e+00 1.831891387701034546e-02
1.388000000000000000e+03 7.674451446533203125e+01 -8.089407682418823242e-01 -1.655211001634597778e-01 8.183914184570312500e+00 2.405518054962158203e+00 2.137826383113861084e-01
1.389000000000000000e+03 7.682534027099609375e+01 4.806621551513671875e+00 -9.993404895067214966e-02 7.973510742187500000e+00 2.362073183059692383e+00 -2.346433401107788086e-01
1.390000000000000000e+03 7.684897613525390625e+01 3.452086210250854492e+00 -1.332202255725860596e-01 8.069146156311035156e+00 2.380777835845947266e+00 -1.459951400756835938e-01
1.391000000000000000e+03 7.673341369628906250e+01 -3.674618005752563477e+00 -1.564486622810363770e-01 8.127346038818359375e+00 2.391269207000732422e+00 4.625769257545471191e-01
1.392000000000000000e+03 7.667567443847656250e+01 -5.112317085266113281e+00 -1.481580734252929688e-01 8.070290565490722656e+00 2.376639842987060547e+00 5.779666304588317871e-01
1.393000000000000000e+03 7.699251556396484375e+01 -1.222883319854736328e+01 1.519320309162139893e-01 7.426408767700195312e+00 2.273502349853515625e+00 5.495660901069641113e-01
1.394000000000000000e+03 7.689042663574218750e+01 -1.084165287017822266e+01 1.020566225051879883e-01 7.588437557220458984e+00 2.307148218154907227e+00 6.514971852302551270e-01
1.395000000000000000e+03 7.575201416015625000e+01 -1.768647003173828125e+01 3.906803131103515625e-01 8.426101684570312500e+00 2.645034551620483398e+00 -2.643802165985107422e-01
1.396000000000000000e+03 1.568219852447509766e+01 6.957128524780273438e+00 1.388112902641296387e+00 5.243905067443847656e+00 1.989605426788330078e+00 -2.367041349411010742e+00
1.397000000000000000e+03 4.325767135620117188e+01 3.267940139770507812e+01 -8.723274469375610352e-01 3.305088758468627930e+00 7.298283576965332031e-01 4.422823488712310791e-01
1.398000000000000000e+03 1.442911148071289062e+01 3.024836540222167969e+01 -6.475254893302917480e-01 2.868065357208251953e+00 6.661619544029235840e-01 -5.262340903282165527e-01
1.399000000000000000e+03 7.100002288818359375e+01 -1.717825508117675781e+01 7.756668329238891602e-01 1.299088478088378906e+01 4.129965782165527344e+00 -8.679246902465820312e-01
1.400000000000000000e+03 6.988627624511718750e+01 -1.741380310058593750e+01 4.587767720222473145e-01 1.459300518035888672e+01 4.515534877777099609e+00 -8.132506012916564941e-01
1.401000000000000000e+03 4.195323562622070312e+01 1.000659561157226562e+01 1.580985188484191895e+00 9.544199943542480469e+00 3.337555646896362305e+00 3.307599544525146484e+00
1.402000000000000000e+03 2.368367671966552734e+00 3.573413467407226562e+01 -1.204013451933860779e-01 3.036078453063964844e+00 8.747031688690185547e-01 -4.064455032348632812e-01
1.403000000000000000e+03 5.712909221649169922e+00 3.849657058715820312e+01 -4.600533843040466309e-01 2.850845336914062500e+00 7.172375917434692383e-01 -4.735477864742279053e-01
1.404000000000000000e+03 5.024874210357666016e+00 3.397613525390625000e+01 -2.600012421607971191e-01 2.635799884796142578e+00 7.127395868301391602e-01 -9.276970624923706055e-01
1.405000000000000000e+03 3.880026102066040039e+00 3.547550582885742188e+01 -2.468893229961395264e-01 2.867150306701660156e+00 7.860783338546752930e-01 -6.608330011367797852e-01
1.406000000000000000e+03 3.567396163940429688e+00 3.137417984008789062e+01 -1.085729673504829407e-01 2.247487783432006836e+00 6.416744589805603027e-01 -9.015142321586608887e-01
1.407000000000000000e+03 1.994459152221679688e+00 2.733352279663085938e+01 -4.203135613352060318e-03 1.099880099296569824e+00 3.287030756473541260e-01 -6.680675745010375977e-01
1.408000000000000000e+03 3.212449550628662109e+00 2.429556846618652344e+01 5.431374162435531616e-02 7.374370098114013672e-01 2.375252246856689453e-01 -9.450008273124694824e-01
1.409000000000000000e+03 3.624080419540405273e+00 3.277352905273437500e+01 -1.309788227081298828e-01 2.476369380950927734e+00 7.036171555519104004e-01 -8.336161971092224121e-01
1.410000000000000000e+03 3.700761795043945312e+00 3.414213562011718750e+01 -1.873913705348968506e-01 2.681236505508422852e+00 7.481535673141479492e-01 -7.504053115844726562e-01
1.411000000000000000e+03 6.290913581848144531e+00 2.955570602416992188e+01 -2.128841578960418701e-01 2.362022876739501953e+00 6.447415947914123535e-01 -1.368124365806579590e+00
1.412000000000000000e+03 4.780842304229736328e+00 4.049848937988281250e+01 -2.567131817340850830e-01 3.129456043243408203e+00 8.618228435516357422e-01 -2.538855075836181641e-01
1.413000000000000000e+03 3.574542999267578125e+00 -3.528449630737304688e+01 -1.935014873743057251e-01 3.608271837234497070e+00 1.024431109428405762e+00 -2.473734021186828613e-01
1.414000000000000000e+03 2.284533739089965820e+00 -2.849072265625000000e+01 -4.322867691516876221e-01 3.956146955490112305e+00 1.057158112525939941e+00 1.233845114707946777e+00
1.415000000000000000e+03 1.728549242019653320e+00 -3.446802139282226562e+01 -9.833585470914840698e-02 4.963891506195068359e+00 1.459666728973388672e+00 -1.296390295028686523e-01
1.416000000000000000e+03 2.318112373352050781e+00 -3.018135452270507812e+01 -4.349315762519836426e-01 4.288725376129150391e+00 1.156138181686401367e+00 7.240093946456909180e-01
1.417000000000000000e+03 1.952049732208251953e+00 2.164396476745605469e+01 5.477990210056304932e-02 -4.592115283012390137e-01 -1.213294863700866699e-01 -5.532733798027038574e-01
1.418000000000000000e+03 3.076918840408325195e+00 -1.216194248199462891e+01 -2.151403576135635376e-01 8.555278182029724121e-01 1.921162456274032593e-01 -1.861500144004821777e-01
1.419000000000000000e+03 1.734653711318969727e+00 -9.294129371643066406e+00 -6.124306842684745789e-02 1.270648092031478882e-01 1.974652335047721863e-02 -4.575772956013679504e-02
1.420000000000000000e+03 3.192323923110961914e+00 1.722889709472656250e+01 2.011149227619171143e-01 -5.117706060409545898e-01 -9.319671243429183960e-02 -4.433080852031707764e-01
1.421000000000000000e+03 3.015769481658935547e+00 1.303785228729248047e+01 1.892815232276916504e-01 -9.523594379425048828e-01 -2.289233803749084473e-01 2.191342413425445557e-02
1.422000000000000000e+03 1.526447296142578125e+00 6.261608123779296875e+00 2.022425085306167603e-02 -1.010837316513061523e+00 -2.971839308738708496e-01 4.214780330657958984e-01
1.423000000000000000e+03 2.845899581909179688e+00 1.023935508728027344e+01 1.760417073965072632e-01 -1.021594643592834473e+00 -2.536658942699432373e-01 3.311627805233001709e-01
1.424000000000000000e+03 2.875208616256713867e+00 -2.407728767395019531e+01 5.022292733192443848e-01 3.089326381683349609e+00 1.077466726303100586e+00 1.853264689445495605e+00
1.425000000000000000e+03 1.901445388793945312e+00 -1.494153118133544922e+01 -2.926780097186565399e-02 6.861416995525360107e-02 1.180391106754541397e-02 -4.039266109466552734e-01
1.426000000000000000e+03 3.823151588439941406e+00 3.673955917358398438e+00 -2.095441371202468872e-01 -2.798162996768951416e-01 -1.468081325292587280e-01 7.068855762481689453e-01
1.427000000000000000e+03 1.837912201881408691e+00 1.463386726379394531e+01 7.297372072935104370e-02 -1.613525152206420898e+00 -4.621654450893402100e-01 -8.080096542835235596e-02
1.428000000000000000e+03 3.142467737197875977e+00 1.583990001678466797e+01 1.903585642576217651e-01 -7.020272612571716309e-01 -1.535006165504455566e-01 -2.866300940513610840e-01
1.429000000000000000e+03 5.863639831542968750e+00 -4.453063011169433594e+00 1.960591673851013184e-01 2.206856608390808105e-01 1.250234544277191162e-01 2.436162829399108887e-01
1.430000000000000000e+03 3.040356159210205078e+00 -5.158412933349609375e+00 2.684737183153629303e-02 1.223595663905143738e-01 4.476208239793777466e-02 5.004220455884933472e-02
1.431000000000000000e+03 1.659277319908142090e+00 -6.340550899505615234e+00 1.766570494510233402e-04 3.524466603994369507e-02 1.062639709562063217e-02 1.036316622048616409e-02
1.432000000000000000e+03 3.060783624649047852e+00 -1.915556526184082031e+01 5.994410514831542969e-01 1.867652416229248047e+00 7.401280403137207031e-01 4.173339605331420898e-01
1.433000000000000000e+03 3.228239297866821289e+00 -1.632737922668457031e+01 1.901738643646240234e-01 1.507646322250366211e+00 5.093460679054260254e-01 -2.628427743911743164e-01
1.434000000000000000e+03 1.687311172485351562e+00 -2.436027908325195312e+01 1.515191197395324707e-01 1.816111087799072266e+00 5.902890563011169434e-01 1.476110339164733887e+00
1.435000000000000000e+03 2.881609916687011719e+00 -2.280217361450195312e+01 6.093249917030334473e-01 2.826172351837158203e+00 1.030649185180664062e+00 1.539382100105285645e+00
1.436000000000000000e+03 2.891341924667358398e+00 -2.521537017822265625e+01 -4.869120195508003235e-02 3.203578710556030273e+00 9.464662671089172363e-01 1.964208006858825684e+00
1.437000000000000000e+03 1.776434302330017090e+00 -2.566753387451171875e+01 6.164232268929481506e-02 2.704929351806640625e+00 8.299714922904968262e-01 1.568654775619506836e+00
1.438000000000000000e+03 2.978317499160766602e+00 -1.074901294708251953e+01 -1.908524930477142334e-01 6.362391114234924316e-01 1.336159855127334595e-01 -6.568637490272521973e-02
1.439000000000000000e+03 2.883613348007202148e+00 -9.332878112792968750e+00 -9.600241482257843018e-02 4.459137022495269775e-01 1.049733906984329224e-01 2.288477495312690735e-02
1.440000000000000000e+03 4.578162193298339844e+00 -3.612326431274414062e+01 -1.756409555673599243e-01 3.211547613143920898e+00 9.107719659805297852e-01 -2.236619144678115845e-01
1.441000000000000000e+03 3.249359130859375000e+00 2.144557380676269531e+01 1.294560730457305908e-01 1.855990886688232422e-01 9.451655298471450806e-02 -8.223984837532043457e-01
1.442000000000000000e+03 1.877201914787292480e+00 -3.548908996582031250e+01 -9.281843155622482300e-02 4.772000789642333984e+00 1.403754830360412598e+00 -2.328147739171981812e-01
1.443000000000000000e+03 3.103448629379272461e+00 -3.343885421752929688e+01 -3.100423216819763184e-01 3.991026163101196289e+00 1.104295134544372559e+00 1.263890787959098816e-02
1.444000000000000000e+03 2.644266843795776367e+00 -2.159277915954589844e+01 5.267878174781799316e-01 2.017732143402099609e+00 7.633559703826904297e-01 1.141380548477172852e+00
1.445000000000000000e+03 5.466413497924804688e+00 -2.043952941894531250e+01 1.169209361076354980e+00 6.916519641876220703e+00 2.425718784332275391e+00 1.726673007011413574e+00
1.446000000000000000e+03 3.220823287963867188e+00 -1.495179557800292969e+01 2.440164610743522644e-02 1.310693025588989258e+00 4.005284011363983154e-01 -3.838799893856048584e-01
1.447000000000000000e+03 2.928070068359375000e+00 1.163530445098876953e+01 1.915858685970306396e-01 -1.016257286071777344e+00 -2.474014163017272949e-01 1.804860085248947144e-01
1.448000000000000000e+03 4.255983829498291016e+00 1.283855819702148438e+01 3.490304946899414062e-01 -2.933860123157501221e-01 1.669333875179290771e-02 -5.246994551271200180e-03
1.449000000000000000e+03 3.089443206787109375e+00 1.444290161132812500e+01 1.916102319955825806e-01 -8.424644470214843750e-01 -1.952562630176544189e-01 -1.334427893161773682e-01
1.450000000000000000e+03 3.263979196548461914e+00 2.002198982238769531e+01 1.668380945920944214e-01 -7.510017603635787964e-02 2.752137556672096252e-02 -7.122310996055603027e-01
1.451000000000000000e+03 3.229331254959106445e+00 2.287583160400390625e+01 8.630625158548355103e-02 4.489790797233581543e-01 1.605855971574783325e-01 -8.950432538986206055e-01
1.452000000000000000e+03 3.247478723526000977e+00 1.862122535705566406e+01 1.695261150598526001e-01 -3.046445846557617188e-01 -4.053553566336631775e-02 -5.813515782356262207e-01
1.453000000000000000e+03 3.633983612060546875e+01 -2.496558761596679688e+01 2.174821853637695312e+00 1.148556804656982422e+01 4.098116874694824219e+00 1.165129303932189941e+00
1.454000000000000000e+03 1.510255718231201172e+01 1.072901248931884766e+01 1.408349156379699707e+00 6.252798080444335938e+00 2.298344135284423828e+00 -2.305140256881713867e+00
1.455000000000000000e+03 7.124590301513671875e+01 -2.518008804321289062e+01 9.194552898406982422e-01 1.108136272430419922e+01 3.600245475769042969e+00 -5.817049741744995117e-01
1.456000000000000000e+03 8.873723030090332031e+00 -1.418596076965332031e+01 -2.032028734683990479e-01 2.950468301773071289e+00 8.241796493530273438e-01 2.106355667114257812e+00
1.457000000000000000e+03 4.019243240356445312e+01 -9.220967292785644531e+00 1.064088821411132812e+00 1.374685859680175781e+01 4.443284034729003906e+00 3.888501822948455811e-01
1.458000000000000000e+03 3.680413818359375000e+01 -1.441389369964599609e+01 -6.983783841133117676e-02 8.849444389343261719e+00 2.633882045745849609e+00 -7.718365192413330078e-01
1.459000000000000000e+03 3.902735137939453125e+01 -1.794139480590820312e+01 -1.105037182569503784e-01 1.035386180877685547e+01 3.073007345199584961e+00 7.271060943603515625e-01
1.460000000000000000e+03 4.259691238403320312e+01 1.507143735885620117e+00 -1.098721146583557129e+00 9.513652801513671875e+00 2.524479627609252930e+00 2.615784168243408203e+00
1.461000000000000000e+03 6.935735321044921875e+01 -1.324580478668212891e+01 1.277930259704589844e+00 1.338443756103515625e+01 4.398710250854492188e+00 -1.623551249504089355e+00
1.462000000000000000e+03 6.992155456542968750e+01 -1.023334026336669922e+01 2.445344328880310059e-01 1.040179729461669922e+01 3.193899631500244141e+00 -8.594826459884643555e-01
1.463000000000000000e+03 1.783685302734375000e+01 -3.508678817749023438e+01 -1.019314408302307129e+00 -3.691047728061676025e-01 -4.165257811546325684e-01 3.224091529846191406e-01
1.464000000000000000e+03 1.883887481689453125e+01 3.698104143142700195e+00 -4.415298998355865479e-02 7.714913368225097656e+00 2.301228046417236328e+00 -3.064595222473144531e+00
1.465000000000000000e+03 3.029269981384277344e+01 -3.341090011596679688e+01 -4.618181288242340088e-01 2.223537445068359375e+00 5.285157561302185059e-01 1.520282745361328125e+00
1.466000000000000000e+03 1.449993515014648438e+01 1.202690410614013672e+01 1.258393287658691406e+00 6.218177795410156250e+00 2.242971181869506836e+00 -2.057366132736206055e+00
1.467000000000000000e+03 4.404978275299072266e+00 -2.539628410339355469e+01 3.011270239949226379e-02 4.201937198638916016e+00 1.269614934921264648e+00 2.164189815521240234e+00
1.468000000000000000e+03 5.172746658325195312e+01 1.433110117912292480e+00 -3.312293291091918945e+00 2.622380852699279785e-01 -9.150165319442749023e-01 6.532912254333496094e-01
1.469000000000000000e+03 5.233920669555664062e+01 5.456200599670410156e+00 1.751786656677722931e-02 6.803966164588928223e-01 2.093743532896041870e-01 2.950137853622436523e-01
1.470000000000000000e+03 2.419103240966796875e+01 -3.663872528076171875e+01 -5.746545791625976562e-01 3.620849549770355225e-01 -6.377089023590087891e-02 3.282313644886016846e-01
1.471000000000000000e+03 2.681911087036132812e+01 -1.604326057434082031e+01 -2.342271089553833008e+00 1.215270608663558960e-01 -6.662232279777526855e-01 -5.549936369061470032e-02
1.472000000000000000e+03 4.388883209228515625e+01 7.848774433135986328e+00 1.713315606117248535e+00 6.357843875885009766e+00 2.421347856521606445e+00 3.106577157974243164e+00
1.473000000000000000e+03 9.751493453979492188e+00 -3.244598388671875000e+01 -1.434490561485290527e+00 -5.801981091499328613e-01 -6.044065952301025391e-01 5.365058779716491699e-01
1.474000000000000000e+03 1.579584693908691406e+01 1.879388451576232910e+00 3.704963326454162598e-01 2.356183767318725586e+00 8.180040717124938965e-01 -2.280231952667236328e+00
1.475000000000000000e+03 1.397027111053466797e+01 2.883734893798828125e+01 -4.079901576042175293e-01 3.373866319656372070e+00 8.897628188133239746e-01 -6.132119894027709961e-01
1.476000000000000000e+03 3.678948593139648438e+01 6.528980731964111328e-01 5.398507416248321533e-02 4.945624828338623047e+00 1.499882936477661133e+00 1.717672944068908691e+00
1.477000000000000000e+03 3.851177978515625000e+01 1.162591934204101562e+00 -2.845188379287719727e-01 8.142314910888671875e+00 2.357338666915893555e+00 1.860972523689270020e+00
1.478000000000000000e+03 5.426299667358398438e+01 6.868353486061096191e-01 -3.122908830642700195e+00 9.816802293062210083e-02 -9.074223041534423828e-01 6.112905144691467285e-01
1.479000000000000000e+03 1.621437072753906250e+01 8.311990737915039062e+00 1.566252350807189941e+00 6.352694511413574219e+00 2.375684022903442383e+00 -2.714056491851806641e+00
1.480000000000000000e+03 1.670225143432617188e+01 7.149814128875732422e+00 1.527806639671325684e+00 6.266098976135253906e+00 2.338171720504760742e+00 -2.811558723449707031e+00
1.481000000000000000e+03 4.389840698242187500e+01 1.574927520751953125e+01 9.766039252281188965e-01 6.752467632293701172e+00 2.318721532821655273e+00 1.865595102310180664e+00
1.482000000000000000e+03 4.515805816650390625e+01 1.719283103942871094e+01 9.617284536361694336e-01 5.792970657348632812e+00 2.026409626007080078e+00 1.757737636566162109e+00
1.483000000000000000e+03 3.809001159667968750e+01 -1.308781433105468750e+01 5.604728460311889648e-01 9.990171432495117188e+00 3.165193319320678711e+00 -7.608147263526916504e-01
1.484000000000000000e+03 3.312364196777343750e+01 4.114343643188476562e+01 -1.928238034248352051e+00 -4.433824121952056885e-01 -7.114861607551574707e-01 1.099609881639480591e-01
1.485000000000000000e+03 2.961191558837890625e+01 4.020638275146484375e+01 -2.268138885498046875e+00 -5.547928214073181152e-01 -8.468795418739318848e-01 5.398592352867126465e-02
1.486000000000000000e+03 1.347205829620361328e+01 1.485893535614013672e+01 1.082147359848022461e+00 6.100137710571289062e+00 2.154685497283935547e+00 -1.565229892730712891e+00
1.487000000000000000e+03 1.399857425689697266e+01 1.816319656372070312e+01 8.815209865570068359e-01 7.149695396423339844e+00 2.409364938735961914e+00 -1.343147158622741699e+00
1.488000000000000000e+03 3.955338287353515625e+01 2.152105808258056641e+00 -3.909896016120910645e-01 9.465363502502441406e+00 2.722312211990356445e+00 1.972545385360717773e+00
1.489000000000000000e+03 4.332624435424804688e+01 9.904203414916992188e+00 1.832564830780029297e+00 7.553682804107666016e+00 2.815874338150024414e+00 3.208275556564331055e+00
1.490000000000000000e+03 7.117501068115234375e+01 -1.009248828887939453e+01 2.107221037149429321e-01 9.973416328430175781e+00 3.055241584777832031e+00 -2.004233151674270630e-01
1.491000000000000000e+03 2.220420265197753906e+01 4.143827819824218750e+01 -1.770924806594848633e+00 -2.222800850868225098e-01 -5.979614853858947754e-01 -6.893159449100494385e-02
1.492000000000000000e+03 2.960377883911132812e+01 -4.830441951751708984e+00 3.748590469360351562e+00 4.595350623130798340e-01 1.262437701225280762e+00 -1.795746564865112305e+00
1.493000000000000000e+03 6.786983489990234375e+01 -3.561627960205078125e+01 -8.038122653961181641e-01 5.373309135437011719e+00 1.370849013328552246e+00 6.507343649864196777e-01
1.494000000000000000e+03 3.297791671752929688e+01 -2.147420644760131836e+00 1.619190573692321777e+00 3.246352672576904297e-01 5.831477642059326172e-01 -8.222212642431259155e-02
1.495000000000000000e+03 5.024604797363281250e+00 -2.136323928833007812e+01 1.298955678939819336e+00 6.035480022430419922e+00 2.200330734252929688e+00 1.585129141807556152e+00
1.496000000000000000e+03 5.715453624725341797e+00 -1.922081756591796875e+01 1.691923618316650391e+00 6.341208934783935547e+00 2.409939765930175781e+00 2.026257991790771484e+00
1.497000000000000000e+03 4.574367046356201172e+00 -1.772571182250976562e+01 7.660486102104187012e-01 3.371787309646606445e+00 1.241350769996643066e+00 3.502169549465179443e-01
1.498000000000000000e+03 3.078515625000000000e+01 -4.271963596343994141e+00 3.648700714111328125e+00 2.351078391075134277e-01 1.165142536163330078e+00 -1.388365507125854492e+00
1.499000000000000000e+03 4.302731704711914062e+01 4.003038883209228516e+00 -5.984250903129577637e-01 7.481512069702148438e+00 2.064926147460937500e+00 2.943930387496948242e+00
1.500000000000000000e+03 4.102539825439453125e+01 5.157938480377197266e+00 8.646492958068847656e-01 9.853263854980468750e+00 3.215373992919921875e+00 3.057285070419311523e+00
1.501000000000000000e+03 4.245823287963867188e+01 -1.950560188293457031e+01 4.077813923358917236e-01 7.472272872924804688e+00 2.364016294479370117e+00 -1.551618695259094238e+00
1.502000000000000000e+03 1.512875080108642578e+01 3.328385925292968750e+01 -1.131021857261657715e+00 2.074577331542968750e+00 2.830666601657867432e-01 -5.185824632644653320e-01
1.503000000000000000e+03 1.482442760467529297e+01 3.168710136413574219e+01 -8.270663022994995117e-01 2.373665332794189453e+00 4.639797210693359375e-01 -5.171544551849365234e-01
1.504000000000000000e+03 1.256093025207519531e+01 1.803026771545410156e+01 9.613870978355407715e-01 5.562209606170654297e+00 1.957079052925109863e+00 -1.283674478530883789e+00
1.505000000000000000e+03 1.620303726196289062e+01 -1.329675865173339844e+01 -6.339806318283081055e-01 1.633851528167724609e-01 -1.411786377429962158e-01 1.258706808090209961e+00
1.506000000000000000e+03 1.560269355773925781e+01 -1.410840320587158203e+01 -1.023498296737670898e+00 -2.099057137966156006e-01 -3.700211942195892334e-01 1.260752916336059570e+00
1.507000000000000000e+03 3.557794570922851562e+00 -2.106961250305175781e+01 9.263238906860351562e-01 3.229519844055175781e+00 1.246753096580505371e+00 1.291577696800231934e+00
1.508000000000000000e+03 7.069034576416015625e+01 -1.443270015716552734e+01 1.339334130287170410e+00 1.245360565185546875e+01 4.137881755828857422e+00 -8.339729905128479004e-01
1.509000000000000000e+03 3.828100585937500000e+01 3.633902740478515625e+01 -1.686465144157409668e+00 5.526671409606933594e-01 -3.401393890380859375e-01 1.006755232810974121e-01
1.510000000000000000e+03 3.648427200317382812e+01 3.641893005371093750e+01 -1.918192863464355469e+00 -2.910039946436882019e-02 -5.841879844665527344e-01 5.012015700340270996e-01
1.511000000000000000e+03 2.768665504455566406e+01 -4.278417110443115234e+00 4.171090602874755859e+00 8.731460571289062500e-01 1.513270974159240723e+00 -1.995566844940185547e+00
1.512000000000000000e+03 4.119268417358398438e+01 1.525807857513427734e+00 -9.514080882072448730e-01 9.888315200805664062e+00 2.681072235107421875e+00 1.744464635848999023e+00
1.513000000000000000e+03 6.420298004150390625e+01 -1.316659569740295410e+00 -1.281600832939147949e+00 3.752996683120727539e+00 7.414187788963317871e-01 -1.346715331077575684e+00
1.514000000000000000e+03 4.350613784790039062e+01 -2.390368270874023438e+01 6.967901587486267090e-01 4.220689296722412109e+00 1.475243926048278809e+00 -1.407898068428039551e+00
1.515000000000000000e+03 4.407827377319335938e+01 2.851828193664550781e+01 1.329024583101272583e-01 4.002933502197265625e+00 1.240750789642333984e+00 4.414713680744171143e-01
1.516000000000000000e+03 5.608671951293945312e+01 -3.728305435180664062e+01 -6.888812035322189331e-02 1.742569506168365479e-01 3.161064907908439636e-02 -5.146701931953430176e-01
1.517000000000000000e+03 5.954761123657226562e+01 -3.471224975585937500e+01 -9.949916005134582520e-01 -1.378049999475479126e-01 -3.398389816284179688e-01 -2.445212006568908691e-01
1.518000000000000000e+03 1.327921676635742188e+01 2.589172554016113281e+01 1.666648983955383301e-01 4.385267734527587891e+00 1.365579843521118164e+00 -7.562276721000671387e-01
1.519000000000000000e+03 4.009064483642578125e+01 -2.055908012390136719e+01 5.730457901954650879e-01 9.159852981567382812e+00 2.919869661331176758e+00 3.614093661308288574e-01
1.520000000000000000e+03 5.288051223754882812e+01 3.847382545471191406e+00 -1.099564552307128906e+00 4.233979582786560059e-01 -2.028499841690063477e-01 1.275446414947509766e-01
1.521000000000000000e+03 3.176627540588378906e+01 -3.142711448669433594e+01 3.344657132402062416e-03 3.331889629364013672e+00 1.000570297241210938e+00 1.847213149070739746e+00
1.522000000000000000e+03 3.337300109863281250e+01 -3.271004486083984375e+01 -1.074500083923339844e+00 5.214403629302978516e+00 1.241971015930175781e+00 1.351199746131896973e+00
1.523000000000000000e+03 6.819963073730468750e+01 -3.198796463012695312e+01 -1.225852847099304199e+00 6.264279365539550781e+00 1.511528015136718750e+00 6.868758797645568848e-01
1.524000000000000000e+03 6.768541717529296875e+01 -2.975184631347656250e+01 -3.119302093982696533e-01 6.128690719604492188e+00 1.745028138160705566e+00 1.333813905715942383e+00
1.525000000000000000e+03 4.896605968475341797e+00 -2.655322837829589844e+01 -6.263803839683532715e-01 4.296404361724853516e+00 1.101007223129272461e+00 1.769320130348205566e+00
1.526000000000000000e+03 3.635853576660156250e+01 -2.853169059753417969e+01 2.599840760231018066e-01 8.721014022827148438e+00 2.694299459457397461e+00 5.831561684608459473e-01
1.527000000000000000e+03 5.739295196533203125e+01 1.254989266395568848e+00 -2.108772516250610352e+00 1.939103752374649048e-01 -5.744586586952209473e-01 -9.154877811670303345e-02
1.528000000000000000e+03 5.606034088134765625e+01 1.589349031448364258e+00 -2.174050807952880859e+00 1.821334809064865112e-01 -5.975752472877502441e-01 1.208355650305747986e-01
1.529000000000000000e+03 4.040858840942382812e+01 -2.131908178329467773e+00 1.238148570060729980e+00 1.033277606964111328e+01 3.471277236938476562e+00 2.088549375534057617e+00
1.530000000000000000e+03 3.486938476562500000e+01 -2.807201147079467773e+00 1.834255456924438477e+00 2.773539304733276367e+00 1.382338404655456543e+00 6.867524385452270508e-01
1.531000000000000000e+03 6.489370727539062500e+01 -3.458508682250976562e+01 -7.413691282272338867e-01 2.301240444183349609e+00 4.679614305496215820e-01 7.355787754058837891e-01
1.532000000000000000e+03 7.305351257324218750e+01 -2.260738563537597656e+01 6.776846051216125488e-01 1.044764709472656250e+01 3.337599515914916992e+00 -5.863056182861328125e-01
1.533000000000000000e+03 5.431361770629882812e+01 -3.582175445556640625e+01 -4.470647871494293213e-01 6.370470523834228516e-01 5.699467286467552185e-02 -4.994990229606628418e-01
1.534000000000000000e+03 3.577398681640625000e+01 -1.797704124450683594e+01 -1.848508119583129883e+00 1.068205738067626953e+01 2.650064706802368164e+00 -3.552635014057159424e-01
1.535000000000000000e+03 4.691412734985351562e+01 3.051340103149414062e+00 -8.887700438499450684e-01 6.244284510612487793e-01 -7.930248975753784180e-02 2.313756465911865234e+00
1.536000000000000000e+03 3.176540374755859375e+01 -3.365174484252929688e+01 -8.654535412788391113e-01 3.750763177871704102e+00 8.655928969383239746e-01 1.540125608444213867e+00
1.537000000000000000e+03 3.196139526367187500e+01 -3.252422714233398438e+01 -4.693528711795806885e-01 3.793059110641479492e+00 9.971118569374084473e-01 1.838241219520568848e+00
1.538000000000000000e+03 4.109037780761718750e+01 2.800015509128570557e-01 -2.806602120399475098e-01 1.012510585784912109e+01 2.953333616256713867e+00 1.748464226722717285e+00
1.539000000000000000e+03 7.197480773925781250e+01 -2.653448677062988281e+01 6.311458945274353027e-01 1.031561946868896484e+01 3.284029722213745117e+00 -8.597701191902160645e-01
1.540000000000000000e+03 3.095396423339843750e+01 -1.599999618530273438e+01 -1.539129614830017090e+00 -1.068964526057243347e-01 -4.938078224658966064e-01 -6.398892402648925781e-01
1.541000000000000000e+03 2.380947113037109375e+01 -3.647565126419067383e+00 4.999615192413330078e+00 1.702108025550842285e+00 2.010516881942749023e+00 -2.265842199325561523e+00
1.542000000000000000e+03 2.369256591796875000e+01 -1.342193722724914551e+00 5.355257987976074219e+00 3.323729634284973145e-01 1.706289172172546387e+00 -2.217753171920776367e+00
1.543000000000000000e+03 6.289025115966796875e+01 -6.177092790603637695e-01 -1.428243160247802734e+00 2.510904073715209961e+00 3.247982859611511230e-01 -1.245944261550903320e+00
1.544000000000000000e+03 7.129859924316406250e+01 -2.880351638793945312e+01 -3.985998034477233887e-01 9.524991989135742188e+00 2.737917661666870117e+00 -7.248867154121398926e-01
1.545000000000000000e+03 4.344333267211914062e+01 3.398387908935546875e+01 -1.084309577941894531e+00 3.139914751052856445e+00 6.166815757751464844e-01 3.768319785594940186e-01
1.546000000000000000e+03 3.645695114135742188e+01 -1.901547622680664062e+01 -8.022460341453552246e-01 1.042727279663085938e+01 2.887508153915405273e+00 1.364600419998168945e+00
1.547000000000000000e+03 6.483828735351562500e+01 -3.014536201953887939e-02 -1.286401271820068359e+00 4.255574226379394531e+00 8.907518386840820312e-01 -1.358850240707397461e+00
1.548000000000000000e+03 6.151582717895507812e+01 -3.692536801099777222e-02 -1.600078225135803223e+00 1.521869659423828125e+00 -2.346256375312805176e-02 -9.754086136817932129e-01
1.549000000000000000e+03 6.212390899658203125e+00 -1.629451370239257812e+01 7.442898750305175781e-01 4.326206684112548828e+00 1.521148920059204102e+00 7.903685569763183594e-01
1.550000000000000000e+03 2.943841171264648438e+01 -1.459851264953613281e+01 -3.534421622753143311e-01 1.027912646532058716e-01 -7.519526779651641846e-02 -6.155887246131896973e-01
1.551000000000000000e+03 2.971320915222167969e+01 -1.613627433776855469e+01 -2.060792922973632812e+00 -4.755231738090515137e-02 -6.325035691261291504e-01 -2.181839346885681152e-01
1.552000000000000000e+03 3.823214721679687500e+01 -1.930836105346679688e+01 -2.004280090332031250e-01 1.060924148559570312e+01 3.122643947601318359e+00 1.296403646469116211e+00
1.553000000000000000e+03 3.786063766479492188e+01 -2.844783401489257812e+01 3.989272713661193848e-01 7.949724197387695312e+00 2.504595518112182617e+00 -3.630063533782958984e-01
1.554000000000000000e+03 3.744488906860351562e+01 -2.710349464416503906e+01 9.067561030387878418e-01 8.889529228210449219e+00 2.938885450363159180e+00 -2.750975191593170166e-01
1.555000000000000000e+03 4.160433197021484375e+01 4.430775165557861328e+00 -6.649171561002731323e-02 9.312267303466796875e+00 2.773732662200927734e+00 2.607641458511352539e+00
1.556000000000000000e+03 6.782372283935546875e+01 -3.250626564025878906e+00 -6.922749876976013184e-01 6.571619987487792969e+00 1.763803482055664062e+00 -7.372919917106628418e-01
1.557000000000000000e+03 1.263760089874267578e+01 -1.402363967895507812e+01 -2.478060871362686157e-01 6.532584875822067261e-02 -5.474407225847244263e-02 2.084764957427978516e+00
1.558000000000000000e+03 1.834651565551757812e+01 3.577258682250976562e+01 -1.487400531768798828e+00 6.451794505119323730e-01 -2.526663243770599365e-01 -2.993520498275756836e-01
1.559000000000000000e+03 1.552141857147216797e+01 3.513056182861328125e+01 -1.255336880683898926e+00 1.819284796714782715e+00 1.691843718290328979e-01 -4.406116008758544922e-01
1.560000000000000000e+03 1.264476585388183594e+01 2.138823699951171875e+01 5.218476653099060059e-01 5.449361801147460938e+00 1.791362881660461426e+00 -1.054033875465393066e+00
1.561000000000000000e+03 5.810940933227539062e+01 -3.423146820068359375e+01 -1.344950914382934570e+00 -3.268963694572448730e-01 -5.015541911125183105e-01 -3.198887109756469727e-01
1.562000000000000000e+03 6.086032390594482422e+00 -1.778595924377441406e+01 1.738695144653320312e+00 5.222899436950683594e+00 2.088478326797485352e+00 1.391798257827758789e+00
1.563000000000000000e+03 6.008161544799804688e+00 -1.487090969085693359e+01 -7.391309738159179688e-02 3.367132663726806641e+00 9.879658818244934082e-01 5.540740489959716797e-01
1.564000000000000000e+03 7.383916378021240234e+00 -3.174482154846191406e+01 -1.350089550018310547e+00 8.486985564231872559e-01 -1.504172980785369873e-01 1.818897724151611328e-01
1.565000000000000000e+03 8.422857284545898438e+00 -3.218358230590820312e+01 -1.446947455406188965e+00 1.163924708962440491e-01 -3.991664648056030273e-01 1.894309222698211670e-01
1.566000000000000000e+03 2.419009590148925781e+01 -2.376689910888671875e+00 6.009930133819580078e+00 7.658050060272216797e-01 2.032720565795898438e+00 -2.004573822021484375e+00
1.567000000000000000e+03 2.602049446105957031e+01 -4.411185741424560547e+00 4.328428745269775391e+00 1.244447827339172363e+00 1.671862959861755371e+00 -1.935498118400573730e+00
1.568000000000000000e+03 6.543654632568359375e+01 -2.084996700286865234e+00 -1.067765355110168457e+00 4.955598354339599609e+00 1.166349768638610840e+00 -1.164717674255371094e+00
1.569000000000000000e+03 3.726884078979492188e+01 -2.001249313354492188e+01 8.997706174850463867e-01 1.048300361633300781e+01 3.414832115173339844e+00 1.001706242561340332e+00
1.570000000000000000e+03 4.822680664062500000e+01 3.738393306732177734e+00 -6.881970763206481934e-01 1.906726211309432983e-01 -1.492573320865631104e-01 1.227241754531860352e+00
1.571000000000000000e+03 1.806595230102539062e+01 -2.903710126876831055e+00 3.693449258804321289e+00 4.912614345550537109e+00 2.581819057464599609e+00 2.970995426177978516e+00
1.572000000000000000e+03 1.865527153015136719e+01 -2.915591478347778320e+00 3.063634634017944336e+00 7.579553604125976562e+00 3.192956447601318359e+00 2.401320457458496094e+00
1.573000000000000000e+03 1.641998672485351562e+01 -2.833414793014526367e+00 3.345862388610839844e+00 6.904556751251220703e-01 1.210895419120788574e+00 1.340956807136535645e+00
1.574000000000000000e+03 1.660067367553710938e+01 -2.811748266220092773e+00 3.530291318893432617e+00 9.126563072204589844e-01 1.332884311676025391e+00 1.502721309661865234e+00
1.575000000000000000e+03 1.872146797180175781e+01 -3.230879068374633789e+00 2.665394067764282227e+00 7.094633579254150391e+00 2.928008317947387695e+00 1.920124769210815430e+00
1.576000000000000000e+03 2.017190551757812500e+01 -2.965105056762695312e+00 3.463177442550659180e+00 8.441830635070800781e+00 3.571502685546875000e+00 -2.363772869110107422e+00
1.577000000000000000e+03 2.020868301391601562e+01 -2.654390335083007812e+00 4.103347301483154297e+00 8.994401931762695312e+00 3.929324865341186523e+00 -2.878595829010009766e+00
1.578000000000000000e+03 2.268436431884765625e+01 -3.074578762054443359e+00 5.336307048797607422e+00 2.566754817962646484e+00 2.370918512344360352e+00 -3.035227298736572266e+00
1.579000000000000000e+03 1.980084419250488281e+01 9.335653185844421387e-01 3.008144199848175049e-01 1.148787879943847656e+01 3.536607742309570312e+00 -1.894654989242553711e+00
1.580000000000000000e+03 2.058620834350585938e+01 -2.661896467208862305e+00 4.661489963531494141e+00 7.592625617980957031e+00 3.676234483718872070e+00 -3.348312854766845703e+00
1.581000000000000000e+03 1.495062351226806641e+01 -3.465821743011474609e+00 2.500419378280639648e+00 2.984972894191741943e-01 8.396750092506408691e-01 1.092618465423583984e+00
1.582000000000000000e+03 1.754546356201171875e+01 7.615829706192016602e-01 1.614344000816345215e+00 4.170921325683593750e+00 1.735579609870910645e+00 -4.455329895019531250e+00
1.583000000000000000e+03 1.865614509582519531e+01 2.862487554550170898e+00 -6.110354661941528320e-01 7.939745903015136719e+00 2.198613166809082031e+00 -3.393136262893676758e+00
1.584000000000000000e+03 1.726205253601074219e+01 1.737885355949401855e+00 5.820314884185791016e-01 4.642289638519287109e+00 1.567296266555786133e+00 -3.948294401168823242e+00
1.585000000000000000e+03 1.820994377136230469e+01 9.898611903190612793e-01 8.462776541709899902e-01 7.475403308868408203e+00 2.496504306793212891e+00 -5.306089878082275391e+00
1.586000000000000000e+03 1.748403549194335938e+01 1.416127085685729980e+00 7.304702997207641602e-01 4.992143630981445312e+00 1.716784238815307617e+00 -4.237874031066894531e+00
1.587000000000000000e+03 2.046214866638183594e+01 5.742571353912353516e-01 2.620802164077758789e+00 9.312956809997558594e+00 3.580127716064453125e+00 -4.920200407505035400e-01
1.588000000000000000e+03 1.923575782775878906e+01 1.508333683013916016e+00 -8.234665989875793457e-01 1.021730136871337891e+01 2.818150520324707031e+00 -3.400129079818725586e+00
1.589000000000000000e+03 1.889637184143066406e+01 1.323271751403808594e+00 -3.689649403095245361e-01 1.002599143981933594e+01 2.897108078002929688e+00 -4.320204734802246094e+00
1.590000000000000000e+03 2.132531166076660156e+01 -4.021567404270172119e-01 5.612798213958740234e+00 5.307158946990966797e+00 3.275986909866333008e+00 -1.664375901222229004e+00
1.591000000000000000e+03 2.085778427124023438e+01 -3.310905992984771729e-01 6.115661144256591797e+00 7.140631675720214844e+00 3.976887702941894531e+00 -1.039491295814514160e+00
1.592000000000000000e+03 2.060623168945312500e+01 3.056955710053443909e-02 4.904054164886474609e+00 8.862216949462890625e+00 4.129881381988525391e+00 -8.346870541572570801e-02
1.593000000000000000e+03 2.035356712341308594e+01 2.132111787796020508e+00 -7.954230904579162598e-01 8.322147369384765625e+00 2.258017301559448242e+00 -1.746582865715026855e+00
1.594000000000000000e+03 1.525538444519042969e+01 2.099974393844604492e+00 1.896319240331649780e-01 1.945128917694091797e+00 6.404282450675964355e-01 -1.779690504074096680e+00
1.595000000000000000e+03 1.404054355621337891e+01 -3.416440010070800781e+00 2.046375274658203125e+00 1.038770154118537903e-01 6.450756788253784180e-01 8.626582026481628418e-01
1.596000000000000000e+03 9.492010116577148438e+00 -3.952770709991455078e+00 7.086126208305358887e-01 1.248040199279785156e-01 2.500250041484832764e-01 5.634176731109619141e-01
1.597000000000000000e+03 1.085989570617675781e+01 -3.260364770889282227e+00 9.481569528579711914e-01 2.698234654963016510e-02 2.925418019294738770e-01 5.164901614189147949e-01
1.598000000000000000e+03 1.336072063446044922e+01 -3.855604171752929688e+00 1.809943199157714844e+00 9.711891412734985352e-02 5.721186399459838867e-01 9.192783236503601074e-01
1.599000000000000000e+03 8.792329788208007812e+00 -3.994864940643310547e+00 5.799764394760131836e-01 1.504855155944824219e-01 2.191385775804519653e-01 5.034130215644836426e-01
1.600000000000000000e+03 1.460237121582031250e+01 2.367713212966918945e+00 8.666600286960601807e-02 1.609434485435485840e+00 5.088301301002502441e-01 -1.439138412475585938e+00
1.601000000000000000e+03 1.395372772216796875e+01 3.159766674041748047e+00 2.594812512397766113e-01 1.632721900939941406e+00 5.676609277725219727e-01 -1.197435736656188965e+00
1.602000000000000000e+03 1.018183326721191406e+01 -3.919245243072509766e+00 8.563438653945922852e-01 1.004681736230850220e-01 2.870436310768127441e-01 6.215334534645080566e-01
1.603000000000000000e+03 1.472223472595214844e+01 2.994925975799560547e+00 3.664432168006896973e-01 2.159587860107421875e+00 7.578093409538269043e-01 -1.678624749183654785e+00
1.604000000000000000e+03 1.278265285491943359e+01 -3.833772420883178711e+00 1.595437169075012207e+00 6.477678567171096802e-02 4.980641901493072510e-01 8.479909896850585938e-01
1.605000000000000000e+03 1.085884761810302734e+01 -3.888559818267822266e+00 1.018554091453552246e+00 7.605365663766860962e-02 3.283823430538177490e-01 6.743934154510498047e-01
1.606000000000000000e+03 1.153488063812255859e+01 3.050468206405639648e+00 -3.332364857196807861e-01 4.913002252578735352e-01 4.741911590099334717e-02 -2.296475879848003387e-02
1.607000000000000000e+03 6.614770889282226562e+00 -4.299866676330566406e+00 2.618317604064941406e-01 2.285633236169815063e-01 1.471185237169265747e-01 3.207060694694519043e-01
1.608000000000000000e+03 4.367852210998535156e+00 -3.624468088150024414e+00 1.116433963179588318e-01 1.028409376740455627e-01 6.434530019760131836e-02 8.406066149473190308e-02
1.609000000000000000e+03 4.286663532257080078e+00 -4.418190956115722656e+00 7.933724671602249146e-02 1.565023362636566162e-01 7.075187563896179199e-02 1.054259464144706726e-01
1.610000000000000000e+03 8.082823753356933594e+00 -4.059070587158203125e+00 4.647253751754760742e-01 1.740791350603103638e-01 1.916413605213165283e-01 4.470974802970886230e-01
1.611000000000000000e+03 3.966965436935424805e+00 -8.034499168395996094e+00 -4.791842028498649597e-02 5.278653502464294434e-01 1.439840793609619141e-01 1.868593692779541016e-01
1.612000000000000000e+03 3.059975385665893555e+00 -4.109157562255859375e+00 5.830444768071174622e-02 8.596290647983551025e-02 4.328020662069320679e-02 3.336266055703163147e-02
1.613000000000000000e+03 3.991118669509887695e+00 -6.692234039306640625e+00 1.800541207194328308e-02 3.517073690891265869e-01 1.109138354659080505e-01 1.685432046651840210e-01
1.614000000000000000e+03 2.820583581924438477e+00 -6.441086769104003906e+00 2.076472714543342590e-02 1.966851353645324707e-01 6.523495912551879883e-02 6.315504759550094604e-02
1.615000000000000000e+03 9.177568435668945312e+00 4.127528667449951172e+00 -5.830554664134979248e-02 2.906067967414855957e-01 6.969037652015686035e-02 5.047075152397155762e-01
1.616000000000000000e+03 6.737889289855957031e+00 3.406295061111450195e+00 -4.465197026729583740e-01 -3.557175770401954651e-02 -1.446274369955062866e-01 8.060032725334167480e-01
1.617000000000000000e+03 3.941643953323364258e+00 8.657410621643066406e+00 2.512875497341156006e-01 -5.351063013076782227e-01 -8.514562249183654785e-02 5.314235687255859375e-01
1.618000000000000000e+03 6.681231498718261719e+00 5.023811817169189453e+00 3.815257921814918518e-02 3.867297619581222534e-02 2.304766699671745300e-02 7.719280123710632324e-01
1.619000000000000000e+03 9.127978324890136719e+00 3.340033292770385742e+00 -4.370344281196594238e-01 1.251020878553390503e-01 -9.357970207929611206e-02 5.853226184844970703e-01
1.620000000000000000e+03 6.731012344360351562e+00 4.198040485382080078e+00 -1.818406730890274048e-01 -1.190410554409027100e-02 -5.812343209981918335e-02 8.103388547897338867e-01
1.621000000000000000e+03 4.807627677917480469e+00 6.893901824951171875e+00 2.290874123573303223e-01 -2.810609340667724609e-01 -1.559205073863267899e-02 7.116070985794067383e-01
1.622000000000000000e+03 4.527911663055419922e+00 3.495495557785034180e+00 -2.907404899597167969e-01 -1.884410083293914795e-01 -1.437544524669647217e-01 7.577756047248840332e-01
1.623000000000000000e+03 3.103807449340820312e+00 3.994167089462280273e+00 -1.302082091569900513e-01 -3.841995596885681152e-01 -1.543223261833190918e-01 6.437579989433288574e-01
1.624000000000000000e+03 2.515159368515014648e+00 6.275650024414062500e+00 5.630954355001449585e-02 -7.735635638236999512e-01 -2.151762098073959351e-01 5.897557735443115234e-01
1.625000000000000000e+03 2.311250448226928711e+00 4.461932659149169922e+00 -5.938285216689109802e-02 -5.440092086791992188e-01 -1.810176223516464233e-01 5.502173900604248047e-01
1.626000000000000000e+03 1.320567893981933594e+01 3.375153541564941406e+00 1.848793178796768188e-01 1.360466241836547852e+00 4.636036753654479980e-01 -8.036726117134094238e-01
1.627000000000000000e+03 1.244751453399658203e+01 3.593797206878662109e+00 1.545742452144622803e-01 1.051187753677368164e+00 3.617286086082458496e-01 -4.840793311595916748e-01
1.628000000000000000e+03 1.166826725006103516e+01 3.790332078933715820e+00 1.164109036326408386e-01 8.125252127647399902e-01 2.786808311939239502e-01 -1.914473176002502441e-01
1.629000000000000000e+03 1.085745429992675781e+01 3.946931600570678711e+00 6.245775520801544189e-02 6.028044819831848145e-01 1.995786726474761963e-01 5.913751572370529175e-02
1.630000000000000000e+03 7.502599239349365234e+00 5.009875774383544922e+00 1.017685532569885254e-01 1.574196964502334595e-01 7.775647938251495361e-02 6.988977789878845215e-01
1.631000000000000000e+03 1.931105613708496094e+01 -1.457491970062255859e+01 -1.552265524864196777e+00 5.545908808708190918e-01 -2.993023991584777832e-01 6.177849769592285156e-01
1.632000000000000000e+03 2.237377929687500000e+01 -1.621555137634277344e+01 -2.329355955123901367e+00 5.197415947914123535e-01 -5.428842902183532715e-01 2.901193499565124512e-01
1.633000000000000000e+03 2.260504531860351562e+01 -1.507971954345703125e+01 -1.754794597625732422e+00 6.094162464141845703e-01 -3.436135053634643555e-01 2.106395065784454346e-01
1.634000000000000000e+03 3.940888595581054688e+01 -6.132452487945556641e+00 1.719492554664611816e+00 1.097144126892089844e+01 3.807280063629150391e+00 1.359869360923767090e+00
1.635000000000000000e+03 3.915780258178710938e+01 -7.607037544250488281e+00 1.857150316238403320e+00 1.101138496398925781e+01 3.860560417175292969e+00 6.461212038993835449e-01
1.636000000000000000e+03 2.020933914184570312e+01 1.541990041732788086e+00 -8.859810233116149902e-01 9.152795791625976562e+00 2.480044364929199219e+00 -1.674583792686462402e+00
1.637000000000000000e+03 1.778002357482910156e+01 3.746790647506713867e+00 2.644407451152801514e-01 6.564443111419677734e+00 2.048665046691894531e+00 -3.232900619506835938e+00
1.638000000000000000e+03 2.189854812622070312e+01 -5.165329575538635254e-01 5.011711597442626953e+00 2.795396566390991211e+00 2.342132329940795898e+00 -2.342895746231079102e+00
1.639000000000000000e+03 2.136621665954589844e+01 6.116298437118530273e-01 2.751199483871459961e+00 5.853394031524658203e+00 2.581377983093261719e+00 -8.181365132331848145e-01
1.640000000000000000e+03 2.040392303466796875e+01 -1.481495666503906250e+01 -1.717478275299072266e+00 6.363520622253417969e-01 -3.243378400802612305e-01 4.549993872642517090e-01
1.641000000000000000e+03 3.860625839233398438e+01 -4.503648757934570312e+00 1.740761995315551758e+00 8.973679542541503906e+00 3.214332580566406250e+00 1.513097524642944336e+00
1.642000000000000000e+03 2.574315834045410156e+01 -1.623695564270019531e+01 -2.404979705810546875e+00 1.935961246490478516e-01 -6.634150743484497070e-01 -6.465587019920349121e-02
1.643000000000000000e+03 2.476987075805664062e+01 -1.519126415252685547e+01 -1.707186102867126465e+00 3.668608367443084717e-01 -4.020975828170776367e-01 8.604478091001510620e-03
1.644000000000000000e+03 5.923220825195312500e+01 2.048888683319091797e+00 -1.329169273376464844e+00 8.701706528663635254e-01 -1.376996040344238281e-01 -7.213720679283142090e-01
1.645000000000000000e+03 3.624830245971679688e+01 -1.615648269653320312e+01 -1.157435297966003418e+00 9.210182189941406250e+00 2.415824174880981445e+00 -5.515773296356201172e-01
1.646000000000000000e+03 2.109525489807128906e+01 -1.448961019515991211e+00 7.538861274719238281e+00 5.589649200439453125e+00 3.938553094863891602e+00 -3.468939781188964844e+00
1.647000000000000000e+03 3.904684829711914062e+01 -1.058739757537841797e+01 1.140454530715942383e+00 1.157387733459472656e+01 3.814299583435058594e+00 -2.185259759426116943e-01
1.648000000000000000e+03 3.798553848266601562e+01 -1.428676128387451172e+01 2.410807013511657715e-01 1.015168476104736328e+01 3.117829561233520508e+00 -6.156300902366638184e-01
1.649000000000000000e+03 4.732159805297851562e+01 -2.858882522583007812e+01 2.319719046354293823e-01 1.941191434860229492e+00 6.519489884376525879e-01 -1.061316967010498047e+00
1.650000000000000000e+03 2.572574424743652344e+01 -1.526811599731445312e+01 -1.735971689224243164e+00 2.883697450160980225e-01 -4.342805743217468262e-01 1.378006488084793091e-02
1.651000000000000000e+03 2.584327697753906250e+01 -3.586914825439453125e+01 -6.243687272071838379e-01 6.116006970405578613e-01 -3.830392612144351006e-03 4.357821643352508545e-01
1.652000000000000000e+03 5.024513626098632812e+01 -3.431159591674804688e+01 -4.923434853553771973e-01 1.710713744163513184e+00 3.655110597610473633e-01 -7.698584794998168945e-01
1.653000000000000000e+03 5.205652618408203125e+01 -3.357213592529296875e+01 -5.025954246520996094e-01 1.068221330642700195e+00 1.696877926588058472e-01 -5.184753537178039551e-01
1.654000000000000000e+03 1.127681827545166016e+01 -1.281863498687744141e+01 -3.114587254822254181e-02 1.013451218605041504e+00 2.946915924549102783e-01 2.388592720031738281e+00
1.655000000000000000e+03 1.498258304595947266e+01 -1.493662738800048828e+01 -1.542643070220947266e+00 -4.412679970264434814e-01 -5.951733589172363281e-01 1.156994819641113281e+00
1.656000000000000000e+03 5.476804351806640625e+01 1.910315513610839844e+00 -2.285082340240478516e+00 2.333150953054428101e-01 -6.155301928520202637e-01 2.645316421985626221e-01
1.657000000000000000e+03 7.026212692260742188e+00 1.540604782104492188e+01 6.910479068756103516e-01 1.425963044166564941e+00 6.351032853126525879e-01 -6.201775670051574707e-01
1.658000000000000000e+03 2.852752494812011719e+01 -5.553527832031250000e+00 3.758576393127441406e+00 6.575172543525695801e-01 1.324828028678894043e+00 -1.963395476341247559e+00
1.659000000000000000e+03 3.925507736206054688e+01 -1.926221251487731934e+00 7.943669557571411133e-01 9.138194084167480469e+00 2.979768276214599609e+00 1.739903450012207031e+00
1.660000000000000000e+03 4.323733520507812500e+01 -2.219998931884765625e+01 6.349893212318420410e-01 4.844385147094726562e+00 1.643812298774719238e+00 -1.340418219566345215e+00
1.661000000000000000e+03 7.202016448974609375e+01 -2.325933265686035156e+01 7.253733277320861816e-01 1.134986495971679688e+01 3.622571468353271484e+00 -4.725910425186157227e-01
1.662000000000000000e+03 4.524455642700195312e+01 2.120604324340820312e+01 4.561842978000640869e-01 5.222452163696289062e+00 1.703590869903564453e+00 1.065252065658569336e+00
1.663000000000000000e+03 4.398010635375976562e+01 1.851065444946289062e+01 5.170524120330810547e-01 6.170448780059814453e+00 2.006250381469726562e+00 1.319295048713684082e+00
1.664000000000000000e+03 4.528670120239257812e+01 2.532658958435058594e+01 3.016437590122222900e-01 4.549030303955078125e+00 1.455202221870422363e+00 6.492567658424377441e-01
1.665000000000000000e+03 1.519431972503662109e+01 1.970388793945312500e+01 2.511503994464874268e-01 8.530951499938964844e+00 2.634630441665649414e+00 -7.003437876701354980e-01
1.666000000000000000e+03 4.078607940673828125e+01 -9.080898165702819824e-01 5.152100324630737305e-01 1.035845279693603516e+01 3.262098789215087891e+00 1.813359022140502930e+00
1.667000000000000000e+03 4.408430862426757812e+01 2.259281158447265625e+01 2.171907424926757812e-01 5.229549407958984375e+00 1.634022116661071777e+00 6.757539510726928711e-01
1.668000000000000000e+03 4.528583526611328125e+01 2.256821441650390625e+01 3.592144846916198730e-01 5.041468620300292969e+00 1.620204925537109375e+00 9.004040956497192383e-01
1.669000000000000000e+03 4.442095184326171875e+01 -2.473263168334960938e+01 7.598761916160583496e-01 3.225070714950561523e+00 1.195484042167663574e+00 -1.310722470283508301e+00
1.670000000000000000e+03 4.519028854370117188e+01 1.987083244323730469e+01 5.705455541610717773e-01 5.467309474945068359e+00 1.811356425285339355e+00 1.290446281433105469e+00
1.671000000000000000e+03 7.117940521240234375e+01 -1.971015548706054688e+01 3.145598471164703369e-01 1.284727382659912109e+01 3.948550224304199219e+00 -4.550005197525024414e-01
1.672000000000000000e+03 7.321878814697265625e+01 -1.907168579101562500e+01 5.725055932998657227e-01 1.068298339843750000e+01 3.376646757125854492e+00 -5.812135934829711914e-01
1.673000000000000000e+03 7.270869445800781250e+01 -2.158646583557128906e+01 5.457856655120849609e-01 1.113071537017822266e+01 3.502950191497802734e+00 -4.805881083011627197e-01
1.674000000000000000e+03 7.554979705810546875e+01 1.316283226013183594e+01 4.672004282474517822e-02 6.884281158447265625e+00 2.079300403594970703e+00 -4.819063842296600342e-01
1.675000000000000000e+03 7.549408721923828125e+01 -6.032704710960388184e-01 -3.084863424301147461e-01 7.987849712371826172e+00 2.303809165954589844e+00 1.644080132246017456e-01
1.676000000000000000e+03 7.603054046630859375e+01 -1.489442062377929688e+01 3.878981769084930420e-01 8.053637504577636719e+00 2.532460689544677734e+00 2.102131396532058716e-01
1.677000000000000000e+03 7.357115936279296875e+01 -1.121534061431884766e+01 3.669296503067016602e-01 9.225995063781738281e+00 2.877877235412597656e+00 5.232846736907958984e-01
1.678000000000000000e+03 7.316835021972656250e+01 -1.545090579986572266e+01 9.109019041061401367e-01 1.027073097229003906e+01 3.354489803314208984e+00 -1.955516487360000610e-01
1.679000000000000000e+03 7.533899688720703125e+01 -2.306967544555664062e+01 4.244315028190612793e-01 9.072599411010742188e+00 2.849109411239624023e+00 -8.402112126350402832e-01
1.680000000000000000e+03 7.344602966308593750e+01 -1.006495952606201172e+01 1.663089245557785034e-01 9.118422508239746094e+00 2.785419225692749023e+00 5.444399118423461914e-01
1.681000000000000000e+03 7.693631744384765625e+01 -1.930331039428710938e+01 2.292613536119461060e-01 7.561412334442138672e+00 2.337202072143554688e+00 -3.692804872989654541e-01
1.682000000000000000e+03 7.315779113769531250e+01 -1.812437248229980469e+01 6.293094754219055176e-01 1.067617416381835938e+01 3.391645193099975586e+00 -4.956105649471282959e-01
1.683000000000000000e+03 7.696311950683593750e+01 -1.781340789794921875e+01 2.181380242109298706e-01 7.445724010467529297e+00 2.299158573150634766e+00 -1.634795963764190674e-01
1.684000000000000000e+03 7.594917297363281250e+01 -1.623067283630371094e+01 4.601171314716339111e-01 8.166426658630371094e+00 2.587963104248046875e+00 1.035220548510551453e-02
1.685000000000000000e+03 7.664068603515625000e+01 -6.570920944213867188e+00 -9.273028373718261719e-02 7.989481925964355469e+00 2.369025468826293945e+00 6.717665791511535645e-01
1.686000000000000000e+03 7.530973815917968750e+01 -7.993848323822021484e+00 -6.002729013562202454e-02 8.271689414978027344e+00 2.463498592376708984e+00 7.455179691314697266e-01
1.687000000000000000e+03 7.551353454589843750e+01 -3.460274696350097656e+00 -2.726125419139862061e-01 8.087981224060058594e+00 2.344610452651977539e+00 4.479981064796447754e-01
1.688000000000000000e+03 7.536597442626953125e+01 -4.896164417266845703e+00 -2.405296415090560913e-01 8.137248039245605469e+00 2.369015455245971680e+00 5.673418045043945312e-01
1.689000000000000000e+03 7.682575225830078125e+01 2.060638904571533203e+00 -1.550301462411880493e-01 8.141413688659667969e+00 2.395915031433105469e+00 -4.383663460612297058e-02
1.690000000000000000e+03 7.565528869628906250e+01 2.313119411468505859e+00 -2.554158568382263184e-01 7.842441558837890625e+00 2.276107788085937500e+00 -1.298318505287170410e-01
1.691000000000000000e+03 7.172380065917968750e+01 3.502989578247070312e+01 -2.746381098404526711e-03 5.935128211975097656e+00 1.779714584350585938e+00 6.861037760972976685e-02
1.692000000000000000e+03 7.544839477539062500e+01 3.365676498413085938e+01 -3.297035116702318192e-03 6.312233448028564453e+00 1.892680883407592773e+00 4.041465744376182556e-02
1.693000000000000000e+03 7.411786651611328125e+01 3.044048500061035156e+01 4.086717218160629272e-02 6.153160095214843750e+00 1.858208179473876953e+00 1.729460991919040680e-02
1.694000000000000000e+03 7.456227874755859375e+01 2.577186822891235352e+00 -3.323358893394470215e-01 7.583718299865722656e+00 2.175414800643920898e+00 -2.429814487695693970e-01
1.695000000000000000e+03 7.552352905273437500e+01 8.878344893455505371e-01 -2.909296751022338867e-01 7.914013862609863281e+00 2.286925315856933594e+00 3.557951655238866806e-03
1.696000000000000000e+03 7.567210388183593750e+01 3.665443897247314453e+00 -2.062796056270599365e-01 7.749032020568847656e+00 2.262825727462768555e+00 -2.473586350679397583e-01
1.697000000000000000e+03 7.673825836181640625e+01 8.901770591735839844e+00 -3.263670578598976135e-02 7.584444522857666016e+00 2.265542268753051758e+00 -3.766174316406250000e-01
1.698000000000000000e+03 7.542527770996093750e+01 7.677313804626464844e+00 -8.721070736646652222e-02 7.345062732696533203e+00 2.177355527877807617e+00 -4.729254841804504395e-01
1.699000000000000000e+03 7.527412414550781250e+01 -3.011300849914550781e+01 -2.596838772296905518e-01 9.281888961791992188e+00 2.706661462783813477e+00 -1.206833839416503906e+00
1.700000000000000000e+03 7.681893157958984375e+01 1.572061538696289062e+01 4.261217266321182251e-02 6.947011470794677734e+00 2.096887111663818359e+00 -3.199071288108825684e-01
1.701000000000000000e+03 7.561029815673828125e+01 1.580302619934082031e+01 6.977114826440811157e-02 6.700957775115966797e+00 2.031218528747558594e+00 -4.082565605640411377e-01
1.702000000000000000e+03 7.544472503662109375e+01 1.044788551330566406e+01 -1.577311567962169647e-02 7.097365379333496094e+00 2.124477624893188477e+00 -5.178926587104797363e-01
1.703000000000000000e+03 7.405672454833984375e+01 9.204817771911621094e+00 -6.774865835905075073e-02 6.845211505889892578e+00 2.033238887786865234e+00 -6.335195302963256836e-01
1.704000000000000000e+03 7.700765991210937500e+01 -2.494356536865234375e+01 2.417959719896316528e-01 8.263051986694335938e+00 2.551454544067382812e+00 -9.455820918083190918e-01
1.705000000000000000e+03 7.603782653808593750e+01 -2.253737258911132812e+01 2.929670810699462891e-01 8.491310119628906250e+00 2.635283231735229492e+00 -7.940128445625305176e-01
1.706000000000000000e+03 7.593430328369140625e+01 -2.812664794921875000e+01 3.206311166286468506e-02 9.088616371154785156e+00 2.736203670501708984e+00 -1.310953497886657715e+00
1.707000000000000000e+03 7.679899597167968750e+01 1.707079887390136719e+01 4.433966428041458130e-02 6.838672161102294922e+00 2.064903497695922852e+00 -2.873191237449645996e-01
1.708000000000000000e+03 7.435523986816406250e+01 1.707900428771972656e+01 1.297209113836288452e-01 6.376262664794921875e+00 1.951795101165771484e+00 -4.253605008125305176e-01
1.709000000000000000e+03 7.539485168457031250e+01 1.975790977478027344e+01 9.751641750335693359e-02 6.452639102935791016e+00 1.965046644210815430e+00 -2.782552838325500488e-01
1.710000000000000000e+03 7.531114196777343750e+01 2.112082481384277344e+01 9.741037338972091675e-02 6.383060455322265625e+00 1.944141268730163574e+00 -2.320935875177383423e-01
1.711000000000000000e+03 7.453996276855468750e+01 2.688050079345703125e+01 7.922795414924621582e-02 6.175520420074462891e+00 1.876424551010131836e+00 -4.800013452768325806e-02
1.712000000000000000e+03 7.372531127929687500e+01 2.401477813720703125e+01 1.424185186624526978e-01 6.071038722991943359e+00 1.864037275314331055e+00 -1.512853205204010010e-01
1.713000000000000000e+03 7.673818206787109375e+01 2.653847312927246094e+01 3.185635805130004883e-02 6.444095134735107422e+00 1.942785382270812988e+00 -4.727493971586227417e-02
1.714000000000000000e+03 7.555079650878906250e+01 2.653179931640625000e+01 5.689513310790061951e-02 6.306741714477539062e+00 1.909090995788574219e+00 -5.859744921326637268e-02
1.715000000000000000e+03 7.640731048583984375e+01 2.912106704711914062e+01 2.557555027306079865e-02 6.399579048156738281e+00 1.927546381950378418e+00 -3.045835299417376518e-03
1.716000000000000000e+03 7.518923187255859375e+01 2.879755020141601562e+01 4.181355237960815430e-02 6.257753849029541016e+00 1.889870285987854004e+00 -1.360876951366662979e-02
1.717000000000000000e+03 7.464189910888671875e+01 -3.213832855224609375e+01 -5.348620414733886719e-01 9.189571380615234375e+00 2.596412897109985352e+00 -9.361327290534973145e-01
1.718000000000000000e+03 7.709284973144531250e+01 -3.090936660766601562e+01 -1.609645783901214600e-01 9.428623199462890625e+00 2.780297756195068359e+00 -9.481721520423889160e-01
1.719000000000000000e+03 7.296722412109375000e+01 3.250238800048828125e+01 2.697766013443470001e-02 6.040500640869140625e+00 1.820243477821350098e+00 4.777971655130386353e-02
1.720000000000000000e+03 7.465755462646484375e+01 -2.869132041931152344e+01 -2.085176706314086914e-01 9.241204261779785156e+00 2.709805965423583984e+00 -1.366170167922973633e+00
1.721000000000000000e+03 7.637106323242187500e+01 -3.311590957641601562e+01 -3.170549571514129639e-01 9.577461242675781250e+00 2.778121948242187500e+00 -7.758525609970092773e-01
1.722000000000000000e+03 7.392700195312500000e+01 -3.087043952941894531e+01 -5.180691480636596680e-01 9.125466346740722656e+00 2.582219123840332031e+00 -1.107784509658813477e+00
1.723000000000000000e+03 7.555931091308593750e+01 3.003083992004394531e+01 3.057732991874217987e-02 6.306911468505859375e+00 1.901246666908264160e+00 1.546761603094637394e-03
1.724000000000000000e+03 4.491772842407226562e+01 1.152867698669433594e+01 1.840754151344299316e+00 6.061047554016113281e+00 2.370540618896484375e+00 2.766540050506591797e+00
1.725000000000000000e+03 4.381943130493164062e+01 1.434743499755859375e+01 1.172508716583251953e+00 7.043188571929931641e+00 2.464709043502807617e+00 2.190653324127197266e+00
1.726000000000000000e+03 1.354929256439208984e+01 3.186974716186523438e+01 -9.167354702949523926e-01 2.643123626708984375e+00 5.179163813591003418e-01 -7.549461722373962402e-01
1.727000000000000000e+03 7.329653930664062500e+01 -1.691187858581542969e+01 7.923755645751953125e-01 1.043882751464843750e+01 3.369360923767089844e+00 -4.360657036304473877e-01
1.728000000000000000e+03 1.520678615570068359e+01 7.996511936187744141e+00 1.487099885940551758e+00 5.220670700073242188e+00 2.012331247329711914e+00 -2.245511293411254883e+00
1.729000000000000000e+03 1.567772102355957031e+01 9.490785598754882812e+00 1.515690565109252930e+00 6.293982505798339844e+00 2.342901945114135742e+00 -2.507403850555419922e+00
1.730000000000000000e+03 4.588192939758300781e+00 -1.494415378570556641e+01 -3.866139054298400879e-02 2.550677537918090820e+00 7.536048889160156250e-01 -7.497185468673706055e-02
1.731000000000000000e+03 4.477413654327392578e+00 2.275028610229492188e+01 1.530758291482925415e-01 9.770980477333068848e-01 3.390521705150604248e-01 -1.097158670425415039e+00
1.732000000000000000e+03 4.480160236358642578e+00 -2.045435905456542969e+01 1.160436153411865234e+00 4.507641315460205078e+00 1.700423240661621094e+00 1.407562017440795898e+00
1.733000000000000000e+03 2.768168210983276367e+00 -2.046172904968261719e+01 6.576250195503234863e-01 1.841363787651062012e+00 7.496966123580932617e-01 7.555441260337829590e-01
1.734000000000000000e+03 5.563617706298828125e+00 2.282168388366699219e+01 2.305331081151962280e-01 1.421125769615173340e+00 4.954976737499237061e-01 -1.262370586395263672e+00
1.735000000000000000e+03 5.676800727844238281e+00 2.529941558837890625e+01 8.676625788211822510e-02 1.766168951988220215e+00 5.558805465698242188e-01 -1.377576112747192383e+00
1.736000000000000000e+03 3.304195404052734375e+00 2.712795829772949219e+01 -1.396447513252496719e-02 1.369870066642761230e+00 4.067716598510742188e-01 -9.948866963386535645e-01
1.737000000000000000e+03 4.897607803344726562e+00 2.976464080810546875e+01 -1.410761326551437378e-01 2.149264574050903320e+00 6.024565100669860840e-01 -1.198434352874755859e+00
1.738000000000000000e+03 4.635560035705566406e+00 1.841985702514648438e+01 3.342604935169219971e-01 4.692797362804412842e-01 2.410620748996734619e-01 -7.562983632087707520e-01
1.739000000000000000e+03 4.611734867095947266e+00 1.985844993591308594e+01 2.926030158996582031e-01 6.462109684944152832e-01 2.816441953182220459e-01 -9.030205011367797852e-01
1.740000000000000000e+03 4.504413604736328125e+00 1.702221107482910156e+01 3.344323337078094482e-01 2.232446372509002686e-01 1.673030853271484375e-01 -5.715357065200805664e-01
1.741000000000000000e+03 4.471332073211669922e+00 2.552290916442871094e+01 4.373385757207870483e-02 1.401725649833679199e+00 4.336378574371337891e-01 -1.207285404205322266e+00
1.742000000000000000e+03 4.416692256927490234e+00 2.415077209472656250e+01 9.896054118871688843e-02 1.165372252464294434e+00 3.792998492717742920e-01 -1.161336898803710938e+00
1.743000000000000000e+03 4.372914791107177734e+00 1.424662590026855469e+01 3.454921543598175049e-01 -1.463905125856399536e-01 5.973049253225326538e-02 -1.994808465242385864e-01
1.744000000000000000e+03 4.157511234283447266e+00 -1.078241920471191406e+01 -2.623661458492279053e-01 1.075617432594299316e+00 2.439753711223602295e-01 1.345033794641494751e-01
1.745000000000000000e+03 4.033705711364746094e+00 -9.400808334350585938e+00 -1.634768992662429810e-01 7.597251534461975098e-01 1.788744777441024780e-01 1.731923222541809082e-01
1.746000000000000000e+03 4.459573268890380859e+00 -1.355960464477539062e+01 -2.940041422843933105e-01 1.978649139404296875e+00 5.053935050964355469e-01 -1.706797815859317780e-02
1.747000000000000000e+03 3.700843572616577148e+00 -3.042029762268066406e+01 -9.255227446556091309e-01 3.635569572448730469e+00 8.130140900611877441e-01 7.863737344741821289e-01
1.748000000000000000e+03 3.366955518722534180e+00 -3.202324676513671875e+01 -4.731523096561431885e-01 3.864765167236328125e+00 1.017483830451965332e+00 1.850005984306335449e-01
1.749000000000000000e+03 5.248000144958496094e+00 1.122520732879638672e+01 4.804447889328002930e-01 7.059463858604431152e-02 1.653118282556533813e-01 1.540018469095230103e-01
1.750000000000000000e+03 5.742254257202148438e+00 3.661897659301757812e+01 -4.438303709030151367e-01 2.800478458404541016e+00 7.069944739341735840e-01 -7.100928425788879395e-01
1.751000000000000000e+03 4.071070194244384766e+00 3.683659744262695312e+01 -2.794714868068695068e-01 2.982970237731933594e+00 8.110495805740356445e-01 -5.397621989250183105e-01
1.752000000000000000e+03 4.105245113372802734e+00 1.144385242462158203e+01 3.334175646305084229e-01 -4.244894683361053467e-01 -2.732156962156295776e-02 1.914972960948944092e-01
1.753000000000000000e+03 4.306086063385009766e+00 -1.217387580871582031e+01 -3.543632328510284424e-01 1.494547009468078613e+00 3.420551121234893799e-01 5.748802796006202698e-02
1.754000000000000000e+03 4.357683658599853516e+00 -3.382085800170898438e+01 -4.720146954059600830e-01 3.219223737716674805e+00 8.241626620292663574e-01 -1.253666281700134277e-01
1.755000000000000000e+03 6.580229282379150391e+00 -3.297281646728515625e+01 -9.683373570442199707e-01 1.684693455696105957e+00 2.149068266153335571e-01 -5.420691519975662231e-02
1.756000000000000000e+03 5.053223609924316406e+00 3.265726470947265625e+01 -2.426504641771316528e-01 2.509915828704833984e+00 6.801796555519104004e-01 -1.015061974525451660e+00
1.757000000000000000e+03 5.014742851257324219e+00 3.122624778747558594e+01 -1.985540837049484253e-01 2.350514411926269531e+00 6.455880999565124512e-01 -1.130634665489196777e+00
1.758000000000000000e+03 4.479545974731445312e+01 1.001080989837646484e+01 1.953596711158752441e+00 5.847910404205322266e+00 2.340452194213867188e+00 2.869120597839355469e+00
1.759000000000000000e+03 2.638128995895385742e+00 7.532716274261474609e+00 8.810352534055709839e-02 -9.120707511901855469e-01 -2.471901625394821167e-01 5.358605980873107910e-01
1.760000000000000000e+03 3.997228384017944336e+00 1.006105041503906250e+01 2.973733246326446533e-01 -5.121903419494628906e-01 -6.444510072469711304e-02 3.650668561458587646e-01
1.761000000000000000e+03 5.786875915527343750e+01 2.436429500579833984e+00 -1.349624037742614746e+00 5.859780907630920410e-01 -2.290937751531600952e-01 -4.436973631381988525e-01
1.762000000000000000e+03 4.087001323699951172e+00 -5.421681880950927734e+00 7.393520325422286987e-02 2.488069534301757812e-01 9.682264924049377441e-02 1.397533863782882690e-01
1.763000000000000000e+03 4.087192058563232422e+00 5.496104717254638672e+00 1.973690465092658997e-02 -4.052727818489074707e-01 -1.156607642769813538e-01 7.619931697845458984e-01
1.764000000000000000e+03 4.080017089843750000e+00 4.354203701019287109e+00 -1.202146857976913452e-01 -3.116661608219146729e-01 -1.295642554759979248e-01 7.694730758666992188e-01
1.765000000000000000e+03 4.867773437500000000e+01 -2.853101348876953125e+01 1.701228618621826172e-01 1.392037749290466309e+00 4.686481952667236328e-01 -8.222779035568237305e-01
1.766000000000000000e+03 5.740107536315917969e+00 -3.712413406372070312e+01 2.718132920563220978e-02 2.220389842987060547e+00 6.742713451385498047e-01 -7.561524212360382080e-02
1.767000000000000000e+03 3.514465713500976562e+01 -1.683477210998535156e+01 -1.466432452201843262e+00 7.961814880371093750e+00 1.948614716529846191e+00 -1.761231899261474609e+00
1.768000000000000000e+03 3.807312393188476562e+01 -1.547963714599609375e+01 -1.790796220302581787e-01 1.035393428802490234e+01 3.052456378936767578e+00 -2.977110147476196289e-01
1.769000000000000000e+03 1.709514427185058594e+01 5.939522743225097656e+00 1.191661715507507324e+00 6.219349861145019531e+00 2.223303556442260742e+00 -2.819758176803588867e+00
1.770000000000000000e+03 4.636048126220703125e+01 1.986597251892089844e+01 7.590070366859436035e-01 5.069040298461914062e+00 1.748414158821105957e+00 1.398997187614440918e+00
1.771000000000000000e+03 2.657074737548828125e+01 -1.509374141693115234e+01 -1.360259652137756348e+00 1.248014196753501892e-01 -3.706374764442443848e-01 -1.034881994128227234e-01
1.772000000000000000e+03 3.298919296264648438e+01 -1.478693103790283203e+01 -8.817388117313385010e-02 2.998038291931152344e+00 8.729593157768249512e-01 -1.751040697097778320e+00
1.773000000000000000e+03 3.120568084716796875e+01 -1.496523666381835938e+01 -2.125493735074996948e-01 9.004707932472229004e-01 2.063764333724975586e-01 -1.390312790870666504e+00
1.774000000000000000e+03 1.748757553100585938e+01 4.753429412841796875e+00 6.716080307960510254e-01 6.313528060913085938e+00 2.095541000366210938e+00 -2.998813867568969727e+00
1.775000000000000000e+03 1.586561107635498047e+01 3.938347816467285156e+00 6.684903502464294434e-01 3.895864486694335938e+00 1.369306445121765137e+00 -2.511756420135498047e+00
1.776000000000000000e+03 2.603610801696777344e+01 -5.443484783172607422e+00 3.805935144424438477e+00 1.255995750427246094e+00 1.518579244613647461e+00 -2.020920515060424805e+00
1.777000000000000000e+03 1.530361175537109375e+01 3.612993001937866211e+00 5.981523394584655762e-01 3.171368837356567383e+00 1.130856394767761230e+00 -2.179800987243652344e+00
1.778000000000000000e+03 2.185631942749023438e+01 8.906023502349853516e-01 1.444940090179443359e+00 3.479089260101318359e+00 1.477208852767944336e+00 -7.675050497055053711e-01
1.779000000000000000e+03 2.110579109191894531e+01 1.131252869963645935e-01 4.050262451171875000e+00 6.710846900939941406e+00 3.228332757949829102e+00 -7.741761803627014160e-01
1.780000000000000000e+03 1.223812294006347656e+01 1.448934841156005859e+01 1.145095705986022949e+00 4.892683506011962891e+00 1.811333775520324707e+00 -1.305640578269958496e+00
1.781000000000000000e+03 1.467660808563232422e+01 9.095583915710449219e+00 1.504331231117248535e+00 5.230159759521484375e+00 2.020347356796264648e+00 -2.106403589248657227e+00
1.782000000000000000e+03 4.011484146118164062e+01 -1.737844467163085938e+01 4.228292703628540039e-01 1.071826267242431641e+01 3.342327356338500977e+00 -8.250768482685089111e-02
1.783000000000000000e+03 3.918208312988281250e+01 -1.574209880828857422e+01 2.302524894475936890e-01 1.096154499053955078e+01 3.357539176940917969e+00 -2.341047078371047974e-01
1.784000000000000000e+03 4.419467926025390625e+01 2.697228193283081055e+00 -1.774178624153137207e+00 6.210840225219726562e+00 1.330998539924621582e+00 2.968602180480957031e+00
1.785000000000000000e+03 5.044179534912109375e+01 -3.062964057922363281e+01 -2.384510040283203125e-01 1.166127204895019531e+00 2.783028483390808105e-01 -5.714915990829467773e-01
1.786000000000000000e+03 5.128784942626953125e+01 5.888631820678710938e+00 4.202051162719726562e-01 7.856543660163879395e-01 3.617578446865081787e-01 6.176401376724243164e-01
1.787000000000000000e+03 5.115968704223632812e+01 3.174392461776733398e+00 -1.745543599128723145e+00 2.194959670305252075e-01 -4.578142762184143066e-01 2.593699395656585693e-01
1.788000000000000000e+03 7.452893257141113281e+00 -1.463053512573242188e+01 -1.590190380811691284e-01 3.587128400802612305e+00 1.028432846069335938e+00 1.315235733985900879e+00
1.789000000000000000e+03 7.044154357910156250e+01 -6.869834899902343750e+00 -2.366492003202438354e-01 8.634784698486328125e+00 2.519440650939941406e+00 -3.772357404232025146e-01
1.790000000000000000e+03 4.024337005615234375e+01 -2.434636497497558594e+01 1.247020244598388672e+00 7.239448547363281250e+00 2.545940637588500977e+00 -6.295217871665954590e-01
1.791000000000000000e+03 4.290939712524414062e+01 8.351359367370605469e+00 1.840463876724243164e+00 7.794456005096435547e+00 2.890475988388061523e+00 3.277158260345458984e+00
1.792000000000000000e+03 3.901970291137695312e+01 -9.121830940246582031e+00 1.612937688827514648e+00 1.111101913452148438e+01 3.817187070846557617e+00 3.832769095897674561e-01
1.793000000000000000e+03 3.724965667724609375e+01 -1.239504337310791016e+01 8.577145338058471680e-01 8.971037864685058594e+00 2.948625802993774414e+00 -7.082447409629821777e-01
1.794000000000000000e+03 4.516440963745117188e+01 1.581849765777587891e+01 1.204728484153747559e+00 5.892297744750976562e+00 2.129107952117919922e+00 2.022754669189453125e+00
1.795000000000000000e+03 1.453327274322509766e+01 -1.340481853485107422e+01 -3.901334702968597412e-01 -6.453298032283782959e-02 -1.363999396562576294e-01 1.700398445129394531e+00
1.796000000000000000e+03 1.251797103881835938e+01 -3.930463790893554688e+01 2.122380733489990234e-01 -2.019482403993606567e-01 3.086948534473776817e-03 1.460536271333694458e-01
1.797000000000000000e+03 5.673850059509277344e+00 -3.192935371398925781e+01 -1.008207559585571289e+00 2.256428956985473633e+00 3.744664192199707031e-01 1.650768965482711792e-01
1.798000000000000000e+03 5.701383972167968750e+01 4.035444736480712891e+00 -6.963570713996887207e-01 7.608847022056579590e-01 1.935828104615211487e-02 -4.517762064933776855e-01
1.799000000000000000e+03 3.834199523925781250e+01 -2.086656188964843750e+01 1.170755743980407715e+00 1.047958946228027344e+01 3.495103597640991211e+00 7.231040596961975098e-01
1.800000000000000000e+03 3.891434478759765625e+01 -1.685825920104980469e+01 -1.509428173303604126e-01 1.096811771392822266e+01 3.245152473449707031e+00 2.842733263969421387e-01
1.801000000000000000e+03 3.905095672607421875e+01 -2.256786537170410156e+01 1.263091444969177246e+00 9.331845283508300781e+00 3.178481101989746094e+00 2.353235483169555664e-01
1.802000000000000000e+03 7.044398498535156250e+01 -1.301978969573974609e+01 1.125930905342102051e+00 1.193201351165771484e+01 3.917383432388305664e+00 -7.215587496757507324e-01
1.803000000000000000e+03 7.264520263671875000e+01 -1.263236618041992188e+01 7.354558110237121582e-01 1.006347656250000000e+01 3.239679813385009766e+00 1.795589774847030640e-01
1.804000000000000000e+03 7.005084991455078125e+01 -4.758152008056640625e+00 -4.634896218776702881e-01 7.841852664947509766e+00 2.213508844375610352e+00 -3.428700566291809082e-01
1.805000000000000000e+03 4.505494689941406250e+01 1.299647426605224609e+01 1.648279190063476562e+00 5.997171401977539062e+00 2.293635129928588867e+00 2.501322984695434570e+00
1.806000000000000000e+03 7.200795745849609375e+01 -1.562788105010986328e+01 1.099747180938720703e+00 1.141999721527099609e+01 3.755923509597778320e+00 -5.500041246414184570e-01
1.807000000000000000e+03 7.088610839843750000e+01 -1.582981109619140625e+01 1.209512233734130859e+00 1.275457859039306641e+01 4.189227581024169922e+00 -8.861200809478759766e-01
1.808000000000000000e+03 4.187804794311523438e+01 6.237391471862792969e+00 1.335993289947509766e+00 8.905428886413574219e+00 3.072426557540893555e+00 3.223736524581909180e+00
1.809000000000000000e+03 4.505855941772460938e+01 8.569083213806152344e+00 1.803106069564819336e+00 5.273447036743164062e+00 2.122965812683105469e+00 2.865910530090332031e+00
1.810000000000000000e+03 4.539327239990234375e+01 2.686049079895019531e+01 2.378922253847122192e-01 4.289060592651367188e+00 1.358085870742797852e+00 6.234533190727233887e-01
1.811000000000000000e+03 4.414011383056640625e+01 2.692345428466796875e+01 2.663469016551971436e-01 4.331965923309326172e+00 1.379493832588195801e+00 4.003506004810333252e-01
1.812000000000000000e+03 4.928216552734375000e+01 4.757830142974853516e+00 -1.035749316215515137e-01 6.478367447853088379e-01 1.632785499095916748e-01 1.012740492820739746e+00
1.813000000000000000e+03 4.759300613403320312e+01 5.011334419250488281e+00 5.361198782920837402e-01 1.536868214607238770e+00 6.218964457511901855e-01 2.102622032165527344e+00
1.814000000000000000e+03 4.061904525756835938e+01 4.033264160156250000e+00 1.392567455768585205e-01 9.952083587646484375e+00 3.027402162551879883e+00 2.546635150909423828e+00
1.815000000000000000e+03 2.111427116394042969e+01 1.755801081657409668e+00 -5.946767330169677734e-01 6.427545070648193359e+00 1.749860525131225586e+00 -9.516319036483764648e-01
1.816000000000000000e+03 4.355519485473632812e+01 6.014469146728515625e+00 9.478320479393005371e-01 6.681164741516113281e+00 2.288699150085449219e+00 3.029563188552856445e+00
1.817000000000000000e+03 4.291056823730468750e+01 7.070436954498291016e+00 1.570264220237731934e+00 7.832301616668701172e+00 2.820769786834716797e+00 3.235847711563110352e+00
1.818000000000000000e+03 5.542643547058105469e+00 -2.987082099914550781e+01 -1.602651953697204590e+00 2.668675184249877930e+00 3.198069632053375244e-01 6.997401714324951172e-01
1.819000000000000000e+03 4.291070175170898438e+01 2.794410228729248047e+00 -1.117913603782653809e+00 8.068123817443847656e+00 2.085062980651855469e+00 2.636219739913940430e+00
1.820000000000000000e+03 1.777388954162597656e+01 -3.800997924804687500e+01 -3.439391255378723145e-01 -5.107257366180419922e-01 -2.563994526863098145e-01 2.525219023227691650e-01
1.821000000000000000e+03 1.926733207702636719e+01 -3.656661224365234375e+01 -6.200203299522399902e-01 -3.394064903259277344e-01 -2.878280580043792725e-01 1.891213655471801758e-01
1.822000000000000000e+03 3.340014266967773438e+01 -3.282902240753173828e+00 2.536077022552490234e+00 1.074310779571533203e+00 1.083116292953491211e+00 -5.775431916117668152e-02
1.823000000000000000e+03 6.683335113525390625e+01 -3.365183639526367188e+01 -1.023400902748107910e+00 4.728329658508300781e+00 1.111478686332702637e+00 8.542649745941162109e-01
1.824000000000000000e+03 2.842568016052246094e+01 -1.241514873504638672e+01 9.684428572654724121e-01 4.103676378726959229e-01 4.136431515216827393e-01 -8.993293642997741699e-01
1.825000000000000000e+03 3.920747375488281250e+01 5.748811364173889160e-01 -3.675104975700378418e-01 8.919514656066894531e+00 2.565601110458374023e+00 1.702227354049682617e+00
1.826000000000000000e+03 6.551058197021484375e+01 -3.675410079956054688e+01 -2.759889662265777588e-01 3.006343126296997070e+00 8.191062211990356445e-01 6.368521451950073242e-01
1.827000000000000000e+03 3.029763793945312500e+01 -5.940843105316162109e+00 3.708712339401245117e+00 6.627220511436462402e-01 1.311430335044860840e+00 -1.693238139152526855e+00
1.828000000000000000e+03 2.931925201416015625e+01 -6.556673526763916016e+00 3.565445184707641602e+00 7.421687245368957520e-01 1.292284250259399414e+00 -1.886703729629516602e+00
1.829000000000000000e+03 3.716797637939453125e+01 -1.560661983489990234e+01 -4.248887300491333008e-01 9.550073623657226562e+00 2.737555503845214844e+00 -4.669938385486602783e-01
1.830000000000000000e+03 3.251703643798828125e+01 -4.951673984527587891e+00 3.431657314300537109e+00 1.139825105667114258e+00 1.371444702148437500e+00 -8.488361835479736328e-01
1.831000000000000000e+03 3.685120391845703125e+01 -3.014962005615234375e+01 -2.093647718429565430e-01 7.391196250915527344e+00 2.154549360275268555e+00 1.685080975294113159e-01
1.832000000000000000e+03 3.861097335815429688e+01 -4.444245100021362305e-01 -3.811974078416824341e-02 8.149616241455078125e+00 2.433449029922485352e+00 1.673401236534118652e+00
1.833000000000000000e+03 3.682292175292968750e+01 -1.252908110618591309e+00 6.167064309120178223e-01 5.300296306610107422e+00 1.775100827217102051e+00 1.494130611419677734e+00
1.834000000000000000e+03 1.113423061370849609e+01 1.757892227172851562e+01 9.798091053962707520e-01 4.391731262207031250e+00 1.611462116241455078e+00 -1.232041001319885254e+00
1.835000000000000000e+03 7.287064361572265625e+01 -1.399953556060791016e+01 8.998935818672180176e-01 1.020662689208984375e+01 3.331956148147583008e+00 -2.270865626633167267e-02
1.836000000000000000e+03 3.514326095581054688e+01 -3.333229064941406250e+01 -1.314134955406188965e+00 5.603858947753906250e+00 1.286917209625244141e+00 6.121017336845397949e-01
1.837000000000000000e+03 3.724299240112304688e+01 -3.197951889038085938e+01 -1.090834856033325195e+00 6.380248546600341797e+00 1.586824059486389160e+00 -2.094388604164123535e-01
1.838000000000000000e+03 7.267326354980468750e+01 -2.794419670104980469e+01 -8.321309834718704224e-02 9.550223350524902344e+00 2.840103149414062500e+00 -1.245267868041992188e+00
1.839000000000000000e+03 7.112111663818359375e+01 -8.733614921569824219e+00 -2.195868827402591705e-02 9.313625335693359375e+00 2.787499904632568359e+00 -1.584534049034118652e-01
1.840000000000000000e+03 7.141651153564453125e+01 -7.470444679260253906e+00 -2.232030928134918213e-01 8.845740318298339844e+00 2.586761236190795898e+00 -3.459934890270233154e-02
1.841000000000000000e+03 5.025612640380859375e+01 5.668807506561279297e+00 3.995948731899261475e-01 8.077427744865417480e-01 3.622013032436370850e-01 8.308895230293273926e-01
1.842000000000000000e+03 3.768655395507812500e+01 -2.938452720642089844e+00 1.315979838371276855e+00 7.134564399719238281e+00 2.535163402557373047e+00 1.445892453193664551e+00
1.843000000000000000e+03 4.459537506103515625e+01 3.205590820312500000e+01 -6.170493364334106445e-01 3.628079652786254883e+00 9.033090472221374512e-01 5.902241468429565430e-01
1.844000000000000000e+03 4.098363876342773438e+01 -2.221574020385742188e+01 7.545926570892333984e-01 7.628834247589111328e+00 2.515027999877929688e+00 -3.956350684165954590e-01
1.845000000000000000e+03 4.244437408447265625e+01 -2.112491416931152344e+01 4.383450746536254883e-01 6.388919353485107422e+00 2.048179388046264648e+00 -1.264996528625488281e+00
1.846000000000000000e+03 7.193359375000000000e+01 -3.017585182189941406e+01 -6.614118814468383789e-01 9.015785217285156250e+00 2.506312131881713867e+00 -9.131658673286437988e-01
1.847000000000000000e+03 3.205175781250000000e+01 -3.772645950317382812e+00 3.113280296325683594e+00 4.186151623725891113e-01 1.059568643569946289e+00 -7.546976804733276367e-01
1.848000000000000000e+03 3.501092529296875000e+01 -4.191301345825195312e+00 2.578487396240234375e+00 3.488758802413940430e+00 1.820173859596252441e+00 3.102268576622009277e-01
1.849000000000000000e+03 7.178789520263671875e+01 -1.421593666076660156e+01 1.121617078781127930e+00 1.116711139678955078e+01 3.686618566513061523e+00 -3.180510103702545166e-01
1.850000000000000000e+03 7.056027984619140625e+01 -3.101500892639160156e+01 -1.149752378463745117e+00 8.272936820983886719e+00 2.136955261230468750e+00 -2.970836460590362549e-01
1.851000000000000000e+03 3.136867904663085938e+01 -5.429424285888671875e+00 3.574901103973388672e+00 8.088468909263610840e-01 1.315124392509460449e+00 -1.348226428031921387e+00
1.852000000000000000e+03 2.795481872558593750e+01 -3.690867996215820312e+01 -6.898168921470642090e-01 1.482692837715148926e+00 2.378627955913543701e-01 7.336850166320800781e-01
1.853000000000000000e+03 4.522731399536132812e+01 3.361709213256835938e+01 -8.987650871276855469e-01 3.598069667816162109e+00 8.097913861274719238e-01 5.913130044937133789e-01
1.854000000000000000e+03 4.341359329223632812e+01 3.148182106018066406e+01 -5.295988917350769043e-01 3.445098400115966797e+00 8.746498823165893555e-01 5.512905120849609375e-01
1.855000000000000000e+03 1.163444709777832031e+01 2.325260353088378906e+01 4.350884854793548584e-01 4.376360416412353516e+00 1.443434596061706543e+00 -1.181542992591857910e+00
1.856000000000000000e+03 5.231298065185546875e+01 2.667777299880981445e+00 -2.235794067382812500e+00 3.392854630947113037e-01 -5.689526200294494629e-01 3.216609060764312744e-01
1.857000000000000000e+03 1.241895198822021484e+01 2.769741630554199219e+01 -2.005028873682022095e-01 3.613930702209472656e+00 1.024028301239013672e+00 -1.067376017570495605e+00
1.858000000000000000e+03 5.561214447021484375e+00 2.402586555480957031e+01 1.453576534986495972e-01 1.565346837043762207e+00 5.132113695144653320e-01 -1.319263219833374023e+00
1.859000000000000000e+03 5.517906188964843750e+00 -1.215190982818603516e+01 -4.229415357112884521e-01 1.941092967987060547e+00 4.554454088211059570e-01 4.592775404453277588e-01
1.860000000000000000e+03 3.916935729980468750e+01 -2.817651557922363281e+01 3.541227877140045166e-01 7.093871593475341797e+00 2.234398365020751953e+00 -9.473925232887268066e-01
1.861000000000000000e+03 1.206726741790771484e+01 -1.087642002105712891e+01 3.477493822574615479e-01 8.008555173873901367e-01 3.445814847946166992e-01 2.224112749099731445e+00
1.862000000000000000e+03 4.547315979003906250e+01 2.856854057312011719e+01 8.853973448276519775e-02 4.028537750244140625e+00 1.235123276710510254e+00 6.821380853652954102e-01
1.863000000000000000e+03 6.714844512939453125e+01 -1.561277270317077637e+00 -1.058442354202270508e+00 5.964349269866943359e+00 1.471772074699401855e+00 -9.218572974205017090e-01
1.864000000000000000e+03 6.662801361083984375e+01 -2.778968095779418945e+00 -8.469943404197692871e-01 5.906352043151855469e+00 1.517807245254516602e+00 -9.760403633117675781e-01
1.865000000000000000e+03 7.352956390380859375e+01 -2.566351699829101562e+01 5.069732666015625000e-01 9.665210723876953125e+00 3.051655292510986328e+00 -1.160994052886962891e+00
1.866000000000000000e+03 7.269357299804687500e+01 -2.438560867309570312e+01 7.604038119316101074e-01 1.035060214996337891e+01 3.333301782608032227e+00 -6.895162463188171387e-01
1.867000000000000000e+03 3.204420089721679688e+01 -3.488775634765625000e+01 -1.108272671699523926e+00 3.734603643417358398e+00 7.878993153572082520e-01 1.219255089759826660e+00
1.868000000000000000e+03 6.997162628173828125e+01 -3.463328170776367188e+01 -9.169480204582214355e-01 6.805264949798583984e+00 1.766494989395141602e+00 2.929690778255462646e-01
1.869000000000000000e+03 4.131150054931640625e+01 -2.113670539855957031e+01 4.069330096244812012e-01 7.709234714508056641e+00 2.434850215911865234e+00 -3.686756193637847900e-01
1.870000000000000000e+03 4.084403991699218750e+01 -2.673109245300292969e+01 7.856421470642089844e-01 6.156496047973632812e+00 2.082641363143920898e+00 -1.117879986763000488e+00
1.871000000000000000e+03 3.805493927001953125e+01 -2.437357902526855469e+01 1.967042207717895508e+00 9.187582969665527344e+00 3.346387624740600586e+00 2.109664231538772583e-01
1.872000000000000000e+03 4.647658824920654297e+00 -1.632373619079589844e+01 4.958956539630889893e-01 3.003269910812377930e+00 1.049749612808227539e+00 5.607981234788894653e-02
1.873000000000000000e+03 6.483261108398437500e+00 3.271973037719726562e+01 -3.712778389453887939e-01 2.593517780303955078e+00 6.666719317436218262e-01 -1.149273753166198730e+00
1.874000000000000000e+03 6.345516204833984375e+01 6.665885448455810547e-01 -1.281498432159423828e+00 3.202294349670410156e+00 5.762387514114379883e-01 -1.428610444068908691e+00
1.875000000000000000e+03 1.615164375305175781e+01 -3.178966045379638672e+00 3.162982463836669922e+00 7.359018325805664062e-01 1.169665336608886719e+00 1.429442286491394043e+00
1.876000000000000000e+03 1.897911834716796875e+01 -3.156925201416015625e+00 2.548916101455688477e+00 8.167384147644042969e+00 3.214890003204345703e+00 1.379925608634948730e+00
1.877000000000000000e+03 1.526969528198242188e+01 -3.542824506759643555e+00 2.661325931549072266e+00 4.299657642841339111e-01 9.273874759674072266e-01 1.228879928588867188e+00
1.878000000000000000e+03 2.296780967712402344e+01 -1.791841745376586914e+00 6.060669898986816406e+00 1.414625167846679688e+00 2.242588520050048828e+00 -2.771810770034790039e+00
1.879000000000000000e+03 1.925335502624511719e+01 -3.087440490722656250e+00 2.502062797546386719e+00 8.920119285583496094e+00 3.426654577255249023e+00 5.373240113258361816e-01
1.880000000000000000e+03 1.992563056945800781e+01 -2.828915357589721680e+00 3.333216190338134766e+00 9.640153884887695312e+00 3.892011165618896484e+00 -1.950078725814819336e+00
1.881000000000000000e+03 2.085080909729003906e+01 -2.449182271957397461e+00 5.468605041503906250e+00 6.758253097534179688e+00 3.668057441711425781e+00 -3.681304693222045898e+00
1.882000000000000000e+03 1.960854530334472656e+01 1.481403470039367676e+00 -9.459900259971618652e-01 1.041596412658691406e+01 2.840992212295532227e+00 -2.730796337127685547e+00
1.883000000000000000e+03 1.936157226562500000e+01 2.469125509262084961e+00 -9.367852807044982910e-01 9.046332359313964844e+00 2.432863950729370117e+00 -2.955702543258666992e+00
1.884000000000000000e+03 2.096133422851562500e+01 -2.091333866119384766e+00 6.458293437957763672e+00 6.362392902374267578e+00 3.846205949783325195e+00 -3.934365749359130859e+00
1.885000000000000000e+03 2.154584503173828125e+01 -1.071385622024536133e+00 6.808637142181396484e+00 3.914791822433471680e+00 3.217028617858886719e+00 -2.823067188262939453e+00
1.886000000000000000e+03 1.900421333312988281e+01 2.001881361007690430e+00 -8.057484626770019531e-01 9.284858703613281250e+00 2.543732881546020508e+00 -3.555984973907470703e+00
1.887000000000000000e+03 1.640088081359863281e+01 2.620225429534912109e+00 4.823738634586334229e-01 3.861270904541015625e+00 1.303093433380126953e+00 -2.941309452056884766e+00
1.888000000000000000e+03 1.796082305908203125e+01 1.392037630081176758e+00 4.520568549633026123e-01 6.733137130737304688e+00 2.155558109283447266e+00 -4.751482486724853516e+00
1.889000000000000000e+03 1.390240669250488281e+01 -3.950270891189575195e+00 2.044261217117309570e+00 1.830244362354278564e-01 6.681857109069824219e-01 1.066570639610290527e+00
1.890000000000000000e+03 1.593051052093505859e+01 -3.604682683944702148e+00 2.986707448959350586e+00 7.943837046623229980e-01 1.134327292442321777e+00 1.523506641387939453e+00
1.891000000000000000e+03 2.135531806945800781e+01 -2.711921453475952148e+00 5.303998470306396484e+00 5.228243827819824219e+00 3.159672737121582031e+00 -3.578154325485229492e+00
1.892000000000000000e+03 2.252494049072265625e+01 -1.104992985725402832e+00 6.157742500305175781e+00 1.912557125091552734e+00 2.421089887619018555e+00 -2.601350069046020508e+00
1.893000000000000000e+03 2.104714584350585938e+01 4.267062246799468994e-01 3.248248577117919922e+00 7.323222637176513672e+00 3.171441316604614258e+00 -4.068193137645721436e-01
1.894000000000000000e+03 2.080900955200195312e+01 6.162890195846557617e-01 2.758461713790893555e+00 8.109715461730957031e+00 3.260453224182128906e+00 -3.081112802028656006e-01
1.895000000000000000e+03 9.530143737792968750e+00 -4.620922565460205078e+00 7.380741238594055176e-01 1.994271129369735718e-01 2.812503874301910400e-01 7.059094905853271484e-01
1.896000000000000000e+03 1.020845317840576172e+01 -4.570232391357421875e+00 8.873907923698425293e-01 1.673602461814880371e-01 3.164253234863281250e-01 7.761673331260681152e-01
1.897000000000000000e+03 1.152205562591552734e+01 -3.862351894378662109e+00 1.196209907531738281e+00 6.130955740809440613e-02 3.772558569908142090e-01 7.297344803810119629e-01
1.898000000000000000e+03 1.216686916351318359e+01 -3.842509508132934570e+00 1.387561917304992676e+00 5.282555893063545227e-02 4.321162402629852295e-01 7.811447381973266602e-01
1.899000000000000000e+03 1.274368381500244141e+01 -4.362111091613769531e+00 1.605569720268249512e+00 1.260372400283813477e-01 5.194820761680603027e-01 1.021184444427490234e+00
1.900000000000000000e+03 1.665089035034179688e+01 2.007411241531372070e+00 5.172582268714904785e-01 3.751096248626708984e+00 1.280506372451782227e+00 -3.162454605102539062e+00
1.901000000000000000e+03 1.798355293273925781e+01 2.223168611526489258e+00 -1.501155346632003784e-01 6.965195178985595703e+00 2.044523954391479492e+00 -4.071978569030761719e+00
1.902000000000000000e+03 7.356310844421386719e+00 -4.158735275268554688e+00 3.629450500011444092e-01 2.035704106092453003e-01 1.699546426534652710e-01 3.881314098834991455e-01
1.903000000000000000e+03 8.849851608276367188e+00 -4.675231933593750000e+00 6.028982400894165039e-01 2.227166593074798584e-01 2.476844638586044312e-01 6.326245665550231934e-01
1.904000000000000000e+03 1.547948932647705078e+01 3.044006109237670898e+00 5.263361930847167969e-01 2.910307407379150391e+00 1.030993103981018066e+00 -2.246993780136108398e+00
1.905000000000000000e+03 1.339766597747802734e+01 4.019430160522460938e+00 5.306863188743591309e-01 1.802179455757141113e+00 6.998597383499145508e-01 -1.045928716659545898e+00
1.906000000000000000e+03 1.087657070159912109e+01 -4.518414974212646484e+00 1.055694818496704102e+00 1.441513299942016602e-01 3.599538505077362061e-01 8.446273207664489746e-01
1.907000000000000000e+03 6.055075168609619141e+00 -5.436942577362060547e+00 1.860794872045516968e-01 3.517089486122131348e-01 1.613365262746810913e-01 3.641015589237213135e-01
1.908000000000000000e+03 6.794322490692138672e+00 -5.082070350646972656e+00 2.931276559829711914e-01 3.251877725124359131e-01 1.854946315288543701e-01 4.409622251987457275e-01
1.909000000000000000e+03 4.507329463958740234e+00 4.786061763763427734e+00 -5.731999501585960388e-02 -2.712686955928802490e-01 -9.857660531997680664e-02 8.049626350402832031e-01
1.910000000000000000e+03 3.512991905212402344e+00 4.799396038055419922e+00 -6.811027228832244873e-02 -4.380391538143157959e-01 -1.518448293209075928e-01 7.090749740600585938e-01
1.911000000000000000e+03 1.618380165100097656e+01 3.298379182815551758e+00 5.787153244018554688e-01 4.039790630340576172e+00 1.385551810264587402e+00 -2.722493410110473633e+00
1.912000000000000000e+03 4.626879692077636719e+00 4.171005725860595703e+00 -1.788309961557388306e-01 -2.190283238887786865e-01 -1.193577945232391357e-01 7.923841476440429688e-01
1.913000000000000000e+03 1.152897167205810547e+01 -4.465476989746093750e+00 1.233515381813049316e+00 1.215131282806396484e-01 4.065085649490356445e-01 9.020184874534606934e-01
1.914000000000000000e+03 2.128418922424316406e+01 -3.252229690551757812e+00 4.391151428222656250e+00 5.415535449981689453e+00 2.942006111145019531e+00 -3.181406736373901367e+00
1.915000000000000000e+03 2.210217666625976562e+01 -1.413512468338012695e+00 6.575343608856201172e+00 2.634204864501953125e+00 2.762864589691162109e+00 -2.885448694229125977e+00
1.916000000000000000e+03 2.214028549194335938e+01 -6.581544876098632812e-04 3.583847045898437500e+00 2.443623065948486328e+00 1.808241009712219238e+00 -1.588228821754455566e+00
1.917000000000000000e+03 8.347612380981445312e+00 4.162907600402832031e+00 -1.135997250676155090e-01 1.659055203199386597e-01 1.569173857569694519e-02 6.531996726989746094e-01
1.918000000000000000e+03 5.137410640716552734e+00 4.964495658874511719e+00 -3.789785131812095642e-02 -1.976226270198822021e-01 -7.065614312887191772e-02 8.194727301597595215e-01
1.919000000000000000e+03 5.881346225738525391e+00 5.019928455352783203e+00 -4.289900418370962143e-03 -9.000614285469055176e-02 -2.828881330788135529e-02 8.154571056365966797e-01
1.920000000000000000e+03 8.345357894897460938e+00 4.985459327697753906e+00 1.661434918642044067e-01 3.016270697116851807e-01 1.403311640024185181e-01 5.777188539505004883e-01
1.921000000000000000e+03 1.264596366882324219e+01 4.305144786834716797e+00 5.097190141677856445e-01 1.514113903045654297e+00 6.071498990058898926e-01 -7.012453079223632812e-01
1.922000000000000000e+03 1.001938343048095703e+01 4.059078693389892578e+00 9.063159814104437828e-04 4.353498816490173340e-01 1.308768540620803833e-01 3.089389503002166748e-01
1.923000000000000000e+03 7.451105117797851562e+00 5.873930931091308594e+00 3.031623959541320801e-01 2.557100653648376465e-01 1.676617413759231567e-01 6.310002207756042480e-01
1.924000000000000000e+03 2.338103866577148438e+01 -2.699404716491699219e+00 5.689286708831787109e+00 1.396502494812011719e+00 2.125736713409423828e+00 -2.634924411773681641e+00
1.925000000000000000e+03 1.098857498168945312e+01 4.765038967132568359e+00 4.245304465293884277e-01 9.375236034393310547e-01 4.086162149906158447e-01 -1.060938537120819092e-01
1.926000000000000000e+03 1.716080474853515625e+01 2.189485549926757812e+00 3.699046075344085693e-01 5.024960517883300781e+00 1.618459582328796387e+00 -3.694451093673706055e+00
1.927000000000000000e+03 1.653850936889648438e+01 4.407550334930419922e+00 7.133381962776184082e-01 5.106328964233398438e+00 1.745900154113769531e+00 -2.769501447677612305e+00
1.928000000000000000e+03 2.686855697631835938e+01 -5.064638137817382812e+00 3.973927021026611328e+00 1.142039299011230469e+00 1.534789919853210449e+00 -1.980584263801574707e+00
1.929000000000000000e+03 2.515834999084472656e+01 -2.617796421051025391e+00 5.578214645385742188e+00 1.085735559463500977e+00 1.999184966087341309e+00 -1.617582321166992188e+00
1.930000000000000000e+03 2.282687568664550781e+01 -1.401132488250732422e+01 -1.114590525627136230e+00 7.241218686103820801e-01 -1.171406060457229614e-01 1.448198854923248291e-01
1.931000000000000000e+03 3.214625930786132812e+01 -1.547069168090820312e+01 -7.201457619667053223e-01 1.910602927207946777e+00 3.571371734142303467e-01 -1.446924209594726562e+00
1.932000000000000000e+03 3.246539688110351562e+01 -1.338656234741210938e+01 8.381384611129760742e-01 2.580368041992187500e+00 1.025552034378051758e+00 -1.589491963386535645e+00
1.933000000000000000e+03 2.307073974609375000e+01 -3.939768075942993164e+00 4.630683898925781250e+00 2.386910200119018555e+00 2.105278253555297852e+00 -2.620070934295654297e+00
1.934000000000000000e+03 3.899650573730468750e+01 -2.000695610046386719e+01 4.057096838951110840e-01 9.822884559631347656e+00 3.068578243255615234e+00 1.024780750274658203e+00
1.935000000000000000e+03 7.101464843750000000e+01 -5.937451839447021484e+00 -3.823026418685913086e-01 8.340874671936035156e+00 2.387571573257446289e+00 -4.542766138911247253e-02
1.936000000000000000e+03 1.967362403869628906e+01 -1.359728622436523438e+01 -1.094548821449279785e+00 7.509565949440002441e-01 -1.030776798725128174e-01 5.651425123214721680e-01
1.937000000000000000e+03 1.719614219665527344e+01 -1.382600307464599609e+01 -1.061272144317626953e+00 2.709379196166992188e-01 -2.371002733707427979e-01 9.940573573112487793e-01
1.938000000000000000e+03 1.582434368133544922e+01 5.048644542694091797e+00 9.561727643013000488e-01 4.548692703247070312e+00 1.651459693908691406e+00 -2.417999267578125000e+00
1.939000000000000000e+03 2.500837326049804688e+01 -4.378973960876464844e+00 4.435021877288818359e+00 1.444900393486022949e+00 1.763976693153381348e+00 -2.063410997390747070e+00
1.940000000000000000e+03 4.701174163818359375e+01 6.150962829589843750e+00 1.025243043899536133e+00 2.682301044464111328e+00 1.112263202667236328e+00 2.246541023254394531e+00
1.941000000000000000e+03 4.651858520507812500e+01 4.424063682556152344e+00 -3.716265410184860229e-02 2.512944698333740234e+00 7.427346110343933105e-01 2.534237861633300781e+00
1.942000000000000000e+03 4.568789672851562500e+01 6.491972923278808594e+00 1.214007019996643066e+00 4.146057128906250000e+00 1.608019351959228516e+00 2.792630910873413086e+00
1.943000000000000000e+03 4.678626251220703125e+01 -3.002305793762207031e+01 8.757027238607406616e-02 2.353822231292724609e+00 7.324177622795104980e-01 -1.174583911895751953e+00
1.944000000000000000e+03 6.061189270019531250e+01 1.625275492668151855e+00 -1.300154566764831543e+00 1.403769254684448242e+00 3.108442388474941254e-02 -1.025557398796081543e+00
1.945000000000000000e+03 5.654125595092773438e+01 2.793640613555908203e+00 -1.403842687606811523e+00 4.346863627433776855e-01 -2.907468974590301514e-01 -2.001979202032089233e-01
1.946000000000000000e+03 4.417929840087890625e+01 4.092908859252929688e+00 -3.861562311649322510e-01 5.821380615234375000e+00 1.630567312240600586e+00 3.225229263305664062e+00
1.947000000000000000e+03 3.958396148681640625e+01 -2.157530975341796875e+01 8.654078841209411621e-01 8.965705871582031250e+00 2.949334144592285156e+00 3.982786834239959717e-01
1.948000000000000000e+03 1.254089450836181641e+01 -1.286404895782470703e+01 3.301968798041343689e-02 5.184087157249450684e-01 1.654285192489624023e-01 2.317050218582153320e+00
1.949000000000000000e+03 1.335974216461181641e+01 1.153959465026855469e+01 1.325808405876159668e+00 5.006925106048583984e+00 1.899820089340209961e+00 -1.635611176490783691e+00
1.950000000000000000e+03 1.271596813201904297e+01 1.296671772003173828e+01 1.230689048767089844e+00 4.922598361968994141e+00 1.845986127853393555e+00 -1.438397765159606934e+00
1.951000000000000000e+03 1.905076408386230469e+01 -1.245270824432373047e+01 -5.280689597129821777e-01 9.049987196922302246e-01 1.130789145827293396e-01 7.181095480918884277e-01
1.952000000000000000e+03 3.813060379028320312e+01 -1.197083950042724609e+01 9.883540868759155273e-01 1.019621372222900391e+01 3.355370283126831055e+00 -6.751207709312438965e-01
1.953000000000000000e+03 3.571160507202148438e+01 -1.494445228576660156e+01 -5.174478292465209961e-01 7.709467887878417969e+00 2.157605886459350586e+00 -1.425091981887817383e+00
1.954000000000000000e+03 7.464955139160156250e+01 3.201179504394531250e+01 2.171520330011844635e-02 6.203655719757080078e+00 1.867611169815063477e+00 2.511405386030673981e-02
1.955000000000000000e+03 4.654830932617187500e+01 2.258301544189453125e+01 5.214061141014099121e-01 4.753312587738037109e+00 1.582415580749511719e+00 1.052744507789611816e+00
1.956000000000000000e+03 7.330696868896484375e+01 -2.939591598510742188e+01 -3.836348652839660645e-01 9.335985183715820312e+00 2.685705184936523438e+00 -1.168083906173706055e+00
1.957000000000000000e+03 4.643765258789062500e+01 2.115850257873535156e+01 6.289713382720947266e-01 4.963030338287353516e+00 1.677600502967834473e+00 1.247887492179870605e+00
1.958000000000000000e+03 4.515781784057617188e+01 1.854189300537109375e+01 7.531210184097290039e-01 5.625625610351562500e+00 1.913623929023742676e+00 1.515962243080139160e+00
1.959000000000000000e+03 4.779352569580078125e+01 2.234178924560546875e+01 6.574606299400329590e-01 4.552632331848144531e+00 1.563027858734130859e+00 1.176940679550170898e+00
1.960000000000000000e+03 4.218995666503906250e+01 -2.702906227111816406e+01 5.364705920219421387e-01 5.282298564910888672e+00 1.745630741119384766e+00 -1.374189496040344238e+00
1.961000000000000000e+03 7.392568969726562500e+01 2.101408195495605469e+01 1.560340970754623413e-01 6.166198253631591797e+00 1.896669626235961914e+00 -2.766949236392974854e-01
1.962000000000000000e+03 7.523444366455078125e+01 2.392869377136230469e+01 8.226060122251510620e-02 6.308002948760986328e+00 1.917079091072082520e+00 -1.312201470136642456e-01
1.963000000000000000e+03 7.548220825195312500e+01 1.843064498901367188e+01 9.263771772384643555e-02 6.523475170135498047e+00 1.984833955764770508e+00 -3.225111365318298340e-01
1.964000000000000000e+03 7.549651336669921875e+01 1.181533050537109375e+01 2.217493951320648193e-02 6.988205909729003906e+00 2.103114366531372070e+00 -5.091772079467773438e-01
1.965000000000000000e+03 7.443162536621093750e+01 1.459579944610595703e+01 8.878865838050842285e-02 6.532311439514160156e+00 1.986330032348632812e+00 -5.284548401832580566e-01
1.966000000000000000e+03 7.497402954101562500e+01 -2.241820335388183594e+01 4.312798678874969482e-01 9.296293258666992188e+00 2.918272018432617188e+00 -8.244949579238891602e-01
1.967000000000000000e+03 7.405202484130859375e+01 7.770556926727294922e+00 -1.215986534953117371e-01 6.975548267364501953e+00 2.056185007095336914e+00 -6.018555164337158203e-01
1.968000000000000000e+03 7.559632110595703125e+01 4.974761486053466797e+00 -1.714164465665817261e-01 7.619733810424804688e+00 2.234495162963867188e+00 -3.387601971626281738e-01
1.969000000000000000e+03 7.381373596191406250e+01 3.338623344898223877e-01 -4.799147546291351318e-01 7.659544467926025391e+00 2.153888940811157227e+00 -6.607811152935028076e-02
1.970000000000000000e+03 7.324454498291015625e+01 1.922741413116455078e+00 -5.019002556800842285e-01 7.345844745635986328e+00 2.053183317184448242e+00 -3.117425143718719482e-01
1.971000000000000000e+03 7.535296630859375000e+01 2.529613494873046875e+01 7.068151980638504028e-02 6.301849842071533203e+00 1.911759376525878906e+00 -9.510278701782226562e-02
1.972000000000000000e+03 7.397572326660156250e+01 2.554247665405273438e+01 1.135965213179588318e-01 6.090605258941650391e+00 1.861260414123535156e+00 -9.102701395750045776e-02
1.973000000000000000e+03 7.395545959472656250e+01 -7.893981933593750000e+00 -1.232917904853820801e-01 8.597812652587890625e+00 2.542356252670288086e+00 6.225613951683044434e-01
1.974000000000000000e+03 7.528260803222656250e+01 -6.435243606567382812e+00 -1.942249238491058350e-01 8.208628654479980469e+00 2.404321193695068359e+00 6.665160059928894043e-01
1.975000000000000000e+03 7.439175415039062500e+01 -9.803383827209472656e+00 1.068577393889427185e-01 8.670093536376953125e+00 2.633085489273071289e+00 7.025640010833740234e-01
1.976000000000000000e+03 7.414325714111328125e+01 1.061464214324951172e+01 -4.160936456173658371e-03 6.737470626831054688e+00 2.019992828369140625e+00 -6.351627707481384277e-01
1.977000000000000000e+03 7.598227691650390625e+01 -1.357080936431884766e+01 3.243094384670257568e-01 8.000886917114257812e+00 2.497559070587158203e+00 4.170741140842437744e-01
1.978000000000000000e+03 7.215589141845703125e+01 -1.822592926025390625e+01 5.783483386039733887e-01 1.174483680725097656e+01 3.696955680847167969e+00 -6.508375406265258789e-01
1.979000000000000000e+03 7.588221740722656250e+01 -1.224060153961181641e+01 2.725813984870910645e-01 8.050426483154296875e+00 2.496902227401733398e+00 5.780274271965026855e-01
1.980000000000000000e+03 7.573444366455078125e+01 -1.088814163208007812e+01 1.730708628892898560e-01 8.145195007324218750e+00 2.495479583740234375e+00 7.181276082992553711e-01
1.981000000000000000e+03 7.477928924560546875e+01 -2.173719596862792969e+01 4.034481048583984375e-01 9.356848716735839844e+00 2.928089141845703125e+00 -7.511860728263854980e-01
1.982000000000000000e+03 7.135102844238281250e+01 -3.822851896286010742e+00 -5.704455971717834473e-01 7.829029560089111328e+00 2.177575111389160156e+00 -2.277462184429168701e-02
1.983000000000000000e+03 7.418808746337890625e+01 -4.482907295227050781e+00 -3.574789464473724365e-01 8.140424728393554688e+00 2.334883689880371094e+00 4.647774696350097656e-01
1.984000000000000000e+03 7.356846618652343750e+01 -5.291590213775634766e+00 -3.620762825012207031e-01 8.238369941711425781e+00 2.362888097763061523e+00 4.348624646663665771e-01
1.985000000000000000e+03 7.456699371337890625e+01 3.800638675689697266e+00 -2.967480123043060303e-01 7.455423355102539062e+00 2.147602558135986328e+00 -3.453040421009063721e-01
1.986000000000000000e+03 7.413961029052734375e+01 -2.717516708374023438e+01 2.244234979152679443e-01 9.410679817199707031e+00 2.890530824661254883e+00 -1.325839638710021973e+00
1.987000000000000000e+03 7.595297241210937500e+01 -2.558263587951660156e+01 2.296272814273834229e-01 8.778443336486816406e+00 2.702421188354492188e+00 -1.176039934158325195e+00
1.988000000000000000e+03 7.446139526367187500e+01 1.583150100708007812e+01 1.180940568447113037e-01 6.450905799865722656e+00 1.970699906349182129e+00 -4.794646799564361572e-01
1.989000000000000000e+03 7.542098999023437500e+01 2.761874961853027344e+01 5.243964493274688721e-02 6.275939941406250000e+00 1.898513793945312500e+00 -2.843719534575939178e-02
1.990000000000000000e+03 7.432463073730468750e+01 -3.208775281906127930e+00 -3.655592501163482666e-01 8.032561302185058594e+00 2.300100803375244141e+00 3.747030794620513916e-01
1.991000000000000000e+03 7.417828369140625000e+01 6.355462074279785156e+00 -1.879499852657318115e-01 7.128270626068115234e+00 2.082096099853515625e+00 -5.350869297981262207e-01
1.992000000000000000e+03 7.247741699218750000e+01 -3.158312034606933594e+01 -8.561351895332336426e-01 8.895299911499023438e+00 2.411749362945556641e+00 -7.372432351112365723e-01
1.993000000000000000e+03 7.432002258300781250e+01 1.331829071044921875e+01 8.074691891670227051e-02 6.597416877746582031e+00 2.003449201583862305e+00 -5.627841949462890625e-01
1.994000000000000000e+03 7.552059936523437500e+01 -2.686963462829589844e+01 1.712340861558914185e-01 9.024221420288085938e+00 2.758636713027954102e+00 -1.347396969795227051e+00
1.995000000000000000e+03 7.404772186279296875e+01 1.965320205688476562e+01 1.517762243747711182e-01 6.223038196563720703e+00 1.912444233894348145e+00 -3.352997899055480957e-01
1.996000000000000000e+03 7.419928741455078125e+01 1.834687614440917969e+01 1.413778513669967651e-01 6.302563667297363281e+00 1.933182477951049805e+00 -3.847313225269317627e-01
1.997000000000000000e+03 7.270052337646484375e+01 -3.304490280151367188e+01 -7.078930735588073730e-01 8.495664596557617188e+00 2.336331605911254883e+00 -6.022934913635253906e-01
1.998000000000000000e+03 4.243775177001953125e+01 -2.573072814941406250e+01 7.929325103759765625e-01 5.111730575561523438e+00 1.771399021148681641e+00 -1.347952604293823242e+00
1.999000000000000000e+03 4.391460800170898438e+01 -2.537002372741699219e+01 7.355839610099792480e-01 3.905060529708862305e+00 1.392193317413330078e+00 -1.433885812759399414e+00
2.000000000000000000e+03 1.007899856567382812e+01 2.842070198059082031e+01 -2.862384915351867676e-01 3.038489580154418945e+00 8.256753087043762207e-01 -1.431908130645751953e+00
2.001000000000000000e+03 1.866435241699218750e+01 -1.332600116729736328e+01 -9.112150669097900391e-01 6.616921424865722656e-01 -7.485687732696533203e-02 7.646039724349975586e-01
2.002000000000000000e+03 1.528338527679443359e+01 -1.266755199432373047e+01 -2.048043310642242432e-01 1.590795814990997314e-01 -1.371742226183414459e-02 1.630494952201843262e+00
2.003000000000000000e+03 4.742375373840332031e+00 2.831937789916992188e+01 -7.733999937772750854e-02 1.919823408126831055e+00 5.527449846267700195e-01 -1.240790724754333496e+00
2.004000000000000000e+03 1.015252876281738281e+01 -1.257245063781738281e+01 -1.451949030160903931e-01 1.566243410110473633e+00 4.263145625591278076e-01 2.386267900466918945e+00
2.005000000000000000e+03 5.312185764312744141e+00 -1.080707263946533203e+01 -3.215470612049102783e-01 1.423994302749633789e+00 3.307341933250427246e-01 4.256493151187896729e-01
2.006000000000000000e+03 7.244592285156250000e+01 -2.050386810302734375e+01 5.642825365066528320e-01 1.135090255737304688e+01 3.574555635452270508e+00 -5.065312385559082031e-01
2.007000000000000000e+03 3.029543495178222656e+01 -1.531339073181152344e+01 -9.994159340858459473e-01 -3.533025458455085754e-02 -3.104238510131835938e-01 -5.875033140182495117e-01
2.008000000000000000e+03 7.507237243652343750e+01 -3.485539627075195312e+01 -5.005303025245666504e-01 9.298298835754394531e+00 2.639330625534057617e+00 -6.416255235671997070e-01
2.009000000000000000e+03 2.744458198547363281e+01 -6.189214706420898438e+00 3.572660684585571289e+00 9.685791730880737305e-01 1.362372040748596191e+00 -2.030391931533813477e+00
2.010000000000000000e+03 9.244276046752929688e+00 2.416617774963378906e+01 3.081397116184234619e-01 3.075132131576538086e+00 1.014981627464294434e+00 -1.498375892639160156e+00
2.011000000000000000e+03 1.213149261474609375e+01 2.620616531372070312e+01 5.836112052202224731e-02 3.906681776046752930e+00 1.189512848854064941e+00 -1.120454668998718262e+00
2.012000000000000000e+03 1.171544361114501953e+01 1.599677658081054688e+01 1.102081537246704102e+00 4.738185405731201172e+00 1.752080082893371582e+00 -1.220576167106628418e+00
2.013000000000000000e+03 1.023380661010742188e+01 1.896668434143066406e+01 8.302221894264221191e-01 3.801082849502563477e+00 1.389391541481018066e+00 -1.251784086227416992e+00
2.014000000000000000e+03 4.523149490356445312e+00 2.130989837646484375e+01 2.186153829097747803e-01 8.134316802024841309e-01 3.096141219139099121e-01 -1.017800092697143555e+00
2.015000000000000000e+03 4.434297561645507812e+00 1.564584541320800781e+01 3.539820313453674316e-01 3.242386877536773682e-02 1.159217730164527893e-01 -3.994068801403045654e-01
2.016000000000000000e+03 6.061114788055419922e+00 2.805692863464355469e+01 -9.275944530963897705e-02 2.174633026123046875e+00 6.245620846748352051e-01 -1.409824252128601074e+00
2.017000000000000000e+03 4.590423107147216797e+00 2.690682792663574219e+01 -8.060334250330924988e-03 1.662027359008789062e+00 4.961901009082794189e-01 -1.238351583480834961e+00
2.018000000000000000e+03 7.042969703674316406e+00 -1.333773422241210938e+01 -4.515939056873321533e-01 2.796558618545532227e+00 7.034894227981567383e-01 1.102180480957031250e+00
2.019000000000000000e+03 6.480746746063232422e+00 3.113826751708984375e+01 -3.066609203815460205e-01 2.489652872085571289e+00 6.548975706100463867e-01 -1.260545969009399414e+00
2.020000000000000000e+03 5.795383930206298828e+00 1.678723716735839844e+01 4.790306985378265381e-01 8.964588642120361328e-01 4.126468598842620850e-01 -6.696845889091491699e-01
2.021000000000000000e+03 5.718136310577392578e+00 1.405195617675781250e+01 5.535576939582824707e-01 5.807898640632629395e-01 3.403042554855346680e-01 -2.941516339778900146e-01
2.022000000000000000e+03 6.092725276947021484e+00 2.196688270568847656e+01 2.840965688228607178e-01 1.571516394615173340e+00 5.566838979721069336e-01 -1.249427080154418945e+00
2.023000000000000000e+03 5.987334251403808594e+00 1.805012893676757812e+01 4.963590502738952637e-01 1.137514352798461914e+00 4.901620149612426758e-01 -8.513410091400146484e-01
2.024000000000000000e+03 6.529123783111572266e+00 2.059791183471679688e+01 4.616451859474182129e-01 1.776833772659301758e+00 6.715437173843383789e-01 -1.203851103782653809e+00
2.025000000000000000e+03 4.617417144775390625e+01 1.021570682525634766e+01 1.968965768814086914e+00 4.545842170715332031e+00 1.954442381858825684e+00 2.599664926528930664e+00
2.026000000000000000e+03 5.115794658660888672e+00 9.920643806457519531e+00 4.263558685779571533e-01 -8.583227545022964478e-02 1.021570786833763123e-01 3.433535993099212646e-01
2.027000000000000000e+03 5.093724727630615234e+00 -8.180453300476074219e+00 -5.831270664930343628e-02 7.300225496292114258e-01 2.015129476785659790e-01 3.759385943412780762e-01
2.028000000000000000e+03 5.118242740631103516e+00 8.626369476318359375e+00 3.890716135501861572e-01 -1.496730595827102661e-01 7.181957364082336426e-02 5.256641507148742676e-01
2.029000000000000000e+03 3.404236078262329102e+00 6.131728172302246094e+00 7.278198003768920898e-02 -5.684452652931213379e-01 -1.486989855766296387e-01 7.025490999221801758e-01
2.030000000000000000e+03 5.398216724395751953e+00 7.568264961242675781e+00 3.168348073959350586e-01 -1.219813525676727295e-01 5.845604091882705688e-02 6.281851530075073242e-01
2.031000000000000000e+03 5.762822628021240234e+00 -1.350198078155517578e+01 -4.100352525711059570e-01 2.607692956924438477e+00 6.592972874641418457e-01 4.721676111221313477e-01
2.032000000000000000e+03 6.683292388916015625e+00 -1.206290054321289062e+01 -4.289970099925994873e-01 2.160382270812988281e+00 5.194155573844909668e-01 8.955693840980529785e-01
2.033000000000000000e+03 5.526525878906250000e+01 3.124162197113037109e+00 -1.379494786262512207e+00 4.153637588024139404e-01 -2.892393171787261963e-01 -3.971195966005325317e-02
2.034000000000000000e+03 5.339811325073242188e+01 5.008121013641357422e+00 -2.770922183990478516e-01 5.817049741744995117e-01 9.138381481170654297e-02 1.528950482606887817e-01
2.035000000000000000e+03 5.316926956176757812e+00 3.515440750122070312e+01 -3.796897828578948975e-01 2.727764368057250977e+00 7.044223546981811523e-01 -8.283026814460754395e-01
2.036000000000000000e+03 5.141286849975585938e+00 -5.611737728118896484e+00 1.229196861386299133e-01 3.303722739219665527e-01 1.359875947237014771e-01 2.662944793701171875e-01
2.037000000000000000e+03 4.875188827514648438e+01 2.146334648132324219e+01 8.612372875213623047e-01 4.393672943115234375e+00 1.576472997665405273e+00 1.317393183708190918e+00
2.038000000000000000e+03 1.420244503021240234e+01 7.601205825805664062e+00 1.388992786407470703e+00 4.154541492462158203e+00 1.663060307502746582e+00 -1.774395346641540527e+00
2.039000000000000000e+03 5.453169250488281250e+01 4.667531490325927734e+00 -5.199708342552185059e-01 6.016274094581604004e-01 2.449696138501167297e-02 -8.085136860609054565e-02
2.040000000000000000e+03 4.047565841674804688e+01 -2.326544189453125000e+01 1.149906635284423828e+00 7.452720165252685547e+00 2.580788135528564453e+00 -3.240690231323242188e-01
2.041000000000000000e+03 1.367080879211425781e+01 8.646355628967285156e+00 1.405022740364074707e+00 4.157956600189208984e+00 1.668893814086914062e+00 -1.631846785545349121e+00
2.042000000000000000e+03 1.409089088439941406e+01 1.027812004089355469e+01 1.425905942916870117e+00 5.149275302886962891e+00 1.972554326057434082e+00 -1.900018811225891113e+00
2.043000000000000000e+03 1.082046413421630859e+01 -3.470115280151367188e+01 -6.240511536598205566e-01 -3.274935483932495117e-01 -2.854634225368499756e-01 3.363255858421325684e-01
2.044000000000000000e+03 1.534452819824218750e+01 4.456648349761962891e+00 8.032458424568176270e-01 3.727380752563476562e+00 1.359187960624694824e+00 -2.214379787445068359e+00
2.045000000000000000e+03 6.243313980102539062e+01 2.452195882797241211e+00 -9.755404591560363770e-01 2.616554975509643555e+00 4.923043847084045410e-01 -1.416964292526245117e+00
2.046000000000000000e+03 1.598358345031738281e+01 5.916685104370117188e+00 1.147715330123901367e+00 5.057113647460937500e+00 1.861448764801025391e+00 -2.481263637542724609e+00
2.047000000000000000e+03 3.786081695556640625e+01 -1.064249229431152344e+01 1.448415160179138184e+00 9.428769111633300781e+00 3.263155460357666016e+00 -3.310395777225494385e-01
2.048000000000000000e+03 3.629735565185546875e+01 -1.307585430145263672e+01 6.076518297195434570e-01 7.845103740692138672e+00 2.535826683044433594e+00 -1.113480329513549805e+00
2.049000000000000000e+03 3.461670684814453125e+01 -1.555606079101562500e+01 -8.540219068527221680e-01 5.630845546722412109e+00 1.433047175407409668e+00 -1.754883050918579102e+00
2.050000000000000000e+03 3.697168350219726562e+01 -1.724152183532714844e+01 -8.130339384078979492e-01 9.822245597839355469e+00 2.702763319015502930e+00 3.185207247734069824e-01
2.051000000000000000e+03 4.648857498168945312e+01 1.310633087158203125e+01 1.816754460334777832e+00 4.933716297149658203e+00 2.025141239166259766e+00 2.365461587905883789e+00
2.052000000000000000e+03 4.665446853637695312e+01 2.661515998840332031e+01 2.691598832607269287e-01 4.280014038085937500e+00 1.364752173423767090e+00 8.084868788719177246e-01
2.053000000000000000e+03 4.513889312744140625e+01 1.442026519775390625e+01 1.443464398384094238e+00 5.972868442535400391e+00 2.224899768829345703e+00 2.256949663162231445e+00
2.054000000000000000e+03 4.654174804687500000e+01 1.455015850067138672e+01 1.638862848281860352e+00 5.013875484466552734e+00 1.995821475982666016e+00 2.203300714492797852e+00
2.055000000000000000e+03 7.212615966796875000e+01 -1.698523139953613281e+01 9.005942940711975098e-01 1.160634231567382812e+01 3.752080917358398438e+00 -6.021378040313720703e-01
2.056000000000000000e+03 7.364278411865234375e+01 -9.057792663574218750e+00 1.200375612825155258e-02 8.823415756225585938e+00 2.650625944137573242e+00 5.992041230201721191e-01
2.057000000000000000e+03 7.133364105224609375e+01 -1.144836807250976562e+01 5.631833076477050781e-01 1.049040794372558594e+01 3.316077470779418945e+00 -1.292650997638702393e-01
2.058000000000000000e+03 6.873329639434814453e+00 2.499962043762207031e+01 1.335128843784332275e-01 2.163032770156860352e+00 6.889636516571044922e-01 -1.481497526168823242e+00
2.059000000000000000e+03 6.107380294799804688e+01 2.866206407546997070e+00 -8.900972604751586914e-01 1.907686352729797363e+00 3.052767217159271240e-01 -1.201461911201477051e+00
2.060000000000000000e+03 6.235438156127929688e+01 -3.772550201416015625e+01 7.856649905443191528e-02 1.103381037712097168e+00 3.545842468738555908e-01 3.485606014728546143e-01
2.061000000000000000e+03 6.744997406005859375e+01 -4.101444244384765625e+01 1.728590286802500486e-04 4.273491382598876953e+00 1.282099246978759766e+00 1.633589714765548706e-01
2.062000000000000000e+03 1.038190460205078125e+01 -6.585467338562011719e+00 8.129450678825378418e-01 4.632187187671661377e-01 3.828491270542144775e-01 1.266740798950195312e+00
2.063000000000000000e+03 5.969974517822265625e+01 3.261709451675415039e+00 -8.141056895256042480e-01 1.341553330421447754e+00 1.582343131303787231e-01 -9.661433100700378418e-01
2.064000000000000000e+03 4.442987823486328125e+01 6.860798358917236328e+00 1.384958863258361816e+00 5.560891151428222656e+00 2.083755016326904297e+00 2.918644905090332031e+00
2.065000000000000000e+03 4.632281112670898438e+01 9.023970603942871094e+00 1.929395675659179688e+00 4.150806903839111328e+00 1.824060797691345215e+00 2.590751171112060547e+00
2.066000000000000000e+03 7.362812805175781250e+01 -2.350741767883300781e+01 6.039998531341552734e-01 9.923292160034179688e+00 3.158187627792358398e+00 -8.964642882347106934e-01
2.067000000000000000e+03 7.372703552246093750e+01 -2.111247825622558594e+01 5.423114299774169922e-01 1.015834426879882812e+01 3.210196733474731445e+00 -6.426097750663757324e-01
2.068000000000000000e+03 5.087320327758789062e+01 4.839387416839599609e+00 -3.454512655735015869e-01 5.083220601081848145e-01 4.886123910546302795e-02 5.451850891113281250e-01
2.069000000000000000e+03 2.841376495361328125e+01 -1.389715385437011719e+01 -1.176419854164123535e-01 2.303035259246826172e-01 3.379845991730690002e-02 -5.557263493537902832e-01
2.070000000000000000e+03 2.750038146972656250e+01 -1.460892868041992188e+01 -8.838766217231750488e-01 1.322468221187591553e-01 -2.254889309406280518e-01 -3.305525779724121094e-01
2.071000000000000000e+03 4.492939376831054688e+01 6.054088115692138672e+00 1.155625700950622559e+00 4.815761566162109375e+00 1.791416287422180176e+00 2.821943759918212891e+00
2.072000000000000000e+03 4.258422851562500000e+01 5.169583797454833984e+00 3.317398428916931152e-01 7.900876522064208984e+00 2.469784975051879883e+00 3.090093612670898438e+00
2.073000000000000000e+03 5.460892105102539062e+01 7.096068859100341797e+00 6.455217599868774414e-01 1.000702738761901855e+00 4.938673377037048340e-01 5.838592071086168289e-03
2.074000000000000000e+03 7.154977416992187500e+01 -1.281678295135498047e+01 9.280305504798889160e-01 1.089425849914550781e+01 3.546686649322509766e+00 -1.982575505971908569e-01
2.075000000000000000e+03 7.246460723876953125e+01 -1.132661914825439453e+01 4.665638506412506104e-01 9.846011161804199219e+00 3.093772649765014648e+00 2.404360026121139526e-01
2.076000000000000000e+03 1.337915706634521484e+01 3.537239074707031250e+01 -1.210556387901306152e+00 2.254476308822631836e+00 3.131760060787200928e-01 -5.965070724487304688e-01
2.077000000000000000e+03 8.551130294799804688e+00 2.173341560363769531e+01 4.895466268062591553e-01 2.776320219039916992e+00 9.797600507736206055e-01 -1.360350251197814941e+00
2.078000000000000000e+03 3.970575332641601562e+01 -4.738604545593261719e+00 1.571796655654907227e+00 1.088385868072509766e+01 3.736696720123291016e+00 1.827455759048461914e+00
2.079000000000000000e+03 2.889628410339355469e+01 -7.529694080352783203e+00 3.292159318923950195e+00 8.051322698593139648e-01 1.229187488555908203e+00 -1.850906729698181152e+00
2.080000000000000000e+03 3.086853599548339844e+01 -7.056563854217529297e+00 3.452871084213256836e+00 1.104097962379455566e+00 1.367090702056884766e+00 -1.575165390968322754e+00
2.081000000000000000e+03 1.100308609008789062e+01 1.411199760437011719e+01 1.159157156944274902e+00 3.887117147445678711e+00 1.513882279396057129e+00 -1.078327178955078125e+00
2.082000000000000000e+03 3.373791503906250000e+01 -4.510346889495849609e+00 3.002532005310058594e+00 2.017428398132324219e+00 1.505988121032714844e+00 -1.687453985214233398e-01
2.083000000000000000e+03 3.834138870239257812e+01 -5.892732143402099609e+00 2.085790157318115234e+00 8.940013885498046875e+00 3.307741165161132812e+00 9.807498455047607422e-01
2.084000000000000000e+03 1.100345325469970703e+01 2.023266792297363281e+01 7.411335706710815430e-01 4.313930988311767578e+00 1.516519308090209961e+00 -1.283437371253967285e+00
2.085000000000000000e+03 7.148474693298339844e+00 1.761973571777343750e+01 6.709099411964416504e-01 1.780298948287963867e+00 7.353626489639282227e-01 -9.339661598205566406e-01
2.086000000000000000e+03 3.889370727539062500e+01 -3.183995723724365234e+00 1.385320186614990234e+00 8.905076026916503906e+00 3.087118625640869141e+00 1.620104312896728516e+00
2.087000000000000000e+03 3.842856597900390625e+01 -3.001407623291015625e+01 -3.525542318820953369e-01 6.943089485168457031e+00 1.977160573005676270e+00 -6.931543350219726562e-01
2.088000000000000000e+03 7.418342590332031250e+01 -1.509693717956542969e+01 7.043060064315795898e-01 9.394606590270996094e+00 3.029673814773559570e+00 1.239804085344076157e-02
2.089000000000000000e+03 7.107425689697265625e+01 -3.221020889282226562e+01 -9.134422540664672852e-01 8.025526046752929688e+00 2.133625030517578125e+00 -3.440307378768920898e-01
2.090000000000000000e+03 4.140432357788085938e+01 3.726198959350585938e+01 -1.619285583496093750e+00 2.093347072601318359e+00 1.422184854745864868e-01 1.437340080738067627e-01
2.091000000000000000e+03 3.297413635253906250e+01 -6.201169967651367188e+00 3.385731458663940430e+00 1.979974985122680664e+00 1.609712004661560059e+00 -8.620317578315734863e-01
2.092000000000000000e+03 6.682245254516601562e+00 1.210418415069580078e+01 6.926803588867187500e-01 8.523388504981994629e-01 4.635057747364044189e-01 -1.263076812028884888e-01
2.093000000000000000e+03 2.695583343505859375e+01 -1.226977348327636719e+01 6.934725642204284668e-01 4.645395278930664062e-01 3.474036157131195068e-01 -7.431366443634033203e-01
2.094000000000000000e+03 2.407599258422851562e+01 -1.304420661926269531e+01 -3.974421918392181396e-01 7.162486910820007324e-01 9.564194828271865845e-02 -1.539318859577178955e-01
2.095000000000000000e+03 3.909731292724609375e+01 -3.189927864074707031e+01 -8.653057813644409180e-01 6.178929805755615234e+00 1.594087243080139160e+00 -7.078500986099243164e-01
2.096000000000000000e+03 7.159769439697265625e+01 4.098175048828125000e+01 -4.769342020153999329e-02 5.981765747070312500e+00 1.780221581459045410e+00 2.028929255902767181e-02
2.097000000000000000e+03 7.488181304931640625e+01 3.642591857910156250e+01 -1.904541254043579102e-02 6.280918598175048828e+00 1.878561973571777344e+00 5.226638168096542358e-02
2.098000000000000000e+03 8.417141914367675781e+00 1.654442787170410156e+01 8.258790373802185059e-01 2.430117607116699219e+00 9.767990112304687500e-01 -9.324304461479187012e-01
2.099000000000000000e+03 1.137562179565429688e+01 2.176762199401855469e+01 6.021830439567565918e-01 4.484280586242675781e+00 1.525939106941223145e+00 -1.248580574989318848e+00
2.100000000000000000e+03 3.913795471191406250e+01 -2.436363792419433594e+01 1.239004135131835938e+00 8.553540229797363281e+00 2.937763452529907227e+00 -3.435480296611785889e-01
2.101000000000000000e+03 3.864099502563476562e+01 -2.690318107604980469e+01 1.019607663154602051e+00 7.889431476593017578e+00 2.672711610794067383e+00 -5.321978330612182617e-01
2.102000000000000000e+03 4.713578796386718750e+01 3.049738121032714844e+01 -2.771341800689697266e-01 3.966360569000244141e+00 1.106767892837524414e+00 8.144023418426513672e-01
2.103000000000000000e+03 4.748047637939453125e+01 3.294643020629882812e+01 -6.569868922233581543e-01 3.880841970443725586e+00 9.671565294265747070e-01 7.248966097831726074e-01
2.104000000000000000e+03 5.639508724212646484e+00 -3.449675750732421875e+01 -4.112249910831451416e-01 2.205808401107788086e+00 5.383750200271606445e-01 -7.558312267065048218e-02
2.105000000000000000e+03 7.005443572998046875e+01 -5.897022724151611328e+00 -3.086751997470855713e-01 8.182225227355957031e+00 2.362065076828002930e+00 -4.865047633647918701e-01
2.106000000000000000e+03 1.125578117370605469e+01 2.801948928833007812e+01 -2.536492645740509033e-01 3.327510595321655273e+00 9.221583604812622070e-01 -1.292477250099182129e+00
2.107000000000000000e+03 6.967245483398437500e+01 -3.249234390258789062e+01 -1.174847960472106934e+00 7.327818870544433594e+00 1.845891237258911133e+00 2.578623294830322266e-01
2.108000000000000000e+03 9.389906883239746094e+00 3.059264564514160156e+01 -4.962387979030609131e-01 2.814166069030761719e+00 6.953782439231872559e-01 -1.357099413871765137e+00
2.109000000000000000e+03 1.187446880340576172e+01 2.472597312927246094e+01 2.972497642040252686e-01 4.169295787811279297e+00 1.339963555335998535e+00 -1.149431705474853516e+00
2.110000000000000000e+03 1.013311481475830078e+01 2.231337356567382812e+01 5.338273644447326660e-01 3.622237443923950195e+00 1.246819496154785156e+00 -1.389409661293029785e+00
2.111000000000000000e+03 6.571570587158203125e+01 1.140446782112121582e+00 -1.129993915557861328e+00 4.729249954223632812e+00 1.079776763916015625e+00 -1.331951737403869629e+00
2.112000000000000000e+03 6.493981933593750000e+01 2.267524242401123047e+00 -1.016300082206726074e+00 4.180491924285888672e+00 9.492575526237487793e-01 -1.441059112548828125e+00
2.113000000000000000e+03 1.318708038330078125e+01 3.797060012817382812e+01 -1.239447832107543945e+00 2.082580089569091797e+00 2.529396712779998779e-01 -3.707999885082244873e-01
2.114000000000000000e+03 1.486560153961181641e+01 -3.698700332641601562e+01 -3.867920041084289551e-01 -4.923036098480224609e-01 -2.637286782264709473e-01 3.970872759819030762e-01
2.115000000000000000e+03 1.324449825286865234e+01 3.062071990966796875e+01 -6.982000470161437988e-01 2.928024053573608398e+00 6.689471602439880371e-01 -8.430155515670776367e-01
2.116000000000000000e+03 7.626026153564453125e+00 2.929094886779785156e+01 -2.521131634712219238e-01 2.574766874313354492e+00 6.967961192131042480e-01 -1.459220647811889648e+00
2.117000000000000000e+03 2.753969573974609375e+01 -4.142155456542968750e+01 -7.276517748832702637e-01 1.552010297775268555e+00 2.473075389862060547e-01 1.207093819975852966e-01
2.118000000000000000e+03 3.217066574096679688e+01 -4.140612411499023438e+01 -1.432906270027160645e+00 3.444536447525024414e+00 6.034891009330749512e-01 1.663683056831359863e-01
2.119000000000000000e+03 1.638650703430175781e+01 -3.181556463241577148e+00 3.359226942062377930e+00 9.939674735069274902e-01 1.305958390235900879e+00 1.629475593566894531e+00
2.120000000000000000e+03 1.768763160705566406e+01 -2.924391031265258789e+00 3.976149797439575195e+00 3.295260906219482422e+00 2.181423187255859375e+00 2.750036001205444336e+00
2.121000000000000000e+03 1.732575798034667969e+01 -2.824776887893676758e+00 4.012948036193847656e+00 2.101697683334350586e+00 1.834393739700317383e+00 2.266031026840209961e+00
2.122000000000000000e+03 1.761138534545898438e+01 -3.796819210052490234e+00 3.026937007904052734e+00 3.420323610305786133e+00 1.934178233146667480e+00 2.342590093612670898e+00
2.123000000000000000e+03 1.689922332763671875e+01 -2.984379529953002930e+00 3.688443183898925781e+00 1.449486255645751953e+00 1.541378736495971680e+00 1.911564469337463379e+00
2.124000000000000000e+03 1.811755371093750000e+01 -3.441786527633666992e+00 3.035694837570190430e+00 4.882921695709228516e+00 2.375585079193115234e+00 2.475085258483886719e+00
2.125000000000000000e+03 1.470564365386962891e+01 -3.848092317581176758e+00 2.352954149246215820e+00 3.146824240684509277e-01 8.002909421920776367e-01 1.197661995887756348e+00
2.126000000000000000e+03 1.930902671813964844e+01 -3.485580921173095703e+00 2.290668010711669922e+00 7.740989685058593750e+00 3.009497404098510742e+00 3.668811917304992676e-01
2.127000000000000000e+03 1.978227806091308594e+01 -3.177965641021728516e+00 2.770930290222167969e+00 8.646117210388183594e+00 3.425114393234252930e+00 -1.158519268035888672e+00
2.128000000000000000e+03 1.961877441406250000e+01 -3.764175891876220703e+00 2.277694702148437500e+00 7.259047508239746094e+00 2.861022710800170898e+00 -2.794225513935089111e-01
2.129000000000000000e+03 2.076681137084960938e+01 -3.177129983901977539e+00 3.954441308975219727e+00 6.689971446990966797e+00 3.193323850631713867e+00 -2.887843847274780273e+00
2.130000000000000000e+03 2.186484146118164062e+01 -2.911896705627441406e+00 5.168512344360351562e+00 3.967309474945068359e+00 2.740746498107910156e+00 -3.247493028640747070e+00
2.131000000000000000e+03 1.822461700439453125e+01 1.257030725479125977e+00 4.411975741386413574e-01 7.641991138458251953e+00 2.424956560134887695e+00 -5.068387985229492188e+00
2.132000000000000000e+03 1.691430854797363281e+01 3.571262121200561523e+00 4.448145627975463867e-01 5.324530601501464844e+00 1.730803489685058594e+00 -3.086933612823486328e+00
2.133000000000000000e+03 2.151658821105957031e+01 -2.294409751892089844e+00 6.127773284912109375e+00 4.657998085021972656e+00 3.235731363296508789e+00 -3.683071613311767578e+00
2.134000000000000000e+03 1.326972198486328125e+01 -4.343409538269042969e+00 1.804708003997802734e+00 1.695060878992080688e-01 5.922642350196838379e-01 1.109886050224304199e+00
2.135000000000000000e+03 1.584083080291748047e+01 -4.051772594451904297e+00 2.778434753417968750e+00 9.582628607749938965e-01 1.121009349822998047e+00 1.681983113288879395e+00
2.136000000000000000e+03 2.159188270568847656e+01 -1.469988465309143066e+00 6.870149135589599609e+00 3.958768129348754883e+00 3.248675346374511719e+00 -3.303940296173095703e+00
2.137000000000000000e+03 2.159967803955078125e+01 -1.886142969131469727e+00 6.731065273284912109e+00 4.239699840545654297e+00 3.291229486465454102e+00 -3.591484546661376953e+00
2.138000000000000000e+03 9.579362869262695312e+00 -5.292750358581542969e+00 7.320619225502014160e-01 2.884018421173095703e-01 3.061391413211822510e-01 8.559088110923767090e-01
2.139000000000000000e+03 1.025011825561523438e+01 -5.226887226104736328e+00 8.914803862571716309e-01 2.572801709175109863e-01 3.446281850337982178e-01 9.426649212837219238e-01
2.140000000000000000e+03 1.786724472045898438e+01 2.913933515548706055e+00 -4.989462345838546753e-02 6.724986076354980469e+00 2.002527475357055664e+00 -3.571964740753173828e+00
2.141000000000000000e+03 8.172138214111328125e+00 -4.745474338531494141e+00 4.912867844104766846e-01 2.497489601373672485e-01 2.223107218742370605e-01 5.597420334815979004e-01
2.142000000000000000e+03 8.913633346557617188e+00 -5.357160568237304688e+00 5.996156334877014160e-01 3.211823105812072754e-01 2.762393951416015625e-01 7.656280398368835449e-01
2.143000000000000000e+03 1.408110427856445312e+01 -4.591391563415527344e+00 2.074391841888427734e+00 3.453400433063507080e-01 7.259195446968078613e-01 1.340970873832702637e+00
2.144000000000000000e+03 1.215674877166748047e+01 -4.411844730377197266e+00 1.420948624610900879e+00 1.207916289567947388e-01 4.625220894813537598e-01 9.654340744018554688e-01
2.145000000000000000e+03 1.218956184387207031e+01 -4.996780872344970703e+00 1.420285701751708984e+00 1.970440894365310669e-01 4.851989448070526123e-01 1.146744847297668457e+00
2.146000000000000000e+03 7.486654281616210938e+00 -4.861311435699462891e+00 3.886590301990509033e-01 2.715303003787994385e-01 1.980568021535873413e-01 5.000513792037963867e-01
2.147000000000000000e+03 8.264483451843261719e+00 -5.417638778686523438e+00 4.838463366031646729e-01 3.368853628635406494e-01 2.462195158004760742e-01 6.804323792457580566e-01
2.148000000000000000e+03 1.475010585784912109e+01 6.714131355285644531e+00 1.297682523727416992e+00 4.190254211425781250e+00 1.646381020545959473e+00 -1.969386935234069824e+00
2.149000000000000000e+03 1.493853092193603516e+01 4.009198665618896484e+00 6.702513694763183594e-01 3.083947181701660156e+00 1.126259565353393555e+00 -1.971014857292175293e+00
2.150000000000000000e+03 5.661641120910644531e+00 6.738223552703857422e+00 2.997352182865142822e-01 -5.470513924956321716e-02 7.350902259349822998e-02 7.040718197822570801e-01
2.151000000000000000e+03 1.402993583679199219e+01 5.211071491241455078e+00 9.614447951316833496e-01 2.952912807464599609e+00 1.174307227134704590e+00 -1.534898161888122559e+00
2.152000000000000000e+03 5.750474929809570312e+00 5.875759124755859375e+00 1.662507951259613037e-01 -6.957923620939254761e-02 2.900146879255771637e-02 7.630429863929748535e-01
2.153000000000000000e+03 7.648238182067871094e+00 -5.479616641998291016e+00 3.943861722946166992e-01 3.585983216762542725e-01 2.258953452110290527e-01 5.963126420974731445e-01
2.154000000000000000e+03 1.276295757293701172e+01 -4.902317523956298828e+00 1.600760579109191895e+00 2.161792516708374023e-01 5.450819134712219238e-01 1.207981705665588379e+00
2.155000000000000000e+03 1.156532478332519531e+01 -5.078865528106689453e+00 1.237073779106140137e+00 2.072170972824096680e-01 4.332872629165649414e-01 1.086447834968566895e+00
2.156000000000000000e+03 6.600554943084716797e+00 5.883946895599365234e+00 2.416017949581146240e-01 8.165851980447769165e-02 9.697809070348739624e-02 7.146139740943908691e-01
2.157000000000000000e+03 9.210488319396972656e+00 4.944752693176269531e+00 2.522371411323547363e-01 4.746831953525543213e-01 2.180761098861694336e-01 4.097354710102081299e-01
2.158000000000000000e+03 8.324925422668457031e+00 5.840925216674804688e+00 3.902531862258911133e-01 4.602625668048858643e-01 2.551547288894653320e-01 4.882059693336486816e-01
2.159000000000000000e+03 1.293157768249511719e+01 5.009550094604492188e+00 8.043375015258789062e-01 2.002562046051025391e+00 8.420698642730712891e-01 -9.684960246086120605e-01
2.160000000000000000e+03 1.468713855743408203e+01 4.830580711364746094e+00 9.225400090217590332e-01 3.362269639968872070e+00 1.285442829132080078e+00 -1.844189763069152832e+00
2.161000000000000000e+03 1.474473094940185547e+01 3.559375762939453125e+00 5.637933611869812012e-01 2.579074621200561523e+00 9.428603649139404297e-01 -1.821810722351074219e+00
2.162000000000000000e+03 2.413365554809570312e+01 -4.594962596893310547e+00 4.221908569335937500e+00 1.879727721214294434e+00 1.830490827560424805e+00 -2.158916711807250977e+00
2.163000000000000000e+03 2.332887840270996094e+01 -1.106775188446044922e+01 5.480253100395202637e-01 1.165869832038879395e+00 5.141685605049133301e-01 -4.630456268787384033e-01
2.164000000000000000e+03 2.631408500671386719e+01 -6.519103050231933594e+00 3.343420982360839844e+00 1.204257249832153320e+00 1.364303469657897949e+00 -1.917938470840454102e+00
2.165000000000000000e+03 1.009638786315917969e+01 4.878204822540283203e+00 3.464701473712921143e-01 7.035626769065856934e-01 3.150098323822021484e-01 1.739747226238250732e-01
2.166000000000000000e+03 1.184692668914794922e+01 4.571289062500000000e+00 4.787915945053100586e-01 1.188936352729797363e+00 5.003183484077453613e-01 -3.983073830604553223e-01
2.167000000000000000e+03 1.315746212005615234e+01 -1.156107234954833984e+01 2.944669127464294434e-01 5.986635684967041016e-01 2.679391503334045410e-01 2.253345966339111328e+00
2.168000000000000000e+03 2.390867424011230469e+01 -1.406407451629638672e+01 -1.011487603187561035e+00 6.061615943908691406e-01 -1.215978041291236877e-01 -2.537659928202629089e-02
2.169000000000000000e+03 2.099173736572265625e+01 -1.283931827545166016e+01 -6.820852160453796387e-01 9.746797084808349609e-01 8.777834475040435791e-02 2.975140810012817383e-01
2.170000000000000000e+03 1.114269161224365234e+01 5.650961875915527344e+00 7.267698645591735840e-01 1.350529432296752930e+00 6.231898069381713867e-01 -3.008796572685241699e-01
2.171000000000000000e+03 1.210478115081787109e+01 5.406568527221679688e+00 7.872790098190307617e-01 1.705578327178955078e+00 7.478572130203247070e-01 -6.396594047546386719e-01
2.172000000000000000e+03 1.262598419189453125e+01 6.198278427124023438e+00 1.012208104133605957e+00 2.298249959945678711e+00 9.931374192237854004e-01 -9.491605758666992188e-01
2.173000000000000000e+03 8.221930503845214844e+00 -1.303312683105468750e+01 -3.812264800071716309e-01 2.604400157928466797e+00 6.669521331787109375e-01 1.600969076156616211e+00
2.174000000000000000e+03 9.202521324157714844e+00 -1.262495708465576172e+01 -3.380189538002014160e-01 2.327744960784912109e+00 5.969177484512329102e-01 2.018280029296875000e+00
2.175000000000000000e+03 1.710148239135742188e+01 2.811249732971191406e+00 3.276806771755218506e-01 5.284899711608886719e+00 1.683774113655090332e+00 -3.419252157211303711e+00
2.176000000000000000e+03 1.026648139953613281e+01 -1.162903022766113281e+01 -3.356251493096351624e-02 1.448159813880920410e+00 4.243791997432708740e-01 2.203138589859008789e+00
2.177000000000000000e+03 2.218005180358886719e+01 -3.294853448867797852e+00 4.885303974151611328e+00 3.495015144348144531e+00 2.514095783233642578e+00 -3.073303461074829102e+00
2.178000000000000000e+03 1.243493843078613281e+01 1.081219577789306641e+01 1.316335082054138184e+00 4.053505420684814453e+00 1.610952138900756836e+00 -1.296219110488891602e+00
2.179000000000000000e+03 9.217555046081542969e+00 7.581954479217529297e+00 8.314626216888427734e-01 1.149462342262268066e+00 5.942775011062622070e-01 4.526538029313087463e-02
2.180000000000000000e+03 1.124658489227294922e+01 -1.084800148010253906e+01 2.314036488533020020e-01 1.009623289108276367e+00 3.723080754280090332e-01 2.180392503738403320e+00
2.181000000000000000e+03 1.522587966918945312e+01 -1.136702823638916016e+01 2.353887110948562622e-01 4.635376930236816406e-01 2.096779197454452515e-01 1.783998012542724609e+00
2.182000000000000000e+03 7.372579193115234375e+01 -1.247327709197998047e+01 5.502364635467529297e-01 9.342484474182128906e+00 2.967816352844238281e+00 3.786331713199615479e-01
2.183000000000000000e+03 6.013716125488281250e+01 4.524693012237548828e+00 -4.326963126659393311e-01 1.760322093963623047e+00 3.982877135276794434e-01 -1.077248454093933105e+00
2.184000000000000000e+03 1.446967124938964844e+01 5.706873416900634766e+00 1.081240892410278320e+00 3.509394168853759766e+00 1.377190589904785156e+00 -1.775730252265930176e+00
2.185000000000000000e+03 2.071112442016601562e+01 -1.379777717590332031e+01 -1.147922396659851074e+00 7.965384125709533691e-01 -1.054151952266693115e-01 4.125728309154510498e-01
2.186000000000000000e+03 2.124041366577148438e+01 -1.192434787750244141e+01 -2.016119509935379028e-01 1.171186327934265137e+00 2.908723056316375732e-01 1.889525055885314941e-01
2.187000000000000000e+03 5.142516613006591797e+00 -6.873886585235595703e+00 5.960438773036003113e-02 5.094543695449829102e-01 1.707176268100738525e-01 3.345738351345062256e-01
2.188000000000000000e+03 1.069965457916259766e+01 2.510903739929199219e+01 2.101027518510818481e-01 3.604341983795166016e+00 1.144333362579345703e+00 -1.379906773567199707e+00
2.189000000000000000e+03 1.367069435119628906e+01 -1.252994728088378906e+01 5.384733900427818298e-02 1.526269465684890747e-01 6.194228678941726685e-02 2.068585872650146484e+00
2.190000000000000000e+03 1.127473068237304688e+01 -1.180001068115234375e+01 1.018529981374740601e-01 9.940865039825439453e-01 3.287818431854248047e-01 2.328971624374389648e+00
2.191000000000000000e+03 2.773933410644531250e+01 -7.518839359283447266e+00 3.171380281448364258e+00 8.729268312454223633e-01 1.213292121887207031e+00 -1.883302330970764160e+00
2.192000000000000000e+03 5.386771392822265625e+01 6.138510227203369141e+00 2.591645717620849609e-01 7.918195724487304688e-01 3.152952492237091064e-01 8.868685364723205566e-02
2.193000000000000000e+03 5.574039840698242188e+01 4.380066871643066406e+00 -6.576488614082336426e-01 6.322996616363525391e-01 -7.604764308780431747e-03 -2.389223873615264893e-01
2.194000000000000000e+03 8.337100982666015625e+00 1.539705181121826172e+01 8.747016787528991699e-01 2.260998964309692383e+00 9.407101869583129883e-01 -8.050202727317810059e-01
2.195000000000000000e+03 4.735083770751953125e+01 2.462699508666992188e+01 4.484092295169830322e-01 4.439231872558593750e+00 1.466292381286621094e+00 9.751303791999816895e-01
2.196000000000000000e+03 4.643957901000976562e+01 2.394471931457519531e+01 4.272003173828125000e-01 4.628052711486816406e+00 1.516575932502746582e+00 9.170164465904235840e-01
2.197000000000000000e+03 4.203968429565429688e+01 3.410971879959106445e+00 -6.736874580383300781e-01 9.169342041015625000e+00 2.548696279525756836e+00 2.597952365875244141e+00
2.198000000000000000e+03 8.879753112792968750e+00 2.890103530883789062e+01 -2.803345024585723877e-01 2.801091194152832031e+00 7.562270164489746094e-01 -1.478073000907897949e+00
2.199000000000000000e+03 3.769007110595703125e+01 -1.830385208129882812e+01 -4.734498262405395508e-01 1.076771640777587891e+01 3.088279962539672852e+00 5.273894667625427246e-01
2.200000000000000000e+03 4.180193328857421875e+01 -2.396561050415039062e+01 8.085788488388061523e-01 6.002241611480712891e+00 2.043246269226074219e+00 -1.099095106124877930e+00
2.201000000000000000e+03 4.860017395019531250e+01 5.835751533508300781e+00 7.946829199790954590e-01 1.156745910644531250e+00 5.854286551475524902e-01 1.499055624008178711e+00
2.202000000000000000e+03 7.148250579833984375e+01 2.536710929870605469e+01 2.054554373025894165e-01 5.760159969329833984e+00 1.789684653282165527e+00 -9.170630574226379395e-02
2.203000000000000000e+03 7.206337738037109375e+01 1.650748825073242188e+01 2.300790548324584961e-01 5.906279087066650391e+00 1.840907454490661621e+00 -5.530284643173217773e-01
2.204000000000000000e+03 7.341806793212890625e+01 1.578258991241455078e+01 1.563778519630432129e-01 6.245915412902832031e+00 1.920688033103942871e+00 -5.246059894561767578e-01
2.205000000000000000e+03 7.450828552246093750e+01 -2.366143417358398438e+01 5.361783504486083984e-01 9.535306930541992188e+00 3.021445512771606445e+00 -9.608392119407653809e-01
2.206000000000000000e+03 3.409591293334960938e+01 -1.422976016998291016e+01 1.287263184785842896e-01 4.777597904205322266e+00 1.471897363662719727e+00 -1.729893684387207031e+00
2.207000000000000000e+03 6.775790405273437500e+01 -5.582439303398132324e-01 -1.082817077636718750e+00 6.063913345336914062e+00 1.494328856468200684e+00 -9.180923104286193848e-01
2.208000000000000000e+03 7.143299865722656250e+01 9.858035087585449219e+00 -2.249417640268802643e-02 6.082122325897216797e+00 1.817888498306274414e+00 -8.363173604011535645e-01
2.209000000000000000e+03 7.258821105957031250e+01 7.811332225799560547e+00 -1.594991236925125122e-01 6.544430732727050781e+00 1.915479540824890137e+00 -7.434822320938110352e-01
2.210000000000000000e+03 7.266268920898437500e+01 -7.714464664459228516e+00 -1.591037064790725708e-01 8.818426132202148438e+00 2.597796678543090820e+00 3.685568571090698242e-01
2.211000000000000000e+03 6.861893463134765625e+01 3.632927656173706055e+00 -7.117288112640380859e-01 5.755535125732421875e+00 1.513141870498657227e+00 -1.042276024818420410e+00
2.212000000000000000e+03 7.233914947509765625e+01 2.563417673110961914e+00 -5.418132543563842773e-01 7.038008213043212891e+00 1.948858499526977539e+00 -4.708460867404937744e-01
2.213000000000000000e+03 7.488549041748046875e+01 -1.595012474060058594e+01 6.134970784187316895e-01 8.985808372497558594e+00 2.879791736602783203e+00 -6.701566278934478760e-02
2.214000000000000000e+03 1.190394115447998047e+01 3.296413040161132812e+01 -9.117399454116821289e-01 2.655893087387084961e+00 5.232459306716918945e-01 -9.247752428054809570e-01
2.215000000000000000e+03 6.212894916534423828e+00 3.422473144531250000e+01 -4.123457372188568115e-01 2.672671794891357422e+00 6.780977845191955566e-01 -9.699264168739318848e-01
2.216000000000000000e+03 7.464739990234375000e+01 -1.104955673217773438e+01 2.483990788459777832e-01 8.650379180908203125e+00 2.669633626937866211e+00 6.342051625251770020e-01
2.217000000000000000e+03 7.480295562744140625e+01 -1.233497810363769531e+01 4.093965291976928711e-01 8.683507919311523438e+00 2.727871417999267578e+00 5.630105137825012207e-01
2.218000000000000000e+03 7.113357543945312500e+01 -4.858221054077148438e+00 -4.719079434871673584e-01 8.092483520507812500e+00 2.286172628402709961e+00 -7.082815468311309814e-02
2.219000000000000000e+03 3.985771179199218750e+01 -2.963257408142089844e+01 -1.057552620768547058e-01 6.438511848449707031e+00 1.899826884269714355e+00 -1.027160167694091797e+00
2.220000000000000000e+03 4.465256881713867188e+01 -2.681914138793945312e+01 5.363234877586364746e-01 3.209422349929809570e+00 1.123723745346069336e+00 -1.415577054023742676e+00
2.221000000000000000e+03 7.439468383789062500e+01 -1.915483236312866211e+00 -4.028074145317077637e-01 7.946554183959960938e+00 2.263123989105224609e+00 2.518647611141204834e-01
2.222000000000000000e+03 7.229286956787109375e+01 -8.298473805189132690e-02 -6.616774797439575195e-01 7.416491985321044922e+00 2.026444196701049805e+00 -1.874071806669235229e-01
2.223000000000000000e+03 7.438468933105468750e+01 5.033898830413818359e+00 -2.347908914089202881e-01 7.301032066345214844e+00 2.119872331619262695e+00 -4.525041878223419189e-01
2.224000000000000000e+03 7.437913513183593750e+01 -6.271668076515197754e-01 -4.153004586696624756e-01 7.829316139221191406e+00 2.224204778671264648e+00 9.772921353578567505e-02
2.225000000000000000e+03 6.902136993408203125e+01 -3.447494506835937500e+00 -6.179082393646240234e-01 7.138963222503662109e+00 1.956316590309143066e+00 -5.277179479598999023e-01
2.226000000000000000e+03 7.422840881347656250e+01 1.198602676391601562e+01 4.927637428045272827e-02 6.652655601501464844e+00 2.010579586029052734e+00 -6.036576628684997559e-01
2.227000000000000000e+03 4.133877182006835938e+01 -2.495799827575683594e+01 8.778234124183654785e-01 6.208617687225341797e+00 2.125932216644287109e+00 -9.826506972312927246e-01
2.228000000000000000e+03 4.054595565795898438e+01 -2.547737693786621094e+01 9.424376487731933594e-01 6.746562004089355469e+00 2.306699752807617188e+00 -9.564485549926757812e-01
2.229000000000000000e+03 7.425179004669189453e+00 -1.074161434173583984e+01 -2.807012796401977539e-01 1.703099846839904785e+00 4.267195761203765869e-01 1.137314319610595703e+00
2.230000000000000000e+03 7.351123046875000000e+01 2.742331314086914062e+01 9.076271206140518188e-02 6.074200630187988281e+00 1.849489092826843262e+00 -4.131748154759407043e-02
2.231000000000000000e+03 6.168540954589843750e+00 -8.341445922851562500e+00 -2.836476452648639679e-02 8.943117856979370117e-01 2.597841024398803711e-01 6.043415069580078125e-01
2.232000000000000000e+03 5.160758018493652344e+00 -9.482586860656738281e+00 -1.834764480590820312e-01 1.032562255859375000e+00 2.547257244586944580e-01 4.047743380069732666e-01
2.233000000000000000e+03 7.806853294372558594e+00 2.339508247375488281e+01 3.202526569366455078e-01 2.461084127426147461e+00 8.344010114669799805e-01 -1.455318331718444824e+00
2.234000000000000000e+03 5.850636005401611328e+00 2.664306831359863281e+01 -3.080290043726563454e-03 1.977430582046508789e+00 5.923051238059997559e-01 -1.409822225570678711e+00
2.235000000000000000e+03 3.778775787353515625e+01 -9.041475296020507812e+00 1.956308484077453613e+00 9.014561653137207031e+00 3.291260957717895508e+00 -1.052313223481178284e-01
2.236000000000000000e+03 3.466560363769531250e+01 -1.234155654907226562e+01 1.206367254257202148e+00 5.364983081817626953e+00 1.971405148506164551e+00 -1.420186281204223633e+00
2.237000000000000000e+03 7.365010833740234375e+01 -3.474126434326171875e+01 -7.012813687324523926e-01 8.439956665039062500e+00 2.321602821350097656e+00 -5.585314631462097168e-01
2.238000000000000000e+03 5.727910041809082031e+00 1.547593879699707031e+01 5.211134552955627441e-01 7.348361611366271973e-01 3.767848908901214600e-01 -5.069711804389953613e-01
2.239000000000000000e+03 7.070799350738525391e+00 1.658811569213867188e+01 6.402187943458557129e-01 1.570476174354553223e+00 6.632084846496582031e-01 -7.774367928504943848e-01
2.240000000000000000e+03 7.082117080688476562e+00 1.411163806915283203e+01 7.399387359619140625e-01 1.321958184242248535e+00 6.185690760612487793e-01 -4.410723745822906494e-01
2.241000000000000000e+03 5.536898136138916016e+00 1.259451675415039062e+01 5.310549736022949219e-01 3.547463715076446533e-01 2.657403945922851562e-01 -7.344114780426025391e-02
2.242000000000000000e+03 6.566717624664306641e+00 1.907586479187011719e+01 5.232241749763488770e-01 1.569399833679199219e+00 6.277871727943420410e-01 -1.034949541091918945e+00
2.243000000000000000e+03 8.245351791381835938e+00 8.604790687561035156e+00 8.082795739173889160e-01 1.004211783409118652e+00 5.437474250793457031e-01 1.375714242458343506e-01
2.244000000000000000e+03 3.940544509887695312e+01 -2.554199409484863281e+01 1.224500894546508789e+00 7.539856910705566406e+00 2.629307270050048828e+00 -5.720893740653991699e-01
2.245000000000000000e+03 5.834069061279296875e+01 3.653072834014892578e+00 -7.783725261688232422e-01 9.725811481475830078e-01 5.826259776949882507e-02 -6.908942461013793945e-01
2.246000000000000000e+03 7.509538173675537109e+00 3.466037368774414062e+01 -5.401051044464111328e-01 2.684775352478027344e+00 6.434010863304138184e-01 -9.686703085899353027e-01
2.247000000000000000e+03 1.140433120727539062e+01 1.270240402221679688e+01 1.199972152709960938e+00 3.854471683502197266e+00 1.516333103179931641e+00 -1.096150159835815430e+00
2.248000000000000000e+03 6.356906890869140625e+00 7.706930637359619141e+00 4.555357396602630615e-01 1.958442479372024536e-01 1.954139918088912964e-01 5.443660616874694824e-01
2.249000000000000000e+03 6.218770503997802734e+00 8.705176353454589844e+00 5.421173572540283203e-01 2.442226856946945190e-01 2.359020113945007324e-01 4.326223134994506836e-01
2.250000000000000000e+03 1.150430107116699219e+01 8.882519721984863281e+00 1.233905315399169922e+00 2.601718187332153320e+00 1.150686979293823242e+00 -7.947960495948791504e-01
2.251000000000000000e+03 6.249917030334472656e+00 -7.163838863372802734e+00 9.959700703620910645e-02 6.250873208045959473e-01 2.174053043127059937e-01 5.402946472167968750e-01
2.252000000000000000e+03 4.001629257202148438e+01 1.224332571029663086e+00 -6.621717214584350586e-01 9.733007431030273438e+00 2.721250772476196289e+00 1.691717147827148438e+00
2.253000000000000000e+03 5.286794281005859375e+01 6.627231121063232422e+00 5.310588479042053223e-01 8.314276933670043945e-01 4.087459743022918701e-01 3.341260552406311035e-01
2.254000000000000000e+03 6.376263809204101562e+01 2.029890537261962891e+00 -1.054633140563964844e+00 3.452162981033325195e+00 7.192589640617370605e-01 -1.450170040130615234e+00
2.255000000000000000e+03 6.613364219665527344e+00 -6.255391120910644531e+00 2.160430699586868286e-01 4.938753247261047363e-01 2.129755169153213501e-01 5.215257406234741211e-01
2.256000000000000000e+03 8.295813560485839844e+00 6.732070922851562500e+00 5.716301798820495605e-01 6.238712668418884277e-01 3.586504161357879639e-01 3.821026384830474854e-01
2.257000000000000000e+03 8.314123153686523438e+00 1.437086677551269531e+01 9.062516689300537109e-01 2.050305128097534180e+00 8.869670033454895020e-01 -6.690906286239624023e-01
2.258000000000000000e+03 5.172473526000976562e+01 7.124395847320556641e+00 8.701964020729064941e-01 1.070196986198425293e+00 5.821179747581481934e-01 6.661112308502197266e-01
2.259000000000000000e+03 4.636115646362304688e+01 1.160917949676513672e+01 1.991958856582641602e+00 4.692809104919433594e+00 2.005430459976196289e+00 2.491791248321533203e+00
2.260000000000000000e+03 4.779347610473632812e+01 1.619499397277832031e+01 1.512792587280273438e+00 4.471838951110839844e+00 1.795389533042907715e+00 1.883696913719177246e+00
2.261000000000000000e+03 4.853649520874023438e+01 1.914335060119628906e+01 1.140819668769836426e+00 4.414622783660888672e+00 1.666632771492004395e+00 1.546814799308776855e+00
2.262000000000000000e+03 2.676892089843750000e+01 -1.369850158691406250e+01 -2.167188674211502075e-01 3.045779168605804443e-01 2.635771781206130981e-02 -3.775596320629119873e-01
2.263000000000000000e+03 2.650946044921875000e+01 -1.000967025756835938e+01 1.859947919845581055e+00 8.059398531913757324e-01 7.997663021087646484e-01 -1.256310939788818359e+00
2.264000000000000000e+03 4.719290924072265625e+01 9.790155410766601562e+00 1.964417695999145508e+00 3.621615409851074219e+00 1.675809860229492188e+00 2.322940826416015625e+00
2.265000000000000000e+03 9.705832481384277344e+00 2.103350257873535156e+01 6.305793523788452148e-01 3.363959550857543945e+00 1.198361635208129883e+00 -1.333512663841247559e+00
2.266000000000000000e+03 2.199699592590332031e+01 -1.294195270538330078e+01 -6.219289898872375488e-01 9.325918555259704590e-01 9.319886565208435059e-02 1.446135044097900391e-01
2.267000000000000000e+03 3.673215484619140625e+01 -1.110388851165771484e+01 1.513946533203125000e+00 7.872097492218017578e+00 2.815813302993774414e+00 -8.371537923812866211e-01
2.268000000000000000e+03 3.569435882568359375e+01 -1.178233718872070312e+01 1.362121224403381348e+00 6.413602352142333984e+00 2.332716941833496094e+00 -1.078462362289428711e+00
2.269000000000000000e+03 4.772343063354492188e+01 -3.445658111572265625e+01 -5.289244651794433594e-01 2.503547430038452148e+00 5.923869013786315918e-01 -1.011783123016357422e+00
2.270000000000000000e+03 1.043672847747802734e+01 2.368871116638183594e+01 3.899538516998291016e-01 3.677604675292968750e+00 1.220267534255981445e+00 -1.388747453689575195e+00
2.271000000000000000e+03 7.244210815429687500e+01 -8.864380836486816406e+00 -5.296504124999046326e-02 9.137709617614746094e+00 2.725423336029052734e+00 3.309689462184906006e-01
2.272000000000000000e+03 7.209535980224609375e+01 -4.619820117950439453e+00 -4.743874073028564453e-01 8.080883979797363281e+00 2.281948804855346680e+00 1.721204072237014771e-01
2.273000000000000000e+03 1.039913272857666016e+01 1.549077510833740234e+01 1.076074481010437012e+00 3.597913503646850586e+00 1.402196407318115234e+00 -1.047649025917053223e+00
2.274000000000000000e+03 7.519901752471923828e+00 1.294685363769531250e+01 7.845512628555297852e-01 1.366493225097656250e+00 6.453133225440979004e-01 -3.657281994819641113e-01
2.275000000000000000e+03 5.568995285034179688e+01 8.021547317504882812e+00 8.095421195030212402e-01 1.314932703971862793e+00 6.373424530029296875e-01 -1.340841352939605713e-01
2.276000000000000000e+03 4.540147018432617188e+01 7.392497539520263672e+00 1.567516803741455078e+00 4.564662456512451172e+00 1.839653730392456055e+00 2.803832292556762695e+00
2.277000000000000000e+03 4.706140518188476562e+01 7.961263656616210938e+00 1.700791478157043457e+00 3.327124595642089844e+00 1.508374810218811035e+00 2.338550567626953125e+00
2.278000000000000000e+03 8.061441421508789062e+00 2.461514091491699219e+01 2.122448682785034180e-01 2.588642835617065430e+00 8.402662873268127441e-01 -1.514083981513977051e+00
2.279000000000000000e+03 7.236913299560546875e+01 -1.006042575836181641e+01 2.078194767236709595e-01 9.472151756286621094e+00 2.903991460800170898e+00 3.062157928943634033e-01
2.280000000000000000e+03 3.803158569335937500e+01 -7.395181655883789062e+00 2.194260597229003906e+00 8.776630401611328125e+00 3.291267156600952148e+00 5.072886347770690918e-01
2.281000000000000000e+03 3.009451293945312500e+01 -1.225940132141113281e+01 1.499090552330017090e+00 9.271587133407592773e-01 7.278747558593750000e-01 -1.284223675727844238e+00
2.282000000000000000e+03 4.972492218017578125e+01 8.801681518554687500e+00 1.690981984138488770e+00 2.000611543655395508e+00 1.107478022575378418e+00 1.495471119880676270e+00
2.283000000000000000e+03 5.180756759643554688e+01 4.316307067871093750e+00 -6.688061952590942383e-01 4.240379631519317627e-01 -7.343047112226486206e-02 3.758301436901092529e-01
2.284000000000000000e+03 4.693257904052734375e+01 2.836977005004882812e+01 8.157999813556671143e-02 4.094384193420410156e+00 1.252789258956909180e+00 8.327072858810424805e-01
2.285000000000000000e+03 1.156321907043457031e+01 2.947722816467285156e+01 -5.116055607795715332e-01 3.127338409423828125e+00 7.847198247909545898e-01 -1.191017150878906250e+00
2.286000000000000000e+03 1.241341972351074219e+01 3.149399948120117188e+01 -8.209118843078613281e-01 2.831990242004394531e+00 6.033235192298889160e-01 -9.758629202842712402e-01
2.287000000000000000e+03 6.816764831542968750e+01 -2.084283351898193359e+00 -9.311623573303222656e-01 6.523580551147460938e+00 1.677725434303283691e+00 -7.325082421302795410e-01
2.288000000000000000e+03 2.733793258666992188e+01 -1.128817367553710938e+01 1.350925803184509277e+00 5.539643764495849609e-01 5.714670419692993164e-01 -1.037797808647155762e+00
2.289000000000000000e+03 2.621478843688964844e+01 -1.287784004211425781e+01 9.022459387779235840e-02 4.824589788913726807e-01 1.718050688505172729e-01 -5.140206813812255859e-01
2.290000000000000000e+03 4.613672637939453125e+01 5.576012134552001953e+00 8.649261593818664551e-01 3.334932327270507812e+00 1.259957551956176758e+00 2.641149520874023438e+00
2.291000000000000000e+03 5.189057922363281250e+01 3.070323562622070312e+01 -1.232240647077560425e-01 4.181547164916992188e+00 1.217496871948242188e+00 8.709610700607299805e-01
2.292000000000000000e+03 4.535661697387695312e+01 3.049032402038574219e+01 -3.130726516246795654e-01 3.816544771194458008e+00 1.051041603088378906e+00 7.204360365867614746e-01
2.293000000000000000e+03 5.880258178710937500e+01 4.893557071685791016e+00 -2.979368567466735840e-01 1.353538870811462402e+00 3.166805803775787354e-01 -8.428112268447875977e-01
2.294000000000000000e+03 5.748560333251953125e+01 5.306858539581298828e+00 -1.691199541091918945e-01 1.098163008689880371e+00 2.787129282951354980e-01 -5.846814513206481934e-01
2.295000000000000000e+03 4.434400558471679688e+01 5.300858974456787109e+00 4.271392524242401123e-01 5.596655368804931641e+00 1.807138323783874512e+00 2.946842908859252930e+00
2.296000000000000000e+03 1.348421859741210938e+01 3.340200805664062500e+01 -1.073078393936157227e+00 2.441221475601196289e+00 4.104429185390472412e-01 -6.784501075744628906e-01
2.297000000000000000e+03 2.502594184875488281e+01 -1.412291240692138672e+01 -8.815084695816040039e-01 4.590471982955932617e-01 -1.267383843660354614e-01 -8.136522769927978516e-02
2.298000000000000000e+03 6.885127258300781250e+01 -4.756387710571289062e+00 -3.127518296241760254e-01 7.437921524047851562e+00 2.137550830841064453e+00 -7.151398062705993652e-01
2.299000000000000000e+03 8.412542343139648438e+00 -3.616786956787109375e+01 -1.096725463867187500e-01 6.918807029724121094e-01 1.746624410152435303e-01 -1.891236938536167145e-02
2.300000000000000000e+03 3.626959609985351562e+01 -4.123162746429443359e+00 2.195482015609741211e+00 5.124825477600097656e+00 2.196092128753662109e+00 7.877867817878723145e-01
2.301000000000000000e+03 3.513970565795898438e+01 -5.445475578308105469e+00 2.826851606369018555e+00 4.039016723632812500e+00 2.059760570526123047e+00 6.575522571802139282e-02
2.302000000000000000e+03 9.632471084594726562e+00 3.367242050170898438e+01 -7.493558526039123535e-01 2.710809946060180664e+00 5.884362459182739258e-01 -1.069261193275451660e+00
2.303000000000000000e+03 7.276181793212890625e+01 9.586691856384277344e-01 -5.853700637817382812e-01 7.351629257202148438e+00 2.029877662658691406e+00 -2.601920366287231445e-01
2.304000000000000000e+03 2.173027420043945312e+01 3.772859191894531250e+01 -1.868856310844421387e+00 -1.425970345735549927e-01 -6.034359931945800781e-01 -4.159495532512664795e-01
2.305000000000000000e+03 7.264094543457031250e+01 1.943644714355468750e+01 2.164020240306854248e-01 5.982867240905761719e+00 1.859780788421630859e+00 -3.745910227298736572e-01
2.306000000000000000e+03 3.050378608703613281e+01 -9.699604988098144531e+00 2.741229295730590820e+00 1.319711804389953613e+00 1.218282341957092285e+00 -1.570452809333801270e+00
2.307000000000000000e+03 6.757369995117187500e+01 1.138048291206359863e+00 -1.043624162673950195e+00 5.698097705841064453e+00 1.396342039108276367e+00 -1.070367336273193359e+00
2.308000000000000000e+03 7.281159210205078125e+01 6.241952419281005859e+00 -2.596375644207000732e-01 6.772338390350341797e+00 1.953810214996337891e+00 -6.726315617561340332e-01
2.309000000000000000e+03 3.405017089843750000e+01 -5.753776550292968750e+00 3.158667325973510742e+00 2.885932683944702148e+00 1.813380002975463867e+00 -4.423906505107879639e-01
2.310000000000000000e+03 3.699814605712890625e+01 -6.961145877838134766e+00 2.447104454040527344e+00 7.182358264923095703e+00 2.888838768005371094e+00 2.614709436893463135e-01
2.311000000000000000e+03 3.737246704101562500e+01 -3.410438537597656250e+01 -1.403053164482116699e+00 5.716871738433837891e+00 1.294145464897155762e+00 -7.430403679609298706e-02
2.312000000000000000e+03 7.397281646728515625e+01 -6.474487304687500000e+00 -2.411548197269439697e-01 8.380792617797851562e+00 2.441891431808471680e+00 5.686883330345153809e-01
2.313000000000000000e+03 4.605809783935546875e+01 -3.168832397460937500e+01 -2.655286192893981934e-01 2.936792850494384766e+00 8.013792634010314941e-01 -1.208825469017028809e+00
2.314000000000000000e+03 7.230394744873046875e+01 2.898783302307128906e+01 1.008495390415191650e-01 5.913205146789550781e+00 1.804216384887695312e+00 4.877278697676956654e-04
2.315000000000000000e+03 7.380914306640625000e+01 2.888676071166992188e+01 6.814652681350708008e-02 6.107784748077392578e+00 1.852779388427734375e+00 -1.015333645045757294e-02
2.316000000000000000e+03 4.793095397949218750e+01 2.605670166015625000e+01 3.509632349014282227e-01 4.265482902526855469e+00 1.384933948516845703e+00 9.535522460937500000e-01
2.317000000000000000e+03 4.845917892456054688e+01 2.776930809020996094e+01 1.657692342996597290e-01 4.132604598999023438e+00 1.289512038230895996e+00 9.463582634925842285e-01
2.318000000000000000e+03 7.367507171630859375e+01 -3.828557968139648438e+01 -3.803663849830627441e-01 8.323667526245117188e+00 2.382990360260009766e+00 -2.923679947853088379e-01
2.319000000000000000e+03 6.604073333740234375e+01 -8.655624389648437500e-01 -1.201240777969360352e+00 5.238690376281738281e+00 1.211234807968139648e+00 -1.182711720466613770e+00
2.320000000000000000e+03 4.800310516357421875e+01 1.318805599212646484e+01 1.952731609344482422e+00 3.945337533950805664e+00 1.769420742988586426e+00 2.112292289733886719e+00
2.321000000000000000e+03 4.031081008911132812e+01 -2.770518875122070312e+01 4.737673997879028320e-01 6.502104759216308594e+00 2.092761754989624023e+00 -1.127592682838439941e+00
2.322000000000000000e+03 4.113827514648437500e+01 -2.899930000305175781e+01 1.259770989418029785e-01 5.665890693664550781e+00 1.737560272216796875e+00 -1.321598172187805176e+00
2.323000000000000000e+03 3.458047485351562500e+01 -3.509431838989257812e+01 -1.466294169425964355e+00 4.948753356933593750e+00 1.044737696647644043e+00 7.186415791511535645e-01
2.324000000000000000e+03 4.522593307495117188e+01 -3.359016418457031250e+01 -5.741146802902221680e-01 3.380263566970825195e+00 8.418446779251098633e-01 -1.117458224296569824e+00
2.325000000000000000e+03 2.121659851074218750e+01 -3.789207458496093750e+01 -4.542406797409057617e-01 -1.375085711479187012e-01 -1.775247752666473389e-01 1.939314603805541992e-01
2.326000000000000000e+03 4.369232177734375000e+01 -2.854834747314453125e+01 2.997364401817321777e-01 4.012447834014892578e+00 1.293655276298522949e+00 -1.452233433723449707e+00
2.327000000000000000e+03 1.757020759582519531e+01 -4.671960830688476562e+00 2.383487462997436523e+00 3.241226196289062500e+00 1.687414050102233887e+00 1.991959810256958008e+00
2.328000000000000000e+03 1.704392433166503906e+01 -3.347884416580200195e+00 3.494385480880737305e+00 2.041842460632324219e+00 1.660868406295776367e+00 2.172732353210449219e+00
2.329000000000000000e+03 1.843424797058105469e+01 -3.575603246688842773e+00 2.655842542648315430e+00 5.735645294189453125e+00 2.517446279525756836e+00 2.063326597213745117e+00
2.330000000000000000e+03 1.875113677978515625e+01 -3.622935295104980469e+00 2.412866353988647461e+00 6.565563201904296875e+00 2.693528890609741211e+00 1.572854995727539062e+00
2.331000000000000000e+03 2.038438796997070312e+01 -3.279002428054809570e+00 3.369081020355224609e+00 7.551643848419189453e+00 3.276217460632324219e+00 -2.337076187133789062e+00
2.332000000000000000e+03 2.200779724121093750e+01 -4.529681205749511719e+00 3.505048751831054688e+00 3.777720451354980469e+00 2.184830904006958008e+00 -2.389479637145996094e+00
2.333000000000000000e+03 1.371936893463134766e+01 -4.411020278930664062e+00 1.956661701202392578e+00 2.516813278198242188e-01 6.625028848648071289e-01 1.208945870399475098e+00
2.334000000000000000e+03 1.681229019165039062e+01 -4.071810245513916016e+00 2.945036649703979492e+00 2.007273674011230469e+00 1.485693097114562988e+00 2.069214582443237305e+00
2.335000000000000000e+03 1.337304782867431641e+01 -5.209763526916503906e+00 1.722317934036254883e+00 3.558108210563659668e-01 6.234385967254638672e-01 1.406351327896118164e+00
2.336000000000000000e+03 1.001243686676025391e+01 -8.305834770202636719e+00 4.853535592555999756e-01 8.004914522171020508e-01 3.857535123825073242e-01 1.563112854957580566e+00
2.337000000000000000e+03 8.972718238830566406e+00 -6.054687500000000000e+00 5.503245592117309570e-01 4.444639384746551514e-01 2.984365522861480713e-01 9.095098376274108887e-01
2.338000000000000000e+03 1.755497360229492188e+01 2.018457889556884766e+00 2.442922145128250122e-01 5.802926540374755859e+00 1.814165592193603516e+00 -4.014104843139648438e+00
2.339000000000000000e+03 1.030784797668457031e+01 -5.894672870635986328e+00 8.658592700958251953e-01 3.437188863754272461e-01 3.628734350204467773e-01 1.103792309761047363e+00
2.340000000000000000e+03 1.091471767425537109e+01 -5.155032634735107422e+00 1.057877898216247559e+00 2.187090367078781128e-01 3.829760849475860596e-01 1.013292789459228516e+00
2.341000000000000000e+03 9.501734733581542969e+00 -7.296250820159912109e+00 5.232191681861877441e-01 6.388228535652160645e-01 3.486126065254211426e-01 1.248290538787841797e+00
2.342000000000000000e+03 3.773010253906250000e+00 7.272342681884765625e+00 1.617946475744247437e-01 -5.399646162986755371e-01 -1.134509816765785217e-01 6.590073108673095703e-01
2.343000000000000000e+03 4.866687297821044922e+00 5.852472782135009766e+00 9.099783748388290405e-02 -2.713697254657745361e-01 -5.411157011985778809e-02 7.813094854354858398e-01
2.344000000000000000e+03 1.289291191101074219e+01 -5.464768409729003906e+00 1.567084312438964844e+00 3.156542181968688965e-01 5.648215413093566895e-01 1.391945481300354004e+00
2.345000000000000000e+03 6.502318382263183594e+00 6.781057834625244141e+00 3.585814833641052246e-01 1.273672729730606079e-01 1.457846164703369141e-01 6.513202786445617676e-01
2.346000000000000000e+03 9.636523246765136719e+00 -5.972898006439208984e+00 7.106127738952636719e-01 4.016947150230407715e-01 3.336922526359558105e-01 1.023758530616760254e+00
2.347000000000000000e+03 7.648980617523193359e+00 -6.048418521881103516e+00 3.573049902915954590e-01 4.609272778034210205e-01 2.454696893692016602e-01 6.865974664688110352e-01
2.348000000000000000e+03 7.123106479644775391e+00 -5.719942092895507812e+00 2.975839376449584961e-01 3.898942768573760986e-01 2.062434554100036621e-01 5.536122322082519531e-01
2.349000000000000000e+03 1.227159404754638672e+01 -5.594844818115234375e+00 1.388958215713500977e+00 3.009379506111145020e-01 5.069688558578491211e-01 1.334904909133911133e+00
2.350000000000000000e+03 8.306069374084472656e+00 -6.109596252441406250e+00 4.431268572807312012e-01 4.585454463958740234e-01 2.705017030239105225e-01 7.956403493881225586e-01
2.351000000000000000e+03 9.223792076110839844e+00 5.788984775543212891e+00 4.950830936431884766e-01 6.773849725723266602e-01 3.517404198646545410e-01 2.908344268798828125e-01
2.352000000000000000e+03 1.336583328247070312e+01 5.678647994995117188e+00 9.902483820915222168e-01 2.607190370559692383e+00 1.079231619834899902e+00 -1.223193168640136719e+00
2.353000000000000000e+03 1.366730403900146484e+01 4.637682437896728516e+00 7.899185419082641602e-01 2.350756883621215820e+00 9.422026276588439941e-01 -1.273720383644104004e+00
2.354000000000000000e+03 1.502654838562011719e+01 5.350658416748046875e+00 1.053121089935302734e+00 3.880161523818969727e+00 1.479984760284423828e+00 -2.005110740661621094e+00
2.355000000000000000e+03 1.097690677642822266e+01 -5.797101020812988281e+00 1.031620025634765625e+00 3.208358287811279297e-01 4.057367444038391113e-01 1.187421083450317383e+00
2.356000000000000000e+03 1.163348388671875000e+01 -5.698250293731689453e+00 1.206414699554443359e+00 2.900085151195526123e-01 4.489269852638244629e-01 1.260777950286865234e+00
2.357000000000000000e+03 1.397353649139404297e+01 6.281805038452148438e+00 1.141970872879028320e+00 3.402904272079467773e+00 1.363462567329406738e+00 -1.582086205482482910e+00
2.358000000000000000e+03 2.177090835571289062e+01 -3.323910236358642578e+00 4.641967296600341797e+00 4.342514991760253906e+00 2.695344686508178711e+00 -3.154901027679443359e+00
2.359000000000000000e+03 9.229474067687988281e+00 8.533007621765136719e+00 9.297918677330017090e-01 1.424464106559753418e+00 7.062767744064331055e-01 -9.306222945451736450e-02
2.360000000000000000e+03 2.245856094360351562e+01 -4.250072002410888672e+00 4.084992408752441406e+00 3.183743000030517578e+00 2.180620431900024414e+00 -2.627694606781005859e+00
2.361000000000000000e+03 2.000526046752929688e+01 -1.267715263366699219e+01 -6.216300129890441895e-01 9.598662257194519043e-01 1.014708578586578369e-01 5.102798938751220703e-01
2.362000000000000000e+03 2.079354286193847656e+01 -3.695065975189208984e+00 3.351521492004394531e+00 5.991445541381835938e+00 2.802890062332153320e+00 -2.359668254852294922e+00
2.363000000000000000e+03 2.062277221679687500e+01 -4.091512203216552734e+00 2.797815322875976562e+00 5.913183689117431641e+00 2.613299608230590820e+00 -1.790098309516906738e+00
2.364000000000000000e+03 1.015255069732666016e+01 5.725943088531494141e+00 6.008471250534057617e-01 9.714416265487670898e-01 4.716866314411163330e-01 5.445797368884086609e-02
2.365000000000000000e+03 1.015751075744628906e+01 6.595958709716796875e+00 8.049535155296325684e-01 1.205757617950439453e+00 6.032133102416992188e-01 -7.659189403057098389e-02
2.366000000000000000e+03 1.266999626159667969e+01 8.352362632751464844e+00 1.305147647857666016e+00 3.290526151657104492e+00 1.378702163696289062e+00 -1.194926142692565918e+00
2.367000000000000000e+03 1.179851531982421875e+01 1.003395462036132812e+01 1.304399013519287109e+00 3.262968063354492188e+00 1.370210170745849609e+00 -1.036431312561035156e+00
2.368000000000000000e+03 7.305760955810546875e+01 -2.981103181838989258e+00 -5.118514299392700195e-01 7.923391819000244141e+00 2.223462104797363281e+00 2.050220072269439697e-01
2.369000000000000000e+03 3.190929985046386719e+01 -6.646950244903564453e+00 3.542125701904296875e+00 1.442248225212097168e+00 1.495312213897705078e+00 -1.276506900787353516e+00
2.370000000000000000e+03 2.508276748657226562e+01 -5.553200244903564453e+00 3.634831428527832031e+00 1.558608412742614746e+00 1.558032035827636719e+00 -2.000058650970458984e+00
2.371000000000000000e+03 7.256513977050781250e+01 -5.654227256774902344e+00 -3.559064269065856934e-01 8.299313545227050781e+00 2.383022069931030273e+00 3.018781542778015137e-01
2.372000000000000000e+03 1.074887275695800781e+01 -8.350513458251953125e+00 5.962524414062500000e-01 7.626892328262329102e-01 4.076825082302093506e-01 1.690369606018066406e+00
2.373000000000000000e+03 7.555546283721923828e+00 1.840633392333984375e+01 6.525257229804992676e-01 2.084556341171264648e+00 8.211246132850646973e-01 -1.039784193038940430e+00
2.374000000000000000e+03 6.683887958526611328e+00 2.379410934448242188e+01 2.270515710115432739e-01 2.013602972030639648e+00 6.721963286399841309e-01 -1.420156836509704590e+00
2.375000000000000000e+03 7.297389984130859375e+01 1.216832828521728516e+01 8.105506747961044312e-02 6.349135398864746094e+00 1.929057121276855469e+00 -6.761001348495483398e-01
2.376000000000000000e+03 7.332987976074218750e+01 1.474741744995117188e+01 1.375688463449478149e-01 6.258510112762451172e+00 1.918823599815368652e+00 -5.877640247344970703e-01
2.377000000000000000e+03 1.677363204956054688e+01 -1.252035713195800781e+01 -3.659209311008453369e-01 4.658677875995635986e-01 2.998405322432518005e-02 1.270366668701171875e+00
2.378000000000000000e+03 4.631880187988281250e+01 7.120394229888916016e+00 1.505653023719787598e+00 3.727350711822509766e+00 1.569901108741760254e+00 2.637353420257568359e+00
2.379000000000000000e+03 1.769176101684570312e+01 -1.296929359436035156e+01 -6.698852777481079102e-01 5.513734221458435059e-01 -3.555356338620185852e-02 9.829841256141662598e-01
2.380000000000000000e+03 1.939466094970703125e+01 -1.162627601623535156e+01 -1.682136803865432739e-01 1.162264585494995117e+00 2.982152700424194336e-01 6.568277478218078613e-01
2.381000000000000000e+03 1.231312274932861328e+01 9.272904396057128906e+00 1.335180997848510742e+00 3.408274173736572266e+00 1.423036575317382812e+00 -1.132934212684631348e+00
2.382000000000000000e+03 5.354522323608398438e+01 7.796096324920654297e+00 9.450618028640747070e-01 1.167829036712646484e+00 6.338672637939453125e-01 2.767857015132904053e-01
2.383000000000000000e+03 5.491584777832031250e+01 5.943756580352783203e+00 1.250742673873901367e-01 8.683404922485351562e-01 2.980244457721710205e-01 -1.071966588497161865e-01
2.384000000000000000e+03 3.746744537353515625e+01 -4.275774478912353516e+00 1.935620903968811035e+00 6.986931324005126953e+00 2.676765680313110352e+00 1.110352158546447754e+00
2.385000000000000000e+03 1.594291305541992188e+01 -1.198249912261962891e+01 -5.441617220640182495e-02 4.623202979564666748e-01 1.223712414503097534e-01 1.523553609848022461e+00
2.386000000000000000e+03 1.276282882690429688e+01 -1.074289894104003906e+01 4.071863889694213867e-01 6.628436446189880371e-01 3.210090100765228271e-01 2.173495292663574219e+00
2.387000000000000000e+03 7.360628509521484375e+01 3.792634487152099609e+00 -3.561208844184875488e-01 7.244522094726562500e+00 2.066520214080810547e+00 -4.415817260742187500e-01
2.388000000000000000e+03 3.519394683837890625e+01 -1.365520572662353516e+01 3.867290019989013672e-01 6.189438343048095703e+00 1.972850203514099121e+00 -1.442798137664794922e+00
2.389000000000000000e+03 2.517551612854003906e+01 -1.306606388092041016e+01 -1.554118543863296509e-01 5.413926839828491211e-01 1.157942563295364380e-01 -3.450705111026763916e-01
2.390000000000000000e+03 3.611497497558593750e+01 -6.497513771057128906e+00 2.717553615570068359e+00 5.600731372833251953e+00 2.495485544204711914e+00 1.417681425809860229e-01
2.391000000000000000e+03 7.361227416992187500e+01 2.858520030975341797e+00 -4.180074632167816162e-01 7.338750362396240234e+00 2.076222896575927734e+00 -3.501533567905426025e-01
2.392000000000000000e+03 6.917988586425781250e+01 -2.195290803909301758e+00 -8.464018702507019043e-01 6.967622756958007812e+00 1.836366176605224609e+00 -5.116221308708190918e-01
2.393000000000000000e+03 7.541863918304443359e+00 1.153195095062255859e+01 8.410032391548156738e-01 1.205192685127258301e+00 6.138587594032287598e-01 -1.788292378187179565e-01
2.394000000000000000e+03 7.320369720458984375e+01 -1.693459391593933105e+00 -5.386238694190979004e-01 7.754263877868652344e+00 2.164691925048828125e+00 8.659621328115463257e-02
2.395000000000000000e+03 4.924855804443359375e+01 2.516965293884277344e+01 4.922299981117248535e-01 4.213546752929687500e+00 1.411733031272888184e+00 1.071217060089111328e+00
2.396000000000000000e+03 5.616458511352539062e+01 5.759148597717285156e+00 3.723487630486488342e-02 9.265665411949157715e-01 2.891404330730438232e-01 -3.537939488887786865e-01
2.397000000000000000e+03 5.676207733154296875e+01 7.100070953369140625e+00 4.754132926464080811e-01 1.249187350273132324e+00 5.173802375793457031e-01 -3.964647650718688965e-01
2.398000000000000000e+03 7.242867279052734375e+01 2.226898574829101562e+01 2.172049432992935181e-01 5.892703533172607422e+00 1.832972526550292969e+00 -2.476872950792312622e-01
2.399000000000000000e+03 7.382518005371093750e+01 2.245292663574218750e+01 1.506478041410446167e-01 6.113744735717773438e+00 1.879317760467529297e+00 -2.190632522106170654e-01
2.400000000000000000e+03 6.768819427490234375e+01 2.908216953277587891e+00 -8.368690609931945801e-01 5.504433155059814453e+00 1.400269269943237305e+00 -1.139379501342773438e+00
2.401000000000000000e+03 7.174837493896484375e+01 1.100035285949707031e+01 5.104052647948265076e-02 6.122587203979492188e+00 1.852088332176208496e+00 -7.860020995140075684e-01
2.402000000000000000e+03 7.310076904296875000e+01 -4.240840435028076172e+00 -4.366343021392822266e-01 8.071243286132812500e+00 2.290382623672485352e+00 2.935349643230438232e-01
2.403000000000000000e+03 7.290029144287109375e+01 3.378272294998168945e+00 -4.511331617832183838e-01 7.103448867797851562e+00 1.995694756507873535e+00 -4.729081690311431885e-01
2.404000000000000000e+03 7.170552062988281250e+01 -2.639835596084594727e+00 -6.389549970626831055e-01 7.677941322326660156e+00 2.111696004867553711e+00 -3.291168436408042908e-02
2.405000000000000000e+03 7.159172821044921875e+01 1.772097969055175781e+01 2.743992209434509277e-01 5.781889438629150391e+00 1.816886544227600098e+00 -4.969422519207000732e-01
2.406000000000000000e+03 2.030116462707519531e+01 -1.180481624603271484e+01 -2.345980554819107056e-01 1.190370798110961914e+00 2.867318093776702881e-01 4.021934270858764648e-01
2.407000000000000000e+03 2.302367591857910156e+01 -1.300478744506835938e+01 -5.350938439369201660e-01 8.440368175506591797e-01 9.268289804458618164e-02 -5.321010202169418335e-02
2.408000000000000000e+03 2.765067672729492188e+01 -1.299029827117919922e+01 4.601916968822479248e-01 3.688645958900451660e-01 2.487168908119201660e-01 -7.175620794296264648e-01
2.409000000000000000e+03 3.109474182128906250e+01 -1.219295215606689453e+01 1.604167819023132324e+00 1.607183814048767090e+00 9.634054899215698242e-01 -1.412152767181396484e+00
2.410000000000000000e+03 2.360300827026367188e+01 -5.585647106170654297e+00 3.447351694107055664e+00 2.327880144119262695e+00 1.732569575309753418e+00 -2.081939458847045898e+00
2.411000000000000000e+03 3.609799575805664062e+01 -1.003234004974365234e+01 2.060084581375122070e+00 6.932017326354980469e+00 2.697630643844604492e+00 -5.963736176490783691e-01
2.412000000000000000e+03 8.158786773681640625e+00 1.763456153869628906e+01 7.623366117477416992e-01 2.378958225250244141e+00 9.423884153366088867e-01 -1.009766936302185059e+00
2.413000000000000000e+03 6.150296401977539062e+01 4.191504001617431641e+00 -5.166064500808715820e-01 2.308232545852661133e+00 5.374878644943237305e-01 -1.287123203277587891e+00
2.414000000000000000e+03 6.052044296264648438e+01 5.833453178405761719e+00 -7.474754005670547485e-02 2.103671789169311523e+00 6.086772680282592773e-01 -1.107140183448791504e+00
2.415000000000000000e+03 6.410132408142089844e+00 -1.079890441894531250e+01 -3.285891115665435791e-01 1.647108912467956543e+00 3.955559432506561279e-01 7.783441543579101562e-01
2.416000000000000000e+03 6.291552734375000000e+01 3.871655941009521484e+00 -6.522196531295776367e-01 3.066484212875366211e+00 7.242793440818786621e-01 -1.413712739944458008e+00
2.417000000000000000e+03 7.254560089111328125e+01 1.538726902008056641e+01 1.887851655483245850e-01 6.057101726531982422e+00 1.873766064643859863e+00 -5.926911234855651855e-01
2.418000000000000000e+03 7.169865417480468750e+01 1.230918312072753906e+01 1.189048886299133301e-01 6.013902664184570312e+00 1.839842200279235840e+00 -7.571871280670166016e-01
2.419000000000000000e+03 7.189977645874023438e+00 -8.511491775512695312e+00 3.161234408617019653e-02 9.826998114585876465e-01 3.042936325073242188e-01 8.782950639724731445e-01
2.420000000000000000e+03 6.233415603637695312e+00 -9.553483009338378906e+00 -1.755880266427993774e-01 1.210746407508850098e+00 3.105475008487701416e-01 6.870424747467041016e-01
2.421000000000000000e+03 3.239984130859375000e+01 -7.991173267364501953e+00 3.183914184570312500e+00 2.137318611145019531e+00 1.596369862556457520e+00 -1.237056255340576172e+00
2.422000000000000000e+03 6.194107532501220703e+00 9.799723625183105469e+00 5.882220864295959473e-01 3.388296663761138916e-01 2.781155109405517578e-01 2.826207876205444336e-01
2.423000000000000000e+03 7.311287879943847656e+00 7.707485198974609375e+00 5.812262892723083496e-01 4.900251328945159912e-01 3.213754296302795410e-01 4.285935759544372559e-01
2.424000000000000000e+03 8.266589164733886719e+00 7.657426834106445312e+00 7.029470205307006836e-01 8.211523294448852539e-01 4.572297930717468262e-01 2.599982023239135742e-01
2.425000000000000000e+03 7.995657920837402344e+00 3.106781005859375000e+01 -4.403582215309143066e-01 2.675457715988159180e+00 6.705298423767089844e-01 -1.334274649620056152e+00
2.426000000000000000e+03 5.064274597167968750e+01 7.851576328277587891e+00 1.338856577873229980e+00 1.378726363182067871e+00 8.152748942375183105e-01 1.042976737022399902e+00
2.427000000000000000e+03 4.756402969360351562e+01 1.981669616699218750e+01 9.286162853240966797e-01 4.698604106903076172e+00 1.688166022300720215e+00 1.467365860939025879e+00
2.428000000000000000e+03 7.096566009521484375e+01 2.061914825439453125e+01 3.086550533771514893e-01 5.639938831329345703e+00 1.784578084945678711e+00 -3.273675739765167236e-01
2.429000000000000000e+03 6.416416168212890625e+01 3.301127672195434570e+00 -7.735249400138854980e-01 3.662436723709106445e+00 8.666735291481018066e-01 -1.436695098876953125e+00
2.430000000000000000e+03 9.506505012512207031e+00 2.553332138061523438e+01 1.329304426908493042e-01 3.117373943328857422e+00 9.750913381576538086e-01 -1.507073521614074707e+00
2.431000000000000000e+03 9.246958732604980469e+00 1.046059226989746094e+01 1.079297661781311035e+00 1.893357872962951660e+00 8.917966485023498535e-01 -3.447157442569732666e-01
2.432000000000000000e+03 6.322288036346435547e+00 1.094198703765869141e+01 6.135604381561279297e-01 5.014713406562805176e-01 3.345095217227935791e-01 1.007507219910621643e-01
2.433000000000000000e+03 1.334611797332763672e+01 6.964429855346679688e+00 1.237401127815246582e+00 3.216063737869262695e+00 1.336039423942565918e+00 -1.341223597526550293e+00
2.434000000000000000e+03 1.014322471618652344e+01 1.258658409118652344e+01 1.089143395423889160e+00 2.893255472183227539e+00 1.194719672203063965e+00 -7.618078589439392090e-01
2.435000000000000000e+03 2.220295143127441406e+01 -1.199290561676025391e+01 -1.272573173046112061e-01 1.105717062950134277e+00 2.935379445552825928e-01 -4.630721360445022583e-02
2.436000000000000000e+03 2.999719047546386719e+01 -1.346132183074951172e+01 5.812246799468994141e-01 5.678468942642211914e-01 3.447214663028717041e-01 -1.075013637542724609e+00
2.437000000000000000e+03 3.212801361083984375e+01 -1.196669864654541016e+01 1.641026854515075684e+00 2.279132127761840820e+00 1.176047682762145996e+00 -1.531229138374328613e+00
2.438000000000000000e+03 6.878244018554687500e+01 2.857330703735351562e+01 1.947742402553558350e-01 5.483335018157958984e+00 1.703432798385620117e+00 6.073277816176414490e-02
2.439000000000000000e+03 7.250230407714843750e+01 2.081785964965820312e+01 2.191873788833618164e-01 5.933424949645996094e+00 1.845783591270446777e+00 -3.193405270576477051e-01
2.440000000000000000e+03 2.989341545104980469e+01 -7.446629524230957031e+00 3.378512144088745117e+00 8.768522739410400391e-01 1.276609301567077637e+00 -1.739275693893432617e+00
2.441000000000000000e+03 2.652210235595703125e+01 -7.689357757568359375e+00 2.890231370925903320e+00 1.074651241302490234e+00 1.189464807510375977e+00 -1.792854547500610352e+00
2.442000000000000000e+03 6.841053771972656250e+01 2.880467474460601807e-01 -1.082560777664184570e+00 6.166172027587890625e+00 1.525083303451538086e+00 -8.730369210243225098e-01
2.443000000000000000e+03 9.701008796691894531e+00 -6.655921936035156250e+00 6.771419644355773926e-01 4.961996674537658691e-01 3.520025014877319336e-01 1.180342078208923340e+00
2.444000000000000000e+03 6.936985778808593750e+01 -3.031546473503112793e-01 -9.553500413894653320e-01 6.661326408386230469e+00 1.711792826652526855e+00 -6.277772188186645508e-01
2.445000000000000000e+03 3.622297286987304688e+01 -5.411335468292236328e+00 2.579206228256225586e+00 5.505667209625244141e+00 2.425462007522583008e+00 3.705447018146514893e-01
2.446000000000000000e+03 3.443821334838867188e+01 -6.923587799072265625e+00 3.059378623962402344e+00 3.777312040328979492e+00 2.051007270812988281e+00 -5.182828307151794434e-01
2.447000000000000000e+03 7.112849426269531250e+01 5.536847710609436035e-01 -7.808986306190490723e-01 7.014996051788330078e+00 1.870229125022888184e+00 -4.473578631877899170e-01
2.448000000000000000e+03 4.760963439941406250e+01 1.751839256286621094e+01 1.251307368278503418e+00 4.703808307647705078e+00 1.786534667015075684e+00 1.750082015991210938e+00
2.449000000000000000e+03 7.225554656982421875e+01 4.235225200653076172e+00 -4.272957146167755127e-01 6.824132442474365234e+00 1.919051051139831543e+00 -6.229279637336730957e-01
2.450000000000000000e+03 6.673538970947265625e+01 2.083356380462646484e+00 -9.683564305305480957e-01 5.167661190032958984e+00 1.259791374206542969e+00 -1.228083491325378418e+00
2.451000000000000000e+03 7.189581298828125000e+01 -6.362883567810058594e+00 -3.187395036220550537e-01 8.433352470397949219e+00 2.434383869171142578e+00 1.275469064712524414e-01
2.452000000000000000e+03 7.144570159912109375e+01 6.091868400573730469e+00 -3.272630572319030762e-01 6.427455902099609375e+00 1.830057859420776367e+00 -7.952722311019897461e-01
2.453000000000000000e+03 1.131946182250976562e+01 3.078758621215820312e+01 -6.648958325386047363e-01 2.945109367370605469e+00 6.840640902519226074e-01 -1.160973906517028809e+00
2.454000000000000000e+03 6.877819061279296875e+01 3.295086669921875000e+01 3.811593353748321533e-02 5.591978549957275391e+00 1.689028263092041016e+00 1.200595945119857788e-01
2.455000000000000000e+03 4.073164749145507812e+01 -3.139545822143554688e+01 -6.325838565826416016e-01 5.554868698120117188e+00 1.476685404777526855e+00 -1.140514492988586426e+00
2.456000000000000000e+03 9.770552635192871094e+00 2.695985412597656250e+01 -5.809689685702323914e-02 3.095709085464477539e+00 9.112836718559265137e-01 -1.494266986846923828e+00
2.457000000000000000e+03 7.085606384277343750e+01 1.414166545867919922e+01 2.225531935691833496e-01 5.709419727325439453e+00 1.779591917991638184e+00 -7.293241024017333984e-01
2.458000000000000000e+03 3.348762512207031250e+01 -7.538464546203613281e+00 3.186623334884643555e+00 2.906052589416503906e+00 1.827802777290344238e+00 -9.595404267311096191e-01
2.459000000000000000e+03 3.517596817016601562e+01 -1.056052684783935547e+01 2.033187150955200195e+00 5.620285511016845703e+00 2.296041727066040039e+00 -1.033658862113952637e+00
2.460000000000000000e+03 8.558155059814453125e+00 2.736867141723632812e+01 -9.837044775485992432e-02 2.755086421966552734e+00 7.970148324966430664e-01 -1.541681885719299316e+00
2.461000000000000000e+03 5.800391769409179688e+01 6.548144817352294922e+00 2.255136221647262573e-01 1.433248043060302734e+00 4.976285099983215332e-01 -6.706023216247558594e-01
2.462000000000000000e+03 9.793107986450195312e+00 1.688681411743164062e+01 9.307326674461364746e-01 3.284375429153442383e+00 1.264532446861267090e+00 -1.083739876747131348e+00
2.463000000000000000e+03 9.168869972229003906e+00 1.814565086364746094e+01 8.254373073577880859e-01 3.016905069351196289e+00 1.152702689170837402e+00 -1.139528393745422363e+00
2.464000000000000000e+03 6.944922637939453125e+01 2.094198989868164062e+01 3.939042687416076660e-01 5.366310119628906250e+00 1.728064417839050293e+00 -2.924442291259765625e-01
2.465000000000000000e+03 8.007559776306152344e+00 3.294905090332031250e+01 -5.446064472198486328e-01 2.682153940200805664e+00 6.412642002105712891e-01 -1.150784969329833984e+00
2.466000000000000000e+03 7.760473728179931641e+00 -1.188671302795410156e+01 -3.994644284248352051e-01 2.191703796386718750e+00 5.376718044281005859e-01 1.336028814315795898e+00
2.467000000000000000e+03 8.738111495971679688e+00 -1.162609291076660156e+01 -2.850272357463836670e-01 1.971053361892700195e+00 5.058078765869140625e-01 1.743152499198913574e+00
2.468000000000000000e+03 7.330015182495117188e+00 2.773803520202636719e+01 -1.076488941907882690e-01 2.458115100860595703e+00 7.051398754119873047e-01 -1.508860111236572266e+00
2.469000000000000000e+03 3.821582412719726562e+01 -2.560682678222656250e+01 1.441833734512329102e+00 9.075745582580566406e+00 3.155273675918579102e+00 -3.490495681762695312e-01
2.470000000000000000e+03 3.972222137451171875e+01 -2.667919158935546875e+01 9.633991718292236328e-01 7.293850421905517578e+00 2.477174758911132812e+00 -9.889311790466308594e-01
2.471000000000000000e+03 6.873826599121093750e+01 -1.245302319526672363e+00 -9.673524498939514160e-01 6.629105567932128906e+00 1.698525905609130859e+00 -6.591296792030334473e-01
2.472000000000000000e+03 7.019424438476562500e+01 -3.558322906494140625e+00 -6.050462722778320312e-01 7.567272663116455078e+00 2.088667869567871094e+00 -2.982425987720489502e-01
2.473000000000000000e+03 7.451666259765625000e+01 -1.726377105712890625e+01 6.123054027557373047e-01 9.369224548339843750e+00 2.994459152221679688e+00 -2.614452838897705078e-01
2.474000000000000000e+03 7.082354736328125000e+01 2.702953910827636719e+01 1.875090003013610840e-01 5.687993049621582031e+00 1.762650609016418457e+00 -1.881829090416431427e-02
2.475000000000000000e+03 1.096494770050048828e+01 2.655962562561035156e+01 -3.779504681006073952e-03 3.484405279159545898e+00 1.044187784194946289e+00 -1.352719187736511230e+00
2.476000000000000000e+03 4.806562042236328125e+01 1.474325084686279297e+01 1.755289196968078613e+00 4.175511837005615234e+00 1.779240369796752930e+00 1.998128771781921387e+00
2.477000000000000000e+03 4.999765396118164062e+01 2.680315589904785156e+01 3.309834003448486328e-01 4.132224559783935547e+00 1.338962316513061523e+00 1.024255156517028809e+00
2.478000000000000000e+03 1.038254165649414062e+01 3.694613647460937500e+01 -9.285486340522766113e-01 2.509766340255737305e+00 4.743652939796447754e-01 -6.667339205741882324e-01
2.479000000000000000e+03 8.859997749328613281e+00 3.540790557861328125e+01 -7.281110882759094238e-01 2.691515207290649414e+00 5.890212059020996094e-01 -8.615666031837463379e-01
2.480000000000000000e+03 8.301635742187500000e+00 2.594618606567382812e+01 7.376094162464141846e-02 2.686828613281250000e+00 8.281768560409545898e-01 -1.552402496337890625e+00
2.481000000000000000e+03 7.070216369628906250e+01 3.077511596679687500e+01 8.789117634296417236e-02 5.757590293884277344e+00 1.753644466400146484e+00 6.194999814033508301e-02
2.482000000000000000e+03 4.789306640625000000e+01 6.920818328857421875e+00 1.344746112823486328e+00 2.178961753845214844e+00 1.057112336158752441e+00 2.064951419830322266e+00
2.483000000000000000e+03 4.882217407226562500e+01 7.808464050292968750e+00 1.596669912338256836e+00 1.987010121345520020e+00 1.075103998184204102e+00 1.689612865447998047e+00
2.484000000000000000e+03 4.965170669555664062e+01 6.760397434234619141e+00 1.027436852455139160e+00 1.284828305244445801e+00 6.936795711517333984e-01 1.228045463562011719e+00
2.485000000000000000e+03 7.394013977050781250e+01 -2.207311248779296875e+01 4.855093657970428467e-01 9.963166236877441406e+00 3.134602546691894531e+00 -7.781397104263305664e-01
2.486000000000000000e+03 4.902663803100585938e+01 1.662796211242675781e+01 1.554827928543090820e+00 4.075469970703125000e+00 1.689089417457580566e+00 1.741039991378784180e+00
2.487000000000000000e+03 4.959683990478515625e+01 1.534483146667480469e+01 1.771331906318664551e+00 3.664978027343750000e+00 1.630892992019653320e+00 1.741946578025817871e+00
2.488000000000000000e+03 1.762176895141601562e+01 4.126326370239257812e+01 -1.511600613594055176e+00 9.750616550445556641e-01 -1.609617173671722412e-01 -3.547438606619834900e-02
2.489000000000000000e+03 3.984497070312500000e+01 -3.419712448120117188e+01 -1.304359316825866699e+00 5.372037410736083984e+00 1.220303297042846680e+00 -7.439550161361694336e-01
2.490000000000000000e+03 1.788624763488769531e+01 -4.276380538940429688e+00 2.522805929183959961e+00 3.954139471054077148e+00 1.943083643913269043e+00 2.054238557815551758e+00
2.491000000000000000e+03 1.726381301879882812e+01 -3.773028612136840820e+00 3.149176597595214844e+00 2.666326284408569336e+00 1.744650840759277344e+00 2.263098955154418945e+00
2.492000000000000000e+03 1.838359832763671875e+01 -3.998271703720092773e+00 2.436793565750122070e+00 5.222259044647216797e+00 2.297715663909912109e+00 1.878198623657226562e+00
2.493000000000000000e+03 1.904468345642089844e+01 -3.569723606109619141e+00 2.275692462921142578e+00 7.220200061798095703e+00 2.848767757415771484e+00 9.872623085975646973e-01
2.494000000000000000e+03 1.938723182678222656e+01 -3.809365272521972656e+00 2.199285745620727539e+00 7.083167076110839844e+00 2.784735918045043945e+00 2.637588381767272949e-01
2.495000000000000000e+03 1.609870719909667969e+01 -3.901331424713134766e+00 2.904664039611816406e+00 1.085320234298706055e+00 1.196995258331298828e+00 1.726638317108154297e+00
2.496000000000000000e+03 1.552028274536132812e+01 -3.629554986953735352e+00 2.807669639587402344e+00 5.670750737190246582e-01 1.012423515319824219e+00 1.367884516716003418e+00
2.497000000000000000e+03 1.987169837951660156e+01 -3.749883413314819336e+00 2.421260118484497070e+00 7.276261329650878906e+00 2.909256458282470703e+00 -8.459826111793518066e-01
2.498000000000000000e+03 2.047068405151367188e+01 -3.717908620834350586e+00 2.961859226226806641e+00 6.649498462677001953e+00 2.883407354354858398e+00 -1.953572273254394531e+00
2.499000000000000000e+03 1.435743522644042969e+01 -4.220288753509521484e+00 2.193951129913330078e+00 3.240268826484680176e-01 7.553934454917907715e-01 1.253407716751098633e+00
2.500000000000000000e+03 1.506342792510986328e+01 -4.206070423126220703e+00 2.448019742965698242e+00 5.804903507232666016e-01 9.085530042648315430e-01 1.446462988853454590e+00
2.501000000000000000e+03 2.120371437072753906e+01 -3.837934017181396484e+00 3.602503776550292969e+00 5.232709884643554688e+00 2.650564193725585938e+00 -2.534612178802490234e+00
2.502000000000000000e+03 1.392520713806152344e+01 -4.951729297637939453e+00 1.940765500068664551e+00 3.771329522132873535e-01 6.953695416450500488e-01 1.413048505783081055e+00
2.503000000000000000e+03 1.694181823730468750e+01 -4.702847003936767578e+00 2.521667957305908203e+00 2.373005628585815430e+00 1.468402028083801270e+00 2.052932024002075195e+00
2.504000000000000000e+03 1.470691394805908203e+01 -4.654035568237304688e+00 2.247365951538085938e+00 5.412457585334777832e-01 8.365834951400756836e-01 1.508381962776184082e+00
2.505000000000000000e+03 1.359363460540771484e+01 -4.826958179473876953e+00 1.871060848236083984e+00 3.146320879459381104e-01 6.557078957557678223e-01 1.346351146697998047e+00
2.506000000000000000e+03 8.261460304260253906e+00 -7.750047206878662109e+00 2.682975828647613525e-01 7.956056594848632812e-01 3.191709518432617188e-01 1.060362219810485840e+00
2.507000000000000000e+03 7.458903789520263672e+00 -6.697384357452392578e+00 2.561786174774169922e-01 5.936341285705566406e-01 2.549438178539276123e-01 7.376957535743713379e-01
2.508000000000000000e+03 7.276417255401611328e+00 -7.520373344421386719e+00 1.649386286735534668e-01 7.693973779678344727e-01 2.803007960319519043e-01 7.981603741645812988e-01
2.509000000000000000e+03 1.302219295501708984e+01 -6.093121528625488281e+00 1.506024360656738281e+00 4.329734146595001221e-01 5.816993713378906250e-01 1.565571665763854980e+00
2.510000000000000000e+03 9.220346450805664062e+00 6.664559841156005859e+00 6.760138273239135742e-01 9.136856794357299805e-01 4.769098460674285889e-01 1.749642938375473022e-01
2.511000000000000000e+03 1.172682380676269531e+01 -6.319423675537109375e+00 1.156564116477966309e+00 3.937289416790008545e-01 4.650879204273223877e-01 1.429019093513488770e+00
2.512000000000000000e+03 1.237262344360351562e+01 -6.212505340576171875e+00 1.317377209663391113e+00 3.857317566871643066e-01 5.109326839447021484e-01 1.491317987442016602e+00
2.513000000000000000e+03 1.260215950012207031e+01 7.448180198669433594e+00 1.253702044486999512e+00 2.923148870468139648e+00 1.253055214881896973e+00 -1.134024620056152344e+00
2.514000000000000000e+03 1.020299339294433594e+01 8.466773033142089844e+00 1.049490332603454590e+00 1.851065993309020996e+00 8.701669573783874512e-01 -3.679852187633514404e-01
2.515000000000000000e+03 1.113316535949707031e+01 6.563430786132812500e+00 9.316846132278442383e-01 1.685007095336914062e+00 7.850075364112854004e-01 -4.049063622951507568e-01
2.516000000000000000e+03 2.341900825500488281e+01 -1.011957168579101562e+01 1.013628244400024414e+00 1.385389804840087891e+00 7.197054028511047363e-01 -6.858801841735839844e-01
2.517000000000000000e+03 1.102132892608642578e+01 7.444314002990722656e+00 1.055808544158935547e+00 1.944885373115539551e+00 9.002081751823425293e-01 -4.786094427108764648e-01
2.518000000000000000e+03 1.180027484893798828e+01 8.222867965698242188e+00 1.218694329261779785e+00 2.554352521896362305e+00 1.131914019584655762e+00 -8.094118237495422363e-01
2.519000000000000000e+03 8.945383071899414062e+00 2.288574600219726562e+01 4.262599349021911621e-01 2.950455188751220703e+00 1.013014554977416992e+00 -1.441501975059509277e+00
2.520000000000000000e+03 7.156949615478515625e+01 3.294548273086547852e+00 -5.862452387809753418e-01 6.746762275695800781e+00 1.848155021667480469e+00 -6.418437957763671875e-01
2.521000000000000000e+03 7.194670104980468750e+01 -1.294576168060302734e+00 -6.818710565567016602e-01 7.524509429931640625e+00 2.052791357040405273e+00 -1.057321131229400635e-01
2.522000000000000000e+03 3.417282485961914062e+01 -1.098940277099609375e+01 2.000455141067504883e+00 4.435771465301513672e+00 1.930868029594421387e+00 -1.218661308288574219e+00
2.523000000000000000e+03 1.451875782012939453e+01 -1.193921279907226562e+01 1.127626821398735046e-01 3.225568234920501709e-01 1.305958479642868042e-01 1.882613658905029297e+00
2.524000000000000000e+03 1.224297904968261719e+01 -1.018850421905517578e+01 4.909988939762115479e-01 8.112372159957885742e-01 3.906708359718322754e-01 2.175022840499877930e+00
2.525000000000000000e+03 1.056627082824707031e+01 -7.188477993011474609e+00 7.317463159561157227e-01 5.677596926689147949e-01 3.898518085479736328e-01 1.416899681091308594e+00
2.526000000000000000e+03 2.319203567504882812e+01 -1.202972793579101562e+01 2.114885859191417694e-02 9.960006475448608398e-01 3.051448464393615723e-01 -2.072741240262985229e-01
2.527000000000000000e+03 2.144842720031738281e+01 -1.104716396331787109e+01 2.081702947616577148e-01 1.394100666046142578e+00 4.806813001632690430e-01 1.269683055579662323e-02
2.528000000000000000e+03 1.853883361816406250e+01 -1.138541984558105469e+01 -6.303057819604873657e-02 1.113420009613037109e+00 3.151168525218963623e-01 8.966780304908752441e-01
2.529000000000000000e+03 1.814073181152343750e+01 -1.215600681304931641e+01 -3.466957807540893555e-01 8.326734304428100586e-01 1.457933038473129272e-01 9.677261114120483398e-01
2.530000000000000000e+03 1.888257789611816406e+01 -1.065253067016601562e+01 2.008478343486785889e-01 1.392938375473022461e+00 4.781358838081359863e-01 8.236782550811767578e-01
2.531000000000000000e+03 7.139910125732421875e+01 4.850494861602783203e+00 -4.408205747604370117e-01 6.551875591278076172e+00 1.833316445350646973e+00 -7.476948499679565430e-01
2.532000000000000000e+03 6.930496215820312500e+01 2.598516702651977539e+00 -7.962004542350769043e-01 6.157590866088867188e+00 1.608417153358459473e+00 -9.031837582588195801e-01
2.533000000000000000e+03 1.109490680694580078e+01 1.041518974304199219e+01 1.238297462463378906e+00 2.942611694335937500e+00 1.254272818565368652e+00 -8.381010293960571289e-01
2.534000000000000000e+03 2.425677490234375000e+01 -5.527272224426269531e+00 3.587652206420898438e+00 1.856807827949523926e+00 1.633337974548339844e+00 -2.028631210327148438e+00
2.535000000000000000e+03 2.420062446594238281e+01 -1.204208564758300781e+01 2.409267276525497437e-01 8.342732787132263184e-01 3.225600123405456543e-01 -4.193131625652313232e-01
2.536000000000000000e+03 1.138869953155517578e+01 1.141250324249267578e+01 1.260974287986755371e+00 3.510384559631347656e+00 1.431407570838928223e+00 -1.013525485992431641e+00
2.537000000000000000e+03 7.245293617248535156e+00 8.673400878906250000e+00 6.767389774322509766e-01 6.214295625686645508e-01 3.894505500793457031e-01 3.070975542068481445e-01
2.538000000000000000e+03 7.040199279785156250e+01 1.212730979919433594e+01 1.688443124294281006e-01 5.673104763031005859e+00 1.752584695816040039e+00 -8.171840310096740723e-01
2.539000000000000000e+03 7.045707702636718750e+01 8.995324134826660156e+00 -7.627357542514801025e-02 5.869892120361328125e+00 1.738085508346557617e+00 -9.162750244140625000e-01
2.540000000000000000e+03 6.960652160644531250e+01 1.830024528503417969e+01 4.007394015789031982e-01 5.366111278533935547e+00 1.730055212974548340e+00 -4.578247666358947754e-01
2.541000000000000000e+03 2.614771080017089844e+01 -1.202043628692626953e+01 6.966971755027770996e-01 6.005861163139343262e-01 3.891849815845489502e-01 -7.177304029464721680e-01
2.542000000000000000e+03 2.764739799499511719e+01 -1.013662052154541016e+01 2.075692176818847656e+00 7.119048833847045898e-01 8.362790942192077637e-01 -1.358996033668518066e+00
2.543000000000000000e+03 7.236038208007812500e+00 -9.603487968444824219e+00 -1.297122836112976074e-01 1.319435954093933105e+00 3.569171130657196045e-01 9.853703975677490234e-01
2.544000000000000000e+03 3.425430679321289062e+01 -8.771900177001953125e+00 2.744003772735595703e+00 4.085535526275634766e+00 2.048861742019653320e+00 -8.991339802742004395e-01
2.545000000000000000e+03 9.819985389709472656e+00 1.373171234130859375e+01 1.091917157173156738e+00 2.942531108856201172e+00 1.210334420204162598e+00 -8.150414228439331055e-01
2.546000000000000000e+03 3.359669876098632812e+01 -1.288453674316406250e+01 1.061425566673278809e+00 3.926081657409667969e+00 1.496252179145812988e+00 -1.536607027053833008e+00
2.547000000000000000e+03 7.167147827148437500e+01 1.483485794067382812e+01 2.091363072395324707e-01 5.897089004516601562e+00 1.831867575645446777e+00 -6.465603709220886230e-01
2.548000000000000000e+03 3.571353149414062500e+01 -7.243301391601562500e+00 2.807368993759155273e+00 5.421131610870361328e+00 2.468550205230712891e+00 -2.108633220195770264e-01
2.549000000000000000e+03 8.108965873718261719e+00 1.210200500488281250e+01 9.065933227539062500e-01 1.549985289573669434e+00 7.369735836982727051e-01 -3.292018771171569824e-01
2.550000000000000000e+03 8.147724151611328125e+00 -8.669232368469238281e+00 1.022267565131187439e-01 1.062631964683532715e+00 3.494576215744018555e-01 1.163397073745727539e+00
2.551000000000000000e+03 3.127285957336425781e+01 -8.251853942871093750e+00 3.211768627166748047e+00 1.496054887771606445e+00 1.412347078323364258e+00 -1.514583587646484375e+00
2.552000000000000000e+03 3.018936157226562500e+01 -8.543479919433593750e+00 3.100642204284667969e+00 1.071660518646240234e+00 1.251690864562988281e+00 -1.649191141128540039e+00
2.553000000000000000e+03 8.026936531066894531e+00 2.074999237060546875e+01 5.535153746604919434e-01 2.477757930755615234e+00 9.093819260597229004e-01 -1.282697319984436035e+00
2.554000000000000000e+03 7.367664337158203125e+00 1.988932037353515625e+01 5.484962463378906250e-01 2.099097967147827148e+00 7.942782640457153320e-01 -1.186943531036376953e+00
2.555000000000000000e+03 6.503882408142089844e+00 2.275342178344726562e+01 2.911728024482727051e-01 1.881083130836486816e+00 6.516767740249633789e-01 -1.345791220664978027e+00
2.556000000000000000e+03 7.487558841705322266e+00 2.231223487854003906e+01 3.710702359676361084e-01 2.261520862579345703e+00 7.897773385047912598e-01 -1.382768392562866211e+00
2.557000000000000000e+03 1.019994258880615234e+01 1.046222591400146484e+01 1.182601690292358398e+00 2.479950189590454102e+00 1.098765611648559570e+00 -5.845259428024291992e-01
2.558000000000000000e+03 7.232137203216552734e+00 9.667592048645019531e+00 7.358911633491516113e-01 7.630015015602111816e-01 4.496678113937377930e-01 1.769943088293075562e-01
2.559000000000000000e+03 6.182428741455078125e+01 5.580453395843505859e+00 -2.222200185060501099e-01 2.606059789657592773e+00 7.151519060134887695e-01 -1.268205523490905762e+00
2.560000000000000000e+03 6.596761322021484375e+01 3.141283750534057617e+00 -8.626697659492492676e-01 4.699259757995605469e+00 1.150977015495300293e+00 -1.365022659301757812e+00
2.561000000000000000e+03 7.010968017578125000e+01 1.497342824935913086e+00 -8.307975530624389648e-01 6.601430416107177734e+00 1.731189846992492676e+00 -6.812661290168762207e-01
2.562000000000000000e+03 9.222432136535644531e+00 1.142443084716796875e+01 1.053480148315429688e+00 2.078118562698364258e+00 9.394796490669250488e-01 -4.555680155754089355e-01
2.563000000000000000e+03 2.521604156494140625e+01 -6.710664749145507812e+00 3.106312513351440430e+00 1.462494134902954102e+00 1.370641946792602539e+00 -1.851977825164794922e+00
2.564000000000000000e+03 4.965680694580078125e+01 1.073950767517089844e+01 1.952159047126770020e+00 2.636593341827392578e+00 1.376625657081604004e+00 1.663348436355590820e+00
2.565000000000000000e+03 6.912487792968750000e+01 2.676526451110839844e+01 2.393034100532531738e-01 5.474170207977294922e+00 1.714042186737060547e+00 2.802836243063211441e-03
2.566000000000000000e+03 7.064817810058593750e+01 2.886684417724609375e+01 1.361414641141891479e-01 5.701975345611572266e+00 1.751435041427612305e+00 3.439259156584739685e-02
2.567000000000000000e+03 2.542226982116699219e+01 -9.998636245727539062e+00 1.555523991584777832e+00 1.010400414466857910e+00 7.697772979736328125e-01 -1.098157525062561035e+00
2.568000000000000000e+03 7.018247222900390625e+01 5.839298248291015625e+00 -3.944711089134216309e-01 6.042011260986328125e+00 1.694262027740478516e+00 -9.342877864837646484e-01
2.569000000000000000e+03 4.443967056274414062e+01 -3.072582817077636719e+01 -1.482996493577957153e-01 3.690431118011474609e+00 1.062639474868774414e+00 -1.334487199783325195e+00
2.570000000000000000e+03 2.943641281127929688e+01 -1.000037288665771484e+01 2.453917741775512695e+00 9.002331495285034180e-01 1.006245255470275879e+00 -1.517664313316345215e+00
2.571000000000000000e+03 1.258841419219970703e+01 -7.543727874755859375e+00 1.096195220947265625e+00 5.671523809432983398e-01 4.990042746067047119e-01 1.801590085029602051e+00
2.572000000000000000e+03 7.036697387695312500e+01 -2.239750146865844727e+00 -7.929253578186035156e-01 7.304337978363037109e+00 1.953423857688903809e+00 -3.103684782981872559e-01
2.573000000000000000e+03 9.085247993469238281e+00 1.996551132202148438e+01 6.694046854972839355e-01 3.031828880310058594e+00 1.110370039939880371e+00 -1.266846776008605957e+00
2.574000000000000000e+03 5.616720962524414062e+01 9.989237785339355469e+00 1.209163427352905273e+00 1.718228459358215332e+00 8.782175779342651367e-01 -6.589577347040176392e-02
2.575000000000000000e+03 5.242050552368164062e+01 8.310558319091796875e+00 1.312672495841979980e+00 1.298584699630737305e+00 7.833771109580993652e-01 6.392915248870849609e-01
2.576000000000000000e+03 7.233606719970703125e+01 -3.444462966918945312e+01 -7.781245112419128418e-01 8.255990982055664062e+00 2.243359804153442383e+00 -3.662393391132354736e-01
2.577000000000000000e+03 4.875196838378906250e+01 1.149512958526611328e+01 2.006097078323364258e+00 3.170723438262939453e+00 1.553046226501464844e+00 1.930073976516723633e+00
2.578000000000000000e+03 4.769496536254882812e+01 1.172573280334472656e+01 2.013916492462158203e+00 3.794340610504150391e+00 1.742477178573608398e+00 2.219112157821655273e+00
2.579000000000000000e+03 4.799291610717773438e+01 8.814018249511718750e+00 1.843354105949401855e+00 2.843720674514770508e+00 1.406122446060180664e+00 2.094343662261962891e+00
2.580000000000000000e+03 5.152190399169921875e+01 2.559396171569824219e+01 5.325317978858947754e-01 4.085279941558837891e+00 1.385343551635742188e+00 1.069897770881652832e+00
2.581000000000000000e+03 7.282851409912109375e+01 -6.607748508453369141e+00 -3.080381751060485840e-01 8.561331748962402344e+00 2.475987911224365234e+00 3.664236962795257568e-01
2.582000000000000000e+03 7.114494323730468750e+01 2.205697059631347656e+01 2.803937196731567383e-01 5.682048320770263672e+00 1.788732647895812988e+00 -2.404330670833587646e-01
2.583000000000000000e+03 7.005174255371093750e+01 2.231381607055664062e+01 3.298722505569458008e-01 5.503417968750000000e+00 1.749987125396728516e+00 -2.140152901411056519e-01
2.584000000000000000e+03 2.921433448791503906e+01 -1.224882602691650391e+01 1.317610383033752441e+00 5.910836458206176758e-01 5.726082324981689453e-01 -1.113490343093872070e+00
2.585000000000000000e+03 3.083432960510253906e+01 -1.090135383605957031e+01 2.175739526748657227e+00 1.468721389770507812e+00 1.093338251113891602e+00 -1.445063352584838867e+00
2.586000000000000000e+03 2.904090118408203125e+01 -8.802492141723632812e+00 2.871448755264282227e+00 8.630683422088623047e-01 1.120355129241943359e+00 -1.704529523849487305e+00
2.587000000000000000e+03 4.827867126464843750e+01 -3.077742767333984375e+01 -7.347829639911651611e-02 1.928319215774536133e+00 5.564522743225097656e-01 -1.007982850074768066e+00
2.588000000000000000e+03 4.928896713256835938e+01 -3.178341865539550781e+01 -2.447179257869720459e-01 1.737103581428527832e+00 4.477156996726989746e-01 -8.504037261009216309e-01
2.589000000000000000e+03 7.005592346191406250e+01 2.438060569763183594e+01 2.868725657463073730e-01 5.544510841369628906e+00 1.749415040016174316e+00 -1.181735396385192871e-01
2.590000000000000000e+03 4.883003234863281250e+01 1.785271644592285156e+01 1.351352334022521973e+00 4.239421367645263672e+00 1.677232027053833008e+00 1.638836383819580078e+00
2.591000000000000000e+03 8.324475288391113281e+00 1.134385490417480469e+01 9.548659920692443848e-01 1.572972774505615234e+00 7.583516240119934082e-01 -2.615686655044555664e-01
2.592000000000000000e+03 4.938019180297851562e+01 1.276468944549560547e+01 1.967904448509216309e+00 3.230786561965942383e+00 1.559607267379760742e+00 1.800205230712890625e+00
2.593000000000000000e+03 1.043413162231445312e+01 3.204127120971679688e+01 -7.354635596275329590e-01 2.763271331787109375e+00 6.083422899246215820e-01 -1.161583423614501953e+00
2.594000000000000000e+03 4.966276931762695312e+01 2.013246154785156250e+01 1.121841430664062500e+00 4.160292625427246094e+00 1.584640145301818848e+00 1.432827591896057129e+00
2.595000000000000000e+03 5.061913299560546875e+01 2.405236625671386719e+01 6.848098635673522949e-01 4.115605354309082031e+00 1.440124630928039551e+00 1.139300227165222168e+00
2.596000000000000000e+03 8.321766853332519531e+00 -1.063121318817138672e+01 -1.943178921937942505e-01 1.648641228675842285e+00 4.362969994544982910e-01 1.437776088714599609e+00
2.597000000000000000e+03 7.010483551025390625e+01 1.511553478240966797e+01 3.117187023162841797e-01 5.470438003540039062e+00 1.734646916389465332e+00 -6.865168809890747070e-01
2.598000000000000000e+03 6.084886169433593750e+01 7.210986137390136719e+00 2.084733247756958008e-01 2.398826837539672852e+00 7.821900248527526855e-01 -1.068278908729553223e+00
2.599000000000000000e+03 5.670981979370117188e+01 8.953497886657714844e+00 9.847105145454406738e-01 1.623290061950683594e+00 7.824001908302307129e-01 -2.484922111034393311e-01
2.600000000000000000e+03 5.093620681762695312e+01 1.639509773254394531e+01 1.664892315864562988e+00 3.416462659835815430e+00 1.524406433105468750e+00 1.435734152793884277e+00
2.601000000000000000e+03 7.073151397705078125e+01 1.084910106658935547e+01 6.040889024734497070e-02 5.792699813842773438e+00 1.755932688713073730e+00 -8.690584897994995117e-01
2.602000000000000000e+03 6.516612243652343750e+01 4.293743133544921875e+00 -6.298189759254455566e-01 4.109816074371337891e+00 1.043999195098876953e+00 -1.413646817207336426e+00
2.603000000000000000e+03 6.320202255249023438e+01 5.400876522064208984e+00 -3.321538865566253662e-01 3.251176595687866211e+00 8.757068514823913574e-01 -1.352156758308410645e+00
2.604000000000000000e+03 5.083879852294921875e+01 2.864441299438476562e+01 1.163977235555648804e-01 4.121923446655273438e+00 1.271496415138244629e+00 9.736021161079406738e-01
2.605000000000000000e+03 7.050614356994628906e+00 2.139830780029296875e+01 4.045538902282714844e-01 2.018158435821533203e+00 7.268137335777282715e-01 -1.277768373489379883e+00
2.606000000000000000e+03 4.339255142211914062e+01 -3.216244888305664062e+01 -5.622075200080871582e-01 4.211765766143798828e+00 1.094867467880249023e+00 -1.171954512596130371e+00
2.607000000000000000e+03 7.457566070556640625e+01 -1.952817916870117188e+01 5.199003219604492188e-01 9.475912094116210938e+00 2.998743534088134766e+00 -5.538874864578247070e-01
2.608000000000000000e+03 6.923976898193359375e+01 3.542133712768554688e+01 -2.618305012583732605e-02 5.687025547027587891e+00 1.698252677917480469e+00 9.740600734949111938e-02
2.609000000000000000e+03 6.863732147216796875e+01 3.065666389465332031e+01 1.191454008221626282e-01 5.507448196411132812e+00 1.687978029251098633e+00 1.058654561638832092e-01
2.610000000000000000e+03 7.089099121093750000e+01 2.323994827270507812e+01 2.737200260162353516e-01 5.651979923248291016e+00 1.777709960937500000e+00 -1.786415725946426392e-01
2.611000000000000000e+03 5.084382629394531250e+01 2.140616416931152344e+01 1.036106944084167480e+00 3.980796813964843750e+00 1.505071163177490234e+00 1.257939696311950684e+00
2.612000000000000000e+03 4.969096374511718750e+01 2.265408706665039062e+01 8.088591694831848145e-01 4.218305110931396484e+00 1.508149266242980957e+00 1.243084430694580078e+00
2.613000000000000000e+03 9.302343368530273438e+00 1.484651279449462891e+01 9.899975061416625977e-01 2.765808582305908203e+00 1.126741886138916016e+00 -8.447120189666748047e-01
2.614000000000000000e+03 6.921614074707031250e+01 8.615439534187316895e-01 -9.345439076423645020e-01 6.449645996093750000e+00 1.654530644416809082e+00 -7.798297405242919922e-01
2.615000000000000000e+03 5.299551391601562500e+01 9.308962821960449219e+00 1.414407491683959961e+00 1.499897599220275879e+00 8.742915391921997070e-01 6.081086993217468262e-01
2.616000000000000000e+03 7.403386688232421875e+01 -1.848544883728027344e+01 5.427691340446472168e-01 9.930071830749511719e+00 3.141852378845214844e+00 -4.787614941596984863e-01
2.617000000000000000e+03 5.505936813354492188e+01 9.298543930053710938e+00 1.211133956909179688e+00 1.502748966217041016e+00 8.141648769378662109e-01 1.117490157485008240e-01
2.618000000000000000e+03 8.216522216796875000e+00 3.838634490966796875e+01 -7.165165543556213379e-01 2.662970066070556641e+00 5.839360356330871582e-01 -5.178630948066711426e-01
2.619000000000000000e+03 1.667474365234375000e+01 -3.548125743865966797e+00 3.271424770355224609e+00 1.547211408615112305e+00 1.445590853691101074e+00 1.933346152305603027e+00
2.620000000000000000e+03 1.947077178955078125e+01 -4.093774795532226562e+00 2.125669479370117188e+00 6.515031337738037109e+00 2.592210292816162109e+00 8.954773843288421631e-02
2.621000000000000000e+03 1.429293823242187500e+01 -4.935017585754394531e+00 2.058881759643554688e+00 4.858651459217071533e-01 7.634240984916687012e-01 1.485384464263916016e+00
2.622000000000000000e+03 1.593409633636474609e+01 -4.841469764709472656e+00 2.487665653228759766e+00 1.306457638740539551e+00 1.138236999511718750e+00 1.879923939704895020e+00
2.623000000000000000e+03 2.136108779907226562e+01 -4.579730510711669922e+00 2.978142499923706055e+00 4.550981044769287109e+00 2.258737087249755859e+00 -2.012974262237548828e+00
2.624000000000000000e+03 2.096558952331542969e+01 -4.342833042144775391e+00 2.837987422943115234e+00 5.179268360137939453e+00 2.405176639556884766e+00 -1.848614931106567383e+00
2.625000000000000000e+03 1.377031707763671875e+01 -5.435512542724609375e+00 1.785807132720947266e+00 4.326677620410919189e-01 6.655424833297729492e-01 1.513314843177795410e+00
2.626000000000000000e+03 9.066040039062500000e+00 -6.780668258666992188e+00 5.046835541725158691e-01 5.885987281799316406e-01 3.279846906661987305e-01 1.077795624732971191e+00
2.627000000000000000e+03 1.427875137329101562e+01 -5.469035148620605469e+00 1.916864752769470215e+00 5.771140456199645996e-01 7.481936216354370117e-01 1.616156697273254395e+00
2.628000000000000000e+03 1.119235992431640625e+01 -7.042485713958740234e+00 9.214429259300231934e-01 5.137006640434265137e-01 4.305430650711059570e-01 1.502852082252502441e+00
2.629000000000000000e+03 1.106902027130126953e+01 -6.431528568267822266e+00 9.834149479866027832e-01 4.087080061435699463e-01 4.176368713378906250e-01 1.352311611175537109e+00
2.630000000000000000e+03 9.696677207946777344e+00 -1.055888748168945312e+01 3.637500107288360596e-02 1.348670125007629395e+00 4.155135154724121094e-01 1.920038819313049316e+00
2.631000000000000000e+03 8.323934555053710938e+00 -6.885195732116699219e+00 3.748025894165039062e-01 6.232281923294067383e-01 2.994092404842376709e-01 9.472275376319885254e-01
2.632000000000000000e+03 2.165327644348144531e+01 -4.125521183013916016e+00 3.624660968780517578e+00 4.374562263488769531e+00 2.399766921997070312e+00 -2.519344568252563477e+00
2.633000000000000000e+03 1.247217082977294922e+01 -6.863707065582275391e+00 1.234350919723510742e+00 4.941616356372833252e-01 5.185537934303283691e-01 1.663899660110473633e+00
2.634000000000000000e+03 1.309814739227294922e+01 -6.770403385162353516e+00 1.374845504760742188e+00 5.253034234046936035e-01 5.700446963310241699e-01 1.721877932548522949e+00
2.635000000000000000e+03 1.014437294006347656e+01 7.502094745635986328e+00 9.516046047210693359e-01 1.510235071182250977e+00 7.385519146919250488e-01 -2.215033918619155884e-01
2.636000000000000000e+03 8.244965553283691406e+00 9.558064460754394531e+00 8.797309994697570801e-01 1.213441014289855957e+00 6.279516220092773438e-01 -1.980089116841554642e-03
2.637000000000000000e+03 9.179650306701660156e+00 -8.011377334594726562e+00 3.667551279067993164e-01 8.405494093894958496e-01 3.621913790702819824e-01 1.320373415946960449e+00
2.638000000000000000e+03 2.055213737487792969e+01 -1.097532272338867188e+01 1.452974379062652588e-01 1.437190651893615723e+00 4.747464358806610107e-01 2.899169325828552246e-01
2.639000000000000000e+03 1.182462692260742188e+01 7.499037265777587891e+00 1.147273778915405273e+00 2.424890279769897461e+00 1.071649193763732910e+00 -7.449900507926940918e-01
2.640000000000000000e+03 2.266136360168457031e+01 -5.014507770538330078e+00 3.503983736038208008e+00 2.902229785919189453e+00 1.921864032745361328e+00 -2.216462135314941406e+00
2.641000000000000000e+03 1.024246025085449219e+01 1.148712539672851562e+01 1.143840432167053223e+00 2.731372833251953125e+00 1.162564039230346680e+00 -6.670044064521789551e-01
2.642000000000000000e+03 8.151275634765625000e+00 -9.635583877563476562e+00 -5.107605457305908203e-02 1.327263355255126953e+00 3.828561604022979736e-01 1.274306178092956543e+00
2.643000000000000000e+03 7.012158966064453125e+01 3.306180238723754883e+00 -6.862543225288391113e-01 6.351344108581542969e+00 1.699527025222778320e+00 -8.225942850112915039e-01
2.644000000000000000e+03 1.202403259277343750e+01 6.801700115203857422e+00 1.068322300910949707e+00 2.250255823135375977e+00 9.955734014511108398e-01 -7.698768973350524902e-01
2.645000000000000000e+03 1.392304515838623047e+01 -1.114308166503906250e+01 3.967509865760803223e-01 4.193670451641082764e-01 2.448354065418243408e-01 2.085232257843017578e+00
2.646000000000000000e+03 1.107308483123779297e+01 -9.009919166564941406e+00 5.675999522209167480e-01 8.353394269943237305e-01 4.208818078041076660e-01 1.877814888954162598e+00
2.647000000000000000e+03 1.729103660583496094e+01 -1.178040504455566406e+01 -1.262713372707366943e-01 7.703237533569335938e-01 1.932157278060913086e-01 1.204956769943237305e+00
2.648000000000000000e+03 6.458224487304687500e+01 5.617481231689453125e+00 -3.649224042892456055e-01 3.843142986297607422e+00 1.043466210365295410e+00 -1.372036814689636230e+00
2.649000000000000000e+03 1.105540847778320312e+01 8.290981292724609375e+00 1.109528541564941406e+00 2.235727787017822266e+00 1.003576874732971191e+00 -5.747962594032287598e-01
2.650000000000000000e+03 2.520551300048828125e+01 -1.203498268127441406e+01 4.644092023372650146e-01 7.417725324630737305e-01 3.618545234203338623e-01 -5.725296139717102051e-01
2.651000000000000000e+03 8.312333106994628906e+00 1.911402893066406250e+01 6.867246627807617188e-01 2.568876028060913086e+00 9.766802191734313965e-01 -1.172709703445434570e+00
2.652000000000000000e+03 2.237287521362304688e+01 -1.107219314575195312e+01 3.478183150291442871e-01 1.307442426681518555e+00 4.965782165527343750e-01 -2.084855586290359497e-01
2.653000000000000000e+03 2.160009193420410156e+01 -1.021424198150634766e+01 5.868309140205383301e-01 1.638272285461425781e+00 6.675309538841247559e-01 -1.348605304956436157e-01
2.654000000000000000e+03 2.431391334533691406e+01 -1.104490375518798828e+01 7.805551886558532715e-01 1.027190923690795898e+00 5.423238277435302734e-01 -6.565347313880920410e-01
2.655000000000000000e+03 5.137071990966796875e+01 1.089854812622070312e+01 1.837103724479675293e+00 2.134948730468750000e+00 1.191615700721740723e+00 1.186128020286560059e+00
2.656000000000000000e+03 1.110711956024169922e+01 9.584050178527832031e+00 1.236926317214965820e+00 2.651786565780639648e+00 1.166613936424255371e+00 -7.535297870635986328e-01
2.657000000000000000e+03 9.239726066589355469e+00 9.496650695800781250e+00 1.018275856971740723e+00 1.661991119384765625e+00 8.040800690650939941e-01 -2.148167937994003296e-01
2.658000000000000000e+03 6.906536102294921875e+01 1.172650146484375000e+01 2.076943963766098022e-01 5.264604091644287109e+00 1.641689538955688477e+00 -8.899814486503601074e-01
2.659000000000000000e+03 3.530001449584960938e+01 -6.497144699096679688e+00 2.926987648010253906e+00 4.606446743011474609e+00 2.260030269622802734e+00 -1.639440357685089111e-01
2.660000000000000000e+03 3.575880050659179688e+01 -8.565437316894531250e+00 2.438804149627685547e+00 5.644099235534667969e+00 2.424870967864990234e+00 -5.924589037895202637e-01
2.661000000000000000e+03 2.319838905334472656e+01 -6.103465080261230469e+00 2.963900089263916016e+00 2.382017374038696289e+00 1.603775262832641602e+00 -1.786817789077758789e+00
2.662000000000000000e+03 3.153864288330078125e+01 -9.454737663269042969e+00 2.855885982513427734e+00 1.777502894401550293e+00 1.390016674995422363e+00 -1.455421805381774902e+00
2.663000000000000000e+03 3.257550811767578125e+01 -9.278074264526367188e+00 2.899397373199462891e+00 2.621036767959594727e+00 1.656130313873291016e+00 -1.260695219039916992e+00
2.664000000000000000e+03 7.386755466461181641e+00 6.775671482086181641e+00 4.622387588024139404e-01 3.797321915626525879e-01 2.525912821292877197e-01 5.362015962600708008e-01
2.665000000000000000e+03 2.539093017578125000e+01 -7.844101428985595703e+00 2.558672428131103516e+00 1.324764013290405273e+00 1.165030956268310547e+00 -1.610702514648437500e+00
2.666000000000000000e+03 2.388914108276367188e+01 -6.159635543823242188e+00 3.082728385925292969e+00 2.012995481491088867e+00 1.528717160224914551e+00 -1.824955463409423828e+00
2.667000000000000000e+03 8.678567886352539062e+00 1.337081813812255859e+01 9.328578710556030273e-01 2.091274261474609375e+00 9.072396159172058105e-01 -5.773500800132751465e-01
2.668000000000000000e+03 2.074561882019042969e+01 -1.019300365447998047e+01 4.703228473663330078e-01 1.693565011024475098e+00 6.491663455963134766e-01 1.338213384151458740e-01
2.669000000000000000e+03 2.658703041076660156e+01 -8.874568939208984375e+00 2.370816946029663086e+00 9.382455945014953613e-01 9.927187561988830566e-01 -1.531907796859741211e+00
2.670000000000000000e+03 2.545734977722167969e+01 -8.936573028564453125e+00 2.093993186950683594e+00 1.149179339408874512e+00 9.729517698287963867e-01 -1.384840130805969238e+00
2.671000000000000000e+03 2.780932617187500000e+01 -8.887331008911132812e+00 2.638342142105102539e+00 8.083229660987854004e-01 1.033999562263488770e+00 -1.641022443771362305e+00
2.672000000000000000e+03 2.633764266967773438e+01 -1.107111930847167969e+01 1.218637108802795410e+00 7.106258273124694824e-01 5.787788629531860352e-01 -9.459710121154785156e-01
2.673000000000000000e+03 1.107077789306640625e+01 -1.001996326446533203e+01 3.901982605457305908e-01 9.345149397850036621e-01 3.974139690399169922e-01 2.055524826049804688e+00
2.674000000000000000e+03 5.751720428466796875e+01 8.206417083740234375e+00 7.487841248512268066e-01 1.634336352348327637e+00 7.149361371994018555e-01 -4.726870357990264893e-01
2.675000000000000000e+03 3.521971130371093750e+01 -9.480768203735351562e+00 2.382204055786132812e+00 5.247239589691162109e+00 2.288833141326904297e+00 -9.076821208000183105e-01
2.676000000000000000e+03 6.850936889648437500e+01 1.948164176940917969e+01 4.643231630325317383e-01 5.165537357330322266e+00 1.688958048820495605e+00 -3.655833899974822998e-01
2.677000000000000000e+03 6.837952423095703125e+01 1.708629417419433594e+01 4.757389128208160400e-01 5.069288730621337891e+00 1.663508296012878418e+00 -5.284913182258605957e-01
2.678000000000000000e+03 7.112368774414062500e+01 7.581202030181884766e+00 -1.957974880933761597e-01 6.177326202392578125e+00 1.794458627700805664e+00 -8.696327209472656250e-01
2.679000000000000000e+03 6.978404998779296875e+01 7.063364505767822266e+00 -2.660552263259887695e-01 5.787416458129882812e+00 1.656408429145812988e+00 -9.894042015075683594e-01
2.680000000000000000e+03 3.351901245117187500e+01 -9.755978584289550781e+00 2.584399461746215820e+00 3.468161582946777344e+00 1.815768361091613770e+00 -1.261570453643798828e+00
2.681000000000000000e+03 2.988992691040039062e+01 -1.111329936981201172e+01 2.009161949157714844e+00 1.034494042396545410e+00 9.130967855453491211e-01 -1.404666423797607422e+00
2.682000000000000000e+03 6.736263275146484375e+01 1.579476451873779297e+01 5.333931446075439453e-01 4.816976070404052734e+00 1.605110764503479004e+00 -6.192476749420166016e-01
2.683000000000000000e+03 7.036582946777343750e+01 1.703448295593261719e+01 3.356017470359802246e-01 5.529209136962890625e+00 1.759443283081054688e+00 -5.537661910057067871e-01
2.684000000000000000e+03 5.925436019897460938e+01 6.143931865692138672e+00 4.823426902294158936e-02 1.718908905982971191e+00 5.301429629325866699e-01 -8.941253423690795898e-01
2.685000000000000000e+03 6.844380950927734375e+01 1.905066370964050293e+00 -9.020496010780334473e-01 5.936697959899902344e+00 1.510394573211669922e+00 -9.816119074821472168e-01
2.686000000000000000e+03 1.814289283752441406e+01 -1.040454864501953125e+01 3.050518929958343506e-01 1.347657680511474609e+00 4.958128929138183594e-01 1.063251852989196777e+00
2.687000000000000000e+03 1.461597347259521484e+01 -1.068978118896484375e+01 4.635150134563446045e-01 5.975948572158813477e-01 3.183329701423645020e-01 1.954096317291259766e+00
2.688000000000000000e+03 8.279443740844726562e+00 1.048994445800781250e+01 9.411047101020812988e-01 1.406506776809692383e+00 7.042834758758544922e-01 -1.504690051078796387e-01
2.689000000000000000e+03 6.966072845458984375e+01 1.031275463104248047e+01 6.884866207838058472e-02 5.515768527984619141e+00 1.675385236740112305e+00 -9.300691485404968262e-01
2.690000000000000000e+03 6.879568481445312500e+01 2.527827453613281250e+01 3.304328620433807373e-01 5.375878810882568359e+00 1.711893558502197266e+00 -6.157872080802917480e-02
2.691000000000000000e+03 7.061432647705078125e+01 -7.719776630401611328e-01 -8.365903496742248535e-01 7.117156505584716797e+00 1.884169816970825195e+00 -3.947609961032867432e-01
2.692000000000000000e+03 6.322899246215820312e+01 6.875802040100097656e+00 -1.228631287813186646e-02 3.312945127487182617e+00 9.901976585388183594e-01 -1.245597839355468750e+00
2.693000000000000000e+03 4.993471145629882812e+01 1.753640556335449219e+01 1.482960462570190430e+00 3.892307043075561523e+00 1.612580299377441406e+00 1.595041155815124512e+00
2.694000000000000000e+03 5.220135879516601562e+01 1.003265094757080078e+01 1.655918478965759277e+00 1.748180031776428223e+00 1.021229505538940430e+00 8.712639808654785156e-01
2.695000000000000000e+03 5.393521118164062500e+01 8.964878082275390625e+00 1.262700557708740234e+00 1.398675084114074707e+00 7.984127402305603027e-01 3.437882959842681885e-01
2.696000000000000000e+03 5.993140411376953125e+01 8.747997283935546875e+00 6.338661909103393555e-01 2.354348421096801758e+00 8.964644074440002441e-01 -7.853897213935852051e-01
2.697000000000000000e+03 5.946747589111328125e+01 9.792405128479003906e+00 8.630975484848022461e-01 2.356217861175537109e+00 9.657946228981018066e-01 -6.223052144050598145e-01
2.698000000000000000e+03 3.180303382873535156e+01 -1.067128658294677734e+01 2.347130298614501953e+00 2.179845809936523438e+00 1.358092904090881348e+00 -1.436824440956115723e+00
2.699000000000000000e+03 5.246890258789062500e+01 2.730350303649902344e+01 3.475110232830047607e-01 4.111405372619628906e+00 1.337674975395202637e+00 9.855632781982421875e-01
2.700000000000000000e+03 5.144914627075195312e+01 9.013773918151855469e+00 1.529007434844970703e+00 1.613028049468994141e+00 9.426106214523315430e-01 9.725970625877380371e-01
2.701000000000000000e+03 6.901296234130859375e+01 2.309821701049804688e+01 3.727393150329589844e-01 5.339709281921386719e+00 1.713734507560729980e+00 -1.659073531627655029e-01
2.702000000000000000e+03 4.206945800781250000e+01 -3.060157012939453125e+01 -3.350924849510192871e-01 5.026929855346679688e+00 1.407551288604736328e+00 -1.297082066535949707e+00
2.703000000000000000e+03 7.087126159667968750e+01 2.405736446380615234e+00 -6.857547760009765625e-01 6.701330661773681641e+00 1.804672718048095703e+00 -6.543427705764770508e-01
2.704000000000000000e+03 7.087599182128906250e+01 3.993122100830078125e+00 -5.484446883201599121e-01 6.508747577667236328e+00 1.788090825080871582e+00 -7.596855163574218750e-01
2.705000000000000000e+03 5.194399261474609375e+01 2.009381103515625000e+01 1.251327753067016602e+00 3.745384454727172852e+00 1.499013662338256836e+00 1.256877660751342773e+00
2.706000000000000000e+03 5.043933105468750000e+01 1.403234004974365234e+01 1.899215340614318848e+00 3.157486915588378906e+00 1.517010688781738281e+00 1.582449197769165039e+00
2.707000000000000000e+03 6.838391113281250000e+01 1.493873882293701172e+01 4.234988689422607422e-01 5.061848163604736328e+00 1.645604133605957031e+00 -6.889131069183349609e-01
2.708000000000000000e+03 7.103338623046875000e+01 1.590573406219482422e+01 2.750819325447082520e-01 5.705475807189941406e+00 1.794167399406433105e+00 -6.143010854721069336e-01
2.709000000000000000e+03 1.811189460754394531e+01 -4.487543106079101562e+00 2.317879915237426758e+00 4.269559860229492188e+00 1.976231932640075684e+00 1.869877815246582031e+00
2.710000000000000000e+03 1.909882736206054688e+01 -4.510479450225830078e+00 1.958626866340637207e+00 5.622029781341552734e+00 2.274196863174438477e+00 7.503129839897155762e-01
2.711000000000000000e+03 1.904408454895019531e+01 -4.134167671203613281e+00 2.105549573898315430e+00 6.188390731811523438e+00 2.488182067871093750e+00 8.944732546806335449e-01
2.712000000000000000e+03 1.882714843750000000e+01 -4.919369220733642578e+00 1.899752378463745117e+00 4.802414894104003906e+00 2.010650157928466797e+00 1.034981608390808105e+00
2.713000000000000000e+03 1.958853721618652344e+01 -4.614987373352050781e+00 1.960239648818969727e+00 5.697160243988037109e+00 2.297219991683959961e+00 3.170019946992397308e-03
2.714000000000000000e+03 1.786321640014648438e+01 -4.573524475097656250e+00 2.359195709228515625e+00 3.676155567169189453e+00 1.810605406761169434e+00 1.952328205108642578e+00
2.715000000000000000e+03 1.752482795715332031e+01 -4.261895179748535156e+00 2.673838615417480469e+00 3.256689071655273438e+00 1.779158353805541992e+00 2.166440725326538086e+00
2.716000000000000000e+03 1.841016578674316406e+01 -4.443497657775878906e+00 2.209095239639282227e+00 4.775615692138671875e+00 2.095413208007812500e+00 1.613089799880981445e+00
2.717000000000000000e+03 2.031587409973144531e+01 -4.333163738250732422e+00 2.418497323989868164e+00 5.869105815887451172e+00 2.486280918121337891e+00 -1.236302256584167480e+00
2.718000000000000000e+03 2.034539985656738281e+01 -4.770194053649902344e+00 2.202975749969482422e+00 5.385664939880371094e+00 2.276592254638671875e+00 -1.017070293426513672e+00
2.719000000000000000e+03 1.364388275146484375e+01 -6.046974182128906250e+00 1.651003479957580566e+00 5.025764107704162598e-01 6.460739970207214355e-01 1.637131810188293457e+00
2.720000000000000000e+03 1.014773750305175781e+01 -7.599640846252441406e+00 6.196640729904174805e-01 6.777869462966918945e-01 3.892353177070617676e-01 1.436155200004577637e+00
2.721000000000000000e+03 9.747075080871582031e+00 -9.822678565979003906e+00 1.500305980443954468e-01 1.179471135139465332e+00 3.988505005836486816e-01 1.808072209358215332e+00
2.722000000000000000e+03 9.881785392761230469e+00 -9.069105148315429688e+00 3.376562595367431641e-01 9.901983737945556641e-01 3.983564078807830811e-01 1.682725906372070312e+00
2.723000000000000000e+03 2.335421371459960938e+01 -8.246356964111328125e+00 1.862341165542602539e+00 1.890720963478088379e+00 1.125918626785278320e+00 -1.168922305107116699e+00
2.724000000000000000e+03 1.129085063934326172e+01 -7.640799522399902344e+00 7.981724143028259277e-01 6.239392161369323730e-01 4.266334772109985352e-01 1.641819119453430176e+00
2.725000000000000000e+03 1.183327865600585938e+01 -6.953142642974853516e+00 1.068809866905212402e+00 4.831991195678710938e-01 4.656026959419250488e-01 1.582081317901611328e+00
2.726000000000000000e+03 1.193290042877197266e+01 -7.619674205780029297e+00 9.735399484634399414e-01 5.862579345703125000e-01 4.679393768310546875e-01 1.758085250854492188e+00
2.727000000000000000e+03 1.321775627136230469e+01 -7.416583061218261719e+00 1.241089582443237305e+00 6.285798549652099609e-01 5.609008073806762695e-01 1.857442378997802734e+00
2.728000000000000000e+03 1.703126907348632812e+01 -1.069810771942138672e+01 2.837347686290740967e-01 1.014912962913513184e+00 3.895943164825439453e-01 1.371518015861511230e+00
2.729000000000000000e+03 1.969110679626464844e+01 -1.084378623962402344e+01 1.357696503400802612e-01 1.432818174362182617e+00 4.705763459205627441e-01 5.488038659095764160e-01
2.730000000000000000e+03 1.774817657470703125e+01 -1.107716083526611328e+01 9.478512406349182129e-02 1.052967667579650879e+00 3.443258404731750488e-01 1.156611084938049316e+00
2.731000000000000000e+03 1.021610164642333984e+01 9.466830253601074219e+00 1.130078673362731934e+00 2.161739110946655273e+00 9.875453114509582520e-01 -4.860940575599670410e-01
2.732000000000000000e+03 1.245846843719482422e+01 -8.600750923156738281e+00 8.666566610336303711e-01 6.458866000175476074e-01 4.537629783153533936e-01 1.958476781845092773e+00
2.733000000000000000e+03 1.338538169860839844e+01 -1.032788944244384766e+01 5.530689954757690430e-01 6.911373138427734375e-01 3.732618987560272217e-01 2.163988351821899414e+00
2.734000000000000000e+03 2.441216087341308594e+01 -9.046256065368652344e+00 1.760857343673706055e+00 1.397219896316528320e+00 9.474231600761413574e-01 -1.171037435531616211e+00
2.735000000000000000e+03 1.162493419647216797e+01 -9.658520698547363281e+00 4.835664033889770508e-01 8.253222703933715820e-01 3.926666080951690674e-01 2.038085937500000000e+00
2.736000000000000000e+03 9.035967826843261719e+00 -8.845882415771484375e+00 2.078164070844650269e-01 1.027953863143920898e+00 3.707310855388641357e-01 1.422114610671997070e+00
2.737000000000000000e+03 1.652306747436523438e+01 -1.132773113250732422e+01 1.122452840209007263e-01 7.209821343421936035e-01 2.499682158231735229e-01 1.470914244651794434e+00
2.738000000000000000e+03 6.436572265625000000e+01 6.996262073516845703e+00 -8.474350720643997192e-02 3.771199941635131836e+00 1.105936884880065918e+00 -1.276685237884521484e+00
2.739000000000000000e+03 6.846458435058593750e+01 9.677489280700683594e+00 5.797834321856498718e-02 5.195289611816406250e+00 1.575980305671691895e+00 -1.018109440803527832e+00
2.740000000000000000e+03 1.525318813323974609e+01 -1.023466968536376953e+01 5.743308067321777344e-01 7.133529782295227051e-01 3.863051235675811768e-01 1.854798793792724609e+00
2.741000000000000000e+03 2.249017906188964844e+01 -1.018196773529052734e+01 7.732357978820800781e-01 1.532496452331542969e+00 6.917197108268737793e-01 -4.406758248805999756e-01
2.742000000000000000e+03 2.167584419250488281e+01 -9.437322616577148438e+00 9.064691066741943359e-01 1.908082008361816406e+00 8.443653583526611328e-01 -3.145070672035217285e-01
2.743000000000000000e+03 5.580834579467773438e+01 1.124537086486816406e+01 1.443524122238159180e+00 1.985486984252929688e+00 1.028703331947326660e+00 1.708592325448989868e-01
2.744000000000000000e+03 5.755670547485351562e+01 9.673923492431640625e+00 1.042975425720214844e+00 1.907024264335632324e+00 8.849999308586120605e-01 -2.913876771926879883e-01
2.745000000000000000e+03 2.531887245178222656e+01 -1.102766513824462891e+01 1.035524845123291016e+00 8.658884763717651367e-01 5.704240202903747559e-01 -8.463493585586547852e-01
2.746000000000000000e+03 6.714220428466796875e+01 2.051989746093750000e+01 5.443958044052124023e-01 4.937922000885009766e+00 1.644695401191711426e+00 -2.488157898187637329e-01
2.747000000000000000e+03 6.530719757080078125e+01 1.532254314422607422e+01 6.983103752136230469e-01 4.309895038604736328e+00 1.502461552619934082e+00 -5.667684674263000488e-01
2.748000000000000000e+03 6.505891418457031250e+01 9.802131652832031250e+00 2.926608622074127197e-01 4.039008617401123047e+00 1.299500823020935059e+00 -1.079816341400146484e+00
2.749000000000000000e+03 6.802492523193359375e+01 4.688705921173095703e+00 -5.738423466682434082e-01 5.422690391540527344e+00 1.454654455184936523e+00 -1.151274681091308594e+00
2.750000000000000000e+03 6.699548339843750000e+01 3.956641435623168945e+00 -7.145245075225830078e-01 5.045728683471679688e+00 1.299361228942871094e+00 -1.254231810569763184e+00
2.751000000000000000e+03 2.415723609924316406e+01 -6.980262756347656250e+00 2.722007989883422852e+00 1.809223532676696777e+00 1.359369397163391113e+00 -1.678244829177856445e+00
2.752000000000000000e+03 2.286263465881347656e+01 -6.749051570892333984e+00 2.443857192993164062e+00 2.472433090209960938e+00 1.474887013435363770e+00 -1.536966800689697266e+00
2.753000000000000000e+03 6.887030029296875000e+01 1.311536121368408203e+01 3.008155226707458496e-01 5.194210529327392578e+00 1.648507833480834961e+00 -8.244956731796264648e-01
2.754000000000000000e+03 2.825361442565917969e+01 -1.148018836975097656e+01 1.423871159553527832e+00 5.306333899497985840e-01 5.863513946533203125e-01 -1.085740089416503906e+00
2.755000000000000000e+03 5.463561630249023438e+01 1.055608654022216797e+01 1.492125034332275391e+00 1.820222139358520508e+00 9.937041401863098145e-01 3.973301649093627930e-01
2.756000000000000000e+03 2.858998870849609375e+01 -1.057474422454833984e+01 2.109108209609985352e+00 7.044714093208312988e-01 8.440739512443542480e-01 -1.406709432601928711e+00
2.757000000000000000e+03 2.905752372741699219e+01 -1.136163806915283203e+01 1.785033822059631348e+00 6.617121100425720215e-01 7.340238094329833984e-01 -1.258117556571960449e+00
2.758000000000000000e+03 5.196487045288085938e+01 1.766413307189941406e+01 1.534441709518432617e+00 3.449820041656494141e+00 1.495278596878051758e+00 1.286448955535888672e+00
2.759000000000000000e+03 5.854169464111328125e+01 7.716317176818847656e+00 5.364313125610351562e-01 1.757850408554077148e+00 6.882845163345336914e-01 -6.790687441825866699e-01
2.760000000000000000e+03 5.777839660644531250e+00 2.000164222717285156e+01 3.877623081207275391e-01 1.227163076400756836e+00 4.844776093959808350e-01 -1.043410181999206543e+00
2.761000000000000000e+03 6.636191558837890625e+01 5.067030429840087891e+00 -5.120458602905273438e-01 4.710299968719482422e+00 1.259476304054260254e+00 -1.303838253021240234e+00
2.762000000000000000e+03 5.055274963378906250e+01 9.860672950744628906e+00 1.796407699584960938e+00 2.011206626892089844e+00 1.142284274101257324e+00 1.309513688087463379e+00
2.763000000000000000e+03 5.045839691162109375e+01 1.184114646911621094e+01 1.934675335884094238e+00 2.587084770202636719e+00 1.356528043746948242e+00 1.475431323051452637e+00
2.764000000000000000e+03 5.141925048828125000e+01 1.289025592803955078e+01 1.904824733734130859e+00 2.624190092086791992e+00 1.358704447746276855e+00 1.308471322059631348e+00
2.765000000000000000e+03 5.285326004028320312e+01 1.891956520080566406e+01 1.381003499031066895e+00 3.534490823745727539e+00 1.474648356437683105e+00 1.163654088973999023e+00
2.766000000000000000e+03 5.080100631713867188e+01 1.882171440124511719e+01 1.370721697807312012e+00 3.809669494628906250e+00 1.554117321968078613e+00 1.424966096878051758e+00
2.767000000000000000e+03 5.307398605346679688e+01 2.422075843811035156e+01 7.457480430603027344e-01 3.979892253875732422e+00 1.417692065238952637e+00 1.048975348472595215e+00
2.768000000000000000e+03 6.919198608398437500e+01 8.343020439147949219e+00 -1.192379072308540344e-01 5.511456012725830078e+00 1.617665410041809082e+00 -1.025308370590209961e+00
2.769000000000000000e+03 6.532321929931640625e+01 8.469537734985351562e+00 9.153021872043609619e-02 4.130797386169433594e+00 1.266698241233825684e+00 -1.190774440765380859e+00
2.770000000000000000e+03 4.381456375122070312e+01 -3.575242996215820312e+01 -1.045797348022460938e+00 3.932742834091186523e+00 8.660836219787597656e-01 -8.038401603698730469e-01
2.771000000000000000e+03 4.707616043090820312e+01 -3.734829711914062500e+01 -8.025152683258056641e-01 2.838323116302490234e+00 6.107423901557922363e-01 -7.436711192131042480e-01
2.772000000000000000e+03 6.685284423828125000e+01 2.295227432250976562e+01 4.916135966777801514e-01 4.969944953918457031e+00 1.638467550277709961e+00 -6.761008501052856445e-02
2.773000000000000000e+03 6.810971069335937500e+01 2.183260154724121094e+01 4.575063884258270264e-01 5.131425380706787109e+00 1.676679611206054688e+00 -2.083902359008789062e-01
2.774000000000000000e+03 1.816922950744628906e+01 -4.819860935211181641e+00 2.103369951248168945e+00 4.064617633819580078e+00 1.850396275520324707e+00 1.658588409423828125e+00
2.775000000000000000e+03 1.846314811706542969e+01 -4.876443862915039062e+00 1.979233503341674805e+00 4.431596279144287109e+00 1.923248887062072754e+00 1.382625102996826172e+00
2.776000000000000000e+03 1.935629463195800781e+01 -4.445189476013183594e+00 1.997334480285644531e+00 5.871590137481689453e+00 2.360677480697631836e+00 3.442342877388000488e-01
2.777000000000000000e+03 1.794742584228515625e+01 -4.823594093322753906e+00 2.206907033920288086e+00 3.767043352127075195e+00 1.792185068130493164e+00 1.901134610176086426e+00
2.778000000000000000e+03 1.957838821411132812e+01 -4.358530521392822266e+00 2.064478635787963867e+00 6.094324588775634766e+00 2.447641134262084961e+00 -7.304786890745162964e-02
2.779000000000000000e+03 1.473603343963623047e+01 -5.541297435760498047e+00 2.005537986755371094e+00 7.268801331520080566e-01 8.197253942489624023e-01 1.724324703216552734e+00
2.780000000000000000e+03 1.715142822265625000e+01 -4.221195697784423828e+00 2.811226129531860352e+00 2.604287147521972656e+00 1.624654054641723633e+00 2.171723365783691406e+00
2.781000000000000000e+03 2.057871818542480469e+01 -5.992894649505615234e+00 1.875812649726867676e+00 3.993267536163330078e+00 1.760724067687988281e+00 -6.834734082221984863e-01
2.782000000000000000e+03 1.546762371063232422e+01 -4.919959545135498047e+00 2.365433931350708008e+00 9.419034719467163086e-01 9.922012090682983398e-01 1.744775533676147461e+00
2.783000000000000000e+03 1.516531372070312500e+01 -5.594161987304687500e+00 2.076999187469482422e+00 9.713106751441955566e-01 9.144929647445678711e-01 1.818870663642883301e+00
2.784000000000000000e+03 1.500120449066162109e+01 -5.105300903320312500e+00 2.208479404449462891e+00 7.861588597297668457e-01 8.983914852142333984e-01 1.679776072502136230e+00
2.785000000000000000e+03 1.418432331085205078e+01 -6.070055484771728516e+00 1.761981248855590820e+00 6.490556001663208008e-01 7.233110666275024414e-01 1.741124987602233887e+00
2.786000000000000000e+03 1.747388648986816406e+01 -1.009420967102050781e+01 4.459619820117950439e-01 1.282263398170471191e+00 5.184676051139831543e-01 1.310965299606323242e+00
2.787000000000000000e+03 2.076321029663085938e+01 -4.833313465118408203e+00 2.444238901138305664e+00 4.964367389678955078e+00 2.222581863403320312e+00 -1.364117264747619629e+00
2.788000000000000000e+03 1.070491790771484375e+01 -7.718986511230468750e+00 7.167940139770507812e-01 6.509489417076110840e-01 4.103229045867919922e-01 1.576263427734375000e+00
2.789000000000000000e+03 2.211610984802246094e+01 -5.018695354461669922e+00 3.211144447326660156e+00 3.519391536712646484e+00 2.019160747528076172e+00 -2.148763179779052734e+00
2.790000000000000000e+03 2.112331199645996094e+01 -5.008336544036865234e+00 2.586186647415161133e+00 4.464967250823974609e+00 2.115346193313598633e+00 -1.583657979965209961e+00
2.791000000000000000e+03 1.158807754516601562e+01 -8.687416076660156250e+00 6.944411396980285645e-01 7.089938521385192871e-01 4.210304915904998779e-01 1.880066156387329102e+00
2.792000000000000000e+03 1.134597492218017578e+01 -8.207572937011718750e+00 7.757517695426940918e-01 6.798814535140991211e-01 4.366899728775024414e-01 1.794977426528930664e+00
2.793000000000000000e+03 1.581544017791748047e+01 -9.763829231262207031e+00 6.760939359664916992e-01 9.569681286811828613e-01 4.899186193943023682e-01 1.755184769630432129e+00
2.794000000000000000e+03 1.584370994567871094e+01 -1.080662918090820312e+01 3.507106602191925049e-01 7.330024838447570801e-01 3.251139223575592041e-01 1.668780326843261719e+00
2.795000000000000000e+03 1.189348220825195312e+01 -8.243775367736816406e+00 8.372691869735717773e-01 6.715251207351684570e-01 4.526382982730865479e-01 1.844978928565979004e+00
2.796000000000000000e+03 2.254636383056640625e+01 -5.778632640838623047e+00 2.937428712844848633e+00 2.897202730178833008e+00 1.750389337539672852e+00 -1.837795853614807129e+00
2.797000000000000000e+03 2.343719673156738281e+01 -9.182019233703613281e+00 1.451221346855163574e+00 1.604239940643310547e+00 9.166383743286132812e-01 -9.449847340583801270e-01
2.798000000000000000e+03 1.283691024780273438e+01 -8.142917633056640625e+00 1.014277577400207520e+00 6.607016921043395996e-01 5.024937391281127930e-01 1.919929504394531250e+00
2.799000000000000000e+03 1.993190002441406250e+01 -1.010097694396972656e+01 4.263222813606262207e-01 1.714476466178894043e+00 6.422396302223205566e-01 4.376744627952575684e-01
2.800000000000000000e+03 1.847896194458007812e+01 -9.745469093322753906e+00 5.033451318740844727e-01 1.642495870590209961e+00 6.437522768974304199e-01 9.808161258697509766e-01
2.801000000000000000e+03 1.618182182312011719e+01 -6.261656284332275391e+00 1.823999881744384766e+00 1.632687330245971680e+00 1.037006139755249023e+00 1.900727033615112305e+00
2.802000000000000000e+03 2.029115867614746094e+01 -8.804283142089843750e+00 8.857722282409667969e-01 2.234344720840454102e+00 9.360350966453552246e-01 1.568136960268020630e-01
2.803000000000000000e+03 1.274865150451660156e+01 -9.663042068481445312e+00 6.474598050117492676e-01 6.976321935653686523e-01 4.035275876522064209e-01 2.088319540023803711e+00
2.804000000000000000e+03 1.408242988586425781e+01 -9.949608802795410156e+00 6.827370524406433105e-01 6.267138719558715820e-01 3.928352892398834229e-01 2.056828498840332031e+00
2.805000000000000000e+03 3.273397827148437500e+01 -1.038460922241210938e+01 2.350188255310058594e+00 2.819714546203613281e+00 1.550970911979675293e+00 -1.432626962661743164e+00
2.806000000000000000e+03 3.315967178344726562e+01 -1.156015205383300781e+01 1.836790442466735840e+00 3.279398679733276367e+00 1.534856677055358887e+00 -1.514629840850830078e+00
2.807000000000000000e+03 1.209295558929443359e+01 -9.153933525085449219e+00 6.883555650711059570e-01 7.649122476577758789e-01 4.359803497791290283e-01 2.015053510665893555e+00
2.808000000000000000e+03 1.475755786895751953e+01 -9.626231193542480469e+00 7.616173028945922852e-01 7.986574769020080566e-01 4.680824279785156250e-01 1.961284399032592773e+00
2.809000000000000000e+03 2.252980232238769531e+01 -9.327049255371093750e+00 1.147716999053955078e+00 1.802839994430541992e+00 8.851670622825622559e-01 -6.388843655586242676e-01
2.810000000000000000e+03 5.496327209472656250e+01 1.433709144592285156e+01 1.664505720138549805e+00 2.610184192657470703e+00 1.282407045364379883e+00 6.577520370483398438e-01
2.811000000000000000e+03 5.382440185546875000e+01 1.823198890686035156e+01 1.476560831069946289e+00 3.327783346176147461e+00 1.441303253173828125e+00 1.018183469772338867e+00
2.812000000000000000e+03 6.747588348388671875e+01 5.793025493621826172e+00 -4.186025261878967285e-01 5.083177089691162109e+00 1.399372458457946777e+00 -1.204498171806335449e+00
2.813000000000000000e+03 6.583374786376953125e+01 6.227624893188476562e+00 -3.003187775611877441e-01 4.377441883087158203e+00 1.223136901855468750e+00 -1.316696763038635254e+00
2.814000000000000000e+03 2.434238052368164062e+01 -8.029269218444824219e+00 2.249963521957397461e+00 1.570733785629272461e+00 1.146209120750427246e+00 -1.441292166709899902e+00
2.815000000000000000e+03 6.693225860595703125e+01 6.933872699737548828e+00 -2.337321788072586060e-01 4.832085132598876953e+00 1.379505872726440430e+00 -1.195977568626403809e+00
2.816000000000000000e+03 2.245879936218261719e+01 -8.516860961914062500e+00 1.499071717262268066e+00 2.088086128234863281e+00 1.076147317886352539e+00 -8.500273823738098145e-01
2.817000000000000000e+03 2.439498901367187500e+01 -1.004933643341064453e+01 1.288939833641052246e+00 1.199308991432189941e+00 7.464746832847595215e-01 -9.307878017425537109e-01
2.818000000000000000e+03 5.813828277587890625e+01 9.134547233581542969e+00 8.388196825981140137e-01 1.948121190071105957e+00 8.360822796821594238e-01 -4.973961710929870605e-01
2.819000000000000000e+03 6.691087341308593750e+01 1.242899417877197266e+01 3.880572617053985596e-01 4.675342082977294922e+00 1.519019842147827148e+00 -8.829557299613952637e-01
2.820000000000000000e+03 7.000226593017578125e+01 1.335889244079589844e+01 2.301154285669326782e-01 5.520751476287841797e+00 1.725260138511657715e+00 -7.900786399841308594e-01
2.821000000000000000e+03 9.040616989135742188e+00 1.238896560668945312e+01 9.736140966415405273e-01 2.155886650085449219e+00 9.388501644134521484e-01 -5.021827816963195801e-01
2.822000000000000000e+03 5.374008941650390625e+01 1.441779613494873047e+01 1.749835491180419922e+00 2.668848752975463867e+00 1.325605273246765137e+00 8.936552405357360840e-01
2.823000000000000000e+03 5.181052780151367188e+01 1.506245517730712891e+01 1.789531826972961426e+00 3.044391870498657227e+00 1.450177073478698730e+00 1.301416277885437012e+00
2.824000000000000000e+03 6.510498046875000000e+01 1.765203666687011719e+01 7.388765811920166016e-01 4.390991687774658203e+00 1.538960576057434082e+00 -3.640643358230590820e-01
2.825000000000000000e+03 6.732797241210937500e+01 1.809933090209960938e+01 5.601216554641723633e-01 4.882884502410888672e+00 1.632901906967163086e+00 -4.370458126068115234e-01
2.826000000000000000e+03 6.335554122924804688e+01 8.152973175048828125e+00 2.203036993741989136e-01 3.373741149902343750e+00 1.078213453292846680e+00 -1.156337738037109375e+00
2.827000000000000000e+03 6.542288208007812500e+01 7.343654155731201172e+00 -1.152158230543136597e-01 4.171092033386230469e+00 1.216762900352478027e+00 -1.291978716850280762e+00
2.828000000000000000e+03 6.953365325927734375e+01 4.275385856628417969e+00 -5.765846371650695801e-01 6.008224964141845703e+00 1.629492163658142090e+00 -9.565442800521850586e-01
2.829000000000000000e+03 5.652172470092773438e+01 2.641690826416015625e+01 5.273827910423278809e-01 4.176787853240966797e+00 1.411251068115234375e+00 7.660162448883056641e-01
2.830000000000000000e+03 5.227986526489257812e+01 1.184065151214599609e+01 1.815622448921203613e+00 2.209213972091674805e+00 1.207450985908508301e+00 1.017479062080383301e+00
2.831000000000000000e+03 5.304331207275390625e+01 1.089050579071044922e+01 1.684987306594848633e+00 1.902596473693847656e+00 1.076275110244750977e+00 7.539457082748413086e-01
2.832000000000000000e+03 6.233064651489257812e+01 8.434010505676269531e+00 3.326423764228820801e-01 3.057177543640136719e+00 1.016945958137512207e+00 -1.091448307037353516e+00
2.833000000000000000e+03 6.204852676391601562e+01 7.004134178161621094e+00 1.012343838810920715e-01 2.832503557205200195e+00 8.801213502883911133e-01 -1.191319584846496582e+00
2.834000000000000000e+03 6.788179779052734375e+01 2.398185539245605469e+01 3.943674564361572266e-01 5.237885951995849609e+00 1.689675927162170410e+00 -9.816302359104156494e-02
2.835000000000000000e+03 6.650909423828125000e+01 1.447375392913818359e+01 5.641458034515380859e-01 4.525746345520019531e+00 1.526967644691467285e+00 -7.052240967750549316e-01
2.836000000000000000e+03 5.199073410034179688e+01 2.274426078796386719e+01 9.051147699356079102e-01 3.955017089843750000e+00 1.458039522171020508e+00 1.142129063606262207e+00
2.837000000000000000e+03 5.403894042968750000e+01 1.163708591461181641e+01 1.660464167594909668e+00 2.016090631484985352e+00 1.102966427803039551e+00 5.905912518501281738e-01
2.838000000000000000e+03 5.809354400634765625e+01 1.103505802154541016e+01 1.160404443740844727e+00 2.279977083206176758e+00 1.032114505767822266e+00 -2.881073951721191406e-01
2.839000000000000000e+03 6.724156951904296875e+01 8.934395790100097656e+00 3.166034817695617676e-02 4.806298732757568359e+00 1.451387763023376465e+00 -1.109234333038330078e+00
2.840000000000000000e+03 6.773843383789062500e+01 1.112881946563720703e+01 2.359195947647094727e-01 4.924437046051025391e+00 1.548107028007507324e+00 -9.630743861198425293e-01
2.841000000000000000e+03 4.193700408935546875e+01 -3.342866897583007812e+01 -9.740596413612365723e-01 4.916369915008544922e+00 1.182693004608154297e+00 -1.015385866165161133e+00
2.842000000000000000e+03 1.277687835693359375e+01 4.097926330566406250e+01 -1.207124352455139160e+00 2.041954517364501953e+00 2.504490017890930176e-01 -1.329301446676254272e-01
2.843000000000000000e+03 1.848674392700195312e+01 -5.303329944610595703e+00 1.821626067161560059e+00 4.088403701782226562e+00 1.773008942604064941e+00 1.294882893562316895e+00
2.844000000000000000e+03 1.887942314147949219e+01 -5.380795955657958984e+00 1.732889294624328613e+00 4.355454444885253906e+00 1.826503038406372070e+00 9.236663579940795898e-01
2.845000000000000000e+03 1.728011131286621094e+01 -4.961282253265380859e+00 2.324480772018432617e+00 2.773316383361816406e+00 1.529339194297790527e+00 1.995816469192504883e+00
2.846000000000000000e+03 1.602403450012207031e+01 -5.263864040374755859e+00 2.250526189804077148e+00 1.463387370109558105e+00 1.114174127578735352e+00 1.913257718086242676e+00
2.847000000000000000e+03 1.953660964965820312e+01 -4.927869319915771484e+00 1.902657032012939453e+00 5.227371215820312500e+00 2.139008522033691406e+00 1.548301130533218384e-01
2.848000000000000000e+03 1.994385337829589844e+01 -4.687361240386962891e+00 2.054723739624023438e+00 5.622900009155273438e+00 2.303287029266357422e+00 -5.097426176071166992e-01
2.849000000000000000e+03 1.985143852233886719e+01 -5.013267993927001953e+00 1.951953053474426270e+00 5.218133926391601562e+00 2.151026248931884766e+00 -3.419091701507568359e-01
2.850000000000000000e+03 1.466298484802246094e+01 -6.097101688385009766e+00 1.828981995582580566e+00 7.927974462509155273e-01 7.865338325500488281e-01 1.795303225517272949e+00
2.851000000000000000e+03 1.686768341064453125e+01 -9.710680007934570312e+00 6.201301217079162598e-01 1.251518368721008301e+00 5.614945292472839355e-01 1.496349096298217773e+00
2.852000000000000000e+03 2.082104682922363281e+01 -5.294170856475830078e+00 2.214221000671386719e+00 4.561129570007324219e+00 2.032605171203613281e+00 -1.150584459304809570e+00
2.853000000000000000e+03 1.505576038360595703e+01 -6.640121936798095703e+00 1.689255833625793457e+00 1.021293520927429199e+00 8.131648302078247070e-01 1.897159576416015625e+00
2.854000000000000000e+03 2.190952873229980469e+01 -7.038385391235351562e+00 1.913934826850891113e+00 2.837063789367675781e+00 1.425299525260925293e+00 -1.062119603157043457e+00
2.855000000000000000e+03 1.367743206024169922e+01 -6.703681945800781250e+00 1.496299862861633301e+00 6.187552809715270996e-01 6.345165371894836426e-01 1.784704566001892090e+00
2.856000000000000000e+03 1.531329536437988281e+01 -9.259018898010253906e+00 8.443799018859863281e-01 8.995227813720703125e-01 5.231708288192749023e-01 1.889932632446289062e+00
2.857000000000000000e+03 1.705197715759277344e+01 -5.384579658508300781e+00 2.143363237380981445e+00 2.450479269027709961e+00 1.378152728080749512e+00 1.925147652626037598e+00
2.858000000000000000e+03 2.323636245727539062e+01 -7.351599216461181641e+00 2.253827810287475586e+00 2.161942481994628906e+00 1.324731111526489258e+00 -1.428573131561279297e+00
2.859000000000000000e+03 1.917273139953613281e+01 -9.940328598022460938e+00 4.417034685611724854e-01 1.691085219383239746e+00 6.398366093635559082e-01 7.147749066352844238e-01
2.860000000000000000e+03 2.252990722656250000e+01 -7.350289821624755859e+00 1.983506917953491211e+00 2.387596607208251953e+00 1.311331033706665039e+00 -1.158946514129638672e+00
2.861000000000000000e+03 2.087467193603515625e+01 -9.469699859619140625e+00 7.521212100982666016e-01 1.940932154655456543e+00 8.079160451889038086e-01 1.485521346330642700e-02
2.862000000000000000e+03 2.222062110900878906e+01 -6.437284469604492188e+00 2.364989995956420898e+00 2.881424665451049805e+00 1.573924422264099121e+00 -1.408925771713256836e+00
2.863000000000000000e+03 1.942523574829101562e+01 -9.225632667541503906e+00 6.887272000312805176e-01 2.019073724746704102e+00 8.123402595520019531e-01 6.049085259437561035e-01
2.864000000000000000e+03 1.382154750823974609e+01 -7.352352619171142578e+00 1.349398493766784668e+00 6.881450414657592773e-01 6.112630367279052734e-01 1.888842225074768066e+00
2.865000000000000000e+03 2.216689109802246094e+01 -7.900828361511230469e+00 1.653510093688964844e+00 2.395394563674926758e+00 1.214671373367309570e+00 -9.262472987174987793e-01
2.866000000000000000e+03 6.439723205566406250e+01 1.386536312103271484e+01 7.210309505462646484e-01 3.998152017593383789e+00 1.415754914283752441e+00 -6.568888425827026367e-01
2.867000000000000000e+03 1.060702419281005859e+01 -9.425024032592773438e+00 4.019972681999206543e-01 9.152197241783142090e-01 3.951650857925415039e-01 1.866665005683898926e+00
2.868000000000000000e+03 5.323531341552734375e+01 1.567419147491455078e+01 1.692232966423034668e+00 2.958912372589111328e+00 1.395343542098999023e+00 1.038022994995117188e+00
2.869000000000000000e+03 5.762786483764648438e+01 1.290576076507568359e+01 1.372029066085815430e+00 2.502227783203125000e+00 1.162277102470397949e+00 -4.723352380096912384e-03
2.870000000000000000e+03 5.844218063354492188e+01 1.006766319274902344e+01 1.009183883666992188e+00 2.220808982849121094e+00 9.689978361129760742e-01 -4.385992586612701416e-01
2.871000000000000000e+03 5.329134368896484375e+01 1.265516281127929688e+01 1.775570511817932129e+00 2.306812763214111328e+00 1.224714994430541992e+00 8.409267663955688477e-01
2.872000000000000000e+03 6.365298080444335938e+01 1.247711944580078125e+01 7.292212247848510742e-01 3.739559173583984375e+00 1.340634107589721680e+00 -7.436304688453674316e-01
2.873000000000000000e+03 5.505794525146484375e+01 1.771073150634765625e+01 1.508134961128234863e+00 3.153617382049560547e+00 1.398525714874267578e+00 8.105323314666748047e-01
2.874000000000000000e+03 5.566764450073242188e+01 1.929837799072265625e+01 1.306762814521789551e+00 3.443275928497314453e+00 1.425011634826660156e+00 7.981042861938476562e-01
2.875000000000000000e+03 5.253748703002929688e+01 1.376666069030761719e+01 1.838330984115600586e+00 2.657370090484619141e+00 1.348710298538208008e+00 1.098537683486938477e+00
2.876000000000000000e+03 6.110832595825195312e+01 8.725527763366699219e+00 5.155389904975891113e-01 2.682634592056274414e+00 9.594520926475524902e-01 -9.576421976089477539e-01
2.877000000000000000e+03 6.410665130615234375e+01 1.627240943908691406e+01 8.123566508293151855e-01 4.095327854156494141e+00 1.472305417060852051e+00 -4.326242804527282715e-01
2.878000000000000000e+03 6.748647308349609375e+01 2.617758369445800781e+01 3.424123823642730713e-01 5.179596900939941406e+00 1.656602740287780762e+00 3.772732615470886230e-02
2.879000000000000000e+03 6.800953674316406250e+01 7.664579391479492188e+00 -1.776105463504791260e-01 5.159714698791503906e+00 1.494631290435791016e+00 -1.126022696495056152e+00
2.880000000000000000e+03 6.579176330566406250e+01 1.317370128631591797e+01 5.605763792991638184e-01 4.310536861419677734e+00 1.461333990097045898e+00 -8.057533502578735352e-01
2.881000000000000000e+03 5.719176864624023438e+01 3.286744689941406250e+01 -1.114222705364227295e-01 4.596364974975585938e+00 1.345482707023620605e+00 5.752406716346740723e-01
2.882000000000000000e+03 4.905860900878906250e+01 2.976240921020507812e+01 -9.910415112972259521e-02 4.064406871795654297e+00 1.189590811729431152e+00 9.088670611381530762e-01
2.883000000000000000e+03 6.153192901611328125e+01 1.021991252899169922e+01 6.900959014892578125e-01 2.935095548629760742e+00 1.087557435035705566e+00 -8.403793573379516602e-01
2.884000000000000000e+03 6.619145202636718750e+01 3.281740951538085938e+01 4.154651239514350891e-02 5.314896106719970703e+00 1.606932759284973145e+00 1.994075626134872437e-01
2.885000000000000000e+03 5.430374908447265625e+01 1.338483428955078125e+01 1.728277921676635742e+00 2.413592576980590820e+00 1.242561221122741699e+00 6.964621543884277344e-01
2.886000000000000000e+03 6.393359375000000000e+01 2.978087997436523438e+01 2.255523502826690674e-01 4.965091228485107422e+00 1.557193160057067871e+00 2.819835245609283447e-01
2.887000000000000000e+03 5.483048629760742188e+01 2.267792129516601562e+01 9.680098295211791992e-01 3.820938110351562500e+00 1.436684370040893555e+00 9.255914688110351562e-01
2.888000000000000000e+03 5.792180633544921875e+01 2.415444755554199219e+01 7.797686457633972168e-01 4.040803432464599609e+00 1.446171641349792480e+00 6.466308236122131348e-01
2.889000000000000000e+03 5.807450866699218750e+01 -4.090779495239257812e+01 4.898070693016052246e-01 2.332046031951904297e-01 2.169035077095031738e-01 -1.331245750188827515e-01
2.890000000000000000e+03 3.686682128906250000e+01 -4.104470825195312500e+01 -1.861845612525939941e+00 4.685373783111572266e+00 8.470584750175476074e-01 5.590482801198959351e-02
2.891000000000000000e+03 5.334695053100585938e+01 2.124397850036621094e+01 1.132468104362487793e+00 3.718161106109619141e+00 1.455188751220703125e+00 1.059264183044433594e+00
2.892000000000000000e+03 6.572863006591796875e+01 2.170611763000488281e+01 6.044735312461853027e-01 4.734117984771728516e+00 1.601577520370483398e+00 -1.062398329377174377e-01
2.893000000000000000e+03 6.342136001586914062e+01 2.083975410461425781e+01 7.863921523094177246e-01 4.313400268554687500e+00 1.529937744140625000e+00 -1.169601175934076309e-02
2.894000000000000000e+03 5.039025497436523438e+01 -3.253846740722656250e+01 -3.540898561477661133e-01 1.538944721221923828e+00 3.554564416408538818e-01 -7.362018227577209473e-01
2.895000000000000000e+03 1.560394859313964844e+01 -5.457539081573486328e+00 2.141267538070678711e+00 1.198439359664916992e+00 1.001911997795104980e+00 1.878350973129272461e+00
2.896000000000000000e+03 1.708476066589355469e+01 -6.392473697662353516e+00 1.695289850234985352e+00 2.278076171875000000e+00 1.192009806632995605e+00 1.756990551948547363e+00
2.897000000000000000e+03 2.042848396301269531e+01 -5.476962089538574219e+00 2.009374380111694336e+00 4.498078823089599609e+00 1.952235937118530273e+00 -7.516627311706542969e-01
2.898000000000000000e+03 1.429101276397705078e+01 -7.210421562194824219e+00 1.434389352798461914e+00 8.076960444450378418e-01 6.726256012916564941e-01 1.909167051315307617e+00
2.899000000000000000e+03 1.998716926574707031e+01 -6.559639930725097656e+00 1.508211255073547363e+00 3.642504692077636719e+00 1.545214772224426270e+00 2.213742397725582123e-02
2.900000000000000000e+03 1.578555202484130859e+01 -8.857649803161621094e+00 9.522441029548645020e-01 1.144260644912719727e+00 6.289514303207397461e-01 1.812042593955993652e+00
2.901000000000000000e+03 1.379965400695800781e+01 -9.232250213623046875e+00 8.309755921363830566e-01 7.184509634971618652e-01 4.648279547691345215e-01 2.066422700881958008e+00
2.902000000000000000e+03 1.463189888000488281e+01 -6.625158309936523438e+00 1.661713242530822754e+00 8.709413409233093262e-01 7.597963809967041016e-01 1.878091096878051758e+00
2.903000000000000000e+03 1.417857170104980469e+01 -6.651500225067138672e+00 1.591374754905700684e+00 6.932460665702819824e-01 6.853862404823303223e-01 1.815081119537353516e+00
2.904000000000000000e+03 2.166085624694824219e+01 -8.735933303833007812e+00 1.145364403724670410e+00 2.198180198669433594e+00 1.003063321113586426e+00 -4.412767291069030762e-01
2.905000000000000000e+03 1.310042572021484375e+01 -9.057700157165527344e+00 8.198215365409851074e-01 7.185717821121215820e-01 4.615179896354675293e-01 2.048998117446899414e+00
2.906000000000000000e+03 1.681457138061523438e+01 -8.784502029418945312e+00 9.049177765846252441e-01 1.476070165634155273e+00 7.142964005470275879e-01 1.579843521118164062e+00
2.907000000000000000e+03 2.194287872314453125e+01 -5.577807426452636719e+00 2.751758098602294922e+00 3.482624292373657227e+00 1.870314717292785645e+00 -1.781789302825927734e+00
2.908000000000000000e+03 1.763999748229980469e+01 -8.755861282348632812e+00 8.582766652107238770e-01 1.774999022483825684e+00 7.899827361106872559e-01 1.338091731071472168e+00
2.909000000000000000e+03 2.157716941833496094e+01 -8.137461662292480469e+00 1.378315329551696777e+00 2.421237468719482422e+00 1.139865875244140625e+00 -5.584697723388671875e-01
2.910000000000000000e+03 2.093618583679199219e+01 -8.803348541259765625e+00 9.829992055892944336e-01 2.205434799194335938e+00 9.565302133560180664e-01 -1.165350675582885742e-01
2.911000000000000000e+03 1.729518699645996094e+01 -9.206699371337890625e+00 7.400444149971008301e-01 1.488308429718017578e+00 6.685058474540710449e-01 1.433603048324584961e+00
2.912000000000000000e+03 2.164971542358398438e+01 -7.602546691894531250e+00 1.621871829032897949e+00 2.704916954040527344e+00 1.298036575317382812e+00 -7.830282449722290039e-01
2.913000000000000000e+03 1.785092163085937500e+01 -9.515297889709472656e+00 6.109209656715393066e-01 1.592567443847656250e+00 6.610465049743652344e-01 1.215075254440307617e+00
2.914000000000000000e+03 1.813171958923339844e+01 -8.960587501525878906e+00 7.607845664024353027e-01 1.883533000946044922e+00 7.932952642440795898e-01 1.158777952194213867e+00
2.915000000000000000e+03 1.874536514282226562e+01 -9.064005851745605469e+00 7.232793569564819336e-01 1.988844871520996094e+00 8.136372566223144531e-01 8.637049794197082520e-01
2.916000000000000000e+03 1.396588420867919922e+01 -8.030842781066894531e+00 1.172545194625854492e+00 7.632294893264770508e-01 5.807324051856994629e-01 1.967607021331787109e+00
2.917000000000000000e+03 1.330045127868652344e+01 -8.489467620849609375e+00 1.000469923019409180e+00 6.862282156944274902e-01 5.060094594955444336e-01 1.991322994232177734e+00
2.918000000000000000e+03 5.519378280639648438e+01 1.243759727478027344e+01 1.602859139442443848e+00 2.229120731353759766e+00 1.149593949317932129e+00 4.336949586868286133e-01
2.919000000000000000e+03 5.435020446777343750e+01 1.641274070739746094e+01 1.611016631126403809e+00 2.965367317199707031e+00 1.372915148735046387e+00 8.592209219932556152e-01
2.920000000000000000e+03 6.193500137329101562e+01 1.611983299255371094e+01 1.019730567932128906e+00 3.624383449554443359e+00 1.393234252929687500e+00 -2.670775353908538818e-01
2.921000000000000000e+03 6.388017272949218750e+01 1.857327461242675781e+01 8.297007679939270020e-01 4.206993579864501953e+00 1.511008262634277344e+00 -2.154391556978225708e-01
2.922000000000000000e+03 6.578057861328125000e+01 1.181823730468750000e+01 4.519896805286407471e-01 4.299650669097900391e+00 1.425492048263549805e+00 -9.225419759750366211e-01
2.923000000000000000e+03 6.644473266601562500e+01 1.034766197204589844e+01 2.445977181196212769e-01 4.484467506408691406e+00 1.418719530105590820e+00 -1.048588156700134277e+00
2.924000000000000000e+03 6.286614227294921875e+01 9.804244995117187500e+00 4.945745170116424561e-01 3.335674285888671875e+00 1.149074673652648926e+00 -9.987290501594543457e-01
2.925000000000000000e+03 6.306567764282226562e+01 1.496773147583007812e+01 8.890062570571899414e-01 3.763319253921508789e+00 1.395697712898254395e+00 -4.769466519355773926e-01
2.926000000000000000e+03 6.209352111816406250e+01 1.149089050292968750e+01 7.695996165275573730e-01 3.238436937332153320e+00 1.202410936355590820e+00 -7.710887789726257324e-01
2.927000000000000000e+03 5.903125381469726562e+01 1.207645606994628906e+01 1.163365602493286133e+00 2.567093372344970703e+00 1.119137763977050781e+00 -3.250835537910461426e-01
2.928000000000000000e+03 6.647070312500000000e+01 2.459457778930664062e+01 4.512850046157836914e-01 5.007658958435058594e+00 1.637683272361755371e+00 5.677860230207443237e-03
2.929000000000000000e+03 6.029715728759765625e+01 2.270775032043457031e+01 8.271783590316772461e-01 4.100040435791015625e+00 1.478165626525878906e+00 3.686993420124053955e-01
2.930000000000000000e+03 6.427857971191406250e+01 8.193736076354980469e+00 1.418030560016632080e-01 3.772161006927490234e+00 1.174189209938049316e+00 -1.164187550544738770e+00
2.931000000000000000e+03 1.857362747192382812e+01 -5.895062923431396484e+00 1.636677742004394531e+00 3.731764078140258789e+00 1.610532522201538086e+00 1.106499671936035156e+00
2.932000000000000000e+03 1.777321815490722656e+01 -4.974538803100585938e+00 2.172762870788574219e+00 3.384360074996948242e+00 1.667136907577514648e+00 1.836537957191467285e+00
2.933000000000000000e+03 1.619753456115722656e+01 -5.651682376861572266e+00 2.105044841766357422e+00 1.622858643531799316e+00 1.118371009826660156e+00 1.929899811744689941e+00
2.934000000000000000e+03 1.513335418701171875e+01 -6.136102199554443359e+00 1.877643465995788574e+00 1.025617241859436035e+00 8.709782361984252930e-01 1.879016041755676270e+00
2.935000000000000000e+03 1.669174957275390625e+01 -7.264266967773437500e+00 1.409976720809936523e+00 1.778962492942810059e+00 9.566817879676818848e-01 1.766349554061889648e+00
2.936000000000000000e+03 1.995592498779296875e+01 -5.992857933044433594e+00 1.672010064125061035e+00 4.082080364227294922e+00 1.726227045059204102e+00 -7.150997966527938843e-02
2.937000000000000000e+03 1.629620742797851562e+01 -6.917159080505371094e+00 1.568257927894592285e+00 1.645092844963073730e+00 9.640052318572998047e-01 1.847996950149536133e+00
2.938000000000000000e+03 1.654758262634277344e+01 -5.614011287689208984e+00 2.100555658340454102e+00 1.903364062309265137e+00 1.201175928115844727e+00 1.925651192665100098e+00
2.939000000000000000e+03 2.092539405822753906e+01 -8.147305488586425781e+00 1.211201786994934082e+00 2.569973230361938477e+00 1.134352445602416992e+00 -2.419735938310623169e-01
2.940000000000000000e+03 2.102450561523437500e+01 -7.464808940887451172e+00 1.483464241027832031e+00 2.899241209030151367e+00 1.314811587333679199e+00 -4.648928046226501465e-01
2.941000000000000000e+03 1.631475067138671875e+01 -9.251727104187011719e+00 8.015712499618530273e-01 1.185381770133972168e+00 5.960859060287475586e-01 1.693976521492004395e+00
2.942000000000000000e+03 1.726157188415527344e+01 -8.454827308654785156e+00 9.718898534774780273e-01 1.703545093536376953e+00 8.026304841041564941e-01 1.507022738456726074e+00
2.943000000000000000e+03 1.388690757751464844e+01 -8.643059730529785156e+00 9.946119785308837891e-01 7.730634212493896484e-01 5.303026437759399414e-01 2.012686967849731445e+00
2.944000000000000000e+03 1.506505680084228516e+01 -7.095378398895263672e+00 1.538790345191955566e+00 1.030148267745971680e+00 7.706815600395202637e-01 1.908486723899841309e+00
2.945000000000000000e+03 2.159529876708984375e+01 -6.148660659790039062e+00 2.234624624252319336e+00 3.447291851043701172e+00 1.704574942588806152e+00 -1.266527891159057617e+00
2.946000000000000000e+03 2.111432266235351562e+01 -5.749746799468994141e+00 2.170876741409301758e+00 3.952548265457153320e+00 1.837027430534362793e+00 -1.152367472648620605e+00
2.947000000000000000e+03 1.976080894470214844e+01 -8.620144844055175781e+00 8.930344581604003906e-01 2.339723825454711914e+00 9.698274731636047363e-01 4.223046898841857910e-01
2.948000000000000000e+03 1.691979980468750000e+01 -6.808423519134521484e+00 1.569108247756958008e+00 2.031000375747680664e+00 1.080032587051391602e+00 1.736044287681579590e+00
2.949000000000000000e+03 1.436436843872070312e+01 -9.008576393127441406e+00 9.346153140068054199e-01 7.329904437065124512e-01 5.002817511558532715e-01 1.998957157135009766e+00
2.950000000000000000e+03 1.487795352935791016e+01 -8.697022438049316406e+00 1.023931026458740234e+00 9.151416420936584473e-01 5.817217826843261719e-01 1.954646944999694824e+00
2.951000000000000000e+03 2.028209304809570312e+01 -8.257420539855957031e+00 1.096320271492004395e+00 2.549865245819091797e+00 1.093855619430541992e+00 9.173984080553054810e-02
2.952000000000000000e+03 1.941117095947265625e+01 -8.140066146850585938e+00 9.936118721961975098e-01 2.491096019744873047e+00 1.045412421226501465e+00 5.643402338027954102e-01
2.953000000000000000e+03 1.747200202941894531e+01 -6.558487415313720703e+00 1.586871981620788574e+00 2.569676399230957031e+00 1.246964573860168457e+00 1.627274632453918457e+00
2.954000000000000000e+03 6.176145172119140625e+01 1.397113323211669922e+01 9.787909984588623047e-01 3.436118364334106445e+00 1.324472784996032715e+00 -4.517654478549957275e-01
2.955000000000000000e+03 5.635359191894531250e+01 1.687738990783691406e+01 1.453942656517028809e+00 3.094995975494384766e+00 1.364681601524353027e+00 5.622022151947021484e-01
2.956000000000000000e+03 5.720947647094726562e+01 1.818076896667480469e+01 1.324242711067199707e+00 3.319025278091430664e+00 1.392980456352233887e+00 5.026384592056274414e-01
2.957000000000000000e+03 6.389479827880859375e+01 9.174596786499023438e+00 3.261083662509918213e-01 3.605956792831420898e+00 1.179619550704956055e+00 -1.089277386665344238e+00
2.958000000000000000e+03 6.023451614379882812e+01 1.094010734558105469e+01 9.163159728050231934e-01 2.706364393234252930e+00 1.086804151535034180e+00 -6.080208420753479004e-01
2.959000000000000000e+03 5.834555435180664062e+01 2.217324638366699219e+01 9.559670686721801758e-01 3.878839492797851562e+00 1.450441956520080566e+00 5.695909857749938965e-01
2.960000000000000000e+03 5.664080429077148438e+01 2.101380729675292969e+01 1.115664362907409668e+00 3.661729335784912109e+00 1.433218121528625488e+00 7.102722525596618652e-01
2.961000000000000000e+03 6.263949203491210938e+01 1.940745735168457031e+01 9.108999371528625488e-01 4.057394981384277344e+00 1.490488529205322266e+00 -4.431052505970001221e-02
2.962000000000000000e+03 5.811251068115234375e+01 1.449494838714599609e+01 1.368684887886047363e+00 2.827464818954467773e+00 1.258844852447509766e+00 7.076353579759597778e-02
2.963000000000000000e+03 5.708005142211914062e+01 1.155534267425537109e+01 1.339573979377746582e+00 2.176978826522827148e+00 1.054965853691101074e+00 -4.914700239896774292e-02
2.964000000000000000e+03 5.679627990722656250e+01 1.484533119201660156e+01 1.504887223243713379e+00 2.711985349655151367e+00 1.265061736106872559e+00 3.295453786849975586e-01
2.965000000000000000e+03 6.449018096923828125e+01 2.481595230102539062e+01 5.201588273048400879e-01 4.752118110656738281e+00 1.581683039665222168e+00 1.224656924605369568e-01
2.966000000000000000e+03 5.657965850830078125e+01 2.922223091125488281e+01 2.250987887382507324e-01 4.365488052368164062e+00 1.377176046371459961e+00 7.213384509086608887e-01
2.967000000000000000e+03 1.925280380249023438e+01 -6.322196006774902344e+00 1.482048034667968750e+00 3.713657379150390625e+00 1.558711647987365723e+00 5.239726305007934570e-01
2.968000000000000000e+03 1.767304039001464844e+01 -5.835757732391357422e+00 1.819107294082641602e+00 2.991019010543823242e+00 1.443037867546081543e+00 1.673822522163391113e+00
2.969000000000000000e+03 1.814469718933105469e+01 -7.314235210418701172e+00 1.260462760925292969e+00 2.623358488082885742e+00 1.165146350860595703e+00 1.225157499313354492e+00
2.970000000000000000e+03 1.737950325012207031e+01 -5.614747524261474609e+00 1.970513939857482910e+00 2.767979383468627930e+00 1.421548008918762207e+00 1.823404192924499512e+00
2.971000000000000000e+03 1.836997795104980469e+01 -5.622104644775390625e+00 1.716494083404541016e+00 3.748210668563842773e+00 1.639411449432373047e+00 1.274164199829101562e+00
2.972000000000000000e+03 1.673196601867675781e+01 -6.182824611663818359e+00 1.818436384201049805e+00 2.010638475418090820e+00 1.148722410202026367e+00 1.845802068710327148e+00
2.973000000000000000e+03 1.722613334655761719e+01 -5.997500896453857422e+00 1.823428750038146973e+00 2.491843938827514648e+00 1.294581770896911621e+00 1.776582121849060059e+00
2.974000000000000000e+03 1.689034652709960938e+01 -5.795096397399902344e+00 1.970277547836303711e+00 2.235308885574340820e+00 1.261675953865051270e+00 1.889359116554260254e+00
2.975000000000000000e+03 1.543644142150878906e+01 -7.057103157043457031e+00 1.547428250312805176e+00 1.166526913642883301e+00 8.141865134239196777e-01 1.898038029670715332e+00
2.976000000000000000e+03 1.462143898010253906e+01 -8.053203582763671875e+00 1.198112487792968750e+00 8.521873950958251953e-01 6.150899529457092285e-01 1.946850776672363281e+00
2.977000000000000000e+03 1.939392852783203125e+01 -5.901525020599365234e+00 1.588743329048156738e+00 4.106638431549072266e+00 1.708614587783813477e+00 4.038031995296478271e-01
2.978000000000000000e+03 1.892962074279785156e+01 -5.832384586334228516e+00 1.595780611038208008e+00 3.981641292572021484e+00 1.673226594924926758e+00 8.700739741325378418e-01
2.979000000000000000e+03 1.466700172424316406e+01 -7.100151538848876953e+00 1.520315408706665039e+00 8.878561854362487793e-01 7.224515080451965332e-01 1.913460612297058105e+00
2.980000000000000000e+03 1.512216186523437500e+01 -7.529481410980224609e+00 1.362348794937133789e+00 1.017820239067077637e+00 7.140507102012634277e-01 1.908153414726257324e+00
2.981000000000000000e+03 1.652390480041503906e+01 -8.211861610412597656e+00 1.116526246070861816e+00 1.495885729789733887e+00 7.837235927581787109e-01 1.714872479438781738e+00
2.982000000000000000e+03 1.334801101684570312e+01 -7.993079662322998047e+00 1.121247887611389160e+00 6.602131128311157227e-01 5.344383120536804199e-01 1.922080397605895996e+00
2.983000000000000000e+03 2.126665687561035156e+01 -6.775813102722167969e+00 1.814493417739868164e+00 3.279777526855468750e+00 1.528281331062316895e+00 -8.384660482406616211e-01
2.984000000000000000e+03 1.752699089050292969e+01 -8.121035575866699219e+00 1.066188812255859375e+00 1.951007127761840820e+00 9.051588177680969238e-01 1.419973015785217285e+00
2.985000000000000000e+03 1.893408012390136719e+01 -6.533116817474365234e+00 1.417096614837646484e+00 3.361210346221923828e+00 1.433492064476013184e+00 7.632232904434204102e-01
2.986000000000000000e+03 2.001639556884765625e+01 -7.782650947570800781e+00 1.179402709007263184e+00 2.799611806869506836e+00 1.193704366683959961e+00 1.326344609260559082e-01
2.987000000000000000e+03 1.540321540832519531e+01 -8.471627235412597656e+00 1.099113225936889648e+00 1.015583992004394531e+00 6.344091296195983887e-01 1.897256612777709961e+00
2.988000000000000000e+03 6.077126693725585938e+01 1.713136291503906250e+01 1.125954508781433105e+00 3.541593074798583984e+00 1.400264263153076172e+00 -3.974306210875511169e-02
2.989000000000000000e+03 5.857460021972656250e+01 1.694412422180175781e+01 1.292496323585510254e+00 3.269281148910522461e+00 1.368533253669738770e+00 2.266674935817718506e-01
2.990000000000000000e+03 5.938171386718750000e+01 2.050810813903808594e+01 1.062275648117065430e+00 3.763751268386840820e+00 1.447808027267456055e+00 3.709900379180908203e-01
2.991000000000000000e+03 5.961025619506835938e+01 1.462644290924072266e+01 1.235579848289489746e+00 3.033022642135620117e+00 1.280580759048461914e+00 -1.330247819423675537e-01
2.992000000000000000e+03 6.026227188110351562e+01 1.318919181823730469e+01 1.113644361495971680e+00 2.950852394104003906e+00 1.219349026679992676e+00 -3.723692595958709717e-01
2.993000000000000000e+03 6.113602066040039062e+01 1.209514522552490234e+01 9.428582787513732910e-01 3.038211345672607422e+00 1.194320917129516602e+00 -5.657906532287597656e-01
2.994000000000000000e+03 6.204239654541015625e+01 2.689402770996093750e+01 4.688508510589599609e-01 4.592177391052246094e+00 1.518308520317077637e+00 3.493345975875854492e-01
2.995000000000000000e+03 6.147630310058593750e+01 2.018281745910644531e+01 9.564229846000671387e-01 3.965680599212646484e+00 1.476631045341491699e+00 1.212311461567878723e-01
2.996000000000000000e+03 6.437592315673828125e+01 2.729739189147949219e+01 3.779454231262207031e-01 4.883822917938232422e+00 1.578530550003051758e+00 2.138405144214630127e-01
2.997000000000000000e+03 5.553282546997070312e+01 1.559360218048095703e+01 1.581459641456604004e+00 2.814327001571655273e+00 1.318735957145690918e+00 6.167104840278625488e-01
2.998000000000000000e+03 5.618420791625976562e+01 1.354901885986328125e+01 1.555899620056152344e+00 2.475735187530517578e+00 1.209490418434143066e+00 3.392544388771057129e-01
2.999000000000000000e+03 5.406101989746093750e+01 2.590494346618652344e+01 5.744951963424682617e-01 4.052316188812255859e+00 1.388043403625488281e+00 9.593996405601501465e-01
3.000000000000000000e+03 5.987090301513671875e+01 1.601494407653808594e+01 1.235464930534362793e+00 3.243804216384887695e+00 1.343780755996704102e+00 -1.614170148968696594e-02
3.001000000000000000e+03 1.815203285217285156e+01 -5.327973842620849609e+00 1.912245631217956543e+00 3.724265098571777344e+00 1.690953254699707031e+00 1.536852717399597168e+00
3.002000000000000000e+03 1.788097000122070312e+01 -5.554180145263671875e+00 1.896077871322631836e+00 3.273791313171386719e+00 1.550960779190063477e+00 1.641054153442382812e+00
3.003000000000000000e+03 1.860246276855468750e+01 -6.221358299255371094e+00 1.534795284271240234e+00 3.527966022491455078e+00 1.518828392028808594e+00 1.053863883018493652e+00
3.004000000000000000e+03 1.996274948120117188e+01 -7.068366527557373047e+00 1.383524179458618164e+00 3.251732826232910156e+00 1.390577077865600586e+00 7.353751361370086670e-02
3.005000000000000000e+03 2.060805702209472656e+01 -6.611631393432617188e+00 1.690703392028808594e+00 3.544080972671508789e+00 1.570435285568237305e+00 -5.066651105880737305e-01
3.006000000000000000e+03 1.598287200927734375e+01 -7.229466915130615234e+00 1.484776735305786133e+00 1.433045983314514160e+00 8.753468394279479980e-01 1.873736739158630371e+00
3.007000000000000000e+03 1.592838478088378906e+01 -8.368217468261718750e+00 1.088349342346191406e+00 1.261404514312744141e+00 7.049261331558227539e-01 1.821754813194274902e+00
3.008000000000000000e+03 1.557465457916259766e+01 -6.293189525604248047e+00 1.842165231704711914e+00 1.250832676887512207e+00 9.278993606567382812e-01 1.897967576980590820e+00
3.009000000000000000e+03 1.521808910369873047e+01 -7.987758636474609375e+00 1.222066760063171387e+00 1.059419989585876465e+00 6.844460368156433105e-01 1.931958556175231934e+00
3.010000000000000000e+03 1.709174346923828125e+01 -8.027810096740722656e+00 1.113999724388122559e+00 1.803715944290161133e+00 8.753146529197692871e-01 1.581631302833557129e+00
3.011000000000000000e+03 5.757660675048828125e+01 1.586889171600341797e+01 1.404070138931274414e+00 3.000468254089355469e+00 1.321361541748046875e+00 2.669815421104431152e-01
3.012000000000000000e+03 6.228379821777343750e+01 1.270140171051025391e+01 8.610622882843017578e-01 3.428248405456542969e+00 1.286793231964111328e+00 -6.330087780952453613e-01
3.013000000000000000e+03 5.818282318115234375e+01 1.945919227600097656e+01 1.197506308555603027e+00 3.547901153564453125e+00 1.423622250556945801e+00 4.380541443824768066e-01
3.014000000000000000e+03 5.951967620849609375e+01 1.817875671386718750e+01 1.179316878318786621e+00 3.512870550155639648e+00 1.407656192779541016e+00 1.931709051132202148e-01
3.015000000000000000e+03 6.292011260986328125e+01 1.725967597961425781e+01 9.349939823150634766e-01 3.912652254104614258e+00 1.454293847084045410e+00 -2.529890835285186768e-01
3.016000000000000000e+03 5.939588165283203125e+01 2.839102935791015625e+01 3.539745211601257324e-01 4.478290081024169922e+00 1.449679374694824219e+00 5.585029125213623047e-01
3.017000000000000000e+03 6.008604049682617188e+01 2.449270057678222656e+01 7.129418849945068359e-01 4.222820758819580078e+00 1.480728745460510254e+00 4.402444660663604736e-01
3.018000000000000000e+03 1.825482749938964844e+01 -8.454031944274902344e+00 9.125425219535827637e-01 2.083852767944335938e+00 8.989186286926269531e-01 1.103228569030761719e+00
3.019000000000000000e+03 1.757404518127441406e+01 -6.172925472259521484e+00 1.688740253448486328e+00 2.745651006698608398e+00 1.330317378044128418e+00 1.662817835807800293e+00
3.020000000000000000e+03 1.948182487487792969e+01 -6.661143302917480469e+00 1.413150429725646973e+00 3.536463260650634766e+00 1.484884142875671387e+00 4.054518640041351318e-01
3.021000000000000000e+03 1.812122726440429688e+01 -8.043343544006347656e+00 1.049300551414489746e+00 2.265363216400146484e+00 9.943991899490356445e-01 1.172171235084533691e+00
3.022000000000000000e+03 1.878376770019531250e+01 -8.375018119812011719e+00 9.237793087959289551e-01 2.304840564727783203e+00 9.685859680175781250e-01 8.610018491744995117e-01
3.023000000000000000e+03 1.888377952575683594e+01 -7.488389968872070312e+00 1.185809135437011719e+00 2.775659084320068359e+00 1.188440442085266113e+00 8.405538201332092285e-01
3.024000000000000000e+03 1.852065086364746094e+01 -7.796587944030761719e+00 1.096718549728393555e+00 2.505813121795654297e+00 1.080759525299072266e+00 1.000418782234191895e+00
3.025000000000000000e+03 1.775760459899902344e+01 -7.704363822937011719e+00 1.172382712364196777e+00 2.238584280014038086e+00 1.023290157318115234e+00 1.389038085937500000e+00
3.026000000000000000e+03 1.572234153747558594e+01 -6.893112182617187500e+00 1.605138182640075684e+00 1.347593426704406738e+00 8.858194947242736816e-01 1.897974729537963867e+00
3.027000000000000000e+03 2.042762184143066406e+01 -7.266672611236572266e+00 1.391096591949462891e+00 3.097049474716186523e+00 1.346443772315979004e+00 -1.648146659135818481e-01
3.028000000000000000e+03 1.628833770751953125e+01 -7.650749683380126953e+00 1.307779312133789062e+00 1.560031056404113770e+00 8.603430986404418945e-01 1.795805811882019043e+00
3.029000000000000000e+03 6.090389251708984375e+01 1.516504573822021484e+01 1.086542844772338867e+00 3.363809347152709961e+00 1.335105657577514648e+00 -2.800430655479431152e-01
3.030000000000000000e+03 6.171881484985351562e+01 1.821663856506347656e+01 1.018638014793395996e+00 3.798377513885498047e+00 1.445104598999023438e+00 -5.446430295705795288e-02
3.031000000000000000e+03 5.989497756958007812e+01 2.640795326232910156e+01 5.415385961532592773e-01 4.363650798797607422e+00 1.471556901931762695e+00 5.111697912216186523e-01
3.032000000000000000e+03 6.219732666015625000e+01 2.287403488159179688e+01 7.418642044067382812e-01 4.324687957763671875e+00 1.519965648651123047e+00 2.012748271226882935e-01
3.033000000000000000e+03 1.788237953186035156e+01 -6.120242118835449219e+00 1.670038461685180664e+00 2.947308301925659180e+00 1.385204076766967773e+00 1.515642881393432617e+00
3.034000000000000000e+03 1.781748199462890625e+01 -6.850336551666259766e+00 1.426089882850646973e+00 2.609267473220825195e+00 1.210607171058654785e+00 1.433673620223999023e+00
3.035000000000000000e+03 1.957796478271484375e+01 -7.081383705139160156e+00 1.335058927536010742e+00 3.251351594924926758e+00 1.375923156738281250e+00 3.790219128131866455e-01
3.036000000000000000e+03 1.722565841674804688e+01 -7.491828441619873047e+00 1.292333126068115234e+00 2.005175828933715820e+00 9.892526865005493164e-01 1.569741725921630859e+00
3.037000000000000000e+03 1.861123085021972656e+01 -7.054998397827148438e+00 1.306277394294738770e+00 2.916842699050903320e+00 1.266936063766479492e+00 9.939651489257812500e-01
3.038000000000000000e+03 1.928680610656738281e+01 -7.622941493988037109e+00 1.153325796127319336e+00 2.800840139389038086e+00 1.186249732971191406e+00 5.926783084869384766e-01
3.039000000000000000e+03 1.813486862182617188e+01 -6.461393833160400391e+00 1.511438488960266113e+00 3.037094116210937500e+00 1.364559769630432129e+00 1.298848628997802734e+00
3.040000000000000000e+03 1.653406906127929688e+01 -6.555765151977539062e+00 1.695852756500244141e+00 1.800484538078308105e+00 1.048901200294494629e+00 1.846902132034301758e+00
3.041000000000000000e+03 1.594862461090087891e+01 -6.590777397155761719e+00 1.726387858390808105e+00 1.454457998275756836e+00 9.542537331581115723e-01 1.906584382057189941e+00
3.042000000000000000e+03 6.223629379272460938e+01 2.477404594421386719e+01 6.116625070571899414e-01 4.466295242309570312e+00 1.523387312889099121e+00 2.817497551441192627e-01
3.043000000000000000e+03 6.051435852050781250e+01 1.923355674743652344e+01 1.069872975349426270e+00 3.750569581985473633e+00 1.446132779121398926e+00 1.513168513774871826e-01
3.044000000000000000e+03 6.069319152832031250e+01 2.122078514099121094e+01 9.319551587104797363e-01 3.988932132720947266e+00 1.476266145706176758e+00 2.817184925079345703e-01
3.045000000000000000e+03 5.850081634521484375e+01 3.052506065368652344e+01 1.281992048025131226e-01 4.557584762573242188e+00 1.405735135078430176e+00 5.763835310935974121e-01
3.046000000000000000e+03 5.512339019775390625e+01 2.764026451110839844e+01 3.803389966487884521e-01 4.178031444549560547e+00 1.367511153221130371e+00 8.439669013023376465e-01
3.047000000000000000e+03 1.905322265625000000e+01 -6.874538421630859375e+00 1.343311548233032227e+00 3.260568380355834961e+00 1.381163954734802246e+00 7.075362205505371094e-01
3.048000000000000000e+03 1.737244606018066406e+01 -6.980845928192138672e+00 1.434886097908020020e+00 2.292308092117309570e+00 1.118158221244812012e+00 1.581317782402038574e+00
3.049000000000000000e+03 1.853232765197753906e+01 -6.605103015899658203e+00 1.421548962593078613e+00 3.185377836227416992e+00 1.382078051567077637e+00 1.068291425704956055e+00
3.050000000000000000e+03 6.155977630615234375e+01 2.914217376708984375e+01 2.861285507678985596e-01 4.708659648895263672e+00 1.498436450958251953e+00 4.089289009571075439e-01
3.051000000000000000e+03 5.763680267333984375e+01 2.759792900085449219e+01 4.079176485538482666e-01 4.315539360046386719e+00 1.417037129402160645e+00 6.729522347450256348e-01
3.052000000000000000e+03 6.082429122924804688e+01 3.157930374145507812e+01 9.361895173788070679e-02 4.779868602752685547e+00 1.462046265602111816e+00 4.360133409500122070e-01
3.053000000000000000e+03 5.083380126953125000e+01 3.458190917968750000e+01 -6.780642867088317871e-01 4.182950973510742188e+00 1.051465988159179688e+00 6.762846708297729492e-01
3.054000000000000000e+03 1.974057960510253906e+01 -3.998167419433593750e+01 -1.681722700595855713e-01 -3.375163674354553223e-01 -1.517065912485122681e-01 1.222668215632438660e-01
3.055000000000000000e+03 9.484269142150878906e+00 -3.898094558715820312e+01 2.610375285148620605e-01 5.678554177284240723e-01 2.486678808927536011e-01 -2.316396124660968781e-02
3.056000000000000000e+03 1.261876869201660156e+01 -3.700412750244140625e+01 -2.036380320787429810e-01 -3.351908922195434570e-01 -1.616486757993698120e-01 2.972163856029510498e-01
3.057000000000000000e+03 2.760833549499511719e+01 -3.915056991577148438e+01 -7.091300487518310547e-01 1.502883076667785645e+00 2.381259202957153320e-01 4.259581267833709717e-01
3.058000000000000000e+03 5.982409667968750000e+01 3.426774597167968750e+01 -1.405397951602935791e-01 4.822861671447753906e+00 1.404696464538574219e+00 4.198537170886993408e-01
3.059000000000000000e+03 7.118647766113281250e+01 -3.840584182739257812e+01 -4.307283163070678711e-01 6.992673397064208984e+00 1.968583464622497559e+00 -5.046484526246786118e-03
3.060000000000000000e+03 5.293029403686523438e+01 -3.460655975341796875e+01 -5.673131942749023438e-01 8.954604268074035645e-01 9.844416379928588867e-02 -5.569218397140502930e-01
3.061000000000000000e+03 7.820351600646972656e+00 -3.372364807128906250e+01 -7.139147520065307617e-01 6.859765648841857910e-01 -8.381456136703491211e-03 2.221779339015483856e-02
3.062000000000000000e+03 5.133236694335937500e+01 -3.592613220214843750e+01 -4.901092648506164551e-01 1.556947827339172363e+00 3.200515508651733398e-01 -6.894144415855407715e-01
3.063000000000000000e+03 7.228304862976074219e+00 -3.816263961791992188e+01 1.636237800121307373e-01 1.374456167221069336e+00 4.614239633083343506e-01 -1.153716593980789185e-01
3.064000000000000000e+03 7.152184295654296875e+01 -3.607594299316406250e+01 -7.695268988609313965e-01 7.253919124603271484e+00 1.945317625999450684e+00 -6.282800436019897461e-02
3.065000000000000000e+03 6.624353790283203125e+01 3.549555587768554688e+01 -6.728591769933700562e-02 5.416568279266357422e+00 1.604784727096557617e+00 1.656454205513000488e-01
3.066000000000000000e+03 4.789035797119140625e+01 3.554560470581054688e+01 -1.015370488166809082e+00 3.837987184524536133e+00 8.467850089073181152e-01 5.640197396278381348e-01
3.067000000000000000e+03 1.674425697326660156e+01 -4.128534698486328125e+01 7.962226122617721558e-02 -5.398956537246704102e-01 -1.380820125341415405e-01 6.500709801912307739e-02
3.068000000000000000e+03 5.161530685424804688e+01 -4.084144210815429688e+01 -1.868791729211807251e-01 1.310165643692016602e+00 3.369859457015991211e-01 -2.052616775035858154e-01
3.069000000000000000e+03 5.282150650024414062e+01 -3.737192535400390625e+01 -3.308875858783721924e-01 1.060912132263183594e+00 2.190073430538177490e-01 -5.133402347564697266e-01
3.070000000000000000e+03 7.190669250488281250e+01 -4.113978958129882812e+01 -2.487618178129196167e-01 7.365318775177001953e+00 2.134967088699340820e+00 -1.604550145566463470e-02
3.071000000000000000e+03 6.298078536987304688e+01 3.514147949218750000e+01 -1.196970343589782715e-01 5.104026794433593750e+00 1.495298862457275391e+00 2.788500785827636719e-01
3.072000000000000000e+03 4.797418212890625000e+01 3.827333068847656250e+01 -1.251546978950500488e+00 3.793101787567138672e+00 7.624664306640625000e-01 3.378728628158569336e-01
3.073000000000000000e+03 5.526432800292968750e+01 3.549153137207031250e+01 -4.747697114944458008e-01 4.547923564910888672e+00 1.221946120262145996e+00 5.007719397544860840e-01
3.074000000000000000e+03 4.771022033691406250e+01 4.108990478515625000e+01 -1.373186469078063965e+00 3.770778656005859375e+00 7.192776799201965332e-01 1.249259933829307556e-01
3.075000000000000000e+03 7.012671661376953125e+01 3.808517837524414062e+01 -5.209479108452796936e-02 5.819670200347900391e+00 1.730272531509399414e+00 6.643705070018768311e-02
3.076000000000000000e+03 4.188730621337890625e+01 -4.063753890991210938e+01 -1.536723136901855469e+00 4.209787845611572266e+00 8.019194006919860840e-01 -2.048142105340957642e-01
3.077000000000000000e+03 5.204260253906250000e+01 3.747644805908203125e+01 -8.541085124015808105e-01 4.354040622711181641e+00 1.049979686737060547e+00 4.202016592025756836e-01
3.078000000000000000e+03 2.308895874023437500e+01 -4.121102905273437500e+01 -2.661287188529968262e-01 1.754648536443710327e-01 -2.719916217029094696e-02 9.103607386350631714e-02
3.079000000000000000e+03 5.759235763549804688e+01 4.073953628540039062e+01 -5.846902728080749512e-01 4.810389518737792969e+00 1.267709851264953613e+00 1.273773759603500366e-01
3.080000000000000000e+03 4.300909423828125000e+01 3.547325515747070312e+01 -1.384070396423339844e+00 2.868205785751342773e+00 4.452406466007232666e-01 3.056395351886749268e-01
3.081000000000000000e+03 4.507001495361328125e+01 3.583423614501953125e+01 -1.267048954963684082e+00 3.363959789276123047e+00 6.290732622146606445e-01 3.720109760761260986e-01
3.082000000000000000e+03 1.535077476501464844e+01 -2.551285266876220703e+00 2.513054132461547852e+00 1.457674503326416016e-01 7.976464629173278809e-01 6.572636961936950684e-01
3.083000000000000000e+03 1.569572448730468750e+01 -2.758248567581176758e+00 2.837750196456909180e+00 2.646500468254089355e-01 9.307200908660888672e-01 8.817678093910217285e-01
3.084000000000000000e+03 1.607898902893066406e+01 -2.776732921600341797e+00 3.103127717971801758e+00 4.485277235507965088e-01 1.065496683120727539e+00 1.132483124732971191e+00
3.085000000000000000e+03 1.674505805969238281e+01 -2.520907878875732422e+00 3.666914463043212891e+00 7.616968154907226562e-01 1.328583359718322754e+00 1.336166501045227051e+00
3.086000000000000000e+03 1.714070129394531250e+01 -2.535525798797607422e+00 4.119186878204345703e+00 1.331597924232482910e+00 1.635235428810119629e+00 1.874390125274658203e+00
3.087000000000000000e+03 1.751207923889160156e+01 -2.840921401977539062e+00 4.129778385162353516e+00 2.570509672164916992e+00 2.010086536407470703e+00 2.537571430206298828e+00
3.088000000000000000e+03 1.795860862731933594e+01 -2.616272211074829102e+00 4.316105842590332031e+00 3.973618984222412109e+00 2.486917495727539062e+00 3.024882555007934570e+00
3.089000000000000000e+03 1.858884239196777344e+01 -2.618121623992919922e+00 3.471534967422485352e+00 7.860552787780761719e+00 3.399626255035400391e+00 2.943894863128662109e+00
3.090000000000000000e+03 1.887093544006347656e+01 -2.843448162078857422e+00 2.864759683609008789e+00 8.716927528381347656e+00 3.474506139755249023e+00 1.918567657470703125e+00
3.091000000000000000e+03 1.953125190734863281e+01 -3.119251251220703125e+00 2.570880889892578125e+00 9.078914642333984375e+00 3.494938611984252930e+00 -3.779581189155578613e-01
3.092000000000000000e+03 1.993505287170410156e+01 -2.632947206497192383e+00 3.699895143508911133e+00 1.021041774749755859e+01 4.173093795776367188e+00 -2.261916875839233398e+00
3.093000000000000000e+03 1.980513763427734375e+01 -2.383872032165527344e+00 3.924101352691650391e+00 1.103919029235839844e+01 4.488987445831298828e+00 -2.341921806335449219e+00
3.094000000000000000e+03 2.096409797668457031e+01 -5.758007168769836426e-01 6.958479881286621094e+00 6.292196273803710938e+00 3.975202798843383789e+00 -1.664772510528564453e+00
3.095000000000000000e+03 1.904544448852539062e+01 9.564642310142517090e-01 -8.618246763944625854e-02 1.125664520263671875e+01 3.351139068603515625e+00 -4.156577587127685547e+00
3.096000000000000000e+03 1.848847770690917969e+01 7.197999954223632812e-01 9.420183300971984863e-01 9.127656936645507812e+00 3.020902633666992188e+00 -5.615941047668457031e+00
3.097000000000000000e+03 1.793445587158203125e+01 6.910632848739624023e-01 1.633090972900390625e+00 5.679430007934570312e+00 2.193756341934204102e+00 -5.199338912963867188e+00
3.098000000000000000e+03 1.734249496459960938e+01 7.746477127075195312e-01 1.522737622261047363e+00 3.354417085647583008e+00 1.463146448135375977e+00 -3.941859722137451172e+00
3.099000000000000000e+03 1.631620216369628906e+01 8.687463998794555664e-01 4.010620415210723877e-01 1.742500782012939453e+00 6.430688500404357910e-01 -2.182757377624511719e+00
3.100000000000000000e+03 7.793856048583984375e+01 4.157783126831054688e+01 2.587172389030456543e-02 6.609873771667480469e+00 1.990723609924316406e+00 -7.249280810356140137e-03
3.101000000000000000e+03 6.746733856201171875e+01 -6.299774169921875000e+00 4.364655911922454834e-01 7.133813381195068359e+00 2.271083831787109375e+00 -1.516390085220336914e+00
3.102000000000000000e+03 3.257337570190429688e+01 -1.648093605041503906e+01 -1.505393028259277344e+00 2.092036962509155273e+00 1.759931594133377075e-01 -1.982133746147155762e+00
3.103000000000000000e+03 1.625857162475585938e+01 -2.955737829208374023e+00 3.270844221115112305e+00 6.647168993949890137e-01 1.180668354034423828e+00 1.317303895950317383e+00
3.104000000000000000e+03 1.826654434204101562e+01 -3.115297079086303711e+00 3.260161638259887695e+00 5.578143119812011719e+00 2.651491403579711914e+00 2.650857686996459961e+00
3.105000000000000000e+03 1.656532859802246094e+01 -3.053251504898071289e+00 3.476368665695190430e+00 1.062737107276916504e+00 1.361731767654418945e+00 1.669507384300231934e+00
3.106000000000000000e+03 1.677991485595703125e+01 -2.793675422668457031e+00 3.698619604110717773e+00 1.080596804618835449e+00 1.433764934539794922e+00 1.652803540229797363e+00
3.107000000000000000e+03 1.713440513610839844e+01 -2.803237199783325195e+00 3.958967685699462891e+00 1.675878167152404785e+00 1.690453767776489258e+00 2.045282125473022461e+00
3.108000000000000000e+03 1.752526283264160156e+01 -3.076784849166870117e+00 3.776165008544921875e+00 2.988702058792114258e+00 2.029460191726684570e+00 2.576318740844726562e+00
3.109000000000000000e+03 1.847985839843750000e+01 -3.234089136123657227e+00 2.893473148345947266e+00 6.340847492218017578e+00 2.770296096801757812e+00 2.297644138336181641e+00
3.110000000000000000e+03 1.838988494873046875e+01 1.535286188125610352e+00 -1.021800190210342407e-01 8.179005622863769531e+00 2.423047780990600586e+00 -4.618245601654052734e+00
3.111000000000000000e+03 1.929150199890136719e+01 1.036209106445312500e+00 -2.280065566301345825e-01 1.154278564453125000e+01 3.394433736801147461e+00 -3.467165946960449219e+00
3.112000000000000000e+03 1.955036544799804688e+01 1.018088459968566895e+00 2.389476262032985687e-02 1.163774394989013672e+01 3.498491525650024414e+00 -2.733549118041992188e+00
3.113000000000000000e+03 2.145941543579101562e+01 -7.122954130172729492e-01 6.377174854278564453e+00 4.497247695922851562e+00 3.262326717376708984e+00 -2.405996084213256836e+00
3.114000000000000000e+03 2.084016799926757812e+01 7.415820658206939697e-02 4.508690834045410156e+00 7.850914955139160156e+00 3.707881689071655273e+00 -3.548763096332550049e-01
3.115000000000000000e+03 2.047711181640625000e+01 -2.291066169738769531e+00 5.617357254028320312e+00 8.668163299560546875e+00 4.285655975341796875e+00 -3.879497289657592773e+00
3.116000000000000000e+03 1.455214023590087891e+01 -3.426929235458374023e+00 2.263815879821777344e+00 1.878470331430435181e-01 7.354989051818847656e-01 9.716831445693969727e-01
3.117000000000000000e+03 1.956342887878417969e+01 -3.457127809524536133e+00 2.362408638000488281e+00 7.998599529266357422e+00 3.108302354812622070e+00 -2.348757237195968628e-01
3.118000000000000000e+03 1.998697280883789062e+01 -3.134979724884033203e+00 3.019940376281738281e+00 8.415372848510742188e+00 3.430593967437744141e+00 -1.691754698753356934e+00
3.119000000000000000e+03 2.080302429199218750e+01 3.355536758899688721e-01 3.649175405502319336e+00 8.137240409851074219e+00 3.535924911499023438e+00 -2.168751209974288940e-01
3.120000000000000000e+03 2.092204093933105469e+01 1.050964474678039551e+00 9.811397194862365723e-01 7.724161148071289062e+00 2.611590147018432617e+00 -9.369565248489379883e-01
3.121000000000000000e+03 3.311495590209960938e+01 -3.640516662597656250e+01 -1.449890851974487305e+00 4.148093223571777344e+00 8.094606995582580566e-01 8.081295490264892578e-01
3.122000000000000000e+03 1.570535755157470703e+01 -3.342062473297119141e+00 2.894443750381469727e+00 5.365739464759826660e-01 1.029305338859558105e+00 1.308683037757873535e+00
3.123000000000000000e+03 2.005897521972656250e+01 9.090124368667602539e-01 7.035380005836486816e-01 1.078320312500000000e+01 3.446022272109985352e+00 -1.358933210372924805e+00
3.124000000000000000e+03 1.992594337463378906e+01 1.251333475112915039e+00 -2.807787954807281494e-01 1.050215625762939453e+01 3.066413164138793945e+00 -2.033648252487182617e+00
3.125000000000000000e+03 1.982187271118164062e+01 -2.982756614685058594e+00 2.995037555694580078e+00 9.112556457519531250e+00 3.632278203964233398e+00 -1.468849658966064453e+00
3.126000000000000000e+03 1.806107330322265625e+01 1.729804039001464844e+00 5.150290951132774353e-02 7.313566207885742188e+00 2.209520816802978516e+00 -4.521001338958740234e+00
3.127000000000000000e+03 2.009868240356445312e+01 -3.403093576431274414e+00 2.885982036590576172e+00 7.779633045196533203e+00 3.199684381484985352e+00 -1.649291992187500000e+00
3.128000000000000000e+03 6.869190979003906250e+01 -3.017460250854492188e+01 -1.008751153945922852e+00 7.842629432678222656e+00 2.050163507461547852e+00 4.190939068794250488e-01
3.129000000000000000e+03 1.678363227844238281e+01 -3.223906278610229492e+00 3.500283002853393555e+00 1.481145977973937988e+00 1.494428753852844238e+00 1.911903381347656250e+00
3.130000000000000000e+03 1.760781478881835938e+01 -3.375702857971191406e+00 3.386300325393676758e+00 3.343019247055053711e+00 2.018795728683471680e+00 2.479686975479125977e+00
3.131000000000000000e+03 1.915943908691406250e+01 -3.895232915878295898e+00 2.195353746414184570e+00 6.654909133911132812e+00 2.655078887939453125e+00 7.043488025665283203e-01
3.132000000000000000e+03 1.982763671875000000e+01 -3.447252511978149414e+00 2.559039115905761719e+00 8.013069152832031250e+00 3.171632528305053711e+00 -1.005194187164306641e+00
3.133000000000000000e+03 2.214901733398437500e+01 -2.519909620285034180e+00 5.860363960266113281e+00 3.227699041366577148e+00 2.726418972015380859e+00 -3.331075668334960938e+00
3.134000000000000000e+03 2.142384719848632812e+01 1.297772228717803955e-01 3.881612539291381836e+00 5.161998271942138672e+00 2.713083267211914062e+00 -1.057705760002136230e+00
3.135000000000000000e+03 2.117139816284179688e+01 -1.520564109086990356e-01 4.992911815643310547e+00 5.995818138122558594e+00 3.296618938446044922e+00 -1.102637648582458496e+00
3.136000000000000000e+03 1.532359695434570312e+01 -3.866380453109741211e+00 2.602824449539184570e+00 5.609134435653686523e-01 9.491213560104370117e-01 1.391536831855773926e+00
3.137000000000000000e+03 4.191587066650390625e+01 3.438687896728515625e+01 -1.251474380493164062e+00 2.467725038528442383e+00 3.648751974105834961e-01 2.970146834850311279e-01
3.138000000000000000e+03 7.802106475830078125e+01 -3.588122558593750000e+01 -1.660909950733184814e-01 1.053058528900146484e+01 3.109348058700561523e+00 -2.408978790044784546e-01
3.139000000000000000e+03 2.325310945510864258e+00 -4.454442024230957031e+00 2.664480172097682953e-02 6.530788540840148926e-02 2.758580632507801056e-02 8.844840340316295624e-03
3.140000000000000000e+03 2.336031723022460938e+01 -4.841145992279052734e+00 3.874120712280273438e+00 2.354740619659423828e+00 1.868658304214477539e+00 -2.204731464385986328e+00
3.141000000000000000e+03 3.932580566406250000e+01 -1.904608535766601562e+01 -1.569076441228389740e-02 1.030881309509277344e+01 3.087936878204345703e+00 5.855877399444580078e-01
3.142000000000000000e+03 4.057524108886718750e+01 -1.946158599853515625e+01 1.742641180753707886e-01 9.290644645690917969e+00 2.839472532272338867e+00 2.462366968393325806e-01
3.143000000000000000e+03 1.799390983581542969e+01 -3.875515460968017578e+00 2.758369207382202148e+00 4.320941925048828125e+00 2.123793363571166992e+00 2.223591089248657227e+00
3.144000000000000000e+03 3.073386192321777344e+01 -3.705017089843750000e+01 -1.082547903060913086e+00 2.888971328735351562e+00 5.419270396232604980e-01 8.492059707641601562e-01
3.145000000000000000e+03 3.710496902465820312e+01 -2.585424804687500000e+01 1.719749212265014648e+00 9.974493980407714844e+00 3.508272886276245117e+00 4.468816816806793213e-01
3.146000000000000000e+03 1.571905136108398438e+01 -3.810287237167358398e+00 2.803509473800659180e+00 7.252164483070373535e-01 1.058617711067199707e+00 1.499062776565551758e+00
3.147000000000000000e+03 2.016251564025878906e+01 -3.768535614013671875e+00 2.634700536727905273e+00 7.107161998748779297e+00 2.922558784484863281e+00 -1.470366477966308594e+00
3.148000000000000000e+03 4.412701129913330078e+00 -1.916970825195312500e+01 1.267022013664245605e+00 3.776388168334960938e+00 1.513023018836975098e+00 8.277120590209960938e-01
3.149000000000000000e+03 1.695646476745605469e+01 -3.683048725128173828e+00 3.209169864654541016e+00 2.088330507278442383e+00 1.589250087738037109e+00 2.129333019256591797e+00
3.150000000000000000e+03 1.731734848022460938e+01 -3.097470045089721680e+00 3.786044836044311523e+00 2.440749168395996094e+00 1.868038177490234375e+00 2.380433559417724609e+00
3.151000000000000000e+03 1.854561614990234375e+01 2.235207796096801758e+00 -4.953015446662902832e-01 8.181534767150878906e+00 2.305869817733764648e+00 -3.879183530807495117e+00
3.152000000000000000e+03 1.866619682312011719e+01 1.760612368583679199e+00 -5.510473251342773438e-01 8.819038391113281250e+00 2.480397462844848633e+00 -4.187643527984619141e+00
3.153000000000000000e+03 1.775197410583496094e+01 1.630894184112548828e+00 3.643536567687988281e-01 6.172504425048828125e+00 1.961057424545288086e+00 -4.375363826751708984e+00
3.154000000000000000e+03 1.874877929687500000e+01 -4.059038162231445312e+00 2.210756778717041016e+00 5.855523586273193359e+00 2.419884204864501953e+00 1.336878538131713867e+00
3.155000000000000000e+03 1.616811943054199219e+01 -3.464638471603393555e+00 3.114797592163085938e+00 8.644096255302429199e-01 1.193762183189392090e+00 1.565674304962158203e+00
3.156000000000000000e+03 1.641549110412597656e+01 -3.453220129013061523e+00 3.240841627120971680e+00 1.179625034332275391e+00 1.326140046119689941e+00 1.737743854522705078e+00
3.157000000000000000e+03 1.631082725524902344e+01 -3.701238155364990234e+00 3.057998180389404297e+00 1.216663479804992676e+00 1.282398462295532227e+00 1.774469017982482910e+00
3.158000000000000000e+03 1.653181076049804688e+01 -3.889452695846557617e+00 3.005261659622192383e+00 1.578940629959106445e+00 1.375260710716247559e+00 1.935839056968688965e+00
3.159000000000000000e+03 1.986831283569335938e+01 -4.027318954467773438e+00 2.317869663238525391e+00 6.723977088928222656e+00 2.712553977966308594e+00 -7.020013332366943359e-01
3.160000000000000000e+03 1.557139205932617188e+01 -4.047756195068359375e+00 2.660010814666748047e+00 7.550454735755920410e-01 1.024516940116882324e+00 1.542951703071594238e+00
3.161000000000000000e+03 1.546410751342773438e+01 -4.421280860900878906e+00 2.529844284057617188e+00 8.285011053085327148e-01 1.007503628730773926e+00 1.650577545166015625e+00
3.162000000000000000e+03 6.503458499908447266e+00 -3.085338783264160156e+01 -1.602926850318908691e+00 1.763738036155700684e+00 4.824333637952804565e-02 2.319153249263763428e-01
3.163000000000000000e+03 2.225454330444335938e+01 -1.962392807006835938e+00 6.289252281188964844e+00 2.782103538513183594e+00 2.721406698226928711e+00 -3.172508239746093750e+00
3.164000000000000000e+03 7.144136810302734375e+01 -3.357847213745117188e+01 -8.778162598609924316e-01 8.213004112243652344e+00 2.200556278228759766e+00 -3.774093985557556152e-01
3.165000000000000000e+03 2.903617858886718750e+01 -1.306999397277832031e+01 6.882432103157043457e-01 3.939459621906280518e-01 3.246567547321319580e-01 -8.765965104103088379e-01
3.166000000000000000e+03 4.002144622802734375e+01 2.975787520408630371e-01 -4.275224804878234863e-01 9.643175125122070312e+00 2.764695882797241211e+00 1.533001303672790527e+00
3.167000000000000000e+03 3.966291046142578125e+01 -7.525308132171630859e-01 2.560905516147613525e-01 9.335811614990234375e+00 2.877570629119873047e+00 1.642714381217956543e+00
3.168000000000000000e+03 2.204222297668457031e+01 -3.734364986419677734e+00 4.425773143768310547e+00 3.862159729003906250e+00 2.486379861831665039e+00 -2.969164848327636719e+00
3.169000000000000000e+03 1.628215599060058594e+01 -4.209629058837890625e+00 2.788810729980468750e+00 1.443119645118713379e+00 1.269579172134399414e+00 1.884886026382446289e+00
3.170000000000000000e+03 1.731235694885253906e+01 -3.401895284652709961e+00 3.407890796661376953e+00 2.623271942138671875e+00 1.809348821640014648e+00 2.330193042755126953e+00
3.171000000000000000e+03 1.264046478271484375e+01 -3.484357070922851562e+01 -8.792291879653930664e-01 -4.688360691070556641e-01 -4.044195711612701416e-01 5.386390089988708496e-01
3.172000000000000000e+03 2.171975135803222656e+01 -4.863205909729003906e+00 3.051647186279296875e+00 4.021745681762695312e+00 2.122017860412597656e+00 -2.074860572814941406e+00
3.173000000000000000e+03 4.524020004272460938e+01 5.228611946105957031e+00 4.519736468791961670e-01 4.330321788787841797e+00 1.434688568115234375e+00 2.963921785354614258e+00
3.174000000000000000e+03 4.603998184204101562e+00 -3.232395553588867188e+01 -7.989824414253234863e-01 3.011310338973999023e+00 6.636983752250671387e-01 2.417617291212081909e-01
3.175000000000000000e+03 7.224604797363281250e+01 -1.938221549987792969e+01 5.227122902870178223e-01 1.170302581787109375e+01 3.667721509933471680e+00 -5.073295831680297852e-01
3.176000000000000000e+03 1.590989589691162109e+01 -4.403830528259277344e+00 2.645398378372192383e+00 1.147728681564331055e+00 1.137938141822814941e+00 1.797043681144714355e+00
3.177000000000000000e+03 1.926752471923828125e+01 -4.154044151306152344e+00 2.105004787445068359e+00 6.245803356170654297e+00 2.505242347717285156e+00 4.539192616939544678e-01
3.178000000000000000e+03 1.656898498535156250e+01 -4.490536689758300781e+00 2.692307472229003906e+00 1.829812288284301758e+00 1.356635928153991699e+00 2.017064809799194336e+00
3.179000000000000000e+03 3.302991867065429688e+01 -3.406540679931640625e+01 -1.181755423545837402e+00 4.488543033599853516e+00 9.920362830162048340e-01 1.129397988319396973e+00
3.180000000000000000e+03 2.600256919860839844e+01 -1.441186618804931641e+01 -9.208087325096130371e-01 2.925361990928649902e-01 -1.884817630052566528e-01 -2.040743976831436157e-01
3.181000000000000000e+03 2.010916137695312500e+01 -4.099559783935546875e+00 2.464882612228393555e+00 6.489059925079345703e+00 2.686182737350463867e+00 -1.118072152137756348e+00
3.182000000000000000e+03 2.000889778137207031e+01 -4.372510910034179688e+00 2.150340318679809570e+00 5.959083557128906250e+00 2.432826995849609375e+00 -6.475530862808227539e-01
3.183000000000000000e+03 4.291893768310546875e+01 -2.472629547119140625e+01 7.560746669769287109e-01 4.808500289916992188e+00 1.669372558593750000e+00 -1.345268726348876953e+00
3.184000000000000000e+03 1.758881187438964844e+01 -5.257865428924560547e+00 2.080108165740966797e+00 3.136236906051635742e+00 1.564903497695922852e+00 1.826548576354980469e+00
3.185000000000000000e+03 1.876748847961425781e+01 -4.486711502075195312e+00 2.049709081649780273e+00 5.281491756439208984e+00 2.199360370635986328e+00 1.187072396278381348e+00
3.186000000000000000e+03 2.147887039184570312e+01 -5.310141086578369141e+00 2.638000726699829102e+00 4.020204544067382812e+00 1.997461557388305664e+00 -1.685559391975402832e+00
3.187000000000000000e+03 1.668661880493164062e+01 -5.175506114959716797e+00 2.301231384277343750e+00 2.062456369400024414e+00 1.309106349945068359e+00 1.985708594322204590e+00
3.188000000000000000e+03 1.410514068603515625e+01 3.754001855850219727e+00 5.352346897125244141e-01 2.170033454895019531e+00 8.115804791450500488e-01 -1.426541209220886230e+00
3.189000000000000000e+03 1.050185489654541016e+01 2.982038497924804688e+01 -4.931775629520416260e-01 2.980628252029418945e+00 7.462351918220520020e-01 -1.321230411529541016e+00
3.190000000000000000e+03 1.226216316223144531e+01 -1.179813480377197266e+01 1.643981337547302246e-01 7.373604178428649902e-01 2.705275714397430420e-01 2.268437147140502930e+00
3.191000000000000000e+03 7.591685485839843750e+01 -2.360937500000000000e+01 2.626934051513671875e-01 8.575126647949218750e+00 2.651345968246459961e+00 -9.643851518630981445e-01
3.192000000000000000e+03 1.966828727722167969e+01 -4.032421112060546875e+00 2.191349744796752930e+00 6.724776744842529297e+00 2.674837827682495117e+00 -2.613690197467803955e-01
3.193000000000000000e+03 1.434776115417480469e+01 4.308181285858154297e+00 7.382309436798095703e-01 2.763924837112426758e+00 1.050646781921386719e+00 -1.651199102401733398e+00
3.194000000000000000e+03 5.964792251586914062e+00 4.200469493865966797e+00 -1.918716132640838623e-01 -8.834348618984222412e-02 -8.406452834606170654e-02 8.298505544662475586e-01
3.195000000000000000e+03 1.966493415832519531e+01 -5.281934738159179688e+00 1.819879889488220215e+00 4.787536144256591797e+00 1.982224822044372559e+00 3.277232870459556580e-02
3.196000000000000000e+03 1.977700805664062500e+01 -4.245358943939208984e+00 2.142069339752197266e+00 6.303407192230224609e+00 2.533643007278442383e+00 -3.900693058967590332e-01
3.197000000000000000e+03 4.638222885131835938e+01 1.730515098571777344e+01 1.154847502708435059e+00 5.175885677337646484e+00 1.899219989776611328e+00 1.818209409713745117e+00
3.198000000000000000e+03 1.919270324707031250e+01 -4.930531024932861328e+00 1.856860518455505371e+00 5.158774375915527344e+00 2.104690551757812500e+00 5.684239864349365234e-01
3.199000000000000000e+03 1.931514358520507812e+01 -5.397301673889160156e+00 1.739841699600219727e+00 4.552193164825439453e+00 1.887610435485839844e+00 4.341669082641601562e-01
3.200000000000000000e+03 1.803021812438964844e+01 -5.037447929382324219e+00 2.011305332183837891e+00 3.759359359741210938e+00 1.731199502944946289e+00 1.689587950706481934e+00
3.201000000000000000e+03 3.728765869140625000e+01 -5.620883464813232422e+00 2.346913337707519531e+00 7.155506610870361328e+00 2.850725889205932617e+00 7.761591672897338867e-01
3.202000000000000000e+03 7.554679107666015625e+01 -2.182347106933593750e+01 3.265558183193206787e-01 8.785893440246582031e+00 2.733734846115112305e+00 -6.923934817314147949e-01
3.203000000000000000e+03 7.474716186523437500e+01 -2.077429199218750000e+01 4.244753718376159668e-01 9.426273345947265625e+00 2.955224514007568359e+00 -6.578947305679321289e-01
3.204000000000000000e+03 6.675273895263671875e+01 2.175769656896591187e-01 -1.192891478538513184e+00 5.441428184509277344e+00 1.274561047554016113e+00 -1.139433383941650391e+00
3.205000000000000000e+03 1.638708114624023438e+01 -1.025260257720947266e+01 4.825382232666015625e-01 9.652387499809265137e-01 4.343330860137939453e-01 1.604116439819335938e+00
3.206000000000000000e+03 1.632340240478515625e+01 -4.938991546630859375e+00 2.438817262649536133e+00 1.676157951354980469e+00 1.234492540359497070e+00 1.947358369827270508e+00
3.207000000000000000e+03 4.313212585449218750e+01 -2.969662857055664062e+01 -2.985134348273277283e-02 4.386188983917236328e+00 1.306901335716247559e+00 -1.379932999610900879e+00
3.208000000000000000e+03 4.588573074340820312e+01 -2.773814201354980469e+01 4.003072381019592285e-01 2.592149257659912109e+00 8.977369666099548340e-01 -1.263438344001770020e+00
3.209000000000000000e+03 3.664513778686523438e+01 -8.924530029296875000e+00 2.199782609939575195e+00 7.127999782562255859e+00 2.798334836959838867e+00 -3.299002349376678467e-01
3.210000000000000000e+03 3.502498626708984375e+01 -7.883482933044433594e+00 2.905357837677001953e+00 4.734972000122070312e+00 2.292098999023437500e+00 -5.153251886367797852e-01
3.211000000000000000e+03 3.640568161010742188e+01 -7.884532928466796875e+00 2.638817310333251953e+00 6.624700546264648438e+00 2.779055356979370117e+00 -2.143892347812652588e-01
3.212000000000000000e+03 4.360069274902343750e+01 -2.622162437438964844e+01 7.070549726486206055e-01 4.107414722442626953e+00 1.444340944290161133e+00 -1.465238928794860840e+00
3.213000000000000000e+03 4.491471862792968750e+01 -2.570776557922363281e+01 6.434943079948425293e-01 2.909442901611328125e+00 1.065881252288818359e+00 -1.320379257202148438e+00
3.214000000000000000e+03 1.323262023925781250e+01 -4.805070877075195312e+00 1.729194402694702148e+00 2.433340549468994141e-01 5.917585492134094238e-01 1.247923374176025391e+00
3.215000000000000000e+03 7.580072021484375000e+01 -2.074456977844238281e+01 3.493794500827789307e-01 8.564226150512695312e+00 2.674081563949584961e+00 -6.325657367706298828e-01
3.216000000000000000e+03 9.439674377441406250e+00 -1.119577884674072266e+01 -1.495384573936462402e-01 1.628392696380615234e+00 4.436562657356262207e-01 1.942586898803710938e+00
3.217000000000000000e+03 1.584552955627441406e+01 -5.916883945465087891e+00 1.991769433021545410e+00 1.359416127204895020e+00 1.005355715751647949e+00 1.909447669982910156e+00
3.218000000000000000e+03 2.000789260864257812e+01 -5.515238285064697266e+00 1.806734561920166016e+00 4.559230804443359375e+00 1.909789681434631348e+00 -2.537069320678710938e-01
3.219000000000000000e+03 7.229339599609375000e+01 2.745249366760253906e+01 1.300923526287078857e-01 5.893170356750488281e+00 1.806978821754455566e+00 -3.497259691357612610e-02
3.220000000000000000e+03 4.745994949340820312e+01 1.870650482177734375e+01 1.099095821380615234e+00 4.761434078216552734e+00 1.758158922195434570e+00 1.645773291587829590e+00
3.221000000000000000e+03 1.641279792785644531e+01 -5.959760665893554688e+00 1.930490493774414062e+00 1.777454257011413574e+00 1.112383484840393066e+00 1.900907635688781738e+00
3.222000000000000000e+03 1.042194175720214844e+01 -1.077533626556396484e+01 1.182574555277824402e-01 1.176215291023254395e+00 3.883418440818786621e-01 2.066144466400146484e+00
3.223000000000000000e+03 1.044171714782714844e+01 -1.002420330047607422e+01 2.641288340091705322e-01 1.056497693061828613e+00 3.961879611015319824e-01 1.951281666755676270e+00
3.224000000000000000e+03 1.812269592285156250e+01 -5.860271453857421875e+00 1.697818398475646973e+00 3.371405601501464844e+00 1.520767211914062500e+00 1.366498112678527832e+00
3.225000000000000000e+03 4.361309814453125000e+01 -2.726048660278320312e+01 4.273121953010559082e-01 3.960112333297729492e+00 1.316227316856384277e+00 -1.416026592254638672e+00
3.226000000000000000e+03 7.506600189208984375e+01 -1.484444618225097656e+01 5.108951926231384277e-01 8.647707939147949219e+00 2.747581005096435547e+00 1.751155406236648560e-01
3.227000000000000000e+03 7.390966033935546875e+01 -1.378086853027343750e+01 7.111353874206542969e-01 9.456229209899902344e+00 3.050209283828735352e+00 2.543660700321197510e-01
3.228000000000000000e+03 5.654153347015380859e+00 2.110466766357421875e+01 3.120874464511871338e-01 1.259315967559814453e+00 4.714210331439971924e-01 -1.151806712150573730e+00
3.229000000000000000e+03 7.337793731689453125e+01 -5.514551997184753418e-01 -5.509082078933715820e-01 7.663752079010009766e+00 2.133853197097778320e+00 -2.014930592849850655e-03
3.230000000000000000e+03 9.050793647766113281e+00 -1.049690723419189453e+01 -1.024833694100379944e-01 1.561929821968078613e+00 4.378339350223541260e-01 1.693175554275512695e+00
3.231000000000000000e+03 8.981561660766601562e+00 -9.685658454895019531e+00 4.354061186313629150e-02 1.293091654777526855e+00 4.009896814823150635e-01 1.552137255668640137e+00
3.232000000000000000e+03 1.834253692626953125e+01 -6.115545749664306641e+00 1.594242453575134277e+00 3.414007902145385742e+00 1.502475142478942871e+00 1.249527335166931152e+00
3.233000000000000000e+03 7.493946075439453125e+01 -1.362292766571044922e+01 5.080925226211547852e-01 8.661590576171875000e+00 2.750904798507690430e+00 3.507977128028869629e-01
3.234000000000000000e+03 1.892101860046386719e+01 -6.212766647338867188e+00 1.529899597167968750e+00 3.663520097732543945e+00 1.558025956153869629e+00 8.030146360397338867e-01
3.235000000000000000e+03 2.018423080444335938e+01 -5.171968936920166016e+00 2.047016382217407227e+00 4.975610733032226562e+00 2.106788158416748047e+00 -6.399095654487609863e-01
3.236000000000000000e+03 7.432428741455078125e+01 1.326028943061828613e+00 -4.145416319370269775e-01 7.653051853179931641e+00 2.171553134918212891e+00 -1.228446289896965027e-01
3.237000000000000000e+03 5.717256927490234375e+01 1.050386333465576172e+01 1.204550981521606445e+00 1.934012413024902344e+00 9.415690302848815918e-01 -1.900311410427093506e-01
3.238000000000000000e+03 5.896641921997070312e+01 8.799994468688964844e+00 7.553720474243164062e-01 1.993085145950317383e+00 8.245371580123901367e-01 -6.671904921531677246e-01
3.239000000000000000e+03 4.766252899169921875e+01 2.103228187561035156e+01 8.055662512779235840e-01 4.639791011810302734e+00 1.633607149124145508e+00 1.324570655822753906e+00
3.240000000000000000e+03 7.307165527343750000e+01 1.353836822509765625e+01 1.137990429997444153e-01 6.285017013549804688e+00 1.919644832611083984e+00 -6.444996595382690430e-01
3.241000000000000000e+03 7.044345855712890625e+01 4.782148838043212891e+00 -4.915110468864440918e-01 6.243022918701171875e+00 1.725453495979309082e+00 -8.648084998130798340e-01
3.242000000000000000e+03 6.906274414062500000e+01 5.328982830047607422e+00 -4.789734482765197754e-01 5.710049152374267578e+00 1.569322705268859863e+00 -1.047006607055664062e+00
3.243000000000000000e+03 6.203335189819335938e+01 2.131947708129882812e+01 8.396868705749511719e-01 4.178139209747314453e+00 1.505347847938537598e+00 1.374207288026809692e-01
3.244000000000000000e+03 7.085748672485351562e+00 2.631975555419921875e+01 2.757880836725234985e-02 2.312576055526733398e+00 7.020464539527893066e-01 -1.514374136924743652e+00
3.245000000000000000e+03 1.542880439758300781e+01 -6.700111865997314453e+00 1.684814810752868652e+00 1.167367219924926758e+00 8.556545972824096680e-01 1.908955097198486328e+00
3.246000000000000000e+03 1.920387649536132812e+01 -7.235572814941406250e+00 1.265957832336425781e+00 3.133677244186401367e+00 1.319890499114990234e+00 6.262610554695129395e-01
3.247000000000000000e+03 6.858242034912109375e+01 6.465793132781982422e+00 -3.350845277309417725e-01 5.456311225891113281e+00 1.536368012428283691e+00 -1.097289681434631348e+00
3.248000000000000000e+03 1.972107315063476562e+01 -7.426378726959228516e+00 1.242973685264587402e+00 2.963606595993041992e+00 1.261974096298217773e+00 2.811711430549621582e-01
3.249000000000000000e+03 1.576145267486572266e+01 -7.864529132843017578e+00 1.270177483558654785e+00 1.236415028572082520e+00 7.519778013229370117e-01 1.865656018257141113e+00
3.250000000000000000e+03 1.463417148590087891e+01 -7.518028736114501953e+00 1.360015988349914551e+00 8.811128139495849609e-01 6.723386645317077637e-01 1.933295726776123047e+00
3.251000000000000000e+03 1.558042526245117188e+01 -7.434208869934082031e+00 1.412867069244384766e+00 1.246163487434387207e+00 7.977091670036315918e-01 1.894361019134521484e+00
3.252000000000000000e+03 1.786928367614746094e+01 -8.349997520446777344e+00 9.526267647743225098e-01 2.033476591110229492e+00 8.958309888839721680e-01 1.316239118576049805e+00
3.253000000000000000e+03 7.319197082519531250e+01 4.879339694976806641e+00 -3.321553766727447510e-01 7.003068923950195312e+00 2.001274108886718750e+00 -5.600380301475524902e-01
3.254000000000000000e+03 6.627767181396484375e+01 8.042476654052734375e+00 -4.039366915822029114e-02 4.477269172668457031e+00 1.331062674522399902e+00 -1.204103589057922363e+00
3.255000000000000000e+03 2.012758445739746094e+01 -9.410496711730957031e+00 6.786719560623168945e-01 1.993516802787780762e+00 8.016566634178161621e-01 2.855791449546813965e-01
3.256000000000000000e+03 7.109851837158203125e+01 1.909078407287597656e+01 3.065244555473327637e-01 5.660693168640136719e+00 1.790165185928344727e+00 -4.133009910583496094e-01
3.257000000000000000e+03 6.626796722412109375e+01 1.671194267272949219e+01 6.371852159500122070e-01 4.581283092498779297e+00 1.565540552139282227e+00 -4.993011057376861572e-01
3.258000000000000000e+03 6.928618621826171875e+01 1.608007812500000000e+01 3.976188898086547852e-01 5.276800155639648438e+00 1.702325701713562012e+00 -6.038703918457031250e-01
3.259000000000000000e+03 6.329161071777343750e+01 1.115763092041015625e+01 6.194722652435302734e-01 3.490351915359497070e+00 1.232947230339050293e+00 -8.954021930694580078e-01
3.260000000000000000e+03 7.182777404785156250e+01 1.365699672698974609e+01 1.670848876237869263e-01 5.969007968902587891e+00 1.840827822685241699e+00 -6.960077285766601562e-01
3.261000000000000000e+03 6.930764770507812500e+01 1.421836757659912109e+01 3.317794799804687500e-01 5.281425476074218750e+00 1.683961510658264160e+00 -7.336621880531311035e-01
3.262000000000000000e+03 6.768384552001953125e+01 1.362006759643554688e+01 4.050348401069641113e-01 4.877321243286132812e+00 1.584706783294677734e+00 -8.081141114234924316e-01
3.263000000000000000e+03 1.171745300292968750e+01 -1.416588187217712402e+00 6.793980598449707031e-01 -2.992583997547626495e-02 1.948416680097579956e-01 1.249293014407157898e-01
3.264000000000000000e+03 1.027132415771484375e+01 -1.186757922172546387e+00 3.813556432723999023e-01 -1.676478423178195953e-02 1.093772575259208679e-01 1.020005121827125549e-01
3.265000000000000000e+03 1.244032764434814453e+01 -1.534988999366760254e+00 8.666023015975952148e-01 -2.245901338756084442e-02 2.532429993152618408e-01 1.359279602766036987e-01
3.266000000000000000e+03 1.253947448730468750e+01 -8.014244437217712402e-01 5.776813626289367676e-01 -1.041323412209749222e-02 1.701804399490356445e-01 -5.225109402090311050e-03
3.267000000000000000e+03 1.180517101287841797e+01 -6.811850070953369141e-01 4.183984994888305664e-01 1.950304067577235401e-05 1.255254000425338745e-01 6.307777483016252518e-03
3.268000000000000000e+03 1.107078933715820312e+01 -5.637502074241638184e-01 2.857347428798675537e-01 -1.209607440978288651e-02 8.209159970283508301e-02 1.415904052555561066e-02
3.269000000000000000e+03 1.099450206756591797e+01 -1.300992131233215332e+00 5.181883573532104492e-01 -1.533912029117345810e-02 1.508547663688659668e-01 1.161141470074653625e-01
3.270000000000000000e+03 1.033618259429931641e+01 -4.476772546768188477e-01 1.765964627265930176e-01 -2.884465793613344431e-04 5.289240553975105286e-02 2.188346534967422485e-02
3.271000000000000000e+03 8.742082595825195312e+00 -1.120473504066467285e+00 1.924547404050827026e-01 3.282199613749980927e-03 5.872108414769172668e-02 8.657047152519226074e-02
3.272000000000000000e+03 8.746333122253417969e+00 -3.804735541343688965e-01 3.929451480507850647e-02 6.539932452142238617e-03 1.375033427029848099e-02 2.616503089666366577e-02
3.273000000000000000e+03 9.561493873596191406e+00 -3.859410583972930908e-01 9.840634465217590332e-02 -6.491931155323982239e-03 2.757432498037815094e-02 2.577671781182289124e-02
3.274000000000000000e+03 7.114485740661621094e+00 -3.779024183750152588e-01 -6.092003732919692993e-02 5.321698263287544250e-03 -1.667950116097927094e-02 1.729660108685493469e-02
3.275000000000000000e+03 6.299727439880371094e+00 -3.794097900390625000e-01 -9.182637184858322144e-02 2.048977650701999664e-03 -2.693321928381919861e-02 9.259493090212345123e-03
3.276000000000000000e+03 5.489702701568603516e+00 -3.881254196166992188e-01 -1.071588173508644104e-01 2.116566756740212440e-03 -3.151267394423484802e-02 4.436973482370376587e-03
3.277000000000000000e+03 4.698569297790527344e+00 -4.129811227321624756e-01 -1.054924428462982178e-01 5.668326746672391891e-03 -2.994723431766033173e-02 -5.010555032640695572e-03
3.278000000000000000e+03 3.440532445907592773e+00 -7.500789761543273926e-01 -5.474705249071121216e-02 9.545749053359031677e-03 -1.356039103120565414e-02 -2.350152656435966492e-02
3.279000000000000000e+03 2.252097368240356445e+00 -3.222856521606445312e-01 -5.840344727039337158e-02 -5.779102910310029984e-03 -1.925476640462875366e-02 -6.642021704465150833e-03
3.280000000000000000e+03 1.100975990295410156e+00 -3.932227790355682373e-01 -2.322404086589813232e-02 2.488414756953716278e-03 -6.220688112080097198e-03 -1.063774991780519485e-02
3.281000000000000000e+03 3.918905556201934814e-01 -5.619686841964721680e-01 -2.593606710433959961e-03 -8.696927689015865326e-03 -3.387160366401076317e-03 -4.877619445323944092e-03
3.282000000000000000e+03 6.660780906677246094e-01 -1.133222818374633789e+00 1.368862111121416092e-02 -1.374824438244104385e-02 -1.788687586667947471e-05 -1.256348472088575363e-02
3.283000000000000000e+03 9.520647048950195312e+00 -1.125941038131713867e+00 2.746776044368743896e-01 1.797469216398894787e-03 8.294252306222915649e-02 9.304677695035934448e-02
3.284000000000000000e+03 7.962842464447021484e+00 -1.118551254272460938e+00 1.233075037598609924e-01 1.399225648492574692e-02 4.118992760777473450e-02 7.701677829027175903e-02
3.285000000000000000e+03 7.183426856994628906e+00 -1.117902398109436035e+00 6.720762699842453003e-02 1.190144289284944534e-02 2.373271994292736053e-02 5.723179131746292114e-02
3.286000000000000000e+03 6.405264377593994141e+00 -1.119409799575805664e+00 2.321134880185127258e-02 1.566338911652565002e-02 1.166242174804210663e-02 4.396928846836090088e-02
3.287000000000000000e+03 5.631834983825683594e+00 -1.128125429153442383e+00 -6.518982350826263428e-03 1.594145596027374268e-02 2.826742362231016159e-03 2.125586941838264465e-02
3.288000000000000000e+03 4.877296924591064453e+00 -1.152981162071228027e+00 -2.270197682082653046e-02 1.376099884510040283e-02 -2.682293299585580826e-03 9.850478731095790863e-03
3.289000000000000000e+03 4.148907184600830078e+00 -1.206536889076232910e+00 -2.662268653512001038e-02 1.377683505415916443e-02 -3.853755304589867592e-03 -9.618165902793407440e-03
3.290000000000000000e+03 3.423923969268798828e+00 -1.243278861045837402e+00 -3.323214128613471985e-02 8.644013665616512299e-03 -7.376438006758689880e-03 -2.343668229877948761e-02
3.291000000000000000e+03 2.658518552780151367e+00 -1.202569127082824707e+00 -2.627587877213954926e-02 3.553346730768680573e-03 -6.816759705543518066e-03 -3.297759592533111572e-02
3.292000000000000000e+03 1.911080241203308105e+00 -1.219903111457824707e+00 -3.000534512102603912e-02 1.587147591635584831e-03 -8.525459095835685730e-03 -3.435777872800827026e-02
3.293000000000000000e+03 1.670154809951782227e+00 -6.811572313308715820e-01 -8.786016143858432770e-03 3.518582554534077644e-03 -1.580229960381984711e-03 -2.189313061535358429e-02
3.294000000000000000e+03 7.930497169494628906e+00 -3.785512745380401611e-01 -1.603452675044536591e-02 -2.107215812429785728e-03 -5.442522931843996048e-03 2.148479782044887543e-02
3.295000000000000000e+03 2.907655954360961914e+00 -2.396233230829238892e-01 -8.807455003261566162e-02 6.730145309120416641e-03 -2.440332248806953430e-02 -7.778117898851633072e-03
3.296000000000000000e+03 1.263929843902587891e+00 -1.220711827278137207e+00 -1.862925477325916290e-02 -1.540915947407484055e-02 -1.021152455359697342e-02 -2.241225354373455048e-02
3.297000000000000000e+03 3.601328611373901367e+00 -2.668000757694244385e-01 -9.725180268287658691e-02 -9.578752215020358562e-04 -2.946290187537670135e-02 1.775866694515570998e-04
3.298000000000000000e+03 2.778059005737304688e+00 -6.821925044059753418e-01 -3.719289228320121765e-02 -3.429407661315053701e-04 -1.126074977219104767e-02 -1.579968258738517761e-02
3.299000000000000000e+03 4.028421401977539062e+00 -5.955539941787719727e-01 -9.211850911378860474e-02 -6.242177449166774750e-03 -2.950820699334144592e-02 -7.623730693012475967e-03
3.300000000000000000e+03 1.883668708801269531e+01 -9.804008007049560547e-01 1.919722747802734375e+01 3.346962690353393555e+00 6.763257026672363281e+00 6.729629516601562500e+00
3.301000000000000000e+03 1.883981132507324219e+01 -9.996168017387390137e-01 1.832401847839355469e+01 1.062103462219238281e+01 8.683515548706054688e+00 1.406172275543212891e+01
3.302000000000000000e+03 1.884661674499511719e+01 -1.017856836318969727e+00 1.763139533996582031e+01 1.823295402526855469e+01 1.075930500030517578e+01 1.652942085266113281e+01
3.303000000000000000e+03 1.885684394836425781e+01 -1.034422874450683594e+00 1.582542800903320312e+01 2.632970046997070312e+01 1.264653873443603516e+01 1.745426750183105469e+01
3.304000000000000000e+03 1.887010002136230469e+01 -1.048681139945983887e+00 1.420040416717529297e+01 3.396161651611328125e+01 1.444860553741455078e+01 1.647319793701171875e+01
3.305000000000000000e+03 1.888587760925292969e+01 -1.060085892677307129e+00 1.244185638427734375e+01 4.082181167602539062e+01 1.597910022735595703e+01 1.386111259460449219e+01
3.306000000000000000e+03 1.890357398986816406e+01 -1.068200588226318359e+00 1.157894039154052734e+01 4.613998031616210938e+01 1.731567573547363281e+01 9.901637077331542969e+00
3.307000000000000000e+03 1.892251205444335938e+01 -1.072714924812316895e+00 1.155427551269531250e+01 4.938881301879882812e+01 1.828292655944824219e+01 5.060768127441406250e+00
3.308000000000000000e+03 1.894196701049804688e+01 -1.073455929756164551e+00 1.308333683013916016e+01 5.049594116210937500e+01 1.907378387451171875e+01 1.086559444665908813e-01
3.309000000000000000e+03 1.896119308471679688e+01 -1.070395350456237793e+00 1.567784500122070312e+01 4.943490600585937500e+01 1.953382492065429688e+01 -4.359056472778320312e+00
3.310000000000000000e+03 1.897945404052734375e+01 -1.063650369644165039e+00 1.930880355834960938e+01 4.683867263793945312e+01 1.984424209594726562e+01 -7.637894630432128906e+00
3.311000000000000000e+03 1.899605560302734375e+01 -1.053478956222534180e+00 2.325667190551757812e+01 4.319740295410156250e+01 1.993622207641601562e+01 -9.485248565673828125e+00
3.312000000000000000e+03 1.901035690307617188e+01 -1.040270447731018066e+00 2.716850280761718750e+01 3.940202331542968750e+01 1.997115707397460938e+01 -9.762016296386718750e+00
3.313000000000000000e+03 1.902181434631347656e+01 -1.024530291557312012e+00 3.047153091430664062e+01 3.590285873413085938e+01 1.991231727600097656e+01 -8.703902244567871094e+00
3.314000000000000000e+03 1.902998733520507812e+01 -1.006860852241516113e+00 3.291098022460937500e+01 3.330092239379882812e+01 1.986357116699218750e+01 -6.608530998229980469e+00
3.315000000000000000e+03 1.903456497192382812e+01 -9.879381656646728516e-01 3.430913162231445312e+01 3.182265853881835938e+01 1.983953666687011719e+01 -3.854868173599243164e+00
3.316000000000000000e+03 1.903536987304687500e+01 -9.684865474700927734e-01 3.456473159790039062e+01 3.157143783569335938e+01 1.984085083007812500e+01 -8.589857220649719238e-01
3.317000000000000000e+03 1.903237342834472656e+01 -9.492502808570861816e-01 3.374535369873046875e+01 3.270875549316406250e+01 1.993623161315917969e+01 2.017090559005737305e+00
3.318000000000000000e+03 1.902569007873535156e+01 -9.309654831886291504e-01 3.180165481567382812e+01 3.489087295532226562e+01 2.000775909423828125e+01 4.399200439453125000e+00
3.319000000000000000e+03 1.901557350158691406e+01 -9.143318533897399902e-01 2.905073547363281250e+01 3.822196578979492188e+01 2.018181037902832031e+01 5.854465961456298828e+00
3.320000000000000000e+03 1.900241279602050781e+01 -8.999859690666198730e-01 2.551436042785644531e+01 4.190929794311523438e+01 2.022709846496582031e+01 6.148740291595458984e+00
3.321000000000000000e+03 1.898670959472656250e+01 -8.884767293930053711e-01 2.198646545410156250e+01 4.587699508666992188e+01 2.035903930664062500e+01 4.892992496490478516e+00
3.322000000000000000e+03 1.896906852722167969e+01 -8.802446722984313965e-01 1.843773651123046875e+01 4.903139114379882812e+01 2.024073791503906250e+01 2.222252368927001953e+00
3.323000000000000000e+03 1.895016098022460938e+01 -8.756046891212463379e-01 1.600784873962402344e+01 5.106167221069335938e+01 2.012085533142089844e+01 -1.789579868316650391e+00
3.324000000000000000e+03 1.893071174621582031e+01 -8.747344613075256348e-01 1.454720878601074219e+01 5.113516235351562500e+01 1.970471191406250000e+01 -6.615401744842529297e+00
3.325000000000000000e+03 1.891146469116210938e+01 -8.776671886444091797e-01 1.482019233703613281e+01 4.914046859741210938e+01 1.918819808959960938e+01 -1.165741443634033203e+01
3.326000000000000000e+03 1.889315795898437500e+01 -8.842906951904296875e-01 1.624732208251953125e+01 4.484096145629882812e+01 1.832648468017578125e+01 -1.614317512512207031e+01
3.327000000000000000e+03 1.887649154663085938e+01 -8.943515419960021973e-01 1.907221984863281250e+01 3.863529586791992188e+01 1.731225585937500000e+01 -1.942004013061523438e+01
3.328000000000000000e+03 1.886210250854492188e+01 -9.074646830558776855e-01 2.220481109619140625e+01 3.103836250305175781e+01 1.597295188903808594e+01 -2.095533752441406250e+01
3.329000000000000000e+03 1.885054016113281250e+01 -9.231283068656921387e-01 2.582291030883789062e+01 2.244687271118164062e+01 1.448093509674072266e+01 -2.029541969299316406e+01
3.330000000000000000e+03 1.884225082397460938e+01 -9.407430291175842285e-01 2.831226730346679688e+01 1.393536663055419922e+01 1.267428970336914062e+01 -1.755801010131835938e+01
3.331000000000000000e+03 1.883754730224609375e+01 -9.596347808837890625e-01 3.111793136596679688e+01 4.958349704742431641e+00 1.082288455963134766e+01 -9.804374694824218750e+00
