# el_label, x, y, sXX, sYY, sZZ, sXY
1.000000000000000000e+00 4.019438934326171875e+01 -7.367884159088134766e+00 -1.888752579689025879e+00 -1.543211221694946289e+00 -1.029589176177978516e+00 -1.816431045532226562e+00
2.000000000000000000e+00 4.039329147338867188e+01 -7.360293388366699219e+00 8.773372769355773926e-01 5.451921820640563965e-01 4.267588555812835693e-01 7.035095095634460449e-01
3.000000000000000000e+00 4.059218978881835938e+01 -7.352702617645263672e+00 -4.136609733104705811e-01 -1.736135929822921753e-01 -1.761823743581771851e-01 5.923709273338317871e-02
4.000000000000000000e+00 4.079108810424804688e+01 -7.345111846923828125e+00 -6.776694059371948242e-01 4.857981950044631958e-02 -1.887268722057342529e-01 1.889710277318954468e-01
5.000000000000000000e+00 4.018648147583007812e+01 -7.310079574584960938e+00 9.607038497924804688e+00 -2.067024469375610352e+00 2.262004375457763672e+00 1.157770872116088867e+00
6.000000000000000000e+00 4.038010787963867188e+01 -7.263952732086181641e+00 3.718559026718139648e+00 3.481442928314208984e-01 1.220010995864868164e+00 1.112041473388671875e+00
7.000000000000000000e+00 4.057373046875000000e+01 -7.217825889587402344e+00 3.381753444671630859e+00 4.384750723838806152e-01 1.146068572998046875e+00 1.571534276008605957e+00
8.000000000000000000e+00 4.076735305786132812e+01 -7.171698570251464844e+00 2.245128154754638672e+00 2.220323383808135986e-01 7.401481866836547852e-01 9.042641520500183105e-01
9.000000000000000000e+00 4.016748046875000000e+01 -7.254917144775390625e+00 1.379632663726806641e+01 1.334397673606872559e+00 4.539217472076416016e+00 6.596047401428222656e+00
1.000000000000000000e+01 4.034843444824218750e+01 -7.172015666961669922e+00 8.202520370483398438e+00 8.278062343597412109e-01 2.709098100662231445e+00 3.800238132476806641e+00
1.100000000000000000e+01 4.052939224243164062e+01 -7.089113712310791016e+00 5.491644859313964844e+00 1.428772449493408203e+00 2.076125144958496094e+00 3.116320610046386719e+00
1.200000000000000000e+01 4.071035003662109375e+01 -7.006211757659912109e+00 4.610081672668457031e+00 1.325114846229553223e+00 1.780558943748474121e+00 2.793246507644653320e+00
1.300000000000000000e+01 4.013811492919921875e+01 -7.204503536224365234e+00 1.517792510986328125e+01 6.007751464843750000e+00 6.355703353881835938e+00 1.088990211486816406e+01
1.400000000000000000e+01 4.029949188232421875e+01 -7.087992668151855469e+00 9.562119483947753906e+00 3.947535037994384766e+00 4.052896499633789062e+00 7.086751937866210938e+00
1.500000000000000000e+01 4.046087265014648438e+01 -6.971481323242187500e+00 7.360908031463623047e+00 3.160726785659790039e+00 3.156490325927734375e+00 5.494013309478759766e+00
1.600000000000000000e+01 4.062224960327148438e+01 -6.854970455169677734e+00 5.567615509033203125e+00 3.093339681625366211e+00 2.598286628723144531e+00 4.704720020294189453e+00
1.700000000000000000e+01 4.009950637817382812e+01 -7.160763263702392578e+00 1.375657749176025391e+01 1.240394973754882812e+01 7.848157882690429688e+00 1.375944995880126953e+01
1.800000000000000000e+01 4.023514556884765625e+01 -7.015092372894287109e+00 9.704449653625488281e+00 7.933203697204589844e+00 5.291296005249023438e+00 9.629184722900390625e+00
1.900000000000000000e+01 4.037078094482421875e+01 -6.869421005249023438e+00 7.186531543731689453e+00 6.614206790924072266e+00 4.140221595764160156e+00 7.585368156433105469e+00
2.000000000000000000e+01 4.050642013549804688e+01 -6.723750114440917969e+00 5.919399261474609375e+00 5.499918460845947266e+00 3.425795316696166992e+00 6.506937503814697266e+00
2.100000000000000000e+01 4.005312347412109375e+01 -7.125367164611816406e+00 1.158639526367187500e+01 1.889223670959472656e+01 9.143589973449707031e+00 1.471381187438964844e+01
2.200000000000000000e+01 4.015784454345703125e+01 -6.956098556518554688e+00 8.224182128906250000e+00 1.292655563354492188e+01 6.345221042633056641e+00 1.080222988128662109e+01
2.300000000000000000e+01 4.026256561279296875e+01 -6.786829948425292969e+00 6.510210990905761719e+00 1.040869808197021484e+01 5.075672626495361328e+00 8.999232292175292969e+00
2.400000000000000000e+01 4.036728286743164062e+01 -6.617561340332031250e+00 4.902183055877685547e+00 9.286651611328125000e+00 4.256650447845458984e+00 7.602006435394287109e+00
2.500000000000000000e+01 4.000074768066406250e+01 -7.099666118621826172e+00 8.824267387390136719e+00 2.500270080566406250e+01 1.014809036254882812e+01 1.361394309997558594e+01
2.600000000000000000e+01 4.007054901123046875e+01 -6.913263797760009766e+00 6.792775630950927734e+00 1.776803016662597656e+01 7.368241786956787109e+00 1.071166229248046875e+01
2.700000000000000000e+01 4.014035034179687500e+01 -6.726861476898193359e+00 4.910418033599853516e+00 1.451293087005615234e+01 5.827004909515380859e+00 9.018615722656250000e+00
2.800000000000000000e+01 4.021015167236328125e+01 -6.540459156036376953e+00 4.089737892150878906e+00 1.280890560150146484e+01 5.069592952728271484e+00 8.147335052490234375e+00
2.900000000000000000e+01 3.994437026977539062e+01 -7.084642410278320312e+00 7.336786746978759766e+00 2.996663475036621094e+01 1.119102668762207031e+01 1.101638889312744141e+01
3.000000000000000000e+01 3.997658920288085938e+01 -6.888224124908447266e+00 5.028703689575195312e+00 2.187271690368652344e+01 8.070425987243652344e+00 9.205299377441406250e+00
3.100000000000000000e+01 4.000880813598632812e+01 -6.691805839538574219e+00 3.992769002914428711e+00 1.827135086059570312e+01 6.679235458374023438e+00 8.121901512145996094e+00
3.200000000000000000e+01 4.004102325439453125e+01 -6.495387554168701172e+00 2.757251501083374023e+00 1.579874324798583984e+01 5.566798686981201172e+00 7.180625438690185547e+00
3.300000000000000000e+01 3.988615036010742188e+01 -7.080869197845458984e+00 6.401879787445068359e+00 3.297863769531250000e+01 1.181415557861328125e+01 7.399523735046386719e+00
3.400000000000000000e+01 3.987955474853515625e+01 -6.881935596466064453e+00 4.664107322692871094e+00 2.508294296264648438e+01 8.924115180969238281e+00 6.913631439208984375e+00
3.500000000000000000e+01 3.987295913696289062e+01 -6.683001995086669922e+00 3.003547906875610352e+00 2.087595939636230469e+01 7.163852214813232422e+00 6.144316196441650391e+00
3.600000000000000000e+01 3.986635971069335938e+01 -6.484067916870117188e+00 2.365104436874389648e+00 1.859351921081542969e+01 6.287587165832519531e+00 5.700168132781982422e+00
3.700000000000000000e+01 3.982830810546875000e+01 -7.088490962982177734e+00 7.560869693756103516e+00 3.445346069335937500e+01 1.260429859161376953e+01 3.799542188644409180e+00
3.800000000000000000e+01 3.978314971923828125e+01 -6.894638061523437500e+00 4.622932434082031250e+00 2.665071487426757812e+01 9.382094383239746094e+00 4.027510643005371094e+00
3.900000000000000000e+01 3.973799133300781250e+01 -6.700785636901855469e+00 3.440124750137329102e+00 2.269524002075195312e+01 7.840609550476074219e+00 3.876399755477905273e+00
4.000000000000000000e+01 3.969283294677734375e+01 -6.506932735443115234e+00 2.253290891647338867e+00 1.986123085021972656e+01 6.634356498718261719e+00 3.651148796081542969e+00
4.100000000000000000e+01 3.977305221557617188e+01 -7.107216358184814453e+00 9.392007827758789062e+00 3.399142837524414062e+01 1.301502990722656250e+01 5.423445701599121094e-01
4.200000000000000000e+01 3.969105529785156250e+01 -6.925847053527832031e+00 6.108528614044189453e+00 2.717997169494628906e+01 9.986550331115722656e+00 1.440482258796691895e+00
4.300000000000000000e+01 3.960905838012695312e+01 -6.744477748870849609e+00 4.266791820526123047e+00 2.301590919494628906e+01 8.184810638427734375e+00 1.484647512435913086e+00
4.400000000000000000e+01 3.952706146240234375e+01 -6.563108444213867188e+00 3.394261598587036133e+00 2.046149826049804688e+01 7.156727790832519531e+00 1.570721387863159180e+00
4.500000000000000000e+01 3.972249221801757812e+01 -7.136330127716064453e+00 1.233224773406982422e+01 3.270746994018554688e+01 1.351191520690917969e+01 -1.562841057777404785e+00
4.600000000000000000e+01 3.960678863525390625e+01 -6.974370002746582031e+00 8.083829879760742188e+00 2.627277374267578125e+01 1.030698108673095703e+01 -6.925992965698242188e-01
4.700000000000000000e+01 3.949108505249023438e+01 -6.812409877777099609e+00 6.126715183258056641e+00 2.257321929931640625e+01 8.609980583190917969e+00 -3.225384652614593506e-01
4.800000000000000000e+01 3.937538146972656250e+01 -6.650449752807617188e+00 4.813408374786376953e+00 1.999897766113281250e+01 7.443715572357177734e+00 -1.698915660381317139e-01
4.900000000000000000e+01 3.967855834960937500e+01 -7.174720764160156250e+00 1.527943038940429688e+01 3.058753776550292969e+01 1.376009082794189453e+01 -2.577195405960083008e+00
5.000000000000000000e+01 3.953356552124023438e+01 -7.038354396820068359e+00 1.071609115600585938e+01 2.486236000061035156e+01 1.067353534698486328e+01 -1.828180193901062012e+00
5.100000000000000000e+01 3.938857650756835938e+01 -6.901988506317138672e+00 8.235813140869140625e+00 2.122871017456054688e+01 8.839357376098632812e+00 -1.414973378181457520e+00
5.200000000000000000e+01 3.924358367919921875e+01 -6.765622138977050781e+00 6.765015125274658203e+00 1.884378242492675781e+01 7.682639122009277344e+00 -1.072859168052673340e+00
5.300000000000000000e+01 3.964292907714843750e+01 -7.220922470092773438e+00 1.814708900451660156e+01 2.865761375427246094e+01 1.404141044616699219e+01 -2.364094734191894531e+00
5.400000000000000000e+01 3.947418594360351562e+01 -7.115357398986816406e+00 1.314320087432861328e+01 2.296407699584960938e+01 1.083218288421630859e+01 -1.995920419692993164e+00
5.500000000000000000e+01 3.930544281005859375e+01 -7.009792327880859375e+00 1.055993270874023438e+01 1.975631904602050781e+01 9.094875335693359375e+00 -1.518793463706970215e+00
5.600000000000000000e+01 3.913670349121093750e+01 -6.904227256774902344e+00 8.723338127136230469e+00 1.725692939758300781e+01 7.794080257415771484e+00 -1.298927903175354004e+00
5.700000000000000000e+01 3.961696624755859375e+01 -7.273170471191406250e+00 2.019489479064941406e+01 2.683596801757812500e+01 1.410925865173339844e+01 -1.293671846389770508e+00
5.800000000000000000e+01 3.943091583251953125e+01 -7.202437877655029297e+00 1.524093532562255859e+01 2.150411605834960938e+01 1.102351570129394531e+01 -1.110469818115234375e+00
5.900000000000000000e+01 3.924486541748046875e+01 -7.131705284118652344e+00 1.233812046051025391e+01 1.820232391357421875e+01 9.162133216857910156e+00 -8.759781122207641602e-01
6.000000000000000000e+01 3.905881500244140625e+01 -7.060972213745117188e+00 1.053173255920410156e+01 1.614766502380371094e+01 8.003819465637207031e+00 -7.165552377700805664e-01
6.100000000000000000e+01 3.960166168212890625e+01 -7.329470634460449219e+00 2.143262863159179688e+01 2.590973281860351562e+01 1.420270919799804688e+01 4.536186158657073975e-01
6.200000000000000000e+01 3.940540695190429688e+01 -7.296270847320556641e+00 1.638581466674804688e+01 2.037256050109863281e+01 1.102751255035400391e+01 4.277965426445007324e-01
6.300000000000000000e+01 3.920915222167968750e+01 -7.263071537017822266e+00 1.343941783905029297e+01 1.742088699340820312e+01 9.258090972900390625e+00 4.579083919525146484e-01
6.400000000000000000e+01 3.901289749145507812e+01 -7.229871749877929688e+00 1.145274543762207031e+01 1.533359527587890625e+01 8.035902023315429688e+00 4.065957367420196533e-01
6.500000000000000000e+01 3.959759902954101562e+01 -7.387671947479248047e+00 2.151370048522949219e+01 2.558306503295898438e+01 1.412902927398681641e+01 2.493225574493408203e+00
6.600000000000000000e+01 3.939863204956054688e+01 -7.393273353576660156e+00 1.651422309875488281e+01 2.024177551269531250e+01 1.102680015563964844e+01 2.289257049560546875e+00
6.700000000000000000e+01 3.919966888427734375e+01 -7.398874759674072266e+00 1.350387287139892578e+01 1.720433044433593750e+01 9.212461471557617188e+00 2.071964263916015625e+00
6.800000000000000000e+01 3.900070571899414062e+01 -7.404476165771484375e+00 1.146679973602294922e+01 1.528248977661132812e+01 8.024786949157714844e+00 1.920350432395935059e+00
6.900000000000000000e+01 3.960493087768554688e+01 -7.445552349090576172e+00 2.052879524230957031e+01 2.624867820739746094e+01 1.403324127197265625e+01 4.464469432830810547e+00
7.000000000000000000e+01 3.941085433959960938e+01 -7.489740848541259766e+00 1.543929576873779297e+01 2.084579849243164062e+01 1.088552856445312500e+01 4.019966602325439453e+00
7.100000000000000000e+01 3.921677780151367188e+01 -7.533929347991943359e+00 1.258346462249755859e+01 1.785670661926269531e+01 9.132051467895507812e+00 3.572227478027343750e+00
7.200000000000000000e+01 3.902270126342773438e+01 -7.578117847442626953e+00 1.068122577667236328e+01 1.574206829071044922e+01 7.926988124847412109e+00 3.316295623779296875e+00
7.300000000000000000e+01 3.962337875366210938e+01 -7.500902175903320312e+00 1.839437294006347656e+01 2.756010437011718750e+01 1.378634262084960938e+01 5.993600368499755859e+00
7.400000000000000000e+01 3.944160079956054688e+01 -7.581990242004394531e+00 1.343121433258056641e+01 2.229865646362304688e+01 1.071896076202392578e+01 5.186575889587402344e+00
7.500000000000000000e+01 3.925982284545898438e+01 -7.663078784942626953e+00 1.075246715545654297e+01 1.899406242370605469e+01 8.923958778381347656e+00 4.565093517303466797e+00
7.600000000000000000e+01 3.907804870605468750e+01 -7.744166851043701172e+00 9.112169265747070312e+00 1.685284996032714844e+01 7.789505958557128906e+00 4.133756160736083984e+00
7.700000000000000000e+01 3.965224075317382812e+01 -7.551607131958007812e+00 1.543739128112792969e+01 2.965154075622558594e+01 1.352667999267578125e+01 6.668093204498291016e+00
7.800000000000000000e+01 3.948970031738281250e+01 -7.666498661041259766e+00 1.067508697509765625e+01 2.395742797851562500e+01 1.038975429534912109e+01 5.483111381530761719e+00
7.900000000000000000e+01 3.932716369628906250e+01 -7.781390190124511719e+00 8.421952247619628906e+00 2.060402870178222656e+01 8.707794189453125000e+00 4.714924812316894531e+00
8.000000000000000000e+01 3.916463088989257812e+01 -7.896281242370605469e+00 6.906431198120117188e+00 1.814726638793945312e+01 7.516108989715576172e+00 4.246225833892822266e+00
8.100000000000000000e+01 3.969041061401367188e+01 -7.595731258392333984e+00 1.182194423675537109e+01 3.174354171752929688e+01 1.306964588165283203e+01 6.242241382598876953e+00
8.200000000000000000e+01 3.955331802368164062e+01 -7.740038871765136719e+00 7.792734622955322266e+00 2.575360298156738281e+01 1.006390094757080078e+01 4.653807640075683594e+00
8.300000000000000000e+01 3.941622924804687500e+01 -7.884346008300781250e+00 5.817964076995849609e+00 2.192569541931152344e+01 8.323098182678222656e+00 3.977952718734741211e+00
8.400000000000000000e+01 3.927914047241210938e+01 -8.028653144836425781e+00 4.690108299255371094e+00 1.952561187744140625e+01 7.264715671539306641e+00 3.505759954452514648e+00
8.500000000000000000e+01 3.973643112182617188e+01 -7.631589412689208984e+00 8.330576896667480469e+00 3.372595977783203125e+01 1.261696052551269531e+01 4.415577888488769531e+00
8.600000000000000000e+01 3.963002777099609375e+01 -7.799802303314208984e+00 5.023136138916015625e+00 2.678127479553222656e+01 9.541323661804199219e+00 2.870686054229736328e+00
8.700000000000000000e+01 3.952362060546875000e+01 -7.968015193939208984e+00 3.598415136337280273e+00 2.290476036071777344e+01 7.950952529907226562e+00 2.291533231735229492e+00
8.800000000000000000e+01 3.941720962524414062e+01 -8.136228561401367188e+00 2.650263786315917969e+00 2.018255233764648438e+01 6.849844455718994141e+00 2.040743589401245117e+00
8.900000000000000000e+01 3.978855133056640625e+01 -7.657812595367431641e+00 5.221900939941406250e+00 3.457402801513671875e+01 1.193877887725830078e+01 1.443712115287780762e+00
9.000000000000000000e+01 3.971688842773437500e+01 -7.843507766723632812e+00 3.117427110671997070e+00 2.697345924377441406e+01 9.027265548706054688e+00 2.028616219758987427e-01
9.100000000000000000e+01 3.964522552490234375e+01 -8.029202461242675781e+00 1.871084570884704590e+00 2.277578163146972656e+01 7.394059658050537109e+00 8.724509179592132568e-02
9.200000000000000000e+01 3.957356262207031250e+01 -8.214898109436035156e+00 1.267435908317565918e+00 2.019138336181640625e+01 6.437645912170410156e+00 -6.979692727327346802e-02
9.300000000000000000e+01 3.984477233886718750e+01 -7.673399448394775391e+00 3.454877614974975586e+00 3.402164840698242188e+01 1.124295806884765625e+01 -2.434205770492553711e+00
9.400000000000000000e+01 3.981059265136718750e+01 -7.869485855102539062e+00 1.983126401901245117e+00 2.574319267272949219e+01 8.317895889282226562e+00 -2.733271837234497070e+00
9.500000000000000000e+01 3.977641296386718750e+01 -8.065571784973144531e+00 1.204435706138610840e+00 2.158303070068359375e+01 6.836240291595458984e+00 -2.478267431259155273e+00
9.600000000000000000e+01 3.974223327636718750e+01 -8.261658668518066406e+00 4.925844073295593262e-01 1.898782348632812500e+01 5.844122409820556641e+00 -2.165459871292114258e+00
9.700000000000000000e+01 3.990295410156250000e+01 -7.677754402160644531e+00 2.952077865600585938e+00 3.151239585876464844e+01 1.033934211730957031e+01 -6.460941791534423828e+00
9.800000000000000000e+01 3.990755844116210938e+01 -7.876744270324707031e+00 2.097926616668701172e+00 2.314640235900878906e+01 7.573298931121826172e+00 -5.534756660461425781e+00
9.900000000000000000e+01 3.991216659545898438e+01 -8.075734138488769531e+00 1.239401698112487793e+00 1.918824958801269531e+01 6.128294944763183594e+00 -4.735527992248535156e+00
1.000000000000000000e+02 3.991677474975585938e+01 -8.274724006652832031e+00 7.389661669731140137e-01 1.670428466796875000e+01 5.232975482940673828e+00 -4.149978637695312500e+00
1.010000000000000000e+02 3.996086883544921875e+01 -7.670711994171142578e+00 3.987601280212402344e+00 2.714389610290527344e+01 9.339448928833007812e+00 -9.814599037170410156e+00
1.020000000000000000e+02 4.000408935546875000e+01 -7.865006446838378906e+00 2.969595670700073242e+00 1.929822349548339844e+01 6.680346012115478516e+00 -7.647657871246337891e+00
1.030000000000000000e+02 4.004730606079101562e+01 -8.059301376342773438e+00 2.150768041610717773e+00 1.571926689147949219e+01 5.361010551452636719e+00 -6.297058582305908203e+00
1.040000000000000000e+02 4.009052276611328125e+01 -8.253595352172851562e+00 1.416836261749267578e+00 1.374597167968750000e+01 4.548842430114746094e+00 -5.424058914184570312e+00
1.050000000000000000e+02 4.001631164550781250e+01 -7.652540206909179688e+00 6.008942127227783203e+00 2.124617004394531250e+01 8.176533699035644531e+00 -1.183685970306396484e+01
1.060000000000000000e+02 4.009648895263671875e+01 -7.834720134735107422e+00 4.325726985931396484e+00 1.456489849090576172e+01 5.667187690734863281e+00 -8.541522979736328125e+00
1.070000000000000000e+02 4.017667007446289062e+01 -8.016900062561035156e+00 3.347598075866699219e+00 1.171706485748291016e+01 4.519398689270019531e+00 -6.895699501037597656e+00
1.080000000000000000e+02 4.025684738159179688e+01 -8.199080467224121094e+00 2.506369352340698242e+00 1.012895107269287109e+01 3.790596008300781250e+00 -5.671137809753417969e+00
1.090000000000000000e+02 4.006716156005859375e+01 -7.623933315277099609e+00 8.092947006225585938e+00 1.460141658782958984e+01 6.808309078216552734e+00 -1.188930225372314453e+01
1.100000000000000000e+02 4.018123626708984375e+01 -7.787042140960693359e+00 5.654279708862304688e+00 9.525059700012207031e+00 4.553802013397216797e+00 -8.126706123352050781e+00
1.110000000000000000e+02 4.029531478881835938e+01 -7.950150966644287109e+00 4.251978397369384766e+00 7.595786571502685547e+00 3.554329395294189453e+00 -6.192557811737060547e+00
1.120000000000000000e+02 4.040939331054687500e+01 -8.113260269165039062e+00 3.412714958190917969e+00 6.705806255340576172e+00 3.035556316375732422e+00 -5.107849121093750000e+00
1.130000000000000000e+02 4.011147689819335938e+01 -7.585983753204345703e+00 9.567008972167968750e+00 7.951890468597412109e+00 5.255669593811035156e+00 -9.970816612243652344e+00
1.140000000000000000e+02 4.025509262084960938e+01 -7.723792552947998047e+00 5.895448207855224609e+00 4.934482097625732422e+00 3.248979091644287109e+00 -6.228718757629394531e+00
1.150000000000000000e+02 4.039871597290039062e+01 -7.861602306365966797e+00 4.516865730285644531e+00 4.082219600677490234e+00 2.579725503921508789e+00 -4.628693103790283203e+00
1.160000000000000000e+02 4.054233551025390625e+01 -7.999411106109619141e+00 3.450184822082519531e+00 3.712716341018676758e+00 2.148870468139648438e+00 -3.572372198104858398e+00
1.170000000000000000e+02 4.014756393432617188e+01 -7.540140628814697266e+00 8.687993049621582031e+00 2.437439680099487305e+00 3.337629795074462891e+00 -6.294516086578369141e+00
1.180000000000000000e+02 4.031524276733398438e+01 -7.647387504577636719e+00 4.913859844207763672e+00 1.367765069007873535e+00 1.884487390518188477e+00 -3.436495304107666016e+00
1.190000000000000000e+02 4.048292160034179688e+01 -7.754634857177734375e+00 3.099277019500732422e+00 1.776771545410156250e+00 1.462814569473266602e+00 -2.349434614181518555e+00
1.200000000000000000e+02 4.065059661865234375e+01 -7.861881732940673828e+00 2.658370494842529297e+00 1.742138862609863281e+00 1.320152759552001953e+00 -2.073609828948974609e+00
1.210000000000000000e+02 4.017404556274414062e+01 -7.488154411315917969e+00 5.227251052856445312e+00 -1.880933165550231934e+00 1.003895282745361328e+00 -1.292562723159790039e+00
1.220000000000000000e+02 4.035938262939453125e+01 -7.560744285583496094e+00 8.359579443931579590e-01 2.344152629375457764e-01 3.211119472980499268e-01 -4.938997924327850342e-01
1.230000000000000000e+02 4.054471588134765625e+01 -7.633333683013916016e+00 1.120609879493713379e+00 7.162985205650329590e-01 5.510725378990173340e-01 -1.058699250221252441e+00
1.240000000000000000e+02 4.073004913330078125e+01 -7.705923557281494141e+00 7.173749208450317383e-01 2.357637286186218262e-01 2.859416007995605469e-01 -3.078190982341766357e-01
1.250000000000000000e+02 4.018991470336914062e+01 -7.432010650634765625e+00 -6.049243450164794922e+00 -2.239991903305053711e+00 -2.486770629882812500e+00 2.644525766372680664e+00
1.260000000000000000e+02 4.038582611083984375e+01 -7.467170715332031250e+00 -2.176251411437988281e+00 6.953475475311279297e-01 -4.442711472511291504e-01 -1.727607101202011108e-01
1.270000000000000000e+02 4.058174133300781250e+01 -7.502331256866455078e+00 -2.367005825042724609e+00 -2.754689455032348633e-01 -7.927424311637878418e-01 3.961782455444335938e-01
1.280000000000000000e+02 4.077765274047851562e+01 -7.537491798400878906e+00 -2.014872789382934570e+00 6.989838927984237671e-02 -5.834922790527343750e-01 2.726595103740692139e-01
1.290000000000000000e+02 4.138917160034179688e+01 -7.349406719207763672e+00 -6.288614869117736816e-01 5.778259411454200745e-02 -1.713236719369888306e-01 -1.145967692136764526e-01
1.300000000000000000e+02 3.923945236206054688e+01 -6.483706474304199219e+00 4.033219814300537109e+00 1.795059394836425781e+01 6.595144271850585938e+00 2.433274686336517334e-02
1.310000000000000000e+02 3.909430313110351562e+01 -6.648448944091796875e+00 5.902686119079589844e+00 1.696977615356445312e+01 6.861738681793212891e+00 -9.774153828620910645e-01
1.320000000000000000e+02 4.165341186523437500e+01 -8.775520324707031250e+00 -3.980309367179870605e-01 -1.155458688735961914e-01 -1.540730446577072144e-01 -9.446162730455398560e-02
1.330000000000000000e+02 4.175351333618164062e+01 -7.816035270690917969e+00 -2.854138612747192383e-02 -3.937095105648040771e-01 -1.266752630472183228e-01 2.135376036167144775e-01
1.340000000000000000e+02 4.181922149658203125e+01 -8.928620338439941406e+00 -1.480031251907348633e+00 -2.229668855667114258e+00 -1.112910032272338867e+00 1.115969896316528320e+00
1.350000000000000000e+02 3.965118026733398438e+01 -6.304234981536865234e+00 1.699031114578247070e+00 1.805579376220703125e+01 5.926447391510009766e+00 3.599012613296508789e+00
1.360000000000000000e+02 4.047742462158203125e+01 -6.254834651947021484e+00 3.114269733428955078e+00 9.172274589538574219e+00 3.685963392257690430e+00 6.607817649841308594e+00
1.370000000000000000e+02 4.068123245239257812e+01 -6.564597129821777344e+00 4.349534511566162109e+00 5.049744606018066406e+00 2.819783687591552734e+00 5.581259250640869141e+00
1.380000000000000000e+02 4.084911727905273438e+01 -6.093682289123535156e+00 2.476759195327758789e+00 5.969768524169921875e+00 2.533958196640014648e+00 5.144563198089599609e+00
1.390000000000000000e+02 4.028294372558593750e+01 -6.031188011169433594e+00 1.833781480789184570e+00 1.127767467498779297e+01 3.933436870574951172e+00 6.358080863952636719e+00
1.400000000000000000e+02 3.936168289184570312e+01 -6.060688495635986328e+00 1.326508283615112305e+00 1.604565811157226562e+01 5.211649894714355469e+00 2.037359714508056641e+00
1.410000000000000000e+02 3.888193511962890625e+01 -7.002239704132080078e+00 9.257724761962890625e+00 1.455417251586914062e+01 7.143568992614746094e+00 -5.922123193740844727e-01
1.420000000000000000e+02 3.855903625488281250e+01 -7.769474506378173828e+00 7.627701282501220703e+00 1.280884456634521484e+01 6.130963802337646484e+00 2.959764003753662109e+00
1.430000000000000000e+02 3.879077529907226562e+01 -7.399341106414794922e+00 1.000820827484130859e+01 1.361544418334960938e+01 7.087095737457275391e+00 1.742146611213684082e+00
1.440000000000000000e+02 3.953730010986328125e+01 -8.441839218139648438e+00 5.043711066246032715e-01 1.804308891296386719e+01 5.564237594604492188e+00 -3.031114339828491211e-01
1.450000000000000000e+02 3.991904830932617188e+01 -8.494003295898437500e+00 2.384803742170333862e-01 1.516098880767822266e+01 4.619840621948242188e+00 -3.576511383056640625e+00
1.460000000000000000e+02 4.091196441650390625e+01 -8.823063850402832031e+00 6.589825153350830078e-01 4.997498035430908203e+00 1.696944117546081543e+00 -2.814761161804199219e+00
1.470000000000000000e+02 4.054834747314453125e+01 -8.298303604125976562e+00 2.435607433319091797e+00 5.652998447418212891e+00 2.426581621170043945e+00 -4.013969898223876953e+00
1.480000000000000000e+02 4.151131439208984375e+01 -8.372154235839843750e+00 3.015959262847900391e-01 2.436990886926651001e-01 1.635885089635848999e-01 -1.584288626909255981e-01
1.490000000000000000e+02 4.179861068725585938e+01 -8.750112533569335938e+00 5.537645816802978516e-01 -8.275256156921386719e-01 -8.212830871343612671e-02 -9.427851438522338867e-02
1.500000000000000000e+02 4.176406860351562500e+01 -7.625380039215087891e+00 -9.437388926744461060e-02 -1.108467355370521545e-01 -6.156618893146514893e-02 1.020169928669929504e-01
1.510000000000000000e+02 4.096976089477539062e+01 -7.566127300262451172e+00 -1.688570737838745117e+00 -3.023874759674072266e-02 -5.156428813934326172e-01 3.474682271480560303e-01
1.520000000000000000e+02 3.880997467041015625e+01 -7.602022647857666016e+00 9.343086242675781250e+00 1.415236282348632812e+01 7.048634529113769531e+00 2.934709548950195312e+00
1.530000000000000000e+02 3.898646545410156250e+01 -7.999862194061279297e+00 6.014368057250976562e+00 1.642771530151367188e+01 6.732625007629394531e+00 3.930082798004150391e+00
1.540000000000000000e+02 4.012791824340820312e+01 -8.481656074523925781e+00 9.703254103660583496e-01 1.230148220062255859e+01 3.981542348861694336e+00 -4.658014297485351562e+00
1.550000000000000000e+02 4.083279037475585938e+01 -7.952044010162353516e+00 1.876009225845336914e+00 1.237657070159912109e+00 9.340999126434326172e-01 -1.194923877716064453e+00
1.560000000000000000e+02 4.119291305541992188e+01 -7.084488391876220703e+00 1.159698009490966797e+00 4.200497865676879883e-01 4.739243388175964355e-01 4.185725152492523193e-01
1.570000000000000000e+02 4.114415740966796875e+01 -6.835946083068847656e+00 2.511007070541381836e+00 1.136921286582946777e+00 1.094378471374511719e+00 1.570559024810791016e+00
1.580000000000000000e+02 3.986157608032226562e+01 -6.262999057769775391e+00 1.503780007362365723e+00 1.646932029724121094e+01 5.391930103302001953e+00 5.250004768371582031e+00
1.590000000000000000e+02 3.899026489257812500e+01 -6.826990127563476562e+00 7.912227153778076172e+00 1.593635559082031250e+01 7.154574871063232422e+00 -1.157703161239624023e+00
1.600000000000000000e+02 4.097048568725585938e+01 -7.124652862548828125e+00 1.799726605415344238e+00 3.192041516304016113e-01 6.356792449951171875e-01 7.714938521385192871e-01
1.610000000000000000e+02 4.184485244750976562e+01 -7.015956878662109375e+00 1.778632402420043945e-02 -5.756132006645202637e-01 -1.673480719327926636e-01 -2.209564596414566040e-01
1.620000000000000000e+02 4.178273391723632812e+01 -7.393887042999267578e+00 -9.573058038949966431e-02 -7.108765840530395508e-02 -5.004547163844108582e-02 -8.249371498823165894e-02
1.630000000000000000e+02 4.149237442016601562e+01 -6.094683170318603516e+00 1.736631989479064941e+00 2.919569969177246094e+00 1.396860599517822266e+00 2.935916185379028320e+00
1.640000000000000000e+02 4.185142898559570312e+01 -6.265295982360839844e+00 5.379033684730529785e-01 1.348536133766174316e+00 5.659318566322326660e-01 1.266134858131408691e+00
1.650000000000000000e+02 4.208013153076171875e+01 -6.116780281066894531e+00 -1.103849336504936218e-01 1.223458528518676758e+00 3.339220881462097168e-01 5.928531289100646973e-01
1.660000000000000000e+02 4.174977111816406250e+01 -8.002683639526367188e+00 5.806513875722885132e-02 -7.298081517219543457e-01 -2.015229016542434692e-01 1.913304030895233154e-01
1.670000000000000000e+02 4.159477615356445312e+01 -8.640835762023925781e+00 4.442074894905090332e-01 2.097549885511398315e-01 1.961887478828430176e-01 -4.912185668945312500e-01
1.680000000000000000e+02 4.176540374755859375e+01 -8.570090293884277344e+00 -3.629072010517120361e-01 -9.289526939392089844e-01 -3.875579535961151123e-01 -7.522675674408674240e-03
1.690000000000000000e+02 4.152298736572265625e+01 -8.005815505981445312e+00 1.784411072731018066e-01 -1.956603676080703735e-01 -5.165779497474431992e-03 4.073676764965057373e-01
1.700000000000000000e+02 4.144574356079101562e+01 -8.554944992065429688e+00 1.839769780635833740e-01 1.195243358612060547e+00 4.137661159038543701e-01 -7.331724166870117188e-01
1.710000000000000000e+02 4.071799087524414062e+01 -8.140908241271972656e+00 2.680194139480590820e+00 3.186968564987182617e+00 1.760148763656616211e+00 -2.928181171417236328e+00
1.720000000000000000e+02 4.150884628295898438e+01 -6.889013767242431641e+00 9.417485594749450684e-01 5.565896630287170410e-01 4.495014548301696777e-01 4.040731191635131836e-01
1.730000000000000000e+02 4.203381729125976562e+01 -6.293043136596679688e+00 4.129707813262939453e-01 6.657181978225708008e-01 3.236066997051239014e-01 5.387319326400756836e-01
1.740000000000000000e+02 4.188310623168945312e+01 -6.097773075103759766e+00 7.976586818695068359e-01 2.174923658370971680e+00 8.917746543884277344e-01 1.807960152626037598e+00
1.750000000000000000e+02 4.031495666503906250e+01 -8.790769577026367188e+00 6.736404299736022949e-01 9.977800369262695312e+00 3.195432186126708984e+00 -4.197832107543945312e+00
1.760000000000000000e+02 4.034067153930664062e+01 -8.414061546325683594e+00 1.650686383247375488e+00 9.384377479553222656e+00 3.310519218444824219e+00 -4.894953727722167969e+00
1.770000000000000000e+02 3.972143936157226562e+01 -8.479576110839843750e+00 1.722103953361511230e-01 1.699556541442871094e+01 5.150332927703857422e+00 -2.150753736495971680e+00
1.780000000000000000e+02 4.025556564331054688e+01 -6.302910804748535156e+00 2.875012636184692383e+00 1.163444137573242188e+01 4.352836132049560547e+00 7.182569503784179688e+00
1.790000000000000000e+02 3.892039871215820312e+01 -8.336885452270507812e+00 3.359474897384643555e+00 1.563713359832763672e+01 5.698982715606689453e+00 3.016262292861938477e+00
1.800000000000000000e+02 3.888330841064453125e+01 -7.803316593170166016e+00 8.106118202209472656e+00 1.502509975433349609e+01 6.939365386962890625e+00 3.778698682785034180e+00
1.810000000000000000e+02 3.922277832031250000e+01 -6.155017852783203125e+00 2.108098030090332031e+00 1.645153617858886719e+01 5.567890167236328125e+00 9.190869927406311035e-01
1.820000000000000000e+02 4.091219711303710938e+01 -6.918088436126708984e+00 3.350325822830200195e+00 1.130380868911743164e+00 1.344211935997009277e+00 2.091102600097656250e+00
1.830000000000000000e+02 3.876646423339843750e+01 -6.918632030487060547e+00 8.440796852111816406e+00 1.382795238494873047e+01 6.680624485015869141e+00 -5.327822566032409668e-01
1.840000000000000000e+02 4.099040222167968750e+01 -7.337915897369384766e+00 -8.511135578155517578e-01 6.840854138135910034e-02 -2.348114997148513794e-01 6.097464263439178467e-02
1.850000000000000000e+02 4.116172790527343750e+01 -7.586575031280517578e+00 -1.279696106910705566e+00 -3.893084079027175903e-02 -3.955880701541900635e-01 3.366422355175018311e-01
1.860000000000000000e+02 3.925727462768554688e+01 -8.300451278686523438e+00 2.180171251296997070e+00 1.818115234375000000e+01 6.108397483825683594e+00 1.997001171112060547e+00
1.870000000000000000e+02 3.951967239379882812e+01 -8.699661254882812500e+00 1.837771385908126831e-03 1.590031814575195312e+01 4.770646572113037109e+00 -9.686640501022338867e-01
1.880000000000000000e+02 4.174600982666015625e+01 -8.380034446716308594e+00 2.076093554496765137e-01 -9.951731562614440918e-01 -2.362691462039947510e-01 -5.368643999099731445e-02
1.890000000000000000e+02 4.081850051879882812e+01 -6.718122005462646484e+00 4.415793418884277344e+00 2.890818119049072266e+00 2.191983461380004883e+00 4.041577339172363281e+00
1.900000000000000000e+02 3.889849090576171875e+01 -6.414117336273193359e+00 4.598958015441894531e+00 1.538147735595703125e+01 5.994130611419677734e+00 -6.660548448562622070e-01
1.910000000000000000e+02 4.124370956420898438e+01 -6.334674358367919922e+00 2.372543334960937500e+00 3.011237859725952148e+00 1.615134358406066895e+00 3.271770238876342773e+00
1.920000000000000000e+02 4.049589157104492188e+01 -8.817022323608398438e+00 8.362841010093688965e-01 7.901957511901855469e+00 2.621472597122192383e+00 -3.812439203262329102e+00
1.930000000000000000e+02 4.161441802978515625e+01 -7.163272380828857422e+00 -3.531217575073242188e-02 2.584130503237247467e-02 -2.841261215507984161e-03 -2.991855442523956299e-01
1.940000000000000000e+02 4.156130981445312500e+01 -7.615685462951660156e+00 -3.939493298530578613e-01 -7.859519124031066895e-02 -1.417633444070816040e-01 2.635526061058044434e-01
1.950000000000000000e+02 4.135982131958007812e+01 -7.603080749511718750e+00 -8.354767560958862305e-01 -2.932150475680828094e-02 -2.594394981861114502e-01 3.249249756336212158e-01
1.960000000000000000e+02 4.153622817993164062e+01 -7.815897941589355469e+00 -3.099838271737098694e-02 -1.691789925098419189e-01 -6.005321443080902100e-02 4.612613022327423096e-01
1.970000000000000000e+02 3.988125991821289062e+01 -6.011946201324462891e+00 1.141912102699279785e+00 1.488319301605224609e+01 4.807531833648681641e+00 5.069554328918457031e+00
1.980000000000000000e+02 3.952760314941406250e+01 -6.004390716552734375e+00 1.154184699058532715e+00 1.591838836669921875e+01 5.121771812438964844e+00 2.789545536041259766e+00
1.990000000000000000e+02 3.865608215332031250e+01 -6.642909526824951172e+00 6.218727111816406250e+00 1.315859508514404297e+01 5.813196659088134766e+00 -7.599757313728332520e-01
2.000000000000000000e+02 3.859788513183593750e+01 -6.802714347839355469e+00 7.175640106201171875e+00 1.292995738983154297e+01 6.031679153442382812e+00 -5.895833969116210938e-01
2.010000000000000000e+02 3.877389907836914062e+01 -8.212595939636230469e+00 4.569958209991455078e+00 1.475079631805419922e+01 5.796226501464843750e+00 3.502059936523437500e+00
2.020000000000000000e+02 3.920013809204101562e+01 -8.588820457458496094e+00 1.221502661705017090e+00 1.639687347412109375e+01 5.285512447357177734e+00 1.379044771194458008e+00
2.030000000000000000e+02 3.907565307617187500e+01 -6.292926788330078125e+00 3.248506784439086914e+00 1.600855636596679688e+01 5.777119159698486328e+00 4.564915224909782410e-02
2.040000000000000000e+02 3.858897018432617188e+01 -7.928990364074707031e+00 6.456144809722900391e+00 1.333413505554199219e+01 5.937084197998046875e+00 3.277574777603149414e+00
2.050000000000000000e+02 3.855591964721679688e+01 -7.177771091461181641e+00 8.684795379638671875e+00 1.227220821380615234e+01 6.287100791931152344e+00 5.924159884452819824e-01
2.060000000000000000e+02 3.880685043334960938e+01 -7.195622444152832031e+00 9.969801902770996094e+00 1.386167907714843750e+01 7.149444580078125000e+00 4.909527599811553955e-01
2.070000000000000000e+02 3.853979873657226562e+01 -7.382144451141357422e+00 8.795732498168945312e+00 1.220539379119873047e+01 6.300338268280029297e+00 1.529652595520019531e+00
2.080000000000000000e+02 3.881014633178710938e+01 -8.047549247741699219e+00 5.897064208984375000e+00 1.490018177032470703e+01 6.239173889160156250e+00 3.681925058364868164e+00
2.090000000000000000e+02 3.857215881347656250e+01 -6.980839729309082031e+00 8.174658775329589844e+00 1.266417312622070312e+01 6.251649379730224609e+00 -1.398491263389587402e-01
2.100000000000000000e+02 3.875065612792968750e+01 -6.515338420867919922e+00 5.357563495635986328e+00 1.406736946105957031e+01 5.827479839324951172e+00 -8.128715753555297852e-01
2.110000000000000000e+02 3.906517028808593750e+01 -8.471710205078125000e+00 2.117533922195434570e+00 1.597292995452880859e+01 5.427139282226562500e+00 2.262518644332885742e+00
2.120000000000000000e+02 3.866366577148437500e+01 -8.085613250732421875e+00 5.811278343200683594e+00 1.378496551513671875e+01 5.878873348236083984e+00 3.540295124053955078e+00
2.130000000000000000e+02 3.893080520629882812e+01 -6.610269546508789062e+00 5.778765201568603516e+00 1.561657905578613281e+01 6.418602943420410156e+00 -9.511278867721557617e-01
2.140000000000000000e+02 3.934723281860351562e+01 -8.662955284118652344e+00 3.050367534160614014e-01 1.631771850585937500e+01 4.986826896667480469e+00 9.467825293540954590e-02
2.150000000000000000e+02 3.969328308105468750e+01 -5.994470596313476562e+00 8.609417676925659180e-01 1.559092521667480469e+01 4.935560226440429688e+00 4.075170516967773438e+00
2.160000000000000000e+02 3.970604324340820312e+01 -8.730928421020507812e+00 -2.585548460483551025e-01 1.526153945922851562e+01 4.500895500183105469e+00 -2.022801637649536133e+00
2.170000000000000000e+02 3.990516662597656250e+01 -8.748189926147460938e+00 -1.037461534142494202e-01 1.386340236663818359e+01 4.127896785736083984e+00 -3.187655210494995117e+00
2.180000000000000000e+02 4.130606460571289062e+01 -8.897031784057617188e+00 2.881563603878021240e-01 3.102591037750244141e+00 1.017224192619323730e+00 -1.868100047111511230e+00
2.190000000000000000e+02 4.047506332397460938e+01 -6.031471252441406250e+00 2.163123130798339844e+00 9.988637924194335938e+00 3.645528316497802734e+00 6.330624580383300781e+00
2.200000000000000000e+02 4.128312301635742188e+01 -6.101531505584716797e+00 2.172164440155029297e+00 3.530360698699951172e+00 1.710757493972778320e+00 3.572054386138916016e+00
2.210000000000000000e+02 4.011726379394531250e+01 -8.754546165466308594e+00 2.299421876668930054e-01 1.181300163269042969e+01 3.612883090972900391e+00 -3.822097539901733398e+00
2.220000000000000000e+02 4.044316864013671875e+01 -8.623804092407226562e+00 1.317637681961059570e+00 8.440473556518554688e+00 2.927433252334594727e+00 -4.236120700836181641e+00
2.230000000000000000e+02 4.065366363525390625e+01 -6.059216022491455078e+00 2.706906318664550781e+00 7.536451339721679688e+00 3.073007345199584961e+00 6.167129039764404297e+00
2.240000000000000000e+02 4.102515029907226562e+01 -6.359403610229492188e+00 3.058414936065673828e+00 3.784250259399414062e+00 2.052799463272094727e+00 4.091937065124511719e+00
2.250000000000000000e+02 4.169044876098632812e+01 -6.085637092590332031e+00 1.296328902244567871e+00 2.237353086471557617e+00 1.060104608535766602e+00 2.329326629638671875e+00
2.260000000000000000e+02 4.008745193481445312e+01 -6.018527984619140625e+00 1.337038040161132812e+00 1.317389011383056641e+01 4.353278636932373047e+00 5.986315727233886719e+00
2.270000000000000000e+02 4.130192565917968750e+01 -8.195355415344238281e+00 7.783826589584350586e-01 7.517725229263305664e-01 4.590465426445007324e-01 -2.515751719474792480e-01
2.280000000000000000e+02 4.091484069824218750e+01 -7.762469768524169922e+00 5.565316081047058105e-01 2.938891053199768066e-01 2.551262378692626953e-01 -1.350532174110412598e-01
2.290000000000000000e+02 4.192612838745117188e+01 -6.653116226196289062e+00 2.086023092269897461e-01 -4.041604697704315186e-01 -5.866744741797447205e-02 1.202893778681755066e-01
2.300000000000000000e+02 4.188281631469726562e+01 -6.834379196166992188e+00 5.253564193844795227e-02 -6.436345577239990234e-01 -1.773296743631362915e-01 -8.521515130996704102e-02
2.310000000000000000e+02 4.166664886474609375e+01 -6.979203224182128906e+00 1.599630564451217651e-01 3.235672786831855774e-02 5.769593641161918640e-02 -1.773483902215957642e-01
2.320000000000000000e+02 4.119039535522460938e+01 -7.336380004882812500e+00 -8.042673468589782715e-01 4.773437231779098511e-02 -2.269598841667175293e-01 -4.013664647936820984e-02
2.330000000000000000e+02 4.168431472778320312e+01 -6.243162155151367188e+00 1.172540664672851562e+00 2.066438674926757812e+00 9.716938138008117676e-01 2.059057474136352539e+00
2.340000000000000000e+02 4.105265045166015625e+01 -6.603672027587890625e+00 3.202055692672729492e+00 2.603961944580078125e+00 1.741805315017700195e+00 3.182268857955932617e+00
2.350000000000000000e+02 4.099913787841796875e+01 -8.619818687438964844e+00 1.463454246520996094e+00 3.774623632431030273e+00 1.571423411369323730e+00 -2.652839660644531250e+00
2.360000000000000000e+02 4.158668899536132812e+01 -7.372224807739257812e+00 -3.577332794666290283e-01 1.749536895658820868e-04 -1.072674989700317383e-01 -1.589735299348831177e-01
2.370000000000000000e+02 4.128639984130859375e+01 -8.017343521118164062e+00 6.747334003448486328e-01 4.346828758716583252e-01 3.328248858451843262e-01 2.897682040929794312e-02
2.380000000000000000e+02 4.137127685546875000e+01 -6.718168258666992188e+00 1.704740762710571289e+00 1.247930288314819336e+00 8.858013153076171875e-01 1.357163429260253906e+00
2.390000000000000000e+02 4.094931030273437500e+01 -8.229708671569824219e+00 1.776568055152893066e+00 2.376468420028686523e+00 1.245910882949829102e+00 -1.709326148033142090e+00
2.400000000000000000e+02 4.141218948364257812e+01 -7.104331493377685547e+00 4.948723018169403076e-01 3.546844720840454102e-01 2.548670470714569092e-01 6.426229141652584076e-03
2.410000000000000000e+02 4.198052978515625000e+01 -6.471999645233154297e+00 1.071678400039672852e-01 6.676466017961502075e-02 5.217975005507469177e-02 3.218857645988464355e-01
2.420000000000000000e+02 4.167463302612304688e+01 -8.928973197937011719e+00 -8.547940850257873535e-01 1.498109340667724609e+00 1.929945796728134155e-01 -4.323337972164154053e-01
2.430000000000000000e+02 4.149211120605468750e+01 -8.919534683227539062e+00 2.444354593753814697e-01 1.980286717414855957e+00 6.674166321754455566e-01 -1.539999127388000488e+00
2.440000000000000000e+02 4.179856872558593750e+01 -6.436713695526123047e+00 7.837446331977844238e-01 9.347170591354370117e-01 5.155385136604309082e-01 1.116067647933959961e+00
2.450000000000000000e+02 4.140184020996093750e+01 -6.403431892395019531e+00 1.838305592536926270e+00 2.165207147598266602e+00 1.201053857803344727e+00 2.380888700485229492e+00
2.460000000000000000e+02 4.172161102294921875e+01 -6.622893810272216797e+00 5.617879629135131836e-01 6.556468605995178223e-01 3.652304410934448242e-01 8.079596757888793945e-01
2.470000000000000000e+02 4.168913269042968750e+01 -6.809570789337158203e+00 7.200751304626464844e-01 3.163814842700958252e-01 3.109369874000549316e-01 4.208076298236846924e-01
2.480000000000000000e+02 4.180794143676757812e+01 -7.201889514923095703e+00 -7.694853842258453369e-02 -2.906610965728759766e-01 -1.102828904986381531e-01 -2.132009118795394897e-01
2.490000000000000000e+02 4.106937789916992188e+01 -6.095100879669189453e+00 2.406319141387939453e+00 4.864972591400146484e+00 2.181387662887573242e+00 4.491377830505371094e+00
2.500000000000000000e+02 4.079405593872070312e+01 -6.360018253326416016e+00 3.630779027938842773e+00 5.470995426177978516e+00 2.730532407760620117e+00 5.241419315338134766e+00
2.510000000000000000e+02 4.006587219238281250e+01 -6.272177219390869141e+00 2.169221639633178711e+00 1.449729061126708984e+01 4.999953746795654297e+00 6.609849929809570312e+00
2.520000000000000000e+02 3.958624649047851562e+01 -6.137700557708740234e+00 1.269300580024719238e+00 1.679446029663085938e+01 5.419128417968750000e+00 3.172033548355102539e+00
2.530000000000000000e+02 3.939265060424804688e+01 -6.205565452575683594e+00 1.956308603286743164e+00 1.725978660583496094e+01 5.764828205108642578e+00 1.756676912307739258e+00
2.540000000000000000e+02 3.943857955932617188e+01 -6.378082275390625000e+00 2.429576635360717773e+00 1.839228439331054688e+01 6.246558189392089844e+00 1.524064302444458008e+00
2.550000000000000000e+02 3.887367248535156250e+01 -6.784984588623046875e+00 7.627637386322021484e+00 1.518077278137207031e+01 6.842523097991943359e+00 -1.059260249137878418e+00
2.560000000000000000e+02 3.855276107788085938e+01 -7.586069583892822266e+00 8.292544364929199219e+00 1.241312885284423828e+01 6.211701869964599609e+00 2.405160903930664062e+00
2.570000000000000000e+02 3.910912322998046875e+01 -8.170722007751464844e+00 4.037299633026123047e+00 1.734271812438964844e+01 6.414005279541015625e+00 3.281462430953979492e+00
2.580000000000000000e+02 4.069822692871093750e+01 -8.800823211669921875e+00 9.829518198966979980e-01 6.305303096771240234e+00 2.186476469039916992e+00 -3.458117723464965820e+00
2.590000000000000000e+02 4.111417007446289062e+01 -8.868241310119628906e+00 7.786136269569396973e-01 3.670855283737182617e+00 1.334840655326843262e+00 -2.375838994979858398e+00
2.600000000000000000e+02 4.118033599853515625e+01 -8.682518959045410156e+00 6.673924922943115234e-01 2.940500259399414062e+00 1.082367777824401855e+00 -1.922375917434692383e+00
2.610000000000000000e+02 4.135847091674804688e+01 -8.727703094482421875e+00 5.068623423576354980e-01 2.004997014999389648e+00 7.535578012466430664e-01 -1.340197324752807617e+00
2.620000000000000000e+02 4.131917953491210938e+01 -7.811675071716308594e+00 3.235562518239021301e-02 4.266310855746269226e-02 2.250562049448490143e-02 4.477447867393493652e-01
2.630000000000000000e+02 4.104737091064453125e+01 -8.008212089538574219e+00 1.341843366622924805e+00 8.449693918228149414e-01 6.560438275337219238e-01 -5.722874402999877930e-01
2.640000000000000000e+02 4.110902023315429688e+01 -7.795645713806152344e+00 2.028934061527252197e-01 1.557216644287109375e-01 1.075845211744308472e-01 2.133109867572784424e-01
2.650000000000000000e+02 4.174950408935546875e+01 -8.187900543212890625e+00 2.091487310826778412e-02 -9.612448811531066895e-01 -2.820990085601806641e-01 1.225898489356040955e-01
2.660000000000000000e+02 4.055088424682617188e+01 -6.437664985656738281e+00 4.149671554565429688e+00 7.516331195831298828e+00 3.499800920486450195e+00 6.781000137329101562e+00
2.670000000000000000e+02 3.935390472412109375e+01 -8.461585044860839844e+00 1.174643874168395996e+00 1.748766517639160156e+01 5.598692893981933594e+00 7.980272769927978516e-01
2.680000000000000000e+02 3.872331619262695312e+01 -7.866871356964111328e+00 7.367505550384521484e+00 1.405328750610351562e+01 6.426238059997558594e+00 3.580841302871704102e+00
2.690000000000000000e+02 3.874962997436523438e+01 -6.786142349243164062e+00 7.262123584747314453e+00 1.380537891387939453e+01 6.320250988006591797e+00 -7.707365751266479492e-01
2.700000000000000000e+02 3.877663421630859375e+01 -6.640773773193359375e+00 6.216512203216552734e+00 1.423770618438720703e+01 6.136265277862548828e+00 -8.166266679763793945e-01
2.710000000000000000e+02 4.164068222045898438e+01 -6.383359432220458984e+00 9.919696450233459473e-01 1.566189885139465332e+00 7.674478292465209961e-01 1.655024766921997070e+00
2.720000000000000000e+02 4.151381683349609375e+01 -8.771812438964843750e+00 -4.381726384162902832e-01 1.919502854347229004e+00 4.443990588188171387e-01 -8.353383541107177734e-01
2.730000000000000000e+02 4.152193450927734375e+01 -8.186800003051757812e+00 4.048140943050384521e-01 -7.872507721185684204e-02 9.782670438289642334e-02 7.493316382169723511e-02
2.740000000000000000e+02 4.114782714843750000e+01 -8.293303489685058594e+00 1.181949615478515625e+00 1.514279007911682129e+00 8.088685870170593262e-01 -1.113044977188110352e+00
2.750000000000000000e+02 4.130956649780273438e+01 -8.348260879516601562e+00 5.674117207527160645e-01 1.354491472244262695e+00 5.765709280967712402e-01 -6.694687604904174805e-01
2.760000000000000000e+02 4.066867828369140625e+01 -8.532559394836425781e+00 1.671927571296691895e+00 5.795015811920166016e+00 2.240082979202270508e+00 -3.620009899139404297e+00
2.770000000000000000e+02 4.152921676635742188e+01 -6.275964260101318359e+00 1.621406793594360352e+00 2.160096883773803711e+00 1.134451150894165039e+00 2.448718070983886719e+00
2.780000000000000000e+02 4.153751373291015625e+01 -6.543096065521240234e+00 1.247913360595703125e+00 1.333091616630554199e+00 7.743014693260192871e-01 1.497402310371398926e+00
2.790000000000000000e+02 4.126104736328125000e+01 -6.528672218322753906e+00 2.444148540496826172e+00 2.139476776123046875e+00 1.375087618827819824e+00 2.539900541305541992e+00
2.800000000000000000e+02 4.089690780639648438e+01 -8.461636543273925781e+00 1.711185216903686523e+00 3.557909250259399414e+00 1.580728292465209961e+00 -2.566555261611938477e+00
2.810000000000000000e+02 4.125459289550781250e+01 -8.510080337524414062e+00 9.045973420143127441e-01 1.721593499183654785e+00 7.878572344779968262e-01 -1.165008068084716797e+00
2.820000000000000000e+02 4.108299255371093750e+01 -8.462773323059082031e+00 1.155285835266113281e+00 2.394190073013305664e+00 1.064842820167541504e+00 -1.614263057708740234e+00
2.830000000000000000e+02 4.170489501953125000e+01 -5.370620250701904297e+00 8.367783427238464355e-01 4.830295085906982422e+00 1.700122117996215820e+00 2.946406602859497070e+00
2.840000000000000000e+02 4.189951324462890625e+01 -1.013249516487121582e+00 -1.455149292945861816e+00 7.960600852966308594e+00 1.951635360717773438e+00 7.828474044799804688e-01
2.850000000000000000e+02 3.159461975097656250e+01 -1.583072900772094727e+00 -6.051214218139648438e+00 -1.378380775451660156e+00 -2.228878498077392578e+00 -2.411897659301757812e+00
2.860000000000000000e+02 3.000526809692382812e+01 -3.086538553237915039e+00 -2.735722303390502930e+00 -1.148690581321716309e+00 -1.165323853492736816e+00 -1.661534905433654785e+00
2.870000000000000000e+02 3.032567024230957031e+01 -1.380277156829833984e+01 1.153706431388854980e+00 -8.434466272592544556e-02 3.208085298538208008e-01 8.658302426338195801e-01
2.880000000000000000e+02 3.060235595703125000e+01 -1.685464859008789062e+01 -1.177054524421691895e+00 -2.621098458766937256e-01 -4.317493140697479248e-01 7.745892405509948730e-01
2.890000000000000000e+02 2.952602577209472656e+01 -1.755297470092773438e+01 -1.227105855941772461e+00 -9.318918734788894653e-02 -3.960885107517242432e-01 3.373152911663055420e-01
2.900000000000000000e+02 3.166219902038574219e+01 -1.769573593139648438e+01 -2.609817266464233398e+00 -3.818432092666625977e-01 -8.974981904029846191e-01 7.452581524848937988e-01
2.910000000000000000e+02 3.285618209838867188e+01 -1.820571708679199219e+01 -2.759903430938720703e+00 -3.025084435939788818e-01 -9.187235832214355469e-01 1.036641001701354980e+00
2.920000000000000000e+02 3.557278060913085938e+01 -2.201801490783691406e+01 2.257876098155975342e-01 7.470221996307373047e+00 2.308802843093872070e+00 2.999246418476104736e-01
2.930000000000000000e+02 3.616540908813476562e+01 -2.084191513061523438e+01 3.198806345462799072e-01 6.526713848114013672e+00 2.053978443145751953e+00 4.447170794010162354e-01
2.940000000000000000e+02 3.539516067504882812e+01 -2.330375862121582031e+01 2.873827517032623291e-01 8.250677108764648438e+00 2.561418056488037109e+00 7.356075048446655273e-01
2.950000000000000000e+02 4.305309677124023438e+01 -2.028523445129394531e+01 4.312680363655090332e-01 4.736679553985595703e+00 1.550384283065795898e+00 -1.456215620040893555e+00
2.960000000000000000e+02 5.167443847656250000e+01 -2.760127067565917969e+01 1.852044910192489624e-01 3.311774134635925293e-01 1.549145728349685669e-01 -2.569057643413543701e-01
2.970000000000000000e+02 5.470734024047851562e+01 -3.070620346069335938e+01 -3.436528611928224564e-03 1.505679488182067871e-01 4.413942247629165649e-02 -7.346138358116149902e-02
2.980000000000000000e+02 5.581632232666015625e+01 -3.170527648925781250e+01 -8.906210958957672119e-02 8.439521491527557373e-02 -1.400069799274206161e-03 -1.499339099973440170e-02
2.990000000000000000e+02 4.303704452514648438e+01 -1.231101036071777344e+00 -6.606011092662811279e-02 6.947288513183593750e+00 2.064368486404418945e+00 2.075784921646118164e+00
3.000000000000000000e+02 4.422774887084960938e+01 4.081343114376068115e-01 -2.507410526275634766e+00 2.723219394683837891e+00 6.474264711141586304e-02 -2.830927968025207520e-01
3.010000000000000000e+02 3.955181121826171875e+01 6.652499198913574219e+00 2.046172857284545898e+00 1.256813716888427734e+01 4.384293079376220703e+00 4.667110443115234375e+00
3.020000000000000000e+02 4.223195266723632812e+01 1.193746757507324219e+01 9.842812418937683105e-01 9.003571510314941406e+00 2.996355772018432617e+00 2.374279260635375977e+00
3.030000000000000000e+02 4.164540100097656250e+01 1.795423316955566406e+01 1.684289723634719849e-01 8.504175186157226562e+00 2.601781129837036133e+00 4.247529506683349609e-01
3.040000000000000000e+02 4.162915802001953125e+01 2.648782539367675781e+01 8.339978754520416260e-02 7.522277355194091797e+00 2.281703233718872070e+00 -2.659123837947845459e-01
3.050000000000000000e+02 4.154621887207031250e+01 2.794103431701660156e+01 5.830392837524414062e-01 8.156690597534179688e+00 2.621918916702270508e+00 -9.462942481040954590e-01
3.060000000000000000e+02 4.614435958862304688e+01 2.114567756652832031e+00 -6.596858978271484375e+00 -1.057768225669860840e+00 -2.296388149261474609e+00 1.869368255138397217e-01
3.070000000000000000e+02 4.851702880859375000e+01 1.017938613891601562e+00 -7.079862594604492188e+00 -4.178929328918457031e-01 -2.249326705932617188e+00 1.582469940185546875e+00
3.080000000000000000e+02 5.021477890014648438e+01 1.694590091705322266e+00 -4.585181713104248047e+00 2.160462141036987305e-01 -1.310740590095520020e+00 1.863613128662109375e-01
3.090000000000000000e+02 5.103677368164062500e+01 3.250985592603683472e-02 -3.899314403533935547e+00 -1.181375086307525635e-01 -1.205235600471496582e+00 1.098034620285034180e+00
3.100000000000000000e+02 5.635275650024414062e+01 -1.007262229919433594e+00 -3.134019613265991211e+00 -6.146330013871192932e-02 -9.586448669433593750e-01 3.539075851440429688e-01
3.110000000000000000e+02 6.033169555664062500e+01 -1.890066623687744141e+00 -1.738163828849792480e+00 -1.361462175846099854e-01 -5.622930526733398438e-01 3.963722586631774902e-01
3.120000000000000000e+02 6.152351379394531250e+01 -2.229736804962158203e+00 -1.256309747695922852e+00 -6.756936758756637573e-02 -3.971637189388275146e-01 3.123357594013214111e-01
3.130000000000000000e+02 6.416096496582031250e+01 -4.284251689910888672e+00 -2.734626829624176025e-01 -5.116946995258331299e-02 -9.738964587450027466e-02 1.373292356729507446e-01
3.140000000000000000e+02 6.500386810302734375e+01 -5.164235591888427734e+00 -1.247035786509513855e-01 1.660038903355598450e-02 -3.243095800280570984e-02 5.131030455231666565e-02
3.150000000000000000e+02 7.090347290039062500e+01 -1.199359703063964844e+01 1.992642134428024292e-02 -7.752073463052511215e-03 3.652304178103804588e-03 -7.756367325782775879e-03
3.160000000000000000e+02 7.165914916992187500e+01 -1.190401268005371094e+01 2.115180529654026031e-02 -7.022938691079616547e-03 4.238659981638193130e-03 -4.247180186212062836e-03
3.170000000000000000e+02 7.469120788574218750e+01 -1.163680171966552734e+01 1.734843850135803223e-02 -2.231831662356853485e-03 4.534982144832611084e-03 9.663699194788932800e-03
3.180000000000000000e+02 7.684390258789062500e+01 -1.145136356353759766e+01 8.252284489572048187e-03 1.405876595526933670e-03 2.897448372095823288e-03 1.321017183363437653e-02
3.190000000000000000e+02 7.718199920654296875e+01 -3.899159431457519531e+00 -2.438168786466121674e-02 -1.931981556117534637e-02 -1.311045046895742416e-02 -2.764581143856048584e-02
3.200000000000000000e+02 7.567395782470703125e+01 3.070307970046997070e+00 -8.098670095205307007e-02 -2.476926445960998535e-01 -9.860379993915557861e-02 -2.737197875976562500e-01
3.210000000000000000e+02 7.804753112792968750e+01 1.121486949920654297e+01 1.063547329977154732e-03 -9.657785892486572266e-01 -2.894144952297210693e-01 -2.178539931774139404e-01
3.220000000000000000e+02 7.803549957275390625e+01 1.818218994140625000e+01 1.270680129528045654e-02 -1.605919718742370605e+00 -4.779638648033142090e-01 -1.637452393770217896e-01
3.230000000000000000e+02 7.784587860107421875e+01 2.767509078979492188e+01 1.198416016995906830e-02 -2.059494495391845703e+00 -6.142531037330627441e-01 -6.212164834141731262e-02
3.240000000000000000e+02 7.820243072509765625e+01 3.561935806274414062e+01 2.968926541507244110e-02 -2.254025697708129883e+00 -6.673009395599365234e-01 3.225613757967948914e-02
3.250000000000000000e+02 7.745540618896484375e+01 3.817477798461914062e+01 3.763579204678535461e-02 -2.123994588851928711e+00 -6.259075999259948730e-01 9.277306497097015381e-02
3.260000000000000000e+02 7.922661590576171875e+01 3.742296218872070312e+01 1.419862359762191772e-02 -2.416689634323120117e+00 -7.207472920417785645e-01 4.126626625657081604e-02
3.270000000000000000e+02 7.164156341552734375e+01 3.806880187988281250e+01 2.357561141252517700e-02 -9.202030897140502930e-01 -2.689882516860961914e-01 -2.055403962731361389e-02
3.280000000000000000e+02 7.288439178466796875e+01 3.008351707458496094e+01 6.757482141256332397e-02 -1.146152973175048828e+00 -3.235734403133392334e-01 -9.438145905733108521e-02
3.290000000000000000e+02 7.400398254394531250e+01 2.153532409667968750e+01 1.085748001933097839e-01 -1.199528098106384277e+00 -3.272860050201416016e-01 -3.217153847217559814e-01
3.300000000000000000e+02 7.276586914062500000e+01 1.688241958618164062e+01 1.190967857837677002e-01 -8.724978566169738770e-01 -2.260203212499618530e-01 -5.058906078338623047e-01
3.310000000000000000e+02 7.292247009277343750e+01 1.020720386505126953e+01 -2.189006656408309937e-02 -5.408961176872253418e-01 -1.688358485698699951e-01 -6.011961698532104492e-01
3.320000000000000000e+02 6.985485839843750000e+01 3.678340435028076172e+00 -3.577457666397094727e-01 -5.463657528162002563e-02 -1.237147077918052673e-01 -5.467830896377563477e-01
3.330000000000000000e+02 6.604402923583984375e+01 -5.592624664306640625e+00 -1.187797561287879944e-01 3.081512451171875000e-02 -2.638938836753368378e-02 3.276021406054496765e-02
3.340000000000000000e+02 6.583043670654296875e+01 -3.792994499206542969e+00 -4.241061508655548096e-01 6.826253980398178101e-02 -1.067530810832977295e-01 7.606615126132965088e-02
3.350000000000000000e+02 7.943682861328125000e+01 -2.705259561538696289e+00 -3.246594918891787529e-03 3.095114044845104218e-02 8.311363868415355682e-03 -9.302055463194847107e-03
3.360000000000000000e+02 5.231661605834960938e+01 -3.657071888446807861e-01 -3.312281847000122070e+00 -2.991302870213985443e-03 -9.945819377899169922e-01 6.357089281082153320e-01
3.370000000000000000e+02 5.364062500000000000e+01 -6.179940104484558105e-01 -3.312517404556274414e+00 5.739948526024818420e-02 -9.765353202819824219e-01 4.017355740070343018e-01
3.380000000000000000e+02 6.589896392822265625e+01 -6.989454746246337891e+00 -7.440737448632717133e-03 4.812699183821678162e-02 1.220587641000747681e-02 -6.953537464141845703e-03
3.390000000000000000e+02 6.631018829345703125e+01 -8.193860054016113281e+00 -5.301950732246041298e-04 4.773520678281784058e-02 1.416150387376546860e-02 -2.462331764400005341e-02
3.400000000000000000e+02 6.687442779541015625e+01 -9.394757270812988281e+00 1.529666408896446228e-02 3.800738230347633362e-02 1.599121466279029846e-02 -2.333829365670681000e-02
3.410000000000000000e+02 7.752982330322265625e+01 -1.136981201171875000e+01 7.358973845839500427e-03 3.211160656064748764e-03 3.171040210872888565e-03 1.192706916481256485e-02
3.420000000000000000e+02 7.963694763183593750e+01 -1.111793231964111328e+01 3.815988311544060707e-04 8.670937269926071167e-03 2.715760841965675354e-03 2.294514095410704613e-03
3.430000000000000000e+02 6.244441604614257812e+01 4.044036102294921875e+01 -6.484811753034591675e-02 9.104679226875305176e-01 2.536859512329101562e-01 4.367729648947715759e-02
3.440000000000000000e+02 6.740351867675781250e+01 3.063379859924316406e+01 2.022729963064193726e-01 -1.951966881752014160e-01 2.122891834005713463e-03 -7.275359332561492920e-02
3.450000000000000000e+02 6.482496643066406250e+01 2.220966911315917969e+01 5.043284296989440918e-01 5.098398402333259583e-02 1.665937304496765137e-01 -3.130379319190979004e-01
3.460000000000000000e+02 6.695239257812500000e+01 1.862597274780273438e+01 3.899669945240020752e-01 -2.720257639884948730e-01 3.538236394524574280e-02 -5.399094223976135254e-01
3.470000000000000000e+02 6.480828094482421875e+01 7.569952487945556641e+00 -2.926292419433593750e-01 -4.168551415205001831e-03 -8.903933316469192505e-02 -9.162421226501464844e-01
3.480000000000000000e+02 6.043406677246093750e+01 9.004154205322265625e-01 -1.571316599845886230e+00 9.671810269355773926e-02 -4.423795342445373535e-01 -4.036958217620849609e-01
3.490000000000000000e+02 6.151409530639648438e+01 9.214736223220825195e-01 -1.377124309539794922e+00 1.506559103727340698e-01 -3.679405152797698975e-01 -4.045442938804626465e-01
3.500000000000000000e+02 5.749391174316406250e+01 4.078342437744140625e+01 -2.002105414867401123e-01 1.971319675445556641e+00 5.313327312469482422e-01 5.655588582158088684e-02
3.510000000000000000e+02 6.167785644531250000e+01 3.638055801391601562e+01 4.699019715189933777e-02 1.002659559249877930e+00 3.148949444293975830e-01 1.093829795718193054e-01
3.520000000000000000e+02 5.909508895874023438e+01 3.004083061218261719e+01 4.051719903945922852e-01 1.378376960754394531e+00 5.350646972656250000e-01 2.097942382097244263e-01
3.530000000000000000e+02 5.539751815795898438e+01 2.200826835632324219e+01 9.374121427536010742e-01 1.751289010047912598e+00 8.066103458404541016e-01 1.885536909103393555e-01
3.540000000000000000e+02 5.478039932250976562e+01 1.700304031372070312e+01 1.163438081741333008e+00 1.433230161666870117e+00 7.790004611015319824e-01 2.804543823003768921e-02
3.550000000000000000e+02 5.891862487792968750e+01 7.391766071319580078e+00 -3.558913767337799072e-01 1.946680098772048950e-01 -4.836700484156608582e-02 -9.643991589546203613e-01
3.560000000000000000e+02 5.653877258300781250e+01 1.434769630432128906e-01 -2.617258787155151367e+00 -4.440638422966003418e-02 -7.984995841979980469e-01 6.547724362462759018e-03
3.570000000000000000e+02 5.926337051391601562e+01 9.575726985931396484e-01 -1.778188824653625488e+00 7.809492200613021851e-02 -5.100281834602355957e-01 -3.474443256855010986e-01
3.580000000000000000e+02 5.268106460571289062e+01 4.096255493164062500e+01 -4.330564141273498535e-01 2.923750400543212891e+00 7.472081780433654785e-01 9.085575491189956665e-02
3.590000000000000000e+02 5.084226608276367188e+01 3.000420379638671875e+01 4.960012435913085938e-01 3.175722360610961914e+00 1.101517081260681152e+00 4.264338016510009766e-01
3.600000000000000000e+02 5.077488327026367188e+01 2.652298164367675781e+01 7.563071846961975098e-01 3.251343011856079102e+00 1.202295064926147461e+00 4.074197709560394287e-01
3.610000000000000000e+02 4.678002929687500000e+01 1.696651268005371094e+01 1.136856555938720703e+00 4.813619613647460938e+00 1.785142779350280762e+00 1.143582344055175781e+00
3.620000000000000000e+02 4.925786209106445312e+01 1.283199787139892578e+01 1.503542900085449219e+00 2.517959356307983398e+00 1.206450700759887695e+00 7.252466678619384766e-01
3.630000000000000000e+02 4.684625625610351562e+01 1.153659915924072266e+01 1.616595029830932617e+00 3.665911436080932617e+00 1.584751963615417480e+00 1.323269248008728027e+00
3.640000000000000000e+02 4.324640655517578125e+01 3.838520812988281250e+01 -6.842860579490661621e-01 3.551338195800781250e+00 8.601156473159790039e-01 -1.340948045253753662e-01
3.650000000000000000e+02 4.301455688476562500e+01 4.104180526733398438e+01 -7.543182969093322754e-01 3.395339250564575195e+00 7.923063039779663086e-01 -3.256689757108688354e-02
3.660000000000000000e+02 3.907944107055664062e+01 3.340915679931640625e+01 1.041455149650573730e+00 2.610338449478149414e+00 1.095538139343261719e+00 -1.525425434112548828e+00
3.670000000000000000e+02 4.078665924072265625e+01 3.084571647644042969e+01 9.490663409233093262e-01 5.719954013824462891e+00 2.000705957412719727e+00 -1.916571021080017090e+00
3.680000000000000000e+02 4.126718521118164062e+01 2.939548873901367188e+01 7.388003468513488770e-01 7.157747268676757812e+00 2.368964195251464844e+00 -1.664261221885681152e+00
3.690000000000000000e+02 4.253353118896484375e+01 2.963494110107421875e+01 8.038811087608337402e-01 6.025064945220947266e+00 2.048683881759643555e+00 -6.663249135017395020e-01
3.700000000000000000e+02 3.769715881347656250e+01 3.818454360961914062e+01 -1.734878122806549072e-01 1.809545636177062988e+00 4.908173382282257080e-01 -5.130527615547180176e-01
3.710000000000000000e+02 3.546939849853515625e+01 3.589917755126953125e+01 -2.824576012790203094e-02 1.885191649198532104e-01 4.808202013373374939e-02 -1.459618657827377319e-01
3.720000000000000000e+02 3.656239032745361328e+00 3.688422012329101562e+01 -8.392205199925228953e-05 3.931976389139890671e-04 9.278267680201679468e-05 -1.612296327948570251e-04
3.730000000000000000e+02 2.052297353744506836e+00 4.163022613525390625e+01 -5.178591527510434389e-05 8.534573717042803764e-04 2.405014383839443326e-04 -1.472827079851413146e-05
3.740000000000000000e+02 1.256721591949462891e+01 4.157139587402343750e+01 -6.702883401885628700e-04 3.850141074508428574e-04 -8.558227273169904947e-05 -2.718755567912012339e-04
3.750000000000000000e+02 1.017557430267333984e+01 3.680236434936523438e+01 -5.686410004273056984e-04 -8.738052565604448318e-04 -4.327338829170912504e-04 -8.215570123866200447e-04
3.760000000000000000e+02 7.156565666198730469e+00 3.023367118835449219e+01 6.151824345579370856e-05 3.160189371556043625e-04 1.132611505454406142e-04 -2.788016863632947206e-04
3.770000000000000000e+02 1.635316848754882812e+01 2.809926795959472656e+01 5.421955720521509647e-04 2.687558007892221212e-04 2.432854089420288801e-04 9.121023322222754359e-05
3.780000000000000000e+02 1.693634033203125000e+01 2.945721626281738281e+01 -2.797002671286463737e-04 3.568731772247701883e-04 2.315187157364562154e-05 4.713051894214004278e-04
3.790000000000000000e+02 1.562317371368408203e+01 3.418605041503906250e+01 -4.086207190994173288e-04 -3.475033736322075129e-04 -2.268372336402535439e-04 1.174243225250393152e-04
3.800000000000000000e+02 2.016334533691406250e+01 3.389398956298828125e+01 -2.049159724265336990e-03 9.147194796241819859e-04 -3.403321024961769581e-04 3.254932351410388947e-03
3.810000000000000000e+02 2.111840057373046875e+01 3.484421539306640625e+01 1.029492821544408798e-02 2.100489800795912743e-03 3.718625521287322044e-03 -6.166078965179622173e-04
3.820000000000000000e+02 2.219272613525390625e+01 3.822790527343750000e+01 -2.145522506907582283e-03 5.232894327491521835e-03 9.262115345336496830e-04 3.215100150555372238e-03
3.830000000000000000e+02 1.844552040100097656e+01 3.742764663696289062e+01 2.089195419102907181e-03 -3.377599932719022036e-04 5.254306015558540821e-04 -8.289291290566325188e-04
3.840000000000000000e+02 1.634534072875976562e+01 3.965488052368164062e+01 5.208752700127661228e-04 -6.296089850366115570e-04 -3.262010795879177749e-05 3.688165743369609118e-04
3.850000000000000000e+02 1.580274391174316406e+01 3.767428970336914062e+01 -2.109494525939226151e-03 -1.302712480537593365e-03 -1.023662043735384941e-03 -7.766258786432445049e-04
3.860000000000000000e+02 7.700793147087097168e-01 3.456014251708984375e+01 1.085080657503567636e-04 4.309077048674225807e-04 1.618247333681210876e-04 -7.258351251948624849e-05
3.870000000000000000e+02 1.955937623977661133e+00 3.001876258850097656e+01 5.976653483230620623e-05 1.401745248585939407e-04 5.998231790727004409e-05 -1.042798685375601053e-04
3.880000000000000000e+02 1.350622367858886719e+01 2.715835952758789062e+01 -5.464021160150878131e-05 -4.076488403370603919e-05 -2.862152723537292331e-05 -3.826698593911714852e-05
3.890000000000000000e+02 1.524792671203613281e+01 2.253667640686035156e+01 2.776619803626090288e-04 -1.811146285035647452e-05 7.786515197949483991e-05 2.694055112328896939e-08
3.900000000000000000e+02 1.550598335266113281e+01 2.535075759887695312e+01 3.387948381714522839e-04 5.038372182752937078e-05 1.167535738204605877e-04 -2.039129469721956411e-07
3.910000000000000000e+02 1.587171554565429688e+01 2.673336029052734375e+01 -2.616804849822074175e-04 1.289632782572880387e-04 -3.981516420026309788e-05 1.687521435087546706e-04
3.920000000000000000e+02 6.418216228485107422e-01 2.750739860534667969e+01 -5.711467019864358008e-05 5.502659405465237796e-05 -6.264230592023523059e-07 -5.321395519786165096e-07
3.930000000000000000e+02 1.928670167922973633e+00 2.585672378540039062e+01 -2.971120375150348991e-05 4.612491466104984283e-05 4.924113909510197118e-06 -7.305052804440492764e-06
3.940000000000000000e+02 1.335616111755371094e+01 1.677024459838867188e+01 1.058979978552088141e-04 -5.612479981209617108e-06 3.008565545314922929e-05 1.678276930761057884e-05
3.950000000000000000e+02 1.673063087463378906e+01 1.292475795745849609e+01 -1.731975935399532318e-04 -7.404379175568465143e-06 -5.418059299699962139e-05 -2.786068216664716601e-05
3.960000000000000000e+02 1.561349391937255859e+01 1.695058441162109375e+01 2.095872187055647373e-04 -1.318895101576345041e-05 5.891947876079939306e-05 2.141696677426807582e-05
3.970000000000000000e+02 1.632733726501464844e+01 1.425525188446044922e+01 1.857824827311560512e-04 6.920244572938827332e-07 5.594234971795231104e-05 2.917340134445112199e-05
3.980000000000000000e+02 6.491761803627014160e-01 2.044758415222167969e+01 3.697894271681434475e-06 -1.484849508415209129e-05 -3.345180402902769856e-06 -7.957097295729909092e-06
3.990000000000000000e+02 1.855855226516723633e+00 1.594909191131591797e+01 -1.742254426062572747e-05 -1.502920326856838074e-06 -5.677639364876085892e-06 -5.397837867349153385e-06
4.000000000000000000e+02 6.725728988647460938e+00 8.378652572631835938e+00 3.231377922929823399e-05 6.203636985446792096e-06 1.155522477347403765e-05 -1.416924624209059402e-05
4.010000000000000000e+02 1.924325942993164062e+01 6.534959793090820312e+00 9.166821109829470515e-05 3.963763901992933825e-06 2.868959199986420572e-05 1.730595249682664871e-05
4.020000000000000000e+02 1.717915534973144531e+01 1.161098003387451172e+01 1.616937661310657859e-04 3.221588485757820308e-06 4.947460547555238008e-05 2.753984153969213367e-05
4.030000000000000000e+02 6.081343293190002441e-01 1.479961872100830078e+01 -3.014876710949465632e-05 -7.712851584074087441e-06 -1.135848560807062313e-05 4.492914740694686770e-06
4.040000000000000000e+02 1.652438282966613770e+00 8.998038291931152344e+00 1.244203212991124019e-05 4.025747784908162430e-06 4.940333838021615520e-06 -5.706086994905490428e-06
4.050000000000000000e+02 8.282899856567382812e+00 2.555372953414916992e+00 -6.836787633801577613e-06 -3.347609890624880791e-06 -3.055319211853202432e-06 -5.757894996349932626e-06
4.060000000000000000e+02 9.766250610351562500e+00 1.836075663566589355e+00 4.763652214023750275e-06 4.916708803648361936e-06 2.904108441725838929e-06 6.279171429923735559e-06
4.070000000000000000e+02 1.427646732330322266e+01 1.243821024894714355e+00 8.732323294680099934e-06 5.398356734076514840e-06 4.239204372424865142e-06 2.741362550295889378e-06
4.080000000000000000e+02 1.884713745117187500e+01 4.124374389648437500e+00 -5.687075827154330909e-05 -1.136552964453585446e-05 -2.047088673862162977e-05 -1.852619243436492980e-05
4.090000000000000000e+02 1.716430473327636719e+01 9.939129948616027832e-01 1.404528848070185632e-05 5.407788194133900106e-06 5.835923275299137458e-06 4.296615770726930350e-06
4.100000000000000000e+02 2.014411926269531250e+01 2.284456729888916016e+00 3.074752385145984590e-05 -2.940620561275864020e-06 8.342071851075161248e-06 -1.439384504919871688e-05
4.110000000000000000e+02 2.167265701293945312e+01 1.302127838134765625e+00 -1.210034383802849334e-06 -2.543139089539181441e-06 -1.125952053371293005e-06 3.546532298059901223e-06
4.120000000000000000e+02 1.183868408203125000e+00 3.812523841857910156e+00 -3.364760050317272544e-05 1.898614073070348240e-06 -9.524695997242815793e-06 -7.486953563784481958e-06
4.130000000000000000e+02 5.099768042564392090e-01 6.393404006958007812e+00 -2.576547012722585350e-05 -3.782984776989906095e-06 -8.864536539476830512e-06 7.023736259270663140e-08
4.140000000000000000e+02 3.966066837310791016e+00 3.419860124588012695e+00 2.384071194683201611e-06 4.649063612305326387e-06 2.109940396621823311e-06 -3.919196387869305909e-06
4.150000000000000000e+02 2.372535514831542969e+01 3.667833709716796875e+01 9.074814151972532272e-04 6.897845771163702011e-03 2.341598272323608398e-03 -4.673344548791646957e-03
4.160000000000000000e+02 2.973110389709472656e+01 3.724833679199218750e+01 -2.360679507255554199e-01 -3.290715068578720093e-02 -8.069252967834472656e-02 7.063730061054229736e-02
4.170000000000000000e+02 3.032065963745117188e+01 3.844819641113281250e+01 -6.041059643030166626e-02 1.597001589834690094e-02 -1.333217322826385498e-02 7.320228219032287598e-02
4.180000000000000000e+02 3.402283096313476562e+01 3.656604766845703125e+01 -1.549344956874847412e-01 8.460889011621475220e-02 -2.109768055379390717e-02 -2.203271165490150452e-02
4.190000000000000000e+02 3.635955429077148438e+01 3.719871902465820312e+01 4.916695877909660339e-02 8.457853794097900391e-01 2.684856951236724854e-01 -4.123448729515075684e-01
4.200000000000000000e+02 4.169468307495117188e+01 2.222413063049316406e+01 4.664184153079986572e-02 7.137934684753417969e+00 2.155372858047485352e+00 6.395334005355834961e-02
4.210000000000000000e+02 4.143873977661132812e+01 1.510078525543212891e+01 3.439884185791015625e-01 9.782419204711914062e+00 3.037922382354736328e+00 1.218771338462829590e+00
4.220000000000000000e+02 4.006180953979492188e+01 7.998371601104736328e+00 1.628244757652282715e+00 1.292276096343994141e+01 4.365301609039306641e+00 4.152629852294921875e+00
4.230000000000000000e+02 4.307773971557617188e+01 1.154935136437416077e-01 -2.021800756454467773e+00 5.938493728637695312e+00 1.175007939338684082e+00 8.653996586799621582e-01
4.240000000000000000e+02 3.826869583129882812e+01 4.091015338897705078e+00 1.735072970390319824e+00 8.789208412170410156e+00 3.157284498214721680e+00 3.852855682373046875e+00
4.250000000000000000e+02 2.639237213134765625e+01 -2.931452751159667969e+00 -1.940744996070861816e+00 -2.455390244722366333e-01 -6.558852195739746094e-01 -6.315138339996337891e-01
4.260000000000000000e+02 2.384453773498535156e+01 -3.082038402557373047e+00 -1.097215771675109863e+00 6.287021189928054810e-02 -3.103036582469940186e-01 -2.643475830554962158e-01
4.270000000000000000e+02 2.364161300659179688e+01 -2.185850143432617188e+00 -1.080992579460144043e+00 1.244591772556304932e-01 -2.869600057601928711e-01 -1.047691479325294495e-01
4.280000000000000000e+02 2.450353050231933594e+01 -1.996551156044006348e+00 -1.197120785713195801e+00 9.205576032400131226e-02 -3.315194845199584961e-01 -7.492871582508087158e-02
4.290000000000000000e+02 2.109334182739257812e+01 -2.627386569976806641e+00 -8.361945152282714844e-01 -2.641909942030906677e-02 -2.587840855121612549e-01 -8.487643301486968994e-02
4.300000000000000000e+02 1.784704589843750000e+01 -2.784488201141357422e+00 -7.394067645072937012e-01 -5.193278938531875610e-02 -2.374018728733062744e-01 -5.198264494538307190e-02
4.310000000000000000e+02 1.625235748291015625e+01 -2.714774608612060547e+00 -6.952859163284301758e-01 -2.613708376884460449e-02 -2.164268940687179565e-01 -3.204188123345375061e-02
4.320000000000000000e+02 1.469235038757324219e+01 -2.561570644378662109e+00 -6.407382488250732422e-01 -5.085218232125043869e-03 -1.937470287084579468e-01 -3.097829222679138184e-02
4.330000000000000000e+02 1.392328643798828125e+01 -2.468499660491943359e+00 -6.127896904945373535e-01 1.081979461014270782e-02 -1.805909723043441772e-01 -3.281066194176673889e-02
4.340000000000000000e+02 1.095980358123779297e+01 -2.061050891876220703e+00 -4.739099740982055664e-01 4.312455281615257263e-02 -1.292356252670288086e-01 -6.431577354669570923e-02
4.350000000000000000e+02 3.795209646224975586e+00 -1.923203945159912109e+00 -1.057087928056716919e-01 -2.129012160003185272e-02 -3.809967264533042908e-02 -9.491374343633651733e-02
4.360000000000000000e+02 5.658051371574401855e-01 -1.075964641571044922e+01 1.447445945814251900e-03 -8.203063011169433594e-01 -2.456576526165008545e-01 -7.352200150489807129e-02
4.370000000000000000e+02 1.703469991683959961e+00 -1.088703155517578125e+01 -2.944225678220391273e-03 -6.367029547691345215e-01 -1.918941587209701538e-01 -2.026270478963851929e-01
4.380000000000000000e+02 7.352434158325195312e+00 -1.828015327453613281e+01 7.391264438629150391e-01 1.183435797691345215e+00 5.767686367034912109e-01 7.318533062934875488e-01
4.390000000000000000e+02 6.223629713058471680e-01 -1.781751060485839844e+01 8.753579109907150269e-03 -1.447121620178222656e+00 -4.315104186534881592e-01 3.210383234545588493e-03
4.400000000000000000e+02 8.858201026916503906e+00 -1.680371856689453125e+01 1.352164506912231445e+00 6.979413032531738281e-01 6.150317192077636719e-01 7.087578177452087402e-01
4.410000000000000000e+02 1.132066249847412109e+01 -1.513777732849121094e+01 1.216015458106994629e+00 2.674067020416259766e-01 4.450266659259796143e-01 9.225609153509140015e-02
4.420000000000000000e+02 1.557646846771240234e+01 -1.688820266723632812e+01 9.995764493942260742e-01 1.177194491028785706e-01 3.351887762546539307e-01 -3.460681140422821045e-01
4.430000000000000000e+02 1.680725669860839844e+01 -1.745911407470703125e+01 7.727711796760559082e-01 9.504073858261108398e-02 2.603435814380645752e-01 -2.666304111480712891e-01
4.440000000000000000e+02 2.443902969360351562e+01 -1.860949134826660156e+01 4.182420074939727783e-01 8.438377641141414642e-03 1.280041188001632690e-01 9.190083295106887817e-02
4.450000000000000000e+02 2.657474136352539062e+01 -1.706029701232910156e+01 1.291744410991668701e-01 2.680168021470308304e-03 3.955638036131858826e-02 3.441770076751708984e-01
4.460000000000000000e+02 6.036185741424560547e+00 -2.226162719726562500e+01 1.080822497606277466e-01 7.987289428710937500e-01 2.720433771610260010e-01 2.702665925025939941e-01
4.470000000000000000e+02 6.314463138580322266e+00 -2.084086418151855469e+01 2.217563986778259277e-01 1.037465095520019531e+00 3.777664601802825928e-01 4.156489074230194092e-01
4.480000000000000000e+02 6.226723194122314453e-01 -2.483202171325683594e+01 -1.351697556674480438e-02 -4.264421164989471436e-01 -1.319877207279205322e-01 1.266765296459197998e-01
4.490000000000000000e+02 5.952478408813476562e+00 -2.366755676269531250e+01 1.605038531124591827e-02 3.898783326148986816e-01 1.217786148190498352e-01 1.707096695899963379e-01
4.500000000000000000e+02 6.621051430702209473e-01 -2.907507705688476562e+01 -1.490789093077182770e-02 2.360179722309112549e-01 6.633302569389343262e-02 5.358218401670455933e-02
4.510000000000000000e+02 7.078075885772705078e+00 -2.828515625000000000e+01 -4.176061451435089111e-01 -4.940901696681976318e-01 -2.735088765621185303e-01 3.982244431972503662e-01
4.520000000000000000e+02 6.039665699005126953e+00 -2.636780548095703125e+01 -2.109417617321014404e-01 -3.863800168037414551e-01 -1.791965365409851074e-01 3.183549940586090088e-01
4.530000000000000000e+02 3.244401454925537109e+00 -2.899547195434570312e+01 -1.464493423700332642e-01 -9.604298509657382965e-03 -4.681609198451042175e-02 1.960942298173904419e-01
4.540000000000000000e+02 9.091070175170898438e+00 -3.018832778930664062e+01 -5.794730782508850098e-01 -4.074356555938720703e-01 -2.960726320743560791e-01 3.716462850570678711e-01
4.550000000000000000e+02 8.039248466491699219e+00 -2.917397499084472656e+01 -4.350363910198211670e-01 -3.959281742572784424e-01 -2.492893636226654053e-01 4.247825741767883301e-01
4.560000000000000000e+02 6.286795139312744141e+00 -2.963218307495117188e+01 -2.731047868728637695e-01 -2.554166018962860107e-01 -1.585564166307449341e-01 2.400567680597305298e-01
4.570000000000000000e+02 3.029304742813110352e+00 -3.755501174926757812e+01 -5.865444429218769073e-03 1.177645176649093628e-01 3.356971964240074158e-02 -4.271478950977325439e-02
4.580000000000000000e+02 8.426542282104492188e-01 -3.724991607666015625e+01 -8.582341484725475311e-03 2.588549852371215820e-01 7.508179545402526855e-02 -2.434857748448848724e-02
4.590000000000000000e+02 6.620464324951171875e-01 -3.188955307006835938e+01 -8.638422936201095581e-03 3.546983897686004639e-01 1.038179919123649597e-01 6.158318836241960526e-03
4.600000000000000000e+02 7.960726261138916016e+00 -3.610775756835937500e+01 -4.033842310309410095e-02 -1.722499132156372070e-01 -6.377650052309036255e-02 2.708046510815620422e-02
4.610000000000000000e+02 9.901836395263671875e+00 -3.655401611328125000e+01 -6.035703793168067932e-02 -2.154656499624252319e-01 -8.274680376052856445e-02 5.208674818277359009e-02
4.620000000000000000e+02 1.596324062347412109e+01 -3.196696853637695312e+01 -4.678976237773895264e-01 -2.323762513697147369e-02 -1.473405659198760986e-01 5.138712003827095032e-02
4.630000000000000000e+02 7.211905002593994141e+00 -3.040056037902832031e+01 -3.687781691551208496e-01 -3.263010978698730469e-01 -2.085237801074981689e-01 2.477659285068511963e-01
4.640000000000000000e+02 1.673234558105468750e+01 -3.565854644775390625e+01 -2.116775512695312500e-01 -9.550431370735168457e-02 -9.215456247329711914e-02 -4.367241170257329941e-03
4.650000000000000000e+02 1.553792381286621094e+01 -3.860194396972656250e+01 -5.109899491071701050e-02 -1.529721915721893311e-01 -6.122135743498802185e-02 9.374089539051055908e-03
4.660000000000000000e+02 1.871935462951660156e+01 -3.196427726745605469e+01 -5.064395070075988770e-01 2.539491048082709312e-03 -1.511700004339218140e-01 -2.786106429994106293e-02
4.670000000000000000e+02 1.734672737121582031e+01 -3.198227500915527344e+01 -4.905332624912261963e-01 -3.727386891841888428e-02 -1.583421379327774048e-01 6.013848353177309036e-03
4.680000000000000000e+02 2.444242095947265625e+01 -3.883390808105468750e+01 -5.694242939352989197e-02 3.719983696937561035e-01 9.451677650213241577e-02 9.756097942590713501e-02
4.690000000000000000e+02 2.562938117980957031e+01 -3.483529281616210938e+01 -1.188445538282394409e-01 2.853153944015502930e-01 4.994125664234161377e-02 2.108098119497299194e-01
4.700000000000000000e+02 2.984322547912597656e+01 -3.088512802124023438e+01 3.624178171157836914e-01 4.798862338066101074e-01 2.526912093162536621e-01 5.728222727775573730e-01
4.710000000000000000e+02 2.415063858032226562e+01 -3.163649559020996094e+01 -5.963025093078613281e-01 2.272122167050838470e-02 -1.720743924379348755e-01 -4.335410520434379578e-02
4.720000000000000000e+02 3.068955421447753906e+01 -3.544472122192382812e+01 -3.048933744430541992e-01 1.605431318283081055e+00 3.901613652706146240e-01 6.570421457290649414e-01
4.730000000000000000e+02 3.105935096740722656e+01 -3.014726448059082031e+01 1.130010843276977539e+00 1.255895853042602539e+00 7.157720327377319336e-01 1.119451642036437988e+00
4.740000000000000000e+02 3.028557395935058594e+01 -3.409995269775390625e+01 -1.656338870525360107e-01 1.385716557502746582e+00 3.660247921943664551e-01 7.540879249572753906e-01
4.750000000000000000e+02 3.567712402343750000e+01 -3.832807159423828125e+01 -8.092489242553710938e-01 2.750692367553710938e+00 5.824330449104309082e-01 1.506404131650924683e-01
4.760000000000000000e+02 3.829586410522460938e+01 -3.629643249511718750e+01 -7.774680852890014648e-01 3.036563873291015625e+00 6.777287125587463379e-01 -2.844281867146492004e-02
4.770000000000000000e+02 4.158775329589843750e+01 -3.028756713867187500e+01 -8.664888888597488403e-02 3.212901830673217773e+00 9.378758668899536133e-01 -6.512341499328613281e-01
4.780000000000000000e+02 3.499589538574218750e+01 -3.037639808654785156e+01 7.398858666419982910e-03 3.956073760986328125e+00 1.189041733741760254e+00 7.473365068435668945e-01
4.790000000000000000e+02 3.400603485107421875e+01 -2.719111442565917969e+01 1.599849343299865723e+00 5.158637046813964844e+00 2.027545928955078125e+00 2.540096521377563477e+00
4.800000000000000000e+02 3.469389724731445312e+01 -2.594651794433593750e+01 1.367684364318847656e+00 7.258667469024658203e+00 2.587905645370483398e+00 2.584280252456665039e+00
4.810000000000000000e+02 4.220321655273437500e+01 -4.066013336181640625e+01 -7.300785183906555176e-01 2.542089462280273438e+00 5.436032414436340332e-01 -9.935651719570159912e-02
4.820000000000000000e+02 4.495909500122070312e+01 -3.605049896240234375e+01 -4.239347875118255615e-01 2.217091321945190430e+00 5.379469394683837891e-01 -4.057103097438812256e-01
4.830000000000000000e+02 5.251550292968750000e+01 -3.098465347290039062e+01 4.290389642119407654e-02 4.995429813861846924e-01 1.627340614795684814e-01 -2.626928985118865967e-01
4.840000000000000000e+02 4.440615844726562500e+01 -2.987064933776855469e+01 5.053953826427459717e-02 2.438170194625854492e+00 7.466129064559936523e-01 -7.617365717887878418e-01
4.850000000000000000e+02 4.727755355834960938e+01 -4.083114624023437500e+01 -4.097116291522979736e-01 1.846293330192565918e+00 4.309744834899902344e-01 -1.391608417034149170e-01
4.860000000000000000e+02 5.110311889648437500e+01 -3.821578598022460938e+01 -1.342328041791915894e-01 1.127397656440734863e+00 2.979494333267211914e-01 -2.337214201688766479e-01
4.870000000000000000e+02 5.656343841552734375e+01 -3.767274093627929688e+01 5.167429894208908081e-02 2.565577924251556396e-01 9.246962517499923706e-02 -9.162920713424682617e-02
4.880000000000000000e+02 5.503491210937500000e+01 -3.984152221679687500e+01 4.436371475458145142e-02 5.098451972007751465e-01 1.662626862525939941e-01 -8.173152059316635132e-02
4.890000000000000000e+02 5.878733444213867188e+01 -3.315083312988281250e+01 -2.340141981840133667e-01 -1.878482103347778320e-02 -7.583970576524734497e-02 1.505351625382900238e-02
4.900000000000000000e+02 5.715850448608398438e+01 -3.264680862426757812e+01 -1.904754191637039185e-01 1.343471091240644455e-02 -5.311220884323120117e-02 1.796555146574974060e-02
4.910000000000000000e+02 6.734496307373046875e+01 -4.118004226684570312e+01 5.039019882678985596e-02 -1.813811250030994415e-02 9.675625711679458618e-03 8.482479490339756012e-03
4.920000000000000000e+02 6.245267868041992188e+01 -3.843816757202148438e+01 6.343109905719757080e-02 2.315326966345310211e-02 2.597531117498874664e-02 3.306563571095466614e-02
4.930000000000000000e+02 6.186257553100585938e+01 -3.247863006591796875e+01 -1.715720146894454956e-01 -1.736584864556789398e-02 -5.668136104941368103e-02 -2.245800197124481201e-02
4.940000000000000000e+02 6.323368453979492188e+01 -3.185119628906250000e+01 -1.071324273943901062e-01 -9.138640947639942169e-03 -3.488131985068321228e-02 -3.122565336525440216e-02
4.950000000000000000e+02 6.041117477416992188e+01 -3.299472808837890625e+01 -2.280373871326446533e-01 -1.243773195892572403e-02 -7.214253395795822144e-02 -4.967285785824060440e-03
4.960000000000000000e+02 7.076140594482421875e+01 -3.628338623046875000e+01 5.211859941482543945e-03 -7.019271142780780792e-03 -5.422232788987457752e-04 2.525580115616321564e-02
4.970000000000000000e+02 7.797244262695312500e+01 -3.038649749755859375e+01 5.934651126153767109e-04 -2.532524755224585533e-03 -5.817178753204643726e-04 2.417624229565262794e-03
4.980000000000000000e+02 7.936273956298828125e+01 -2.644713783264160156e+01 1.048876205459237099e-03 1.266371458768844604e-03 6.945742643438279629e-04 -1.268553751287981868e-04
4.990000000000000000e+02 7.826718139648437500e+01 -2.345438957214355469e+01 -1.163404202088713646e-03 3.463869215920567513e-04 -2.451051841489970684e-04 -2.220173482783138752e-04
5.000000000000000000e+02 7.946232604980468750e+01 -1.956881523132324219e+01 -1.051770756021142006e-03 3.208657726645469666e-04 -2.192714891862124205e-04 1.039825929183280095e-05
5.010000000000000000e+02 7.949581146240234375e+01 -1.676468658447265625e+01 -8.688223897479474545e-04 1.248526768904412165e-05 -2.569011412560939789e-04 1.900635397760197520e-04
5.020000000000000000e+02 7.796929168701171875e+01 -4.164880752563476562e+01 1.886254322016611695e-04 -2.225730568170547485e-02 -6.620604079216718674e-03 1.392749254591763020e-05
5.030000000000000000e+02 7.715297698974609375e+01 -3.811047744750976562e+01 1.986891962587833405e-03 -1.579962857067584991e-02 -4.143821075558662415e-03 4.944783169776201248e-03
5.040000000000000000e+02 7.504523468017578125e+01 -1.540090656280517578e+01 -2.856620703823864460e-04 1.302310993196442723e-04 -4.662929131882265210e-05 -1.181657571578398347e-04
5.050000000000000000e+02 7.209804534912109375e+01 -1.566229438781738281e+01 -1.745458575896918774e-04 6.001057772664353251e-05 -3.436058250372298062e-05 -3.551927511580288410e-04
5.060000000000000000e+02 7.140979766845703125e+01 -1.664384651184082031e+01 -5.614028777927160263e-04 -1.016822789097204804e-04 -1.989255397347733378e-04 -5.074242944829165936e-04
5.070000000000000000e+02 6.934374237060546875e+01 -1.599677562713623047e+01 -4.586513969115912914e-04 1.278476440347731113e-03 2.459475072100758553e-04 7.764571928419172764e-04
5.080000000000000000e+02 6.872195434570312500e+01 -2.371867942810058594e+01 -2.921099308878183365e-03 1.599298440851271152e-03 -3.965402720496058464e-04 1.211156020872294903e-03
5.090000000000000000e+02 6.805963897705078125e+01 -2.649063682556152344e+01 -3.327067010104656219e-03 8.968390757218003273e-04 -7.290683570317924023e-04 1.262166537344455719e-03
5.100000000000000000e+02 6.744966125488281250e+01 -2.780405807495117188e+01 -9.952039690688252449e-04 -5.059657851234078407e-04 -4.503509262576699257e-04 -4.058070946484804153e-03
5.110000000000000000e+02 6.794906616210937500e+01 -3.168751525878906250e+01 -3.206584230065345764e-02 8.118617348372936249e-03 -7.184166926890611649e-03 4.083546344190835953e-03
5.120000000000000000e+02 6.763409423828125000e+01 -2.962176704406738281e+01 -1.832614466547966003e-02 1.958647277206182480e-03 -4.910248797386884689e-03 -6.993444170802831650e-03
5.130000000000000000e+02 4.967484283447265625e+01 -2.552743911743164062e+01 2.966677248477935791e-01 4.408877491950988770e-01 2.212666422128677368e-01 -3.851040303707122803e-01
5.140000000000000000e+02 4.581100082397460938e+01 -2.317801094055175781e+01 5.399956703186035156e-01 1.536920309066772461e+00 6.230747699737548828e-01 -9.136565327644348145e-01
5.150000000000000000e+02 4.384225845336914062e+01 -1.946001625061035156e+01 1.325238704681396484e+00 3.030025482177734375e+00 1.306579232215881348e+00 -1.966949462890625000e+00
5.160000000000000000e+02 4.180051422119140625e+01 -1.789666938781738281e+01 1.140677928924560547e+00 7.652372837066650391e+00 2.637915372848510742e+00 -1.656472682952880859e+00
5.170000000000000000e+02 4.198488998413085938e+01 -1.664934730529785156e+01 1.053895473480224609e+00 9.425627708435058594e+00 3.143857002258300781e+00 -2.323554039001464844e+00
5.180000000000000000e+02 4.294466018676757812e+01 -1.849477195739746094e+01 1.597867965698242188e+00 5.988810539245605469e+00 2.276003599166870117e+00 -2.502410888671875000e+00
5.190000000000000000e+02 4.179463195800781250e+01 -1.534595870971679688e+01 5.082953572273254395e-01 1.058975791931152344e+01 3.329416036605834961e+00 -1.857048749923706055e+00
5.200000000000000000e+02 4.153752136230468750e+01 -1.136122894287109375e+01 5.635898932814598083e-02 7.590710639953613281e+00 2.294121026992797852e+00 -1.106143951416015625e+00
5.210000000000000000e+02 4.166275405883789062e+01 -1.398052597045898438e+01 3.471614718437194824e-01 1.033045578002929688e+01 3.203285217285156250e+00 -1.337460517883300781e+00
5.220000000000000000e+02 3.842770767211914062e+01 -6.556136131286621094e+00 5.656517982482910156e+00 1.220554351806640625e+01 5.358618736267089844e+00 -6.852728128433227539e-01
5.230000000000000000e+02 3.295920562744140625e+01 -9.451496005058288574e-01 -5.797440052032470703e+00 -1.567216157913208008e+00 -2.209396839141845703e+00 -2.877579212188720703e+00
5.240000000000000000e+02 3.864899826049804688e+01 -6.174083709716796875e+00 3.400057792663574219e+00 1.341571426391601562e+01 5.044731616973876953e+00 -4.820981621742248535e-01
5.250000000000000000e+02 3.216355895996093750e+01 -2.931236457824707031e+01 1.475972652435302734e+00 2.227511644363403320e+00 1.111045241355895996e+00 1.700232028961181641e+00
5.260000000000000000e+02 3.746530151367187500e+01 2.904382228851318359e+00 6.938389539718627930e-01 5.779181480407714844e+00 1.941906094551086426e+00 2.492113828659057617e+00
5.270000000000000000e+02 7.937556457519531250e+01 4.239819526672363281e+00 -2.038744976744055748e-03 -3.160300850868225098e-01 -9.542064368724822998e-02 -5.221311002969741821e-02
5.280000000000000000e+02 7.309452056884765625e+01 3.117435693740844727e+00 -1.891767978668212891e-01 -1.759811341762542725e-01 -1.095473766326904297e-01 -3.932943642139434814e-01
5.290000000000000000e+02 3.994599533081054688e+01 4.716513633728027344e+00 5.180222988128662109e-01 9.526392936706542969e+00 3.013324499130249023e+00 2.780722379684448242e+00
5.300000000000000000e+02 4.059168243408203125e+01 6.012958526611328125e+00 1.308832049369812012e+00 9.747319221496582031e+00 3.316845417022705078e+00 3.096650838851928711e+00
5.310000000000000000e+02 7.934625244140625000e+01 1.118772029876708984e+01 -1.207438879646360874e-03 -1.055499196052551270e+00 -3.170119822025299072e-01 -7.540557533502578735e-02
5.320000000000000000e+02 7.283324432373046875e+01 1.156594944000244141e+01 1.498282887041568756e-02 -6.122632622718811035e-01 -1.791841238737106323e-01 -6.090993285179138184e-01
5.330000000000000000e+02 6.507398986816406250e+01 8.956357002258300781e+00 -1.205184608697891235e-01 -4.581998288631439209e-02 -4.990153387188911438e-02 -9.082856774330139160e-01
5.340000000000000000e+02 5.392692565917968750e+01 1.098047447204589844e+01 7.540603876113891602e-01 7.841241955757141113e-01 4.614553749561309814e-01 -4.213080704212188721e-01
5.350000000000000000e+02 7.934899902343750000e+01 1.814670372009277344e+01 5.083354189991950989e-03 -1.806385874748229980e+00 -5.403907895088195801e-01 -5.531958118081092834e-02
5.360000000000000000e+02 6.536172485351562500e+01 1.856717300415039062e+01 4.864559769630432129e-01 -9.374346584081649780e-02 1.178137511014938354e-01 -5.287873744964599609e-01
5.370000000000000000e+02 5.365077209472656250e+01 2.069053077697753906e+01 1.073453068733215332e+00 2.130198001861572266e+00 9.610953330993652344e-01 2.745110094547271729e-01
5.380000000000000000e+02 4.709019088745117188e+01 1.862557601928710938e+01 9.771466255187988281e-01 4.749080181121826172e+00 1.717868089675903320e+00 9.152297377586364746e-01
5.390000000000000000e+02 7.933755493164062500e+01 2.367839813232421875e+01 2.117045456543564796e-03 -2.202449798583984375e+00 -6.600998640060424805e-01 -3.013861551880836487e-02
5.400000000000000000e+02 7.107987976074218750e+01 2.695677566528320312e+01 1.737661808729171753e-01 -8.256946802139282227e-01 -1.955785453319549561e-01 -1.865886151790618896e-01
5.410000000000000000e+02 6.486531066894531250e+01 2.869574165344238281e+01 3.286774158477783203e-01 2.432903945446014404e-01 1.715903431177139282e-01 -3.348680213093757629e-02
5.420000000000000000e+02 5.424341583251953125e+01 2.424236869812011719e+01 8.624018430709838867e-01 2.164181470870971680e+00 9.079750180244445801e-01 2.987530529499053955e-01
5.430000000000000000e+02 7.922096252441406250e+01 3.061678504943847656e+01 1.423031557351350784e-03 -2.413374423980712891e+00 -7.235854268074035645e-01 -8.851940743625164032e-03
5.440000000000000000e+02 7.218437957763671875e+01 3.568320083618164062e+01 5.978107824921607971e-02 -9.504171609878540039e-01 -2.671908140182495117e-01 -2.406461723148822784e-02
5.450000000000000000e+02 6.478229522705078125e+01 3.147650146484375000e+01 2.358958870172500610e-01 3.784711062908172607e-01 1.843100935220718384e-01 1.819801330566406250e-02
5.460000000000000000e+02 5.666038513183593750e+01 3.381942367553710938e+01 9.273540228605270386e-02 1.972653508186340332e+00 6.196166872978210449e-01 2.711712718009948730e-01
5.470000000000000000e+02 4.805892181396484375e+01 3.205968856811523438e+01 2.292222529649734497e-01 3.760507583618164062e+00 1.196918964385986328e+00 3.664830029010772705e-01
5.480000000000000000e+02 1.131301593780517578e+01 3.057090377807617188e+01 6.743418052792549133e-04 -3.259156364947557449e-04 1.045278477249667048e-04 -8.545276068616658449e-05
5.490000000000000000e+02 1.420149135589599609e+01 2.403417396545410156e+01 2.719923213589936495e-04 8.720495316083543003e-06 8.421383972745388746e-05 5.237455116002820432e-05
5.500000000000000000e+02 1.450600337982177734e+01 1.685925483703613281e+01 -1.522465754533186555e-04 -3.088660605499171652e-06 -4.660057311411947012e-05 -2.338383819733280689e-05
5.510000000000000000e+02 1.337503910064697266e+01 9.839621543884277344e+00 -2.527120523154735565e-05 -1.986597999348305166e-05 -1.354115556750912219e-05 -2.877372753573581576e-05
5.520000000000000000e+02 1.171201324462890625e+01 -2.920833826065063477e+00 -4.653533697128295898e-01 5.002377182245254517e-02 -1.245988756418228149e-01 -9.342934936285018921e-02
5.530000000000000000e+02 1.007694625854492188e+01 -1.411068248748779297e+01 6.498540043830871582e-01 4.208242297172546387e-01 3.212034702301025391e-01 1.131990086287260056e-02
5.540000000000000000e+02 1.384383296966552734e+01 -1.434686374664306641e+01 9.145539402961730957e-01 2.046941071748733521e-01 3.357744216918945312e-01 1.816465333104133606e-02
5.550000000000000000e+02 1.825418663024902344e+01 -1.425278282165527344e+01 7.072708606719970703e-01 -1.418493539094924927e-01 1.696264594793319702e-01 1.135206874459981918e-02
5.560000000000000000e+02 2.171443557739257812e+01 -1.343990325927734375e+01 6.521081924438476562e-01 -3.267670273780822754e-01 9.760234504938125610e-02 1.230081543326377869e-01
5.570000000000000000e+02 2.449129486083984375e+01 -1.399542617797851562e+01 7.506418228149414062e-01 -3.989456295967102051e-01 1.055088713765144348e-01 3.596717715263366699e-01
5.580000000000000000e+02 2.125943946838378906e+01 -3.363073348999023438e+00 -7.625435590744018555e-01 -2.401387318968772888e-02 -2.359672337770462036e-01 -1.176417618989944458e-01
5.590000000000000000e+02 3.843022537231445312e+01 -8.225854873657226562e+00 4.904140472412109375e+00 1.268980884552001953e+01 5.278184890747070312e+00 3.171944856643676758e+00
5.600000000000000000e+02 3.173154640197753906e+01 -1.448465442657470703e+01 8.639160394668579102e-01 4.489968121051788330e-01 3.938738405704498291e-01 6.706777811050415039e-01
5.610000000000000000e+02 1.006672000885009766e+01 -1.644488525390625000e+01 1.521357536315917969e+00 2.059663683176040649e-01 5.181971788406372070e-01 4.731700122356414795e-01
5.620000000000000000e+02 3.402770233154296875e+01 -1.891494369506835938e+01 -1.581959605216979980e+00 9.520414471626281738e-01 -1.889754533767700195e-01 1.441754847764968872e-01
5.630000000000000000e+02 3.899816894531250000e+01 -8.814094543457031250e+00 9.307278990745544434e-01 1.480918025970458984e+01 4.721972465515136719e+00 1.342136383056640625e+00
5.640000000000000000e+02 3.496863555908203125e+01 -1.985510444641113281e+01 -5.716199427843093872e-02 5.336522579193115234e+00 1.583808183670043945e+00 -2.589046657085418701e-01
5.650000000000000000e+02 6.943396759033203125e+01 -2.544040107727050781e+01 -2.711251843720674515e-03 2.274289436172693968e-04 -7.451468845829367638e-04 8.169116917997598648e-04
5.660000000000000000e+02 4.265811920166015625e+01 -2.484025716781616211e+00 1.253129124641418457e+00 9.610053062438964844e+00 3.258954763412475586e+00 2.933251380920410156e+00
5.670000000000000000e+02 4.977904891967773438e+01 5.253805518150329590e-01 -5.320240974426269531e+00 -5.390036106109619141e-01 -1.757773399353027344e+00 1.378561615943908691e+00
5.680000000000000000e+02 5.499276733398437500e+01 -8.059842586517333984e-01 -3.342267274856567383e+00 -6.502144783735275269e-02 -1.022186636924743652e+00 3.061022758483886719e-01
5.690000000000000000e+02 5.770914459228515625e+01 -1.258236289024353027e+00 -2.728446483612060547e+00 -1.070048809051513672e-01 -8.506354093551635742e-01 3.847261369228363037e-01
5.700000000000000000e+02 5.904803085327148438e+01 -1.550063610076904297e+00 -2.278668880462646484e+00 -1.213610395789146423e-01 -7.200089693069458008e-01 4.213584363460540771e-01
5.710000000000000000e+02 6.267407226562500000e+01 -2.047689199447631836e+00 -1.019535899162292480e+00 -1.452186238020658493e-02 -3.102173209190368652e-01 1.230886429548263550e-01
5.720000000000000000e+02 6.325753402709960938e+01 -3.388567686080932617e+00 -6.945966482162475586e-01 -1.213263496756553650e-01 -2.447769045829772949e-01 2.241858541965484619e-01
5.730000000000000000e+02 7.014350891113281250e+01 -1.207372951507568359e+01 2.050384692847728729e-02 -7.263651117682456970e-03 3.972058650106191635e-03 -1.183224190026521683e-02
5.740000000000000000e+02 6.941223144531250000e+01 -1.214729118347167969e+01 1.693492010235786438e-02 -2.622506348416209221e-03 4.293724428862333298e-03 -1.396322716027498245e-02
5.750000000000000000e+02 6.872011566162109375e+01 -1.223709487915039062e+01 1.386406179517507553e-02 2.019299892708659172e-03 4.765008576214313507e-03 -1.307337265461683273e-02
5.760000000000000000e+02 6.779568481445312500e+01 -1.160445404052734375e+01 1.406514737755060196e-02 1.706744544208049774e-02 9.339777752757072449e-03 -1.290883868932723999e-02
5.770000000000000000e+02 7.241776275634765625e+01 -1.181601047515869141e+01 1.948198862373828888e-02 -5.591013934463262558e-03 4.167292267084121704e-03 -4.264146264176815748e-04
5.780000000000000000e+02 7.393878936767578125e+01 -1.169307422637939453e+01 1.713614165782928467e-02 -3.007228951901197433e-03 4.238673485815525055e-03 6.907207891345024109e-03
5.790000000000000000e+02 7.543940734863281250e+01 -1.157580947875976562e+01 1.298006810247898102e-02 -8.356830803677439690e-04 3.643315751105546951e-03 1.181744039058685303e-02
5.800000000000000000e+02 7.615557861328125000e+01 -1.151516151428222656e+01 1.221304666250944138e-02 1.045741446432657540e-04 3.695286111906170845e-03 1.235772203654050827e-02
5.810000000000000000e+02 7.947415924072265625e+01 -6.859401226043701172e+00 -7.241881103254854679e-04 4.499324038624763489e-02 1.328071579337120056e-02 3.141606925055384636e-03
5.820000000000000000e+02 7.822030639648437500e+01 -1.129227256774902344e+01 4.134551156312227249e-03 5.287796258926391602e-03 2.826704178005456924e-03 1.090220734477043152e-02
5.830000000000000000e+02 7.892176055908203125e+01 -1.120376396179199219e+01 2.181585878133773804e-03 8.609586395323276520e-03 3.237351542338728905e-03 7.588309701532125473e-03
5.840000000000000000e+02 7.800438690185546875e+01 4.164489746093750000e+01 -9.366981685161590576e-02 -2.225876808166503906e+00 -6.958639621734619141e-01 2.612454257905483246e-02
5.850000000000000000e+02 7.873761749267578125e+01 4.011268997192382812e+01 4.596703872084617615e-02 -2.264334917068481445e+00 -6.655104160308837891e-01 7.793598622083663940e-02
5.860000000000000000e+02 7.679903411865234375e+01 3.923358154296875000e+01 9.794648736715316772e-03 -2.139303445816040039e+00 -6.388526558876037598e-01 1.774164289236068726e-02
5.870000000000000000e+02 7.937484741210937500e+01 3.614707183837890625e+01 2.530115470290184021e-02 -2.469571352005004883e+00 -7.332810163497924805e-01 5.305443424731492996e-03
5.880000000000000000e+02 7.925174713134765625e+01 3.490872192382812500e+01 -1.059458218514919281e-02 -2.456050872802734375e+00 -7.399936318397521973e-01 -1.379162725061178207e-02
5.890000000000000000e+02 7.725446319580078125e+01 3.337612915039062500e+01 1.492042094469070435e-02 -2.032399177551269531e+00 -6.052435636520385742e-01 -2.322176285088062286e-02
5.900000000000000000e+02 7.908557891845703125e+01 3.351537322998046875e+01 -1.870727166533470154e-03 -2.440842151641845703e+00 -7.328138351440429688e-01 -5.772526841610670090e-03
5.910000000000000000e+02 7.925907897949218750e+01 2.921232032775878906e+01 3.233661875128746033e-03 -2.389854192733764648e+00 -7.159861326217651367e-01 -1.318480726331472397e-02
5.920000000000000000e+02 7.928025817871093750e+01 2.781756782531738281e+01 1.726216054521501064e-03 -2.356440544128417969e+00 -7.064143419265747070e-01 -1.783972606062889099e-02
5.930000000000000000e+02 7.787557220458984375e+01 2.630705833435058594e+01 8.055914193391799927e-03 -2.024405717849731445e+00 -6.049049496650695801e-01 -7.333673536777496338e-02
5.940000000000000000e+02 7.929729461669921875e+01 2.643367195129394531e+01 1.061570947058498859e-03 -2.314455032348632812e+00 -6.940180659294128418e-01 -2.078706584870815277e-02
5.950000000000000000e+02 7.935172271728515625e+01 2.229384613037109375e+01 4.166287370026111603e-03 -2.125936031341552734e+00 -6.365308761596679688e-01 -3.642020747065544128e-02
5.960000000000000000e+02 7.935750579833984375e+01 2.091246223449707031e+01 3.504566149786114693e-03 -2.032283544540405273e+00 -6.086336970329284668e-01 -4.484686255455017090e-02
5.970000000000000000e+02 7.807012176513671875e+01 2.090522193908691406e+01 1.123027130961418152e-02 -1.798070907592773438e+00 -5.360521674156188965e-01 -1.298959255218505859e-01
5.980000000000000000e+02 7.934549713134765625e+01 1.675476074218750000e+01 1.111350604332983494e-03 -1.675982117652893066e+00 -5.024612545967102051e-01 -6.148585677146911621e-02
5.990000000000000000e+02 7.934394836425781250e+01 1.536375808715820312e+01 4.472266416996717453e-03 -1.533682465553283691e+00 -4.587630629539489746e-01 -6.741055101156234741e-02
6.000000000000000000e+02 7.934372711181640625e+01 1.397169303894042969e+01 4.217235837131738663e-04 -1.380387902259826660e+00 -4.139898419380187988e-01 -7.211547344923019409e-02
6.010000000000000000e+02 7.803521728515625000e+01 1.399652290344238281e+01 8.856439962983131409e-03 -1.237851738929748535e+00 -3.686985969543457031e-01 -2.094570249319076538e-01
6.020000000000000000e+02 7.934946441650390625e+01 9.794622421264648438e+00 4.576470528263598680e-04 -8.922373056411743164e-01 -2.675338983535766602e-01 -7.450022548437118530e-02
6.030000000000000000e+02 7.935495758056640625e+01 8.404812812805175781e+00 -3.250134643167257309e-03 -7.325853705406188965e-01 -2.207506597042083740e-01 -7.100286334753036499e-02
6.040000000000000000e+02 7.936047363281250000e+01 7.014801979064941406e+00 -9.211394935846328735e-04 -5.813013315200805664e-01 -1.746667325496673584e-01 -6.640364229679107666e-02
6.050000000000000000e+02 7.808459472656250000e+01 7.046298980712890625e+00 -1.225932780653238297e-02 -5.649058818817138672e-01 -1.731495559215545654e-01 -1.911588758230209351e-01
6.060000000000000000e+02 7.938569641113281250e+01 2.849780321121215820e+00 -5.361193791031837463e-03 -2.078600674867630005e-01 -6.396637856960296631e-02 -4.346253722906112671e-02
6.070000000000000000e+02 7.939933776855468750e+01 1.461953282356262207e+00 -2.880801213905215263e-03 -1.187582015991210938e-01 -3.649169951677322388e-02 -3.410003334283828735e-02
6.080000000000000000e+02 7.941256713867187500e+01 7.338654994964599609e-02 -4.650894086807966232e-03 -4.954130575060844421e-02 -1.625766046345233917e-02 -2.490377612411975861e-02
6.090000000000000000e+02 7.823602294921875000e+01 1.417897343635559082e-01 -1.620991341769695282e-02 -9.773523360490798950e-02 -3.418354317545890808e-02 -7.408919930458068848e-02
6.100000000000000000e+02 7.945002746582031250e+01 -4.093267440795898438e+00 -1.489859307184815407e-03 4.655669257044792175e-02 1.352004986256361008e-02 -3.615747438743710518e-03
6.110000000000000000e+02 7.946428680419921875e+01 -5.476048946380615234e+00 -1.527662738226354122e-03 5.018531158566474915e-02 1.459729485213756561e-02 4.286017501726746559e-04
6.120000000000000000e+02 7.837078094482421875e+01 -5.371805191040039062e+00 -6.102950777858495712e-03 1.871236786246299744e-02 3.782825078815221786e-03 -1.339386450126767159e-03
6.130000000000000000e+02 7.837339782714843750e+01 -8.075659751892089844e+00 -2.380760852247476578e-03 1.880734600126743317e-02 4.927975591272115707e-03 1.094236876815557480e-02
6.140000000000000000e+02 8.188093185424804688e+00 4.134289550781250000e+01 -3.338748065289109945e-04 2.438382216496393085e-04 -2.701097764656879008e-05 9.898437565425410867e-05
6.150000000000000000e+02 2.450606346130371094e+01 4.010439300537109375e+01 4.887617542408406734e-04 -3.431545197963714600e-02 -1.014800742268562317e-02 8.678657002747058868e-03
6.160000000000000000e+02 4.785203933715820312e+01 4.094966506958007812e+01 -7.131599187850952148e-01 3.567624568939208984e+00 8.563393950462341309e-01 7.726922631263732910e-02
6.170000000000000000e+02 6.740686035156250000e+01 4.056552886962890625e+01 -2.611483214423060417e-03 -1.966575346887111664e-02 -6.683171261101961136e-03 1.341330725699663162e-02
6.180000000000000000e+02 1.327699542045593262e+00 2.716281175613403320e+00 -1.143830741057172418e-05 -1.148279807239305228e-05 -6.876331553939962760e-06 1.416326995240524411e-05
6.190000000000000000e+02 3.236021995544433594e+00 2.672051191329956055e+00 4.785907094628782943e-06 -5.904218141949968413e-06 -3.354933824084582739e-07 5.443373083835467696e-06
6.200000000000000000e+02 5.386806488037109375e+00 2.567190885543823242e+00 -2.412439016552525572e-06 -2.314386847501737066e-06 -1.418047759216278791e-06 -2.321410875083529390e-06
6.210000000000000000e+02 1.561034798622131348e+00 6.259013652801513672e+00 6.126028438302455470e-06 7.617729352205060422e-06 4.123127382626989856e-06 9.931950444297399372e-07
6.220000000000000000e+02 5.498452782630920410e-01 9.180738449096679688e+00 -2.615779158077202737e-05 -3.909365204890491441e-06 -9.020146535476669669e-06 6.329272309812949970e-06
6.230000000000000000e+02 5.797453522682189941e-01 1.198599720001220703e+01 -3.192053554812446237e-05 -5.147410320205381140e-06 -1.112038353312527761e-05 7.551844646513927728e-06
6.240000000000000000e+02 1.736475825309753418e+00 1.176092720031738281e+01 1.683351729298010468e-05 -2.704296548472484574e-06 4.238765995978610590e-06 -3.483377213342464529e-06
6.250000000000000000e+02 6.204061508178710938e-01 1.620800590515136719e+01 2.489758480805903673e-05 -9.642866643844172359e-06 4.576415449264459312e-06 5.526446855697031424e-08
6.260000000000000000e+02 1.889230370521545410e+00 1.735205459594726562e+01 1.301325846725376323e-05 -9.406639037479180843e-06 1.081985715245536994e-06 1.520923615316860378e-05
6.270000000000000000e+02 6.312279701232910156e-01 1.761883163452148438e+01 -1.753044489305466413e-05 -1.161294039775384590e-05 -8.743015314394142479e-06 -7.239739261422073469e-07
6.280000000000000000e+02 6.543037891387939453e-01 2.186297607421875000e+01 -1.514740051788976416e-05 -1.689940290816593915e-05 -9.614041118766181171e-06 1.074985266313888133e-05
6.290000000000000000e+02 6.568514108657836914e-01 2.327811622619628906e+01 3.186806134181097150e-05 -7.391960934910457581e-06 7.342830031120683998e-06 -1.925872129504568875e-05
6.300000000000000000e+02 1.959482908248901367e+00 2.303422927856445312e+01 -1.036688263411633670e-05 1.303844783251406625e-06 -2.718911218835273758e-06 1.793685260054189712e-05
6.310000000000000000e+02 6.553452610969543457e-01 2.469043540954589844e+01 -4.307822746341116726e-05 2.076923010463360697e-06 -1.230039106303593144e-05 1.079383218893781304e-05
6.320000000000000000e+02 6.459537148475646973e-01 2.891197586059570312e+01 6.317761290119960904e-05 9.801188571145758033e-05 4.835685103898867965e-05 -3.868586281896568835e-05
6.330000000000000000e+02 6.662056446075439453e-01 3.032536315917968750e+01 -5.974236410111188889e-05 1.543073449283838272e-04 2.836949533957522362e-05 -1.012764550978317857e-05
6.340000000000000000e+02 3.143400907516479492e+00 2.972671127319335938e+01 6.895993465150240809e-06 8.745067316340282559e-05 2.830399898812174797e-05 -1.011144413496367633e-04
6.350000000000000000e+02 7.035943865776062012e-01 3.174165153503417969e+01 8.878343942342326045e-05 2.485307632014155388e-04 1.011942586046643555e-04 -7.629474566783756018e-05
6.360000000000000000e+02 7.892358899116516113e-01 3.595337677001953125e+01 -7.515349716413766146e-05 5.597472772933542728e-04 1.453781296731904149e-04 -6.107883382355794311e-05
6.370000000000000000e+02 2.357020139694213867e+00 3.690431594848632812e+01 -3.485456909402273595e-05 5.090819322504103184e-04 1.422682107659056783e-04 -2.318395854672417045e-04
6.380000000000000000e+02 1.009097695350646973e+00 3.868956375122070312e+01 2.252867852803319693e-05 7.556242635473608971e-04 2.334458840778097510e-04 -8.005122072063386440e-05
6.390000000000000000e+02 1.374596476554870605e+00 4.005872344970703125e+01 -3.554153954610228539e-05 8.255320717580616474e-04 2.369971625739708543e-04 -5.652069376083090901e-05
6.400000000000000000e+02 1.051978778839111328e+01 1.773515820503234863e+00 -9.603025318938307464e-06 -5.172337296244222671e-06 -4.432608875504229218e-06 -5.384757969295606017e-06
6.410000000000000000e+02 9.031180381774902344e+00 1.850049734115600586e+00 -5.382716153690125793e-06 -2.932073812189628370e-06 -2.494437012501293793e-06 -6.698569450236391276e-06
6.420000000000000000e+02 8.301868438720703125e+00 1.853797197341918945e+00 4.697702934208791703e-06 1.980899696718552150e-06 2.003580902965040877e-06 6.007241609040647745e-06
6.430000000000000000e+02 7.575733184814453125e+00 1.853042006492614746e+00 -4.390218236949294806e-06 -1.608233787919743918e-06 -1.799535652935446706e-06 -5.111265636514872313e-06
6.440000000000000000e+02 5.407358646392822266e+00 1.854175209999084473e+00 2.573888650658773258e-06 5.399172664510842878e-07 9.341417808172991499e-07 2.659030997165245935e-06
6.450000000000000000e+02 4.686922550201416016e+00 1.860733509063720703e+00 -3.605272922868607566e-06 4.420260495408001589e-07 -9.489741046309063677e-07 -1.592698822605598252e-06
6.460000000000000000e+02 3.966103553771972656e+00 1.871056318283081055e+00 3.905415724148042500e-06 -1.946158818100229837e-06 5.877770945517113432e-07 2.496026354492641985e-06
6.470000000000000000e+02 3.248899459838867188e+00 1.879485726356506348e+00 1.096145183510088827e-07 9.996037988457828760e-07 3.327654951590375276e-07 -4.524121777649270371e-06
6.480000000000000000e+02 2.542385339736938477e+00 1.879862904548645020e+00 -8.890550816431641579e-06 3.307643055450171232e-06 -1.674872237344970927e-06 7.566462727481848560e-07
6.490000000000000000e+02 1.843207359313964844e+00 1.881639480590820312e+00 6.575247880391543731e-06 -2.980459612444974482e-06 1.078436412171868142e-06 7.108067165972897783e-06
6.500000000000000000e+02 1.280651855468750000e+01 1.438445448875427246e+00 9.004316780192311853e-06 4.865916253038449213e-06 4.161070137342903763e-06 4.084468855580780655e-06
6.510000000000000000e+02 1.354957199096679688e+01 1.335943222045898438e+00 -9.062075150723103434e-06 -4.900567546428646892e-06 -4.188792900094995275e-06 -3.885545538651058450e-06
6.520000000000000000e+02 1.500034713745117188e+01 1.157469511032104492e+00 -8.046794391702860594e-06 -6.611271146539365873e-06 -4.397419615997932851e-06 -2.816030701069394127e-06
6.530000000000000000e+02 1.572522354125976562e+01 1.081017613410949707e+00 7.007337899267440662e-06 8.250465725723188370e-06 4.577341314870864153e-06 4.035289293824462220e-06
6.540000000000000000e+02 1.644911384582519531e+01 1.030869483947753906e+00 -8.827895726426504552e-06 -7.738127351331058890e-06 -4.969806923327269033e-06 -6.912606295372825116e-06
6.550000000000000000e+02 1.786061668395996094e+01 9.354287981986999512e-01 -1.361645354336360469e-05 -6.168330401123967022e-06 -5.935435183346271515e-06 -8.131826234603067860e-07
6.560000000000000000e+02 1.854800987243652344e+01 8.919293284416198730e-01 1.166211495728930458e-05 4.875613740296103060e-06 4.961318609275622293e-06 1.669555331318406388e-06
6.570000000000000000e+02 1.991629600524902344e+01 9.461006522178649902e-01 1.734850411594379693e-05 -3.679389237731811590e-06 4.100734258827287704e-06 -5.357189365895465016e-06
6.580000000000000000e+02 2.056338882446289062e+01 9.513629674911499023e-01 -1.170222367363749072e-05 2.814078925439389423e-07 -3.426244575166492723e-06 8.375289326068013906e-06
6.590000000000000000e+02 2.099192428588867188e+01 1.935894846916198730e+00 -1.771307779563358054e-06 -1.168133258033776656e-05 -4.035792244394542649e-06 9.247821253666188568e-06
6.600000000000000000e+02 2.112425041198730469e+01 1.043640613555908203e+00 7.130518952180864289e-06 -4.339949555287603289e-06 8.371708872800809331e-07 -2.932999223048682325e-06
6.610000000000000000e+02 2.227473449707031250e+01 1.618303060531616211e+00 1.302149030379951000e-05 1.101925772672984749e-05 7.212224318209337071e-06 6.760797077731695026e-06
6.620000000000000000e+02 1.923564338684082031e+01 9.099057912826538086e-01 -1.519110355729935691e-05 1.043566840053244960e-06 -4.244261162966722623e-06 -1.750632577568467241e-06
6.630000000000000000e+02 1.846380424499511719e+01 5.292816162109375000e+00 7.226745947264134884e-05 1.222567607328528538e-05 2.534793929953593761e-05 2.403932194283697754e-05
6.640000000000000000e+02 1.870404815673828125e+01 7.778295516967773438e+00 -1.171012918348424137e-04 -2.499886250006966293e-06 -3.588035178836435080e-05 -2.187723475799430162e-05
6.650000000000000000e+02 1.767230033874511719e+01 1.031942081451416016e+01 -1.496947807027027011e-04 -5.711096946470206603e-06 -4.662176434067077935e-05 -2.562708868936169893e-05
6.660000000000000000e+02 1.594451141357421875e+01 1.559317588806152344e+01 -1.992043980862945318e-04 -8.257582521764561534e-06 -6.223859236342832446e-05 -2.702611891436390579e-05
6.670000000000000000e+02 1.527732086181640625e+01 1.973632240295410156e+01 2.363716048421338201e-04 -2.176719863200560212e-05 6.438132550101727247e-05 7.729653589194640517e-06
6.680000000000000000e+02 1.523541355133056641e+01 2.113617706298828125e+01 -2.543008013162761927e-04 -2.238658271380700171e-05 -8.300621266243979335e-05 -2.563547468525939621e-06
6.690000000000000000e+02 1.531394863128662109e+01 2.394398689270019531e+01 -2.867626026272773743e-04 9.561374099575914443e-06 -8.316036837641149759e-05 3.127854506601579487e-05
6.700000000000000000e+02 1.654624557495117188e+01 3.156476593017578125e+01 -9.219386847689747810e-04 3.850624489132314920e-04 -1.610628678463399410e-04 -3.657942215795628726e-05
6.710000000000000000e+02 1.770828437805175781e+01 3.079609107971191406e+01 1.810676068998873234e-03 6.446981569752097130e-04 7.366122445091605186e-04 2.088684559566900134e-04
6.720000000000000000e+02 1.941772842407226562e+01 3.282610321044921875e+01 4.980142228305339813e-03 2.613608958199620247e-03 2.278125379234552383e-03 -3.081003669649362564e-04
6.730000000000000000e+02 2.225834846496582031e+01 3.575360870361328125e+01 -6.090522743761539459e-03 -6.816159002482891083e-04 -2.031641546636819839e-03 6.545057520270347595e-03
6.740000000000000000e+02 2.533940124511718750e+01 3.703126144409179688e+01 -9.702627547085285187e-03 -2.179697155952453613e-02 -9.449879638850688934e-03 1.263059303164482117e-02
6.750000000000000000e+02 2.677962684631347656e+01 3.714660263061523438e+01 -6.899961084127426147e-02 9.931094013154506683e-03 -1.772055402398109436e-02 2.727766148746013641e-02
6.760000000000000000e+02 2.827079200744628906e+01 3.739849090576171875e+01 -1.489502042531967163e-01 -9.776595048606395721e-03 -4.761803895235061646e-02 3.748013824224472046e-02
6.770000000000000000e+02 3.099180984497070312e+01 3.708794784545898438e+01 -2.818976938724517822e-01 3.458515554666519165e-02 -7.419376075267791748e-02 4.656888544559478760e-02
6.780000000000000000e+02 3.792231750488281250e+01 3.431658935546875000e+01 6.878409981727600098e-01 1.331128358840942383e+00 6.056908369064331055e-01 -9.264004230499267578e-01
6.790000000000000000e+02 4.008078002929687500e+01 3.224148941040039062e+01 1.196825027465820312e+00 4.352269172668457031e+00 1.664728283882141113e+00 -1.884734511375427246e+00
6.800000000000000000e+02 4.286491775512695312e+01 2.651290893554687500e+01 4.873402118682861328e-01 6.686450958251953125e+00 2.152137279510498047e+00 -5.226207971572875977e-01
6.810000000000000000e+02 4.168090820312500000e+01 2.364034652709960938e+01 5.892300512641668320e-03 7.046068668365478516e+00 2.115588188171386719e+00 9.899587370455265045e-03
6.820000000000000000e+02 4.169466400146484375e+01 2.080528259277343750e+01 3.618996962904930115e-02 7.375131130218505859e+00 2.223396301269531250e+00 1.504455208778381348e-01
6.830000000000000000e+02 4.167804718017578125e+01 1.938173866271972656e+01 2.813608385622501373e-02 7.761372566223144531e+00 2.336852550506591797e+00 2.182277888059616089e-01
6.840000000000000000e+02 4.276869583129882812e+01 1.635962677001953125e+01 5.543912649154663086e-01 8.014789581298828125e+00 2.570754289627075195e+00 1.147345900535583496e+00
6.850000000000000000e+02 4.156389617919921875e+01 1.652729415893554688e+01 1.903875619173049927e-01 9.105870246887207031e+00 2.788877487182617188e+00 7.743639349937438965e-01
6.860000000000000000e+02 4.079189682006835938e+01 1.080943202972412109e+01 8.120455741882324219e-01 1.147233581542968750e+01 3.685314416885375977e+00 2.630616903305053711e+00
6.870000000000000000e+02 3.656951522827148438e+01 1.726034998893737793e+00 -1.200135111808776855e+00 2.896737337112426758e+00 5.089806318283081055e-01 6.088197231292724609e-01
6.880000000000000000e+02 3.851012802124023438e+01 5.555790066719055176e-01 -3.116910934448242188e+00 7.802887916564941406e+00 1.405793190002441406e+00 8.002709746360778809e-01
6.890000000000000000e+02 3.015655326843261719e+01 -1.902416110038757324e+00 -5.369991302490234375e+00 -7.068973779678344727e-01 -1.823066592216491699e+00 -1.523188829421997070e+00
6.900000000000000000e+02 2.737565803527832031e+01 -1.993908166885375977e+00 -3.339849233627319336e+00 -1.552163511514663696e-01 -1.048519611358642578e+00 -1.639787554740905762e-01
6.910000000000000000e+02 2.276840019226074219e+01 -2.388261795043945312e+00 -9.682489037513732910e-01 9.061411768198013306e-02 -2.632904350757598877e-01 -9.640327095985412598e-02
6.920000000000000000e+02 2.191572761535644531e+01 -2.538240194320678711e+00 -8.839403390884399414e-01 3.152447193861007690e-02 -2.557247579097747803e-01 -8.198931068181991577e-02
6.930000000000000000e+02 1.864679718017578125e+01 -2.806228399276733398e+00 -7.582128047943115234e-01 -5.077607184648513794e-02 -2.426966577768325806e-01 -5.749912932515144348e-02
6.940000000000000000e+02 2.027680015563964844e+01 -2.708537101745605469e+00 -8.067710995674133301e-01 -3.862323611974716187e-02 -2.536182999610900879e-01 -7.604697346687316895e-02
6.950000000000000000e+02 1.704998970031738281e+01 -2.753092765808105469e+00 -7.237529754638671875e-01 -3.029737621545791626e-02 -2.262151092290878296e-01 -3.937119245529174805e-02
6.960000000000000000e+02 1.546545791625976562e+01 -2.650864839553833008e+00 -6.684272289276123047e-01 -1.153529062867164612e-02 -2.039887607097625732e-01 -2.829990349709987640e-02
6.970000000000000000e+02 1.241110420227050781e+01 -2.273897647857666016e+00 -5.412462949752807617e-01 2.670145966112613678e-02 -1.543634533882141113e-01 -4.654152691364288330e-02
6.980000000000000000e+02 1.315747928619384766e+01 -2.374829292297363281e+00 -5.768290758132934570e-01 1.677250489592552185e-02 -1.680169701576232910e-01 -3.844219818711280823e-02
6.990000000000000000e+02 1.168441772460937500e+01 -2.166386127471923828e+00 -5.052400231361389160e-01 3.252395987510681152e-02 -1.418148279190063477e-01 -5.739506334066390991e-02
7.000000000000000000e+02 9.473227500915527344e+00 -1.898732781410217285e+00 -3.935082852840423584e-01 3.972033038735389709e-02 -1.061363890767097473e-01 -7.772219926118850708e-02
7.010000000000000000e+02 8.669120788574218750e+00 -1.881213784217834473e+00 -3.502266108989715576e-01 2.859993837773799896e-02 -9.648799896240234375e-02 -8.721661567687988281e-02
7.020000000000000000e+02 7.857655525207519531e+00 -1.873261451721191406e+00 -3.044281303882598877e-01 1.947406306862831116e-02 -8.548621833324432373e-02 -9.998919069766998291e-02
7.030000000000000000e+02 6.232158660888671875e+00 -1.868971586227416992e+00 -2.219332754611968994e-01 3.652218030765652657e-03 -6.548431515693664551e-02 -1.133954450488090515e-01
7.040000000000000000e+02 4.608675956726074219e+00 -1.888385176658630371e+00 -1.424362212419509888e-01 -1.040904037654399872e-02 -4.585357755422592163e-02 -1.066707447171211243e-01
7.050000000000000000e+02 2.981385707855224609e+00 -1.985476493835449219e+00 -7.306162267923355103e-02 -2.861267514526844025e-02 -3.050228953361511230e-02 -8.158628642559051514e-02
7.060000000000000000e+02 3.239315032958984375e+00 -2.910869121551513672e+00 -8.243905007839202881e-02 -5.038695409893989563e-02 -3.984780237078666687e-02 -1.207090169191360474e-01
7.070000000000000000e+02 2.162559747695922852e+00 -2.074240922927856445e+00 -4.250369220972061157e-02 -4.179167002439498901e-02 -2.528860792517662048e-02 -5.963619053363800049e-02
7.080000000000000000e+02 1.328645348548889160e+00 -2.168840408325195312e+00 -1.928692683577537537e-02 -3.961704298853874207e-02 -1.767119206488132477e-02 -3.362097963690757751e-02
7.090000000000000000e+02 4.533298909664154053e-01 -2.210129976272583008e+00 -5.247196648269891739e-03 -2.025349251925945282e-02 -7.650206796824932098e-03 -1.249505300074815750e-02
7.100000000000000000e+02 2.099209308624267578e+00 -4.159930038452148438e+01 3.653738275170326233e-02 1.735202968120574951e-01 6.301730126142501831e-02 -1.041358802467584610e-02
7.110000000000000000e+02 1.109363079071044922e+00 -3.856809616088867188e+01 1.777241006493568420e-03 2.211555838584899902e-01 6.687984615564346313e-02 -2.560404688119888306e-02
7.120000000000000000e+02 5.907005667686462402e-01 -3.462260055541992188e+01 -7.271004840731620789e-03 3.359530568122863770e-01 9.860461205244064331e-02 -1.329096127301454544e-02
7.130000000000000000e+02 6.223583817481994629e-01 -3.326998138427734375e+01 -4.206631274428218603e-04 3.567424118518829346e-01 1.068965271115303040e-01 -3.576943883672356606e-03
7.140000000000000000e+02 4.634878635406494141e+00 -3.000154495239257812e+01 -1.736231446266174316e-01 -1.132675781846046448e-01 -8.606721460819244385e-02 1.597644388675689697e-01
7.150000000000000000e+02 1.945343613624572754e+00 -2.764302062988281250e+01 -6.378851085901260376e-02 -8.530375547707080841e-03 -2.169566601514816284e-02 2.272956371307373047e-01
7.160000000000000000e+02 6.404417753219604492e-01 -2.624209403991699219e+01 4.240704234689474106e-03 -1.554280072450637817e-01 -4.535618796944618225e-02 1.163218095898628235e-01
7.170000000000000000e+02 5.921023368835449219e+00 -2.503234481811523438e+01 -3.358804434537887573e-02 -9.292617440223693848e-03 -1.286419853568077087e-02 1.809579282999038696e-01
7.180000000000000000e+02 1.658094763755798340e+00 -2.206816482543945312e+01 4.268457368016242981e-02 -6.738230586051940918e-01 -1.893415451049804688e-01 2.989585697650909424e-01
7.190000000000000000e+02 6.808697700500488281e+00 -1.951212882995605469e+01 3.019349873065948486e-01 1.178399205207824707e+00 4.441002607345581055e-01 5.686457157135009766e-01
7.200000000000000000e+02 5.580559372901916504e-01 -2.203070068359375000e+01 1.270470023155212402e-02 -1.031947970390319824e+00 -3.057729899883270264e-01 1.095609068870544434e-01
7.210000000000000000e+02 6.288773417472839355e-01 -1.639436531066894531e+01 1.764921471476554871e-02 -1.416732311248779297e+00 -4.197249412536621094e-01 -2.717547491192817688e-02
7.220000000000000000e+02 6.166042685508728027e-01 -1.497370815277099609e+01 6.636857055127620697e-03 -1.321706533432006836e+00 -3.945209085941314697e-01 -5.368850752711296082e-02
7.230000000000000000e+02 6.004435420036315918e-01 -1.356115818023681641e+01 6.463894620537757874e-03 -1.176361680030822754e+00 -3.509693145751953125e-01 -6.891994923353195190e-02
7.240000000000000000e+02 1.799059867858886719e+00 -1.362712287902832031e+01 1.708643697202205658e-02 -8.356152176856994629e-01 -2.455586344003677368e-01 -1.822411119937896729e-01
7.250000000000000000e+02 5.518194437026977539e-01 -9.368012428283691406e+00 -3.851048182696104050e-03 -6.381869912147521973e-01 -1.926114112138748169e-01 -6.942060589790344238e-02
7.260000000000000000e+02 5.464719533920288086e-01 -7.978359222412109375e+00 -1.169317401945590973e-03 -4.657453298568725586e-01 -1.400743871927261353e-01 -6.334803253412246704e-02
7.270000000000000000e+02 4.008895397186279297e+00 -2.741214990615844727e+00 -1.135192587971687317e-01 -3.152279555797576904e-02 -4.351261630654335022e-02 -1.339340656995773315e-01
7.280000000000000000e+02 4.266419887542724609e+00 -3.483069419860839844e+00 -1.177226752042770386e-01 -4.353774711489677429e-02 -4.837812855839729309e-02 -1.664106696844100952e-01
7.290000000000000000e+02 7.104412078857421875e+01 -3.864607620239257812e+01 1.545497961342334747e-02 -1.087879482656717300e-02 1.372855622321367264e-03 1.627455838024616241e-02
7.300000000000000000e+02 5.184236526489257812e+01 -4.099699783325195312e+01 -9.248445183038711548e-02 9.684741497039794922e-01 2.627969086170196533e-01 -5.585178732872009277e-02
7.310000000000000000e+02 3.396590423583984375e+01 -3.620248413085937500e+01 -6.553496122360229492e-01 2.643903970718383789e+00 5.965663194656372070e-01 4.375316500663757324e-01
7.320000000000000000e+02 9.334074974060058594e+00 -3.881656265258789062e+01 6.745079532265663147e-03 -1.747891753911972046e-01 -5.041322857141494751e-02 1.350892428308725357e-02
7.330000000000000000e+02 7.963642883300781250e+01 -1.544589328765869141e+01 7.328562205657362938e-04 9.069866791833192110e-05 2.470664621796458960e-04 -1.647807948756963015e-04
7.340000000000000000e+02 7.830128479003906250e+01 -1.518453311920166016e+01 7.840544276405125856e-05 4.664566367864608765e-04 1.634586224099621177e-04 -4.236888780724257231e-04
7.350000000000000000e+02 7.743856048583984375e+01 -1.606050872802734375e+01 -2.019396633841097355e-04 2.378608041908591986e-04 1.077634351531742141e-05 -4.808373050764203072e-04
7.360000000000000000e+02 7.725945281982421875e+01 -1.823640823364257812e+01 1.074771746061742306e-03 -1.878418115666136146e-04 2.660789759829640388e-04 -2.797512570396065712e-04
7.370000000000000000e+02 7.945842742919921875e+01 -2.231842613220214844e+01 -1.024866010993719101e-03 7.379613816738128662e-04 -8.607136987848207355e-05 -2.711442539293784648e-05
7.380000000000000000e+02 7.816300201416015625e+01 -2.480987930297851562e+01 9.611910791136324406e-04 4.364678461570292711e-04 4.192976630292832851e-04 -3.082609619013965130e-04
7.390000000000000000e+02 7.939212036132812500e+01 -2.506270027160644531e+01 -1.096841879189014435e-03 1.233885413967072964e-03 4.111305679543875158e-05 1.036442045005969703e-04
7.400000000000000000e+02 7.933399963378906250e+01 -2.921906280517578125e+01 1.294484944082796574e-03 -2.045372239081189036e-04 3.269843000452965498e-04 3.252411843277513981e-04
7.410000000000000000e+02 7.798336029052734375e+01 -3.175341415405273438e+01 -2.355145756155252457e-03 -4.540591966360807419e-03 -2.068721223622560501e-03 4.017173778265714645e-03
7.420000000000000000e+02 7.933251190185546875e+01 -3.197899436950683594e+01 1.807778491638600826e-03 -4.330111201852560043e-03 -7.566998247057199478e-04 8.699071477167308331e-04
7.430000000000000000e+02 7.923091125488281250e+01 -3.606941223144531250e+01 -1.780313905328512192e-03 -1.462588552385568619e-02 -4.921860061585903168e-03 1.983345253393054008e-03
7.440000000000000000e+02 7.776147460937500000e+01 -3.564073181152343750e+01 2.788944868370890617e-03 -1.298103667795658112e-02 -3.057627473026514053e-03 5.580220371484756470e-03
7.450000000000000000e+02 7.911834716796875000e+01 -3.740972900390625000e+01 1.447738963179290295e-03 -1.756411790847778320e-02 -4.834914114326238632e-03 1.559216878376901150e-03
7.460000000000000000e+02 7.865303802490234375e+01 -4.011722946166992188e+01 2.384717110544443130e-03 -2.208545431494712830e-02 -5.910221487283706665e-03 8.382181986235082150e-04
7.470000000000000000e+02 7.892930603027343750e+01 -1.533433532714843750e+01 -3.179449122399091721e-04 -2.569043426774442196e-04 -1.724547764752060175e-04 3.635142929852008820e-04
7.480000000000000000e+02 7.773524475097656250e+01 -1.517123889923095703e+01 1.973822691070381552e-05 -1.912732841446995735e-04 -5.146051626070402563e-05 3.630647915997542441e-05
7.490000000000000000e+02 7.713554382324218750e+01 -1.526712036132812500e+01 3.274976625107228756e-04 -3.215579272364266217e-05 8.860255911713466048e-05 1.349694357486441731e-04
7.500000000000000000e+02 7.648204803466796875e+01 -1.532568740844726562e+01 -4.186611622571945190e-04 1.441020140191540122e-04 -8.236774010583758354e-05 -2.655237913131713867e-04
7.510000000000000000e+02 7.357332611083984375e+01 -1.548892116546630859e+01 -1.689616765361279249e-04 1.238855620613321662e-04 -1.352283652522601187e-05 -1.765567867550998926e-04
7.520000000000000000e+02 7.430827331542968750e+01 -1.543994712829589844e+01 4.065175016876310110e-04 -1.785023196134716272e-04 6.840455898782238364e-05 1.239746925421059132e-04
7.530000000000000000e+02 7.221833801269531250e+01 -1.652665901184082031e+01 4.029847914353013039e-04 -7.586104038637131453e-05 9.813712676987051964e-05 3.456837439443916082e-04
7.540000000000000000e+02 7.061048126220703125e+01 -1.582767581939697266e+01 -1.102283480577170849e-03 4.755819973070174456e-04 -1.880104537121951580e-04 -3.599115734687075019e-05
7.550000000000000000e+02 6.931868743896484375e+01 -1.719915008544921875e+01 1.934645464643836021e-03 1.221698126755654812e-03 9.469030774198472500e-04 -7.196714868769049644e-04
7.560000000000000000e+02 6.993415832519531250e+01 -1.585271644592285156e+01 1.096769701689481735e-03 -5.312058492563664913e-04 1.696691324468702078e-04 -3.158789768349379301e-04
7.570000000000000000e+02 7.299244689941406250e+01 -1.641622543334960938e+01 -2.387071581324562430e-04 1.478887861594557762e-04 -2.724551268329378217e-05 -1.894763263408094645e-04
7.580000000000000000e+02 6.882006835937500000e+01 -2.092980384826660156e+01 -2.631286624819040298e-03 4.027193936053663492e-04 -6.685701664537191391e-04 7.586219580844044685e-04
7.590000000000000000e+02 6.877983856201171875e+01 -2.231658172607421875e+01 2.945430343970656395e-03 1.124829053878784180e-03 1.221077749505639076e-03 -5.045757861807942390e-04
7.600000000000000000e+02 6.850785064697265625e+01 -2.512287902832031250e+01 3.008371219038963318e-03 2.347663044929504395e-03 1.606810255907475948e-03 -5.976732936687767506e-04
7.610000000000000000e+02 6.664992523193359375e+01 -2.902329254150390625e+01 -1.581379398703575134e-02 -5.767284892499446869e-03 -6.474324036389589310e-03 -5.900828167796134949e-03
7.620000000000000000e+02 6.451103210449218750e+01 -3.107575035095214844e+01 -6.570509821176528931e-02 -1.205777842551469803e-02 -2.332886308431625366e-02 -2.013323269784450531e-02
7.630000000000000000e+02 5.367818832397460938e+01 -2.968319511413574219e+01 5.895578861236572266e-02 1.964902579784393311e-01 7.663381099700927734e-02 -1.375586986541748047e-01
7.640000000000000000e+02 5.066179656982421875e+01 -2.657224464416503906e+01 2.454049587249755859e-01 4.072750508785247803e-01 1.958039999008178711e-01 -3.174119889736175537e-01
7.650000000000000000e+02 4.870283508300781250e+01 -2.447835350036621094e+01 3.793223798274993896e-01 5.272401571273803711e-01 2.719687819480895996e-01 -4.315583407878875732e-01
7.660000000000000000e+02 4.676429367065429688e+01 -2.241950035095214844e+01 5.571689605712890625e-01 8.503862023353576660e-01 4.222665429115295410e-01 -6.521410346031188965e-01
7.670000000000000000e+02 4.578824996948242188e+01 -2.142086410522460938e+01 6.833266019821166992e-01 1.142269611358642578e+00 5.476788878440856934e-01 -8.992028236389160156e-01
7.680000000000000000e+02 4.480755615234375000e+01 -2.043596076965332031e+01 9.737935066223144531e-01 1.827359557151794434e+00 8.403459191322326660e-01 -1.252672314643859863e+00
7.690000000000000000e+02 4.162508392333984375e+01 -9.251700401306152344e+00 4.409818649291992188e-01 2.474489688873291016e+00 8.746414780616760254e-01 -1.314189434051513672e+00
7.700000000000000000e+02 3.960344696044921875e+01 -9.049975395202636719e+00 -5.370264649391174316e-01 1.402117347717285156e+01 4.045244216918945312e+00 -1.685353279113769531e+00
7.710000000000000000e+02 4.003850936889648438e+01 -9.105548858642578125e+00 -3.562231659889221191e-01 1.176979446411132812e+01 3.424071550369262695e+00 -3.044204711914062500e+00
7.720000000000000000e+02 3.902582168579101562e+01 -5.899898529052734375e+00 1.527445316314697266e+00 1.456204795837402344e+01 4.826848030090332031e+00 8.156955838203430176e-01
7.730000000000000000e+02 3.851507568359375000e+01 -6.354643821716308594e+00 4.593929767608642578e+00 1.281140422821044922e+01 5.221600055694580078e+00 -7.217279672622680664e-01
7.740000000000000000e+02 3.824404144287109375e+01 -7.384737968444824219e+00 7.561018466949462891e+00 1.066434478759765625e+01 5.467608928680419922e+00 1.416052699089050293e+00
7.750000000000000000e+02 3.822920989990234375e+01 -7.176242351531982422e+00 7.430569171905517578e+00 1.074823951721191406e+01 5.453642845153808594e+00 7.276696562767028809e-01
7.760000000000000000e+02 3.827489852905273438e+01 -7.806951522827148438e+00 6.823369979858398438e+00 1.130298423767089844e+01 5.437906265258789062e+00 2.692907571792602539e+00
7.770000000000000000e+02 3.870107650756835938e+01 -8.527658462524414062e+00 2.798975706100463867e+00 1.413002967834472656e+01 5.078701496124267578e+00 2.749054431915283203e+00
7.780000000000000000e+02 4.183043670654296875e+01 -5.855442523956298828e+00 1.312281727790832520e+00 2.544983386993408203e+00 1.157179474830627441e+00 2.214738607406616211e+00
7.790000000000000000e+02 4.166222381591796875e+01 -5.872426986694335938e+00 1.529656052589416504e+00 2.979645967483520508e+00 1.352790594100952148e+00 2.683055162429809570e+00
7.800000000000000000e+02 4.146379089355468750e+01 -5.845428943634033203e+00 1.656100392341613770e+00 3.767983436584472656e+00 1.627225160598754883e+00 3.322629451751708984e+00
7.810000000000000000e+02 4.105118179321289062e+01 -5.810345172882080078e+00 1.823202610015869141e+00 5.861959457397460938e+00 2.305548667907714844e+00 4.738334178924560547e+00
7.820000000000000000e+02 4.051172637939453125e+01 -5.824105262756347656e+00 1.563435196876525879e+00 9.583183288574218750e+00 3.343985557556152344e+00 6.040212154388427734e+00
7.830000000000000000e+02 1.426242637634277344e+01 -1.632292366027832031e+01 1.348135352134704590e+00 1.686480939388275146e-01 4.550350308418273926e-01 -2.823581695556640625e-01
7.840000000000000000e+02 1.957027626037597656e+01 -1.721454811096191406e+01 6.477322578430175781e-01 -8.553646504878997803e-02 1.686587482690811157e-01 -7.951644062995910645e-02
7.850000000000000000e+02 1.928240394592285156e+01 -1.835679244995117188e+01 5.984833240509033203e-01 1.716733537614345551e-02 1.846951991319656372e-01 -1.221654713153839111e-01
7.860000000000000000e+02 2.184286689758300781e+01 -1.874815559387207031e+01 5.223710536956787109e-01 -8.305983617901802063e-03 1.542195230722427368e-01 2.431965898722410202e-03
7.870000000000000000e+02 2.422507667541503906e+01 -1.750630760192871094e+01 4.229454696178436279e-01 -5.031846463680267334e-02 1.117881014943122864e-01 1.618666201829910278e-01
7.880000000000000000e+02 2.089765357971191406e+01 -1.633948707580566406e+01 6.295797824859619141e-01 -1.532730460166931152e-01 1.428920179605484009e-01 2.383466064929962158e-02
7.890000000000000000e+02 2.829803657531738281e+01 -1.787750816345214844e+01 -3.525578081607818604e-01 3.556070849299430847e-02 -9.509912878274917603e-02 1.284092962741851807e-01
7.900000000000000000e+02 3.516353607177734375e+01 -2.463434600830078125e+01 1.069091916084289551e+00 9.060618400573730469e+00 3.038913011550903320e+00 1.619406104087829590e+00
7.910000000000000000e+02 2.692503547668457031e+01 -3.146823310852050781e+01 -4.532985091209411621e-01 6.584563851356506348e-02 -1.162358596920967102e-01 5.640678480267524719e-02
7.920000000000000000e+02 2.279825210571289062e+01 -3.175838470458984375e+01 -6.119986176490783691e-01 -1.530770584940910339e-02 -1.881919056177139282e-01 -5.879809707403182983e-02
7.930000000000000000e+02 2.418747138977050781e+01 -3.306191635131835938e+01 -3.515267670154571533e-01 6.375756114721298218e-02 -8.633076399564743042e-02 1.746529899537563324e-02
7.940000000000000000e+02 2.144377708435058594e+01 -3.185985374450683594e+01 -5.816250443458557129e-01 1.191512681543827057e-03 -1.741300523281097412e-01 -5.397775769233703613e-02
7.950000000000000000e+02 2.018563270568847656e+01 -3.347545242309570312e+01 -3.815510272979736328e-01 -1.087058521807193756e-02 -1.177264824509620667e-01 -6.331146508455276489e-02
7.960000000000000000e+02 1.750575065612792969e+01 -3.348082351684570312e+01 -3.692230284214019775e-01 -4.710154235363006592e-02 -1.248973757028579712e-01 -1.912041567265987396e-03
7.970000000000000000e+02 1.181444740295410156e+01 -3.123653411865234375e+01 -5.185810923576354980e-01 -7.426486164331436157e-02 -1.778537929058074951e-01 1.551413983106613159e-01
7.980000000000000000e+02 1.140055465698242188e+01 -1.618011474609375000e+01 1.652001261711120605e+00 1.700808405876159668e-01 5.466246604919433594e-01 2.385170906782150269e-01
7.990000000000000000e+02 4.032791519165039062e+01 -5.776561260223388672e+00 1.176405310630798340e+00 1.098351478576660156e+01 3.647975921630859375e+00 5.902126789093017578e+00
8.000000000000000000e+02 3.922158050537109375e+01 -5.760755062103271484e+00 7.766059041023254395e-01 1.468988513946533203e+01 4.639947414398193359e+00 1.845440149307250977e+00
8.010000000000000000e+02 3.967988967895507812e+01 -5.675686359405517578e+00 2.754757702350616455e-01 1.392487525939941406e+01 4.260105133056640625e+00 3.886608362197875977e+00
8.020000000000000000e+02 3.918352508544921875e+01 -8.919339179992675781e+00 2.766558825969696045e-01 1.482529640197753906e+01 4.530585765838623047e+00 4.524542689323425293e-01
8.030000000000000000e+02 3.884012222290039062e+01 -8.673504829406738281e+00 2.040211439132690430e+00 1.458842182159423828e+01 4.988589763641357422e+00 2.297234773635864258e+00
8.040000000000000000e+02 3.823223876953125000e+01 -6.963783264160156250e+00 7.091779708862304688e+00 1.095292377471923828e+01 5.413411140441894531e+00 9.878649562597274780e-02
8.050000000000000000e+02 3.566891098022460938e+01 -1.482033729553222656e+00 -3.120896100997924805e+00 3.051400184631347656e+00 -2.084875851869583130e-02 -2.300356514751911163e-02
8.060000000000000000e+02 3.858980560302734375e+01 -8.372159957885742188e+00 3.972442626953125000e+00 1.363903713226318359e+01 5.283443927764892578e+00 3.245376825332641602e+00
8.070000000000000000e+02 3.475874710083007812e+01 -2.493436813354492188e+00 -2.052274942398071289e+00 2.223683357238769531e+00 5.142251402139663696e-02 -2.884759008884429932e-01
8.080000000000000000e+02 3.831597900390625000e+01 -8.030165672302246094e+00 5.777647018432617188e+00 1.194584655761718750e+01 5.317048072814941406e+00 3.005921363830566406e+00
8.090000000000000000e+02 3.944957733154296875e+01 -5.705585479736328125e+00 4.114288985729217529e-01 1.444320487976074219e+01 4.456389904022216797e+00 2.676921367645263672e+00
8.100000000000000000e+02 4.142622375488281250e+01 -9.533559799194335938e+00 3.440988957881927490e-01 3.621929645538330078e+00 1.189808607101440430e+00 -1.647095084190368652e+00
8.110000000000000000e+02 4.026115798950195312e+01 -9.109805107116699219e+00 -9.118116647005081177e-02 9.857545852661132812e+00 2.929909229278564453e+00 -3.478775024414062500e+00
8.120000000000000000e+02 4.105503082275390625e+01 -9.137446403503417969e+00 4.187595248222351074e-01 4.930340766906738281e+00 1.604730010032653809e+00 -2.510696411132812500e+00
8.130000000000000000e+02 4.068098068237304688e+01 -5.836023807525634766e+00 1.881563067436218262e+00 7.806681632995605469e+00 2.906473398208618164e+00 5.702330112457275391e+00
8.140000000000000000e+02 4.133422851562500000e+01 -4.111477851867675781e+00 5.376201868057250977e-01 7.754739284515380859e+00 2.487707853317260742e+00 3.861828565597534180e+00
8.150000000000000000e+02 4.085168838500976562e+01 -9.116654396057128906e+00 5.727614760398864746e-01 6.094732284545898438e+00 2.000248193740844727e+00 -3.129814624786376953e+00
8.160000000000000000e+02 4.054675674438476562e+01 -9.350758552551269531e+00 1.399523019790649414e-01 8.434003829956054688e+00 2.572186946868896484e+00 -3.465823888778686523e+00
8.170000000000000000e+02 3.958417892456054688e+01 -9.365400314331054688e+00 -7.360478043556213379e-01 1.300638103485107422e+01 3.681100130081176758e+00 -1.720646739006042480e+00
8.180000000000000000e+02 4.012533187866210938e+01 -5.729198932647705078e+00 8.339558839797973633e-01 1.198195838928222656e+01 3.844774246215820312e+00 5.520225524902343750e+00
8.190000000000000000e+02 4.237427520751953125e+01 -3.805872678756713867e+00 5.370556712150573730e-01 8.136710166931152344e+00 2.602129697799682617e+00 2.451129436492919922e+00
8.200000000000000000e+02 4.066222381591796875e+01 -9.085392951965332031e+00 2.631306350231170654e-01 6.954370021820068359e+00 2.165250062942504883e+00 -3.248578548431396484e+00
8.210000000000000000e+02 4.125612258911132812e+01 -9.160441398620605469e+00 5.894974470138549805e-01 3.562803030014038086e+00 1.245690107345581055e+00 -2.113890409469604492e+00
8.220000000000000000e+02 3.990379333496093750e+01 -5.668016433715820312e+00 3.530327379703521729e-01 1.302117156982421875e+01 4.012261390686035156e+00 4.713625907897949219e+00
8.230000000000000000e+02 4.198239135742187500e+01 -5.748072147369384766e+00 9.727450609207153320e-01 2.533344030380249023e+00 1.051826715469360352e+00 1.731039404869079590e+00
8.240000000000000000e+02 7.578032684326171875e+01 -1.536388969421386719e+01 5.238127196207642555e-04 -1.882062206277623773e-04 1.006819438771344721e-04 8.827468263916671276e-05
8.250000000000000000e+02 7.941821289062500000e+01 -1.815520858764648438e+01 9.695354383438825607e-04 8.273083949461579323e-05 3.156798775307834148e-04 -1.987179275602102280e-04
8.260000000000000000e+02 7.599861145019531250e+01 -1.624704742431640625e+01 -5.841488018631935120e-04 2.418878721073269844e-04 -1.026782774715684354e-04 -1.467019174015149474e-04
8.270000000000000000e+02 7.801057434082031250e+01 -1.574801635742187500e+01 -1.620789844309911132e-04 -3.354871005285531282e-04 -1.492698211222887039e-04 1.559126685606315732e-04
8.280000000000000000e+02 6.865327453613281250e+01 -1.633403396606445312e+01 4.372779221739619970e-04 -5.048704333603382111e-04 -2.027776463364716619e-05 -3.708111180458217859e-04
8.290000000000000000e+02 6.894804382324218750e+01 -1.823977851867675781e+01 -1.920008566230535507e-03 -4.184390127193182707e-04 -7.015342707745730877e-04 8.041842957027256489e-04
8.300000000000000000e+02 7.727621459960937500e+01 -6.525633811950683594e+00 -1.098011527210474014e-02 2.014001831412315369e-03 -2.689833985641598701e-03 3.310303203761577606e-03
8.310000000000000000e+02 7.952949523925781250e+01 -9.731646537780761719e+00 9.621523204259574413e-04 2.145697362720966339e-02 6.725737825036048889e-03 4.567163065075874329e-03
8.320000000000000000e+02 7.840052032470703125e+01 -6.712101459503173828e+00 -4.293512087315320969e-03 2.203709259629249573e-02 5.323073826730251312e-03 6.239718757569789886e-03
8.330000000000000000e+02 7.946013641357421875e+01 -8.287090301513671875e+00 -6.287913420237600803e-04 3.367999196052551270e-02 9.915360249578952789e-03 5.092462990432977676e-03
8.340000000000000000e+02 7.664376831054687500e+01 -1.064686012268066406e+01 6.205306854099035263e-03 1.183410757221281528e-03 2.216615248471498489e-03 1.434175204485654831e-02
8.350000000000000000e+02 2.029983901977539062e+01 4.127868652343750000e+00 6.497323192888870835e-05 3.629651018854929134e-06 2.058086465694941580e-05 7.215025448203959968e-07
8.360000000000000000e+02 2.148739624023437500e+01 2.556622982025146484e+00 -1.202463681693188846e-05 -3.392940925550647080e-06 -4.625273049896350130e-06 -1.253231039299862459e-05
8.370000000000000000e+02 1.913972282409667969e+01 3.144881725311279297e+00 5.590405635302886367e-05 1.026175050355959684e-05 1.984974187507759780e-05 1.888143742689862847e-05
8.380000000000000000e+02 1.759580612182617188e+01 7.702311038970947266e+00 9.660791693022474647e-05 2.063834017462795600e-06 2.960152414743788540e-05 3.091671896982006729e-05
8.390000000000000000e+02 1.998287773132324219e+01 1.585307240486145020e+00 -2.452925946272443980e-05 2.675559926501591690e-06 -6.556109838129486889e-06 6.819427198934135959e-06
8.400000000000000000e+02 1.978000640869140625e+01 5.303058624267578125e+00 -7.213770004455000162e-05 -4.296712177165318280e-06 -2.293032412126194686e-05 -9.792767741600982845e-06
8.410000000000000000e+02 1.646266555786132812e+01 2.588468790054321289e+00 -9.712781320558860898e-06 -1.556946881464682519e-05 -7.584675131511176005e-06 3.467878286755876616e-06
8.420000000000000000e+02 6.129105091094970703e+00 1.851505994796752930e+00 -2.840726665453985333e-06 -1.148406227002851665e-06 -1.196739844999683555e-06 -3.334613666083896533e-06
8.430000000000000000e+02 9.778570175170898438e+00 2.512688398361206055e+00 -8.287732271128334105e-06 -5.825888365507125854e-06 -4.234086190990637988e-06 -5.001122644898714498e-06
8.440000000000000000e+02 7.550287246704101562e+00 2.554697990417480469e+00 4.806927790923509747e-06 2.934084932348923758e-06 2.322303771506994963e-06 5.711593075830023736e-06
8.450000000000000000e+02 6.851994037628173828e+00 1.851407766342163086e+00 3.057373305637156591e-06 1.308335868088761345e-06 1.309712729380407836e-06 4.683342012867797166e-06
8.460000000000000000e+02 6.825929164886474609e+00 2.552318572998046875e+00 -4.189284027233952656e-06 -2.534931354603031650e-06 -2.017264705500565469e-06 -4.583164354698965326e-06
8.470000000000000000e+02 8.268450736999511719e+00 3.251684188842773438e+00 8.207883183786179870e-06 4.209095550322672352e-06 3.725093392858980224e-06 4.649230049835750833e-06
8.480000000000000000e+02 6.093282222747802734e+00 3.989547967910766602e+00 -1.460579710510501172e-06 4.675358923122985289e-06 9.644338661018991843e-07 5.996920663164928555e-06
8.490000000000000000e+02 1.613929986953735352e+00 7.624792098999023438e+00 -1.037924812408164144e-05 -8.127661203616298735e-06 -5.552073162107262760e-06 3.746944230442750268e-06
8.500000000000000000e+02 4.040322601795196533e-01 3.784833431243896484e+00 -3.986215233453549445e-05 -8.840860573400277644e-06 -1.461090414522914216e-05 -1.257583335245726630e-05
8.510000000000000000e+02 2.446195363998413086e+00 3.600136041641235352e+00 -7.769664989609736949e-06 -1.633792453503701836e-05 -7.232276857394026592e-06 1.398753647663397714e-05
8.520000000000000000e+02 3.938797712326049805e-01 2.095454216003417969e+00 5.965041509625734761e-06 1.911523895614664070e-06 2.362969553360017017e-06 3.976861080445814878e-06
8.530000000000000000e+02 1.140854835510253906e+00 1.934837937355041504e+00 3.934643700631568208e-06 -1.805601414162083529e-06 6.387126632034778595e-07 -1.215426800627028570e-05
8.540000000000000000e+02 1.128580760955810547e+01 1.665637373924255371e+00 8.840182090352755040e-06 5.951218554400838912e-06 4.437420102476608008e-06 5.756227437814231962e-06
8.550000000000000000e+02 9.020546913146972656e+00 3.237198591232299805e+00 -9.747931471792981029e-06 -5.510215942194918171e-06 -4.577444087772164494e-06 -4.022264874947723001e-06
8.560000000000000000e+02 1.023501682281494141e+01 -1.959952592849731445e+00 -4.343095123767852783e-01 4.158716648817062378e-02 -1.178167015314102173e-01 -6.810718029737472534e-02
8.570000000000000000e+02 1.097548580169677734e+01 -2.830544471740722656e+00 -4.345943629741668701e-01 5.175880715250968933e-02 -1.148506626486778259e-01 -1.025168895721435547e-01
8.580000000000000000e+02 1.025859928131103516e+01 -3.518668174743652344e+00 -3.702916204929351807e-01 6.571327149868011475e-02 -9.137350320816040039e-02 -1.442113220691680908e-01
8.590000000000000000e+02 9.488392829895019531e+00 -2.686378240585327148e+00 -3.706768155097961426e-01 4.982996731996536255e-02 -9.625405073165893555e-02 -1.182544827461242676e-01
8.600000000000000000e+02 1.429884147644042969e+01 1.975797653198242188e+00 -1.373389022774063051e-05 -9.424648851563688368e-06 -6.947561814740765840e-06 -2.898093043768312782e-06
8.610000000000000000e+02 1.574791049957275391e+01 1.843541145324707031e+00 -9.622485777072142810e-06 -1.312467884417856112e-05 -6.824149295425741002e-06 -1.421051138095208444e-06
8.620000000000000000e+02 1.502032756805419922e+01 1.896933436393737793e+00 1.231707665283465758e-05 1.060123850038507953e-05 6.875494364066980779e-06 1.520095906926144380e-06
8.630000000000000000e+02 1.204762363433837891e+01 1.552093505859375000e+00 -8.831424565869383514e-06 -5.675235115631949157e-06 -4.351997631601989269e-06 -5.011647772334981710e-06
8.640000000000000000e+02 7.283899688720703125e+01 -1.556420135498046875e+01 2.564492751844227314e-04 -1.252403308171778917e-04 3.936267967219464481e-05 3.120426263194531202e-04
8.650000000000000000e+02 7.316534423828125000e+01 -1.726310729980468750e+01 6.039761938154697418e-04 -4.524511750787496567e-04 4.545751289697363973e-05 4.500864306464791298e-04
8.660000000000000000e+02 7.829662322998046875e+01 -1.813668823242187500e+01 -8.519894909113645554e-04 2.766518446151167154e-04 -1.726012997096404433e-04 -1.790568931028246880e-04
8.670000000000000000e+02 7.373841857910156250e+01 -1.633258819580078125e+01 4.927061381749808788e-04 -2.475629444234073162e-04 7.354295667028054595e-05 2.240466565126553178e-04
8.680000000000000000e+02 7.135124206542968750e+01 -1.576053142547607422e+01 7.063410594128072262e-04 -2.583503955975174904e-04 1.343971962342038751e-04 5.728662363253533840e-04
8.690000000000000000e+02 7.843811798095703125e+01 -2.081113815307617188e+01 -1.115829916670918465e-03 3.012731613125652075e-04 -2.443670236971229315e-04 -2.983520098496228456e-04
8.700000000000000000e+02 6.980285644531250000e+01 -1.648128318786621094e+01 -1.346783945336937904e-03 -5.422914982773363590e-04 -5.667226505465805531e-04 1.045638462528586388e-03
8.710000000000000000e+02 7.007246398925781250e+01 -1.998696517944335938e+01 -2.119411714375019073e-03 1.598955464032769669e-06 -6.353438366204500198e-04 7.348874933086335659e-04
8.720000000000000000e+02 6.808403778076171875e+01 -8.613267898559570312e+00 -6.779205519706010818e-03 -2.624609973281621933e-03 -2.821144647896289825e-03 -1.244127657264471054e-02
8.730000000000000000e+02 7.161884307861328125e+01 -1.119150257110595703e+01 1.361065357923507690e-02 -1.040616910904645920e-02 9.613455622456967831e-04 -4.532904829829931259e-03
8.740000000000000000e+02 6.858688354492187500e+01 -1.134314346313476562e+01 1.498657558113336563e-02 5.635739769786596298e-03 6.186694838106632233e-03 -1.786328852176666260e-02
8.750000000000000000e+02 7.312374877929687500e+01 -1.108693313598632812e+01 1.147090550512075424e-02 -7.723896298557519913e-03 1.124102738685905933e-03 3.443905850872397423e-03
8.760000000000000000e+02 7.385681152343750000e+01 -1.102423000335693359e+01 1.285115070641040802e-02 -6.534254644066095352e-03 1.895068911835551262e-03 7.343352772295475006e-03
8.770000000000000000e+02 7.318033599853515625e+01 -1.174692821502685547e+01 2.004721201956272125e-02 -4.689542576670646667e-03 4.607300739735364914e-03 3.610967658460140228e-03
8.780000000000000000e+02 7.596765136718750000e+01 -1.077758693695068359e+01 5.884596146643161774e-03 -7.668106118217110634e-04 1.535335672087967396e-03 1.461971271783113480e-02
8.790000000000000000e+02 7.527930450439453125e+01 -1.087141323089599609e+01 1.035459898412227631e-02 -3.185712033882737160e-03 2.150665968656539917e-03 1.246473751962184906e-02
8.800000000000000000e+02 1.475180912017822266e+01 -3.287107229232788086e+00 -5.634390711784362793e-01 5.526059307157993317e-03 -1.673738956451416016e-01 -6.029025092720985413e-02
8.810000000000000000e+02 1.320800113677978516e+01 -3.111442327499389648e+00 -5.182026028633117676e-01 3.154808282852172852e-02 -1.459963619709014893e-01 -7.453887909650802612e-02
8.820000000000000000e+02 1.633672142028808594e+01 -3.428342103958129883e+00 -6.023984551429748535e-01 -2.326284721493721008e-02 -1.876983940601348877e-01 -5.770973116159439087e-02
8.830000000000000000e+02 9.025082588195800781e+00 2.544705629348754883e+00 6.746245162503328174e-06 4.832811100641265512e-06 3.473716787993907928e-06 5.518551915884017944e-06
8.840000000000000000e+02 1.131429100036621094e+01 2.366762876510620117e+00 -1.144848920375807211e-05 -8.195786904252599925e-06 -5.893282832403201610e-06 -5.375549335440155119e-06
8.850000000000000000e+02 1.356907558441162109e+01 2.069769382476806641e+00 1.387678184983087704e-05 8.876249012246262282e-06 6.825909167673671618e-06 4.336510301072848961e-06
8.860000000000000000e+02 1.282695293426513672e+01 2.167941808700561523e+00 -1.295798210776410997e-05 -8.985268323158379644e-06 -6.582974947377806529e-06 -5.812497875012923032e-06
8.870000000000000000e+02 1.945834922790527344e+01 -2.780779123306274414e+00 -7.785201668739318848e-01 -6.074543297290802002e-02 -2.517796754837036133e-01 -7.076989114284515381e-02
8.880000000000000000e+02 1.553743171691894531e+01 -3.366549491882324219e+00 -5.823279619216918945e-01 -1.445225253701210022e-02 -1.790340542793273926e-01 -5.868077650666236877e-02
8.890000000000000000e+02 1.795228767395019531e+01 -3.501452684402465820e+00 -6.347743272781372070e-01 -5.138736218214035034e-02 -2.058485001325607300e-01 -6.692876666784286499e-02
8.900000000000000000e+02 1.714406013488769531e+01 -3.472443580627441406e+00 -6.168899536132812500e-01 -4.613546282052993774e-02 -1.989076137542724609e-01 -6.413073092699050903e-02
8.910000000000000000e+02 2.042839813232421875e+01 -3.433441877365112305e+00 -7.114875316619873047e-01 -5.806369706988334656e-02 -2.308653742074966431e-01 -1.033709719777107239e-01
8.920000000000000000e+02 2.296812057495117188e+01 -3.181268453598022461e+00 -9.480245709419250488e-01 5.127419903874397278e-02 -2.690251171588897705e-01 -2.013650685548782349e-01
8.930000000000000000e+02 1.876649665832519531e+01 -3.509088039398193359e+00 -6.516512632369995117e-01 -6.932500004768371582e-02 -2.162928730249404907e-01 -7.906936854124069214e-02
8.940000000000000000e+02 8.713479042053222656e+00 -2.647478342056274414e+00 -3.320066928863525391e-01 4.228916764259338379e-02 -8.691526204347610474e-02 -1.287088543176651001e-01
8.950000000000000000e+02 6.348024368286132812e+00 -2.611597776412963867e+00 -2.173136174678802490e-01 3.443629480898380280e-03 -6.416099518537521362e-02 -1.478776782751083374e-01
8.960000000000000000e+02 7.044580936431884766e+00 -1.869737625122070312e+00 -2.634111046791076660e-01 8.125974796712398529e-03 -7.658553868532180786e-02 -1.084663569927215576e-01
8.970000000000000000e+02 7.926447391510009766e+00 -2.626194477081298828e+00 -2.940875887870788574e-01 2.880384586751461029e-02 -7.958512008190155029e-02 -1.367463022470474243e-01
8.980000000000000000e+02 7.136134624481201172e+00 -2.615656137466430664e+00 -2.542141377925872803e-01 1.763843931257724762e-02 -7.097270339727401733e-02 -1.456199437379837036e-01
8.990000000000000000e+02 5.420753479003906250e+00 -1.873225927352905273e+00 -1.811951994895935059e-01 -6.086852867156267166e-03 -5.618461593985557556e-02 -1.110760644078254700e-01
9.000000000000000000e+02 4.784805774688720703e+00 -2.653595209121704102e+00 -1.464268118143081665e-01 -2.003345265984535217e-02 -4.993808269500732422e-02 -1.411644965410232544e-01
9.010000000000000000e+02 1.659834861755371094e+00 -9.547797203063964844e+00 -4.836081527173519135e-03 -5.202482938766479492e-01 -1.575253158807754517e-01 -1.927997916936874390e-01
9.020000000000000000e+02 5.618374347686767578e-01 -6.585446357727050781e+00 -3.305125981569290161e-03 -3.112124800682067871e-01 -9.435528516769409180e-02 -5.679953470826148987e-02
9.030000000000000000e+02 2.962922573089599609e+00 -4.104240417480468750e+00 -6.410069018602371216e-02 -9.260290116071701050e-02 -4.701107740402221680e-02 -1.507196724414825439e-01
9.040000000000000000e+02 5.860672593116760254e-01 -3.677387952804565430e+00 -1.143512502312660217e-02 -8.967310190200805664e-02 -3.033246658742427826e-02 -3.624311089515686035e-02
9.050000000000000000e+02 2.523345375061035156e+01 -1.825301647186279297e+00 -1.455977082252502441e+00 -4.454251006245613098e-02 -4.501558840274810791e-01 8.443657308816909790e-02
9.060000000000000000e+02 2.043116092681884766e+00 -3.190482330322265625e+01 -3.159955888986587524e-02 1.756382137537002563e-01 4.321159794926643372e-02 2.244240790605545044e-02
9.070000000000000000e+02 3.843266296386718750e+01 -2.064546012878417969e+01 6.501318514347076416e-02 6.260821342468261719e+00 1.897750258445739746e+00 7.454529404640197754e-01
9.080000000000000000e+02 3.802073287963867188e+01 -1.730255889892578125e+01 -4.055642485618591309e-01 6.513265132904052734e+00 1.832310318946838379e+00 6.628569960594177246e-02
9.090000000000000000e+02 7.742971420288085938e+00 -1.530667686462402344e+01 5.987154245376586914e-01 4.394339621067047119e-01 3.114448189735412598e-01 5.417319759726524353e-02
9.100000000000000000e+02 5.887807369232177734e+00 -2.775132369995117188e+01 -3.488532006740570068e-01 -3.657035231590270996e-01 -2.143670171499252319e-01 3.305818140506744385e-01
9.110000000000000000e+02 3.351271438598632812e+01 -1.744823455810546875e+01 -1.296458363533020020e+00 9.231413602828979492e-01 -1.119951158761978149e-01 -2.334120571613311768e-01
9.120000000000000000e+02 3.838899230957031250e+01 -2.367820167541503906e+01 7.953052520751953125e-01 5.499855995178222656e+00 1.888548493385314941e+00 6.115425229072570801e-01
9.130000000000000000e+02 1.007991027832031250e+01 -3.455161666870117188e+01 -1.612065285444259644e-01 -2.094303965568542480e-01 -1.111910790205001831e-01 8.850270509719848633e-02
9.140000000000000000e+02 4.183013916015625000e+00 -1.983872222900390625e+01 2.550717890262603760e-01 -4.785265773534774780e-02 6.216573715209960938e-02 3.345381021499633789e-01
9.150000000000000000e+02 1.784729838371276855e+00 -1.938121414184570312e+01 7.052022218704223633e-02 -9.021504521369934082e-01 -2.494890689849853516e-01 1.305394172668457031e-01
9.160000000000000000e+02 1.267720985412597656e+01 -1.492052745819091797e+01 1.083472251892089844e+00 2.895186245441436768e-01 4.118972718715667725e-01 3.798551391810178757e-03
9.170000000000000000e+02 1.282608699798583984e+01 -1.605185699462890625e+01 1.662459492683410645e+00 1.329664736986160278e-01 5.386278033256530762e-01 -9.016069769859313965e-02
9.180000000000000000e+02 2.842185401916503906e+01 -3.133557510375976562e+01 -1.625709235668182373e-01 2.161387056112289429e-01 1.607033610343933105e-02 2.636207044124603271e-01
9.190000000000000000e+02 3.077201271057128906e+01 -3.178494071960449219e+01 1.595920473337173462e-01 1.324313282966613770e+00 4.451716244220733643e-01 9.703123569488525391e-01
9.200000000000000000e+02 1.319505786895751953e+01 -3.155042457580566406e+01 -4.653609693050384521e-01 -4.183525964617729187e-02 -1.521588712930679321e-01 1.057802140712738037e-01
9.210000000000000000e+02 1.038154506683349609e+01 -3.091544723510742188e+01 -6.173638701438903809e-01 -2.212146371603012085e-01 -2.515735626220703125e-01 2.758979201316833496e-01
9.220000000000000000e+02 3.177945852279663086e+00 -1.652410888671875000e+01 1.740268617868423462e-01 -5.067715644836425781e-01 -9.982341527938842773e-02 -5.414031818509101868e-02
9.230000000000000000e+02 3.403979110717773438e+01 -2.928174209594726562e+01 6.172769665718078613e-01 3.921409606933593750e+00 1.361606001853942871e+00 1.321446299552917480e+00
9.240000000000000000e+02 2.187893486022949219e+01 -1.759932327270507812e+01 5.541931390762329102e-01 -9.024326503276824951e-02 1.391849666833877563e-01 2.999837137758731842e-02
9.250000000000000000e+02 3.571715545654296875e+01 -2.669485664367675781e+01 9.504281282424926758e-01 6.045411109924316406e+00 2.098751783370971680e+00 9.751995205879211426e-01
9.260000000000000000e+02 1.004004573822021484e+01 -1.527823352813720703e+01 1.075038671493530273e+00 4.168579876422882080e-01 4.475690126419067383e-01 2.892245948314666748e-01
9.270000000000000000e+02 1.726574516296386719e+01 -1.637281417846679688e+01 8.296065926551818848e-01 -4.200372844934463501e-02 2.362808585166931152e-01 -1.575335115194320679e-01
9.280000000000000000e+02 1.608256340026855469e+01 -1.583123111724853516e+01 9.740188717842102051e-01 2.394722402095794678e-02 2.993898391723632812e-01 -1.303650587797164917e-01
9.290000000000000000e+02 3.316054534912109375e+01 -2.832365226745605469e+01 1.666964054107666016e+00 3.611210107803344727e+00 1.583452224731445312e+00 2.228547334671020508e+00
9.300000000000000000e+02 3.497631454467773438e+01 -2.804195404052734375e+01 7.536315917968750000e-01 5.047031879425048828e+00 1.740198969841003418e+00 1.334018349647521973e+00
9.310000000000000000e+02 6.509426236152648926e-01 -2.765632820129394531e+01 -2.349282801151275635e-02 7.564944773912429810e-02 1.564698480069637299e-02 9.500417113304138184e-02
9.320000000000000000e+02 8.860096931457519531e+00 -1.535033035278320312e+01 7.032357454299926758e-01 5.338014364242553711e-01 3.711111545562744141e-01 1.882053762674331665e-01
9.330000000000000000e+02 1.803186225891113281e+01 -1.796456718444824219e+01 6.480410099029541016e-01 1.683801226317882538e-02 1.994636952877044678e-01 -1.992489993572235107e-01
9.340000000000000000e+02 3.291749572753906250e+01 -3.031571769714355469e+01 5.149883031845092773e-01 2.944849014282226562e+00 1.037951231002807617e+00 1.325724244117736816e+00
9.350000000000000000e+02 3.765723419189453125e+01 -2.173549270629882812e+01 2.812922894954681396e-01 6.144951343536376953e+00 1.927873134613037109e+00 8.930259943008422852e-01
9.360000000000000000e+02 1.841991996765136719e+01 -1.684049797058105469e+01 7.345979213714599609e-01 -4.614689573645591736e-02 2.065353095531463623e-01 -1.234744116663932800e-01
9.370000000000000000e+02 2.055551910400390625e+01 -1.862990188598632812e+01 5.450045466423034668e-01 -3.672039508819580078e-02 1.524852365255355835e-01 -6.298691779375076294e-02
9.380000000000000000e+02 2.008032035827636719e+01 -3.191628074645996094e+01 -5.252220630645751953e-01 -1.895653456449508667e-02 -1.632535904645919800e-01 -3.867689520120620728e-02
9.390000000000000000e+02 2.292410469055175781e+01 -3.324994659423828125e+01 -3.639508783817291260e-01 2.383155375719070435e-02 -1.020357981324195862e-01 -4.604523628950119019e-02
9.400000000000000000e+02 2.157735061645507812e+01 -3.338369750976562500e+01 -3.645585477352142334e-01 -1.822804845869541168e-02 -1.148359775543212891e-01 -5.613109841942787170e-02
9.410000000000000000e+02 2.072388458251953125e+01 -1.747178840637207031e+01 6.092489361763000488e-01 -7.283858954906463623e-02 1.609231084585189819e-01 -1.939769461750984192e-02
9.420000000000000000e+02 2.573202133178710938e+01 -1.840245819091796875e+01 2.938203811645507812e-01 6.847171112895011902e-03 9.020026028156280518e-02 1.166429445147514343e-01
9.430000000000000000e+02 2.400934028625488281e+01 -1.638308906555175781e+01 4.616007506847381592e-01 -1.165936365723609924e-01 1.035021394491195679e-01 2.543311119079589844e-01
9.440000000000000000e+02 2.874832153320312500e+01 -1.626284599304199219e+01 -3.323237597942352295e-02 -1.090201139450073242e-01 -4.267574846744537354e-02 9.434564709663391113e-01
9.450000000000000000e+02 2.863375854492187500e+01 -3.281473922729492188e+01 -1.377234328538179398e-02 5.995557308197021484e-01 1.757350116968154907e-01 5.574221014976501465e-01
9.460000000000000000e+02 2.706421852111816406e+01 -3.300646591186523438e+01 -1.554823368787765503e-01 2.321448624134063721e-01 2.299875579774379730e-02 2.332949191331863403e-01
9.470000000000000000e+02 2.552494812011718750e+01 -3.155717086791992188e+01 -5.486361980438232422e-01 1.305581349879503250e-02 -1.606741100549697876e-01 -6.348731927573680878e-03
9.480000000000000000e+02 1.484925937652587891e+01 -1.520142269134521484e+01 1.020967364311218262e+00 1.063120067119598389e-01 3.381838202476501465e-01 -6.585493683815002441e-02
9.490000000000000000e+02 2.540270614624023438e+01 -1.732069206237792969e+01 2.686982452869415283e-01 -1.507151685655117035e-02 7.608801126480102539e-02 2.610702514648437500e-01
9.500000000000000000e+02 2.702140426635742188e+01 -1.814436721801757812e+01 2.082965336740016937e-02 1.558352354913949966e-02 1.092395279556512833e-02 1.489649713039398193e-01
9.510000000000000000e+02 2.314112091064453125e+01 -1.872707748413085938e+01 4.943034350872039795e-01 -2.927347272634506226e-02 1.395089924335479736e-01 5.183864384889602661e-02
9.520000000000000000e+02 1.879256010055541992e+00 -1.794118309020996094e+01 8.154952526092529297e-02 -9.322780966758728027e-01 -2.552185654640197754e-01 2.787393890321254730e-02
9.530000000000000000e+02 1.457098579406738281e+01 -3.183544158935546875e+01 -4.588779807090759277e-01 -3.292164206504821777e-02 -1.475398838520050049e-01 7.752416282892227173e-02
9.540000000000000000e+02 1.445088195800781250e+01 -3.385907745361328125e+01 -3.312182426452636719e-01 -8.662751317024230957e-02 -1.253537237644195557e-01 6.680921465158462524e-02
9.550000000000000000e+02 1.160317897796630859e+01 -3.286973953247070312e+01 -3.718087673187255859e-01 -1.678722351789474487e-01 -1.619043052196502686e-01 1.917473226785659790e-01
9.560000000000000000e+02 1.292095184326171875e+01 -3.337110137939453125e+01 -3.455532789230346680e-01 -1.096417158842086792e-01 -1.365585029125213623e-01 1.117794439196586609e-01
9.570000000000000000e+02 3.710837554931640625e+01 -2.284561347961425781e+01 6.425480842590332031e-01 6.311518669128417969e+00 2.086220026016235352e+00 8.581592440605163574e-01
9.580000000000000000e+02 3.669635772705078125e+01 -2.403713607788085938e+01 1.111417055130004883e+00 6.578916072845458984e+00 2.307099819183349609e+00 9.588050842285156250e-01
9.590000000000000000e+02 4.726499557495117188e+01 1.434411644935607910e+00 -9.108825683593750000e+00 -9.560341238975524902e-01 -3.019457817077636719e+00 4.761066436767578125e-01
9.600000000000000000e+02 2.874570465087890625e+01 -1.988902091979980469e+00 -4.292738437652587891e+00 -2.515256404876708984e-01 -1.363279223442077637e+00 -7.127018570899963379e-01
9.610000000000000000e+02 2.551055908203125000e+01 -2.953969478607177734e+00 -1.662557601928710938e+00 -7.384686172008514404e-02 -5.209213495254516602e-01 -4.764974713325500488e-01
9.620000000000000000e+02 6.252787017822265625e+01 -4.235405325889587402e-01 -1.300066351890563965e+00 1.589674651622772217e-01 -3.423296809196472168e-01 -1.902330219745635986e-01
9.630000000000000000e+02 6.724002075195312500e+01 -6.651788234710693359e+00 -7.849031686782836914e-02 -3.540023462846875191e-03 -2.460910379886627197e-02 2.018816210329532623e-02
9.640000000000000000e+02 6.668551635742187500e+01 -4.199551105499267578e+00 -3.211207091808319092e-01 4.440644755959510803e-02 -8.301427960395812988e-02 4.289827123284339905e-02
9.650000000000000000e+02 6.040192031860351562e+01 -4.647335112094879150e-01 -1.682603597640991211e+00 3.931675106287002563e-02 -4.929860532283782959e-01 -9.567726403474807739e-02
9.660000000000000000e+02 1.293632793426513672e+01 2.263716697692871094e+01 1.651404018048197031e-04 2.605788540677167475e-05 5.735948434448800981e-05 5.316611714079044759e-05
9.670000000000000000e+02 5.070738983154296875e+01 2.874209165573120117e+00 -3.566698789596557617e+00 2.801885902881622314e-01 -9.859530925750732422e-01 -6.528396606445312500e-01
9.680000000000000000e+02 1.539375782012939453e+01 1.833708763122558594e+01 -2.211219980381429195e-04 -1.617729503777809441e-05 -7.118978828657418489e-05 -1.394436276314081624e-05
9.690000000000000000e+02 1.428559207916259766e+01 1.828237724304199219e+01 1.639797264942899346e-04 -9.099002454604487866e-06 4.646421803045086563e-05 1.470601364417234436e-05
9.700000000000000000e+02 6.502307891845703125e+01 -3.195100784301757812e+00 -6.227557659149169922e-01 9.670124202966690063e-02 -1.578163653612136841e-01 6.732147932052612305e-02
9.710000000000000000e+02 5.390945434570312500e+01 6.234064698219299316e-01 -3.091230630874633789e+00 1.417998075485229492e-01 -8.848292231559753418e-01 2.138128727674484253e-01
9.720000000000000000e+02 5.422933197021484375e+01 1.810893774032592773e+00 -2.726593971252441406e+00 2.972843647003173828e-01 -7.287929058074951172e-01 -1.278246641159057617e-01
9.730000000000000000e+02 6.374209594726562500e+01 -1.433123469352722168e+00 -9.397330284118652344e-01 1.166925877332687378e-01 -2.469121366739273071e-01 -1.061061322689056396e-01
9.740000000000000000e+02 6.150311279296875000e+01 -5.232700109481811523e-01 -1.470754504203796387e+00 8.923848718404769897e-02 -4.144548177719116211e-01 -1.783905476331710815e-01
9.750000000000000000e+02 5.786779403686523438e+01 -8.714881539344787598e-02 -2.353580236434936523e+00 -2.145446278154850006e-02 -7.125104069709777832e-01 6.885522045195102692e-03
9.760000000000000000e+02 5.917236709594726562e+01 -3.033478558063507080e-01 -2.004379272460937500e+00 -3.749022632837295532e-02 -6.125608086585998535e-01 -3.992586955428123474e-02
9.770000000000000000e+02 4.902910614013671875e+01 2.187870264053344727e+00 -5.316278934478759766e+00 -1.506595462560653687e-01 -1.640081644058227539e+00 -4.096415042877197266e-01
9.780000000000000000e+02 7.234715270996093750e+01 -1.046446514129638672e+01 5.410337354987859726e-03 -1.280474942177534103e-02 -2.218323526903986931e-03 -2.572057419456541538e-04
9.790000000000000000e+02 6.737844085693359375e+01 -1.063660335540771484e+01 1.073898281902074814e-02 2.651357278227806091e-02 1.117576658725738525e-02 -2.065611816942691803e-02
9.800000000000000000e+02 2.797420120239257812e+01 4.123489379882812500e+01 8.078198134899139404e-02 -7.025134563446044922e-02 3.159189363941550255e-03 4.648815840482711792e-02
9.810000000000000000e+02 6.755620574951171875e+01 -7.646612167358398438e+00 -1.724985800683498383e-02 2.131118904799222946e-03 -4.535621963441371918e-03 -2.276502549648284912e-03
9.820000000000000000e+02 1.862930870056152344e+01 3.187198066711425781e+01 -2.036543097347021103e-03 4.241007554810494184e-04 -4.837327287532389164e-04 2.418230054900050163e-03
9.830000000000000000e+02 1.565086746215820312e+01 3.010811424255371094e+01 1.355680054984986782e-03 9.399087866768240929e-05 4.349013033788651228e-04 4.965201369486749172e-04
9.840000000000000000e+02 1.498425006866455078e+01 1.132279777526855469e+01 7.823241321602836251e-05 8.645636626170016825e-06 2.606341513455845416e-05 3.132664642180316150e-05
9.850000000000000000e+02 1.562120819091796875e+01 1.277470684051513672e+01 1.253237569471821189e-04 3.380846692380146123e-06 3.861137884086929262e-05 2.976963332912418991e-05
9.860000000000000000e+02 1.737035560607910156e+01 3.435538864135742188e+01 1.756945392116904259e-03 -5.993418162688612938e-04 3.472810494713485241e-04 -1.115258433856070042e-03
9.870000000000000000e+02 1.845292663574218750e+01 3.293110275268554688e+01 1.654196181334555149e-03 1.334220869466662407e-04 5.362855154089629650e-04 -3.461009473539888859e-04
9.880000000000000000e+02 1.414827442169189453e+01 1.971708488464355469e+01 -1.767421344993636012e-04 -8.381909538002219051e-06 -5.553721348405815661e-05 -1.877913382486440241e-05
9.890000000000000000e+02 1.519298171997070312e+01 1.410891723632812500e+01 -1.353870902676135302e-04 -7.685575837967917323e-06 -4.292180165066383779e-05 -2.936310374934691936e-05
9.900000000000000000e+02 1.857895278930664062e+01 1.562203884124755859e+00 -1.803152372303884476e-05 -2.344533413634053431e-06 -6.112817573011852801e-06 -1.393387265125056729e-05
9.910000000000000000e+02 1.470436763763427734e+01 2.698713111877441406e+01 5.566970794461667538e-04 3.809567715507000685e-05 1.784378400770947337e-04 1.600077084731310606e-04
9.920000000000000000e+02 2.065979385375976562e+01 1.423641920089721680e+00 1.018864713842049241e-05 2.422780880806385539e-06 3.783428383030695841e-06 -1.105774299503536895e-05
9.930000000000000000e+02 2.039638137817382812e+01 3.107372999191284180e+00 -5.208863876760005951e-05 -1.705854373312831740e-07 -1.567776780575513840e-05 1.056823930412065238e-05
9.940000000000000000e+02 1.408573722839355469e+01 2.115059852600097656e+01 1.970479497686028481e-04 -2.369793264733743854e-06 5.840344965690746903e-05 1.809149216569494456e-05
9.950000000000000000e+02 1.817983436584472656e+01 9.038932800292968750e+00 1.351110549876466393e-04 4.283907856006408110e-06 4.181848998996429145e-05 2.283104549860581756e-05
9.960000000000000000e+02 1.723071861267089844e+01 5.451795578002929688e+00 -8.284590876428410411e-05 -2.157581184292212129e-05 -3.132651545456610620e-05 -2.682004560483619571e-05
9.970000000000000000e+02 7.934356689453125000e+01 -2.783440780639648438e+01 -1.402081805281341076e-03 7.237145910039544106e-04 -2.035101788351312280e-04 5.596446571871638298e-04
9.980000000000000000e+02 7.947445678710937500e+01 -2.094679069519042969e+01 1.067542238160967827e-03 4.938219208270311356e-04 4.684092418756335974e-04 -1.482733496231958270e-04
9.990000000000000000e+02 7.896147918701171875e+01 -3.875662612915039062e+01 -1.462254091165959835e-03 -2.051250264048576355e-02 -6.592427380383014679e-03 2.258290536701679230e-03
1.000000000000000000e+03 7.930343627929687500e+01 -3.471742248535156250e+01 2.107320586219429970e-03 -1.121441926807165146e-02 -2.732129767537117004e-03 1.497313962318003178e-03
1.001000000000000000e+03 7.932994079589843750e+01 -3.335284805297851562e+01 -2.322843763977289200e-03 -7.591879460960626602e-03 -2.974417060613632202e-03 2.090382156893610954e-03
1.002000000000000000e+03 7.942684173583984375e+01 -2.368811988830566406e+01 1.027207821607589722e-03 1.092568738386034966e-03 6.359329563565552235e-04 -2.524757001083344221e-04
1.003000000000000000e+03 7.807896423339843750e+01 -2.620190811157226562e+01 -1.514673000201582909e-03 1.735791738610714674e-04 -4.023281508125364780e-04 3.839258279185742140e-04
1.004000000000000000e+03 7.933114624023437500e+01 -3.060136413574218750e+01 -1.870125764980912209e-03 -2.065695589408278465e-03 -1.180746359750628471e-03 1.347168465144932270e-03
1.005000000000000000e+03 7.799830627441406250e+01 -3.309918212890625000e+01 1.125549082644283772e-03 -6.935209967195987701e-03 -1.742898253723978996e-03 4.133360926061868668e-03
1.006000000000000000e+03 7.744221496582031250e+01 -3.686835479736328125e+01 -9.769747266545891762e-04 -1.529547572135925293e-02 -4.881735425442457199e-03 5.407861899584531784e-03
1.007000000000000000e+03 7.861608886718750000e+01 -1.633536148071289062e+01 4.050397546961903572e-04 5.075564840808510780e-04 2.737788599915802479e-04 -4.301771114114671946e-04
1.008000000000000000e+03 1.439667320251464844e+01 2.550467109680175781e+01 -2.332086005480960011e-04 4.965644984622485936e-05 -5.506564411916770041e-05 5.370953658712096512e-05
1.009000000000000000e+03 1.609160804748535156e+01 1.146641159057617188e+01 -1.146328140748664737e-04 -9.222570952260866761e-06 -3.715661659953184426e-05 -2.982238765980582684e-05
1.010000000000000000e+03 1.658632278442382812e+01 1.018375110626220703e+01 1.072027298505418003e-04 6.740255230397451669e-06 3.418289634282700717e-05 2.672829941730014980e-05
1.011000000000000000e+03 1.511287498474121094e+01 2.850152969360351562e+01 -2.522867871448397636e-04 9.070023952517658472e-05 -4.847596210311166942e-05 1.779958547558635473e-04
1.012000000000000000e+03 1.481489467620849609e+01 1.546753787994384766e+01 1.438924809917807579e-04 -9.543435226078145206e-06 4.030471245641820133e-05 2.241752008558250964e-05
1.013000000000000000e+03 1.571704483032226562e+01 2.570310354232788086e+00 1.545795385027304292e-05 1.263460671907523647e-05 8.427768079855013639e-06 -1.058048610502737574e-06
1.014000000000000000e+03 7.620652770996093750e+01 3.645619583129882812e+01 5.572769790887832642e-02 -1.843930125236511230e+00 -5.364606976509094238e-01 -1.477055810391902924e-02
1.015000000000000000e+03 7.830149078369140625e+01 -2.629681825637817383e+00 -1.206068601459264755e-02 -1.376640331000089645e-02 -7.748126983642578125e-03 -2.956900745630264282e-02
1.016000000000000000e+03 7.815853881835937500e+01 2.904326677322387695e+00 -1.674724370241165161e-02 -2.434007078409194946e-01 -7.804438471794128418e-02 -1.265118867158889771e-01
1.017000000000000000e+03 7.805750274658203125e+01 9.819519996643066406e+00 -4.397042561322450638e-03 -8.275173902511596680e-01 -2.495743185281753540e-01 -2.135139256715774536e-01
1.018000000000000000e+03 7.803074645996093750e+01 1.678422546386718750e+01 1.527261920273303986e-02 -1.492365598678588867e+00 -4.431278705596923828e-01 -1.818336248397827148e-01
1.019000000000000000e+03 7.906403350830078125e+01 3.876321029663085938e+01 -9.642148390412330627e-03 -2.352031230926513672e+00 -7.085019946098327637e-01 3.842888772487640381e-02
1.020000000000000000e+03 7.916082000732421875e+01 3.203667449951171875e+01 2.007192466408014297e-03 -2.429191112518310547e+00 -7.281551957130432129e-01 -6.050473544746637344e-03
1.021000000000000000e+03 7.780886077880859375e+01 2.906408309936523438e+01 1.317376829683780670e-02 -2.082980871200561523e+00 -6.209421157836914062e-01 -4.868966713547706604e-02
1.022000000000000000e+03 7.751600646972656250e+01 3.188196182250976562e+01 2.451702952384948730e-03 -2.071372747421264648e+00 -6.206763386726379395e-01 -3.729860112071037292e-02
1.023000000000000000e+03 7.931746673583984375e+01 2.505762672424316406e+01 3.097326029092073441e-03 -2.264206171035766602e+00 -6.783326268196105957e-01 -2.453878149390220642e-02
1.024000000000000000e+03 7.806432342529296875e+01 2.225583648681640625e+01 1.756561733782291412e-02 -1.876971364021301270e+00 -5.578217506408691406e-01 -1.178027018904685974e-01
1.025000000000000000e+03 7.793736267089843750e+01 2.496127510070800781e+01 1.149757206439971924e-02 -1.987276196479797363e+00 -5.927336215972900391e-01 -8.104126900434494019e-02
1.026000000000000000e+03 7.676637268066406250e+01 2.095339012145996094e+01 3.099149651825428009e-02 -1.590308427810668945e+00 -4.677951037883758545e-01 -2.070182263851165771e-01
1.027000000000000000e+03 7.935470581054687500e+01 1.953328704833984375e+01 6.902114255353808403e-04 -1.924304604530334473e+00 -5.770843029022216797e-01 -4.904498532414436340e-02
1.028000000000000000e+03 7.805181884765625000e+01 1.955730438232421875e+01 1.315055694431066513e-02 -1.710459113121032715e+00 -5.091925859451293945e-01 -1.480068713426589966e-01
1.029000000000000000e+03 7.803153228759765625e+01 1.538954353332519531e+01 1.146999560296535492e-02 -1.368503570556640625e+00 -4.071100950241088867e-01 -1.978857368230819702e-01
1.030000000000000000e+03 7.672972869873046875e+01 1.404492473602294922e+01 1.922934316098690033e-02 -1.106956243515014648e+00 -3.263180851936340332e-01 -3.243355453014373779e-01
1.031000000000000000e+03 7.934498596191406250e+01 1.258066558837890625e+01 2.218931447714567184e-03 -1.219814896583557129e+00 -3.652787804603576660e-01 -7.484154403209686279e-02
1.032000000000000000e+03 7.804121398925781250e+01 1.260790443420410156e+01 3.470240393653512001e-03 -1.103474378585815430e+00 -3.300012648105621338e-01 -2.154693752527236938e-01
1.033000000000000000e+03 7.807155609130859375e+01 8.433241844177246094e+00 -6.459492724388837814e-03 -6.940296888351440430e-01 -2.101467549800872803e-01 -2.056861221790313721e-01
1.034000000000000000e+03 7.810237121582031250e+01 5.665148735046386719e+00 -1.297237910330295563e-02 -4.465138316154479980e-01 -1.378458589315414429e-01 -1.736462116241455078e-01
1.035000000000000000e+03 7.936771392822265625e+01 5.627392768859863281e+00 -4.744872916489839554e-03 -4.413232207298278809e-01 -1.338204294443130493e-01 -5.972892418503761292e-02
1.036000000000000000e+03 7.682909393310546875e+01 5.728785037994384766e+00 -3.615454211831092834e-02 -4.314136207103729248e-01 -1.402704417705535889e-01 -2.726193368434906006e-01
1.037000000000000000e+03 7.819773101806640625e+01 1.523769259452819824e+00 -1.945444196462631226e-02 -1.625005155801773071e-01 -5.458648502826690674e-02 -9.999955445528030396e-02
1.038000000000000000e+03 7.826983642578125000e+01 -1.245248317718505859e+00 -1.621052622795104980e-02 -4.804397001862525940e-02 -1.927634887397289276e-02 -5.022690817713737488e-02
1.039000000000000000e+03 7.942470550537109375e+01 -1.315848827362060547e+00 -2.467458834871649742e-03 -2.542018191888928413e-04 -8.164981845766305923e-04 -1.654979586601257324e-02
1.040000000000000000e+03 7.710900115966796875e+01 -1.145305514335632324e+00 -3.732921555638313293e-02 -7.672841101884841919e-02 -3.421729058027267456e-02 -8.566679805517196655e-02
1.041000000000000000e+03 7.801846313476562500e+01 -1.022760486602783203e+01 1.632223487831652164e-03 7.906105369329452515e-03 2.861498622223734856e-03 1.305687427520751953e-02
1.042000000000000000e+03 7.731571197509765625e+01 -1.039859485626220703e+01 1.908129197545349598e-03 3.956572618335485458e-03 1.759410602971911430e-03 1.484884787350893021e-02
1.043000000000000000e+03 7.811204528808593750e+01 -9.239209175109863281e+00 8.329421980306506157e-04 1.308377273380756378e-02 4.175014328211545944e-03 1.392173208296298981e-02
1.044000000000000000e+03 3.895220565795898438e+01 5.352874279022216797e+00 2.060133695602416992e+00 1.110838603973388672e+01 3.950555801391601562e+00 4.641108036041259766e+00
1.045000000000000000e+03 4.524904632568359375e+01 1.099918723106384277e+00 -7.054100036621093750e+00 -6.343619227409362793e-01 -2.306538581848144531e+00 -9.820595383644104004e-01
1.046000000000000000e+03 6.405654144287109375e+01 -3.314294815063476562e+01 -8.834905922412872314e-02 4.720628261566162109e-03 -2.508852817118167877e-02 1.958213187754154205e-02
1.047000000000000000e+03 4.184230422973632812e+01 2.152072340250015259e-01 -2.919388294219970703e+00 8.149673461914062500e+00 1.569085597991943359e+00 6.006166338920593262e-01
1.048000000000000000e+03 5.704530334472656250e+01 -3.559737014770507812e+01 1.317349635064601898e-02 1.516906768083572388e-01 4.945924878120422363e-02 -8.679309487342834473e-02
1.049000000000000000e+03 5.911458969116210938e+01 -3.552434539794921875e+01 -1.332183019258081913e-03 2.884422056376934052e-02 8.253611624240875244e-03 -1.334130857139825821e-02
1.050000000000000000e+03 4.063217544555664062e+01 -1.652584075927734375e+01 7.204447388648986816e-01 7.881506443023681641e+00 2.580585241317749023e+00 -8.712556958198547363e-01
1.051000000000000000e+03 4.142272949218750000e+01 -5.561015129089355469e+00 1.121114015579223633e+00 5.142213821411132812e+00 1.878998279571533203e+00 3.646683692932128906e+00
1.052000000000000000e+03 6.970959472656250000e+01 -2.401038360595703125e+01 2.321075182408094406e-03 3.267340944148600101e-04 7.943428354337811470e-04 -3.912560932803899050e-04
1.053000000000000000e+03 4.134168624877929688e+01 3.319691467285156250e+01 2.633673548698425293e-01 4.283887863159179688e+00 1.364176511764526367e+00 -7.568251490592956543e-01
1.054000000000000000e+03 6.899767303466796875e+01 -2.686907386779785156e+01 -2.846076968125998974e-04 1.657121028983965516e-04 -3.566867599147371948e-05 -2.637288067489862442e-03
1.055000000000000000e+03 4.275215911865234375e+01 2.802935791015625000e+01 8.289881944656372070e-01 6.275319576263427734e+00 2.131292343139648438e+00 -6.510580182075500488e-01
1.056000000000000000e+03 3.550978088378906250e+01 6.018975973129272461e-01 -3.215083360671997070e+00 8.203449249267578125e-01 -7.184215784072875977e-01 -1.022068262100219727e+00
1.057000000000000000e+03 3.425364303588867188e+01 -2.398426383733749390e-01 -4.733616828918457031e+00 -7.415089011192321777e-01 -1.642537713050842285e+00 -2.319720029830932617e+00
1.058000000000000000e+03 3.673197555541992188e+01 3.512168121337890625e+01 2.568658292293548584e-01 5.064653754234313965e-01 2.289993613958358765e-01 -3.951839208602905273e-01
1.059000000000000000e+03 3.242312240600585938e+01 3.699100875854492188e+01 -2.277341634035110474e-01 -5.131437908858060837e-03 -6.985968351364135742e-02 1.783065870404243469e-02
1.060000000000000000e+03 4.126367187500000000e+01 1.367243480682373047e+01 5.502724051475524902e-01 1.028288650512695312e+01 3.249947786331176758e+00 1.787583112716674805e+00
1.061000000000000000e+03 4.291742324829101562e+01 1.781682777404785156e+01 4.077193439006805420e-01 7.528663635253906250e+00 2.380914926528930664e+00 8.791719079017639160e-01
1.062000000000000000e+03 4.159915542602539062e+01 -1.263029003143310547e+01 6.952660530805587769e-02 9.228246688842773438e+00 2.789332151412963867e+00 -1.043959498405456543e+00
1.063000000000000000e+03 4.066589736938476562e+01 -1.531487560272216797e+01 7.395435571670532227e-01 8.609437942504882812e+00 2.804694414138793945e+00 -1.407586097717285156e+00
1.064000000000000000e+03 4.210057830810546875e+01 3.134017562866210938e+01 6.625885367393493652e-01 5.317625999450683594e+00 1.794064402580261230e+00 -8.312667608261108398e-01
1.065000000000000000e+03 6.565105438232421875e+01 -3.011267280578613281e+01 -3.132279217243194580e-02 -6.214630324393510818e-03 -1.126122660934925079e-02 -1.618714258074760437e-02
1.066000000000000000e+03 4.045806503295898438e+01 1.533108592033386230e+00 -3.091145992279052734e+00 8.712949752807617188e+00 1.686541080474853516e+00 7.193371653556823730e-01
1.067000000000000000e+03 6.696594238281250000e+01 -3.336845397949218750e+01 -4.660677909851074219e-02 1.301186531782150269e-02 -1.007847394794225693e-02 2.526732534170150757e-02
1.068000000000000000e+03 2.873472785949707031e+01 -2.992633342742919922e+00 -2.947676658630371094e+00 -6.717402338981628418e-01 -1.085825085639953613e+00 -1.229384660720825195e+00
1.069000000000000000e+03 4.061212158203125000e+01 -1.400504684448242188e+01 3.854367434978485107e-01 8.951430320739746094e+00 2.801060199737548828e+00 -1.553342580795288086e+00
1.070000000000000000e+03 4.047679901123046875e+01 9.388693809509277344e+00 1.218314886093139648e+00 1.243327236175537109e+01 4.095476150512695312e+00 3.374341726303100586e+00
1.071000000000000000e+03 4.396076965332031250e+01 -2.121280097961425781e+01 5.703753829002380371e-01 2.999905586242675781e+00 1.071084260940551758e+00 -1.342833161354064941e+00
1.072000000000000000e+03 4.337736129760742188e+01 1.171650505065917969e+01 1.369303703308105469e+00 7.293087482452392578e+00 2.598717212677001953e+00 2.281710624694824219e+00
1.073000000000000000e+03 3.222289276123046875e+01 3.895593261718750000e+01 4.248412325978279114e-02 1.095935106277465820e-01 4.562329128384590149e-02 -4.331950470805168152e-02
1.074000000000000000e+03 4.045150375366210938e+01 -1.767245483398437500e+01 3.707740902900695801e-01 7.459082126617431641e+00 2.348956823348999023e+00 -3.511519432067871094e-01
1.075000000000000000e+03 3.848603439331054688e+01 2.160846471786499023e+00 -1.898236751556396484e+00 7.628671646118164062e+00 1.719130516052246094e+00 1.105565667152404785e+00
1.076000000000000000e+03 3.464224624633789062e+01 3.835050582885742188e+01 6.085671856999397278e-02 3.941566348075866699e-01 1.365040093660354614e-01 -2.251095324754714966e-01
1.077000000000000000e+03 2.482221412658691406e+01 -3.984297037124633789e+00 -1.082953572273254395e+00 -1.509756296873092651e-01 -3.701787590980529785e-01 -5.978190302848815918e-01
1.078000000000000000e+03 6.669585418701171875e+01 -3.095748138427734375e+01 -4.046011343598365784e-02 4.141620360314846039e-03 -1.089554745703935623e-02 -7.560891681350767612e-04
1.079000000000000000e+03 3.760686492919921875e+01 1.051939606666564941e+00 -2.858474254608154297e+00 6.111913204193115234e+00 9.760316610336303711e-01 7.323652505874633789e-01
1.080000000000000000e+03 4.167377853393554688e+01 8.866720199584960938e+00 1.683382153511047363e+00 9.380737304687500000e+00 3.319236040115356445e+00 3.136087894439697266e+00
1.081000000000000000e+03 4.302375793457031250e+01 1.928449058532714844e+01 2.468620240688323975e-01 7.243858814239501953e+00 2.247216224670410156e+00 6.545535922050476074e-01
1.082000000000000000e+03 3.860691452026367188e+01 3.658559799194335938e+01 -1.582380235195159912e-01 2.176183938980102539e+00 6.053838133811950684e-01 -8.178480267524719238e-01
1.083000000000000000e+03 3.857372283935546875e+01 3.533529663085937500e+01 1.386795938014984131e-01 2.037958383560180664e+00 6.529913544654846191e-01 -9.451823234558105469e-01
1.084000000000000000e+03 4.165714263916015625e+01 2.505851554870605469e+01 7.845147699117660522e-02 7.106978416442871094e+00 2.155628919601440430e+00 -8.253352344036102295e-02
1.085000000000000000e+03 4.103798294067382812e+01 1.224156379699707031e+01 5.013668537139892578e-01 1.051388359069824219e+01 3.304575204849243164e+00 2.199645280838012695e+00
1.086000000000000000e+03 4.241054534912109375e+01 1.343995761871337891e+01 8.618599772453308105e-01 8.639007568359375000e+00 2.850260257720947266e+00 1.825299263000488281e+00
1.087000000000000000e+03 4.580539321899414062e+01 4.233509063720703125e+00 -1.834883451461791992e+00 9.916706085205078125e-01 -2.529638707637786865e-01 1.229861736297607422e+00
1.088000000000000000e+03 4.202276229858398438e+01 1.039723968505859375e+01 1.367781996726989746e+00 9.108428001403808594e+00 3.142863035202026367e+00 2.915584325790405273e+00
1.089000000000000000e+03 4.294905853271484375e+01 2.505996704101562500e+01 1.707557439804077148e-01 6.664682865142822266e+00 2.050631523132324219e+00 -1.554781496524810791e-01
1.090000000000000000e+03 4.307749557495117188e+01 2.219214248657226562e+01 1.420608311891555786e-01 6.735062599182128906e+00 2.063137054443359375e+00 2.461880892515182495e-01
1.091000000000000000e+03 4.453596878051757812e+01 2.219038772583007812e+01 3.540394008159637451e-01 6.113784313201904297e+00 1.940347075462341309e+00 3.319785594940185547e-01
1.092000000000000000e+03 4.110401916503906250e+01 -1.012781429290771484e+01 5.752952769398689270e-02 6.564376354217529297e+00 1.986571669578552246e+00 -2.317080497741699219e+00
1.093000000000000000e+03 4.008460235595703125e+01 -9.469394683837890625e+00 -5.788863897323608398e-01 1.079790878295898438e+01 3.065706729888916016e+00 -2.925211668014526367e+00
1.094000000000000000e+03 6.120137023925781250e+01 -3.492305755615234375e+01 -5.959530919790267944e-02 -9.589449502527713776e-03 -2.075542695820331573e-02 4.371154308319091797e-02
1.095000000000000000e+03 6.288756179809570312e+01 -3.630482482910156250e+01 9.357016533613204956e-03 9.838763624429702759e-03 5.758733954280614853e-03 5.029397085309028625e-02
1.096000000000000000e+03 6.985939788818359375e+01 -2.262400627136230469e+01 -2.090017311275005341e-03 3.207679837942123413e-04 -5.307747633196413517e-04 1.124624744988977909e-03
1.097000000000000000e+03 5.359989166259765625e+01 -3.211304855346679688e+01 -9.589180350303649902e-03 4.158818721771240234e-01 1.218878030776977539e-01 -2.095410227775573730e-01
1.098000000000000000e+03 4.851835250854492188e+01 -2.653823280334472656e+01 3.411704003810882568e-01 8.708710670471191406e-01 3.636124432086944580e-01 -5.701459646224975586e-01
1.099000000000000000e+03 5.048689651489257812e+01 -3.068506431579589844e+01 1.004369631409645081e-01 8.578663468360900879e-01 2.874909937381744385e-01 -4.470538496971130371e-01
1.100000000000000000e+03 6.552794647216796875e+01 -3.229211044311523438e+01 -6.226918846368789673e-02 1.104386989027261734e-02 -1.536759547889232635e-02 4.227781202644109726e-03
1.101000000000000000e+03 5.062244415283203125e+01 -2.868222236633300781e+01 2.010892182588577271e-01 6.586992144584655762e-01 2.579365372657775879e-01 -4.093925058841705322e-01
1.102000000000000000e+03 3.739149475097656250e+01 -1.509356975555419922e+01 -1.560534387826919556e-01 6.322771072387695312e+00 1.850015282630920410e+00 -4.181230962276458740e-01
1.103000000000000000e+03 6.886779022216796875e+01 -1.955835914611816406e+01 2.259891014546155930e-03 4.483171214815229177e-04 8.124624728225171566e-04 -4.495548491831868887e-04
1.104000000000000000e+03 4.954637908935546875e+01 -2.764796638488769531e+01 2.723346352577209473e-01 7.299779057502746582e-01 3.006937801837921143e-01 -5.003556013107299805e-01
1.105000000000000000e+03 7.238085174560546875e+01 -1.740006256103515625e+01 -4.791684041265398264e-04 4.450105479918420315e-04 -1.024736229737754911e-05 -1.490420690970495343e-04
1.106000000000000000e+03 5.268256378173828125e+01 -2.863690757751464844e+01 1.269579231739044189e-01 2.599499225616455078e-01 1.160723492503166199e-01 -1.886132210493087769e-01
1.107000000000000000e+03 4.773503112792968750e+01 -2.343856239318847656e+01 4.380378425121307373e-01 6.312518715858459473e-01 3.207869231700897217e-01 -5.379197597503662109e-01
1.108000000000000000e+03 4.671010208129882812e+01 -2.423247146606445312e+01 5.003007054328918457e-01 1.240513324737548828e+00 5.222442150115966797e-01 -7.517975568771362305e-01
1.109000000000000000e+03 4.489063262939453125e+01 -2.218347930908203125e+01 5.966174602508544922e-01 2.155783414840698242e+00 8.257202506065368652e-01 -1.082427024841308594e+00
1.110000000000000000e+03 1.480184078216552734e+00 -3.996852111816406250e+01 -7.947920821607112885e-03 1.866864413022994995e-01 5.362155660986900330e-02 -3.226173669099807739e-02
1.111000000000000000e+03 8.356800675392150879e-01 3.733550262451171875e+01 2.549825876485556364e-05 6.366096786223351955e-04 1.986323914024978876e-04 -4.250574420439079404e-05
1.112000000000000000e+03 7.423653006553649902e-01 3.315602874755859375e+01 -1.014673325698822737e-04 3.430976648814976215e-04 7.248909969348460436e-05 -2.186543861171230674e-05
1.113000000000000000e+03 6.474877595901489258e-01 2.610262680053710938e+01 5.713086284231394529e-05 2.112919173669070005e-05 2.347801637370139360e-05 -2.788820165733341128e-05
1.114000000000000000e+03 1.899469256401062012e+00 2.862310600280761719e+01 -3.324821591377258301e-05 9.743576811160892248e-05 1.925626384036149830e-05 -4.721064397017471492e-05
1.115000000000000000e+03 3.061488628387451172e+00 2.839182090759277344e+01 6.857280823169276118e-05 4.453719157027080655e-05 3.393299994058907032e-05 -9.590949048288166523e-05
1.116000000000000000e+03 3.177807569503784180e+00 2.569078445434570312e+01 5.320349373505450785e-05 -1.405231614626245573e-05 1.174535282189026475e-05 -7.660575647605583072e-05
1.117000000000000000e+03 2.079041481018066406e+00 3.142437744140625000e+01 -1.243549468199489638e-05 1.649100158829241991e-04 4.574235572363249958e-05 -7.315084076253697276e-05
1.118000000000000000e+03 2.323816299438476562e+00 3.424118041992187500e+01 -7.058773189783096313e-05 3.832744259852916002e-04 9.380600386066362262e-05 -1.606931764399632812e-04
1.119000000000000000e+03 2.220091104507446289e+00 3.283985137939453125e+01 7.222803833428770304e-05 2.173920511268079281e-04 8.688602247275412083e-05 -1.912155858008190989e-04
1.120000000000000000e+03 2.717093706130981445e+00 3.798679733276367188e+01 -1.336939362772682216e-06 4.280543362256139517e-04 1.280152209801599383e-04 -1.641706476220861077e-04
1.121000000000000000e+03 3.638622999191284180e+00 3.903198623657226562e+01 -1.690209683147259057e-05 6.045754416845738888e-04 1.763019972713664174e-04 -3.776719386223703623e-04
1.122000000000000000e+03 6.571992039680480957e-01 -3.594608688354492188e+01 3.430179553106427193e-03 3.001829087734222412e-01 9.108392149209976196e-02 -1.549064926803112030e-02
1.123000000000000000e+03 6.433106422424316406e+00 -3.548375701904296875e+01 -3.998813778162002563e-02 -1.326634436845779419e-01 -5.179547518491744995e-02 1.898400671780109406e-02
1.124000000000000000e+03 6.716226935386657715e-01 -3.049000930786132812e+01 -1.066823303699493408e-02 3.204456567764282227e-01 9.293323010206222534e-02 2.632110938429832458e-02
1.125000000000000000e+03 3.219786167144775391e+00 -2.760770988464355469e+01 -1.641965657472610474e-01 -4.262132570147514343e-02 -6.204536557197570801e-02 3.091503381729125977e-01
1.126000000000000000e+03 6.411261558532714844e-01 1.903308296203613281e+01 8.048191375564783812e-06 -1.561093995405826718e-05 -2.268824800921720453e-06 6.139365268609253690e-06
1.127000000000000000e+03 5.942931771278381348e-01 1.339218235015869141e+01 3.218508572899736464e-05 -4.351946245151339099e-06 8.349941708729602396e-06 -4.883821929979603738e-06
1.128000000000000000e+03 5.334113240242004395e-01 7.783582210540771484e+00 2.416424831608310342e-05 1.702056010799424257e-06 7.759891559544485062e-06 -3.622591293606092222e-06
1.129000000000000000e+03 1.891655325889587402e+00 -1.647812461853027344e+01 5.818298831582069397e-02 -9.275656342506408691e-01 -2.608147859573364258e-01 -6.509099155664443970e-02
1.130000000000000000e+03 5.922805070877075195e-01 -1.923406028747558594e+01 2.038961276412010193e-02 -1.406389355659484863e+00 -4.157999455928802490e-01 3.550473973155021667e-02
1.131000000000000000e+03 5.598667860031127930e-01 -2.063558959960937500e+01 1.259198226034641266e-02 -1.271469354629516602e+00 -3.776631951332092285e-01 7.720607519149780273e-02
1.132000000000000000e+03 5.898839831352233887e-01 -2.342891120910644531e+01 6.985469721257686615e-03 -7.291685938835144043e-01 -2.166549414396286011e-01 1.343515813350677490e-01
1.133000000000000000e+03 2.348275423049926758e+00 -3.647382736206054688e+01 -1.753128482960164547e-03 1.687110066413879395e-01 5.008736252784729004e-02 -3.511115536093711853e-02
1.134000000000000000e+03 4.650159180164337158e-01 5.031152248382568359e+00 3.255841875215992332e-05 3.743968591152224690e-06 1.089071702153887600e-05 5.557564691116567701e-06
1.135000000000000000e+03 1.692509174346923828e+00 1.037784957885742188e+01 -1.521772901469375938e-05 -4.355601049610413611e-06 -5.871999292139662430e-06 8.006411007954739034e-06
1.136000000000000000e+03 5.645341277122497559e-01 1.058243942260742188e+01 2.919045982707757503e-05 -2.679874171462870436e-07 8.676741344970650971e-06 -6.723189017066033557e-06
1.137000000000000000e+03 1.780207753181457520e+00 1.314953613281250000e+01 -1.871547465270850807e-05 -1.804074031497293618e-06 -6.155864866741467267e-06 3.465499730737064965e-06
1.138000000000000000e+03 1.917053699493408203e+00 1.876825714111328125e+01 -7.227934474940411747e-06 -3.635802386270370334e-06 -3.259121058363234624e-06 -1.347191118838964030e-05
1.139000000000000000e+03 1.955148935317993164e+00 2.444861984252929688e+01 3.606145037338137627e-05 6.473737357737263665e-06 1.276055627386085689e-05 -4.829897443414665759e-05
1.140000000000000000e+03 5.300011157989501953e+00 -4.027248001098632812e+01 3.457923606038093567e-02 -2.394790062680840492e-04 1.030192710459232330e-02 7.225489243865013123e-03
1.141000000000000000e+03 3.932172775268554688e+00 -3.878249740600585938e+01 6.751724053174257278e-03 9.152110666036605835e-02 2.948184870183467865e-02 -2.290941961109638214e-02
1.142000000000000000e+03 2.647310733795166016e+00 -3.470642852783203125e+01 -1.569516211748123169e-02 1.408502906560897827e-01 3.754654154181480408e-02 -2.466048114001750946e-02
1.143000000000000000e+03 1.902403712272644043e+00 -3.326166534423828125e+01 -2.013046108186244965e-02 2.040103226900100708e-01 5.516395717859268188e-02 -9.371634572744369507e-03
1.144000000000000000e+03 4.393806934356689453e+00 -2.887487030029296875e+01 -2.526285946369171143e-01 -1.149639636278152466e-01 -1.102777644991874695e-01 2.185101956129074097e-01
1.145000000000000000e+03 3.226129770278930664e+00 -2.621916580200195312e+01 -1.104606464505195618e-01 -9.746924042701721191e-02 -6.237896531820297241e-02 3.947666585445404053e-01
1.146000000000000000e+03 1.926671504974365234e+00 -2.623144340515136719e+01 -5.527372658252716064e-02 -1.329645067453384399e-01 -5.647147074341773987e-02 3.101953566074371338e-01
1.147000000000000000e+03 3.516567945480346680e+00 -2.161287117004394531e+01 1.299547106027603149e-01 -1.901894807815551758e-01 -1.807042956352233887e-02 3.903469741344451904e-01
1.148000000000000000e+03 1.669190883636474609e+00 -2.074395751953125000e+01 7.324106246232986450e-02 -8.338884115219116211e-01 -2.281942069530487061e-01 2.094937562942504883e-01
1.149000000000000000e+03 2.939829587936401367e+00 -1.229756927490234375e+01 2.210562117397785187e-02 -4.896693229675292969e-01 -1.402691155672073364e-01 -2.787183523178100586e-01
1.150000000000000000e+03 5.827283859252929688e-01 -1.215666294097900391e+01 -1.753154094330966473e-03 -1.003800034523010254e+00 -3.016659617424011230e-01 -7.362566143274307251e-02
1.151000000000000000e+03 1.752636790275573730e+00 -1.224546432495117188e+01 1.280681602656841278e-02 -7.446350455284118652e-01 -2.195484638214111328e-01 -1.991066932678222656e-01
1.152000000000000000e+03 1.684905529022216797e+00 -6.914803981781005859e+00 -1.306645292788743973e-02 -2.957679927349090576e-01 -9.265033900737762451e-02 -1.592478752136230469e-01
1.153000000000000000e+03 1.619383931159973145e+00 -3.531452894210815430e+00 -2.599618956446647644e-02 -9.557151049375534058e-02 -3.647031262516975403e-02 -8.156595379114151001e-02
1.154000000000000000e+03 6.265066862106323242e-01 -5.160753250122070312e+00 -1.432512770406901836e-03 -1.791528463363647461e-01 -5.417560786008834839e-02 -5.142492800951004028e-02
1.155000000000000000e+03 5.521014785766601562e+01 3.769160509109497070e-01 -2.823318958282470703e+00 4.936549067497253418e-02 -8.321860432624816895e-01 1.198950335383415222e-01
1.156000000000000000e+03 3.884057617187500000e+01 -6.033770084381103516e+00 2.462988376617431641e+00 1.397678279876708984e+01 4.931931495666503906e+00 1.043226718902587891e-01
1.157000000000000000e+03 3.982366943359375000e+01 -9.087169647216796875e+00 -5.249313116073608398e-01 1.286155986785888672e+01 3.700988531112670898e+00 -2.550501585006713867e+00
1.158000000000000000e+03 4.125570678710937500e+01 -5.822149753570556641e+00 1.682539701461791992e+00 4.920972824096679688e+00 1.981053829193115234e+00 4.049092292785644531e+00
1.159000000000000000e+03 4.142019653320312500e+01 -5.263986110687255859e+00 1.035901784896850586e+00 6.014106273651123047e+00 2.115002393722534180e+00 3.978842258453369141e+00
1.160000000000000000e+03 3.949341583251953125e+01 -5.334972381591796875e+00 -7.965000718832015991e-02 1.312953853607177734e+01 3.914966344833374023e+00 3.117503881454467773e+00
1.161000000000000000e+03 3.906799316406250000e+01 -9.242650032043457031e+00 -1.732209920883178711e-01 1.364404487609863281e+01 4.041247367858886719e+00 1.826577484607696533e-01
1.162000000000000000e+03 3.791790008544921875e+01 -7.858243465423583984e+00 6.004444599151611328e+00 9.950083732604980469e+00 4.786358356475830078e+00 2.370877265930175781e+00
1.163000000000000000e+03 3.830884170532226562e+01 -6.753880500793457031e+00 6.512985706329345703e+00 1.149085712432861328e+01 5.401152610778808594e+00 -3.963415920734405518e-01
1.164000000000000000e+03 3.786680984497070312e+01 -7.215500354766845703e+00 6.523571491241455078e+00 9.464989662170410156e+00 4.796568393707275391e+00 9.522575736045837402e-01
1.165000000000000000e+03 3.825778198242187500e+01 -7.593149185180664062e+00 7.343876361846923828e+00 1.090456199645996094e+01 5.474531650543212891e+00 2.079820871353149414e+00
1.166000000000000000e+03 3.866856002807617188e+01 -8.939031600952148438e+00 1.391844868659973145e+00 1.346932125091552734e+01 4.458349704742431641e+00 1.915991783142089844e+00
1.167000000000000000e+03 3.911040878295898438e+01 -5.052166938781738281e+00 -2.135364264249801636e-01 1.237273216247558594e+01 3.647758722305297852e+00 2.153007745742797852e+00
1.168000000000000000e+03 1.925518417358398438e+01 1.610939383506774902e+00 2.741817297646775842e-05 -5.397129370976472273e-06 6.606313036172650754e-06 4.251359314366709441e-06
1.169000000000000000e+03 7.674409484863281250e+01 -1.619905090332031250e+01 7.770962547510862350e-04 -3.567813255358487368e-04 1.260944845853373408e-04 1.921258517540991306e-04
1.170000000000000000e+03 7.841066741943359375e+01 -1.948316383361816406e+01 1.102863112464547157e-03 3.228270361432805657e-05 3.405437455512583256e-04 -8.031031757127493620e-05
1.171000000000000000e+03 7.792980194091796875e+01 -1.695617103576660156e+01 5.597012350335717201e-04 -4.276684485375881195e-04 3.960982940043322742e-05 3.920388116966933012e-04
1.172000000000000000e+03 7.704807281494140625e+01 -1.713298416137695312e+01 -8.459863602183759212e-04 4.105176194570958614e-04 -1.306406338699162006e-04 -1.721931039355695248e-04
1.173000000000000000e+03 1.649498939514160156e+01 1.823629498481750488e+00 7.047641247481806204e-06 1.837875242927111685e-05 7.627917966601671651e-06 5.722776222683023661e-06
1.174000000000000000e+03 1.727748298645019531e+01 1.818083763122558594e+00 -1.840131153585389256e-05 -1.636092201806604862e-05 -1.042867006617598236e-05 -1.099988912756089121e-05
1.175000000000000000e+03 1.023953342437744141e+01 -2.749435186386108398e+00 -4.046286642551422119e-01 5.616071447730064392e-02 -1.045403853058815002e-01 -1.119167581200599670e-01
1.176000000000000000e+03 7.448149871826171875e+01 -1.628561210632324219e+01 -3.226239350624382496e-04 1.217546305269934237e-04 -6.026079427101649344e-05 -1.142633482231758535e-04
1.177000000000000000e+03 7.057695007324218750e+01 -1.666221046447753906e+01 1.933169085532426834e-03 -2.332367439521476626e-04 5.099797272123396397e-04 2.832354512065649033e-04
1.178000000000000000e+03 7.013681030273437500e+01 -1.131038665771484375e+01 1.596961170434951782e-02 -1.116797421127557755e-02 1.440491061657667160e-03 -1.161232683807611465e-02
1.179000000000000000e+03 6.754742431640625000e+01 -1.234851741790771484e+01 5.893248133361339569e-03 1.809958927333354950e-02 7.197850849479436874e-03 -8.482092060148715973e-03
1.180000000000000000e+03 7.390229797363281250e+01 -1.716690826416015625e+01 -2.982477017212659121e-04 1.410719123668968678e-04 -4.715273462352342904e-05 -1.976796047529205680e-04
1.181000000000000000e+03 1.797276115417480469e+01 1.671609282493591309e+00 2.003236477321479470e-05 1.158906798082171008e-05 9.486429917160421610e-06 4.972004262526752427e-06
1.182000000000000000e+03 1.814151191711425781e+01 2.915123939514160156e+00 -1.291857097385218367e-05 -2.890727591875474900e-05 -1.254775361303472891e-05 -2.114686867571435869e-05
1.183000000000000000e+03 3.952872514724731445e+00 2.632009506225585938e+00 -5.961959686828777194e-06 2.101611471516662277e-06 -1.158104510068369564e-06 1.514311236405774252e-07
1.184000000000000000e+03 4.671944618225097656e+00 2.591776609420776367e+00 2.813578475979738869e-06 1.053381652127427515e-06 1.160088004326098599e-06 6.766396722923673224e-07
1.185000000000000000e+03 6.105089664459228516e+00 2.555624723434448242e+00 2.600869720481568947e-06 2.258886297568096779e-06 1.457926828152267262e-06 4.171944055997300893e-06
1.186000000000000000e+03 5.384030342102050781e+00 3.291489362716674805e+00 2.681647401914233342e-06 2.165046453228569590e-06 1.454008156542840879e-06 3.138488864351529628e-06
1.187000000000000000e+03 6.095118045806884766e+00 3.265347719192504883e+00 -2.708338115553488024e-06 -3.251045882279868238e-06 -1.787815222087374423e-06 -3.150669044771348126e-06
1.188000000000000000e+03 1.054496383666992188e+01 2.451340198516845703e+00 9.967892765416763723e-06 7.310681212402414531e-06 5.183572284295223653e-06 4.499793249124195427e-06
1.189000000000000000e+03 7.531451702117919922e+00 3.254237651824951172e+00 -7.523246495111379772e-06 -2.864564748961129226e-06 -3.116343350484385155e-06 -5.506154593604151160e-06
1.190000000000000000e+03 6.809250354766845703e+00 3.255526781082153320e+00 3.621413725340971723e-06 3.551621375663671643e-06 2.151910621250863187e-06 5.816584689455339685e-06
1.191000000000000000e+03 4.679715633392333984e+00 3.340409755706787109e+00 -1.520762793916219380e-06 -4.836625976167852059e-06 -1.907216642393905204e-06 -1.961244151971186511e-06
1.192000000000000000e+03 1.905299663543701172e+00 2.622879505157470703e+00 -2.198735637648496777e-05 3.762139158425270580e-06 -5.467565188155276701e-06 -1.023502045427449048e-05
1.193000000000000000e+03 1.132212734222412109e+01 3.070963382720947266e+00 1.198291010950924829e-05 1.197976325784111395e-05 7.188802101154578850e-06 3.756712203539791517e-06
1.194000000000000000e+03 1.099948310852050781e+01 -3.591917514801025391e+00 -3.959762454032897949e-01 6.852596253156661987e-02 -9.823508560657501221e-02 -1.346130967140197754e-01
1.195000000000000000e+03 1.174342536926269531e+01 -3.676432847976684570e+00 -4.174118340015411377e-01 6.003611907362937927e-02 -1.072127148509025574e-01 -1.239014118909835815e-01
1.196000000000000000e+03 1.245323371887207031e+01 -3.017227888107299805e+00 -4.911477267742156982e-01 3.816524520516395569e-02 -1.358947455883026123e-01 -8.449706435203552246e-02
1.197000000000000000e+03 9.511544227600097656e+00 -3.460602283477783203e+00 -3.417836427688598633e-01 6.364482641220092773e-02 -8.344164490699768066e-02 -1.552382558584213257e-01
1.198000000000000000e+03 1.610778236389160156e+01 4.409409523010253906e+00 8.223974873544648290e-05 -1.753958349581807852e-05 1.941004848049487919e-05 3.059255686821416020e-05
1.199000000000000000e+03 1.357347011566162109e+01 2.788424730300903320e+00 -1.932827944983728230e-05 -1.254910966963507235e-05 -9.563216735841706395e-06 -6.166328603285364807e-06
1.200000000000000000e+03 1.207450103759765625e+01 2.269144296646118164e+00 1.178176535177044570e-05 9.151768608717247844e-06 6.280060006247367710e-06 5.766171398136066273e-06
1.201000000000000000e+03 7.523618316650390625e+01 -1.626406288146972656e+01 6.505022756755352020e-04 -2.561929868534207344e-04 1.182927808258682489e-04 8.011505087779369205e-06
1.202000000000000000e+03 7.549487304687500000e+01 -1.797507095336914062e+01 7.103248499333858490e-04 7.579319208161905408e-05 2.358354104217141867e-04 1.458215137972729281e-05
1.203000000000000000e+03 7.189147949218750000e+01 -1.852660179138183594e+01 1.550888060592114925e-03 7.566465646959841251e-04 6.922603934071958065e-04 -5.166113260202109814e-04
1.204000000000000000e+03 7.027699279785156250e+01 -1.876178932189941406e+01 2.117921132594347000e-03 7.709191413596272469e-04 8.666520589031279087e-04 -2.169826475437730551e-04
1.205000000000000000e+03 7.337559509277343750e+01 -1.813510894775390625e+01 1.421360357198864222e-04 1.584715791977941990e-04 9.018228593049570918e-05 -5.133283557370305061e-04
1.206000000000000000e+03 7.457292938232421875e+01 -1.095215797424316406e+01 8.803164586424827576e-03 -4.306653980165719986e-03 1.348953228443861008e-03 1.030912343412637711e-02
1.207000000000000000e+03 7.237094116210937500e+01 -1.113822460174560547e+01 1.433335803449153900e-02 -9.648322127759456635e-03 1.405510818585753441e-03 -4.367071960587054491e-04
1.208000000000000000e+03 6.888636016845703125e+01 -9.281153678894042969e+00 3.385235322639346123e-03 -8.090705610811710358e-03 -1.411641133017838001e-03 -1.005338039249181747e-02
1.209000000000000000e+03 7.048760223388671875e+01 -1.000490760803222656e+01 6.077287718653678894e-03 -1.540689636021852493e-02 -2.798882545903325081e-03 -6.784701254218816757e-03
1.210000000000000000e+03 7.088053131103515625e+01 -1.126580810546875000e+01 1.642632484436035156e-02 -1.125272642821073532e-02 1.552079687826335430e-03 -7.924724370241165161e-03
1.211000000000000000e+03 7.377125549316406250e+01 -1.035339450836181641e+01 3.571213688701391220e-03 -9.518956765532493591e-03 -1.784322899766266346e-03 6.750641390681266785e-03
1.212000000000000000e+03 7.577292633056640625e+01 -1.006857204437255859e+01 5.115306470543146133e-03 -3.369719255715608597e-03 5.236761062406003475e-04 1.371909305453300476e-02
1.213000000000000000e+03 7.563044738769531250e+01 -9.341053962707519531e+00 -4.322042688727378845e-03 -5.017273593693971634e-03 -2.801794791594147682e-03 1.412097644060850143e-02
1.214000000000000000e+03 7.018357086181640625e+01 -1.060256290435791016e+01 1.131730806082487106e-02 -1.258926931768655777e-02 -3.815883537754416466e-04 -1.061892136931419373e-02
1.215000000000000000e+03 1.397601032257080078e+01 -3.200510740280151367e+00 -5.410225987434387207e-01 1.473249401897192001e-02 -1.578870266675949097e-01 -6.756481528282165527e-02
1.216000000000000000e+03 1.481701850891113281e+01 -4.028326034545898438e+00 -4.840612709522247314e-01 6.726715713739395142e-03 -1.432003676891326904e-01 -8.493278175592422485e-02
1.217000000000000000e+03 1.249396800994873047e+01 -3.768870592117309570e+00 -4.380480945110321045e-01 5.537131056189537048e-02 -1.148030385375022888e-01 -1.124072521924972534e-01
1.218000000000000000e+03 1.325711822509765625e+01 -3.860347747802734375e+00 -4.546484947204589844e-01 3.920182213187217712e-02 -1.246339976787567139e-01 -1.025076061487197876e-01
1.219000000000000000e+03 1.208366870880126953e+01 2.983786344528198242e+00 -1.375543251924682409e-05 -1.311074447585269809e-05 -8.059852916630916297e-06 -5.570062057813629508e-06
1.220000000000000000e+03 1.283505821228027344e+01 2.887797594070434570e+00 1.549313492432702333e-05 1.344643533229827881e-05 8.681870895088650286e-06 6.566161573573481292e-06
1.221000000000000000e+03 1.642205047607421875e+01 -4.159917831420898438e+00 -5.067403912544250488e-01 -3.198822587728500366e-02 -1.616185903549194336e-01 -7.890771329402923584e-02
1.222000000000000000e+03 1.805923271179199219e+01 -4.228418827056884766e+00 -5.300720334053039551e-01 -6.806230545043945312e-02 -1.794403046369552612e-01 -8.748593181371688843e-02
1.223000000000000000e+03 1.733348274230957031e+01 -4.945237636566162109e+00 -4.184469580650329590e-01 -5.666129663586616516e-02 -1.425324827432632446e-01 -9.363454580307006836e-02
1.224000000000000000e+03 1.959449005126953125e+01 -3.485955476760864258e+00 -6.787772178649902344e-01 -6.019148230552673340e-02 -2.216906100511550903e-01 -8.624626696109771729e-02
1.225000000000000000e+03 2.056370735168457031e+01 -4.171182155609130859e+00 -6.136947870254516602e-01 -6.852529942989349365e-02 -2.046660333871841431e-01 -1.344762295484542847e-01
1.226000000000000000e+03 2.224279785156250000e+01 -4.054818153381347656e+00 -7.420074939727783203e-01 -3.491061925888061523e-02 -2.330754250288009644e-01 -2.282588034868240356e-01
1.227000000000000000e+03 2.210065841674804688e+01 -3.280716419219970703e+00 -8.369644284248352051e-01 1.059068273752927780e-02 -2.479121237993240356e-01 -1.497165113687515259e-01
1.228000000000000000e+03 7.307802581787109375e+01 -1.043184185028076172e+01 7.460728287696838379e-03 -1.148147415369749069e-02 -1.206223736517131329e-03 3.694106591865420341e-03
1.229000000000000000e+03 6.459567546844482422e+00 -3.361593961715698242e+00 -2.099902182817459106e-01 8.160996250808238983e-03 -6.054876372218132019e-02 -1.833538115024566650e-01
1.230000000000000000e+03 2.461588859558105469e+00 -3.174201488494873047e+00 -5.400548875331878662e-02 -7.003066688776016235e-02 -3.721084445714950562e-02 -1.084917336702346802e-01
1.231000000000000000e+03 3.851120471954345703e+00 -7.645901679992675781e+00 -5.638399347662925720e-02 -1.808747947216033936e-01 -7.117763906717300415e-02 -2.907892465591430664e-01
1.232000000000000000e+03 7.987980842590332031e+00 -3.390568971633911133e+00 -2.771801948547363281e-01 4.051325842738151550e-02 -7.100007683038711548e-02 -1.737082153558731079e-01
1.233000000000000000e+03 5.564524173736572266e+00 -2.619030475616455078e+00 -1.814898997545242310e-01 -5.784154869616031647e-03 -5.618221312761306763e-02 -1.480797529220581055e-01
1.234000000000000000e+03 5.707007884979248047e+00 -3.359482288360595703e+00 -1.773335039615631104e-01 -1.011517550796270370e-02 -5.623460561037063599e-02 -1.794495582580566406e-01
1.235000000000000000e+03 1.839919328689575195e+00 -5.631504535675048828e+00 -2.367975376546382904e-02 -2.012957930564880371e-01 -6.749266386032104492e-02 -1.404064595699310303e-01
1.236000000000000000e+03 8.752796173095703125e+00 -3.419004678726196289e+00 -3.115240633487701416e-01 5.245229601860046387e-02 -7.772152870893478394e-02 -1.635917574167251587e-01
1.237000000000000000e+03 1.561309051513671875e+01 -4.102350234985351562e+00 -4.965028464794158936e-01 -6.242700386792421341e-03 -1.508236676454544067e-01 -7.820357382297515869e-02
1.238000000000000000e+03 1.055016422271728516e+01 3.855634927749633789e+00 1.306364629272138700e-05 1.235008130606729537e-05 7.624118552485015243e-06 -4.742788064504566137e-07
1.239000000000000000e+03 1.888600730895996094e+01 -4.232308387756347656e+00 -5.493966341018676758e-01 -7.149209827184677124e-02 -1.862666159868240356e-01 -9.395675361156463623e-02
1.240000000000000000e+03 2.470130920410156250e+01 -3.009396553039550781e+00 -1.342765688896179199e+00 2.695529162883758545e-02 -3.947431147098541260e-01 -3.437095582485198975e-01
1.241000000000000000e+03 2.140064430236816406e+01 -4.114479064941406250e+00 -6.659060120582580566e-01 -5.906222760677337646e-02 -2.174904644489288330e-01 -1.716512292623519897e-01
1.242000000000000000e+03 2.068020439147949219e+01 -4.925272941589355469e+00 -4.943130910396575928e-01 -1.086910739541053772e-01 -1.809012442827224731e-01 -1.725575476884841919e-01
1.243000000000000000e+03 4.131813812255859375e+01 -1.056373882293701172e+01 -2.636510506272315979e-02 6.432476520538330078e+00 1.921833395957946777e+00 -1.600596427917480469e+00
1.244000000000000000e+03 1.986501312255859375e+01 -1.610930824279785156e+01 6.907123327255249023e-01 -1.343698352575302124e-01 1.669027507305145264e-01 -1.660404726862907410e-02
1.245000000000000000e+03 2.304800033569335938e+01 -1.760491561889648438e+01 4.935314059257507324e-01 -5.652844905853271484e-02 1.311008930206298828e-01 1.012015715241432190e-01
1.246000000000000000e+03 4.162630844116210938e+01 -3.354373693466186523e+00 8.422950506210327148e-01 7.962028503417968750e+00 2.641297101974487305e+00 3.421422958374023438e+00
1.247000000000000000e+03 4.180308151245117188e+01 -2.200798988342285156e+00 2.805286049842834473e-01 7.667934894561767578e+00 2.384539127349853516e+00 1.961853742599487305e+00
1.248000000000000000e+03 5.460507583618164062e+01 2.960507154464721680e+00 -2.257709026336669922e+00 2.832165658473968506e-01 -5.923477411270141602e-01 -5.273430943489074707e-01
1.249000000000000000e+03 1.881789970397949219e+01 -1.574769687652587891e+01 7.315441370010375977e-01 -1.308176517486572266e-01 1.802179366350173950e-01 -4.599133506417274475e-02
1.250000000000000000e+03 2.878410339355468750e+01 -1.460098552703857422e+01 6.621907949447631836e-01 -2.402913570404052734e-01 1.265698224306106567e-01 8.939988017082214355e-01
1.251000000000000000e+03 2.770717811584472656e+01 -1.671997833251953125e+01 -2.475502789020538330e-01 2.516605891287326813e-02 -6.671526283025741577e-02 5.839224457740783691e-01
1.252000000000000000e+03 1.774806022644042969e+01 -1.530849456787109375e+01 8.036787509918212891e-01 -8.834522962570190430e-02 2.146000564098358154e-01 -4.706665500998497009e-02
1.253000000000000000e+03 2.197385215759277344e+01 -1.530457592010498047e+01 6.250891685485839844e-01 -2.276153415441513062e-01 1.192421466112136841e-01 1.218136847019195557e-01
1.254000000000000000e+03 1.194877719879150391e+01 1.815980148315429688e+01 6.576596933882683516e-05 1.077905380952870473e-05 2.296350612596143037e-05 1.169491406471934170e-05
1.255000000000000000e+03 2.558391189575195312e+01 -3.313121414184570312e+01 -2.617970108985900879e-01 1.043773666024208069e-01 -4.722588881850242615e-02 9.697060286998748779e-02
1.256000000000000000e+03 2.872429656982421875e+01 -3.420932769775390625e+01 -7.804864645004272461e-02 9.119237065315246582e-01 2.501625120639801025e-01 6.286960840225219727e-01
1.257000000000000000e+03 2.376614189147949219e+01 -1.524226093292236328e+01 6.012425422668457031e-01 -2.395024597644805908e-01 1.085220202803611755e-01 2.718028426170349121e-01
1.258000000000000000e+03 2.295411300659179688e+01 -1.647974777221679688e+01 5.472279191017150879e-01 -1.468742787837982178e-01 1.201060935854911804e-01 1.509827524423599243e-01
1.259000000000000000e+03 6.937472534179687500e+01 -1.130389404296875000e+01 1.840889640152454376e-02 -6.091173272579908371e-03 3.695317078381776810e-03 -1.632002182304859161e-02
1.260000000000000000e+03 1.883001708984375000e+01 -3.350962829589843750e+01 -3.703888058662414551e-01 -5.363381654024124146e-02 -1.272067874670028687e-01 -3.666663914918899536e-02
1.261000000000000000e+03 7.121951580047607422e-01 3.030885934829711914e+00 3.675463085528463125e-05 6.724653758283238858e-06 1.304378474742406979e-05 1.411457287758821622e-05
1.262000000000000000e+03 3.945081329345703125e+01 -1.976171684265136719e+01 -8.709743618965148926e-02 6.307083606719970703e+00 1.865995883941650391e+00 5.048792362213134766e-01
1.263000000000000000e+03 3.580495452880859375e+01 -1.893879318237304688e+01 -1.311320304870605469e+00 5.590897083282470703e+00 1.283873081207275391e+00 5.469447374343872070e-01
1.264000000000000000e+03 2.730379486083984375e+01 -3.457045364379882812e+01 -7.728663831949234009e-02 5.422596335411071777e-01 1.394919008016586304e-01 3.707449436187744141e-01
1.265000000000000000e+03 1.404483509063720703e+01 1.396272087097167969e+01 9.368264727527275681e-05 -5.379920821724226698e-06 2.649081943673081696e-05 2.464956924086436629e-05
1.266000000000000000e+03 1.666028404235839844e+01 -1.480339527130126953e+01 8.237990140914916992e-01 -3.700252622365951538e-02 2.360389530658721924e-01 -2.528256736695766449e-02
1.267000000000000000e+03 2.612262916564941406e+01 -1.598569297790527344e+01 2.719978988170623779e-01 -9.801793098449707031e-02 5.219398438930511475e-02 5.251148343086242676e-01
1.268000000000000000e+03 1.807573127746582031e+01 6.510358810424804688e+00 -8.793442975729703903e-05 -5.702049293176969513e-06 -2.809094257827382535e-05 -3.074658161494880915e-05
1.269000000000000000e+03 1.708930969238281250e+01 8.922153472900390625e+00 -1.002496283035725355e-04 -6.818163910793373361e-06 -3.212033698218874633e-05 -2.725305785133969039e-05
1.270000000000000000e+03 2.106233596801757812e+01 -3.479260253906250000e+01 -2.537264227867126465e-01 -8.317979983985424042e-03 -7.861332595348358154e-02 -3.841060772538185120e-02
1.271000000000000000e+03 2.291532707214355469e+01 -3.587297821044921875e+01 -1.330588459968566895e-01 8.973921835422515869e-02 -1.299588847905397415e-02 1.987801864743232727e-02
1.272000000000000000e+03 1.469895935058593750e+01 -3.616683197021484375e+01 -1.724240779876708984e-01 -1.493392437696456909e-01 -9.652899950742721558e-02 3.738777711987495422e-02
1.273000000000000000e+03 4.729019546508789062e+01 -2.752251052856445312e+01 3.037249743938446045e-01 1.338135719299316406e+00 4.925582110881805420e-01 -7.277678847312927246e-01
1.274000000000000000e+03 4.759547424316406250e+01 -2.536606979370117188e+01 4.126789271831512451e-01 1.008734941482543945e+00 4.264241755008697510e-01 -6.725000739097595215e-01
1.275000000000000000e+03 6.850161743164062500e+01 -1.033909893035888672e+01 1.643351092934608459e-02 5.028155865147709846e-04 5.080897826701402664e-03 -1.923740468919277191e-02
1.276000000000000000e+03 7.084408569335937500e+01 -1.054730892181396484e+01 7.695415057241916656e-03 -1.547704357653856277e-02 -2.334488555788993835e-03 -8.269728161394596100e-03
1.277000000000000000e+03 7.510105133056640625e+01 -3.013814735412597656e+01 -3.308922518044710159e-03 -1.062289229594171047e-03 -1.311363535933196545e-03 5.291472189128398895e-03
1.278000000000000000e+03 7.648645782470703125e+01 -3.515356063842773438e+01 -2.308997558429837227e-03 -9.371382184326648712e-03 -3.504113992676138878e-03 9.453677572309970856e-03
1.279000000000000000e+03 7.798342895507812500e+01 -2.900223541259765625e+01 -2.108671935275197029e-03 -1.233371905982494354e-03 -1.002613105811178684e-03 2.023977926000952721e-03
1.280000000000000000e+03 7.837431335449218750e+01 -2.213050651550292969e+01 1.229468616656959057e-03 4.271722864359617233e-04 4.969922592863440514e-04 -2.495975641068071127e-04
1.281000000000000000e+03 7.691487121582031250e+01 -2.451407432556152344e+01 -1.471298048272728920e-03 -2.143178717233240604e-04 -5.056848167441785336e-04 -2.994386341015342623e-05
1.282000000000000000e+03 7.658701324462890625e+01 -3.162215232849121094e+01 -7.335083209909498692e-04 -3.985468298196792603e-03 -1.415692968294024467e-03 5.576561205089092255e-03
1.283000000000000000e+03 7.795791625976562500e+01 -3.439673614501953125e+01 -2.413536887615919113e-03 -9.184569120407104492e-03 -3.479431848973035812e-03 5.441872403025627136e-03
1.284000000000000000e+03 7.728520202636718750e+01 -2.188871002197265625e+01 -1.325895776972174644e-03 -1.445636444259434938e-04 -4.411378176882863045e-04 -4.589480231516063213e-04
1.285000000000000000e+03 7.707458496093750000e+01 -2.314844322204589844e+01 1.143829314969480038e-03 1.215001102536916733e-04 3.795988450292497873e-04 -3.692702157422900200e-04
1.286000000000000000e+03 7.801863098144531250e+01 -2.760645294189453125e+01 5.918855313211679459e-04 -2.196354471379891038e-04 1.116750136134214699e-04 6.358149112202227116e-04
1.287000000000000000e+03 7.656367492675781250e+01 -3.022940063476562500e+01 -3.467034082859754562e-03 -2.214871579781174660e-03 -1.704571768641471863e-03 4.331981297582387924e-03
1.288000000000000000e+03 7.668156433105468750e+01 -2.738024711608886719e+01 -2.685685642063617706e-03 -5.793492891825735569e-04 -9.795104851946234703e-04 1.286875689402222633e-03
1.289000000000000000e+03 7.678943634033203125e+01 -2.593768310546875000e+01 4.133379843551665545e-04 -3.166218521073460579e-04 2.901484003814402968e-05 1.183450003736652434e-04
1.290000000000000000e+03 7.307714843750000000e+01 -2.506943511962890625e+01 -2.678696066141128540e-03 -6.648079724982380867e-04 -1.003051176667213440e-03 9.319801029050722718e-05
1.291000000000000000e+03 7.674137115478515625e+01 -3.414802169799804688e+01 9.009732748381793499e-04 -8.506634272634983063e-03 -2.281698398292064667e-03 7.470587734133005142e-03
1.292000000000000000e+03 7.666502380371093750e+01 -3.296097946166992188e+01 -2.917384263128042221e-03 -5.700571928173303604e-03 -2.585386857390403748e-03 6.857754196971654892e-03
1.293000000000000000e+03 7.557582092285156250e+01 -3.773099899291992188e+01 1.914682681672275066e-03 -1.540656015276908875e-02 -4.047563299536705017e-03 7.931711152195930481e-03
1.294000000000000000e+03 7.651198577880859375e+01 -3.920098876953125000e+01 1.953627681359648705e-03 -1.779146492481231689e-02 -4.751351196318864822e-03 6.696419324725866318e-03
1.295000000000000000e+03 7.550125122070312500e+01 9.975920677185058594e+00 -1.383059844374656677e-02 -6.913878917694091797e-01 -2.115655541419982910e-01 -4.332654178142547607e-01
1.296000000000000000e+03 7.679387664794921875e+01 8.492711067199707031e+00 -1.888731122016906738e-02 -6.451599597930908203e-01 -1.992141902446746826e-01 -3.190563619136810303e-01
1.297000000000000000e+03 7.534644317626953125e+01 1.692206573486328125e+01 6.279591470956802368e-02 -1.159331202507019043e+00 -3.289605975151062012e-01 -3.783500790596008301e-01
1.298000000000000000e+03 7.671641540527343750e+01 1.543720149993896484e+01 2.831285446882247925e-02 -1.216201066970825195e+00 -3.563664555549621582e-01 -3.095618784427642822e-01
1.299000000000000000e+03 7.550174713134765625e+01 2.333010864257812500e+01 6.071050092577934265e-02 -1.489615917205810547e+00 -4.286716282367706299e-01 -2.080657631158828735e-01
1.300000000000000000e+03 7.680572509765625000e+01 2.223700904846191406e+01 3.563082590699195862e-02 -1.655722498893737793e+00 -4.860274791717529297e-01 -1.790753453969955444e-01
1.301000000000000000e+03 7.497253417968750000e+01 2.985991096496582031e+01 4.692986980080604553e-02 -1.528916716575622559e+00 -4.445960521697998047e-01 -8.124493807554244995e-02
1.302000000000000000e+03 7.642100524902343750e+01 2.889621925354003906e+01 3.058951906859874725e-02 -1.796894788742065430e+00 -5.298915505409240723e-01 -7.684274017810821533e-02
1.303000000000000000e+03 7.607823181152343750e+01 3.793180847167968750e+01 6.113991886377334595e-02 -1.940015435218811035e+00 -5.636626482009887695e-01 -6.711004674434661865e-02
1.304000000000000000e+03 7.774480438232421875e+01 3.692021560668945312e+01 3.723585233092308044e-02 -2.205651760101318359e+00 -6.505247354507446289e-01 2.394337393343448639e-02
1.305000000000000000e+03 7.547127532958984375e+01 3.290979385375976562e+01 2.541661076247692108e-02 -1.646969318389892578e+00 -4.864658117294311523e-01 -5.411931127309799194e-02
1.306000000000000000e+03 7.640207672119140625e+01 2.754186248779296875e+01 3.023442439734935760e-02 -1.775106549263000488e+00 -5.234616398811340332e-01 -9.687786549329757690e-02
1.307000000000000000e+03 7.670333862304687500e+01 1.964241409301757812e+01 3.180520981550216675e-02 -1.507698178291320801e+00 -4.427679181098937988e-01 -2.301670759916305542e-01
1.308000000000000000e+03 7.674505615234375000e+01 1.266402816772460938e+01 1.006047334522008896e-02 -9.944001436233520508e-01 -2.953018844127655029e-01 -3.340590596199035645e-01
1.309000000000000000e+03 7.692586517333984375e+01 2.983992576599121094e+00 -4.554372280836105347e-02 -2.547078430652618408e-01 -9.007547050714492798e-02 -2.020968198776245117e-01
1.310000000000000000e+03 7.833424377441406250e+01 -4.009471893310546875e+00 -1.007946766912937164e-02 7.847785949707031250e-03 -6.695044576190412045e-04 -1.315093599259853363e-02
1.311000000000000000e+03 7.494635009765625000e+01 -9.412859916687011719e+00 7.926559919724240899e-05 -9.565730579197406769e-03 -2.845939481630921364e-03 1.122184004634618759e-02
1.312000000000000000e+03 7.690274810791015625e+01 -9.646467208862304688e+00 2.440371783450245857e-03 3.470601048320531845e-03 1.773291849531233311e-03 1.590561307966709137e-02
1.313000000000000000e+03 7.721612548828125000e+01 -5.237691879272460938e+00 -1.795138791203498840e-02 -5.393551196902990341e-03 -7.003481965512037277e-03 -8.872564882040023804e-03
1.314000000000000000e+03 7.444313049316406250e+01 -1.025500679016113281e+01 6.455272436141967773e-03 -8.257725276052951813e-03 -5.407358985394239426e-04 1.025460101664066315e-02
1.315000000000000000e+03 7.714987182617187500e+01 -2.528399467468261719e+00 -3.334973379969596863e-02 -4.202877730131149292e-02 -2.261355333030223846e-02 -5.373357981443405151e-02
1.316000000000000000e+03 7.812680053710937500e+01 4.288657665252685547e+00 -1.781350746750831604e-02 -3.383921980857849121e-01 -1.068617105484008789e-01 -1.511871367692947388e-01
1.317000000000000000e+03 7.699298858642578125e+01 1.612506270408630371e+00 -4.426421225070953369e-02 -1.829296797513961792e-01 -6.815817207098007202e-02 -1.623569875955581665e-01
1.318000000000000000e+03 7.677845764160156250e+01 9.879798889160156250e+00 -7.724161259829998016e-03 -7.614735364913940430e-01 -2.307593226432800293e-01 -3.330071568489074707e-01
1.319000000000000000e+03 7.669887542724609375e+01 1.684903335571289062e+01 3.541015833616256714e-02 -1.322160959243774414e+00 -3.860252499580383301e-01 -2.876435816287994385e-01
1.320000000000000000e+03 7.801557159423828125e+01 2.361380577087402344e+01 1.812488958239555359e-02 -1.943283081054687500e+00 -5.775474905967712402e-01 -9.558627009391784668e-02
1.321000000000000000e+03 7.770429992675781250e+01 3.046450614929199219e+01 1.104487758129835129e-02 -2.086006641387939453e+00 -6.224884986877441406e-01 -3.806786239147186279e-02
1.322000000000000000e+03 7.489088439941406250e+01 3.442888641357421875e+01 5.547623336315155029e-02 -1.530867695808410645e+00 -4.426174163818359375e-01 -3.513960167765617371e-02
1.323000000000000000e+03 7.638605499267578125e+01 2.616804885864257812e+01 2.775792591273784637e-02 -1.748890042304992676e+00 -5.163396596908569336e-01 -1.194839701056480408e-01
1.324000000000000000e+03 7.497122955322265625e+01 2.454027938842773438e+01 7.219715416431427002e-02 -1.441323280334472656e+00 -4.107378125190734863e-01 -1.961309760808944702e-01
1.325000000000000000e+03 7.680684661865234375e+01 7.108246326446533203e+00 -2.703323774039745331e-02 -5.354825854301452637e-01 -1.687547564506530762e-01 -3.007444441318511963e-01
1.326000000000000000e+03 7.705705261230468750e+01 2.399450391530990601e-01 -4.403464868664741516e-02 -1.230013370513916016e-01 -5.011079460382461548e-02 -1.222334206104278564e-01
1.327000000000000000e+03 1.703672409057617188e+01 3.481843709945678711e+00 -3.496855697449063882e-06 -1.017464228425524198e-06 -1.354296045974479057e-06 1.025096139528614003e-06
1.328000000000000000e+03 4.259305191040039062e+01 1.490765857696533203e+01 7.726017236709594727e-01 8.367049217224121094e+00 2.741895437240600586e+00 1.536261677742004395e+00
1.329000000000000000e+03 4.420991516113281250e+01 1.761348533630371094e+01 6.530557870864868164e-01 6.666751861572265625e+00 2.195942401885986328e+00 1.093323111534118652e+00
1.330000000000000000e+03 4.004483413696289062e+01 -2.338620758056640625e+01 4.937610924243927002e-01 4.911617755889892578e+00 1.621613621711730957e+00 1.096331179141998291e-01
1.331000000000000000e+03 4.578763961791992188e+01 -2.813038063049316406e+01 2.330788820981979370e-01 1.898388504981994629e+00 6.394401788711547852e-01 -7.805987596511840820e-01
1.332000000000000000e+03 7.096990203857421875e+01 -2.297800636291503906e+01 1.948606572113931179e-03 -2.754536108113825321e-04 5.019459058530628681e-04 -2.861216489691287279e-04
1.333000000000000000e+03 6.995906829833984375e+01 -2.128441238403320312e+01 2.329488517716526985e-03 3.803796716965734959e-04 8.129604393616318703e-04 -2.182886091759428382e-04
1.334000000000000000e+03 4.925988006591796875e+01 -3.266123199462890625e+01 -1.077927555888891220e-02 1.209508419036865234e+00 3.596187233924865723e-01 -5.236360430717468262e-01
1.335000000000000000e+03 5.231338500976562500e+01 -3.364879989624023438e+01 -2.823423221707344055e-02 7.741754651069641113e-01 2.237823754549026489e-01 -3.387316763401031494e-01
1.336000000000000000e+03 1.419112968444824219e+01 3.047012901306152344e+01 5.392128368839621544e-04 -4.626705194823443890e-04 2.296268758072983474e-05 -1.917250338010489941e-04
1.337000000000000000e+03 4.775692749023437500e+01 -3.028257751464843750e+01 1.159683242440223694e-01 1.390277743339538574e+00 4.518738090991973877e-01 -6.427617073059082031e-01
1.338000000000000000e+03 4.452427291870117188e+01 2.067778778076171875e+01 3.880557417869567871e-01 6.238158226013183594e+00 1.987864255905151367e+00 6.182170510292053223e-01
1.339000000000000000e+03 4.351147079467773438e+01 1.323828506469726562e+01 1.161931633949279785e+00 7.409056186676025391e+00 2.571296453475952148e+00 1.939440250396728516e+00
1.340000000000000000e+03 4.425725936889648438e+01 2.511652565002441406e+01 4.458249807357788086e-01 5.967163085937500000e+00 1.923896431922912598e+00 -1.405528932809829712e-01
1.341000000000000000e+03 4.413945770263671875e+01 2.655134010314941406e+01 6.471520662307739258e-01 5.762512207031250000e+00 1.922899246215820312e+00 -2.765447795391082764e-01
1.342000000000000000e+03 4.569118499755859375e+01 -2.491389083862304688e+01 4.445201158523559570e-01 1.791037201881408691e+00 6.706672310829162598e-01 -8.945930600166320801e-01
1.343000000000000000e+03 7.260460662841796875e+01 -1.902581024169921875e+01 -2.671623602509498596e-03 -8.700280886841937900e-05 -8.275879081338644028e-04 -7.409767131321132183e-04
1.344000000000000000e+03 4.307788848876953125e+01 2.074669265747070312e+01 1.623770892620086670e-01 6.922016620635986328e+00 2.125318050384521484e+00 3.864105045795440674e-01
1.345000000000000000e+03 4.442927932739257812e+01 2.367100715637207031e+01 3.432441651821136475e-01 6.053564071655273438e+00 1.919042468070983887e+00 1.502592712640762329e-01
1.346000000000000000e+03 4.591770172119140625e+01 2.384260368347167969e+01 5.694941282272338867e-01 5.321384429931640625e+00 1.767263650894165039e+00 2.025337815284729004e-01
1.347000000000000000e+03 4.303002548217773438e+01 2.362666702270507812e+01 1.724209934473037720e-01 6.636217117309570312e+00 2.042591333389282227e+00 2.980178035795688629e-02
1.348000000000000000e+03 5.665654182434082031e+00 3.360133743286132812e+01 7.425949297612532973e-05 1.932011509779840708e-04 8.023819100344553590e-05 -7.841857586754485965e-05
1.349000000000000000e+03 2.356678485870361328e+00 3.561313629150390625e+01 5.670189784723334014e-05 3.476169949863106012e-04 1.212956631206907332e-04 -1.204096115543507040e-04
1.350000000000000000e+03 3.366488695144653320e+00 3.108412361145019531e+01 5.507719470188021660e-05 1.474591117585077882e-04 6.076089266571216285e-05 -1.678337139310315251e-04
1.351000000000000000e+03 1.900285243988037109e+00 2.724329566955566406e+01 5.834711555507965386e-05 3.833719529211521149e-05 2.900529398175422102e-05 -5.966789103695191443e-05
1.352000000000000000e+03 3.234471082687377930e+00 2.427740859985351562e+01 1.683580421740771271e-06 2.976310133817605674e-05 9.434004823560826480e-06 1.286176029680063948e-05
1.353000000000000000e+03 5.038784503936767578e+00 3.741332626342773438e+01 1.493655145168304443e-04 -1.453950826544314623e-04 1.191128717437095474e-06 -5.022783298045396805e-04
1.354000000000000000e+03 3.669051170349121094e+00 3.249140930175781250e+01 5.872671317774802446e-05 1.455921592423692346e-04 6.129566463641822338e-05 -1.236964453710243106e-04
1.355000000000000000e+03 3.933649301528930664e+00 3.394880294799804688e+01 1.017629547277465463e-04 -3.056258037759107538e-06 2.961200880235992372e-05 -2.783737145364284515e-04
1.356000000000000000e+03 6.342695713043212891e+00 2.928494834899902344e+01 1.754977129166945815e-04 -3.336131339892745018e-04 -4.743462341139093041e-05 -9.497753489995375276e-05
1.357000000000000000e+03 3.452381610870361328e+00 -3.541057968139648438e+01 -1.688477769494056702e-02 7.913598418235778809e-02 1.867536269128322601e-02 -2.832169458270072937e-02
1.358000000000000000e+03 1.978969454765319824e+00 -2.906500053405761719e+01 -8.012114465236663818e-02 8.095455914735794067e-02 2.500254195183515549e-04 1.558297425508499146e-01
1.359000000000000000e+03 1.714110136032104492e+00 -3.447406387329101562e+01 -6.045244634151458740e-03 2.242503017187118530e-01 6.546151638031005859e-02 -2.115591987967491150e-02
1.360000000000000000e+03 5.387693881988525391e+00 -3.357405471801757812e+01 -8.719880133867263794e-02 -9.481190145015716553e-02 -5.460320785641670227e-02 4.098946973681449890e-02
1.361000000000000000e+03 1.951891183853149414e+00 2.161227798461914062e+01 1.090827845473540947e-05 -1.156783696387719829e-06 2.925448370660888031e-06 -2.776688234007451683e-05
1.362000000000000000e+03 2.038697957992553711e+00 -3.049400520324707031e+01 -5.527492612600326538e-02 1.457169204950332642e-01 2.713259868323802948e-02 6.919019669294357300e-02
1.363000000000000000e+03 3.142003059387207031e+00 1.711028861999511719e+01 -7.454671958839753643e-06 5.599606993200723082e-06 -5.565194669543416239e-07 -1.648432225920259953e-05
1.364000000000000000e+03 2.881730556488037109e+00 1.155785465240478516e+01 -5.449174750538077205e-06 1.758334747137269005e-06 -1.107251932808139827e-06 6.736204340995755047e-06
1.365000000000000000e+03 2.856275558471679688e+00 -1.098347377777099609e+01 5.109309218823909760e-03 -4.387551844120025635e-01 -1.300937682390213013e-01 -2.842257916927337646e-01
1.366000000000000000e+03 2.506828546524047852e+00 4.755115985870361328e+00 -6.712613412673817948e-06 6.511400130193578661e-08 -1.994249942072201520e-06 -5.287003659759648144e-06
1.367000000000000000e+03 2.747853279113769531e+00 8.839266777038574219e+00 -3.382281420272192918e-06 -6.904002020746702328e-06 -3.085885055043036118e-06 7.891431778261903673e-06
1.368000000000000000e+03 1.819265961647033691e+00 1.454843330383300781e+01 1.858346513472497463e-05 -7.576973985123913735e-06 3.301947117506642826e-06 5.114433861308498308e-06
1.369000000000000000e+03 3.085546970367431641e+00 1.571093559265136719e+01 8.615003935119602829e-06 -1.099695055017946288e-05 -7.145839617805904709e-07 1.534667535452172160e-05
1.370000000000000000e+03 1.780058026313781738e+00 -2.342199897766113281e+01 -2.146157668903470039e-03 -4.909859597682952881e-01 -1.479396373033523560e-01 3.186140358448028564e-01
1.371000000000000000e+03 2.669466257095336914e+00 -2.203072166442871094e+01 6.380011141300201416e-02 -4.308472275733947754e-01 -1.101141348481178284e-01 3.586133420467376709e-01
1.372000000000000000e+03 1.844527959823608398e+00 -1.503594112396240234e+01 5.404488742351531982e-02 -8.990249037742614746e-01 -2.534939944744110107e-01 -1.361407488584518433e-01
1.373000000000000000e+03 1.642741680145263672e+00 -8.223317146301269531e+00 -1.484825182706117630e-02 -4.048553407192230225e-01 -1.259110718965530396e-01 -1.762260198593139648e-01
1.374000000000000000e+03 5.126826286315917969e+00 -4.090298652648925781e+00 -1.419994384050369263e-01 -3.285926580429077148e-02 -5.245761200785636902e-02 -2.034345567226409912e-01
1.375000000000000000e+03 2.808287143707275391e+00 1.019611263275146484e+01 2.814353138091973960e-06 1.561295903229620308e-06 1.312694735133845825e-06 -4.756397174787707627e-06
1.376000000000000000e+03 2.784608125686645508e+00 -7.295029640197753906e+00 -4.091198742389678955e-02 -2.467165887355804443e-01 -8.628857135772705078e-02 -2.363984137773513794e-01
1.377000000000000000e+03 2.301492691040039062e+00 -4.667724132537841797e+00 -3.599346056580543518e-02 -1.347153484821319580e-01 -5.121264234185218811e-02 -1.404578387737274170e-01
1.378000000000000000e+03 3.173820972442626953e+00 -1.808327293395996094e+01 1.845247447490692139e-01 -4.537544846534729004e-01 -8.076892793178558350e-02 8.629066497087478638e-02
1.379000000000000000e+03 3.053556203842163086e+00 -1.504473972320556641e+01 9.975381195545196533e-02 -5.457560420036315918e-01 -1.338006556034088135e-01 -1.790757328271865845e-01
1.380000000000000000e+03 1.887655258178710938e+00 -2.481678962707519531e+01 -5.209981463849544525e-03 -3.190487623214721680e-01 -9.727761894464492798e-02 3.458412587642669678e-01
1.381000000000000000e+03 4.010447978973388672e+00 -2.278721046447753906e+01 1.174070611596107483e-01 -6.723792850971221924e-02 1.505073904991149902e-02 4.492626190185546875e-01
1.382000000000000000e+03 3.211474895477294922e+00 -2.475008201599121094e+01 -4.469541087746620178e-02 -1.340543031692504883e-01 -5.362491309642791748e-02 4.551665186882019043e-01
1.383000000000000000e+03 1.937869548797607422e+00 2.019035530090332031e+01 3.344044444020255469e-06 -9.085548299481160939e-06 -1.722451088426169008e-06 2.080163721984717995e-05
1.384000000000000000e+03 3.227359056472778320e+00 2.140917778015136719e+01 9.753722224559169263e-06 -1.956735104613471776e-06 2.339096226933179423e-06 2.637290708662476391e-05
1.385000000000000000e+03 2.772825717926025391e+00 -9.708692550659179688e+00 -1.750331185758113861e-02 -3.825440108776092529e-01 -1.200141981244087219e-01 -2.773815095424652100e-01
1.386000000000000000e+03 2.737432718276977539e+00 -8.472831726074218750e+00 -2.564623951911926270e-02 -3.143406808376312256e-01 -1.019960716366767883e-01 -2.595899105072021484e-01
1.387000000000000000e+03 4.361842155456542969e+00 -3.626286697387695312e+01 -1.684010960161685944e-02 2.397987432777881622e-02 2.141929930076003075e-03 -2.200774662196636200e-02
1.388000000000000000e+03 2.956699371337890625e+00 1.292636585235595703e+01 6.464965736086014658e-06 -7.497038041037740186e-06 -3.096216971698595444e-07 2.140075366696692072e-06
1.389000000000000000e+03 3.022851943969726562e+00 1.431478404998779297e+01 -8.956671990745235234e-06 6.459214546339353547e-06 -7.492373015338671394e-07 -2.728210574787226506e-06
1.390000000000000000e+03 3.240680456161499023e+00 2.284574317932128906e+01 2.055840741377323866e-05 5.961968327028444037e-06 7.956113222462590784e-06 -5.384087126003578305e-05
1.391000000000000000e+03 3.183448791503906250e+00 1.853297042846679688e+01 4.659261776396306232e-06 -3.155535523546859622e-06 4.511178417487826664e-07 2.531459540477953851e-05
1.392000000000000000e+03 4.402533054351806641e+00 1.688282012939453125e+01 8.393142252316465601e-07 -9.830325325310695916e-06 -2.697303216336877085e-06 2.581274566182401031e-05
1.393000000000000000e+03 1.842729210853576660e+00 -3.549343490600585938e+01 -7.197303697466850281e-03 2.087426632642745972e-01 6.046360731124877930e-02 -3.222012892365455627e-02
1.394000000000000000e+03 3.228155612945556641e+00 -3.349599075317382812e+01 -3.640766814351081848e-02 7.326380163431167603e-02 1.105683948844671249e-02 3.293402260169386864e-03
1.395000000000000000e+03 6.347626209259033203e+00 -3.153794860839843750e+01 -2.158057838678359985e-01 -1.742086708545684814e-01 -1.170043349266052246e-01 1.014463081955909729e-01
1.396000000000000000e+03 2.994236946105957031e+00 -2.329229545593261719e+01 4.574726149439811707e-02 -2.706479132175445557e-01 -6.747019290924072266e-02 4.587044417858123779e-01
1.397000000000000000e+03 2.738692045211791992e+00 -2.092360877990722656e+01 1.515505909919738770e-01 -4.512186944484710693e-01 -8.990043401718139648e-02 3.268851637840270996e-01
1.398000000000000000e+03 4.453797817230224609e+00 -2.106916427612304688e+01 2.283172756433486938e-01 1.255939900875091553e-01 1.061733812093734741e-01 3.640251159667968750e-01
1.399000000000000000e+03 2.998392105102539062e+00 -1.365203189849853516e+01 6.525749713182449341e-02 -5.269654989242553711e-01 -1.385124027729034424e-01 -2.374542057514190674e-01
1.400000000000000000e+03 4.440076828002929688e+01 1.913961982727050781e+01 5.104712247848510742e-01 6.399457454681396484e+00 2.072978496551513672e+00 8.309275507926940918e-01
1.401000000000000000e+03 4.331766891479492188e+01 1.002237510681152344e+01 1.619788765907287598e+00 6.922523498535156250e+00 2.562693595886230469e+00 2.533292293548583984e+00
1.402000000000000000e+03 7.140684509277343750e+01 -1.930836296081542969e+01 -1.817054813727736473e-03 -1.005997066386044025e-03 -8.469155873171985149e-04 5.913235945627093315e-04
1.403000000000000000e+03 4.645510864257812500e+01 -2.611873626708984375e+01 3.910708129405975342e-01 1.558382868766784668e+00 5.848361253738403320e-01 -7.841088771820068359e-01
1.404000000000000000e+03 4.497823715209960938e+01 3.200013351440429688e+01 3.122057914733886719e-01 4.433728218078613281e+00 1.423780202865600586e+00 6.060884892940521240e-02
1.405000000000000000e+03 7.108803558349609375e+01 -2.166947364807128906e+01 -1.725854235701262951e-03 -1.889314880827441812e-04 -5.744356894865632057e-04 9.436394320800900459e-04
1.406000000000000000e+03 4.399172592163085938e+01 -2.292108917236328125e+01 4.242221117019653320e-01 2.847169399261474609e+00 9.814174175262451172e-01 -1.035346388816833496e+00
1.407000000000000000e+03 4.486752700805664062e+01 -2.388071060180664062e+01 4.869569540023803711e-01 2.278205394744873047e+00 8.295487165451049805e-01 -9.613237380981445312e-01
1.408000000000000000e+03 5.159628677368164062e+01 -2.978271675109863281e+01 1.097854822874069214e-01 5.706209540367126465e-01 2.041219323873519897e-01 -3.371584713459014893e-01
1.409000000000000000e+03 8.950574874877929688e+00 -1.407257270812988281e+01 5.823335647583007812e-01 3.915983736515045166e-01 2.921795845031738281e-01 -5.698407068848609924e-03
1.410000000000000000e+03 1.548048877716064453e+01 1.005255794525146484e+01 -7.070507854223251343e-05 -1.406577393936458975e-05 -2.543125629017595202e-05 -2.917155325121711940e-05
1.411000000000000000e+03 1.611352920532226562e+01 -3.376750183105468750e+01 -3.449566066265106201e-01 -7.815534621477127075e-02 -1.269335895776748657e-01 1.418222952634096146e-02
1.412000000000000000e+03 5.398368835449218750e+01 -3.454545211791992188e+01 -2.365330234169960022e-02 5.442491769790649414e-01 1.561787575483322144e-01 -2.189022004604339600e-01
1.413000000000000000e+03 5.142216873168945312e+01 1.264869570732116699e+00 -4.106527328491210938e+00 2.853679358959197998e-01 -1.146347880363464355e+00 1.973782926797866821e-01
1.414000000000000000e+03 5.189809799194335938e+01 5.158937931060791016e+00 -1.386361360549926758e+00 3.439050316810607910e-01 -3.127368986606597900e-01 -7.876794338226318359e-01
1.415000000000000000e+03 3.023050880432128906e+01 -3.288806533813476562e+01 3.746695443987846375e-02 1.219750642776489258e+00 3.771652877330780029e-01 8.924037814140319824e-01
1.416000000000000000e+03 1.449854850769042969e+01 1.262371540069580078e+01 -8.566777250962331891e-05 -6.195320565893780440e-06 -2.755892819550354034e-05 -3.352874773554503918e-05
1.417000000000000000e+03 4.587199211120605469e+00 -2.484073448181152344e+01 -5.931822583079338074e-02 -4.474907740950584412e-02 -3.122019022703170776e-02 4.633560478687286377e-01
1.418000000000000000e+03 4.821070194244384766e+00 -2.350199508666992188e+01 5.870459228754043579e-02 1.668805480003356934e-01 6.767553836107254028e-02 4.095215797424316406e-01
1.419000000000000000e+03 2.529667282104492188e+01 -3.673674392700195312e+01 -8.610581606626510620e-02 4.037581980228424072e-01 9.529571980237960815e-02 1.868414431810379028e-01
1.420000000000000000e+03 2.801781082153320312e+01 -1.524754524230957031e+01 4.439339637756347656e-01 -2.479372173547744751e-01 5.879902467131614685e-02 7.639211416244506836e-01
1.421000000000000000e+03 3.929678344726562500e+01 3.388423919677734375e+00 -8.869477510452270508e-01 8.785558700561523438e+00 2.369583129882812500e+00 1.816960930824279785e+00
1.422000000000000000e+03 1.615460968017578125e+01 3.894891500473022461e+00 -2.684334867808502167e-05 -2.229394567621056922e-06 -8.721823178348131478e-06 -1.591905493114609271e-05
1.423000000000000000e+03 1.726872062683105469e+01 2.678089618682861328e+00 8.608964890299830586e-06 2.269602555315941572e-05 9.391496860189363360e-06 3.994072812929516658e-06
1.424000000000000000e+03 1.012757587432861328e+01 -3.269260787963867188e+01 -2.981114387512207031e-01 -2.741165757179260254e-01 -1.716684103012084961e-01 1.863121688365936279e-01
1.425000000000000000e+03 1.382733154296875000e+01 2.875614166259765625e+01 6.512686959467828274e-04 -1.252950460184365511e-05 1.916217588586732745e-04 4.102136881556361914e-04
1.426000000000000000e+03 1.648435592651367188e+01 7.618369579315185547e+00 -7.495105819543823600e-05 5.348908302948984783e-07 -2.232484985142946243e-05 -3.066071076318621635e-05
1.427000000000000000e+03 1.695571327209472656e+01 6.516763687133789062e+00 8.210455416701734066e-05 2.491113491487340070e-06 2.537870022933930159e-05 3.572615969460457563e-05
1.428000000000000000e+03 4.223493576049804688e+01 -1.947842407226562500e+01 1.623962670564651489e-01 5.956422805786132812e+00 1.835645794868469238e+00 -9.307306408882141113e-01
1.429000000000000000e+03 4.072643280029296875e+01 -1.084918212890625000e+01 -2.493255436420440674e-01 8.330890655517578125e+00 2.424469709396362305e+00 -2.152740478515625000e+00
1.430000000000000000e+03 1.365901470184326172e+01 1.534596920013427734e+01 -1.012827124213799834e-04 2.037540525634540245e-06 -2.977355143229942769e-05 -2.631583447509910911e-05
1.431000000000000000e+03 2.143879699707031250e+01 4.133059692382812500e+01 4.126997664570808411e-03 -6.174971815198659897e-03 -6.143922219052910805e-04 2.185591729357838631e-03
1.432000000000000000e+03 1.964459609985351562e+01 3.921529769897460938e+01 -5.804810207337141037e-03 -4.350963979959487915e-03 -3.046732163056731224e-03 1.999150263145565987e-03
1.433000000000000000e+03 3.950534439086914062e+01 -1.412169170379638672e+01 2.787398993968963623e-01 8.067839622497558594e+00 2.503973722457885742e+00 -1.320353627204895020e+00
1.434000000000000000e+03 4.117363357543945312e+01 7.399381160736083984e+00 1.626544594764709473e+00 9.610534667968750000e+00 3.371123790740966797e+00 3.269716262817382812e+00
1.435000000000000000e+03 3.461174011230468750e+01 -1.429063320159912109e+00 -3.513731002807617188e+00 1.118109345436096191e+00 -7.186864614486694336e-01 -8.017161488533020020e-01
1.436000000000000000e+03 6.829028320312500000e+01 -3.609354400634765625e+01 -2.556868363171815872e-03 4.757333372253924608e-04 -6.243405514396727085e-04 3.497300297021865845e-02
1.437000000000000000e+03 3.225884246826171875e+01 4.123893737792968750e+01 1.390649527311325073e-01 2.379004061222076416e-01 1.130896061658859253e-01 -2.068273164331912994e-02
1.438000000000000000e+03 4.936247825622558594e+00 -2.227170372009277344e+01 1.651960015296936035e-01 2.986012101173400879e-01 1.391391605138778687e-01 4.034942090511322021e-01
1.439000000000000000e+03 5.234333038330078125e+00 -2.026330757141113281e+01 2.619912326335906982e-01 4.606075286865234375e-01 2.167796343564987183e-01 3.711467385292053223e-01
1.440000000000000000e+03 4.277131652832031250e+01 1.552730798721313477e+00 -4.352018833160400391e+00 6.684617996215820312e+00 6.997796297073364258e-01 5.698100924491882324e-01
1.441000000000000000e+03 5.676580429077148438e+00 -1.898917388916015625e+01 4.575065672397613525e-01 5.611847639083862305e-01 3.056074082851409912e-01 4.121423065662384033e-01
1.442000000000000000e+03 6.131485939025878906e+00 -1.777161407470703125e+01 5.666314363479614258e-01 4.306411147117614746e-01 2.991817593574523926e-01 2.543652653694152832e-01
1.443000000000000000e+03 4.297116851806640625e+01 8.291580200195312500e+00 1.576066970825195312e+00 6.798801422119140625e+00 2.512460470199584961e+00 2.637738704681396484e+00
1.444000000000000000e+03 1.298469734191894531e+01 1.969278144836425781e+01 1.210030823131091893e-04 7.128516699594911188e-06 3.843948070425540209e-05 1.839755168475676328e-05
1.445000000000000000e+03 1.313253974914550781e+01 1.822460746765136719e+01 -1.106251293094828725e-04 -3.133034851998672821e-06 -3.412744990782812238e-05 -2.247804332000669092e-05
1.446000000000000000e+03 4.263515853881835938e+01 3.003073453903198242e+00 -2.963336467742919922e+00 6.637004375457763672e+00 1.102100372314453125e+00 1.762383818626403809e+00
1.447000000000000000e+03 6.839980316162109375e+01 -2.826247978210449219e+01 -1.113727688789367676e-02 1.087964847101829946e-04 -3.308543935418128967e-03 -2.282534027472138405e-03
1.448000000000000000e+03 7.005043792724609375e+01 -2.727423286437988281e+01 -7.185062859207391739e-03 3.266406420152634382e-04 -2.057526726275682449e-03 -7.397642475552856922e-04
1.449000000000000000e+03 4.372751235961914062e+01 1.469060325622558594e+01 1.006114840507507324e+00 7.173260211944580078e+00 2.453812599182128906e+00 1.580812454223632812e+00
1.450000000000000000e+03 4.550380706787109375e+01 1.732641410827636719e+01 9.556956291198730469e-01 5.710613250732421875e+00 1.999892711639404297e+00 1.184599399566650391e+00
1.451000000000000000e+03 4.403902053833007812e+01 2.806081962585449219e+01 7.835810184478759766e-01 5.603391170501708984e+00 1.916091680526733398e+00 -3.200009465217590332e-01
1.452000000000000000e+03 1.432160854339599609e+01 3.218052291870117188e+01 3.717002255143597722e-05 5.316089664120227098e-05 2.709927503019571304e-05 1.306550257140770555e-04
1.453000000000000000e+03 1.580489063262939453e+01 3.264308929443359375e+01 1.896708272397518158e-03 -7.155992207117378712e-04 3.543327329680323601e-04 1.908394478959962726e-04
1.454000000000000000e+03 2.864279174804687500e+01 -4.064172744750976562e+00 -1.302365422248840332e+00 -1.008603096008300781e+00 -6.932905316352844238e-01 -1.371669054031372070e+00
1.455000000000000000e+03 3.104212760925292969e+01 -3.489471197128295898e+00 -1.751252293586730957e+00 -1.384469985961914062e+00 -9.407166838645935059e-01 -1.529479742050170898e+00
1.456000000000000000e+03 1.465816116333007812e+01 -1.197768115997314453e+01 4.483778774738311768e-01 1.341672688722610474e-01 1.747635453939437866e-01 4.291110206395387650e-03
1.457000000000000000e+03 1.561487102508544922e+01 -1.421018218994140625e+01 7.853519320487976074e-01 5.637141317129135132e-02 2.525169849395751953e-01 6.477465387433767319e-03
1.458000000000000000e+03 3.995587539672851562e+01 3.864260101318359375e+01 -4.630478322505950928e-01 2.702835798263549805e+00 6.719363927841186523e-01 -4.681734740734100342e-01
1.459000000000000000e+03 6.459909057617187500e+01 -8.998733758926391602e-01 -8.858684301376342773e-01 1.743420660495758057e-01 -2.134579122066497803e-01 -1.902201026678085327e-01
1.460000000000000000e+03 6.428197479248046875e+01 -2.439868688583374023e+00 -7.890312075614929199e-01 1.342950910329818726e-01 -1.964208334684371948e-01 -9.925273247063159943e-03
1.461000000000000000e+03 3.627064132690429688e+01 -2.533098983764648438e+01 1.248013854026794434e+00 6.227111816406250000e+00 2.242537736892700195e+00 8.697663545608520508e-01
1.462000000000000000e+03 4.212556838989257812e+01 -2.415739250183105469e+01 3.552156388759613037e-01 3.816600322723388672e+00 1.251544713973999023e+00 -5.736960768699645996e-01
1.463000000000000000e+03 4.397749328613281250e+01 1.613497924804687500e+01 8.868101239204406738e-01 6.898080348968505859e+00 2.335467100143432617e+00 1.370788812637329102e+00
1.464000000000000000e+03 1.324321460723876953e+01 2.562531661987304688e+01 3.187352849636226892e-04 3.274655318818986416e-05 1.054445456247776747e-04 1.806958316592499614e-04
1.465000000000000000e+03 6.264866256713867188e+01 -3.382096862792968750e+01 -1.074133589863777161e-01 8.164144121110439301e-03 -2.977476455271244049e-02 2.934439107775688171e-02
1.466000000000000000e+03 3.931830978393554688e+01 1.212527751922607422e+00 -3.039217710494995117e+00 8.342456817626953125e+00 1.590971827507019043e+00 7.807542681694030762e-01
1.467000000000000000e+03 5.303317642211914062e+01 2.110058069229125977e+00 -3.077522754669189453e+00 3.578590452671051025e-01 -8.158990740776062012e-01 -2.571553885936737061e-01
1.468000000000000000e+03 3.733272552490234375e+01 -1.010628789663314819e-01 -3.398238658905029297e+00 5.696055412292480469e+00 6.893449425697326660e-01 6.612474918365478516e-01
1.469000000000000000e+03 3.628881072998046875e+01 -4.944326281547546387e-01 -3.432305812835693359e+00 4.047486305236816406e+00 1.845541894435882568e-01 1.300846338272094727e-01
1.470000000000000000e+03 1.410363864898681641e+01 2.258479881286621094e+01 -2.027707814704626799e-04 1.641990479583910201e-06 -6.033863610355183482e-05 -2.730579808485344984e-06
1.471000000000000000e+03 2.749337196350097656e+01 -2.951668977737426758e+00 -2.373250484466552734e+00 -4.230106770992279053e-01 -8.388783335685729980e-01 -7.844064831733703613e-01
1.472000000000000000e+03 2.756475257873535156e+01 -4.006641864776611328e+00 -1.470671296119689941e+00 -6.639597415924072266e-01 -6.403893232345581055e-01 -1.154889941215515137e+00
1.473000000000000000e+03 3.173683738708496094e+01 -3.103434562683105469e+01 3.754532039165496826e-01 2.006589889526367188e+00 7.146129608154296875e-01 1.104760289192199707e+00
1.474000000000000000e+03 3.363069152832031250e+01 -3.160912322998046875e+01 -1.477427184581756592e-01 3.141852378845214844e+00 8.982329368591308594e-01 8.958595991134643555e-01
1.475000000000000000e+03 5.801966476440429688e+01 1.101020097732543945e+00 -2.001578807830810547e+00 2.280064299702644348e-02 -5.936334729194641113e-01 -3.208234608173370361e-01
1.476000000000000000e+03 5.674908447265625000e+01 1.297824621200561523e+00 -2.225864171981811523e+00 7.704597711563110352e-02 -6.446454524993896484e-01 -2.315813899040222168e-01
1.477000000000000000e+03 7.047525787353515625e+01 -2.580769729614257812e+01 4.440357442945241928e-04 -5.444850539788603783e-04 -3.013478817592840642e-05 -1.170313917100429535e-03
1.478000000000000000e+03 4.003660964965820312e+01 3.463339233398437500e+01 3.116467036306858063e-02 3.396744966506958008e+00 1.028372883796691895e+00 -9.607679247856140137e-01
1.479000000000000000e+03 6.877570343017578125e+01 -3.017230796813964844e+01 -2.444274351000785828e-02 5.286461673676967621e-03 -5.746884271502494812e-03 8.303275099024176598e-04
1.480000000000000000e+03 5.383540153503417969e+00 -2.905645751953125000e+01 -2.974207401275634766e-01 -1.918644309043884277e-01 -1.467855572700500488e-01 2.291058748960494995e-01
1.481000000000000000e+03 4.508870601654052734e+00 -2.761007881164550781e+01 -2.386522740125656128e-01 -9.226539731025695801e-02 -9.927529841661453247e-02 3.025656640529632568e-01
1.482000000000000000e+03 3.603329849243164062e+01 -2.897355842590332031e+01 2.377431094646453857e-01 4.667445182800292969e+00 1.471556544303894043e+00 4.813364148139953613e-01
1.483000000000000000e+03 3.278396606445312500e+01 -2.694799900054931641e+00 -2.642522573471069336e+00 -9.313454627990722656e-01 -1.072160363197326660e+00 -1.176104068756103516e+00
1.484000000000000000e+03 3.187174987792968750e+01 -2.677184104919433594e+00 -2.801485300064086914e+00 -1.211439251899719238e+00 -1.203877329826354980e+00 -1.607112050056457520e+00
1.485000000000000000e+03 4.045363998413085938e+01 -2.073995208740234375e+01 2.285443618893623352e-02 5.863874435424804688e+00 1.766018629074096680e+00 1.300338059663772583e-01
1.486000000000000000e+03 3.339801788330078125e+01 -3.263044118881225586e+00 -1.241145968437194824e+00 1.301249861717224121e-01 -3.333062827587127686e-01 -6.931700110435485840e-01
1.487000000000000000e+03 3.348450851440429688e+01 -1.944556951522827148e+00 -3.491992712020874023e+00 -3.573209941387176514e-01 -1.154794096946716309e+00 -1.358399271965026855e+00
1.488000000000000000e+03 5.913162231445312500e+01 -3.820867919921875000e+01 7.595442980527877808e-02 1.188938468694686890e-01 5.845448002219200134e-02 -2.239774726331233978e-02
1.489000000000000000e+03 3.709447860717773438e+01 -1.972929763793945312e+01 -3.621989488601684570e-01 5.990438938140869141e+00 1.688472032546997070e+00 9.284986257553100586e-01
1.490000000000000000e+03 3.246592712402343750e+01 -1.677719497680664062e+01 -6.356735825538635254e-01 1.329448223114013672e-01 -1.508186310529708862e-01 3.587791919708251953e-01
1.491000000000000000e+03 3.465454483032226562e+01 -1.816503906250000000e+01 -1.623732447624206543e+00 3.580440998077392578e+00 5.870125293731689453e-01 -4.276914000511169434e-01
1.492000000000000000e+03 6.403391265869140625e+01 -3.465460205078125000e+01 -5.979877710342407227e-02 1.081941649317741394e-02 -1.469380874186754227e-02 4.983493685722351074e-02
1.493000000000000000e+03 3.275295257568359375e+01 -3.449501419067382812e+01 -4.523680508136749268e-01 2.449146986007690430e+00 5.990337133407592773e-01 7.057768106460571289e-01
1.494000000000000000e+03 4.684556579589843750e+01 3.402797698974609375e+00 -2.531700849533081055e+00 -3.237549960613250732e-01 -8.566367626190185547e-01 4.334409236907958984e-01
1.495000000000000000e+03 4.789713287353515625e+01 2.732280731201171875e+00 -3.800112485885620117e+00 -6.846073865890502930e-01 -1.345415949821472168e+00 -6.050596833229064941e-01
1.496000000000000000e+03 3.211631011962890625e+01 -3.213579177856445312e+01 -4.870379716157913208e-02 2.301747798919677734e+00 6.759132146835327148e-01 1.021930932998657227e+00
1.497000000000000000e+03 6.353071975708007812e+01 -2.176947444677352905e-01 -1.069669008255004883e+00 1.500977724790573120e-01 -2.758713662624359131e-01 -2.484885305166244507e-01
1.498000000000000000e+03 3.153799819946289062e+01 -1.598680973052978516e+01 -1.020581051707267761e-01 -8.089530467987060547e-02 -5.488602072000503540e-02 7.456451058387756348e-01
1.499000000000000000e+03 4.374561309814453125e+01 1.653545737266540527e+00 -5.650398254394531250e+00 5.602826118469238281e+00 -1.427171193063259125e-02 1.533216834068298340e+00
1.500000000000000000e+03 5.265367507934570312e+01 9.094251990318298340e-01 -3.508677005767822266e+00 3.510818779468536377e-01 -9.472784996032714844e-01 3.466699123382568359e-01
1.501000000000000000e+03 4.355925369262695312e+01 3.163999366760253906e+01 4.836185574531555176e-01 4.840682506561279297e+00 1.597290396690368652e+00 -1.874823123216629028e-01
1.502000000000000000e+03 4.292755126953125000e+01 3.373944473266601562e+01 -4.700158908963203430e-02 4.364136219024658203e+00 1.295140385627746582e+00 -3.040071427822113037e-01
1.503000000000000000e+03 6.948397827148437500e+01 -2.872472000122070312e+01 -9.140949696302413940e-03 1.661719870753586292e-03 -2.243769122287631035e-03 -3.229302819818258286e-03
1.504000000000000000e+03 4.143302917480468750e+01 -2.011731529235839844e+01 1.773411631584167480e-01 5.808463096618652344e+00 1.795741200447082520e+00 -4.440700411796569824e-01
1.505000000000000000e+03 4.129106903076171875e+01 -1.908773612976074219e+01 1.990019083023071289e-01 6.342591762542724609e+00 1.962478041648864746e+00 -3.717340528964996338e-01
1.506000000000000000e+03 3.996779632568359375e+01 -8.960912823677062988e-01 -2.604608297348022461e+00 8.436348915100097656e+00 1.749522209167480469e+00 1.033632874488830566e+00
1.507000000000000000e+03 7.582687377929687500e+01 -2.272753906250000000e+01 -1.329881255514919758e-03 -5.853066104464232922e-04 -5.745563539676368237e-04 -1.225788873853161931e-04
1.508000000000000000e+03 6.596866130828857422e+00 -1.515541553497314453e+01 4.662009775638580322e-01 3.604085147380828857e-01 2.479828447103500366e-01 -3.612911328673362732e-02
1.509000000000000000e+03 2.970948219299316406e+01 -1.559827518463134766e+01 3.550706207752227783e-01 -2.278180867433547974e-01 3.817576169967651367e-02 9.311431050300598145e-01
1.510000000000000000e+03 3.900340652465820312e+01 -1.869372940063476562e+01 -1.635894477367401123e-01 6.637859344482421875e+00 1.942280888557434082e+00 4.711122214794158936e-01
1.511000000000000000e+03 3.683057022094726562e+01 -2.752458000183105469e+01 6.349571943283081055e-01 5.012597560882568359e+00 1.694266438484191895e+00 3.575858473777770996e-01
1.512000000000000000e+03 3.743737030029296875e+01 -2.613371276855468750e+01 8.726546168327331543e-01 5.365026473999023438e+00 1.871304273605346680e+00 3.125400543212890625e-01
1.513000000000000000e+03 1.231014442443847656e+01 -1.391180610656738281e+01 7.862321138381958008e-01 2.928418517112731934e-01 3.237221837043762207e-01 2.432488650083541870e-02
1.514000000000000000e+03 1.122565364837646484e+01 -1.406014823913574219e+01 7.766038179397583008e-01 3.849830329418182373e-01 3.484760522842407227e-01 6.473085284233093262e-02
1.515000000000000000e+03 4.515624237060546875e+01 3.075231075286865234e+00 -2.657670021057128906e+00 1.622845172882080078e+00 -3.104474246501922607e-01 1.673730611801147461e+00
1.516000000000000000e+03 4.152995300292968750e+01 2.938051700592041016e+00 -2.648913383483886719e+00 7.925857543945312500e+00 1.583083271980285645e+00 1.259133815765380859e+00
1.517000000000000000e+03 1.892825889587402344e+01 3.423117446899414062e+01 3.206713357940316200e-03 9.333096386399120092e-05 9.900132426992058754e-04 1.697717583738267422e-03
1.518000000000000000e+03 1.773981475830078125e+01 3.582611083984375000e+01 -6.981532205827534199e-04 -5.896576913073658943e-04 -3.863432793878018856e-04 8.747151005081832409e-04
1.519000000000000000e+03 6.758409881591796875e+01 -4.476287364959716797e+00 -2.494069188833236694e-01 4.076722264289855957e-02 -6.259191036224365234e-02 1.667413301765918732e-02
1.520000000000000000e+03 6.736597442626953125e+01 -3.080379724502563477e+00 -4.321728944778442383e-01 9.108600020408630371e-02 -1.023260727524757385e-01 -3.657677769660949707e-02
1.521000000000000000e+03 1.291544532775878906e+01 2.116384887695312500e+01 -1.162299231509678066e-04 -5.229087946645449847e-06 -3.643770469352602959e-05 -1.714987956802360713e-05
1.522000000000000000e+03 5.418197631835937500e+00 -1.501781082153320312e+01 2.858307361602783203e-01 6.942598521709442139e-02 1.065770164132118225e-01 -1.502075940370559692e-01
1.523000000000000000e+03 7.346158981323242188e+00 -3.238903427124023438e+01 -1.962318271398544312e-01 -2.562990188598632812e-01 -1.357592642307281494e-01 1.184499263763427734e-01
1.524000000000000000e+03 8.659579277038574219e+00 -3.264017486572265625e+01 -2.391422837972640991e-01 -2.622316777706146240e-01 -1.504121869802474976e-01 1.320159435272216797e-01
1.525000000000000000e+03 5.632335281372070312e+01 -3.406834030151367188e+01 -5.628639832139015198e-02 1.778496056795120239e-01 3.646896034479141235e-02 -1.087575778365135193e-01
1.526000000000000000e+03 4.572873115539550781e+00 -2.627158355712890625e+01 -2.238985747098922729e-01 -5.263296887278556824e-02 -8.295946568250656128e-02 4.068935513496398926e-01
1.527000000000000000e+03 6.657175445556640625e+01 -2.642723083496093750e+00 -5.557016134262084961e-01 1.145057380199432373e-01 -1.323587596416473389e-01 -5.879101157188415527e-02
1.528000000000000000e+03 7.500634765625000000e+01 -4.038483428955078125e+01 7.106077391654253006e-03 -2.094328589737415314e-02 -4.151162691414356232e-03 4.320195410400629044e-03
1.529000000000000000e+03 5.145544052124023438e+00 4.039008712768554688e+01 -3.398508415557444096e-04 -5.597518756985664368e-04 -2.698808093555271626e-04 -2.057608653558418155e-04
1.530000000000000000e+03 4.425326919555664062e+01 7.418388366699218750e+00 1.156892657279968262e+00 4.802883625030517578e+00 1.787932872772216797e+00 2.101310729980468750e+00
1.531000000000000000e+03 3.974996948242187500e+01 -4.993715763092041016e+00 -3.017483055591583252e-01 1.171146774291992188e+01 3.422915697097778320e+00 3.792774438858032227e+00
1.532000000000000000e+03 4.067106628417968750e+01 -1.026543807983398438e+01 -3.900340795516967773e-01 7.892891407012939453e+00 2.250857114791870117e+00 -2.440184354782104492e+00
1.533000000000000000e+03 3.815676879882812500e+01 -6.246965885162353516e+00 4.162244319915771484e+00 1.120366764068603516e+01 4.609773635864257812e+00 -5.562132000923156738e-01
1.534000000000000000e+03 3.812423706054687500e+01 -6.448177814483642578e+00 5.212160587310791016e+00 1.110841464996337891e+01 4.896172523498535156e+00 -5.371145606040954590e-01
1.535000000000000000e+03 3.778114700317382812e+01 -6.975992679595947266e+00 6.043262481689453125e+00 9.290376663208007812e+00 4.600091457366943359e+00 4.446804523468017578e-01
1.536000000000000000e+03 3.777071762084960938e+01 -7.524640560150146484e+00 6.291016578674316406e+00 9.342703819274902344e+00 4.690116405487060547e+00 1.674203515052795410e+00
1.537000000000000000e+03 3.772102355957031250e+01 -6.732996463775634766e+00 5.562822818756103516e+00 9.210648536682128906e+00 4.432041168212890625e+00 1.067450046539306641e-01
1.538000000000000000e+03 3.807046890258789062e+01 -9.258279800415039062e+00 1.577057003974914551e+00 1.091944122314453125e+01 3.748949527740478516e+00 1.931884288787841797e+00
1.539000000000000000e+03 3.554690170288085938e+01 -2.499197244644165039e+00 -2.119552373886108398e+00 3.390591382980346680e+00 3.813116848468780518e-01 -8.065633475780487061e-03
1.540000000000000000e+03 3.891889190673828125e+01 -5.367050647735595703e+00 3.872433006763458252e-01 1.291782855987548828e+01 3.991521596908569336e+00 1.415704965591430664e+00
1.541000000000000000e+03 3.856410598754882812e+01 -9.334266662597656250e+00 6.734279394149780273e-01 1.223918342590332031e+01 3.873783349990844727e+00 1.245118141174316406e+00
1.542000000000000000e+03 4.076437759399414062e+01 -9.438709259033203125e+00 -1.731840893626213074e-02 7.126863956451416016e+00 2.132863759994506836e+00 -2.947513103485107422e+00
1.543000000000000000e+03 4.068552017211914062e+01 -9.795967102050781250e+00 -9.118677675724029541e-02 7.724094390869140625e+00 2.289872407913208008e+00 -2.872256278991699219e+00
1.544000000000000000e+03 3.973181152343750000e+01 -9.716477394104003906e+00 -7.490001916885375977e-01 1.139834690093994141e+01 3.194803953170776367e+00 -2.000760793685913086e+00
1.545000000000000000e+03 4.035122299194335938e+01 -9.705294609069824219e+00 -4.698202610015869141e-01 9.196728706359863281e+00 2.618072509765625000e+00 -2.801897048950195312e+00
1.546000000000000000e+03 4.118259429931640625e+01 -5.512390613555908203e+00 1.307669162750244141e+00 6.310942173004150391e+00 2.285583496093750000e+00 4.571791172027587891e+00
1.547000000000000000e+03 4.130569076538085938e+01 -4.907747745513916016e+00 9.439917206764221191e-01 7.078867912292480469e+00 2.406857967376708984e+00 4.351378440856933594e+00
1.548000000000000000e+03 9.536366462707519531e+00 -4.230640888214111328e+00 -3.113887906074523926e-01 7.469902187585830688e-02 -7.100692391395568848e-02 -1.835330426692962646e-01
1.549000000000000000e+03 1.027782917022705078e+01 -4.282237529754638672e+00 -3.332341611385345459e-01 8.237622678279876709e-02 -7.525737583637237549e-02 -1.720725446939468384e-01
1.550000000000000000e+03 7.620852661132812500e+01 -1.715488433837890625e+01 9.501875028945505619e-04 -2.506641903892159462e-04 2.098569821100682020e-04 -1.647863537073135376e-04
1.551000000000000000e+03 7.540168762207031250e+01 -1.712781906127929688e+01 -5.510963965207338333e-04 8.016155334189534187e-05 -1.412804558640345931e-04 -5.973836596240289509e-05
1.552000000000000000e+03 7.629901885986328125e+01 -9.351214408874511719e+00 7.235160446725785732e-04 -2.127210609614849091e-03 -4.211083578411489725e-04 1.340195443481206894e-02
1.553000000000000000e+03 1.405730819702148438e+01 6.392139434814453125e+00 -4.191640618955716491e-05 -3.438269914113334380e-06 -1.360640271741431206e-05 1.466389858251204714e-05
1.554000000000000000e+03 1.500071334838867188e+01 2.612709045410156250e+00 -1.841329685703385621e-05 -1.291618355026002973e-05 -9.398843758390285075e-06 -4.632414913885440910e-07
1.555000000000000000e+03 7.332492828369140625e+01 -1.939446067810058594e+01 3.084002528339624405e-03 -2.360998478252440691e-04 8.543707663193345070e-04 4.812525585293769836e-04
1.556000000000000000e+03 7.597713470458984375e+01 -2.007088851928710938e+01 -1.809665118344128132e-04 9.510097443126142025e-04 2.310129639226943254e-04 -5.812924355268478394e-04
1.557000000000000000e+03 3.932602310180664062e+01 -4.639394760131835938e+00 -5.986807346343994141e-01 1.121590805053710938e+01 3.185168266296386719e+00 2.773926019668579102e+00
1.558000000000000000e+03 1.842753028869628906e+01 2.175481557846069336e+00 1.375320789520628750e-05 1.028005135594867170e-05 7.209977866295957938e-06 2.534929808462038636e-05
1.559000000000000000e+03 1.779079818725585938e+01 3.856980323791503906e+00 -8.899447493604384363e-06 2.185171433666255325e-05 3.885680143866920844e-06 1.495098422310547903e-05
1.560000000000000000e+03 1.429336929321289062e+01 2.691621780395507812e+00 2.058094287349376827e-05 1.204058844450628385e-05 9.786459486349485815e-06 2.675410541996825486e-06
1.561000000000000000e+03 1.356867504119873047e+01 3.512676715850830078e+00 2.313309232704341412e-05 1.774194424797315150e-05 1.226251060870708898e-05 7.541339527961099520e-06
1.562000000000000000e+03 7.463692474365234375e+01 -1.712503433227539062e+01 7.227819296531379223e-04 -3.146968374494463205e-04 1.224255393026396632e-04 6.603381916647776961e-05
1.563000000000000000e+03 9.014205932617187500e+00 3.945641040802001953e+00 1.129037082137074322e-05 6.697498520225053653e-06 5.396360847953474149e-06 1.434571231584413908e-06
1.564000000000000000e+03 9.783427238464355469e+00 3.201978206634521484e+00 1.030127623380394652e-05 7.909477972134482116e-06 5.463225988933118060e-06 2.926922888946137391e-06
1.565000000000000000e+03 1.101867485046386719e+01 -4.351250648498535156e+00 -3.520903289318084717e-01 7.931050658226013184e-02 -8.183394372463226318e-02 -1.595689505338668823e-01
1.566000000000000000e+03 1.427601718902587891e+01 3.404830455780029297e+00 -2.804096584441140294e-05 -1.656281710893381387e-05 -1.338113543170038611e-05 -4.992828962713247165e-06
1.567000000000000000e+03 7.221957206726074219e+00 -3.373161315917968750e+00 -2.442415803670883179e-01 2.363757230341434479e-02 -6.618120521306991577e-02 -1.788399070501327515e-01
1.568000000000000000e+03 8.789091110229492188e+00 -4.192929267883300781e+00 -2.850460410118103027e-01 6.621197611093521118e-02 -6.565021723508834839e-02 -1.956788003444671631e-01
1.569000000000000000e+03 8.257057189941406250e+00 3.963550806045532227e+00 -1.126161714637419209e-05 -3.702344201883533970e-06 -4.489188540901523083e-06 -2.541425374147365801e-06
1.570000000000000000e+03 7.484022617340087891e+00 5.541841506958007812e+00 1.795053321984596550e-05 -4.136001280130585656e-06 4.144359536439878866e-06 -6.072026735637336969e-06
1.571000000000000000e+03 5.396178245544433594e+00 4.021107196807861328e+00 -1.997231947825639509e-06 -3.863515303237363696e-06 -1.758224243531003594e-06 1.329731503574294038e-06
1.572000000000000000e+03 3.826630592346191406e+00 6.103750705718994141e+00 1.998211246245773509e-06 1.685193819866981357e-05 5.655044787999941036e-06 -6.687428594887023792e-06
1.573000000000000000e+03 3.986366033554077148e+00 5.009030342102050781e+00 -1.329894166701706126e-05 -1.950133628270123154e-05 -9.840083293966017663e-06 1.615991277503781021e-05
1.574000000000000000e+03 4.772533416748046875e+00 4.893315792083740234e+00 -2.939234582299832255e-05 -5.110604433866683394e-06 -1.035088462231215090e-05 1.277662249776767567e-05
1.575000000000000000e+03 3.230510234832763672e+00 3.536588907241821289e+00 -1.393505590385757387e-05 7.642720447620376945e-06 -1.887700477709586266e-06 4.076995537616312504e-06
1.576000000000000000e+03 1.448163270950317383e+00 4.917105674743652344e+00 4.843575879931449890e-06 -5.365064225770765916e-06 -1.564466174386325292e-07 -8.488194112032942940e-07
1.577000000000000000e+03 1.745489835739135742e+00 3.329275131225585938e+00 3.495450437185354531e-05 2.177664282498881221e-05 1.701934343145694584e-05 -1.216285454574972391e-06
1.578000000000000000e+03 7.150395202636718750e+01 -1.762544059753417969e+01 3.867811174131929874e-04 -1.808893721317872405e-04 6.176752503961324692e-05 4.494139284361153841e-04
1.579000000000000000e+03 7.119813537597656250e+01 -2.043652534484863281e+01 2.182695548981428146e-03 1.840154436649754643e-04 7.100133225321769714e-04 -3.032847307622432709e-04
1.580000000000000000e+03 1.564032459259033203e+01 3.254861831665039062e+00 -2.232686892966739833e-05 -1.184532357001444325e-05 -1.025165784085402265e-05 -1.077523393178125843e-06
1.581000000000000000e+03 7.632191467285156250e+01 -1.813646888732910156e+01 -7.038991898298263550e-04 -2.411240129731595516e-04 -2.835069608408957720e-04 3.130895784124732018e-04
1.582000000000000000e+03 1.403255462646484375e+01 -3.946269989013671875e+00 -4.710519909858703613e-01 2.891721203923225403e-02 -1.326404362916946411e-01 -9.127700328826904297e-02
1.583000000000000000e+03 6.944194030761718750e+01 -1.046141719818115234e+01 1.205980125814676285e-02 -1.165377907454967499e-02 1.218067700392566621e-04 -1.240230910480022430e-02
1.584000000000000000e+03 1.723867988586425781e+01 -4.202174663543701172e+00 -5.188987851142883301e-01 -4.366274178028106689e-02 -1.687684655189514160e-01 -7.775799185037612915e-02
1.585000000000000000e+03 7.366172027587890625e+01 -9.691829681396484375e+00 9.244960383512079716e-04 -1.369928568601608276e-02 -3.832436865195631981e-03 6.847918499261140823e-03
1.586000000000000000e+03 7.157373046875000000e+01 -1.044661808013916016e+01 8.471367880702018738e-03 -1.465978007763624191e-02 -1.856523565948009491e-03 -4.063361324369907379e-03
1.587000000000000000e+03 1.329907989501953125e+01 -4.617527961730957031e+00 -3.902787268161773682e-01 5.658111721277236938e-02 -1.001092866063117981e-01 -1.202710941433906555e-01
1.588000000000000000e+03 1.283500957489013672e+01 3.611392974853515625e+00 -1.652595528867095709e-05 -1.834973045333754271e-05 -1.046270608640043065e-05 -7.828903108020313084e-06
1.589000000000000000e+03 1.055268764495849609e+01 3.144623279571533203e+00 -1.180073741124942899e-05 -9.777038940228521824e-06 -6.473333087342325598e-06 -2.925487251559388824e-06
1.590000000000000000e+03 7.511286926269531250e+01 -1.015754508972167969e+01 1.683659851551055908e-03 -5.073538515716791153e-03 -1.016963506117463112e-03 1.280301343649625778e-02
1.591000000000000000e+03 7.402804565429687500e+01 -8.779616355895996094e+00 -8.308964781463146210e-03 -1.618384011089801788e-02 -7.347841281443834305e-03 6.277560256421566010e-03
1.592000000000000000e+03 7.635173797607421875e+01 -8.589376449584960938e+00 -7.371358107775449753e-03 -2.049178583547472954e-03 -2.826160984113812447e-03 1.371370907872915268e-02
1.593000000000000000e+03 1.176688289642333984e+01 -4.434206962585449219e+00 -3.679514229297637939e-01 7.843709737062454224e-02 -8.685429394245147705e-02 -1.466089040040969849e-01
1.594000000000000000e+03 1.252567672729492188e+01 -4.525697708129882812e+00 -3.798661231994628906e-01 6.530962884426116943e-02 -9.436695277690887451e-02 -1.344740390777587891e-01
1.595000000000000000e+03 2.317071914672851562e+01 -4.827287673950195312e+00 -6.514327526092529297e-01 -1.333958208560943604e-01 -2.354485690593719482e-01 -3.958197832107543945e-01
1.596000000000000000e+03 1.650810813903808594e+01 -4.908806800842285156e+00 -4.130816459655761719e-01 -2.642358653247356415e-02 -1.318515688180923462e-01 -8.854195475578308105e-02
1.597000000000000000e+03 1.972257423400878906e+01 -4.212584018707275391e+00 -5.730988979339599609e-01 -8.325106650590896606e-02 -1.969049870967864990e-01 -1.135700419545173645e-01
1.598000000000000000e+03 1.983947753906250000e+01 -4.957166194915771484e+00 -4.647218585014343262e-01 -9.729582071304321289e-02 -1.686052978038787842e-01 -1.356068700551986694e-01
1.599000000000000000e+03 7.428353118896484375e+01 -9.537687301635742188e+00 -4.575156141072511673e-03 -1.110609434545040131e-02 -4.704375285655260086e-03 8.751899003982543945e-03
1.600000000000000000e+03 7.099183654785156250e+01 -9.387067794799804688e+00 -5.297359544783830643e-03 -2.060637064278125763e-02 -7.771119009703397751e-03 -5.847695283591747284e-03
1.601000000000000000e+03 7.237647247314453125e+01 -9.832756042480468750e+00 1.547566847875714302e-03 -1.616936177015304565e-02 -4.386538639664649963e-03 1.823587663238868117e-04
1.602000000000000000e+03 6.551771163940429688e+00 -4.121192455291748047e+00 -1.999334692955017090e-01 1.052564382553100586e-02 -5.682234466075897217e-02 -2.136368453502655029e-01
1.603000000000000000e+03 5.821906089782714844e+00 -4.099819660186767578e+00 -1.708264201879501343e-01 -1.068621035665273666e-02 -5.445378646254539490e-02 -2.133307456970214844e-01
1.604000000000000000e+03 4.504140377044677734e+00 -4.118161201477050781e+00 -1.197549179196357727e-01 -4.903252050280570984e-02 -5.063623189926147461e-02 -1.965528428554534912e-01
1.605000000000000000e+03 3.620989799499511719e+00 -4.792855739593505859e+00 -7.565698772668838501e-02 -1.011850014328956604e-01 -5.305259674787521362e-02 -1.982518732547760010e-01
1.606000000000000000e+03 7.294166088104248047e+00 -4.141911983489990234e+00 -2.288343608379364014e-01 3.233541175723075867e-02 -5.894968658685684204e-02 -2.127241045236587524e-01
1.607000000000000000e+03 4.141942024230957031e+00 -5.902785301208496094e+00 -8.482156693935394287e-02 -1.093264445662498474e-01 -5.824440345168113708e-02 -2.523671686649322510e-01
1.608000000000000000e+03 2.945513725280761719e+00 -6.240542411804199219e+00 -4.713123291730880737e-02 -1.869714856147766113e-01 -7.023081928491592407e-02 -2.218475788831710815e-01
1.609000000000000000e+03 1.408586120605468750e+01 -4.705637931823730469e+00 -3.976662755012512207e-01 3.418023884296417236e-02 -1.090458109974861145e-01 -1.100289598107337952e-01
1.610000000000000000e+03 1.488137149810791016e+01 -4.788428783416748047e+00 -4.035771489143371582e-01 1.930205337703227997e-02 -1.152825281023979187e-01 -9.861848503351211548e-02
1.611000000000000000e+03 9.775662422180175781e+00 4.648691177368164062e+00 1.521953981864498928e-05 1.055598659149836749e-05 7.732657650194596499e-06 -2.064081627395353280e-06
1.612000000000000000e+03 4.076427078247070312e+01 -1.163962268829345703e+01 -1.513120830059051514e-01 8.617281913757324219e+00 2.539790868759155273e+00 -1.875758647918701172e+00
1.613000000000000000e+03 4.064423751831054688e+01 -3.692666292190551758e+00 5.221813544631004333e-02 8.779872894287109375e+00 2.649627208709716797e+00 3.740200996398925781e+00
1.614000000000000000e+03 1.568839836120605469e+01 -4.857850551605224609e+00 -4.079778492450714111e-01 -9.464454837143421173e-03 -1.252326816320419312e-01 -9.421482682228088379e-02
1.615000000000000000e+03 1.208108139038085938e+01 3.702146053314208984e+00 1.237504147866275162e-05 1.863577017502393574e-05 9.303243132308125496e-06 4.081076895090518519e-06
1.616000000000000000e+03 1.816301536560058594e+01 -4.967249870300292969e+00 -4.277158379554748535e-01 -7.046594470739364624e-02 -1.494545340538024902e-01 -9.719337522983551025e-02
1.617000000000000000e+03 1.923960685729980469e+01 2.340805768966674805e+00 -4.692630318459123373e-05 6.706919521093368530e-06 -1.206581509904935956e-05 -1.028250972012756392e-05
1.618000000000000000e+03 4.003927612304687500e+01 -4.220526695251464844e+00 -3.496295213699340820e-01 9.882351875305175781e+00 2.859816789627075195e+00 3.818716526031494141e+00
1.619000000000000000e+03 2.309997558593750000e+01 -4.004691123962402344e+00 -8.337440490722656250e-01 -3.277003765106201172e-02 -2.599542140960693359e-01 -3.100853562355041504e-01
1.620000000000000000e+03 2.396505355834960938e+01 -3.979613780975341797e+00 -9.603794217109680176e-01 -5.477034673094749451e-02 -3.045449256896972656e-01 -4.348468482494354248e-01
1.621000000000000000e+03 2.401412963867187500e+01 -4.856553554534912109e+00 -6.821497678756713867e-01 -2.109294682741165161e-01 -2.679237723350524902e-01 -5.277890563011169434e-01
1.622000000000000000e+03 2.150856208801269531e+01 -4.882370471954345703e+00 -5.433841943740844727e-01 -1.009875833988189697e-01 -1.933115273714065552e-01 -2.227236777544021606e-01
1.623000000000000000e+03 7.047117614746093750e+01 -1.763814735412597656e+01 -1.840374083258211613e-03 -3.245097759645432234e-04 -6.494651315733790398e-04 1.499230420449748635e-04
1.624000000000000000e+03 1.926388359069824219e+01 -1.466160106658935547e+01 7.128678560256958008e-01 -1.716572642326354980e-01 1.623631864786148071e-01 1.994295045733451843e-02
1.625000000000000000e+03 2.191775894165039062e+01 -1.645908546447753906e+01 5.954602360725402832e-01 -1.397758275270462036e-01 1.367053240537643433e-01 8.662304282188415527e-02
1.626000000000000000e+03 3.685597229003906250e+01 -1.695170021057128906e+01 -7.116744518280029297e-01 5.841120719909667969e+00 1.538833856582641602e+00 -8.755406737327575684e-02
1.627000000000000000e+03 2.507033729553222656e+01 -1.621453475952148438e+01 4.239062368869781494e-01 -1.209431439638137817e-01 9.088892489671707153e-02 3.468188643455505371e-01
1.628000000000000000e+03 2.246175193786621094e+01 -1.443875408172607422e+01 6.791493296623229980e-01 -2.966805696487426758e-01 1.147406250238418579e-01 1.789826005697250366e-01
1.629000000000000000e+03 2.573047828674316406e+01 -1.492214012145996094e+01 6.337096691131591797e-01 -2.946092784404754639e-01 1.017301157116889954e-01 5.359337925910949707e-01
1.630000000000000000e+03 4.066390609741210938e+01 -1.272426414489746094e+01 1.219087243080139160e-01 8.841432571411132812e+00 2.689002275466918945e+00 -1.698060154914855957e+00
1.631000000000000000e+03 5.933748245239257812e+01 2.169828891754150391e+00 -1.538007855415344238e+00 1.035550162196159363e-01 -4.303358495235443115e-01 -5.817556977272033691e-01
1.632000000000000000e+03 2.712312316894531250e+01 -1.567949199676513672e+01 4.007391333580017090e-01 -1.861660629510879517e-01 6.437192112207412720e-02 7.275174856185913086e-01
1.633000000000000000e+03 2.284363174438476562e+01 -1.539550495147705078e+01 5.885524749755859375e-01 -2.128714472055435181e-01 1.127042993903160095e-01 2.036635577678680420e-01
1.634000000000000000e+03 3.233516311645507812e+01 -3.399522066116333008e+00 -1.078644275665283203e+00 -5.873729586601257324e-01 -4.998051822185516357e-01 -1.182303667068481445e+00
1.635000000000000000e+03 3.399896240234375000e+01 -2.761243343353271484e+00 -1.683381080627441406e+00 1.081039547920227051e+00 -1.807024776935577393e-01 -5.402340888977050781e-01
1.636000000000000000e+03 2.740342521667480469e+01 -1.444216918945312500e+01 7.521631121635437012e-01 -3.229589164257049561e-01 1.287612468004226685e-01 7.865245938301086426e-01
1.637000000000000000e+03 3.418021392822265625e+01 -1.669430923461914062e+01 -7.511745691299438477e-01 2.620921611785888672e+00 5.609241127967834473e-01 -4.521430134773254395e-01
1.638000000000000000e+03 2.968117523193359375e+01 -4.218135356903076172e+00 -8.671762943267822266e-01 -1.148111939430236816e+00 -6.045864820480346680e-01 -1.332863688468933105e+00
1.639000000000000000e+03 3.322365570068359375e+01 -1.603527450561523438e+01 -1.395615786314010620e-01 1.162868380546569824e+00 3.069920241832733154e-01 2.430511079728603363e-02
1.640000000000000000e+03 9.087635993957519531e+00 -1.292268276214599609e+01 3.348776996135711670e-01 3.789221346378326416e-01 2.141399532556533813e-01 -1.064589098095893860e-01
1.641000000000000000e+03 5.547299957275390625e+01 1.539732217788696289e+00 -2.473582983016967773e+00 1.305065751075744629e-01 -7.029229402542114258e-01 -2.029366493225097656e-01
1.642000000000000000e+03 5.396024703979492188e+01 4.398611545562744141e+00 -1.733478546142578125e+00 3.262667953968048096e-01 -4.221635162830352783e-01 -8.042348623275756836e-01
1.643000000000000000e+03 9.293810844421386719e+00 2.117324066162109375e+01 -1.472234635002678260e-05 3.682632450363598764e-05 6.631193173234350979e-06 -1.212756706081563607e-05
1.644000000000000000e+03 3.689884567260742188e+01 -1.343422293663024902e+00 -3.001498460769653320e+00 5.932177543640136719e+00 8.792036771774291992e-01 5.603969097137451172e-01
1.645000000000000000e+03 4.166668319702148438e+01 1.540672063827514648e+00 -3.493213176727294922e+00 7.934025764465332031e+00 1.332243680953979492e+00 7.886480093002319336e-01
1.646000000000000000e+03 4.073371124267578125e+01 2.402118146419525146e-01 -3.059525489807128906e+00 8.393571853637695312e+00 1.600213885307312012e+00 6.005512475967407227e-01
1.647000000000000000e+03 7.210484313964843750e+01 -2.332582664489746094e+01 -1.542108366265892982e-03 -6.380488630384206772e-04 -6.540471804328262806e-04 5.833914619870483875e-04
1.648000000000000000e+03 7.660075378417968750e+01 -2.881340789794921875e+01 -7.981110247783362865e-04 -1.099853077903389931e-03 -5.693892017006874084e-04 2.388841239735484123e-03
1.649000000000000000e+03 6.938999176025390625e+01 -3.221723937988281250e+01 -2.978311665356159210e-02 9.932586923241615295e-03 -5.955159198492765427e-03 1.290122512727975845e-02
1.650000000000000000e+03 7.551972961425781250e+01 -2.566196632385253906e+01 -2.477035392075777054e-03 -4.975798074156045914e-04 -8.923845598474144936e-04 2.685671788640320301e-04
1.651000000000000000e+03 7.535727691650390625e+01 -2.714461898803710938e+01 -1.004091463983058929e-03 -5.914004868827760220e-04 -4.786475910805165768e-04 1.015969086438417435e-03
1.652000000000000000e+03 7.568093872070312500e+01 -3.434053039550781250e+01 -1.171778887510299683e-03 -7.206313312053680420e-03 -2.513427520170807838e-03 9.150408208370208740e-03
1.653000000000000000e+03 7.207129669189453125e+01 -2.973745727539062500e+01 -8.851273916661739349e-03 2.293727826327085495e-03 -1.967263873666524887e-03 3.400717861950397491e-03
1.654000000000000000e+03 7.745422363281250000e+01 -2.069111442565917969e+01 1.547366031445562840e-03 -8.091644849628210068e-05 4.399348690640181303e-04 -1.151086180470883846e-04
1.655000000000000000e+03 7.612196350097656250e+01 -1.895148849487304688e+01 4.226759483572095633e-04 7.875776500441133976e-04 3.630760766100138426e-04 -8.748227264732122421e-04
1.656000000000000000e+03 7.476357269287109375e+01 -1.794377136230468750e+01 -7.248992333188652992e-04 1.431691489415243268e-04 -1.745190093060955405e-04 -4.042273794766515493e-04
1.657000000000000000e+03 7.581893920898437500e+01 -3.624771881103515625e+01 4.528620745986700058e-03 -1.274230703711509705e-02 -2.464106073603034019e-03 1.006576605141162872e-02
1.658000000000000000e+03 7.741099548339843750e+01 -1.946672821044921875e+01 -1.125394948758184910e-03 4.321667656768113375e-04 -2.079684345517307520e-04 -2.115064562531188130e-04
1.659000000000000000e+03 7.551313018798828125e+01 8.587116241455078125e+00 -3.245454654097557068e-02 -5.909881591796875000e-01 -1.870328187942504883e-01 -4.213592112064361572e-01
1.660000000000000000e+03 7.539557647705078125e+01 1.549364757537841797e+01 5.016306787729263306e-02 -1.072049617767333984e+00 -3.065659403800964355e-01 -4.037075936794281006e-01
1.661000000000000000e+03 7.578204345703125000e+01 1.712593913078308105e+00 -8.436476439237594604e-02 -1.828261911869049072e-01 -8.015728741884231567e-02 -2.203930467367172241e-01
1.662000000000000000e+03 7.676144409179687500e+01 1.127593421936035156e+01 1.147312461398541927e-03 -8.791058063507080078e-01 -2.633875608444213867e-01 -3.354951441287994385e-01
1.663000000000000000e+03 7.541405487060546875e+01 1.411297798156738281e+01 3.283786401152610779e-02 -9.816570878028869629e-01 -2.846457660198211670e-01 -4.225662648677825928e-01
1.664000000000000000e+03 7.686915588378906250e+01 4.359089374542236328e+00 -4.017131775617599487e-02 -3.393739163875579834e-01 -1.138635724782943726e-01 -2.406860142946243286e-01
1.665000000000000000e+03 7.558622741699218750e+01 4.439675331115722656e+00 -7.604993879795074463e-02 -3.196247220039367676e-01 -1.187023967504501343e-01 -3.206906318664550781e-01
1.666000000000000000e+03 7.668322753906250000e+01 1.826790809631347656e+01 3.667771443724632263e-02 -1.423172712326049805e+00 -4.159485101699829102e-01 -2.601950764656066895e-01
1.667000000000000000e+03 7.541213226318359375e+01 2.112173461914062500e+01 6.315441429615020752e-02 -1.397419095039367676e+00 -4.002794027328491211e-01 -2.658866941928863525e-01
1.668000000000000000e+03 7.421633911132812500e+01 1.009309482574462891e+01 -1.967749372124671936e-02 -6.193010210990905762e-01 -1.916935592889785767e-01 -5.248584151268005371e-01
1.669000000000000000e+03 7.547335815429687500e+01 1.136654663085937500e+01 4.649267997592687607e-03 -7.937651276588439941e-01 -2.367347627878189087e-01 -4.398501217365264893e-01
1.670000000000000000e+03 7.553514099121093750e+01 5.815517425537109375e+00 -6.437346339225769043e-02 -4.030352830886840820e-01 -1.402226239442825317e-01 -3.642253875732421875e-01
1.671000000000000000e+03 7.551716613769531250e+01 7.200398921966552734e+00 -5.016675218939781189e-02 -4.923750162124633789e-01 -1.627625226974487305e-01 -3.957920670509338379e-01
1.672000000000000000e+03 7.671135711669921875e+01 2.352236175537109375e+01 4.467454180121421814e-02 -1.695152640342712402e+00 -4.951434135437011719e-01 -1.607930660247802734e-01
1.673000000000000000e+03 7.562498474121093750e+01 2.227526473999023438e+01 6.302663683891296387e-02 -1.469619989395141602e+00 -4.219779968261718750e-01 -2.297434508800506592e-01
1.674000000000000000e+03 7.400292968750000000e+01 1.694924354553222656e+01 9.639257192611694336e-02 -9.972578287124633789e-01 -2.702595889568328857e-01 -4.522388875484466553e-01
1.675000000000000000e+03 7.527091217041015625e+01 1.837860679626464844e+01 7.158416509628295898e-02 -1.236311912536621094e+00 -3.494183421134948730e-01 -3.461452424526214600e-01
1.676000000000000000e+03 7.650785064697265625e+01 2.482372283935546875e+01 3.325224295258522034e-02 -1.724830150604248047e+00 -5.074734091758728027e-01 -1.404505372047424316e-01
1.677000000000000000e+03 7.336375427246093750e+01 2.786311531066894531e+01 8.393654972314834595e-02 -1.246596932411193848e+00 -3.487980961799621582e-01 -1.424816250801086426e-01
1.678000000000000000e+03 7.512046051025390625e+01 2.878758621215820312e+01 4.212538525462150574e-02 -1.556321620941162109e+00 -4.542588889598846436e-01 -1.067893952131271362e-01
1.679000000000000000e+03 7.490442657470703125e+01 2.752342987060546875e+01 5.599065870046615601e-02 -1.496131896972656250e+00 -4.320423603057861328e-01 -1.265299618244171143e-01
1.680000000000000000e+03 7.598899078369140625e+01 -2.392897844314575195e+00 -5.900358781218528748e-02 -5.745785683393478394e-02 -3.493843227624893188e-02 -7.950802147388458252e-02
1.681000000000000000e+03 7.599434661865234375e+01 -3.745281219482421875e+00 -5.046257376670837402e-02 -3.531701862812042236e-02 -2.573387883603572845e-02 -4.583476483821868896e-02
1.682000000000000000e+03 7.627246856689453125e+01 3.021590232849121094e+01 2.096102945506572723e-02 -1.790483951568603516e+00 -5.308568477630615234e-01 -6.691448390483856201e-02
1.683000000000000000e+03 7.377560424804687500e+01 3.226014709472656250e+01 4.294888675212860107e-02 -1.320052623748779297e+00 -3.831311166286468506e-01 -4.769377410411834717e-02
1.684000000000000000e+03 7.674198150634765625e+01 3.492847824096679688e+01 2.978004515171051025e-02 -1.959424376487731934e+00 -5.788933038711547852e-01 -1.409451384097337723e-02
1.685000000000000000e+03 7.595265960693359375e+01 -1.022580146789550781e+00 -7.179534435272216797e-02 -8.772863447666168213e-02 -4.785719513893127441e-02 -1.198833957314491272e-01
1.686000000000000000e+03 7.588264465332031250e+01 3.528243899345397949e-01 -7.829824835062026978e-02 -1.303967535495758057e-01 -6.260850280523300171e-02 -1.689481884241104126e-01
1.687000000000000000e+03 7.440818023681640625e+01 3.095793724060058594e+01 3.168159723281860352e-02 -1.444881916046142578e+00 -4.239600896835327148e-01 -7.653416693210601807e-02
1.688000000000000000e+03 7.593453216552734375e+01 3.152898406982421875e+01 1.704645529389381409e-02 -1.733717799186706543e+00 -5.150014162063598633e-01 -5.495931953191757202e-02
1.689000000000000000e+03 7.436785888671875000e+01 3.614769744873046875e+01 4.086689278483390808e-02 -1.471082091331481934e+00 -4.290645718574523926e-01 -3.241354972124099731e-02
1.690000000000000000e+03 7.597011566162109375e+01 -5.088679790496826172e+00 -3.492126241326332092e-02 -2.216169610619544983e-02 -1.712488755583763123e-02 -2.017086930572986603e-02
1.691000000000000000e+03 7.453736877441406250e+01 -7.747637271881103516e+00 -2.094091847538948059e-02 -1.685598306357860565e-02 -1.133907027542591095e-02 2.115505980327725410e-03
1.692000000000000000e+03 7.730986022949218750e+01 -7.752652645111083984e+00 -7.343758828938007355e-03 5.126588046550750732e-03 -6.651512812823057175e-04 1.145795639604330063e-02
1.693000000000000000e+03 3.239040756225585938e+01 -1.531472206115722656e+01 3.628740608692169189e-01 7.079418897628784180e-01 3.212447762489318848e-01 4.198834300041198730e-01
1.694000000000000000e+03 3.073249244689941406e+01 -1.495386219024658203e+01 5.236073732376098633e-01 -1.062523275613784790e-01 1.252065151929855347e-01 8.971184492111206055e-01
1.695000000000000000e+03 4.310508346557617188e+01 -2.195617866516113281e+01 2.876752316951751709e-01 3.956580877304077148e+00 1.273276805877685547e+00 -9.940147995948791504e-01
1.696000000000000000e+03 4.612246322631835938e+01 2.223732757568359375e+01 5.781111121177673340e-01 5.346114158630371094e+00 1.777267575263977051e+00 4.654079377651214600e-01
1.697000000000000000e+03 7.077701568603515625e+01 -2.436175727844238281e+01 -2.106933388859033585e-03 -3.425168979447335005e-04 -7.348350482061505318e-04 7.702761213295161724e-04
1.698000000000000000e+03 4.555486679077148438e+01 2.526029014587402344e+01 6.015492081642150879e-01 5.318032264709472656e+00 1.775874376296997070e+00 6.412089616060256958e-02
1.699000000000000000e+03 4.445478057861328125e+01 1.166251087188720703e+01 1.573837876319885254e+00 6.100661754608154297e+00 2.302349805831909180e+00 2.104154109954833984e+00
1.700000000000000000e+03 4.969207763671875000e+01 -2.966908454895019531e+01 1.565279960632324219e-01 8.985524177551269531e-01 3.165241181850433350e-01 -5.183925032615661621e-01
1.701000000000000000e+03 4.881689834594726562e+01 -3.501530456542968750e+01 -1.399553418159484863e-01 1.440521121025085449e+00 3.901697397232055664e-01 -4.960310757160186768e-01
1.702000000000000000e+03 1.544057273864746094e+01 7.454686164855957031e+00 2.677736665646079928e-05 -1.325003154306614306e-06 7.635709152964409441e-06 2.925752960436511785e-05
1.703000000000000000e+03 1.597602939605712891e+01 8.803439140319824219e+00 6.893188401591032743e-05 8.502562195644713938e-06 2.323033550055697560e-05 2.343024971196427941e-05
1.704000000000000000e+03 4.468972015380859375e+01 -2.544491386413574219e+01 3.911391198635101318e-01 2.294474363327026367e+00 8.056840896606445312e-01 -8.908380866050720215e-01
1.705000000000000000e+03 4.497659206390380859e+00 2.271133804321289062e+01 3.463620669208467007e-05 -6.092674084356985986e-06 8.563059054722543806e-06 2.416471943433862180e-05
1.706000000000000000e+03 3.003748655319213867e+00 -1.962887763977050781e+01 1.776482611894607544e-01 -4.466910064220428467e-01 -8.071282505989074707e-02 2.186174541711807251e-01
1.707000000000000000e+03 4.338801383972167969e+00 -1.633422660827636719e+01 2.565157413482666016e-01 -1.818727403879165649e-01 2.239290252327919006e-02 -7.986568659543991089e-02
1.708000000000000000e+03 4.466821193695068359e+00 -1.843778228759765625e+01 3.423843681812286377e-01 -6.838647276163101196e-02 8.219936490058898926e-02 1.505754142999649048e-01
1.709000000000000000e+03 4.986055374145507812e+00 -1.726624107360839844e+01 3.474125266075134277e-01 8.190538734197616577e-02 1.287953704595565796e-01 9.314208477735519409e-02
1.710000000000000000e+03 3.209900379180908203e+00 1.997195625305175781e+01 2.293252464369288646e-06 3.752750899366219528e-06 1.813800963645917363e-06 -2.523264083720277995e-05
1.711000000000000000e+03 5.717114925384521484e+00 2.261115264892578125e+01 4.894419180345721543e-05 1.383731978421565145e-05 1.883445293060503900e-05 -2.169113577110692859e-05
1.712000000000000000e+03 3.096223354339599609e+00 2.705924034118652344e+01 -1.004477144306292757e-05 8.604472532169893384e-05 2.279998625454027206e-05 -4.575837010634131730e-05
1.713000000000000000e+03 4.186801910400390625e+00 2.944654083251953125e+01 8.542968862457200885e-05 8.154353417921811342e-05 5.009196684113703668e-05 -1.464968809159472585e-04
1.714000000000000000e+03 4.451394081115722656e+00 1.832640457153320312e+01 4.670414455176796764e-06 6.138333446870092303e-06 3.242624416088801809e-06 -2.763694828900042921e-05
1.715000000000000000e+03 4.471363067626953125e+00 1.979115295410156250e+01 -1.234624505741521716e-06 7.820440259820315987e-06 1.975744680748903193e-06 2.838114960468374193e-05
1.716000000000000000e+03 4.407510757446289062e+00 2.563281440734863281e+01 1.557609903102274984e-05 9.575312287779524922e-05 3.339876639074645936e-05 -1.170096311398083344e-05
1.717000000000000000e+03 4.506647109985351562e+00 2.418288803100585938e+01 3.582093995646573603e-05 -9.380798474012408406e-06 7.932042535685468465e-06 -9.493336256127804518e-05
1.718000000000000000e+03 4.125199794769287109e+00 1.271661090850830078e+01 7.999991794349625707e-06 9.713138751976657659e-06 5.313939254847355187e-06 2.951243232018896379e-06
1.719000000000000000e+03 4.224762916564941406e+00 1.408649921417236328e+01 -4.549850018520373851e-06 -1.267318384634563699e-05 -5.166909886611392722e-06 6.895563274156302214e-06
1.720000000000000000e+03 3.868805646896362305e+00 -9.818000793457031250e+00 -1.692014746367931366e-02 -2.330223172903060913e-01 -7.498273998498916626e-02 -3.244076967239379883e-01
1.721000000000000000e+03 3.808471441268920898e+00 -8.694187164306640625e+00 -4.806176200509071350e-02 -2.132885158061981201e-01 -7.840508222579956055e-02 -3.090152442455291748e-01
1.722000000000000000e+03 4.212449073791503906e+00 -1.365376853942871094e+01 1.148938387632369995e-01 -2.465318590402603149e-01 -3.949140384793281555e-02 -2.683014571666717529e-01
1.723000000000000000e+03 3.432863473892211914e+00 -3.043441200256347656e+01 -1.409736573696136475e-01 -6.601232104003429413e-03 -4.427246749401092529e-02 1.191280335187911987e-01
1.724000000000000000e+03 3.561228513717651367e+00 -3.199207496643066406e+01 -8.063599467277526855e-02 2.415333129465579987e-02 -1.694479770958423615e-02 4.541601985692977905e-02
1.725000000000000000e+03 3.967806100845336914e+00 3.544702529907226562e+01 -2.849587326636537910e-05 3.329398459754884243e-04 9.133318962994962931e-05 -3.914500412065535784e-04
1.726000000000000000e+03 5.119393348693847656e+00 1.117199707031250000e+01 1.899828021123539656e-05 1.202066232508514076e-05 9.305682397098280489e-06 -2.024895138674764894e-06
1.727000000000000000e+03 4.033293247222900391e+00 -1.102468776702880859e+01 3.722302149981260300e-03 -2.435155808925628662e-01 -7.193797826766967773e-02 -3.296450078487396240e-01
1.728000000000000000e+03 4.009112358093261719e+00 1.137033939361572266e+01 -1.006240290735149756e-05 -4.650301889341790229e-06 -4.413811439007986337e-06 2.389719782058818964e-07
1.729000000000000000e+03 6.887595176696777344e+00 -3.384526062011718750e+01 -1.090922728180885315e-01 -1.728652715682983398e-01 -8.458726853132247925e-02 4.664251953363418579e-02
1.730000000000000000e+03 5.133837699890136719e+00 -3.208016967773437500e+01 -1.229858621954917908e-01 -1.112693026661872864e-01 -7.027655094861984253e-02 7.004853338003158569e-02
1.731000000000000000e+03 5.037431716918945312e+00 3.202285003662109375e+01 8.187379717128351331e-05 1.018251059576869011e-04 5.510967093869112432e-05 -2.486314042471349239e-04
1.732000000000000000e+03 4.523252487182617188e+00 3.067765045166015625e+01 3.343279968248680234e-05 2.567443698353599757e-05 1.773217081790789962e-05 -1.334976695943623781e-04
1.733000000000000000e+03 2.704917669296264648e+00 7.485782623291015625e+00 -7.693308816669741645e-07 1.104110560845583677e-05 3.081532440774026327e-06 -6.143523023638408631e-06
1.734000000000000000e+03 3.817161560058593750e+00 8.717473030090332031e+00 -5.377649813453899696e-06 6.167261744849383831e-06 2.368836362620641012e-07 -4.948876267008017749e-06
1.735000000000000000e+03 4.019055366516113281e+00 -4.334158897399902344e+00 -9.799596667289733887e-02 -7.258585095405578613e-02 -5.117454379796981812e-02 -1.921750158071517944e-01
1.736000000000000000e+03 4.604716491699218750e+01 2.057419013977050781e+01 6.424863934516906738e-01 5.405125141143798828e+00 1.814283490180969238e+00 6.531569361686706543e-01
1.737000000000000000e+03 2.671336174011230469e+00 6.106336593627929688e+00 5.423509264801396057e-06 -1.290577438339823857e-05 -2.244679535579052754e-06 4.555820396490162238e-06
1.738000000000000000e+03 5.403479099273681641e+00 4.729112148284912109e+00 -1.487256940890802070e-05 9.953386324923485518e-06 -1.475755198043771088e-06 3.305764266769983806e-06
1.739000000000000000e+03 3.240099430084228516e+00 -5.410071372985839844e+00 -6.418831646442413330e-02 -1.436477154493331909e-01 -6.235080957412719727e-02 -2.085971981287002563e-01
1.740000000000000000e+03 7.437509918212890625e+01 -2.103695297241210938e+01 7.615242066094651818e-05 -1.609243736311327666e-05 1.801799589884467423e-05 -4.715023096650838852e-04
1.741000000000000000e+03 4.396791076660156250e+01 -2.457246780395507812e+01 3.864726722240447998e-01 2.777675628662109375e+00 9.492444396018981934e-01 -8.860139846801757812e-01
1.742000000000000000e+03 5.504924297332763672e+00 -3.716068267822265625e+01 -4.337202757596969604e-03 -4.206339269876480103e-02 -1.392017770558595657e-02 6.999244447797536850e-03
1.743000000000000000e+03 7.221240997314453125e+01 -2.201540756225585938e+01 1.699413522146642208e-03 -4.741925222333520651e-04 3.675662737805396318e-04 -3.149822005070745945e-04
1.744000000000000000e+03 7.226262664794921875e+01 -2.082449150085449219e+01 -1.436885329894721508e-03 -3.381183487363159657e-04 -5.325010861270129681e-04 6.110296817496418953e-04
1.745000000000000000e+03 5.334638214111328125e+01 -3.616955947875976562e+01 -3.967561945319175720e-02 7.105979919433593750e-01 2.012767195701599121e-01 -2.138458639383316040e-01
1.746000000000000000e+03 5.816915512084960938e+01 2.268548965454101562e+00 -1.705908894538879395e+00 1.192863658070564270e-01 -4.759867787361145020e-01 -5.270856022834777832e-01
1.747000000000000000e+03 4.844762802124023438e+01 -2.878679656982421875e+01 2.304843217134475708e-01 1.154586195945739746e+00 4.155211448669433594e-01 -6.234229803085327148e-01
1.748000000000000000e+03 2.663024330139160156e+01 -1.470781707763671875e+01 5.964003205299377441e-01 -2.888503372669219971e-01 9.226499497890472412e-02 6.231945753097534180e-01
1.749000000000000000e+03 4.228291320800781250e+01 -2.264189720153808594e+01 2.408692687749862671e-01 4.244224548339843750e+00 1.345528125762939453e+00 -5.643051862716674805e-01
1.750000000000000000e+03 1.633148574829101562e+01 3.294715404510498047e+00 1.968381911865435541e-05 2.651884642546065152e-06 6.700710855511715636e-06 9.599810937288566492e-07
1.751000000000000000e+03 1.707621192932128906e+01 4.614000320434570312e+00 8.091989730019122362e-05 -4.756567761887708912e-07 2.413327274553012103e-05 4.403779598760593217e-07
1.752000000000000000e+03 1.538400650024414062e+01 6.133399486541748047e+00 -6.168521940708160400e-05 -1.975262239284347743e-05 -2.443135235807858407e-05 -1.753636388457380235e-05
1.753000000000000000e+03 1.540761280059814453e+01 4.977850914001464844e+00 -4.612956399796530604e-05 5.467663504532538354e-05 2.564120677561732009e-06 3.813652074313722551e-05
1.754000000000000000e+03 6.910884094238281250e+01 -7.804026126861572266e+00 -3.178368508815765381e-02 -1.740321889519691467e-02 -1.475607138127088547e-02 4.951210576109588146e-04
1.755000000000000000e+03 6.865790557861328125e+01 -7.068946838378906250e+00 -7.153487950563430786e-02 -1.423939410597085953e-02 -2.573228254914283752e-02 8.067656308412551880e-03
1.756000000000000000e+03 1.290318679809570312e+01 1.380669498443603516e+01 -5.910650361329317093e-05 7.366212230408564210e-06 -1.552208777866326272e-05 -3.021892916876822710e-05
1.757000000000000000e+03 1.487370967864990234e+01 8.660544395446777344e+00 -3.896817361237481236e-05 -2.167905950045678765e-05 -1.819417047954630107e-05 -2.484485412423964590e-05
1.758000000000000000e+03 4.463032913208007812e+01 1.009740734100341797e+01 1.660537481307983398e+00 5.309661865234375000e+00 2.091059923171997070e+00 2.132681608200073242e+00
1.759000000000000000e+03 5.001351547241210938e+01 6.234744548797607422e+00 -3.809950351715087891e-01 4.742845892906188965e-01 2.798686549067497253e-02 -4.079743325710296631e-01
1.760000000000000000e+03 5.185232925415039062e+01 2.460609436035156250e+00 -3.253808975219726562e+00 4.048665165901184082e-01 -8.546827435493469238e-01 -2.960778176784515381e-01
1.761000000000000000e+03 7.831903934478759766e+00 -1.395743846893310547e+01 3.901635408401489258e-01 3.743448555469512939e-01 2.293525189161300659e-01 -6.152129173278808594e-02
1.762000000000000000e+03 4.290949630737304688e+01 4.502289295196533203e+00 -1.054441690444946289e+00 6.056809902191162109e+00 1.500710487365722656e+00 1.797401428222656250e+00
1.763000000000000000e+03 4.369239807128906250e+01 2.738960027694702148e+00 -2.868816375732421875e+00 4.619331359863281250e+00 5.251545906066894531e-01 1.487013816833496094e+00
1.764000000000000000e+03 4.578549575805664062e+01 1.892525100708007812e+01 7.378224134445190430e-01 5.530560016632080078e+00 1.880514740943908691e+00 9.279099106788635254e-01
1.765000000000000000e+03 4.545132064819335938e+01 2.798946380615234375e+01 7.803941369056701660e-01 4.899900436401367188e+00 1.704088449478149414e+00 -6.168642640113830566e-02
1.766000000000000000e+03 5.722127151489257812e+01 3.563240289688110352e+00 -1.505204558372497559e+00 2.036505937576293945e-01 -3.904661834239959717e-01 -6.825571060180664062e-01
1.767000000000000000e+03 1.242740440368652344e+01 -3.899456024169921875e+01 -1.265081949532032013e-02 -1.983190476894378662e-01 -6.329096108675003052e-02 2.143247611820697784e-02
1.768000000000000000e+03 1.825248718261718750e+01 -3.480981063842773438e+01 -2.717158198356628418e-01 -7.634853571653366089e-02 -1.044193133711814880e-01 -3.091310895979404449e-02
1.769000000000000000e+03 1.469404983520507812e+01 -1.349232864379882812e+01 6.969447135925292969e-01 1.346047520637512207e-01 2.494648396968841553e-01 1.010522991418838501e-02
1.770000000000000000e+03 5.452661514282226562e+00 -3.077184486389160156e+01 -2.405351400375366211e-01 -1.306004077196121216e-01 -1.113406643271446228e-01 1.407310664653778076e-01
1.771000000000000000e+03 6.833650970458984375e+01 -6.282388210296630859e+00 -1.078835353255271912e-01 7.576774805784225464e-03 -3.009202703833580017e-02 7.674457505345344543e-03
1.772000000000000000e+03 4.482663345336914062e+01 1.442137527465820312e+01 1.251562118530273438e+00 6.130194187164306641e+00 2.214526891708374023e+00 1.636675000190734863e+00
1.773000000000000000e+03 3.891518783569335938e+01 -2.259936332702636719e+01 4.142871201038360596e-01 5.659591197967529297e+00 1.822163462638854980e+00 5.579590797424316406e-01
1.774000000000000000e+03 3.792853927612304688e+01 -2.485689544677734375e+01 9.580239653587341309e-01 5.290155887603759766e+00 1.874454021453857422e+00 3.740166127681732178e-01
1.775000000000000000e+03 4.543365859985351562e+01 1.181907176971435547e+01 1.671035289764404297e+00 5.003265380859375000e+00 2.002290248870849609e+00 1.845157504081726074e+00
1.776000000000000000e+03 4.454045104980468750e+01 1.306380176544189453e+01 1.377613544464111328e+00 6.214653968811035156e+00 2.277680397033691406e+00 1.844439387321472168e+00
1.777000000000000000e+03 4.233852767944335938e+01 6.716679096221923828e+00 1.060532927513122559e+00 7.225666046142578125e+00 2.485859632492065430e+00 2.545566320419311523e+00
1.778000000000000000e+03 4.854761505126953125e+01 3.928133010864257812e+00 -2.283338308334350586e+00 -1.296782940626144409e-01 -7.239049673080444336e-01 -2.830107212066650391e-01
1.779000000000000000e+03 4.753075408935546875e+01 4.602240085601806641e+00 -1.508776068687438965e+00 3.219914734363555908e-01 -3.560353815555572510e-01 4.096867144107818604e-02
1.780000000000000000e+03 4.171220397949218750e+01 5.223105907440185547e+00 4.398478567600250244e-02 7.737551212310791016e+00 2.334460973739624023e+00 2.202646255493164062e+00
1.781000000000000000e+03 4.528412628173828125e+01 8.625506401062011719e+00 1.478998064994812012e+00 4.032708644866943359e+00 1.653512001037597656e+00 1.799115657806396484e+00
1.782000000000000000e+03 1.798542213439941406e+01 -3.763635635375976562e+01 -9.853755682706832886e-02 -1.112877130508422852e-01 -6.294757872819900513e-02 -5.581290926784276962e-03
1.783000000000000000e+03 1.971766853332519531e+01 -3.620153808593750000e+01 -1.586778908967971802e-01 -4.371848329901695251e-02 -6.071891263127326965e-02 -3.938354179263114929e-02
1.784000000000000000e+03 1.270322418212890625e+01 3.057152175903320312e+01 3.581757191568613052e-04 -1.033230219036340714e-04 7.645580626558512449e-05 5.997966945869848132e-05
1.785000000000000000e+03 4.042340087890625000e+01 2.892394781112670898e+00 -2.108371973037719727e+00 8.684687614440917969e+00 1.972894668579101562e+00 1.151822566986083984e+00
1.786000000000000000e+03 4.409753799438476562e+01 3.876633882522583008e+00 -2.320651531219482422e+00 4.326549530029296875e+00 6.017694473266601562e-01 1.890475630760192871e+00
1.787000000000000000e+03 4.351894378662109375e+01 5.952679634094238281e+00 2.816941142082214355e-01 5.385490894317626953e+00 1.700155496597290039e+00 2.119112730026245117e+00
1.788000000000000000e+03 2.856293296813964844e+01 -6.994388580322265625e+00 9.610037207603454590e-01 -9.919124245643615723e-01 -9.272611699998378754e-03 -6.465672850608825684e-01
1.789000000000000000e+03 3.975886154174804688e+01 1.115971431136131287e-01 -3.095175504684448242e+00 8.548574447631835938e+00 1.636019706726074219e+00 7.810491919517517090e-01
1.790000000000000000e+03 6.261056137084960938e+01 -4.112336349487304688e+01 1.012311056256294250e-01 1.460302248597145081e-02 3.475023806095123291e-02 2.080966718494892120e-02
1.791000000000000000e+03 6.599887084960937500e+01 -3.533684539794921875e+01 -1.764981076121330261e-02 3.767937421798706055e-03 -4.164561629295349121e-03 4.364252462983131409e-02
1.792000000000000000e+03 4.222161102294921875e+01 -2.102851104736328125e+01 9.890980273485183716e-02 4.938701152801513672e+00 1.511283278465270996e+00 -6.143682003021240234e-01
1.793000000000000000e+03 4.063043212890625000e+01 -2.248540115356445312e+01 2.398916482925415039e-01 5.091590404510498047e+00 1.599444627761840820e+00 1.224031671881675720e-02
1.794000000000000000e+03 3.801817321777343750e+01 -2.839094734191894531e+01 2.737817466259002686e-01 4.480242729187011719e+00 1.426207304000854492e+00 -1.082843467593193054e-01
1.795000000000000000e+03 6.881956481933593750e+01 -3.400717544555664062e+01 -1.920036226511001587e-02 5.598054267466068268e-03 -4.080692771822214127e-03 2.614212408661842346e-02
1.796000000000000000e+03 3.942663955688476562e+01 -1.638867759704589844e+01 2.100629359483718872e-01 7.391856193542480469e+00 2.280575752258300781e+00 -5.139242410659790039e-01
1.797000000000000000e+03 3.953682327270507812e+01 -1.527149105072021484e+01 3.697499930858612061e-01 7.679333686828613281e+00 2.414725065231323242e+00 -9.324105381965637207e-01
1.798000000000000000e+03 3.459957885742187500e+01 -3.306850051879882812e+01 -4.660113155841827393e-01 3.181148529052734375e+00 8.145411610603332520e-01 5.999864935874938965e-01
1.799000000000000000e+03 3.610047912597656250e+01 -3.154062461853027344e+01 -3.483607172966003418e-01 3.847664117813110352e+00 1.049791097640991211e+00 3.040919899940490723e-01
1.800000000000000000e+03 2.854682540893554688e+01 -5.111847877502441406e+00 -2.314805239439010620e-01 -1.032799720764160156e+00 -3.792840838432312012e-01 -1.122842073440551758e+00
1.801000000000000000e+03 2.946124267578125000e+01 -5.225392818450927734e+00 3.225576132535934448e-02 -1.099640130996704102e+00 -3.202152848243713379e-01 -1.113967180252075195e+00
1.802000000000000000e+03 4.924477767944335938e+01 5.086885929107666016e+00 -1.172780513763427734e+00 2.800340652465820312e-01 -2.678239345550537109e-01 -5.528298020362854004e-01
1.803000000000000000e+03 4.960777282714843750e+01 3.362688302993774414e+00 -2.776993989944458008e+00 -1.000853851437568665e-01 -8.631237745285034180e-01 -7.509958744049072266e-01
1.804000000000000000e+03 3.718814086914062500e+01 -2.994223403930664062e+01 -3.554581105709075928e-02 4.184424400329589844e+00 1.244663596153259277e+00 8.878698945045471191e-02
1.805000000000000000e+03 1.217984867095947266e+01 1.667116165161132812e+01 -6.483290053438395262e-05 4.163189714745385572e-06 -1.820091165427584201e-05 -1.894315937533974648e-05
1.806000000000000000e+03 7.567044830322265625e+01 -2.419409751892089844e+01 9.695843909867107868e-04 -5.533422809094190598e-04 1.248726330231875181e-04 -2.544190501794219017e-04
1.807000000000000000e+03 1.960257530212402344e+01 3.546446990966796875e+01 -5.469767493195831776e-04 7.322933524847030640e-04 5.559497731155715883e-05 -1.174003118649125099e-03
1.808000000000000000e+03 4.392411804199218750e+01 2.974833869934082031e+01 7.411345839500427246e-01 5.153259277343750000e+00 1.768318176269531250e+00 -2.751235365867614746e-01
1.809000000000000000e+03 2.854145622253417969e+01 -3.553026962280273438e+01 -1.659301221370697021e-01 9.624360799789428711e-01 2.389517873525619507e-01 5.048718452453613281e-01
1.810000000000000000e+03 1.230173492431640625e+01 2.725774192810058594e+01 2.646071952767670155e-04 5.553130540647543967e-05 9.604154911357909441e-05 2.599114668555557728e-04
1.811000000000000000e+03 5.825913429260253906e+00 2.415167427062988281e+01 8.827070269035175443e-05 -4.355242344900034368e-05 1.341548431810224429e-05 1.579465606482699513e-05
1.812000000000000000e+03 1.304894065856933594e+01 2.412134361267089844e+01 -1.128640433307737112e-04 -1.185537348646903411e-05 -3.741582622751593590e-05 -1.694445563771296293e-05
1.813000000000000000e+03 1.173487567901611328e+01 2.269624710083007812e+01 -1.834041177062317729e-05 -3.681062662508338690e-05 -1.654531115491408855e-05 -1.263692865904886276e-05
1.814000000000000000e+03 4.279250717163085938e+01 3.601671218872070312e+01 -4.222631752490997314e-01 3.866031885147094727e+00 1.033130645751953125e+00 -2.648609578609466553e-01
1.815000000000000000e+03 4.635511016845703125e+01 3.222882080078125000e+01 1.871630400419235229e-01 4.103661537170410156e+00 1.287247419357299805e+00 2.628918886184692383e-01
1.816000000000000000e+03 5.468029022216796875e+00 -1.227946567535400391e+01 7.733020931482315063e-02 -1.004473492503166199e-02 2.018564194440841675e-02 -3.055324852466583252e-01
1.817000000000000000e+03 5.257229804992675781e+00 -1.093340873718261719e+01 1.767087355256080627e-02 -5.740804970264434814e-02 -1.192115340381860733e-02 -3.315970599651336670e-01
1.818000000000000000e+03 6.489170074462890625e+01 -3.747926330566406250e+01 3.149530291557312012e-02 1.867674989625811577e-03 1.000889297574758530e-02 5.220361426472663879e-02
1.819000000000000000e+03 7.246609497070312500e+01 -3.398171997070312500e+01 -5.029880441725254059e-03 -1.948514138348400593e-03 -2.093518385663628578e-03 1.768821477890014648e-02
1.820000000000000000e+03 7.070236968994140625e+01 -2.919672775268554688e+01 -1.471437793225049973e-02 3.185918089002370834e-03 -3.458537859842181206e-03 1.062259078025817871e-03
1.821000000000000000e+03 1.121673011779785156e+01 -1.301760005950927734e+01 4.846458137035369873e-01 3.602999746799468994e-01 2.534837424755096436e-01 -3.585676103830337524e-02
1.822000000000000000e+03 6.513781738281250000e+01 -1.565628886222839355e+00 -7.829743027687072754e-01 1.405341625213623047e-01 -1.927320361137390137e-01 -1.225475892424583435e-01
1.823000000000000000e+03 6.582064819335937500e+01 -6.427367329597473145e-01 -7.470911145210266113e-01 1.694544851779937744e-01 -1.732909828424453735e-01 -2.575978338718414307e-01
1.824000000000000000e+03 4.601487731933593750e+01 3.079845428466796875e+01 5.056856870651245117e-01 4.375155448913574219e+00 1.464252352714538574e+00 1.436068117618560791e-01
1.825000000000000000e+03 6.727024841308593750e+01 -1.595262289047241211e+00 -5.540857911109924316e-01 1.212650313973426819e-01 -1.298462301492691040e-01 -1.675929576158523560e-01
1.826000000000000000e+03 6.581880187988281250e+01 -2.142464637756347656e+00 -6.493540406227111816e-01 1.396180242300033569e-01 -1.529207974672317505e-01 -9.262999892234802246e-02
1.827000000000000000e+03 4.138134002685546875e+01 -2.172097587585449219e+01 1.861495822668075562e-01 5.019059658050537109e+00 1.561562657356262207e+00 -3.332951664924621582e-01
1.828000000000000000e+03 4.017001342773437500e+01 -1.883600616455078125e+01 1.773788481950759888e-01 6.872081756591796875e+00 2.114838123321533203e+00 -9.420596063137054443e-02
1.829000000000000000e+03 7.161165618896484375e+01 -2.619245719909667969e+01 -4.350603092461824417e-03 -3.155793529003858566e-04 -1.399854780174791813e-03 1.315595727646723390e-05
1.830000000000000000e+03 7.281829833984375000e+01 -2.656050109863281250e+01 -1.395463244989514351e-03 -5.807296256534755230e-04 -5.928578320890665054e-04 -1.337941794190555811e-04
1.831000000000000000e+03 3.160570144653320312e+01 -3.338214111328125000e+01 -2.125579267740249634e-01 2.093565940856933594e+00 5.643023848533630371e-01 9.217256903648376465e-01
1.832000000000000000e+03 7.395726776123046875e+01 -3.348769760131835938e+01 -4.345996305346488953e-03 -2.745765028521418571e-03 -2.127528423443436623e-03 1.228962279856204987e-02
1.833000000000000000e+03 4.458264160156250000e+01 3.371532058715820312e+01 -2.901549823582172394e-02 4.259357929229736328e+00 1.269102692604064941e+00 6.878048181533813477e-02
1.834000000000000000e+03 4.486314392089843750e+01 3.530277252197265625e+01 -3.523686230182647705e-01 4.039750576019287109e+00 1.106214523315429688e+00 1.034051701426506042e-01
1.835000000000000000e+03 4.109431457519531250e+01 -2.400713920593261719e+01 3.549802601337432861e-01 4.382255077362060547e+00 1.421170592308044434e+00 -3.018506765365600586e-01
1.836000000000000000e+03 3.919196319580078125e+01 -2.567372703552246094e+01 6.559134125709533691e-01 4.732633590698242188e+00 1.616564154624938965e+00 -9.188288822770118713e-03
1.837000000000000000e+03 5.365551471710205078e+00 -1.624395370483398438e+01 4.030128419399261475e-01 1.303961277008056641e-01 1.600226908922195435e-01 1.945911208167672157e-03
1.838000000000000000e+03 8.430736541748046875e+00 -3.430261993408203125e+01 -1.317747980356216431e-01 -2.441523075103759766e-01 -1.127781346440315247e-01 8.723769336938858032e-02
1.839000000000000000e+03 6.442929840087890625e+01 -6.304069608449935913e-02 -9.442246556282043457e-01 1.863997727632522583e-01 -2.273474633693695068e-01 -3.024350702762603760e-01
1.840000000000000000e+03 3.343493270874023438e+01 -5.760824203491210938e+00 1.850656867027282715e+00 9.902488589286804199e-01 8.522717356681823730e-01 -1.756233721971511841e-01
1.841000000000000000e+03 3.819959640502929688e+01 -8.466279029846191406e+00 3.930901527404785156e+00 1.170882415771484375e+01 4.691917896270751953e+00 2.891186475753784180e+00
1.842000000000000000e+03 3.830406570434570312e+01 -8.869946479797363281e+00 2.268759489059448242e+00 1.202897453308105469e+01 4.289320468902587891e+00 2.325668573379516602e+00
1.843000000000000000e+03 3.440253829956054688e+01 -1.473389434814453125e+01 2.503247857093811035e-01 3.139676094055175781e+00 1.017000317573547363e+00 5.821183323860168457e-02
1.844000000000000000e+03 3.763895797729492188e+01 -7.839049816131591797e+00 5.578148841857910156e+00 8.943419456481933594e+00 4.356470584869384766e+00 2.069720506668090820e+00
1.845000000000000000e+03 3.752098846435546875e+01 -8.177861213684082031e+00 4.742278575897216797e+00 8.916393280029296875e+00 4.097601413726806641e+00 2.390195369720458984e+00
1.846000000000000000e+03 3.788527297973632812e+01 -8.450853347778320312e+00 4.060935020446777344e+00 1.033320999145507812e+01 4.318243503570556641e+00 2.706385612487792969e+00
1.847000000000000000e+03 3.550134277343750000e+01 -3.323146820068359375e+00 -9.791207909584045410e-01 3.724974393844604492e+00 8.237560987472534180e-01 -7.834763079881668091e-02
1.848000000000000000e+03 3.857797622680664062e+01 -5.740454196929931641e+00 1.873930573463439941e+00 1.269150924682617188e+01 4.369631767272949219e+00 8.317500352859497070e-02
1.849000000000000000e+03 3.918387222290039062e+01 -9.560125350952148438e+00 -5.061973333358764648e-01 1.255254364013671875e+01 3.613903999328613281e+00 -5.202333927154541016e-01
1.850000000000000000e+03 4.153031921386718750e+01 -1.002333641052246094e+01 -3.580930829048156738e-02 5.004514694213867188e+00 1.490611553192138672e+00 -1.115490913391113281e+00
1.851000000000000000e+03 4.055294036865234375e+01 -5.301695823669433594e+00 7.357317805290222168e-01 9.424248695373535156e+00 3.047994136810302734e+00 5.248679637908935547e+00
1.852000000000000000e+03 3.977519226074218750e+01 -1.022774410247802734e+01 -7.987143993377685547e-01 1.040886688232421875e+01 2.883045673370361328e+00 -2.041443586349487305e+00
1.853000000000000000e+03 4.026630401611328125e+01 -5.171517848968505859e+00 4.190825521945953369e-01 1.051381206512451172e+01 3.279868602752685547e+00 4.989561080932617188e+00
1.854000000000000000e+03 4.000289535522460938e+01 -5.313885688781738281e+00 2.254228591918945312e-01 1.172699069976806641e+01 3.585724115371704102e+00 4.612270832061767578e+00
1.855000000000000000e+03 9.558819770812988281e+00 -5.001836299896240234e+00 -2.763551473617553711e-01 9.165912121534347534e-02 -5.540881305932998657e-02 -2.071371227502822876e-01
1.856000000000000000e+03 1.029143619537353516e+01 -5.046101570129394531e+00 -2.933889031410217285e-01 9.477178007364273071e-02 -5.958513543009757996e-02 -1.932243704795837402e-01
1.857000000000000000e+03 1.614188575744628906e+01 4.988326072692871094e+00 -8.362736116396263242e-05 -2.226537435490172356e-05 -3.176782047376036644e-05 -5.138109190738759935e-05
1.858000000000000000e+03 7.548883819580078125e+01 -1.872963523864746094e+01 -2.074549847748130560e-04 -5.779823986813426018e-04 -2.356312033953145146e-04 -5.151357036083936691e-04
1.859000000000000000e+03 1.496161556243896484e+01 3.305558204650878906e+00 2.680505349417217076e-05 1.458376300433883443e-05 1.241664540430065244e-05 1.243833253283810336e-06
1.860000000000000000e+03 4.077548217773437500e+01 -2.930291891098022461e+00 -2.973464727401733398e-01 8.199419975280761719e+00 2.370621919631958008e+00 2.699721574783325195e+00
1.861000000000000000e+03 4.003308868408203125e+01 -3.635562181472778320e+00 -5.933113098144531250e-01 9.052869796752929688e+00 2.537867546081542969e+00 3.033942461013793945e+00
1.862000000000000000e+03 6.067498207092285156e+00 4.745846271514892578e+00 -7.153417982408427633e-07 3.478093731246190146e-06 8.288255344268691260e-07 -1.199766029458260164e-05
1.863000000000000000e+03 9.781208992004394531e+00 3.911098480224609375e+00 -1.356634675175882876e-05 -8.821971277939155698e-06 -6.716495136060984805e-06 -6.107157446422206704e-07
1.864000000000000000e+03 4.040043354034423828e+00 4.199723243713378906e+00 6.947841484361561015e-06 -1.307380807702429593e-05 -1.837790023273555562e-06 -7.683833246119320393e-06
1.865000000000000000e+03 4.713260650634765625e+00 4.106123447418212891e+00 8.973735020845197141e-06 -1.769472874002531171e-06 2.161278644052799791e-06 4.438028554432094097e-06
1.866000000000000000e+03 6.797715187072753906e+00 3.981587648391723633e+00 -6.605653652513865381e-06 -6.613041705350042321e-07 -2.180087221859139390e-06 -6.594460955966496840e-06
1.867000000000000000e+03 4.903184890747070312e+00 6.285263538360595703e+00 7.604536449434817769e-07 -2.254136416013352573e-05 -6.534273325087269768e-06 6.961221515666693449e-06
1.868000000000000000e+03 1.554928493499755859e+01 4.442557334899902344e+00 -4.059126513311639428e-05 -4.042135697090998292e-05 -2.430378663120791316e-05 -7.497413025703281164e-05
1.869000000000000000e+03 1.356927394866943359e+01 4.275841236114501953e+00 -2.700787445064634085e-05 -2.298356957908254117e-05 -1.499743302701972425e-05 -1.206509205076145008e-05
1.870000000000000000e+03 7.517840862274169922e+00 3.974855899810791016e+00 9.343892088509164751e-06 1.797355935195810162e-06 3.342374384374124929e-06 4.104949766770005226e-06
1.871000000000000000e+03 8.248434066772460938e+00 4.712217807769775391e+00 1.198828431370202452e-05 4.184964836895233020e-06 4.851975063502322882e-06 -1.668723939474148210e-06
1.872000000000000000e+03 7.560723114013671875e+01 -1.939017486572265625e+01 6.798850372433662415e-04 -1.041385461576282978e-03 -1.084501200239174068e-04 1.302716555073857307e-04
1.873000000000000000e+03 7.235939025878906250e+01 -1.981721878051757812e+01 2.331768861040472984e-03 7.710135105298832059e-05 7.226610905490815639e-04 3.102523623965680599e-04
1.874000000000000000e+03 7.407421875000000000e+01 -1.798889160156250000e+01 8.554197265766561031e-04 -6.293882615864276886e-04 6.780944386264309287e-05 1.442247012164443731e-04
1.875000000000000000e+03 1.282823944091796875e+01 4.353072166442871094e+00 1.093758692150004208e-05 2.744873381743673235e-05 1.151589549408527091e-05 8.778201845416333526e-06
1.876000000000000000e+03 1.332616233825683594e+01 -5.373055458068847656e+00 -3.235378861427307129e-01 6.583475321531295776e-02 -7.731094211339950562e-02 -1.341815739870071411e-01
1.877000000000000000e+03 1.102735900878906250e+01 -5.108676433563232422e+00 -3.061100244522094727e-01 9.882265329360961914e-02 -6.218621134757995605e-02 -1.782309561967849731e-01
1.878000000000000000e+03 1.177710628509521484e+01 -5.187500000000000000e+00 -3.153405487537384033e-01 9.026758372783660889e-02 -6.752188503742218018e-02 -1.637278199195861816e-01
1.879000000000000000e+03 8.040582656860351562e+00 -4.163923740386962891e+00 -2.589610815048217773e-01 5.017054453492164612e-02 -6.263716518878936768e-02 -2.042417526245117188e-01
1.880000000000000000e+03 6.654867172241210938e+00 -6.450342178344726562e+00 -1.482615619897842407e-01 2.493116259574890137e-02 -3.699912130832672119e-02 -2.929269373416900635e-01
1.881000000000000000e+03 1.131779861450195312e+01 3.784500598907470703e+00 -1.261801025975728408e-05 -1.591255386301781982e-05 -8.559169145883060992e-06 -8.451022495137294754e-07
1.882000000000000000e+03 9.008098602294921875e+00 4.686444759368896484e+00 -1.347743000223999843e-05 -7.598213414894416928e-06 -6.322693025140324607e-06 1.137082790592103265e-06
1.883000000000000000e+03 7.167743682861328125e+01 -9.721129417419433594e+00 -1.426883274689316750e-03 -1.646292954683303833e-02 -5.366944242268800735e-03 -1.819467870518565178e-03
1.884000000000000000e+03 6.969097137451171875e+01 -8.412553787231445312e+00 -2.251458726823329926e-02 -1.966361701488494873e-02 -1.265346072614192963e-02 -5.885715596377849579e-03
1.885000000000000000e+03 1.206999015808105469e+01 4.429197788238525391e+00 -9.226065230905078351e-06 -2.512661558284889907e-05 -1.030580369842937216e-05 6.398403229468385689e-07
1.886000000000000000e+03 1.659161567687988281e+01 -5.673785209655761719e+00 -3.170821964740753174e-01 -3.491983190178871155e-02 -1.056006103754043579e-01 -9.786750376224517822e-02
1.887000000000000000e+03 2.077533721923828125e+01 -5.702620029449462891e+00 -3.619356751441955566e-01 -1.458555608987808228e-01 -1.523373723030090332e-01 -2.001218497753143311e-01
1.888000000000000000e+03 1.254319381713867188e+01 -5.277341365814208984e+00 -3.208018541336059570e-01 8.481580764055252075e-02 -7.079581916332244873e-02 -1.473457217216491699e-01
1.889000000000000000e+03 6.976625823974609375e+01 -9.649569511413574219e+00 2.009047893807291985e-03 -1.614206098020076752e-02 -4.239903762936592102e-03 -1.126480940729379654e-02
1.890000000000000000e+03 7.303770446777343750e+01 -9.810265541076660156e+00 -2.252761507406830788e-03 -1.408469025045633316e-02 -4.901235457509756088e-03 2.961749676614999771e-03
1.891000000000000000e+03 7.197380828857421875e+01 -9.137428283691406250e+00 -1.075714919716119766e-02 -2.059937082231044769e-02 -9.406955912709236145e-03 -2.778307069092988968e-03
1.892000000000000000e+03 7.240917205810546875e+01 -8.816576004028320312e+00 -1.096747536212205887e-02 -2.144739404320716858e-02 -9.724461473524570465e-03 4.033081058878451586e-04
1.893000000000000000e+03 4.352739810943603516e+00 -5.238336563110351562e+00 -1.032363027334213257e-01 -8.444488048553466797e-02 -5.630435422062873840e-02 -2.375012338161468506e-01
1.894000000000000000e+03 3.962924480438232422e+00 -6.699062824249267578e+00 -7.393895834684371948e-02 -1.438082605600357056e-01 -6.532416492700576782e-02 -2.715142667293548584e-01
1.895000000000000000e+03 7.630846405029296875e+01 -7.594506740570068359e+00 -1.065854728221893311e-02 -5.039862822741270065e-03 -4.709523171186447144e-03 8.328757248818874359e-03
1.896000000000000000e+03 5.178236961364746094e+00 -4.785603523254394531e+00 -1.360172033309936523e-01 -4.059164598584175110e-02 -5.298265814781188965e-02 -2.352028936147689819e-01
1.897000000000000000e+03 6.612193584442138672e+00 -4.892092227935791016e+00 -1.855604201555252075e-01 1.466345693916082382e-02 -5.126908794045448303e-02 -2.454933375120162964e-01
1.898000000000000000e+03 6.642421245574951172e+00 -5.668888092041015625e+00 -1.689215302467346191e-01 1.962127164006233215e-02 -4.479007795453071594e-02 -2.696714699268341064e-01
1.899000000000000000e+03 3.925848007202148438e+01 -1.733088731765747070e+00 -2.503837823867797852e+00 8.504128456115722656e+00 1.800087213516235352e+00 1.443016052246093750e+00
1.900000000000000000e+03 7.152877044677734375e+01 -8.750498771667480469e+00 -1.413902826607227325e-02 -2.037195116281509399e-02 -1.035329326987266541e-02 -4.774122789967805147e-04
1.901000000000000000e+03 1.575835990905761719e+01 -5.631057739257812500e+00 -3.178462982177734375e-01 4.794839187525212765e-04 -9.521004557609558105e-02 -9.856313467025756836e-02
1.902000000000000000e+03 7.347599506378173828e+00 -4.920204162597656250e+00 -2.118927389383316040e-01 4.064879566431045532e-02 -5.137318372726440430e-02 -2.399855554103851318e-01
1.903000000000000000e+03 8.084602355957031250e+00 -4.943304538726806641e+00 -2.344644218683242798e-01 6.293613463640213013e-02 -5.145848542451858521e-02 -2.327008843421936035e-01
1.904000000000000000e+03 3.181212615966796875e+01 -4.088786125183105469e+00 -5.038232207298278809e-01 -7.588188648223876953e-01 -3.787926137447357178e-01 -1.061275601387023926e+00
1.905000000000000000e+03 3.481672668457031250e+01 -4.691452980041503906e+00 9.431697130203247070e-01 2.868916273117065430e+00 1.143625736236572266e+00 -2.502432465553283691e-01
1.906000000000000000e+03 3.140732192993164062e+01 -4.929804801940917969e+00 3.139371573925018311e-01 -9.249693751335144043e-01 -1.833096593618392944e-01 -9.144427776336669922e-01
1.907000000000000000e+03 1.899816131591796875e+01 -4.971282005310058594e+00 -4.395821392536163330e-01 -9.512602537870407104e-02 -1.604124456644058228e-01 -1.155230402946472168e-01
1.908000000000000000e+03 1.412558174133300781e+01 -5.470957279205322266e+00 -3.231668472290039062e-01 5.127660185098648071e-02 -8.156707137823104858e-02 -1.179622784256935120e-01
1.909000000000000000e+03 1.493604278564453125e+01 -5.562419414520263672e+00 -3.204511106014251709e-01 2.105254121124744415e-02 -8.981957286596298218e-02 -1.088748648762702942e-01
1.910000000000000000e+03 1.130826091766357422e+01 4.513121128082275391e+00 1.326738583884434775e-05 1.850810258474666625e-05 9.532646799925714731e-06 -5.141585916135227308e-06
1.911000000000000000e+03 1.909761047363281250e+01 -5.729143619537353516e+00 -3.281290829181671143e-01 -1.078385561704635620e-01 -1.307902932167053223e-01 -1.260503828525543213e-01
1.912000000000000000e+03 3.293556594848632812e+01 -3.878970384597778320e+00 -4.536070525646209717e-01 -2.819164693355560303e-01 -2.206570506095886230e-01 -8.109257817268371582e-01
1.913000000000000000e+03 3.979475784301757812e+01 -1.248044013977050781e+01 -1.010329276323318481e-01 8.778438568115234375e+00 2.603221654891967773e+00 -1.657509684562683105e+00
1.914000000000000000e+03 3.251778030395507812e+01 -4.549384117126464844e+00 2.865721583366394043e-01 -1.702582985162734985e-01 3.489416092634201050e-02 -8.359954357147216797e-01
1.915000000000000000e+03 2.239087486267089844e+01 -5.639054775238037109e+00 -4.152443110942840576e-01 -1.911727786064147949e-01 -1.819251179695129395e-01 -3.366861045360565186e-01
1.916000000000000000e+03 2.233576011657714844e+01 -4.842987060546875000e+00 -5.923155546188354492e-01 -1.144674792885780334e-01 -2.120348960161209106e-01 -2.923285663127899170e-01
1.917000000000000000e+03 9.772778511047363281e+00 5.421529769897460938e+00 -1.631130362511612475e-05 -1.459723353036679327e-05 -9.272561328543815762e-06 2.147380655515007675e-06
1.918000000000000000e+03 1.825933265686035156e+01 -5.720826148986816406e+00 -3.185222148895263672e-01 -9.227384626865386963e-02 -1.232388168573379517e-01 -1.108493357896804810e-01
1.919000000000000000e+03 4.089225387573242188e+01 -1.968997120857238770e+00 -1.132491946220397949e+00 8.232340812683105469e+00 2.129954814910888672e+00 1.750919818878173828e+00
1.920000000000000000e+03 3.311099624633789062e+01 -1.472533893585205078e+01 6.246367692947387695e-01 1.461909890174865723e+00 6.259639859199523926e-01 3.030837476253509521e-01
1.921000000000000000e+03 3.575807571411132812e+01 -1.649170112609863281e+01 -6.802964806556701660e-01 4.714128971099853516e+00 1.210149765014648438e+00 -2.488174885511398315e-01
1.922000000000000000e+03 3.387333679199218750e+01 -1.536326217651367188e+01 7.552826404571533203e-02 2.414039611816406250e+00 7.468703389167785645e-01 -1.130309849977493286e-01
1.923000000000000000e+03 4.087890243530273438e+01 -9.084709286689758301e-01 -2.030099153518676758e+00 8.248360633850097656e+00 1.865478515625000000e+00 1.035390496253967285e+00
1.924000000000000000e+03 2.398513031005859375e+01 -5.689286231994628906e+00 -3.963171541690826416e-01 -3.257677257061004639e-01 -2.166254520416259766e-01 -5.330073833465576172e-01
1.925000000000000000e+03 2.345596504211425781e+01 -1.411273002624511719e+01 6.694797277450561523e-01 -3.384082913398742676e-01 9.932143241167068481e-02 2.637071907520294189e-01
1.926000000000000000e+03 2.159056663513183594e+01 -5.669453144073486328e+00 -3.810469508171081543e-01 -1.731258332729339600e-01 -1.662518382072448730e-01 -2.585240602493286133e-01
1.927000000000000000e+03 2.084770393371582031e+01 -6.517411231994628906e+00 -1.994190812110900879e-01 -2.080179154872894287e-01 -1.222310960292816162e-01 -2.123433202505111694e-01
1.928000000000000000e+03 7.035932159423828125e+01 -3.915056943893432617e+00 -2.137120068073272705e-01 1.255465019494295120e-02 -6.034720689058303833e-02 -5.881770700216293335e-02
1.929000000000000000e+03 6.818515777587890625e+01 -3.503712654113769531e+00 -3.430317342281341553e-01 5.418033525347709656e-02 -8.665542304515838623e-02 -3.551578149199485779e-02
1.930000000000000000e+03 1.873520469665527344e+01 -1.321135139465332031e+01 6.258700489997863770e-01 -1.730106770992279053e-01 1.358578056097030640e-01 3.196609020233154297e-02
1.931000000000000000e+03 1.723624801635742188e+01 -1.380663967132568359e+01 6.941301822662353516e-01 -6.727761030197143555e-02 1.880557686090469360e-01 1.536334026604890823e-02
1.932000000000000000e+03 2.543698692321777344e+01 -1.384203815460205078e+01 7.568901181221008301e-01 -4.014658629894256592e-01 1.066272780299186707e-01 4.616728425025939941e-01
1.933000000000000000e+03 6.665737152099609375e+00 -1.379680633544921875e+01 2.543427348136901855e-01 2.284144908189773560e-01 1.448271721601486206e-01 -1.772428452968597412e-01
1.934000000000000000e+03 7.050956726074218750e+01 -7.728380203247070312e+00 -3.727470338344573975e-02 -2.186993695795536041e-02 -1.774339191615581512e-02 3.114936989732086658e-04
1.935000000000000000e+03 7.002471160888671875e+01 -7.150415420532226562e+00 -6.919980049133300781e-02 -1.965870521962642670e-02 -2.665755152702331543e-02 -3.119431668892502785e-03
1.936000000000000000e+03 6.463076114654541016e+00 -1.651508331298828125e+01 5.079941749572753906e-01 4.219627082347869873e-01 2.789870798587799072e-01 9.065352380275726318e-02
1.937000000000000000e+03 4.541347122192382812e+01 6.348401069641113281e+00 3.665907382965087891e-01 2.707813024520874023e+00 9.223211407661437988e-01 1.520541191101074219e+00
1.938000000000000000e+03 6.045366287231445312e+01 2.196760416030883789e+00 -1.369648218154907227e+00 1.516964137554168701e-01 -3.653855323791503906e-01 -5.879295468330383301e-01
1.939000000000000000e+03 5.697677230834960938e+01 2.438869953155517578e+00 -1.891623497009277344e+00 1.358654052019119263e-01 -5.267274379730224609e-01 -5.157141089439392090e-01
1.940000000000000000e+03 3.769841003417968750e+01 -1.851438522338867188e+01 -5.678321719169616699e-01 6.419952392578125000e+00 1.755636096000671387e+00 4.774352312088012695e-01
1.941000000000000000e+03 2.655966567993164062e+01 -3.994833946228027344e+00 -1.324234008789062500e+00 -4.661299288272857666e-01 -5.371091961860656738e-01 -8.989061117172241211e-01
1.942000000000000000e+03 3.525211715698242188e+01 -1.733539199829101562e+01 -1.252590656280517578e+00 4.309303760528564453e+00 9.170138835906982422e-01 -1.936840265989303589e-01
1.943000000000000000e+03 3.846012115478515625e+01 -1.428196525573730469e+01 3.254752606153488159e-02 7.341168403625488281e+00 2.212114810943603516e+00 -8.231857419013977051e-01
1.944000000000000000e+03 1.226967334747314453e+01 -1.300822162628173828e+01 5.666324496269226074e-01 3.161738812923431396e-01 2.648418843746185303e-01 1.999666728079319000e-02
1.945000000000000000e+03 1.313206291198730469e+01 -1.342105960845947266e+01 6.664854884147644043e-01 2.719469964504241943e-01 2.815297245979309082e-01 4.386465530842542648e-03
1.946000000000000000e+03 3.832265853881835938e+01 -1.347457599639892578e+01 7.627689093351364136e-02 7.586971759796142578e+00 2.298974514007568359e+00 -8.737288117408752441e-01
1.947000000000000000e+03 7.456916809082031250e+01 -3.511408233642578125e+01 -6.591157289221882820e-04 -7.828177884221076965e-03 -2.546188188716769218e-03 1.417326182126998901e-02
1.948000000000000000e+03 7.513211059570312500e+01 -3.164043807983398438e+01 -5.112712271511554718e-03 -2.079016296193003654e-03 -2.157518407329916954e-03 7.481903769075870514e-03
1.949000000000000000e+03 2.920695877075195312e+01 -1.365817642211914062e+01 1.097820520401000977e+00 -3.025518953800201416e-01 2.385805696249008179e-01 8.911677598953247070e-01
1.950000000000000000e+03 7.034085083007812500e+01 -8.913585662841796875e+00 -7.941877469420433044e-03 -1.888494193553924561e-02 -8.048045448958873749e-03 -3.160000313073396683e-03
1.951000000000000000e+03 1.339008331298828125e+01 1.246404457092285156e+01 5.360681097954511642e-05 -2.162244300052407198e-06 1.543337020848412067e-05 2.959049015771597624e-05
1.952000000000000000e+03 3.914445877075195312e+01 -9.443583488464355469e-01 -2.951828956604003906e+00 8.382517814636230469e+00 1.629206538200378418e+00 1.088430523872375488e+00
1.953000000000000000e+03 3.823506164550781250e+01 -1.914971023797988892e-01 -3.273928642272949219e+00 7.533567905426025391e+00 1.277891755104064941e+00 9.095839858055114746e-01
1.954000000000000000e+03 1.775000953674316406e+01 -1.283495235443115234e+01 5.896086096763610840e-01 -1.167312487959861755e-01 1.418632119894027710e-01 2.298854663968086243e-02
1.955000000000000000e+03 7.357700347900390625e+01 -3.007281303405761719e+01 -9.273027069866657257e-03 1.196175231598317623e-03 -2.423055469989776611e-03 5.079380702227354050e-03
1.956000000000000000e+03 7.520255279541015625e+01 -2.863819694519042969e+01 -5.027272738516330719e-03 -4.168499435763806105e-04 -1.633236766792833805e-03 2.713716588914394379e-03
1.957000000000000000e+03 7.482543182373046875e+01 -2.220844268798828125e+00 -9.662122279405593872e-02 -6.005849689245223999e-02 -4.700391739606857300e-02 -1.042689681053161621e-01
1.958000000000000000e+03 7.478684997558593750e+01 -3.514123201370239258e+00 -7.996030896902084351e-02 -4.222209379076957703e-02 -3.665472194552421570e-02 -6.719554960727691650e-02
1.959000000000000000e+03 7.406779479980468750e+01 -2.687957382202148438e+01 -4.460262134671211243e-03 -2.402512764092534781e-04 -1.410154043696820736e-03 7.034429581835865974e-04
1.960000000000000000e+03 7.532199096679687500e+01 -3.308561706542968750e+01 -2.045066561549901962e-03 -5.089383106678724289e-03 -2.140334807336330414e-03 1.002353616058826447e-02
1.961000000000000000e+03 7.472247314453125000e+01 2.602788925170898438e+01 7.024476677179336548e-02 -1.437928557395935059e+00 -4.103051424026489258e-01 -1.654354631900787354e-01
1.962000000000000000e+03 7.462715148925781250e+01 2.270213508605957031e+01 8.556818962097167969e-02 -1.344018816947937012e+00 -3.775351941585540771e-01 -2.562331855297088623e-01
1.963000000000000000e+03 7.407001495361328125e+01 1.554833507537841797e+01 7.292935252189636230e-02 -9.343105554580688477e-01 -2.584143579006195068e-01 -4.813235700130462646e-01
1.964000000000000000e+03 7.526507568359375000e+01 1.980250740051269531e+01 6.440169364213943481e-02 -1.320542573928833008e+00 -3.768422603607177734e-01 -3.093733191490173340e-01
1.965000000000000000e+03 7.380651092529296875e+01 1.844330215454101562e+01 1.094157397747039795e-01 -1.050864458084106445e+00 -2.824346125125885010e-01 -4.220162034034729004e-01
1.966000000000000000e+03 7.426816558837890625e+01 4.519684791564941406e+00 -1.185891628265380859e-01 -2.871888577938079834e-01 -1.217334046959877014e-01 -3.984388709068298340e-01
1.967000000000000000e+03 7.439710998535156250e+01 3.132840871810913086e+00 -1.297656297683715820e-01 -2.203799337148666382e-01 -1.050436720252037048e-01 -3.368454575538635254e-01
1.968000000000000000e+03 7.457075500488281250e+01 1.784092664718627930e+00 -1.300096958875656128e-01 -1.672327518463134766e-01 -8.917273581027984619e-02 -2.759798169136047363e-01
1.969000000000000000e+03 7.422975921630859375e+01 8.710972785949707031e+00 -4.688555002212524414e-02 -5.300385355949401855e-01 -1.730772256851196289e-01 -5.080635547637939453e-01
1.970000000000000000e+03 7.543985748291015625e+01 1.274646568298339844e+01 1.998812519013881683e-02 -8.912093043327331543e-01 -2.613663673400878906e-01 -4.321786463260650635e-01
1.971000000000000000e+03 7.416516876220703125e+01 1.147159671783447266e+01 9.873162023723125458e-03 -7.036074399948120117e-01 -2.081202864646911621e-01 -5.278614759445190430e-01
1.972000000000000000e+03 7.291635894775390625e+01 2.627457427978515625e+01 1.152063161134719849e-01 -1.146640181541442871e+00 -3.094301521778106689e-01 -1.937232911586761475e-01
1.973000000000000000e+03 7.233903503417968750e+01 2.462867355346679688e+01 1.527710258960723877e-01 -1.021135449409484863e+00 -2.605093121528625488e-01 -2.507315576076507568e-01
1.974000000000000000e+03 7.369152069091796875e+01 2.369380569458007812e+01 1.074146553874015808e-01 -1.225063204765319824e+00 -3.352945446968078613e-01 -2.567272782325744629e-01
1.975000000000000000e+03 7.382302093505859375e+01 -2.842689704895019531e+01 -3.756543854251503944e-03 3.654409738373942673e-05 -1.115999999456107616e-03 2.144316677004098892e-03
1.976000000000000000e+03 7.481515502929687500e+01 -9.003754854202270508e-01 -1.091798469424247742e-01 -8.622730523347854614e-02 -5.862214416265487671e-02 -1.518258452415466309e-01
1.977000000000000000e+03 6.991894531250000000e+01 3.464728546142578125e+01 7.919163256883621216e-02 -5.969190597534179688e-01 -1.553182303905487061e-01 4.971728660166263580e-03
1.978000000000000000e+03 7.211582946777343750e+01 3.145415306091308594e+01 8.996964991092681885e-02 -1.027725219726562500e+00 -2.813266813755035400e-01 -6.008943915367126465e-02
1.979000000000000000e+03 7.405931091308593750e+01 1.420027923583984375e+01 5.468232929706573486e-02 -8.660026788711547852e-01 -2.433961033821105957e-01 -5.026433467864990234e-01
1.980000000000000000e+03 7.421640777587890625e+01 7.318944931030273438e+00 -7.636077702045440674e-02 -4.429815113544464111e-01 -1.558026820421218872e-01 -4.856569170951843262e-01
1.981000000000000000e+03 7.399462127685546875e+01 2.911918640136718750e+01 6.756890565156936646e-02 -1.340003609657287598e+00 -3.817304372787475586e-01 -1.044487282633781433e-01
1.982000000000000000e+03 7.473310852050781250e+01 4.445925354957580566e-01 -1.260031163692474365e-01 -1.198771670460700989e-01 -7.376408576965332031e-02 -2.088857442140579224e-01
1.983000000000000000e+03 7.530844116210937500e+01 -2.064495277404785156e+01 -3.704471164382994175e-04 -1.006944687105715275e-03 -4.132175236009061337e-04 2.627375943120568991e-04
1.984000000000000000e+03 7.658802795410156250e+01 -1.962963485717773438e+01 1.029984792694449425e-03 -8.779756608419120312e-04 4.560274101095274091e-05 -7.698251283727586269e-05
1.985000000000000000e+03 4.747975540161132812e+01 2.427822303771972656e+01 7.221332788467407227e-01 4.512459754943847656e+00 1.570377945899963379e+00 3.200387656688690186e-01
1.986000000000000000e+03 1.129254531860351562e+01 2.887860298156738281e+01 1.079947542166337371e-04 -2.560243410698603839e-05 2.471769585099536926e-05 3.581258351914584637e-05
1.987000000000000000e+03 4.095515251159667969e+00 2.824394798278808594e+01 2.711841625568922609e-05 9.114434942603111267e-05 3.547883170540444553e-05 -9.429726924281567335e-05
1.988000000000000000e+03 5.052286148071289062e+00 2.913510513305664062e+01 5.777737533207982779e-05 -7.981662929523736238e-05 -6.611777280340902507e-06 -9.645141835790127516e-05
1.989000000000000000e+03 1.908499908447265625e+01 -1.218663883209228516e+01 5.416381359100341797e-01 -2.131087332963943481e-01 9.855881333351135254e-02 2.587683498859405518e-02
1.990000000000000000e+03 4.818794631958007812e+01 1.819809341430664062e+01 1.122295498847961426e+00 4.216032981872558594e+00 1.601498484611511230e+00 9.001254439353942871e-01
1.991000000000000000e+03 1.015475463867187500e+01 -1.300691795349121094e+01 4.647734761238098145e-01 3.730601072311401367e-01 2.513500750064849854e-01 -4.930819943547248840e-02
1.992000000000000000e+03 4.831774234771728516e+00 -8.891983985900878906e+00 -5.144862830638885498e-02 -1.100324541330337524e-01 -4.844432324171066284e-02 -3.315168917179107666e-01
1.993000000000000000e+03 7.467415618896484375e+01 -4.794397354125976562e+00 -6.537536531686782837e-02 -2.968567423522472382e-02 -2.851831167936325073e-02 -3.441606834530830383e-02
1.994000000000000000e+03 7.553446197509765625e+01 -8.537512779235839844e+00 -6.661073304712772369e-03 -8.709837682545185089e-03 -4.611273296177387238e-03 1.067701634019613266e-02
1.995000000000000000e+03 4.309679412841796875e+01 -2.366765594482421875e+01 3.431825637817382812e-01 3.464248895645141602e+00 1.142229437828063965e+00 -8.382394909858703613e-01
1.996000000000000000e+03 4.357985687255859375e+01 -2.554142189025878906e+01 3.551464080810546875e-01 2.924660682678222656e+00 9.839421510696411133e-01 -8.442595005035400391e-01
1.997000000000000000e+03 9.289600372314453125e+00 2.452970314025878906e+01 2.686827974685002118e-05 1.596278161741793156e-04 5.594882895820774138e-05 3.182139698765240610e-05
1.998000000000000000e+03 1.206484127044677734e+01 2.572301292419433594e+01 8.067662565736100078e-05 -1.227484463015571237e-04 -1.262154637515777722e-05 -6.531758845085278153e-05
1.999000000000000000e+03 7.539070129394531250e+01 -7.620868682861328125e+00 -1.963980123400688171e-02 -1.371271908283233643e-02 -1.000575628131628036e-02 5.540912505239248276e-03
2.000000000000000000e+03 7.610073852539062500e+01 -6.403365612030029297e+00 -2.468088828027248383e-02 -1.324929576367139816e-02 -1.137905567884445190e-02 -2.767934463918209076e-03
2.001000000000000000e+03 4.765389633178710938e+01 2.035247802734375000e+01 8.523486852645874023e-01 4.518198490142822266e+00 1.611164093017578125e+00 6.918926835060119629e-01
2.002000000000000000e+03 7.426567840576171875e+01 -1.875202941894531250e+01 -1.381002948619425297e-03 7.043710211291909218e-04 -2.029895840678364038e-04 -4.430272383615374565e-04
2.003000000000000000e+03 7.428272247314453125e+01 -1.946844673156738281e+01 2.473452128469944000e-03 1.410031109116971493e-04 7.843365892767906189e-04 3.511151880957186222e-04
2.004000000000000000e+03 4.236999511718750000e+00 -1.500230121612548828e+01 1.840704679489135742e-01 -2.286739200353622437e-01 -1.338103786110877991e-02 -1.731462180614471436e-01
2.005000000000000000e+03 7.076182365417480469e+00 1.633543968200683594e+01 -1.871611129899974912e-05 -1.757553945935796946e-05 -1.088749559130519629e-05 2.181401032430585474e-05
2.006000000000000000e+03 4.480390071868896484e+00 2.125061035156250000e+01 1.655511732678860426e-05 7.802051186445169151e-06 7.307150553970132023e-06 -3.184538945788517594e-05
2.007000000000000000e+03 4.318893432617187500e+00 1.547577095031738281e+01 -1.049513571160787251e-06 1.956495179911144078e-05 5.554631570703350008e-06 -1.054138738254550844e-05
2.008000000000000000e+03 5.249063491821289062e+00 2.711375617980957031e+01 9.254463657271116972e-05 1.584496931172907352e-04 7.529830327257514000e-05 -4.903622175334021449e-05
2.009000000000000000e+03 4.215919494628906250e+00 2.699357795715332031e+01 7.310110231628641486e-05 -5.906268052058294415e-05 4.211525265418458730e-06 -8.869500015862286091e-05
2.010000000000000000e+03 4.165638446807861328e+00 -1.231139087677001953e+01 5.254308506846427917e-02 -2.393538951873779297e-01 -5.604324489831924438e-02 -3.113755285739898682e-01
2.011000000000000000e+03 6.781970024108886719e+00 -1.243168544769287109e+01 1.529308557510375977e-01 1.753993481397628784e-01 9.849905967712402344e-02 -2.509860098361968994e-01
2.012000000000000000e+03 5.529707431793212891e+00 3.010127639770507812e+01 1.101664092857390642e-04 1.753425603965297341e-04 8.565268944948911667e-05 -2.449936000630259514e-04
2.013000000000000000e+03 5.708566665649414062e+00 2.113433074951171875e+01 -1.338020501862047240e-05 2.686831612663809210e-05 4.046433332405285910e-06 2.525823765608947724e-05
2.014000000000000000e+03 5.736323356628417969e+00 1.814298057556152344e+01 -3.945131993532413617e-06 1.104868829315819312e-06 -8.520789265276107471e-07 3.520304017001762986e-05
2.015000000000000000e+03 5.696764469146728516e+00 1.664174079895019531e+01 3.229133199056377634e-06 2.668993693077936769e-05 8.975721357273869216e-06 -2.213056905020494014e-05
2.016000000000000000e+03 5.436588287353515625e+00 1.384664154052734375e+01 2.959778976219240576e-05 9.639762538427021354e-06 1.177126614493317902e-05 2.186397978221066296e-07
2.017000000000000000e+03 5.775284290313720703e+00 3.548320770263671875e+01 1.073369421646930277e-04 -3.748826566152274609e-04 -8.026371506275609136e-05 -7.130679296096786857e-05
2.018000000000000000e+03 4.376600646972656250e+01 -2.685054779052734375e+01 2.701514363288879395e-01 2.726647377014160156e+00 8.990396261215209961e-01 -8.115645647048950195e-01
2.019000000000000000e+03 4.518949890136718750e+01 -2.663895034790039062e+01 3.337042629718780518e-01 2.084463119506835938e+00 7.254502177238464355e-01 -8.744988441467285156e-01
2.020000000000000000e+03 3.896999359130859375e+00 1.003640651702880859e+01 5.362969204725231975e-06 -4.953054855150185176e-08 1.594031573404208757e-06 5.636264631903031841e-06
2.021000000000000000e+03 4.952270984649658203e+00 9.878116607666015625e+00 -1.984906339203007519e-05 -1.484927793171664234e-06 -6.400197435141308233e-06 2.064826048808754422e-06
2.022000000000000000e+03 5.446095466613769531e+00 -1.368195724487304688e+01 1.917244344949722290e-01 4.088244587182998657e-02 6.978206336498260498e-02 -2.431697845458984375e-01
2.023000000000000000e+03 4.846909999847412109e+00 8.622485160827636719e+00 1.251050252903951332e-05 -3.926087629224639386e-06 2.575324288045521826e-06 1.527828430880617816e-06
2.024000000000000000e+03 4.937082290649414062e+00 -7.009260654449462891e+00 -9.157387167215347290e-02 -8.339275419712066650e-02 -5.248998850584030151e-02 -2.997066974639892578e-01
2.025000000000000000e+03 4.154331207275390625e+01 -2.325527381896972656e+01 3.364680111408233643e-01 4.361287117004394531e+00 1.409326434135437012e+00 -4.290689826011657715e-01
2.026000000000000000e+03 4.062696838378906250e+01 -2.644586753845214844e+01 3.977932631969451904e-01 3.974315404891967773e+00 1.311632633209228516e+00 -4.424768090248107910e-01
2.027000000000000000e+03 4.923052787780761719e+00 -7.951805591583251953e+00 -7.744758576154708862e-02 -9.681148827075958252e-02 -5.227772146463394165e-02 -3.202900886535644531e-01
2.028000000000000000e+03 5.841645240783691406e+00 -7.169045925140380859e+00 -1.095510423183441162e-01 -2.260723151266574860e-02 -3.964748233556747437e-02 -3.153512179851531982e-01
2.029000000000000000e+03 5.577756500244140625e+01 2.675606250762939453e+00 -2.043612957000732422e+00 2.276940941810607910e-01 -5.447756648063659668e-01 -4.502410292625427246e-01
2.030000000000000000e+03 5.504088973999023438e+01 4.111331939697265625e+00 -1.634575009346008301e+00 2.810290753841400146e-01 -4.060637950897216797e-01 -7.127011418342590332e-01
2.031000000000000000e+03 1.384203052520751953e+01 7.685727119445800781e+00 -7.639301475137472153e-05 -5.235100979916751385e-05 -3.862320954794995487e-05 -1.783902735041920096e-05
2.032000000000000000e+03 4.924596023559570312e+01 -3.086883354187011719e+01 1.021750643849372864e-01 1.093640327453613281e+00 3.587446212768554688e-01 -5.638667941093444824e-01
2.033000000000000000e+03 3.959099578857421875e+01 -2.162259292602539062e+01 1.955343484878540039e-01 5.661543846130371094e+00 1.757123470306396484e+00 4.082489311695098877e-01
2.034000000000000000e+03 4.583222961425781250e+01 1.069366645812988281e+01 1.631676077842712402e+00 4.157419681549072266e+00 1.736728787422180176e+00 1.651728749275207520e+00
2.035000000000000000e+03 6.305743217468261719e+00 -1.042038059234619141e+01 1.127300504595041275e-02 6.289575248956680298e-02 2.225062623620033264e-02 -3.248606920242309570e-01
2.036000000000000000e+03 3.921987533569335938e+01 -1.750636863708496094e+01 -3.948159515857696533e-03 6.981012821197509766e+00 2.093119382858276367e+00 -7.934147864580154419e-02
2.037000000000000000e+03 3.828203964233398438e+01 -1.622869300842285156e+01 -1.309230178594589233e-01 6.746170043945312500e+00 1.984574079513549805e+00 -3.605067133903503418e-01
2.038000000000000000e+03 1.379043579101562500e+01 8.654794692993164062e+00 3.744177229236811399e-05 3.379257032065652311e-05 2.137030242010951042e-05 1.263548438146244735e-05
2.039000000000000000e+03 1.390073776245117188e+01 1.117997741699218750e+01 -5.090307604405097663e-05 -1.027290181809803471e-05 -1.835279363149311393e-05 -3.562809433788061142e-05
2.040000000000000000e+03 4.640536880493164062e+01 1.538807296752929688e+01 1.323142766952514648e+00 4.899061203002929688e+00 1.866661190986633301e+00 1.338648915290832520e+00
2.041000000000000000e+03 6.265451812744140625e+01 2.317751169204711914e+00 -1.081471085548400879e+00 1.794715523719787598e-01 -2.705998420715332031e-01 -6.183494925498962402e-01
2.042000000000000000e+03 6.255740356445312500e+01 9.762430191040039062e-01 -1.198476195335388184e+00 1.470346748828887939e-01 -3.154324591159820557e-01 -4.541424214839935303e-01
2.043000000000000000e+03 1.227200698852539062e+01 -3.650775909423828125e+01 -1.199543327093124390e-01 -1.793311536312103271e-01 -8.978564292192459106e-02 5.670172348618507385e-02
2.044000000000000000e+03 4.790136718750000000e+01 2.700337219238281250e+01 7.286664247512817383e-01 4.151113986968994141e+00 1.463934063911437988e+00 2.576600313186645508e-01
2.045000000000000000e+03 4.550662612915039062e+01 2.656847572326660156e+01 6.764205098152160645e-01 5.126323699951171875e+00 1.740823149681091309e+00 -4.377010092139244080e-02
2.046000000000000000e+03 2.486297988891601562e+01 -4.935067176818847656e+00 -6.723067164421081543e-01 -3.255333602428436279e-01 -2.993520200252532959e-01 -6.747525334358215332e-01
2.047000000000000000e+03 2.566725730895996094e+01 -3.994133472442626953e+00 -1.182299971580505371e+00 -2.997198998928070068e-01 -4.446059763431549072e-01 -7.550075650215148926e-01
2.048000000000000000e+03 6.652534484863281250e+01 -1.118095278739929199e+00 -6.654050946235656738e-01 1.360550522804260254e-01 -1.588049978017807007e-01 -2.029248476028442383e-01
2.049000000000000000e+03 1.556560516357421875e+01 3.884218215942382812e+00 3.356691740918904543e-05 1.470602092012995854e-05 1.448188140784623101e-05 1.481058461649809033e-05
2.050000000000000000e+03 4.546622467041015625e+01 1.287944984436035156e+01 1.539810657501220703e+00 5.345620632171630859e+00 2.065629482269287109e+00 1.777883291244506836e+00
2.051000000000000000e+03 3.960513687133789062e+01 -2.445646095275878906e+01 5.912747383117675781e-01 4.777976989746093750e+00 1.610775470733642578e+00 3.393371030688285828e-02
2.052000000000000000e+03 4.518500137329101562e+01 1.582446479797363281e+01 1.084271669387817383e+00 5.918974399566650391e+00 2.100973844528198242e+00 1.391736507415771484e+00
2.053000000000000000e+03 7.899594783782958984e+00 2.513502311706542969e+01 8.483816054649651051e-05 -2.526773314457386732e-04 -5.035175126977264881e-05 -4.139368320466019213e-05
2.054000000000000000e+03 5.833430862426757812e+01 3.422666072845458984e+00 -1.427052974700927734e+00 1.417979151010513306e-01 -3.855765163898468018e-01 -7.254559397697448730e-01
2.055000000000000000e+03 9.578340530395507812e+00 -5.777832031250000000e+00 -2.402414530515670776e-01 1.067146733403205872e-01 -4.005803167819976807e-02 -2.247700989246368408e-01
2.056000000000000000e+03 4.587636947631835938e+01 1.403370666503906250e+01 1.433762192726135254e+00 5.111454486846923828e+00 1.963565111160278320e+00 1.559060454368591309e+00
2.057000000000000000e+03 4.156555938720703125e+01 -3.199810981750488281e+01 -3.034887313842773438e-01 3.115088224411010742e+00 8.434798121452331543e-01 -5.928756594657897949e-01
2.058000000000000000e+03 5.289828109741210938e+01 4.724891185760498047e+00 -1.485436320304870605e+00 3.067207932472229004e-01 -3.536146581172943115e-01 -8.097779154777526855e-01
2.059000000000000000e+03 5.235099792480468750e+01 3.617023944854736328e+00 -2.474385023117065430e+00 3.701008558273315430e-01 -6.312852501869201660e-01 -7.299329042434692383e-01
2.060000000000000000e+03 1.322592449188232422e+01 3.532022476196289062e+01 -6.588440737687051296e-04 -8.995109819807112217e-04 -4.675064992625266314e-04 -7.972861640155315399e-04
2.061000000000000000e+03 9.566229820251464844e+00 3.200401687622070312e+01 4.269595083314925432e-04 1.462096115574240685e-04 1.719507272355258465e-04 1.582292679813690484e-05
2.062000000000000000e+03 4.817866897583007812e+01 7.674407482147216797e+00 7.974126935005187988e-01 1.426019191741943359e+00 6.670295596122741699e-01 3.914605379104614258e-01
2.063000000000000000e+03 5.024192810058593750e+01 4.521729469299316406e+00 -1.849145770072937012e+00 2.116564810276031494e-01 -4.912467896938323975e-01 -6.483968496322631836e-01
2.064000000000000000e+03 4.628499221801757812e+01 7.481581211090087891e+00 1.004293084144592285e+00 2.552773714065551758e+00 1.067119956016540527e+00 1.177268981933593750e+00
2.065000000000000000e+03 2.790818977355957031e+01 -1.396533012390136719e+01 9.543498158454895020e-01 -4.009320139884948730e-01 1.660253405570983887e-01 7.724999189376831055e-01
2.066000000000000000e+03 5.426716232299804688e+01 6.501019954681396484e+00 -6.185892820358276367e-01 3.208269774913787842e-01 -8.932869881391525269e-02 -8.936930894851684570e-01
2.067000000000000000e+03 4.469235229492187500e+01 5.113184928894042969e+00 -5.295940637588500977e-01 3.430874109268188477e+00 8.703839778900146484e-01 1.733240962028503418e+00
2.068000000000000000e+03 7.522290039062500000e+01 4.034364700317382812e+01 -2.226910367608070374e-02 -1.712554812431335449e+00 -5.204471349716186523e-01 -5.730570852756500244e-02
2.069000000000000000e+03 1.557265472412109375e+01 3.582656860351562500e+01 1.925173914059996605e-03 -7.583165424875915051e-04 3.500572056509554386e-04 -5.089376936666667461e-04
2.070000000000000000e+03 1.179637336730957031e+01 1.966443634033203125e+01 -5.782210428151302040e-05 -5.752615379606140777e-06 -1.907241676235571504e-05 -1.538561627967283130e-05
2.071000000000000000e+03 7.032820224761962891e+00 1.799843406677246094e+01 1.244030408997787163e-05 1.618767964828293771e-05 8.588394848629832268e-06 -2.630495873745530844e-05
2.072000000000000000e+03 1.178512287139892578e+01 1.362091541290283203e+01 2.454751847835723311e-05 -1.371209600620204583e-05 3.250626832596026361e-06 2.032401425822172314e-05
2.073000000000000000e+03 1.249484348297119141e+01 1.521390628814697266e+01 6.274293264141306281e-05 -6.347026101138908416e-06 1.691877332632429898e-05 1.672350481385365129e-05
2.074000000000000000e+03 3.749755859375000000e+01 -3.272730636596679688e+01 -5.192089080810546875e-01 3.558985710144042969e+00 9.119330644607543945e-01 2.864648960530757904e-02
2.075000000000000000e+03 3.847998046875000000e+01 -3.089287757873535156e+01 -2.260951995849609375e-01 3.848165512084960938e+00 1.086621046066284180e+00 -2.340680807828903198e-01
2.076000000000000000e+03 2.017756652832031250e+01 -1.505749511718750000e+01 6.747463345527648926e-01 -1.965501308441162109e-01 1.434588581323623657e-01 3.353384137153625488e-02
2.077000000000000000e+03 2.106733322143554688e+01 -1.519215774536132812e+01 6.560742259025573730e-01 -2.128459811210632324e-01 1.329684704542160034e-01 8.203330636024475098e-02
2.078000000000000000e+03 6.547870159149169922e+00 1.222634792327880859e+01 3.444682806730270386e-05 2.789797690638806671e-05 1.870344021881464869e-05 -2.125775608874391764e-05
2.079000000000000000e+03 7.248915863037109375e+01 -2.810783958435058594e+01 -8.088950999081134796e-03 8.752124849706888199e-04 -2.164121717214584351e-03 1.222519553266465664e-03
2.080000000000000000e+03 7.005016326904296875e+01 -3.066097068786621094e+01 -1.657529175281524658e-02 4.676791373640298843e-03 -3.569550113752484322e-03 2.923446707427501678e-03
2.081000000000000000e+03 2.632509422302246094e+01 -1.372310924530029297e+01 8.922002315521240234e-01 -4.507239460945129395e-01 1.324428915977478027e-01 5.780555009841918945e-01
2.082000000000000000e+03 2.165051460266113281e+01 -6.488614082336425781e+00 -2.082630246877670288e-01 -2.354003787040710449e-01 -1.330990195274353027e-01 -2.715453505516052246e-01
2.083000000000000000e+03 3.925111770629882812e+01 -2.925694084167480469e+01 7.190366834402084351e-02 3.929092407226562500e+00 1.200298786163330078e+00 -3.473844230175018311e-01
2.084000000000000000e+03 3.868058013916015625e+01 -2.697520828247070312e+01 5.635553598403930664e-01 4.531624317169189453e+00 1.528553843498229980e+00 -1.166426390409469604e-01
2.085000000000000000e+03 5.195389270782470703e+00 -3.493893814086914062e+01 -4.932048916816711426e-02 -5.545729771256446838e-02 -3.143333643674850464e-02 1.227624993771314621e-02
2.086000000000000000e+03 9.761305809020996094e+00 1.640147399902343750e+01 -1.012617900641998858e-08 1.023295590130146593e-05 3.066849103561253287e-06 9.611072528059594333e-06
2.087000000000000000e+03 1.172121715545654297e+01 2.117840003967285156e+01 8.026161958696320653e-05 2.879275598388630897e-05 3.271631430834531784e-05 2.689298707991838455e-05
2.088000000000000000e+03 7.190355682373046875e+01 -2.472605705261230469e+01 8.819351787678897381e-04 -8.348876726813614368e-04 1.411424727848498151e-05 -4.849610850214958191e-04
2.089000000000000000e+03 1.252909660339355469e+01 2.886782455444335938e+01 4.176269576419144869e-04 -3.274258342571556568e-04 2.706033956201281399e-05 -1.259664568351581693e-04
2.090000000000000000e+03 1.113432693481445312e+01 2.732290840148925781e+01 3.597673203330487013e-04 -2.731842978391796350e-04 2.597490311018191278e-05 -8.180810982594266534e-05
2.091000000000000000e+03 4.669494247436523438e+01 2.852621078491210938e+01 6.832300424575805664e-01 4.377264976501464844e+00 1.518148422241210938e+00 1.392558068037033081e-01
2.092000000000000000e+03 4.669123458862304688e+01 2.586748313903808594e+01 7.211791276931762695e-01 4.691902160644531250e+00 1.623924374580383301e+00 1.282822191715240479e-01
2.093000000000000000e+03 7.121962738037109375e+01 -2.769815254211425781e+01 -4.314292687922716141e-03 3.750319010578095913e-04 -1.181778265163302422e-03 -9.084749035537242889e-04
2.094000000000000000e+03 6.638596343994140625e+01 3.595553636550903320e-01 -7.063410282135009766e-01 1.363185197114944458e-01 -1.710067540407180786e-01 -3.548547625541687012e-01
2.095000000000000000e+03 7.072393035888671875e+01 -3.422640609741210938e+01 -1.241439953446388245e-02 3.336914349347352982e-03 -2.723245648667216301e-03 2.154790796339511871e-02
2.096000000000000000e+03 1.185597038269042969e+01 2.421014022827148438e+01 1.314340333919972181e-04 7.549620931968092918e-05 6.207907426869496703e-05 1.096319392672739923e-04
2.097000000000000000e+03 1.048226737976074219e+01 2.276807594299316406e+01 4.253564111422747374e-05 5.315809903549961746e-05 2.870812204491812736e-05 1.927814264490734786e-05
2.098000000000000000e+03 7.218061828613281250e+01 -3.227429199218750000e+01 -1.154862437397241592e-02 3.166459500789642334e-03 -2.514649415388703346e-03 1.185549423098564148e-02
2.099000000000000000e+03 4.611222457885742188e+01 3.685407257080078125e+01 -4.954355359077453613e-01 3.821226596832275391e+00 9.977373480796813965e-01 1.942629665136337280e-01
2.100000000000000000e+03 1.993223381042480469e+01 -3.984164047241210938e+01 -1.068628858774900436e-02 -9.052013047039508820e-03 -5.921490490436553955e-03 -2.873019839171320200e-04
2.101000000000000000e+03 4.598530960083007812e+01 3.393074035644531250e+01 -6.891551613807678223e-02 4.035453319549560547e+00 1.189961314201354980e+00 2.462346404790878296e-01
2.102000000000000000e+03 4.225471496582031250e+01 -2.538431549072265625e+01 3.483155667781829834e-01 3.545433759689331055e+00 1.168124794960021973e+00 -6.595211625099182129e-01
2.103000000000000000e+03 2.763986587524414062e+01 -4.145644378662109375e+01 -2.083642631769180298e-01 9.879286885261535645e-01 2.338693290948867798e-01 6.084711104631423950e-02
2.104000000000000000e+03 2.814211845397949219e+01 -3.722749328613281250e+01 -1.837376356124877930e-01 9.631788134574890137e-01 2.338323593139648438e-01 3.750090003013610840e-01
2.105000000000000000e+03 3.174912071228027344e+01 -3.922232437133789062e+01 -5.454623103141784668e-01 1.941597819328308105e+00 4.188406765460968018e-01 3.031035661697387695e-01
2.106000000000000000e+03 3.228591156005859375e+01 -4.140547943115234375e+01 -6.256215572357177734e-01 2.079993247985839844e+00 4.363114833831787109e-01 1.053703278303146362e-01
2.107000000000000000e+03 3.799795532226562500e+01 -5.966629505157470703e+00 3.158360242843627930e+00 1.057826137542724609e+01 4.120986461639404297e+00 -4.497791826725006104e-01
2.108000000000000000e+03 3.762927246093750000e+01 -7.340397834777832031e+00 5.950595378875732422e+00 8.612139701843261719e+00 4.368820190429687500e+00 1.237868785858154297e+00
2.109000000000000000e+03 3.885847854614257812e+01 -9.855472564697265625e+00 -3.339114785194396973e-01 1.198300075531005859e+01 3.494726657867431641e+00 1.652904227375984192e-02
2.110000000000000000e+03 3.768388366699218750e+01 -9.028717994689941406e+00 2.608200788497924805e+00 9.847341537475585938e+00 3.736662626266479492e+00 2.303713798522949219e+00
2.111000000000000000e+03 3.386136627197265625e+01 -3.756077766418457031e+00 -4.605380296707153320e-01 1.189651012420654297e+00 2.187339067459106445e-01 -4.389403462409973145e-01
2.112000000000000000e+03 3.692433547973632812e+01 -7.224815845489501953e+00 4.919220447540283203e+00 6.793325901031494141e+00 3.513763904571533203e+00 9.386069178581237793e-01
2.113000000000000000e+03 3.845212936401367188e+01 -5.446373939514160156e+00 1.234158158302307129e+00 1.178317165374755859e+01 3.905199050903320312e+00 2.529611587524414062e-01
2.114000000000000000e+03 3.997328186035156250e+01 -2.624715328216552734e+00 -1.424922227859497070e+00 8.780379295349121094e+00 2.206637382507324219e+00 2.230370759963989258e+00
2.115000000000000000e+03 3.352864456176757812e+01 -1.300187492370605469e+01 1.207891345024108887e+00 2.351969718933105469e+00 1.067958354949951172e+00 5.568850636482238770e-01
2.116000000000000000e+03 3.938125610351562500e+01 -1.022540378570556641e+01 -7.378125786781311035e-01 1.107814693450927734e+01 3.102100372314453125e+00 -1.410493850708007812e+00
2.117000000000000000e+03 4.100770950317382812e+01 -9.745846748352050781e+00 -9.022398293018341064e-02 6.441871643066406250e+00 1.905494213104248047e+00 -2.549004793167114258e+00
2.118000000000000000e+03 3.849014663696289062e+01 -9.786035537719726562e+00 1.777263432741165161e-01 1.135557842254638672e+01 3.459991216659545898e+00 6.888668537139892578e-01
2.119000000000000000e+03 3.557524108886718750e+01 -1.456859302520751953e+01 5.966832861304283142e-02 4.647730350494384766e+00 1.412219643592834473e+00 -6.511376053094863892e-02
2.120000000000000000e+03 4.074541854858398438e+01 -5.560961723327636719e+00 1.337597012519836426e+00 7.983943462371826172e+00 2.796462059020996094e+00 5.351207733154296875e+00
2.121000000000000000e+03 3.951801300048828125e+01 -3.610020399093627930e+00 -1.068586349487304688e+00 9.649445533752441406e+00 2.574257850646972656e+00 2.698680162429809570e+00
2.122000000000000000e+03 4.017083358764648438e+01 -1.088907337188720703e+01 -5.343812704086303711e-01 9.188664436340332031e+00 2.596285104751586914e+00 -2.140991449356079102e+00
2.123000000000000000e+03 4.022130584716796875e+01 -1.025123596191406250e+01 -5.910812020301818848e-01 9.492175102233886719e+00 2.670328140258789062e+00 -2.503592967987060547e+00
2.124000000000000000e+03 4.114647293090820312e+01 -5.173504352569580078e+00 1.017306923866271973e+00 7.162782669067382812e+00 2.454026937484741211e+00 4.627882957458496094e+00
2.125000000000000000e+03 4.081335067749023438e+01 -5.137689113616943359e+00 7.611636519432067871e-01 8.310969352722167969e+00 2.721639871597290039e+00 5.017601013183593750e+00
2.126000000000000000e+03 4.100037765502929688e+01 -4.491489410400390625e+00 5.156211853027343750e-01 7.931549072265625000e+00 2.534151077270507812e+00 4.367208480834960938e+00
2.127000000000000000e+03 4.006552886962890625e+01 -1.161634063720703125e+01 -2.762040793895721436e-01 9.082793235778808594e+00 2.641976594924926758e+00 -1.944869875907897949e+00
2.128000000000000000e+03 1.030071163177490234e+01 -5.813064575195312500e+00 -2.499464899301528931e-01 1.148466169834136963e-01 -4.052996262907981873e-02 -2.076775580644607544e-01
2.129000000000000000e+03 3.916883087158203125e+01 -1.316255283355712891e+01 -1.520380610600113869e-03 8.314739227294921875e+00 2.493965625762939453e+00 -1.349939346313476562e+00
2.130000000000000000e+03 3.487255096435546875e+01 -4.023779869079589844e+00 -3.894435614347457886e-02 2.843440294265747070e+00 8.413487672805786133e-01 -2.519254982471466064e-01
2.131000000000000000e+03 3.429529571533203125e+01 -3.432739257812500000e+00 -9.427965879440307617e-01 1.854860186576843262e+00 2.736190855503082275e-01 -4.018527567386627197e-01
2.132000000000000000e+03 1.102766704559326172e+01 -5.861386299133300781e+00 -2.578044235706329346e-01 1.124802008271217346e-01 -4.359726607799530029e-02 -1.922287791967391968e-01
2.133000000000000000e+03 5.828966617584228516e+00 6.418523788452148438e+00 -2.022911576204933226e-05 2.189452789025381207e-05 4.996240932086948305e-07 -2.693620672289398499e-06
2.134000000000000000e+03 1.428630256652832031e+01 4.138903141021728516e+00 3.296801878605037928e-05 2.498805406503379345e-05 1.738682112772949040e-05 3.100281219303724356e-06
2.135000000000000000e+03 3.059541893005371094e+01 -4.521864891052246094e+00 -3.743301033973693848e-01 -1.134690761566162109e+00 -4.527062773704528809e-01 -1.209534287452697754e+00
2.136000000000000000e+03 3.217808151245117188e+01 -5.336574077606201172e+00 9.741532206535339355e-01 -2.453744858503341675e-01 2.186336219310760498e-01 -5.670697689056396484e-01
2.137000000000000000e+03 7.467894554138183594e+00 6.388891220092773438e+00 -2.403250437055248767e-05 4.980995981895830482e-06 -5.715452971344348043e-06 1.585971949680242687e-05
2.138000000000000000e+03 6.775044918060302734e+00 4.750553131103515625e+00 1.014384361042175442e-05 -5.437165327748516575e-06 1.412003371115133632e-06 5.741915629187133163e-06
2.139000000000000000e+03 6.727047920227050781e+00 5.561931610107421875e+00 -1.823058482841588557e-05 1.357578730676323175e-05 -1.396439188283693511e-06 -1.015587599795253482e-06
2.140000000000000000e+03 7.503481388092041016e+00 4.737010955810546875e+00 -1.413099107594462112e-05 1.888672386485268362e-06 -3.672695584100438282e-06 -3.389255311958550010e-07
2.141000000000000000e+03 8.243185043334960938e+00 5.504656791687011719e+00 -1.445136422262294218e-05 -3.818904588115401566e-06 -5.481080734170973301e-06 8.297633030451834202e-06
2.142000000000000000e+03 1.177504444122314453e+01 -5.928344249725341797e+00 -2.617386281490325928e-01 1.122190281748771667e-01 -4.485588148236274719e-02 -1.732399314641952515e-01
2.143000000000000000e+03 1.334533214569091797e+01 6.009535312652587891e+00 1.795636671886313707e-05 -2.077142198686487973e-05 -8.445165349257877097e-07 -2.619866609165910631e-05
2.144000000000000000e+03 1.054335594177246094e+01 4.589742660522460938e+00 -1.689273631200194359e-05 -1.303200679103611037e-05 -8.977423021860886365e-06 3.660011998363188468e-06
2.145000000000000000e+03 1.279697799682617188e+01 5.103237628936767578e+00 3.702748472278472036e-06 -3.831486901617608964e-05 -1.038363643601769581e-05 -1.365776483908121008e-06
2.146000000000000000e+03 1.254462909698486328e+01 -6.013379096984863281e+00 -2.623305320739746094e-01 9.668926149606704712e-02 -4.969238117337226868e-02 -1.564971208572387695e-01
2.147000000000000000e+03 1.333007144927978516e+01 -6.114234924316406250e+00 -2.559162378311157227e-01 8.545307815074920654e-02 -5.113894492387771606e-02 -1.373295038938522339e-01
2.148000000000000000e+03 7.476211547851562500e+01 -8.615156173706054688e+00 -1.344168279320001602e-02 -1.327796839177608490e-02 -8.015895262360572815e-03 9.001097641885280609e-03
2.149000000000000000e+03 7.217906188964843750e+01 -8.302028656005859375e+00 -2.883768826723098755e-02 -2.094258926808834076e-02 -1.493408344686031342e-02 -1.237838994711637497e-03
2.150000000000000000e+03 5.019697189331054688e+00 -6.203557014465332031e+00 -1.095198020339012146e-01 -6.833238899707794189e-02 -5.335565656423568726e-02 -2.816177010536193848e-01
2.151000000000000000e+03 5.118823051452636719e+00 -5.481195926666259766e+00 -1.217722594738006592e-01 -5.163806676864624023e-02 -5.202309787273406982e-02 -2.571339309215545654e-01
2.152000000000000000e+03 7.423178100585937500e+01 -6.809116840362548828e+00 -4.223561659455299377e-02 -2.172311767935752869e-02 -1.918761990964412689e-02 -5.511238705366849899e-03
2.153000000000000000e+03 8.823104858398437500e+00 -4.969899177551269531e+00 -2.582147717475891113e-01 7.895478606224060059e-02 -5.377799645066261292e-02 -2.203669995069503784e-01
2.154000000000000000e+03 8.875453948974609375e+00 -7.279765129089355469e+00 -1.496426761150360107e-01 1.395442485809326172e-01 -3.029526211321353912e-03 -2.630975246429443359e-01
2.155000000000000000e+03 5.882984638214111328e+00 -4.850304603576660156e+00 -1.594886630773544312e-01 -1.322779990732669830e-02 -5.181493982672691345e-02 -2.410342544317245483e-01
2.156000000000000000e+03 1.761626815795898438e+01 -8.870941162109375000e+00 1.143258139491081238e-01 -9.692917764186859131e-02 5.218989681452512741e-03 -6.468312442302703857e-02
2.157000000000000000e+03 1.495386123657226562e+01 -7.142501831054687500e+00 -1.437797099351882935e-01 4.208164662122726440e-02 -3.050941973924636841e-02 -1.050140038132667542e-01
2.158000000000000000e+03 1.751062583923339844e+01 -6.470571994781494141e+00 -2.110004872083663940e-01 -7.544927299022674561e-02 -8.593492954969406128e-02 -1.017040237784385681e-01
2.159000000000000000e+03 1.742450332641601562e+01 -5.702223777770996094e+00 -3.166149258613586426e-01 -5.647938326001167297e-02 -1.119282990694046021e-01 -9.664057195186614990e-02
2.160000000000000000e+03 7.373192596435546875e+01 -7.943180084228515625e+00 -2.860324271023273468e-02 -1.960256882011890411e-02 -1.446174364537000656e-02 2.155140507966279984e-03
2.161000000000000000e+03 7.181867980957031250e+01 -7.660165786743164062e+00 -3.514707460999488831e-02 -2.171372994780540466e-02 -1.705824211239814758e-02 -1.248720218427479267e-03
2.162000000000000000e+03 7.381617069244384766e+00 -5.701372146606445312e+00 -1.888382583856582642e-01 5.060848593711853027e-02 -4.146893322467803955e-02 -2.658970057964324951e-01
2.163000000000000000e+03 1.993889236450195312e+01 -5.724312305450439453e+00 -3.371368348598480225e-01 -1.364418566226959229e-01 -1.420736163854598999e-01 -1.584507673978805542e-01
2.164000000000000000e+03 2.428472900390625000e+01 -1.295211124420166016e+01 7.747260928153991699e-01 -4.623865485191345215e-01 9.370186924934387207e-02 2.829744517803192139e-01
2.165000000000000000e+03 1.413742446899414062e+01 -6.227704048156738281e+00 -2.473824322223663330e-01 5.953010916709899902e-02 -5.635569989681243896e-02 -1.248304918408393860e-01
2.166000000000000000e+03 1.496878910064697266e+01 -6.345257759094238281e+00 -2.360203862190246582e-01 3.700612112879753113e-02 -5.970427766442298889e-02 -1.073731854557991028e-01
2.167000000000000000e+03 9.006111145019531250e+00 5.468378543853759766e+00 1.086943302652798593e-05 1.238183995155850425e-05 6.975381893425947055e-06 -6.213294000190217048e-06
2.168000000000000000e+03 3.757469940185546875e+01 -3.844277143478393555e+00 -8.604125380516052246e-01 8.181808471679687500e+00 2.196418762207031250e+00 6.087793707847595215e-01
2.169000000000000000e+03 4.015059280395507812e+01 -4.767312526702880859e+00 -2.096576392650604248e-01 1.026687812805175781e+01 3.017166137695312500e+00 4.342175006866455078e+00
2.170000000000000000e+03 2.011170387268066406e+01 -1.239929103851318359e+01 5.901122689247131348e-01 -2.742299437522888184e-01 9.476469457149505615e-02 4.946876317262649536e-02
2.171000000000000000e+03 1.918080711364746094e+01 -6.512217044830322266e+00 -2.020123600959777832e-01 -1.419488191604614258e-01 -1.031883582472801208e-01 -1.360562443733215332e-01
2.172000000000000000e+03 1.205259609222412109e+01 5.150228977203369141e+00 7.725691830273717642e-06 2.696091178222559392e-05 1.040598090185085312e-05 -1.281792992813279852e-05
2.173000000000000000e+03 1.223637580871582031e+01 6.428996562957763672e+00 4.928202542942017317e-05 3.258526703575626016e-05 2.456018773955293000e-05 9.271354429074563086e-06
2.174000000000000000e+03 7.986505031585693359e+00 -1.273529338836669922e+01 2.543800771236419678e-01 2.955383658409118652e-01 1.649755388498306274e-01 -1.857480555772781372e-01
2.175000000000000000e+03 2.001787376403808594e+01 -6.524044513702392578e+00 -2.051076292991638184e-01 -1.655817478895187378e-01 -1.112068146467208862e-01 -1.656904667615890503e-01
2.176000000000000000e+03 3.613067626953125000e+01 -1.299046134948730469e+01 4.703722894191741943e-01 5.581527233123779297e+00 1.815569877624511719e+00 1.987936049699783325e-01
2.177000000000000000e+03 3.475880813598632812e+01 -1.595616531372070312e+01 -4.670015573501586914e-01 3.502634763717651367e+00 9.106899499893188477e-01 -2.039105892181396484e-01
2.178000000000000000e+03 3.843929290771484375e+01 -1.522297477722167969e+01 1.979596354067325592e-02 7.080559730529785156e+00 2.130106687545776367e+00 -6.746509075164794922e-01
2.179000000000000000e+03 4.003719329833984375e+01 -1.811609387397766113e+00 -1.875383615493774414e+00 8.438324928283691406e+00 1.968882441520690918e+00 1.645924687385559082e+00
2.180000000000000000e+03 3.720369338989257812e+01 -2.039978027343750000e+00 -2.562242031097412109e+00 6.557124614715576172e+00 1.198464751243591309e+00 6.083730459213256836e-01
2.181000000000000000e+03 3.751303100585937500e+01 -1.355725002288818359e+01 2.392296306788921356e-02 6.920659542083740234e+00 2.083374738693237305e+00 -4.616279900074005127e-01
2.182000000000000000e+03 1.230498790740966797e+01 -1.209735870361328125e+01 3.995310664176940918e-01 2.899163067340850830e-01 2.068342119455337524e-01 -4.287432879209518433e-02
2.183000000000000000e+03 1.026460170745849609e+01 -1.197209072113037109e+01 2.629371285438537598e-01 3.456384837627410889e-01 1.825726926326751709e-01 -1.153916642069816589e-01
2.184000000000000000e+03 1.286726093292236328e+01 1.102751636505126953e+01 1.816012263589072973e-05 5.957005214440869167e-06 7.235138127725804225e-06 2.937124190793838352e-05
2.185000000000000000e+03 3.641114807128906250e+01 -1.795531463623046875e+01 -1.011608362197875977e+00 5.542303562164306641e+00 1.359208583831787109e+00 1.984320133924484253e-01
2.186000000000000000e+03 2.089908599853515625e+01 -7.394640445709228516e+00 -3.475805744528770447e-02 -2.560093402862548828e-01 -8.723022043704986572e-02 -2.033512592315673828e-01
2.187000000000000000e+03 1.036011791229248047e+01 -1.096507740020751953e+01 1.603859364986419678e-01 2.908280193805694580e-01 1.353641897439956665e-01 -1.561881750822067261e-01
2.188000000000000000e+03 7.246803283691406250e+01 -4.121772766113281250e+00 -1.331053078174591064e-01 -2.325126528739929199e-02 -4.690697416663169861e-02 -5.892687290906906128e-02
2.189000000000000000e+03 1.980300903320312500e+01 -1.356876087188720703e+01 6.399376392364501953e-01 -2.388746887445449829e-01 1.203188747167587280e-01 5.258842557668685913e-02
2.190000000000000000e+03 1.675015449523925781e+01 -7.226640224456787109e+00 -1.157277747988700867e-01 -4.530357941985130310e-02 -4.830940812826156616e-02 -9.076070040464401245e-02
2.191000000000000000e+03 2.479011154174804688e+01 -5.850346565246582031e+00 -2.941317260265350342e-01 -4.643960297107696533e-01 -2.275583297014236450e-01 -6.442197561264038086e-01
2.192000000000000000e+03 2.318469810485839844e+01 -5.633810043334960938e+00 -4.252368509769439697e-01 -2.492607980966567993e-01 -2.023492902517318726e-01 -4.269388914108276367e-01
2.193000000000000000e+03 5.969782257080078125e+01 4.308991909027099609e+00 -1.080520629882812500e+00 1.678960919380187988e-01 -2.737873494625091553e-01 -8.476917147636413574e-01
2.194000000000000000e+03 6.360295486450195312e+01 1.016350507736206055e+00 -1.071757316589355469e+00 1.941120177507400513e-01 -2.632935941219329834e-01 -4.483503401279449463e-01
2.195000000000000000e+03 3.759119033813476562e+01 -1.090035200119018555e+00 -3.235512495040893555e+00 6.537514686584472656e+00 9.906006455421447754e-01 7.896724939346313477e-01
2.196000000000000000e+03 3.633531188964843750e+01 -2.714277982711791992e+00 -1.997774839401245117e+00 5.132234096527099609e+00 9.403377771377563477e-01 3.572893440723419189e-01
2.197000000000000000e+03 2.931761741638183594e+01 -6.125693798065185547e+00 7.122004032135009766e-01 -1.042123079299926758e+00 -9.897682070732116699e-02 -8.549023270606994629e-01
2.198000000000000000e+03 3.318041992187500000e+01 -4.897044658660888672e+00 8.100078701972961426e-01 4.212553501129150391e-01 3.693789541721343994e-01 -4.693469107151031494e-01
2.199000000000000000e+03 3.783166170120239258e+00 7.416450023651123047e+00 4.733676917112461524e-07 -1.034386514220386744e-05 -2.961149220936931670e-06 8.491012522426899523e-06
2.200000000000000000e+03 7.103705596923828125e+01 -8.254349708557128906e+00 -2.984668314456939697e-02 -2.231345698237419128e-02 -1.564804278314113617e-02 -2.871826058253645897e-03
2.201000000000000000e+03 2.758107376098632812e+01 -5.080454349517822266e+00 -4.500140249729156494e-01 -9.016341567039489746e-01 -4.054944515228271484e-01 -1.103674530982971191e+00
2.202000000000000000e+03 3.217676925659179688e+01 -1.256268310546875000e+01 1.559113621711730957e+00 1.024157881736755371e+00 7.749814391136169434e-01 7.427873611450195312e-01
2.203000000000000000e+03 1.664810752868652344e+01 4.111778259277343750e+00 -2.195895103795919567e-05 -9.760265129443723708e-06 -9.515764759271405637e-06 1.751544550643302500e-05
2.204000000000000000e+03 3.896521759033203125e+01 -1.283814013004302979e-01 -3.143324851989746094e+00 8.195087432861328125e+00 1.515528917312622070e+00 8.658255338668823242e-01
2.205000000000000000e+03 1.004900646209716797e+01 2.741072845458984375e+01 5.142621739651076496e-05 7.703791925450786948e-05 3.853924135910347104e-05 -1.501970132267160807e-06
2.206000000000000000e+03 1.440184211730957031e+01 9.930827140808105469e+00 4.657800309360027313e-05 1.744060136843472719e-05 1.920558133861050010e-05 3.178289989591576159e-05
2.207000000000000000e+03 8.915142059326171875e+00 1.453556632995605469e+01 2.864670022972859442e-05 4.760174124385230243e-05 2.287453207827638835e-05 6.537084686897287611e-07
2.208000000000000000e+03 5.442991638183593750e+01 5.541754722595214844e+00 -1.018865585327148438e+00 3.077543377876281738e-01 -2.133333832025527954e-01 -8.465564846992492676e-01
2.209000000000000000e+03 5.612008666992187500e+01 3.796731233596801758e+00 -1.633336067199707031e+00 2.459099143743515015e-01 -4.162278473377227783e-01 -7.206484079360961914e-01
2.210000000000000000e+03 1.606924629211425781e+01 -1.195023155212402344e+01 4.650717675685882568e-01 1.382014527916908264e-02 1.436675786972045898e-01 9.374446235597133636e-03
2.211000000000000000e+03 1.628274536132812500e+01 -1.329928874969482422e+01 6.493101716041564941e-01 -7.055954076349735260e-03 1.926762759685516357e-01 1.351840794086456299e-02
2.212000000000000000e+03 4.928318405151367188e+01 2.852114868164062500e+01 6.249327659606933594e-01 3.630997180938720703e+00 1.276779055595397949e+00 3.503440022468566895e-01
2.213000000000000000e+03 1.542350006103515625e+01 -1.269358348846435547e+01 5.743023157119750977e-01 7.043365389108657837e-02 1.934207975864410400e-01 2.426047623157501221e-02
2.214000000000000000e+03 1.127635955810546875e+01 -1.202940273284912109e+01 3.557958602905273438e-01 3.236181437969207764e-01 2.038242071866989136e-01 -6.192696839570999146e-02
2.215000000000000000e+03 7.361112213134765625e+01 -3.180427169799804688e+01 -6.997093092650175095e-03 -3.210209542885422707e-04 -2.195434179157018661e-03 1.040432322770357132e-02
2.216000000000000000e+03 7.137848663330078125e+01 -3.117590713500976562e+01 -1.850152201950550079e-02 5.105095449835062027e-03 -4.018927924335002899e-03 8.264189586043357849e-03
2.217000000000000000e+03 2.850040817260742188e+01 -6.090042114257812500e+00 4.317063093185424805e-01 -1.043107867240905762e+00 -1.834204494953155518e-01 -9.232389926910400391e-01
2.218000000000000000e+03 2.572474479675292969e+01 -5.029196262359619141e+00 -6.521544456481933594e-01 -4.958920180797576904e-01 -3.444139361381530762e-01 -8.313842415809631348e-01
2.219000000000000000e+03 1.287010574340820312e+01 3.236418533325195312e+01 4.751882224809378386e-04 -6.777592352591454983e-04 -6.077130819903686643e-05 -1.315094996243715286e-04
2.220000000000000000e+03 6.230413436889648438e+00 3.126726341247558594e+01 5.605949627351947129e-05 -1.456681056879460812e-04 -2.688258064154069871e-05 -8.742423233343288302e-05
2.221000000000000000e+03 9.167814254760742188e+00 2.864141273498535156e+01 1.341775350738316774e-04 -3.045370976906269789e-04 -5.110786514705978334e-05 -2.625021152198314667e-04
2.222000000000000000e+03 7.428376770019531250e+01 -2.537753486633300781e+01 1.567916624480858445e-04 -8.253542473539710045e-04 -2.005687856581062078e-04 4.625696419680025429e-06
2.223000000000000000e+03 7.445366668701171875e+01 -2.390563583374023438e+01 -1.684620976448059082e-03 -6.615528836846351624e-04 -7.038521580398082733e-04 -1.666116295382380486e-04
2.224000000000000000e+03 7.273728942871093750e+01 1.566643524169921875e+01 1.133395656943321228e-01 -8.096162676811218262e-01 -2.088830173015594482e-01 -5.453420281410217285e-01
2.225000000000000000e+03 7.358885192871093750e+01 -3.236157178878784180e+00 -1.215022653341293335e-01 -3.964578360319137573e-02 -4.834441468119621277e-02 -8.727931976318359375e-02
2.226000000000000000e+03 7.008734130859375000e+01 -5.256152629852294922e+00 -1.454948186874389648e-01 -2.022438711719587445e-04 -4.370911791920661926e-02 -2.446407265961170197e-02
2.227000000000000000e+03 7.369377136230468750e+01 2.003596305847167969e+01 1.166680827736854553e-01 -1.101948499679565430e+00 -2.955841124057769775e-01 -3.761669695377349854e-01
2.228000000000000000e+03 7.336054992675781250e+01 -2.227906417846679688e+01 -9.384356089867651463e-04 -6.478997529484331608e-04 -4.759006260428577662e-04 2.934371877927333117e-04
2.229000000000000000e+03 7.326627349853515625e+01 -2.363531684875488281e+01 1.051224768161773682e-03 -7.605544524267315865e-04 8.720107143744826317e-05 -1.964200491784140468e-04
2.230000000000000000e+03 7.037478637695312500e+01 1.034486007690429688e+01 -2.519275248050689697e-02 -3.866778910160064697e-01 -1.235611960291862488e-01 -7.256546616554260254e-01
2.231000000000000000e+03 7.294586181640625000e+01 8.848227500915527344e+00 -6.401480734348297119e-02 -4.673369526863098145e-01 -1.594055294990539551e-01 -5.886784195899963379e-01
2.232000000000000000e+03 7.337170410156250000e+01 1.754707336425781250e+00 -1.896497756242752075e-01 -1.347295343875885010e-01 -9.731379151344299316e-02 -3.167522549629211426e-01
2.233000000000000000e+03 7.410011291503906250e+01 1.284304332733154297e+01 3.536649420857429504e-02 -7.872375249862670898e-01 -2.255613058805465698e-01 -5.239800810813903809e-01
2.234000000000000000e+03 7.421059417724609375e+01 5.919752120971679688e+00 -1.009903475642204285e-01 -3.584402799606323242e-01 -1.378291845321655273e-01 -4.451321661472320557e-01
2.235000000000000000e+03 7.283522796630859375e+01 6.049357414245605469e+00 -1.419082134962081909e-01 -3.091434240341186523e-01 -1.353154927492141724e-01 -5.286278724670410156e-01
2.236000000000000000e+03 7.365499114990234375e+01 4.772516191005706787e-01 -1.700123995542526245e-01 -1.011449471116065979e-01 -8.134720474481582642e-02 -2.417974621057510376e-01
2.237000000000000000e+03 7.346993255615234375e+01 -4.397105693817138672e+00 -1.033255830407142639e-01 -2.966260910034179688e-02 -3.989645838737487793e-02 -5.414281785488128662e-02
2.238000000000000000e+03 7.846579074859619141e+00 -1.031637954711914062e+01 2.971541881561279297e-02 1.823153793811798096e-01 6.360924243927001953e-02 -2.799633145332336426e-01
2.239000000000000000e+03 4.877965450286865234e+00 -9.813069343566894531e+00 -3.056277520954608917e-02 -1.142028048634529114e-01 -4.342967271804809570e-02 -3.440840840339660645e-01
2.240000000000000000e+03 7.944853782653808594e+00 2.264916038513183594e+01 -1.853036701504606754e-05 -1.042298463289625943e-04 -3.682806345750577748e-05 -1.230749621754512191e-04
2.241000000000000000e+03 7.133439636230468750e+01 3.291877365112304688e+01 5.539871752262115479e-02 -8.483822941780090332e-01 -2.378950715065002441e-01 -4.155219346284866333e-02
2.242000000000000000e+03 6.811862468719482422e+00 2.629435348510742188e+01 7.956747867865487933e-05 2.635823620948940516e-04 1.029449485940858722e-04 -3.037158649021876045e-06
2.243000000000000000e+03 5.673331260681152344e+00 2.572325325012207031e+01 3.621511859819293022e-05 -1.305449695792049170e-04 -2.829895674949511886e-05 -1.106079362216405571e-04
2.244000000000000000e+03 7.263038635253906250e+01 -6.321511268615722656e-01 -2.125296294689178467e-01 -5.540150403976440430e-02 -8.037933707237243652e-02 -2.132591456174850464e-01
2.245000000000000000e+03 7.456417083740234375e+01 -2.243567276000976562e+01 1.044219825416803360e-03 -5.042151897214353085e-04 1.620013790670782328e-04 -1.444186068511044141e-06
2.246000000000000000e+03 5.868375778198242188e+00 -8.035184860229492188e+00 -9.098245203495025635e-02 -2.213040553033351898e-02 -3.393385931849479675e-02 -3.329750001430511475e-01
2.247000000000000000e+03 7.680130481719970703e+00 2.727147293090820312e+01 2.504894218873232603e-04 -4.082494415342807770e-04 -4.732800516649149358e-05 -7.988278957782313228e-05
2.248000000000000000e+03 4.968668460845947266e+00 2.821522331237792969e+01 7.694477244513109326e-05 -1.007435057545080781e-04 -7.139620265661505982e-06 -1.419975451426580548e-04
2.249000000000000000e+03 5.567695617675781250e+00 1.521793746948242188e+01 -1.603544660611078143e-05 -2.933261202997528017e-05 -1.361041813652263954e-05 5.040766154706943780e-06
2.250000000000000000e+03 8.465445518493652344e+00 1.623973846435546875e+01 -2.019149178522638977e-05 1.227395296155009419e-05 -2.375261601628153585e-06 -1.762373176461551338e-05
2.251000000000000000e+03 6.671561717987060547e+00 1.360210800170898438e+01 -5.787772533949464560e-05 3.446558548603206873e-05 -7.023641501291422173e-06 1.293391687795519829e-05
2.252000000000000000e+03 5.305809020996093750e+00 1.249256610870361328e+01 -2.881667751353234053e-05 -8.837735549604985863e-06 -1.129632437368854880e-05 1.064475327439140528e-05
2.253000000000000000e+03 6.973926067352294922e+00 1.956663894653320312e+01 9.876075637293979526e-06 6.601476343348622322e-06 4.943265594192780554e-06 4.243958755978383124e-05
2.254000000000000000e+03 5.727635383605957031e+00 1.965214729309082031e+01 2.431153916404582560e-05 -1.290970203626784496e-06 6.906170710863079876e-06 -4.100913429283536971e-05
2.255000000000000000e+03 6.841633319854736328e+00 1.488537597656250000e+01 6.031673547113314271e-05 6.387016765074804425e-05 3.725607166416011751e-05 1.602445081516634673e-05
2.256000000000000000e+03 4.249886322021484375e+01 -2.843452072143554688e+01 1.562193632125854492e-01 3.147298336029052734e+00 9.910553097724914551e-01 -7.141007781028747559e-01
2.257000000000000000e+03 5.854154205322265625e+01 4.590216636657714844e+00 -1.083278059959411621e+00 1.745195388793945312e-01 -2.726275622844696045e-01 -8.195065259933471680e-01
2.258000000000000000e+03 5.938610839843750000e+01 3.296221971511840820e+00 -1.321176290512084961e+00 1.463844776153564453e-01 -3.524375557899475098e-01 -7.093304395675659180e-01
2.259000000000000000e+03 8.312520980834960938e+00 8.009630203247070312e+00 2.445237078063655645e-05 1.016139140119776130e-05 1.038412847265135497e-05 -3.515405478538013995e-05
2.260000000000000000e+03 5.820945739746093750e+00 8.517710685729980469e+00 -2.602042513899505138e-05 8.734389211895177141e-07 -7.544096206402173266e-06 7.648274731764104217e-06
2.261000000000000000e+03 1.231743526458740234e+01 1.227715587615966797e+01 -2.169735125789884478e-05 7.284516868821810931e-06 -4.323850589571520686e-06 -3.240981459384784102e-05
2.262000000000000000e+03 5.860772609710693359e+00 -6.367443084716796875e+00 -1.299878507852554321e-01 -1.802956126630306244e-02 -4.440522566437721252e-02 -2.912437617778778076e-01
2.263000000000000000e+03 9.904591560363769531e+00 8.974353790283203125e+00 -2.992843656102195382e-05 -4.900774365523830056e-05 -2.368085370108019561e-05 1.453663753636647016e-05
2.264000000000000000e+03 7.495670318603515625e+01 -1.960332489013671875e+01 -1.541405799798667431e-04 -4.989904700778424740e-04 -1.959393121069297194e-04 -7.658958202227950096e-04
2.265000000000000000e+03 7.486696624755859375e+01 -1.874211692810058594e+01 1.179783488623797894e-03 -2.558093983680009842e-04 2.771922154352068901e-04 8.462676196359097958e-04
2.266000000000000000e+03 7.510763549804687500e+01 -6.587733745574951172e+00 -3.048690594732761383e-02 -1.793001405894756317e-02 -1.452507544308900833e-02 -5.472875665873289108e-03
2.267000000000000000e+03 7.432068634033203125e+01 -5.879272460937500000e+00 -5.093064904212951660e-02 -2.513328753411769867e-02 -2.281918190419673920e-02 -1.873239316046237946e-02
2.268000000000000000e+03 6.154018402099609375e+01 2.287256717681884766e+00 -1.217424392700195312e+00 1.406271010637283325e-01 -3.230392038822174072e-01 -6.378856897354125977e-01
2.269000000000000000e+03 6.379280853271484375e+01 2.267071723937988281e+00 -9.364270567893981934e-01 1.539108157157897949e-01 -2.347548753023147583e-01 -6.128866672515869141e-01
2.270000000000000000e+03 5.261339569091796875e+01 6.224640369415283203e+00 -6.789375543594360352e-01 3.499318659305572510e-01 -9.870171546936035156e-02 -8.317643404006958008e-01
2.271000000000000000e+03 4.916872787475585938e+01 2.509331512451171875e+01 7.870753407478332520e-01 3.801024198532104492e+00 1.376429796218872070e+00 3.567847013473510742e-01
2.272000000000000000e+03 8.245209693908691406e+00 6.334177017211914062e+00 1.341173447144683450e-05 7.040428045002045110e-06 6.135648618510458618e-06 -1.670120218477677554e-05
2.273000000000000000e+03 2.245207214355468750e+01 -1.036538314819335938e+01 5.592618584632873535e-01 -4.752492308616638184e-01 2.520378679037094116e-02 -3.899973630905151367e-02
2.274000000000000000e+03 7.787504673004150391e+00 1.392033767700195312e+01 -2.871857941499911249e-05 -8.993728260975331068e-05 -3.559675678843632340e-05 -2.495953049219679087e-05
2.275000000000000000e+03 1.050383949279785156e+01 2.118853950500488281e+01 1.338257152383448556e-05 -2.082257742586079985e-05 -2.232001861557364464e-06 -2.187520749430404976e-06
2.276000000000000000e+03 4.756074523925781250e+01 1.059230041503906250e+01 1.513347506523132324e+00 2.820059776306152344e+00 1.300022244453430176e+00 1.036307096481323242e+00
2.277000000000000000e+03 4.620279312133789062e+01 1.239695358276367188e+01 1.649791121482849121e+00 4.344007015228271484e+00 1.798139452934265137e+00 1.560116887092590332e+00
2.278000000000000000e+03 2.092026138305664062e+01 -8.378419876098632812e+00 1.574248671531677246e-01 -3.141319155693054199e-01 -4.701210930943489075e-02 -1.629244089126586914e-01
2.279000000000000000e+03 1.466285419464111328e+01 7.005756378173828125e+00 4.118804645258933306e-05 3.070206730626523495e-05 2.156703340006060898e-05 4.491228992264950648e-06
2.280000000000000000e+03 4.647673416137695312e+01 9.565890312194824219e+00 1.514384150505065918e+00 3.305830717086791992e+00 1.446064472198486328e+00 1.346441984176635742e+00
2.281000000000000000e+03 5.065758514404296875e+01 1.364138698577880859e+01 1.424921989440917969e+00 2.130822420120239258e+00 1.066723346710205078e+00 4.506079256534576416e-01
2.282000000000000000e+03 5.532519149780273438e+01 7.412053585052490234e+00 -3.165512084960937500e-01 3.616319894790649414e-01 1.352423522621393204e-02 -8.712741732597351074e-01
2.283000000000000000e+03 6.806055450439453125e+01 -2.077327728271484375e+00 -4.701970815658569336e-01 8.701515942811965942e-02 -1.149545758962631226e-01 -1.373316794633865356e-01
2.284000000000000000e+03 6.792354583740234375e+01 -6.042099595069885254e-01 -5.468677878379821777e-01 9.660776704549789429e-02 -1.350780129432678223e-01 -2.619396448135375977e-01
2.285000000000000000e+03 4.983665847778320312e+01 1.820593261718750000e+01 1.231600403785705566e+00 3.206105232238769531e+00 1.331311702728271484e+00 6.873903274536132812e-01
2.286000000000000000e+03 1.133132743835449219e+01 1.505314636230468750e+01 -2.911612136813346297e-05 1.486241762904683128e-05 -4.276111212675459683e-06 -1.576596332597546279e-05
2.287000000000000000e+03 6.716015625000000000e+01 -1.022502258419990540e-01 -6.190255284309387207e-01 1.317378282546997070e-01 -1.461863219738006592e-01 -3.139999210834503174e-01
2.288000000000000000e+03 4.749790191650390625e+01 1.460695266723632812e+01 1.468909621238708496e+00 3.995350122451782227e+00 1.639277935028076172e+00 1.202879428863525391e+00
2.289000000000000000e+03 4.990229797363281250e+01 1.507170009613037109e+01 1.451138257980346680e+00 2.750896453857421875e+00 1.260610461235046387e+00 6.769438385963439941e-01
2.290000000000000000e+03 4.767325973510742188e+01 1.255816745758056641e+01 1.589674234390258789e+00 3.331350803375244141e+00 1.476307511329650879e+00 1.113162279129028320e+00
2.291000000000000000e+03 1.087800216674804688e+01 2.583443832397460938e+01 8.198145224014297128e-05 1.254751987289637327e-04 6.223699892871081829e-05 1.322579337283968925e-04
2.292000000000000000e+03 4.290159606933593750e+01 -3.008388710021972656e+01 -5.319170653820037842e-02 2.903198957443237305e+00 8.550021648406982422e-01 -7.287439703941345215e-01
2.293000000000000000e+03 4.410976791381835938e+01 -2.830783081054687500e+01 1.737290620803833008e-01 2.566438198089599609e+00 8.220502138137817383e-01 -8.243378996849060059e-01
2.294000000000000000e+03 5.094563293457031250e+01 5.664013862609863281e+00 -8.811911344528198242e-01 3.413160443305969238e-01 -1.619625240564346313e-01 -7.460355162620544434e-01
2.295000000000000000e+03 4.728976440429687500e+01 8.561246871948242188e+00 1.240470647811889648e+00 2.283898591995239258e+00 1.057310819625854492e+00 9.429069161415100098e-01
2.296000000000000000e+03 3.251718521118164062e+01 -1.407383441925048828e+01 9.213327169418334961e-01 1.136415839195251465e+00 6.173245906829833984e-01 5.235511660575866699e-01
2.297000000000000000e+03 2.920524215698242188e+01 -8.544524192810058594e+00 1.645603060722351074e+00 -7.821162939071655273e-01 2.590460479259490967e-01 -1.223464459180831909e-01
2.298000000000000000e+03 1.384328746795654297e+01 3.364652633666992188e+01 1.750056631863117218e-03 -4.907496622763574123e-04 3.777920792344957590e-04 3.987661330029368401e-05
2.299000000000000000e+03 8.743238449096679688e+00 3.386391067504882812e+01 -3.023943406788021093e-07 -7.064648671075701714e-04 -2.120301796821877360e-04 -4.617850354406982660e-04
2.300000000000000000e+03 6.890084075927734375e+01 -5.163856506347656250e+00 -1.727722436189651489e-01 1.565954275429248810e-02 -4.713381081819534302e-02 -8.037529885768890381e-03
2.301000000000000000e+03 7.370677947998046875e+01 -7.839964032173156738e-01 -1.591150313615798950e-01 -7.166571170091629028e-02 -6.923422217369079590e-02 -1.792436093091964722e-01
2.302000000000000000e+03 5.653058242797851562e+01 4.869409561157226562e+00 -1.143387794494628906e+00 2.655322253704071045e-01 -2.633566558361053467e-01 -8.377208113670349121e-01
2.303000000000000000e+03 4.789763259887695312e+01 2.232621002197265625e+01 7.964838147163391113e-01 4.436376094818115234e+00 1.569857954978942871e+00 4.828331768512725830e-01
2.304000000000000000e+03 2.621875190734863281e+01 -1.265919494628906250e+01 9.830768704414367676e-01 -5.498516559600830078e-01 1.299675703048706055e-01 4.283495247364044189e-01
2.305000000000000000e+03 2.714733886718750000e+01 -1.369528007507324219e+01 8.847920298576354980e-01 -4.239289462566375732e-01 1.382589340209960938e-01 6.168571710586547852e-01
2.306000000000000000e+03 4.650160980224609375e+01 5.413034915924072266e+00 -2.946953177452087402e-01 1.267868876457214355e+00 2.919520437717437744e-01 7.679609656333923340e-01
2.307000000000000000e+03 2.253717994689941406e+01 -8.146723747253417969e+00 2.248897105455398560e-01 -4.383055865764617920e-01 -6.402476876974105835e-02 -2.514318227767944336e-01
2.308000000000000000e+03 4.520473480224609375e+01 -3.278342056274414062e+01 -1.946157515048980713e-01 2.183511018753051758e+00 5.966686010360717773e-01 -5.949496030807495117e-01
2.309000000000000000e+03 4.607563781738281250e+01 -2.983137130737304688e+01 1.055437996983528137e-01 1.875069975852966309e+00 5.941841602325439453e-01 -7.475341558456420898e-01
2.310000000000000000e+03 6.722842407226562500e+01 -5.570186614990234375e+00 -1.493449360132217407e-01 1.925821602344512939e-02 -3.902601823210716248e-02 2.442525699734687805e-02
2.311000000000000000e+03 7.265787506103515625e+01 -7.330553054809570312e+00 -4.938955605030059814e-02 -2.168781869113445282e-02 -2.132321149110794067e-02 -7.670488557778298855e-04
2.312000000000000000e+03 6.761002349853515625e+01 -3.854121398925781250e+01 3.106236085295677185e-02 -1.592460833489894867e-02 4.541326314210891724e-03 3.060273826122283936e-02
2.313000000000000000e+03 7.032788848876953125e+01 3.156177902221679688e+01 9.817381948232650757e-02 -6.973192691802978516e-01 -1.797436475753784180e-01 -4.990695044398307800e-02
2.314000000000000000e+03 7.172682189941406250e+01 2.869559478759765625e+01 1.181452870368957520e-01 -9.523996114730834961e-01 -2.502762973308563232e-01 -1.265652924776077271e-01
2.315000000000000000e+03 7.021858215332031250e+00 -3.810073471069335938e+01 7.531422656029462814e-03 -1.350353807210922241e-01 -3.825118765234947205e-02 8.679018355906009674e-03
2.316000000000000000e+03 4.827354049682617188e+01 5.760752677917480469e+00 -3.392317593097686768e-01 5.838343501091003418e-01 7.338077574968338013e-02 1.060573663562536240e-02
2.317000000000000000e+03 4.728718948364257812e+01 6.550437450408935547e+00 2.220338881015777588e-01 1.381824016571044922e+00 4.811573624610900879e-01 5.840716361999511719e-01
2.318000000000000000e+03 2.059844589233398438e+01 3.676118087768554688e+01 6.757276132702827454e-04 -2.829475328326225281e-03 -6.461243610829114914e-04 2.327053574845194817e-03
2.319000000000000000e+03 7.231243896484375000e+01 1.831746292114257812e+01 1.513443291187286377e-01 -8.648055195808410645e-01 -2.140383571386337280e-01 -4.765833318233489990e-01
2.320000000000000000e+03 7.291357421875000000e+01 7.472296237945556641e+00 -9.958304464817047119e-02 -3.879654705524444580e-01 -1.462645530700683594e-01 -5.619397759437561035e-01
2.321000000000000000e+03 3.609647750854492188e+01 -3.459290695190429688e+01 -6.900152564048767090e-01 3.202131509780883789e+00 7.536348700523376465e-01 2.322787493467330933e-01
2.322000000000000000e+03 3.994640731811523438e+01 -3.166933250427246094e+01 -3.154055774211883545e-01 3.475211381912231445e+00 9.479417204856872559e-01 -4.268203973770141602e-01
2.323000000000000000e+03 7.200598144531250000e+01 4.095162200927734375e+01 -9.055900387465953827e-03 -1.030912280082702637e+00 -3.119904696941375732e-01 -1.565481908619403839e-02
2.324000000000000000e+03 4.005073928833007812e+01 -2.784408760070800781e+01 2.784911990165710449e-01 3.976708889007568359e+00 1.276560068130493164e+00 -4.466417729854583740e-01
2.325000000000000000e+03 4.118109893798828125e+01 -2.891189384460449219e+01 1.007340699434280396e-01 3.485273122787475586e+00 1.075802206993103027e+00 -6.310341358184814453e-01
2.326000000000000000e+03 2.171139335632324219e+01 -3.772874069213867188e+01 -6.360214203596115112e-02 7.716835290193557739e-02 4.069864749908447266e-03 1.770346425473690033e-02
2.327000000000000000e+03 3.809579849243164062e+01 -5.474550247192382812e+00 1.589913249015808105e+00 1.067061996459960938e+01 3.678159952163696289e+00 -8.178500831127166748e-02
2.328000000000000000e+03 3.730662918090820312e+01 -7.038041114807128906e+00 5.282870292663574219e+00 7.714235782623291016e+00 3.899131774902343750e+00 7.097926139831542969e-01
2.329000000000000000e+03 3.863026809692382812e+01 -4.759657859802246094e+00 -2.153046280145645142e-01 1.089488983154296875e+01 3.203875541687011719e+00 1.260389208793640137e+00
2.330000000000000000e+03 3.136686897277832031e+01 -1.358432579040527344e+01 1.222604751586914062e+00 3.290501832962036133e-01 4.654964804649353027e-01 7.945353388786315918e-01
2.331000000000000000e+03 3.794029617309570312e+01 -5.029996395111083984e+00 8.042851090431213379e-01 9.876462936401367188e+00 3.204224348068237305e+00 2.254798114299774170e-01
2.332000000000000000e+03 3.712032318115234375e+01 -8.400836944580078125e+00 4.044073581695556641e+00 7.832852363586425781e+00 3.563077688217163086e+00 2.177619218826293945e+00
2.333000000000000000e+03 3.769904327392578125e+01 -9.678244590759277344e+00 1.306685090065002441e+00 9.810600280761718750e+00 3.335185527801513672e+00 1.634432554244995117e+00
2.334000000000000000e+03 3.714406585693359375e+01 -4.702257156372070312e+00 5.940454602241516113e-01 7.625975608825683594e+00 2.466006278991699219e+00 4.251796007156372070e-02
2.335000000000000000e+03 3.545159530639648438e+01 -4.016805171966552734e+00 -4.488297179341316223e-02 3.866464853286743164e+00 1.146474599838256836e+00 -1.727285236120223999e-01
2.336000000000000000e+03 3.790006637573242188e+01 -6.330175399780273438e+00 4.475936889648437500e+00 9.810856819152832031e+00 4.286038398742675781e+00 -4.359311163425445557e-01
2.337000000000000000e+03 3.886818313598632812e+01 -1.042400264739990234e+01 -4.926285445690155029e-01 1.079678153991699219e+01 3.091245889663696289e+00 -5.016611218452453613e-01
2.338000000000000000e+03 3.806685256958007812e+01 -1.282041072845458984e+01 -3.353373706340789795e-02 7.812884330749511719e+00 2.333805322647094727e+00 -7.323412895202636719e-01
2.339000000000000000e+03 3.911662292480468750e+01 -2.902113676071166992e+00 -1.700869321823120117e+00 8.916954040527343750e+00 2.164825439453125000e+00 1.872230887413024902e+00
2.340000000000000000e+03 3.835507965087890625e+01 -1.002975106239318848e+00 -3.203376054763793945e+00 7.608329772949218750e+00 1.321485996246337891e+00 1.069212079048156738e+00
2.341000000000000000e+03 3.946577835083007812e+01 -4.133763313293457031e+00 -8.757552504539489746e-01 1.021354961395263672e+01 2.801338434219360352e+00 2.823660612106323242e+00
2.342000000000000000e+03 3.886015319824218750e+01 -3.944025993347167969e+00 -1.093824386596679688e+00 1.012431812286376953e+01 2.709148168563842773e+00 1.906486749649047852e+00
2.343000000000000000e+03 9.595361709594726562e+00 -6.561768531799316406e+00 -1.976155489683151245e-01 1.282123029232025146e-01 -2.082097344100475311e-02 -2.349798679351806641e-01
2.344000000000000000e+03 1.325082302093505859e+01 -7.569921493530273438e+00 -1.218630298972129822e-01 1.217793673276901245e-01 -2.509802652639336884e-05 -1.333248913288116455e-01
2.345000000000000000e+03 3.966902542114257812e+01 -1.080691051483154297e+01 -6.269245147705078125e-01 9.891968727111816406e+00 2.779513359069824219e+00 -1.864640951156616211e+00
2.346000000000000000e+03 5.963743686676025391e+00 5.540087699890136719e+00 9.537978257867507637e-06 -2.098513505188748240e-05 -3.434146947256522253e-06 1.407831859978614375e-05
2.347000000000000000e+03 5.774533748626708984e+00 7.418591499328613281e+00 2.198396214225795120e-05 -1.019958745018811896e-05 3.535312544045154937e-06 -3.878485586028546095e-06
2.348000000000000000e+03 1.102784061431884766e+01 -6.609618663787841797e+00 -2.078787386417388916e-01 1.350670158863067627e-01 -2.184351347386837006e-02 -1.981365531682968140e-01
2.349000000000000000e+03 6.670119762420654297e+00 6.429684162139892578e+00 2.568699710536748171e-05 -1.480280843679793179e-05 3.265256509621394798e-06 -5.927608981437515467e-06
2.350000000000000000e+03 3.880516052246093750e+01 -4.411870479583740234e+00 -7.657141089439392090e-01 1.058343124389648438e+01 2.945315122604370117e+00 1.708819031715393066e+00
2.351000000000000000e+03 3.972454071044921875e+01 -3.185292482376098633e+00 -1.148855090141296387e+00 9.084325790405273438e+00 2.380640983581542969e+00 2.490494966506958008e+00
2.352000000000000000e+03 1.054113006591796875e+01 5.350935935974121094e+00 2.118582415278069675e-05 1.380537742079468444e-05 1.049736056302208453e-05 -4.584719590638997033e-06
2.353000000000000000e+03 9.011322021484375000e+00 6.287092208862304688e+00 -9.612085705157369375e-06 -1.517150940344436094e-05 -7.435078259732108563e-06 1.343473286397056654e-05
2.354000000000000000e+03 1.176565742492675781e+01 -6.649265766143798828e+00 -2.081130146980285645e-01 1.272178590297698975e-01 -2.426854893565177917e-02 -1.798447966575622559e-01
2.355000000000000000e+03 7.320752716064453125e+01 -2.009742355346679688e+01 -1.748621347360312939e-03 1.567974832141771913e-04 -4.775471461471170187e-04 -7.339134754147380590e-05
2.356000000000000000e+03 7.390010833740234375e+01 -2.000799179077148438e+01 -1.380774891003966331e-03 -5.434264894574880600e-04 -5.772603908553719521e-04 1.988465810427442193e-04
2.357000000000000000e+03 1.358329963684082031e+01 5.119882106781005859e+00 2.107811997120734304e-05 3.513371848384849727e-05 1.686355062702205032e-05 2.004575071623548865e-05
2.358000000000000000e+03 7.089089202880859375e+01 -4.713453292846679688e+00 -1.587944626808166504e-01 -1.411842368543148041e-02 -5.187386646866798401e-02 -4.624035954475402832e-02
2.359000000000000000e+03 3.859996795654296875e+01 -1.014256191253662109e+01 -1.277182102203369141e-01 1.073898983001708984e+01 3.183381557464599609e+00 1.136168465018272400e-01
2.360000000000000000e+03 7.341822814941406250e+01 -7.051061153411865234e+00 -4.126683622598648071e-02 -2.098456211388111115e-02 -1.867541857063770294e-02 -6.742106750607490540e-03
2.361000000000000000e+03 1.330554580688476562e+01 -6.835996150970458984e+00 -1.946114301681518555e-01 9.517576545476913452e-02 -2.983069978654384613e-02 -1.420633941888809204e-01
2.362000000000000000e+03 5.886250495910644531e+00 -5.604683399200439453e+00 -1.463515609502792358e-01 -1.667377166450023651e-02 -4.890760034322738647e-02 -2.702433168888092041e-01
2.363000000000000000e+03 9.156268119812011719e+00 -8.987877845764160156e+00 -5.042169243097305298e-02 1.894282102584838867e-01 4.170195758342742920e-02 -2.517343461513519287e-01
2.364000000000000000e+03 7.431211948394775391e+00 -7.283489227294921875e+00 -1.360872983932495117e-01 7.690129429101943970e-02 -1.775580085813999176e-02 -2.955561876296997070e-01
2.365000000000000000e+03 8.116688728332519531e+00 -5.723135948181152344e+00 -2.102563232183456421e-01 7.641993463039398193e-02 -4.015091806650161743e-02 -2.542432844638824463e-01
2.366000000000000000e+03 2.317214012145996094e+01 -6.424883365631103516e+00 -1.933353841304779053e-01 -3.391195535659790039e-01 -1.597364842891693115e-01 -4.279327392578125000e-01
2.367000000000000000e+03 2.389078330993652344e+01 -6.435001373291015625e+00 -1.686075776815414429e-01 -4.170764386653900146e-01 -1.757052093744277954e-01 -5.035737156867980957e-01
2.368000000000000000e+03 1.667045402526855469e+01 -6.450571537017822266e+00 -2.164332866668701172e-01 -2.952444925904273987e-02 -7.378731667995452881e-02 -9.382975101470947266e-02
2.369000000000000000e+03 1.581723690032958984e+01 -6.422348499298095703e+00 -2.256830036640167236e-01 -2.718027681112289429e-03 -6.852030754089355469e-02 -1.009696871042251587e-01
2.370000000000000000e+03 1.130409526824951172e+01 5.254019737243652344e+00 -2.001125540118664503e-05 -1.653376602916978300e-05 -1.096350661100586876e-05 1.064283787854947150e-05
2.371000000000000000e+03 3.853289031982421875e+01 -1.765441894531250000e+00 -2.693453550338745117e+00 7.977383613586425781e+00 1.585178971290588379e+00 1.238063097000122070e+00
2.372000000000000000e+03 1.277931118011474609e+01 6.828446865081787109e+00 -6.262015085667371750e-05 2.715978735068347305e-05 -1.063810850610025227e-05 2.469785613357089460e-05
2.373000000000000000e+03 8.851445198059082031e+00 -5.748510837554931641e+00 -2.248847931623458862e-01 9.657122194766998291e-02 -3.849407285451889038e-02 -2.402167022228240967e-01
2.374000000000000000e+03 2.171041107177734375e+01 -1.077065944671630859e+01 5.449663996696472168e-01 -4.169079959392547607e-01 3.841752558946609497e-02 -9.738159365952014923e-03
2.375000000000000000e+03 1.603275299072265625e+01 -8.061305046081542969e+00 -2.452713437378406525e-02 -2.381719416007399559e-03 -8.072655647993087769e-03 -7.815584540367126465e-02
2.376000000000000000e+03 1.840442085266113281e+01 -7.281754493713378906e+00 -9.217635542154312134e-02 -1.268497556447982788e-01 -6.570783257484436035e-02 -1.101444065570831299e-01
2.377000000000000000e+03 1.410063648223876953e+01 -6.957621097564697266e+00 -1.759851723909378052e-01 8.332640677690505981e-02 -2.779763005673885345e-02 -1.178033128380775452e-01
2.378000000000000000e+03 1.238956642150878906e+01 -1.122339153289794922e+01 2.692439258098602295e-01 2.541251480579376221e-01 1.570107191801071167e-01 -6.569625437259674072e-02
2.379000000000000000e+03 3.486780929565429688e+01 -3.322543859481811523e+00 -9.527024626731872559e-01 2.629000663757324219e+00 5.028894543647766113e-01 -3.016853034496307373e-01
2.380000000000000000e+03 3.302653121948242188e+01 -1.356638050079345703e+01 1.122919917106628418e+00 1.659256935119628906e+00 8.346530199050903320e-01 5.364528298377990723e-01
2.381000000000000000e+03 1.758435821533203125e+01 -7.245643615722656250e+00 -1.057559549808502197e-01 -7.856375724077224731e-02 -5.529591441154479980e-02 -9.547763317823410034e-02
2.382000000000000000e+03 1.834406661987304688e+01 -6.492304325103759766e+00 -2.077674716711044312e-01 -1.010687500238418579e-01 -9.265086799860000610e-02 -1.112020984292030334e-01
2.383000000000000000e+03 3.432670593261718750e+01 -3.999260663986206055e+00 -1.885752007365226746e-02 2.012979984283447266e+00 5.982367396354675293e-01 -3.659197688102722168e-01
2.384000000000000000e+03 3.352525329589843750e+01 -4.290180206298828125e+00 2.259390801191329956e-01 7.240203022956848145e-01 2.849878072738647461e-01 -4.613886475563049316e-01
2.385000000000000000e+03 3.029665374755859375e+01 -5.453630924224853516e+00 4.864977300167083740e-01 -1.038201093673706055e+00 -1.655110120773315430e-01 -9.674693942070007324e-01
2.386000000000000000e+03 1.242701625823974609e+01 9.727480888366699219e+00 -2.681028308870736510e-05 2.611840136523824185e-05 -2.075647813626346760e-07 1.928691017383243889e-05
2.387000000000000000e+03 3.617132186889648438e+01 -3.445271492004394531e+00 -9.240390062332153320e-01 5.026473045349121094e+00 1.230730295181274414e+00 8.644799888134002686e-02
2.388000000000000000e+03 6.199136734008789062e+00 1.091660022735595703e+01 -3.605771780712530017e-05 -1.778373916749842465e-05 -1.615243672858923674e-05 1.500661255704471841e-05
2.389000000000000000e+03 2.522454833984375000e+01 -1.271497344970703125e+01 9.221842885017395020e-01 -5.481210947036743164e-01 1.122189611196517944e-01 3.543440699577331543e-01
2.390000000000000000e+03 2.242184066772460938e+01 -6.450297355651855469e+00 -1.967355757951736450e-01 -2.886851131916046143e-01 -1.456262022256851196e-01 -3.413221240043640137e-01
2.391000000000000000e+03 3.615231704711914062e+01 -1.566152095794677734e+01 -3.926219940185546875e-01 5.160897731781005859e+00 1.430482745170593262e+00 -2.438714802265167236e-01
2.392000000000000000e+03 3.368000030517578125e+01 -1.415448093414306641e+01 6.902493238449096680e-01 2.440602779388427734e+00 9.392556548118591309e-01 2.492472827434539795e-01
2.393000000000000000e+03 6.667443752288818359e+00 -7.254465579986572266e+00 -1.287197023630142212e-01 3.917575627565383911e-02 -2.686318568885326385e-02 -3.093397915363311768e-01
2.394000000000000000e+03 3.492798233032226562e+01 -5.303948879241943359e+00 1.690032958984375000e+00 3.060274362564086914e+00 1.425092220306396484e+00 -1.645174622535705566e-01
2.395000000000000000e+03 3.415179061889648438e+01 -4.604218959808349609e+00 7.095651626586914062e-01 1.832298755645751953e+00 7.625591754913330078e-01 -3.013696074485778809e-01
2.396000000000000000e+03 7.372672271728515625e+01 -1.892161941528320312e+01 -1.226716325618326664e-03 -5.831731832586228848e-04 -5.429668817669153214e-04 2.980298013426363468e-04
2.397000000000000000e+03 2.245366477966308594e+01 -7.284316539764404297e+00 8.249182254076004028e-03 -3.584818542003631592e-01 -1.050697937607765198e-01 -3.104280531406402588e-01
2.398000000000000000e+03 2.662793922424316406e+01 -5.076428890228271484e+00 -6.137619018554687500e-01 -6.649670600891113281e-01 -3.836186826229095459e-01 -9.945942163467407227e-01
2.399000000000000000e+03 2.760764312744140625e+01 -6.132711410522460938e+00 2.679753899574279785e-01 -9.494016766548156738e-01 -2.044278830289840698e-01 -8.908669352531433105e-01
2.400000000000000000e+03 4.816282749176025391e+00 7.418703556060791016e+00 -8.223069016821682453e-06 1.034886645356891677e-05 6.377393333423242439e-07 -1.654912011872511357e-06
2.401000000000000000e+03 8.208904266357421875e+00 -7.961058139801025391e+00 -1.114097014069557190e-01 1.331375539302825928e-01 6.518353708088397980e-03 -2.833954393863677979e-01
2.402000000000000000e+03 2.255828475952148438e+01 -1.271219539642333984e+01 6.971146464347839355e-01 -4.088091254234313965e-01 8.649165183305740356e-02 1.489560306072235107e-01
2.403000000000000000e+03 2.334590148925781250e+01 -1.309473037719726562e+01 7.374224066734313965e-01 -4.318760633468627930e-01 9.166391193866729736e-02 2.048080712556838989e-01
2.404000000000000000e+03 1.342423057556152344e+01 7.141993045806884766e+00 6.727276195306330919e-05 -2.625340675876941532e-05 1.230580619449028745e-05 -4.198228998575359583e-05
2.405000000000000000e+03 1.061298751831054688e+01 2.432646369934082031e+01 1.287773338844999671e-04 -1.499253266956657171e-04 -6.344400389934889972e-06 -1.843172321969177574e-05
2.406000000000000000e+03 7.170592308044433594e+00 2.379005050659179688e+01 1.431298296665772796e-04 1.464393426431342959e-04 8.687075023772194982e-05 -1.569320374983362854e-05
2.407000000000000000e+03 7.270564270019531250e+01 1.293645477294921875e+01 5.666794255375862122e-02 -6.746951937675476074e-01 -1.854081749916076660e-01 -6.003385782241821289e-01
2.408000000000000000e+03 5.242538452148437500e+01 2.503673744201660156e+01 8.334415555000305176e-01 2.766828060150146484e+00 1.080080866813659668e+00 3.774662911891937256e-01
2.409000000000000000e+03 8.996953964233398438e+00 8.017912864685058594e+00 4.814882231585215777e-06 6.866657713544555008e-06 3.504461801639990881e-06 3.219677819288335741e-05
2.410000000000000000e+03 6.962158966064453125e+01 -6.495746612548828125e+00 -9.231573343276977539e-02 -7.586114108562469482e-03 -2.997055463492870331e-02 -5.244194529950618744e-03
2.411000000000000000e+03 7.084155273437500000e+01 -6.613091945648193359e+00 -7.880742847919464111e-02 -1.634939946234226227e-02 -2.854704856872558594e-02 -9.643746539950370789e-03
2.412000000000000000e+03 2.643138694763183594e+01 -8.533569335937500000e+00 9.203637242317199707e-01 -8.648564815521240234e-01 1.665218919515609741e-02 -3.308298587799072266e-01
2.413000000000000000e+03 5.346213150024414062e+01 7.185989856719970703e+00 -2.906553447246551514e-01 4.037277996540069580e-01 3.392173722386360168e-02 -7.380914092063903809e-01
2.414000000000000000e+03 5.555839157104492188e+01 5.344116210937500000e+00 -1.135998606681823730e+00 2.831372618675231934e-01 -2.558583915233612061e-01 -8.866034150123596191e-01
2.415000000000000000e+03 1.684727859497070312e+01 -7.987568855285644531e+00 -1.977422460913658142e-02 -4.384575039148330688e-02 -1.908599212765693665e-02 -8.062548935413360596e-02
2.416000000000000000e+03 7.290711975097656250e+01 4.577661514282226562e+00 -1.733023822307586670e-01 -2.371925711631774902e-01 -1.231484860181808472e-01 -4.710139632225036621e-01
2.417000000000000000e+03 7.165837860107421875e+01 8.991502761840820312e+00 -7.426881790161132812e-02 -3.987779915332794189e-01 -1.419140398502349854e-01 -6.551211476325988770e-01
2.418000000000000000e+03 1.133494663238525391e+01 6.013096809387207031e+00 3.221004226361401379e-05 1.416870691173244268e-05 1.391362457070499659e-05 -6.047989245416829363e-06
2.419000000000000000e+03 1.282431125640869141e+01 8.700086593627929688e+00 2.992082590935751796e-05 -5.815976692247204483e-05 -8.471682122035417706e-06 -1.828722270147409290e-05
2.420000000000000000e+03 4.838978195190429688e+01 1.362779235839843750e+01 1.530439853668212891e+00 3.201154708862304688e+00 1.419478416442871094e+00 9.619930982589721680e-01
2.421000000000000000e+03 4.682590103149414062e+01 1.340373134613037109e+01 1.571956396102905273e+00 4.229043006896972656e+00 1.740299940109252930e+00 1.393824458122253418e+00
2.422000000000000000e+03 1.386098480224609375e+01 -1.266807746887207031e+01 5.645107626914978027e-01 2.044119983911514282e-01 2.306768298149108887e-01 1.723887771368026733e-02
2.423000000000000000e+03 3.567834091186523438e+01 -1.244571208953857422e+01 7.976716756820678711e-01 5.152394294738769531e+00 1.785019755363464355e+00 4.698041379451751709e-01
2.424000000000000000e+03 1.317481613159179688e+01 -1.177040386199951172e+01 3.670545220375061035e-01 2.560716271400451660e-01 1.869378387928009033e-01 -2.616694197058677673e-02
2.425000000000000000e+03 1.175797557830810547e+01 -7.339312076568603516e+00 -1.518453955650329590e-01 1.466464847326278687e-01 -1.559672644361853600e-03 -1.739527434110641479e-01
2.426000000000000000e+03 4.765809631347656250e+01 2.998209762573242188e+01 5.308820605278015137e-01 3.960336923599243164e+00 1.347365736961364746e+00 2.948745191097259521e-01
2.427000000000000000e+03 5.646277999877929688e+01 6.597541809082031250e+00 -5.655140876770019531e-01 2.546542882919311523e-01 -9.325794875621795654e-02 -9.448257684707641602e-01
2.428000000000000000e+03 1.439458465576171875e+01 4.928272724151611328e+00 -4.098325007362291217e-05 -3.420107168494723737e-05 -2.255529761896468699e-05 -2.705500605770794209e-07
2.429000000000000000e+03 1.504419231414794922e+01 4.577009201049804688e+00 2.738270450208801776e-05 5.715656880056485534e-05 2.536178180889692158e-05 2.433085683151148260e-05
2.430000000000000000e+03 2.817427253723144531e+01 -1.321025943756103516e+01 1.084059715270996094e+00 -4.340584576129913330e-01 1.950003802776336670e-01 7.136408090591430664e-01
2.431000000000000000e+03 7.181329345703125000e+01 3.150029182434082031e+00 -2.523600757122039795e-01 -1.298950314521789551e-01 -1.146765351295471191e-01 -4.400315582752227783e-01
2.432000000000000000e+03 7.150045013427734375e+01 1.160785961151123047e+01 2.752147056162357330e-02 -5.165706872940063477e-01 -1.467147618532180786e-01 -6.744865179061889648e-01
2.433000000000000000e+03 4.087759780883789062e+01 -2.508739852905273438e+01 4.578914046287536621e-01 4.217775344848632812e+00 1.402699947357177734e+00 -3.278173804283142090e-01
2.434000000000000000e+03 7.365163421630859375e+01 -2.025022506713867188e+00 -1.387185454368591309e-01 -5.312704667448997498e-02 -5.755367875099182129e-02 -1.285437345504760742e-01
2.435000000000000000e+03 7.122406768798828125e+01 -1.402051210403442383e+00 -2.760517895221710205e-01 -7.435301318764686584e-03 -8.504612743854522705e-02 -1.849720925092697144e-01
2.436000000000000000e+03 2.115520095825195312e+01 -1.225304889678955078e+01 6.203179359436035156e-01 -3.467914164066314697e-01 8.205795288085937500e-02 5.993877351284027100e-02
2.437000000000000000e+03 5.645906448364257812e+00 -9.438179016113281250e+00 -4.904514923691749573e-02 -3.238309919834136963e-02 -2.442847378551959991e-02 -3.440481126308441162e-01
2.438000000000000000e+03 7.294007873535156250e+01 -8.101092338562011719e+00 -2.250542305409908295e-02 -2.141987346112728119e-02 -1.317758858203887939e-02 -6.069609080441296101e-04
2.439000000000000000e+03 7.269120788574218750e+01 -6.477294445037841797e+00 -6.188900023698806763e-02 -2.293645590543746948e-02 -2.544763684272766113e-02 -1.560151390731334686e-02
2.440000000000000000e+03 7.050801849365234375e+01 -5.959804058074951172e+00 -1.105566844344139099e-01 -1.830879785120487213e-02 -3.865964710712432861e-02 -1.384957320988178253e-02
2.441000000000000000e+03 6.888777160644531250e+01 -2.596291065216064453e+00 -3.644048869609832764e-01 6.216774880886077881e-02 -9.067114442586898804e-02 -1.026531606912612915e-01
2.442000000000000000e+03 6.895319366455078125e+01 -3.976904153823852539e+00 -2.568189799785614014e-01 3.551132231950759888e-02 -6.639229506254196167e-02 -3.127751499414443970e-02
2.443000000000000000e+03 5.014559555053710938e+01 9.953192710876464844e+00 1.156736969947814941e+00 1.454009294509887695e+00 7.832238674163818359e-01 1.816273033618927002e-01
2.444000000000000000e+03 3.227710723876953125e+01 -1.336929893493652344e+01 1.298394441604614258e+00 1.071804881095886230e+00 7.110598087310791016e-01 6.466970443725585938e-01
2.445000000000000000e+03 7.258744049072265625e+01 1.435803985595703125e+01 8.586069941520690918e-02 -7.377181649208068848e-01 -1.955572366714477539e-01 -5.814787149429321289e-01
2.446000000000000000e+03 7.127059173583984375e+01 1.295007419586181641e+01 7.535315304994583130e-02 -5.650515556335449219e-01 -1.469095200300216675e-01 -6.706774234771728516e-01
2.447000000000000000e+03 9.534545898437500000e+00 1.800122261047363281e+01 -8.124899977701716125e-06 2.429169398965314031e-05 4.850037839787546545e-06 -1.228205564984818920e-05
2.448000000000000000e+03 8.198398590087890625e+00 1.955101585388183594e+01 -1.290005911869229749e-05 2.336973193450830877e-05 3.140902208542684093e-06 -3.230316360713914037e-05
2.449000000000000000e+03 3.123201942443847656e+01 -1.269552040100097656e+01 1.583284497261047363e+00 3.217537403106689453e-01 5.715114474296569824e-01 7.729265689849853516e-01
2.450000000000000000e+03 3.028625488281250000e+01 -1.274334907531738281e+01 1.491149902343750000e+00 -6.963016837835311890e-02 4.264559447765350342e-01 8.207406997680664062e-01
2.451000000000000000e+03 6.149139785766601562e+01 3.709904432296752930e+00 -1.003210067749023438e+00 1.618512272834777832e-01 -2.524076700210571289e-01 -7.759492993354797363e-01
2.452000000000000000e+03 6.036360168457031250e+01 3.466768503189086914e+00 -1.138019323348999023e+00 1.470638960599899292e-01 -2.972866296768188477e-01 -7.738902568817138672e-01
2.453000000000000000e+03 6.315967559814453125e+00 -8.833259582519531250e+00 -6.260612607002258301e-02 3.131299838423728943e-02 -9.387939237058162689e-03 -3.320716619491577148e-01
2.454000000000000000e+03 7.198172092437744141e+00 -1.123074531555175781e+01 6.002400815486907959e-02 1.604436337947845459e-01 6.614029407501220703e-02 -2.857843041419982910e-01
2.455000000000000000e+03 5.958177566528320312e+00 9.689123153686523438e+00 2.732375105551909655e-05 1.105058345274301246e-05 1.151230026152916253e-05 -1.076333683158736676e-05
2.456000000000000000e+03 7.562859535217285156e+00 8.201680183410644531e+00 -3.694067709147930145e-05 -9.260175829695072025e-06 -1.386025542160496116e-05 2.258833228552248329e-05
2.457000000000000000e+03 4.042551422119140625e+01 -3.002441215515136719e+01 -6.708282977342605591e-02 3.630478382110595703e+00 1.069018721580505371e+00 -5.319539308547973633e-01
2.458000000000000000e+03 6.554901123046875000e+01 7.426552176475524902e-01 -7.987895011901855469e-01 1.747004091739654541e-01 -1.872267127037048340e-01 -4.015145897865295410e-01
2.459000000000000000e+03 6.491848754882812500e+01 2.116529703140258789e+00 -8.327067494392395020e-01 1.675066500902175903e-01 -1.995600312948226929e-01 -5.664402246475219727e-01
2.460000000000000000e+03 7.313032531738281250e+01 -5.484488010406494141e+00 -7.948994636535644531e-02 -2.539580501616001129e-02 -3.146572411060333252e-02 -2.565663121640682220e-02
2.461000000000000000e+03 5.261835861206054688e+01 7.821418285369873047e+00 7.504291087388992310e-02 5.145326852798461914e-01 1.768726706504821777e-01 -6.737461686134338379e-01
2.462000000000000000e+03 7.830964088439941406e+00 2.912829399108886719e+01 2.978566917590796947e-04 -5.277435411699116230e-04 -6.896605918882414699e-05 -1.818968739826232195e-04
2.463000000000000000e+03 1.087850379943847656e+01 3.462104797363281250e+01 6.497853319160640240e-04 9.043594036484137177e-05 2.220663736807182431e-04 -1.946527772815898061e-04
2.464000000000000000e+03 6.012450408935546875e+01 5.532014369964599609e+00 -7.422699928283691406e-01 1.688597798347473145e-01 -1.720230728387832642e-01 -9.194716811180114746e-01
2.465000000000000000e+03 9.712932586669921875e+00 2.603632545471191406e+01 2.299726620549336076e-04 -2.652707335073500872e-04 -1.058941779774613678e-05 -6.940725870663300157e-05
2.466000000000000000e+03 1.127985477447509766e+01 1.203253650665283203e+01 -1.776676072040572762e-05 -1.186075769510352984e-05 -8.888255251804366708e-06 1.919497117341961712e-05
2.467000000000000000e+03 6.973194122314453125e+01 2.968335342407226562e+01 1.641996055841445923e-01 -6.286354064941406250e-01 -1.393307447433471680e-01 -9.542413800954818726e-02
2.468000000000000000e+03 7.058898925781250000e+01 2.522064971923828125e+01 2.098263651132583618e-01 -7.549454569816589355e-01 -1.635357439517974854e-01 -2.536020874977111816e-01
2.469000000000000000e+03 9.267532348632812500e+00 -1.188976192474365234e+01 2.329956740140914917e-01 3.134423792362213135e-01 1.639314144849777222e-01 -1.655224561691284180e-01
2.470000000000000000e+03 6.823862457275390625e+01 3.288601684570312500e+01 1.134481951594352722e-01 -3.625646829605102539e-01 -7.473494112491607666e-02 -1.863359287381172180e-02
2.471000000000000000e+03 4.978981399536132812e+01 1.394784355163574219e+01 1.460858941078186035e+00 2.497240543365478516e+00 1.187429785728454590e+00 6.451340317726135254e-01
2.472000000000000000e+03 4.939178848266601562e+01 1.086876106262207031e+01 1.354689478874206543e+00 1.946299672126770020e+00 9.902967214584350586e-01 4.941844940185546875e-01
2.473000000000000000e+03 4.833716964721679688e+01 9.686688423156738281e+00 1.349432110786437988e+00 2.098078727722167969e+00 1.034253239631652832e+00 6.762627363204956055e-01
2.474000000000000000e+03 7.146398925781250000e+01 6.384692192077636719e+00 -1.734610497951507568e-01 -2.578756213188171387e-01 -1.294009983539581299e-01 -6.009994149208068848e-01
2.475000000000000000e+03 2.837070274353027344e+01 -1.233577728271484375e+01 1.359561324119567871e+00 -5.202591419219970703e-01 2.517906427383422852e-01 6.593303680419921875e-01
2.476000000000000000e+03 2.527363586425781250e+01 -7.108540058135986328e+00 2.646949589252471924e-01 -6.940120458602905273e-01 -1.287951320409774780e-01 -5.829569697380065918e-01
2.477000000000000000e+03 7.198287963867187500e+00 3.265559768676757812e+01 4.980821177014149725e-05 3.014639951288700104e-04 1.053816595231182873e-04 -4.442784993443638086e-04
2.478000000000000000e+03 5.745153808593750000e+01 4.645513534545898438e+00 -1.177467823028564453e+00 1.898996829986572266e-01 -2.962704598903656006e-01 -8.567935824394226074e-01
2.479000000000000000e+03 7.100535583496093750e+01 1.437019252777099609e+01 1.255556941032409668e-01 -6.042100191116333008e-01 -1.435963064432144165e-01 -6.457296609878540039e-01
2.480000000000000000e+03 5.733046722412109375e+01 5.696715831756591797e+00 -8.592696189880371094e-01 2.386140823364257812e-01 -1.861966550350189209e-01 -9.068212509155273438e-01
2.481000000000000000e+03 1.015621185302734375e+01 2.880165100097656250e+01 5.067221354693174362e-04 -1.987077412195503712e-04 9.240431245416402817e-05 2.949468216684181243e-05
2.482000000000000000e+03 7.172488403320312500e+01 2.315932273864746094e+01 1.885674893856048584e-01 -8.969264030456542969e-01 -2.125076800584793091e-01 -3.173755407333374023e-01
2.483000000000000000e+03 7.111588287353515625e+01 1.772798919677734375e+01 1.938836872577667236e-01 -7.109070420265197754e-01 -1.551070064306259155e-01 -5.365937352180480957e-01
2.484000000000000000e+03 1.098711013793945312e+01 1.654928970336914062e+01 2.682302329048980027e-05 2.649204361659940332e-06 8.841668204695452005e-06 3.310714646431733854e-06
2.485000000000000000e+03 1.074948692321777344e+01 1.808195114135742188e+01 -2.015473182837013155e-05 -3.902664047927828506e-06 -7.217218808364123106e-06 -4.431717570696491748e-06
2.486000000000000000e+03 2.169609069824218750e+01 -7.364251136779785156e+00 -7.678578607738018036e-03 -3.125328719615936279e-01 -9.606343507766723633e-02 -2.514272928237915039e-01
2.487000000000000000e+03 4.315988540649414062e+01 -3.182114982604980469e+01 -2.064218372106552124e-01 2.728528738021850586e+00 7.566320896148681641e-01 -6.623594164848327637e-01
2.488000000000000000e+03 4.795769500732421875e+01 1.688451957702636719e+01 1.239571809768676758e+00 4.114115715026855469e+00 1.606106281280517578e+00 1.014781117439270020e+00
2.489000000000000000e+03 4.892229843139648438e+01 1.739065551757812500e+01 1.252090454101562500e+00 3.585492610931396484e+00 1.451274991035461426e+00 7.956741452217102051e-01
2.490000000000000000e+03 8.815421104431152344e+00 2.983103752136230469e+01 2.420450182398781180e-04 2.129042259184643626e-04 1.364847703371196985e-04 2.689297434699255973e-05
2.491000000000000000e+03 8.389467239379882812e+00 2.815288352966308594e+01 5.141576184541918337e-05 3.116498119197785854e-04 1.089196739485487342e-04 -5.919818067923188210e-05
2.492000000000000000e+03 7.303005218505859375e+01 3.379918289184570312e+01 5.407600104808807373e-02 -1.159984707832336426e+00 -3.317725956439971924e-01 -3.848619014024734497e-02
2.493000000000000000e+03 1.059656715393066406e+01 1.962811279296875000e+01 2.567693081800825894e-05 2.983572267112322152e-05 1.665379568294156343e-05 7.468942385457921773e-06
2.494000000000000000e+03 7.296298980712890625e+01 -3.590801239013671875e+01 1.063267467543482780e-03 -6.138482131063938141e-03 -1.522564329206943512e-03 1.570296473801136017e-02
2.495000000000000000e+03 1.685791397094726562e+01 -1.243553829193115234e+01 5.444030165672302246e-01 -4.554787278175354004e-02 1.496565490961074829e-01 2.068963646888732910e-02
2.496000000000000000e+03 1.291769504547119141e+01 3.742567443847656250e+01 6.128171226009726524e-04 -1.924011485243681818e-05 1.780730963218957186e-04 -1.493419695179909468e-04
2.497000000000000000e+03 8.602496147155761719e+00 2.647345733642578125e+01 1.064332900568842888e-04 1.765559718478471041e-04 8.489677566103637218e-05 -4.359768718131817877e-05
2.498000000000000000e+03 4.948862838745117188e+01 1.625260925292968750e+01 1.342248082160949707e+00 3.107120513916015625e+00 1.334810614585876465e+00 7.478026151657104492e-01
2.499000000000000000e+03 6.779233551025390625e+01 9.059677720069885254e-01 -5.731194019317626953e-01 8.704714477062225342e-02 -1.458216756582260132e-01 -3.954843282699584961e-01
2.500000000000000000e+03 6.694010925292968750e+01 1.419731378555297852e+00 -6.397175192832946777e-01 1.230894029140472412e-01 -1.549884378910064697e-01 -4.563604593276977539e-01
2.501000000000000000e+03 4.909449005126953125e+01 6.899741649627685547e+00 1.227077618241310120e-01 8.616891503334045410e-01 2.953190803527832031e-01 -9.795160591602325439e-02
2.502000000000000000e+03 3.846476745605468750e+01 -5.096240520477294922e+00 3.402409553527832031e-01 1.119564151763916016e+01 3.460764884948730469e+00 7.478907108306884766e-01
2.503000000000000000e+03 3.738795089721679688e+01 -6.385884761810302734e+00 4.293019771575927734e+00 8.232980728149414062e+00 3.757800340652465820e+00 -9.992752224206924438e-02
2.504000000000000000e+03 3.772077941894531250e+01 -5.604033470153808594e+00 2.256100654602050781e+00 9.530911445617675781e+00 3.536103487014770508e+00 -2.474401444196701050e-01
2.505000000000000000e+03 3.519397354125976562e+01 -1.365678310394287109e+01 5.009716153144836426e-01 4.239112854003906250e+00 1.422025322914123535e+00 1.933792382478713989e-01
2.506000000000000000e+03 3.594109344482421875e+01 -4.589802265167236328e+00 8.015694022178649902e-01 4.924511432647705078e+00 1.717824339866638184e+00 -1.610471159219741821e-01
2.507000000000000000e+03 3.724831771850585938e+01 -7.957775115966796875e+00 4.868654251098632812e+00 7.921325683593750000e+00 3.836993932723999023e+00 1.987061500549316406e+00
2.508000000000000000e+03 3.745318984985351562e+01 -5.189358711242675781e+00 1.381253361701965332e+00 8.570508956909179688e+00 2.985528707504272461e+00 -7.617826759815216064e-02
2.509000000000000000e+03 3.732864761352539062e+01 -5.825586795806884766e+00 2.885883331298828125e+00 8.225060462951660156e+00 3.333283185958862305e+00 -2.656734585762023926e-01
2.510000000000000000e+03 3.785114288330078125e+01 -1.075893878936767578e+01 1.912937462329864502e-01 9.253558158874511719e+00 2.833455562591552734e+00 4.796085655689239502e-01
2.511000000000000000e+03 3.831135177612304688e+01 -4.377623558044433594e+00 -5.677040815353393555e-01 1.007548904418945312e+01 2.852335453033447266e+00 1.008645057678222656e+00
2.512000000000000000e+03 3.946871948242187500e+01 -1.140614223480224609e+01 -4.531453549861907959e-01 9.403455734252929688e+00 2.685093164443969727e+00 -1.623601555824279785e+00
2.513000000000000000e+03 3.896989059448242188e+01 -1.111545372009277344e+01 -4.931333959102630615e-01 9.776124954223632812e+00 2.784897565841674805e+00 -1.042621016502380371e+00
2.514000000000000000e+03 3.929076766967773438e+01 -2.407834768295288086e+00 -1.946984052658081055e+00 8.566161155700683594e+00 1.985753059387207031e+00 1.765092849731445312e+00
2.515000000000000000e+03 3.810442352294921875e+01 -2.599134922027587891e+00 -2.195928096771240234e+00 8.018079757690429688e+00 1.746645569801330566e+00 1.125687718391418457e+00
2.516000000000000000e+03 1.031186199188232422e+01 -6.590249061584472656e+00 -2.043592482805252075e-01 1.312272995710372925e-01 -2.193958312273025513e-02 -2.184375524520874023e-01
2.517000000000000000e+03 3.922780609130859375e+01 -1.065428829193115234e+01 -6.727472543716430664e-01 1.038379955291748047e+01 2.913315773010253906e+00 -1.307846784591674805e+00
2.518000000000000000e+03 7.478728771209716797e+00 7.278384685516357422e+00 2.963233964692335576e-05 -1.371698317598202266e-06 8.478192285110708326e-06 -2.263006172142922878e-05
2.519000000000000000e+03 9.776301383972167969e+00 6.232224941253662109e+00 9.468043572269380093e-06 2.512579339963849634e-05 1.037815127347130328e-05 -6.789466624468332157e-06
2.520000000000000000e+03 6.656324863433837891e+00 7.368667602539062500e+00 -3.280840610386803746e-05 7.874290531617589295e-06 -7.480234216927783564e-06 1.243461792910238728e-05
2.521000000000000000e+03 7.168595123291015625e+01 -6.362681865692138672e+00 -8.078011870384216309e-02 -2.260718308389186859e-02 -3.101619146764278412e-02 -1.246828772127628326e-02
2.522000000000000000e+03 3.005773544311523438e+01 -6.291026115417480469e+00 1.038908481597900391e+00 -9.527890682220458984e-01 2.583581767976284027e-02 -7.281866669654846191e-01
2.523000000000000000e+03 1.055564308166503906e+01 6.145458221435546875e+00 -2.163293720514047891e-05 -2.335427052457816899e-05 -1.349616195511771366e-05 -1.905501335386361461e-06
2.524000000000000000e+03 1.062000751495361328e+01 7.804441928863525391e+00 -8.669522344462166075e-08 -4.186829755781218410e-05 -1.258649717783555388e-05 2.682137710507959127e-05
2.525000000000000000e+03 1.253081226348876953e+01 -6.726662635803222656e+00 -2.008993625640869141e-01 1.193622574210166931e-01 -2.446113340556621552e-02 -1.567833423614501953e-01
2.526000000000000000e+03 3.116912651062011719e+01 -1.185929679870605469e+01 1.816801786422729492e+00 3.082108199596405029e-01 6.375037431716918945e-01 7.580066919326782227e-01
2.527000000000000000e+03 1.400773715972900391e+01 -7.658989429473876953e+00 -1.137032434344291687e-01 9.254914522171020508e-02 -6.346227601170539856e-03 -1.235386952757835388e-01
2.528000000000000000e+03 8.870855331420898438e+00 -6.523257255554199219e+00 -1.921839565038681030e-01 1.143958866596221924e-01 -2.333642169833183289e-02 -2.544092833995819092e-01
2.529000000000000000e+03 8.138989448547363281e+00 -6.498123168945312500e+00 -1.779187470674514771e-01 9.345508366823196411e-02 -2.533909864723682404e-02 -2.716968953609466553e-01
2.530000000000000000e+03 3.913829421997070312e+01 -1.200243759155273438e+01 -3.041482269763946533e-01 8.927350044250488281e+00 2.586960792541503906e+00 -1.329835057258605957e+00
2.531000000000000000e+03 3.748248672485351562e+01 -1.299055004119873047e+01 1.385865360498428345e-01 7.133152008056640625e+00 2.181521654129028320e+00 -3.895991444587707520e-01
2.532000000000000000e+03 1.586186790466308594e+01 -7.245370388031005859e+00 -1.244862675666809082e-01 1.108471117913722992e-02 -3.402046486735343933e-02 -9.118564426898956299e-02
2.533000000000000000e+03 3.181849670410156250e+01 -6.167615890502929688e+00 1.555538415908813477e+00 -3.482733070850372314e-01 3.621795475482940674e-01 -4.162414073944091797e-01
2.534000000000000000e+03 3.107107162475585938e+01 -5.781000614166259766e+00 9.958014488220214844e-01 -7.986791133880615234e-01 5.913669988512992859e-02 -7.286079525947570801e-01
2.535000000000000000e+03 3.604414367675781250e+01 -4.077487468719482422e+00 -5.822556465864181519e-02 4.940248012542724609e+00 1.464606761932373047e+00 -4.773861542344093323e-02
2.536000000000000000e+03 1.337919521331787109e+01 -9.393460273742675781e+00 6.023835390806198120e-02 1.618778705596923828e-01 6.663487106561660767e-02 -1.023713499307632446e-01
2.537000000000000000e+03 1.530086898803710938e+01 -8.399958610534667969e+00 -6.635166238993406296e-03 4.755198583006858826e-02 1.227504573762416840e-02 -8.017463237047195435e-02
2.538000000000000000e+03 1.922918128967285156e+01 -8.172059059143066406e+00 5.885975435376167297e-02 -1.941366940736770630e-01 -4.058308154344558716e-02 -1.117476895451545715e-01
2.539000000000000000e+03 2.453021240234375000e+01 -6.671452999114990234e+00 -1.665696874260902405e-02 -5.232292413711547852e-01 -1.619658619165420532e-01 -5.547076463699340820e-01
2.540000000000000000e+03 3.416889572143554688e+01 -1.361459732055664062e+01 7.954211235046386719e-01 2.999900341033935547e+00 1.138596415519714355e+00 3.436307609081268311e-01
2.541000000000000000e+03 1.204513740539550781e+01 5.837149143218994141e+00 -2.087212124024517834e-05 -1.855184746091254056e-05 -1.182719097414519638e-05 2.445493373670615256e-05
2.542000000000000000e+03 3.542892456054687500e+01 -4.618097782135009766e+00 8.461120128631591797e-01 3.952127218246459961e+00 1.439471721649169922e+00 -2.165283709764480591e-01
2.543000000000000000e+03 1.137251472473144531e+01 8.472752571105957031e+00 4.384284329717047513e-05 -4.489606362767517567e-05 -3.159659343054954661e-07 1.998649713641498238e-05
2.544000000000000000e+03 2.641279792785644531e+01 -1.160150432586669922e+01 1.150196790695190430e+00 -6.821902990341186523e-01 1.404019445180892944e-01 3.140203356742858887e-01
2.545000000000000000e+03 3.732652282714843750e+01 -9.396100997924804688e+00 2.124382734298706055e+00 8.798541069030761719e+00 3.276877164840698242e+00 2.026784181594848633e+00
2.546000000000000000e+03 3.483298492431640625e+01 -1.415498542785644531e+01 4.235416352748870850e-01 3.795514822006225586e+00 1.265716910362243652e+00 9.047336131334304810e-02
2.547000000000000000e+03 1.923208999633789062e+01 -7.326367855072021484e+00 -7.579544931650161743e-02 -1.604381352663040161e-01 -7.087007164955139160e-02 -1.264088600873947144e-01
2.548000000000000000e+03 1.867510414123535156e+01 -9.688117980957031250e+00 2.506848871707916260e-01 -1.849588155746459961e-01 1.971781998872756958e-02 -5.564386770129203796e-02
2.549000000000000000e+03 1.607207298278808594e+01 -1.075119686126708984e+01 3.189097940921783447e-01 6.359082181006669998e-03 9.758066385984420776e-02 -1.566939800977706909e-02
2.550000000000000000e+03 3.748925399780273438e+01 -1.426912975311279297e+01 2.871372736990451813e-03 6.655781745910644531e+00 1.997596025466918945e+00 -4.996385872364044189e-01
2.551000000000000000e+03 3.288061141967773438e+01 -5.558318614959716797e+00 1.467736363410949707e+00 3.800485730171203613e-01 5.543354749679565430e-01 -4.147180914878845215e-01
2.552000000000000000e+03 1.149971485137939453e+01 7.632978916168212891e+00 -9.330253305961377919e-06 4.562567482935264707e-05 1.088862609321950004e-05 -5.576396688411477953e-06
2.553000000000000000e+03 1.233101177215576172e+01 7.667177677154541016e+00 5.561417492572218180e-05 -6.528144149342551827e-05 -2.900180561482557096e-06 -1.247173258889233693e-05
2.554000000000000000e+03 3.382678604125976562e+01 -5.218181133270263672e+00 1.394824743270874023e+00 1.467625141143798828e+00 8.587349653244018555e-01 -2.262594252824783325e-01
2.555000000000000000e+03 7.126555633544921875e+01 -3.285890340805053711e+00 -2.107815295457839966e-01 -8.619846776127815247e-03 -6.582041084766387939e-02 -9.424493461847305298e-02
2.556000000000000000e+03 9.159323692321777344e+00 2.285198020935058594e+01 1.142420005635358393e-04 -4.081200677319429815e-05 2.202899850090034306e-05 3.446395203354768455e-05
2.557000000000000000e+03 2.686072921752929688e+01 -1.080712795257568359e+01 1.211142539978027344e+00 -7.304955124855041504e-01 1.441941261291503906e-01 2.071169167757034302e-01
2.558000000000000000e+03 2.008582496643066406e+01 -1.124838256835937500e+01 4.943192899227142334e-01 -2.903879880905151367e-01 6.117939203977584839e-02 5.017068237066268921e-03
2.559000000000000000e+03 2.206267738342285156e+01 -1.177996444702148438e+01 6.263094544410705566e-01 -4.128547012805938721e-01 6.403643637895584106e-02 6.802428513765335083e-02
2.560000000000000000e+03 3.522384262084960938e+01 -1.524344253540039062e+01 -1.132381930947303772e-01 4.141165733337402344e+00 1.208378314971923828e+00 -1.833809614181518555e-01
2.561000000000000000e+03 2.663769531250000000e+01 -6.211182117462158203e+00 1.104683429002761841e-01 -8.291102647781372070e-01 -2.155925780534744263e-01 -8.280183672904968262e-01
2.562000000000000000e+03 2.361461830139160156e+01 -1.098997402191162109e+01 7.326360344886779785e-01 -5.640268325805664062e-01 5.058275163173675537e-02 4.267629235982894897e-02
2.563000000000000000e+03 1.204748058319091797e+01 8.594108581542968750e+00 -6.863560702186077833e-05 6.158944597700610757e-05 -2.113847131113288924e-06 1.403545638822834007e-06
2.564000000000000000e+03 6.402531433105468750e+01 3.554811239242553711e+00 -7.932174801826477051e-01 1.459680795669555664e-01 -1.941748112440109253e-01 -7.255477309226989746e-01
2.565000000000000000e+03 1.137190246582031250e+01 -1.108655452728271484e+01 1.930818557739257812e-01 2.912622094154357910e-01 1.453032195568084717e-01 -1.164417490363121033e-01
2.566000000000000000e+03 1.188529682159423828e+01 1.082166004180908203e+01 2.162375494663137943e-05 3.620664017489616526e-07 6.595746526727452874e-06 -2.668677734618540853e-05
2.567000000000000000e+03 7.069617462158203125e+01 3.284055233001708984e+00 -3.200464546680450439e-01 -8.815785497426986694e-02 -1.224612966179847717e-01 -5.001730918884277344e-01
2.568000000000000000e+03 6.698883056640625000e+01 4.280442237854003906e+00 -5.042920112609863281e-01 2.390256151556968689e-02 -1.441168338060379028e-01 -6.933835148811340332e-01
2.569000000000000000e+03 5.116389083862304688e+01 1.631785774230957031e+01 1.342346668243408203e+00 2.442341804504394531e+00 1.135406494140625000e+00 5.031689405441284180e-01
2.570000000000000000e+03 3.701537322998046875e+01 -3.056580543518066406e+00 -1.729103088378906250e+00 6.799213409423828125e+00 1.521033167839050293e+00 5.848630666732788086e-01
2.571000000000000000e+03 1.814843940734863281e+01 -1.184454822540283203e+01 4.895409047603607178e-01 -1.404261589050292969e-01 1.047344207763671875e-01 1.334145944565534592e-02
2.572000000000000000e+03 1.397741413116455078e+01 -1.115452289581298828e+01 3.186630010604858398e-01 1.727682799100875854e-01 1.474293917417526245e-01 -2.446335926651954651e-02
2.573000000000000000e+03 1.250902938842773438e+01 -9.377296447753906250e+00 4.860034957528114319e-02 1.976013779640197754e-01 7.386051863431930542e-02 -1.200940459966659546e-01
2.574000000000000000e+03 2.395570755004882812e+01 -7.102980136871337891e+00 9.335935860872268677e-02 -5.145285129547119141e-01 -1.263507604598999023e-01 -4.741947948932647705e-01
2.575000000000000000e+03 2.566064834594726562e+01 -6.107734203338623047e+00 -9.726912528276443481e-02 -6.347580552101135254e-01 -2.196081429719924927e-01 -7.505922317504882812e-01
2.576000000000000000e+03 6.902472496032714844e+00 9.438993453979492188e+00 -3.252732858527451754e-05 -2.444959318381734192e-05 -1.709307616692967713e-05 1.784386586223263294e-05
2.577000000000000000e+03 3.718298339843750000e+01 -1.599079895019531250e+01 -3.485155701637268066e-01 6.040290832519531250e+00 1.707532644271850586e+00 -2.742500305175781250e-01
2.578000000000000000e+03 7.020957183837890625e+01 -7.963564991950988770e-01 -3.553050458431243896e-01 2.842868864536285400e-02 -9.806291013956069946e-02 -2.290136814117431641e-01
2.579000000000000000e+03 6.872604370117187500e+01 -1.135190725326538086e+00 -4.521651268005371094e-01 7.901696115732192993e-02 -1.119444519281387329e-01 -2.128041982650756836e-01
2.580000000000000000e+03 8.260122299194335938e+00 -1.167215442657470703e+01 1.443606764078140259e-01 2.737922966480255127e-01 1.254458874464035034e-01 -2.172270566225051880e-01
2.581000000000000000e+03 7.331323242187500000e+01 -2.106271362304687500e+01 1.388068078085780144e-03 -7.495918544009327888e-04 1.915428729262202978e-04 -2.100811252603307366e-04
2.582000000000000000e+03 7.004819488525390625e+01 1.850202178955078125e+01 2.348839789628982544e-01 -6.153796911239624023e-01 -1.141487061977386475e-01 -5.264313220977783203e-01
2.583000000000000000e+03 7.023873901367187500e+01 1.155240917205810547e+01 2.773175761103630066e-02 -4.292635619640350342e-01 -1.204595416784286499e-01 -7.340980172157287598e-01
2.584000000000000000e+03 7.160613250732421875e+01 7.690043926239013672e+00 -1.265135556459426880e-01 -3.342190980911254883e-01 -1.382197886705398560e-01 -6.351621150970458984e-01
2.585000000000000000e+03 7.192118072509765625e+01 6.548913717269897461e-01 -2.708534300327301025e-01 -5.741645023226737976e-02 -9.848096966743469238e-02 -3.019745051860809326e-01
2.586000000000000000e+03 7.152857208251953125e+01 2.041260242462158203e+00 -2.789418995380401611e-01 -8.871270716190338135e-02 -1.102963760495185852e-01 -3.884302377700805664e-01
2.587000000000000000e+03 6.682440280914306641e+00 -8.114270210266113281e+00 -9.584954380989074707e-02 5.943427607417106628e-02 -1.092458050698041916e-02 -3.192456662654876709e-01
2.588000000000000000e+03 1.053299713134765625e+01 -1.005448055267333984e+01 5.711463838815689087e-02 2.611189484596252441e-01 9.547007083892822266e-02 -1.761036217212677002e-01
2.589000000000000000e+03 1.539006519317626953e+01 -1.134255027770996094e+01 3.813109397888183594e-01 6.776426732540130615e-02 1.347225606441497803e-01 1.925046672113239765e-03
2.590000000000000000e+03 2.091770935058593750e+01 -1.110416221618652344e+01 5.065830945968627930e-01 -3.424965441226959229e-01 4.922596737742424011e-02 3.736756974831223488e-03
2.591000000000000000e+03 7.272219848632812500e+01 4.491402208805084229e-01 -2.139721959829330444e-01 -8.241388946771621704e-02 -8.891582489013671875e-02 -2.652558088302612305e-01
2.592000000000000000e+03 2.740596961975097656e+01 -1.200208950042724609e+01 1.241613149642944336e+00 -6.010320186614990234e-01 1.921743452548980713e-01 4.901079237461090088e-01
2.593000000000000000e+03 2.944793510437011719e+01 -1.166077327728271484e+01 1.649355888366699219e+00 -3.673462867736816406e-01 3.846028745174407959e-01 6.420106291770935059e-01
2.594000000000000000e+03 7.165583038330078125e+01 -4.238881587982177734e+00 -1.485348343849182129e-01 -1.305360067635774612e-02 -4.847653210163116455e-02 -5.453301593661308289e-02
2.595000000000000000e+03 6.925926208496093750e+01 -5.808435440063476562e+00 -1.333215981721878052e-01 -9.711151011288166046e-03 -4.290982708334922791e-02 -5.026555620133876801e-03
2.596000000000000000e+03 1.068424701690673828e+01 1.337616825103759766e+01 8.362826520169619471e-06 2.386201413173694164e-05 9.667452104622498155e-06 -2.050431430689059198e-05
2.597000000000000000e+03 2.550315666198730469e+01 -1.106428527832031250e+01 9.967787265777587891e-01 -6.844790577888488770e-01 9.368991106748580933e-02 1.541972607374191284e-01
2.598000000000000000e+03 7.706766605377197266e+00 1.165614128112792969e+01 -1.875867565104272217e-05 -7.962273230077698827e-05 -2.951442183984909207e-05 2.932931602117605507e-05
2.599000000000000000e+03 6.915500164031982422e+00 2.106579017639160156e+01 4.281371366232633591e-05 -2.193225918745156378e-05 6.264435796765610576e-06 -7.018940232228487730e-05
2.600000000000000000e+03 7.093349933624267578e+00 -9.603558540344238281e+00 -3.290891647338867188e-02 1.125947758555412292e-01 2.390575781464576721e-02 -3.141213059425354004e-01
2.601000000000000000e+03 8.502241134643554688e+00 -9.619090080261230469e+00 -2.045297995209693909e-02 1.911719888448715210e-01 5.121570453047752380e-02 -2.702054977416992188e-01
2.602000000000000000e+03 7.238031005859375000e+01 -3.040617465972900391e+00 -1.722190976142883301e-01 -2.169463224709033966e-02 -5.817411839962005615e-02 -1.015173122286796570e-01
2.603000000000000000e+03 7.241760253906250000e+01 -1.823434472084045410e+00 -2.018730938434600830e-01 -3.048029541969299316e-02 -6.970601528882980347e-02 -1.517940759658813477e-01
2.604000000000000000e+03 8.612536430358886719e+00 -1.080724811553955078e+01 6.728082150220870972e-02 2.447709888219833374e-01 9.361554682254791260e-02 -2.437516748905181885e-01
2.605000000000000000e+03 8.300945281982421875e+00 1.795184516906738281e+01 2.166452759411185980e-05 -8.926539521780796349e-06 3.821396603598259389e-06 1.831157351261936128e-05
2.606000000000000000e+03 6.863609313964843750e+00 2.248369026184082031e+01 -5.107253309688530862e-05 5.251540642348118126e-05 4.328621230342832860e-07 3.604529410949908197e-05
2.607000000000000000e+03 7.217861175537109375e+01 -4.958992958068847656e+00 -1.166444197297096252e-01 -2.247172221541404724e-02 -4.173484444618225098e-02 -4.035803303122520447e-02
2.608000000000000000e+03 8.589163780212402344e+00 8.704716682434082031e+00 -3.798657780862413347e-05 -4.867202005698345602e-05 -2.599757863208651543e-05 1.201633403979940340e-05
2.609000000000000000e+03 6.155905914306640625e+01 5.211205482482910156e+00 -7.540940046310424805e-01 1.273877173662185669e-01 -1.880118846893310547e-01 -9.106782078742980957e-01
2.610000000000000000e+03 1.125823879241943359e+01 3.250160980224609375e+01 -7.276667747646570206e-05 -3.547377127688378096e-04 -1.282513112528249621e-04 -3.824071900453418493e-04
2.611000000000000000e+03 1.661785507202148438e+01 -1.128344440460205078e+01 3.972456157207489014e-01 -2.100653015077114105e-02 1.128717213869094849e-01 6.927161943167448044e-03
2.612000000000000000e+03 1.730425643920898438e+01 -9.643421173095703125e+00 2.014008164405822754e-01 -8.589500188827514648e-02 3.465174511075019836e-02 -4.884737357497215271e-02
2.613000000000000000e+03 7.018347930908203125e+01 4.896234035491943359e+00 -2.801242470741271973e-01 -1.290123462677001953e-01 -1.227409839630126953e-01 -6.032316684722900391e-01
2.614000000000000000e+03 5.087317657470703125e+01 7.392725944519042969e+00 1.113711073994636536e-01 6.461840271949768066e-01 2.272665500640869141e-01 -4.573988616466522217e-01
2.615000000000000000e+03 5.260432815551757812e+01 1.331560516357421875e+01 1.265488862991333008e+00 1.443576812744140625e+00 8.127197027206420898e-01 5.255102366209030151e-02
2.616000000000000000e+03 1.027149009704589844e+01 1.168938159942626953e+01 4.744193938677199185e-05 1.885688106995075941e-05 1.988964686461258680e-05 -9.599909390090033412e-06
2.617000000000000000e+03 7.213047027587890625e+00 1.052872371673583984e+01 2.464470162522047758e-05 4.824093048227950931e-05 2.186568963224999607e-05 -2.599342042231000960e-05
2.618000000000000000e+03 4.850536346435546875e+01 1.169064521789550781e+01 1.527548432350158691e+00 2.636020421981811523e+00 1.249070644378662109e+00 8.213488459587097168e-01
2.619000000000000000e+03 6.912580108642578125e+01 2.767444419860839844e+01 2.304552644491195679e-01 -5.253694057464599609e-01 -8.847424387931823730e-02 -1.654523313045501709e-01
2.620000000000000000e+03 5.624349594116210938e+01 8.705185890197753906e+00 7.771989703178405762e-02 3.528231978416442871e-01 1.291629225015640259e-01 -8.632981777191162109e-01
2.621000000000000000e+03 9.399314880371093750e+00 1.958519744873046875e+01 3.455154364928603172e-05 -1.868362232926301658e-05 4.760376214107964188e-06 1.354619507765164599e-05
2.622000000000000000e+03 7.175386047363281250e+01 1.640507507324218750e+01 1.421214789152145386e-01 -7.473993897438049316e-01 -1.815833747386932373e-01 -5.611761212348937988e-01
2.623000000000000000e+03 6.983527374267578125e+01 1.279620933532714844e+01 9.969213604927062988e-02 -4.454780220985412598e-01 -1.037357673048973083e-01 -7.259100675582885742e-01
2.624000000000000000e+03 9.806125640869140625e+00 -9.611409187316894531e+00 3.081916074734181166e-04 2.255621999502182007e-01 6.776111572980880737e-02 -2.227826416492462158e-01
2.625000000000000000e+03 2.932979774475097656e+01 -1.261632823944091797e+01 1.430381417274475098e+00 -3.148022294044494629e-01 3.346737623214721680e-01 7.285454273223876953e-01
2.626000000000000000e+03 4.999570846557617188e+01 8.048993110656738281e+00 5.883865952491760254e-01 9.317512512207031250e-01 4.560413658618927002e-01 -1.121458113193511963e-01
2.627000000000000000e+03 7.021012115478515625e+01 2.005801963806152344e+01 2.572678327560424805e-01 -6.501864790916442871e-01 -1.178755983710289001e-01 -4.604970812797546387e-01
2.628000000000000000e+03 4.458143234252929688e+01 -3.142307853698730469e+01 -1.338626295328140259e-01 2.385380506515502930e+00 6.754553318023681641e-01 -6.992036700248718262e-01
2.629000000000000000e+03 7.198194122314453125e+01 2.004938697814941406e+01 1.758790761232376099e-01 -8.716885447502136230e-01 -2.087428420782089233e-01 -4.265629947185516357e-01
2.630000000000000000e+03 9.418110847473144531e+00 1.037647819519042969e+01 -2.739755473157856613e-05 -7.095268665580078959e-05 -2.950507223431486636e-05 -2.373315510340034962e-05
2.631000000000000000e+03 5.399570465087890625e+01 9.754618644714355469e+00 5.980696082115173340e-01 6.491302251815795898e-01 3.741599619388580322e-01 -5.801652669906616211e-01
2.632000000000000000e+03 6.183409881591796875e+01 6.701978683471679688e+00 -4.569610655307769775e-01 1.185796558856964111e-01 -1.015144288539886475e-01 -9.480390548706054688e-01
2.633000000000000000e+03 7.056507873535156250e+01 1.583260250091552734e+01 1.771470755338668823e-01 -6.030403375625610352e-01 -1.277679800987243652e-01 -6.228480339050292969e-01
2.634000000000000000e+03 5.865164566040039062e+01 5.895545959472656250e+00 -7.579997181892395020e-01 1.944749653339385986e-01 -1.690574139356613159e-01 -9.678689837455749512e-01
2.635000000000000000e+03 5.746831893920898438e+01 7.960031032562255859e+00 -2.269636094570159912e-01 2.692514359951019287e-01 1.268635131418704987e-02 -9.424812793731689453e-01
2.636000000000000000e+03 7.241699981689453125e+01 1.402568817138671875e+00 -2.309283018112182617e-01 -9.538955241441726685e-02 -9.789535403251647949e-02 -3.321099281311035156e-01
2.637000000000000000e+03 7.054253387451171875e+01 -2.380374193191528320e+00 -2.759709954261779785e-01 1.846116222441196442e-02 -7.725295424461364746e-02 -1.293268203735351562e-01
2.638000000000000000e+03 4.370169448852539062e+01 -3.376966476440429688e+01 -3.726300001144409180e-01 2.556420087814331055e+00 6.551370024681091309e-01 -5.676519870758056641e-01
2.639000000000000000e+03 5.126972961425781250e+01 1.747402191162109375e+01 1.259955525398254395e+00 2.561449766159057617e+00 1.146421551704406738e+00 4.958740770816802979e-01
2.640000000000000000e+03 4.914632415771484375e+01 8.820405960083007812e+00 1.005936026573181152e+00 1.472145795822143555e+00 7.434245347976684570e-01 3.016740679740905762e-01
2.641000000000000000e+03 5.020773696899414062e+01 1.221069335937500000e+01 1.392906427383422852e+00 1.926044702529907227e+00 9.956853389739990234e-01 4.295672178268432617e-01
2.642000000000000000e+03 7.035002136230468750e+01 2.363633871078491211e+00 -3.498510122299194336e-01 -4.309442639350891113e-02 -1.178836300969123840e-01 -4.479659795761108398e-01
2.643000000000000000e+03 3.932822799682617188e+01 -3.377586364746093750e+01 -5.676555037498474121e-01 3.267995357513427734e+00 8.101019263267517090e-01 -2.742749154567718506e-01
2.644000000000000000e+03 4.158275604248046875e+01 -3.421371841430664062e+01 -5.055408477783203125e-01 2.939825773239135742e+00 7.302854657173156738e-01 -4.784286022186279297e-01
2.645000000000000000e+03 8.106216430664062500e+00 2.109992599487304688e+01 7.753567479085177183e-05 1.222624518959491979e-06 2.362749000894837081e-05 6.366078014252707362e-05
2.646000000000000000e+03 6.526795196533203125e+01 3.343436241149902344e+00 -7.014098763465881348e-01 1.068954169750213623e-01 -1.783543378114700317e-01 -6.801367402076721191e-01
2.647000000000000000e+03 6.561891937255859375e+01 4.621765613555908203e+00 -5.656124949455261230e-01 7.552932202816009521e-02 -1.470249593257904053e-01 -7.599437832832336426e-01
2.648000000000000000e+03 5.188877487182617188e+01 2.291919898986816406e+01 9.323889613151550293e-01 2.844180345535278320e+00 1.132970809936523438e+00 4.007997512817382812e-01
2.649000000000000000e+03 1.014981651306152344e+01 1.483806228637695312e+01 2.471776383572432678e-07 -2.105447674694005400e-05 -6.242189556360244751e-06 4.221630206302506849e-06
2.650000000000000000e+03 7.429968261718750000e+01 3.813409805297851562e+01 3.079085238277912140e-02 -1.411605954170227051e+00 -4.142445027828216553e-01 -3.690593689680099487e-02
2.651000000000000000e+03 3.416970062255859375e+01 -1.255887699127197266e+01 1.268774271011352539e+00 3.125717163085937500e+00 1.318347334861755371e+00 6.370632052421569824e-01
2.652000000000000000e+03 3.747441482543945312e+01 -7.464815139770507812e+00 5.776324272155761719e+00 8.238713264465332031e+00 4.204511165618896484e+00 1.398333668708801270e+00
2.653000000000000000e+03 3.690651702880859375e+01 -9.724708557128906250e+00 1.909598946571350098e+00 7.818618297576904297e+00 2.918465137481689453e+00 1.732742905616760254e+00
2.654000000000000000e+03 3.723900222778320312e+01 -1.005003547668457031e+01 1.264710903167724609e+00 8.438194274902343750e+00 2.910871744155883789e+00 1.455359220504760742e+00
2.655000000000000000e+03 3.653374099731445312e+01 -5.801519393920898438e+00 2.780514001846313477e+00 6.090888023376464844e+00 2.661420583724975586e+00 -1.380304992198944092e-01
2.656000000000000000e+03 3.700780868530273438e+01 -9.125473976135253906e+00 2.772709131240844727e+00 7.996977329254150391e+00 3.230906009674072266e+00 2.121505498886108398e+00
2.657000000000000000e+03 3.700532913208007812e+01 -5.462975502014160156e+00 2.144689798355102539e+00 7.378327846527099609e+00 2.856905221939086914e+00 -2.153161019086837769e-01
2.658000000000000000e+03 3.665496444702148438e+01 -4.285723686218261719e+00 1.280093044042587280e-01 6.427294254302978516e+00 1.966591119766235352e+00 2.396624162793159485e-02
2.659000000000000000e+03 3.820380783081054688e+01 -1.196137142181396484e+01 -1.530528068542480469e-01 8.529195785522460938e+00 2.512842893600463867e+00 -5.834356546401977539e-01
2.660000000000000000e+03 3.862433242797851562e+01 -1.156441020965576172e+01 -3.213913142681121826e-01 9.147995948791503906e+00 2.647981405258178711e+00 -7.920364737510681152e-01
2.661000000000000000e+03 3.856474685668945312e+01 -1.078211498260498047e+01 -3.119169473648071289e-01 9.949612617492675781e+00 2.891308784484863281e+00 -3.580906391143798828e-01
2.662000000000000000e+03 1.104961585998535156e+01 -7.357702732086181641e+00 -1.580245792865753174e-01 1.588547974824905396e-01 2.490675833541899920e-04 -2.011661529541015625e-01
2.663000000000000000e+03 1.033595657348632812e+01 -7.400904655456542969e+00 -1.533882170915603638e-01 1.540060192346572876e-01 1.853387511800974607e-04 -2.222787141799926758e-01
2.664000000000000000e+03 3.823826980590820312e+01 -3.264912366867065430e+00 -1.577915906906127930e+00 8.730589866638183594e+00 2.145802259445190430e+00 1.193254709243774414e+00
2.665000000000000000e+03 8.263680458068847656e+00 7.183530330657958984e+00 -1.587225415278226137e-05 -7.299369826796464622e-06 -6.951487193873617798e-06 2.882915214286185801e-05
2.666000000000000000e+03 9.020957946777343750e+00 7.134036064147949219e+00 1.352417029920616187e-06 1.948887074831873178e-05 6.252386356209171936e-06 -2.211467290180735290e-05
2.667000000000000000e+03 3.596039199829101562e+01 -8.967659950256347656e+00 3.121590614318847656e+00 5.545398712158203125e+00 2.600096702575683594e+00 1.696668267250061035e+00
2.668000000000000000e+03 3.773449325561523438e+01 -1.228898715972900391e+01 3.401786088943481445e-02 7.854736328125000000e+00 2.366626262664794922e+00 -3.142943978309631348e-01
2.669000000000000000e+03 1.249515056610107422e+01 -7.409029483795166016e+00 -1.452499777078628540e-01 1.324982792139053345e-01 -3.825510153546929359e-03 -1.617695540189743042e-01
2.670000000000000000e+03 3.248692703247070312e+01 -6.658031463623046875e+00 2.047247171401977539e+00 2.752892374992370605e-01 6.967608928680419922e-01 -7.758950442075729370e-02
2.671000000000000000e+03 2.005677986145019531e+01 -8.269529342651367188e+00 9.336734563112258911e-02 -2.399592250585556030e-01 -4.397756233811378479e-02 -1.311506032943725586e-01
2.672000000000000000e+03 3.600752258300781250e+01 -4.996735095977783203e+00 1.386929988861083984e+00 5.078146934509277344e+00 1.939523100852966309e+00 -1.932200342416763306e-01
2.673000000000000000e+03 1.842329597473144531e+01 -8.093821525573730469e+00 2.329107373952865601e-02 -1.314119994640350342e-01 -3.243628144264221191e-02 -9.185253083705902100e-02
2.674000000000000000e+03 1.763309097290039062e+01 -8.033167839050292969e+00 -2.935623051598668098e-03 -9.830106794834136963e-02 -3.037100657820701599e-02 -8.694428205490112305e-02
2.675000000000000000e+03 2.925671005249023438e+01 -6.894175052642822266e+00 1.106101512908935547e+00 -9.916613101959228516e-01 3.433207422494888306e-02 -6.362437605857849121e-01
2.676000000000000000e+03 3.074483108520507812e+01 -6.586153030395507812e+00 1.452176570892333984e+00 -7.380478978157043457e-01 2.142386138439178467e-01 -5.159996747970581055e-01
2.677000000000000000e+03 3.298991394042968750e+01 -6.164851665496826172e+00 1.882406353950500488e+00 6.027263998985290527e-01 7.455397844314575195e-01 -1.466792821884155273e-01
2.678000000000000000e+03 1.058986473083496094e+01 6.964458465576171875e+00 7.107588771759765223e-06 4.256523607182316482e-05 1.490184786234749481e-05 -5.864123522769659758e-06
2.679000000000000000e+03 1.069520854949951172e+01 8.597974777221679688e+00 1.758986968525277916e-06 5.778759077657014132e-05 1.786397297109942883e-05 -2.880933789128903300e-05
2.680000000000000000e+03 3.865447235107421875e+01 -1.249341487884521484e+01 -1.711915135383605957e-01 8.425614356994628906e+00 2.476326942443847656e+00 -1.017041921615600586e+00
2.681000000000000000e+03 9.600123405456542969e+00 -7.364401817321777344e+00 -1.531128138303756714e-01 1.478440165519714355e-01 -1.580642070621252060e-03 -2.415758371353149414e-01
2.682000000000000000e+03 8.158209800720214844e+00 -7.256034374237060547e+00 -1.462905406951904297e-01 1.076312959194183350e-01 -1.159777585417032242e-02 -2.833092808723449707e-01
2.683000000000000000e+03 1.690555191040039062e+01 -8.685347557067871094e+00 7.181571424007415771e-02 -5.483732745051383972e-02 5.093516781926155090e-03 -6.419616937637329102e-02
2.684000000000000000e+03 1.473215484619140625e+01 -7.837480545043945312e+00 -7.419283688068389893e-02 6.648256629705429077e-02 -2.313079312443733215e-03 -9.293539077043533325e-02
2.685000000000000000e+03 1.793735694885253906e+01 -1.028383445739746094e+01 3.120673298835754395e-01 -1.286410540342330933e-01 5.502787977457046509e-02 -2.621835470199584961e-02
2.686000000000000000e+03 3.785702133178710938e+01 -1.877715349197387695e+00 -2.604033946990966797e+00 7.416985511779785156e+00 1.443885564804077148e+00 9.389920234680175781e-01
2.687000000000000000e+03 1.438195037841796875e+01 -9.926589965820312500e+00 1.681290268898010254e-01 1.186120286583900452e-01 8.602231740951538086e-02 -5.081256851553916931e-02
2.688000000000000000e+03 1.618439865112304688e+01 -9.685248374938964844e+00 1.783197224140167236e-01 -5.168320611119270325e-03 5.194542184472084045e-02 -4.780664667487144470e-02
2.689000000000000000e+03 3.642608261108398438e+01 -1.486747741699218750e+01 -9.122018516063690186e-02 5.486370563507080078e+00 1.618545055389404297e+00 -2.566328942775726318e-01
2.690000000000000000e+03 3.712222671508789062e+01 -1.073620223999023438e+01 8.038943409919738770e-01 7.971089839935302734e+00 2.632495164871215820e+00 9.581856131553649902e-01
2.691000000000000000e+03 6.969084167480468750e+01 -3.194514989852905273e+00 -2.868864536285400391e-01 2.751220390200614929e-02 -7.781227678060531616e-02 -7.952573150396347046e-02
2.692000000000000000e+03 1.152958297729492188e+01 -9.292154312133789062e+00 6.243982352316379547e-03 2.155694365501403809e-01 6.654402613639831543e-02 -1.620004624128341675e-01
2.693000000000000000e+03 1.148458957672119141e+01 -1.018374061584472656e+01 1.115267500281333923e-01 2.533698081970214844e-01 1.094689741730690002e-01 -1.332291960716247559e-01
2.694000000000000000e+03 3.743742370605468750e+01 -2.694701671600341797e+00 -2.065828323364257812e+00 7.268282413482666016e+00 1.560736179351806641e+00 7.186503410339355469e-01
2.695000000000000000e+03 3.686679840087890625e+01 -3.692409753799438477e+00 -8.423615097999572754e-01 6.571738719940185547e+00 1.718813180923461914e+00 3.552756011486053467e-01
2.696000000000000000e+03 2.319861030578613281e+01 -7.198224067687988281e+00 6.056635454297065735e-02 -4.364905059337615967e-01 -1.127772480249404907e-01 -3.747414052486419678e-01
2.697000000000000000e+03 3.038161277770996094e+01 -7.339097023010253906e+00 1.679813265800476074e+00 -6.973831057548522949e-01 2.947290241718292236e-01 -3.160555958747863770e-01
2.698000000000000000e+03 7.785105705261230469e+00 9.116235733032226562e+00 3.333184940856881440e-05 3.769750037463381886e-05 2.130880602635443211e-05 -1.462834370613563806e-05
2.699000000000000000e+03 2.774380302429199219e+01 -7.141028881072998047e+00 7.730506658554077148e-01 -9.729260802268981934e-01 -5.996261909604072571e-02 -6.593961119651794434e-01
2.700000000000000000e+03 2.801648330688476562e+01 -9.479654312133789062e+00 1.468234896659851074e+00 -8.337018489837646484e-01 1.903599351644515991e-01 8.063642308115959167e-03
2.701000000000000000e+03 1.162993049621582031e+01 9.515074729919433594e+00 7.714772800682112575e-05 -1.930468533828388900e-05 1.735291334625799209e-05 6.502544351860706229e-07
2.702000000000000000e+03 2.316140556335449219e+01 -9.989996910095214844e+00 6.027413010597229004e-01 -5.476520657539367676e-01 1.652678661048412323e-02 -7.218775153160095215e-02
2.703000000000000000e+03 2.176718330383300781e+01 -8.343060493469238281e+00 1.906172484159469604e-01 -3.658478260040283203e-01 -5.256917700171470642e-02 -1.997623741626739502e-01
2.704000000000000000e+03 9.782075881958007812e+00 7.083821773529052734e+00 -8.196295311790890992e-06 -2.802531344059389085e-05 -1.086648262571543455e-05 1.509333924332167953e-05
2.705000000000000000e+03 7.497452735900878906e+00 -8.149031639099121094e+00 -1.027971506118774414e-01 9.644538164138793945e-02 -1.905531156808137894e-03 -3.040744662284851074e-01
2.706000000000000000e+03 9.157240867614746094e+00 -1.020558834075927734e+01 4.553823545575141907e-02 2.343834936618804932e-01 8.397651463747024536e-02 -2.329190969467163086e-01
2.707000000000000000e+03 6.591291809082031250e+01 5.942862987518310547e+00 -4.309207201004028320e-01 7.829809561371803284e-03 -1.269272714853286743e-01 -8.264995813369750977e-01
2.708000000000000000e+03 1.916205024719238281e+01 -1.040932559967041016e+01 3.584069907665252686e-01 -2.229497432708740234e-01 4.063717648386955261e-02 -3.154793754220008850e-02
2.709000000000000000e+03 2.071349716186523438e+01 -1.014303207397460938e+01 4.053575098514556885e-01 -3.360001444816589355e-01 2.080721035599708557e-02 -5.135373771190643311e-02
2.710000000000000000e+03 2.400441551208496094e+01 -1.197446727752685547e+01 8.192543387413024902e-01 -5.457670092582702637e-01 8.204618841409683228e-02 1.771454811096191406e-01
2.711000000000000000e+03 9.766888618469238281e+00 8.017628669738769531e+00 1.266408889932790771e-05 2.503503674233797938e-05 1.130973760155029595e-05 -2.615425000840332359e-05
2.712000000000000000e+03 1.353805732727050781e+01 -1.025318622589111328e+01 1.784778982400894165e-01 1.959866434335708618e-01 1.123393625020980835e-01 -6.161827221512794495e-02
2.713000000000000000e+03 3.658161163330078125e+01 -1.409285163879394531e+01 7.200369983911514282e-02 5.787906169891357422e+00 1.757972955703735352e+00 -1.790592074394226074e-01
2.714000000000000000e+03 2.766898345947265625e+01 -1.116703987121582031e+01 1.400521755218505859e+00 -6.985831856727600098e-01 2.105815857648849487e-01 3.673460483551025391e-01
2.715000000000000000e+03 6.918388366699218750e+01 1.142588996887207031e+01 3.683025762438774109e-02 -3.571833372116088867e-01 -9.610591828823089600e-02 -7.721908092498779297e-01
2.716000000000000000e+03 6.918454742431640625e+01 1.041884326934814453e+01 -2.180270478129386902e-02 -3.173671066761016846e-01 -1.017509400844573975e-01 -7.862941622734069824e-01
2.717000000000000000e+03 1.914267539978027344e+01 -9.040037155151367188e+00 1.864837557077407837e-01 -2.054553627967834473e-01 -5.691481754183769226e-03 -8.272781968116760254e-02
2.718000000000000000e+03 2.322852897644042969e+01 -1.222637748718261719e+01 7.285943627357482910e-01 -4.827994108200073242e-01 7.373848557472229004e-02 1.514376103878021240e-01
2.719000000000000000e+03 2.483108139038085938e+01 -1.167068099975585938e+01 9.017090201377868652e-01 -6.061964035034179688e-01 8.865379542112350464e-02 1.925583332777023315e-01
2.720000000000000000e+03 2.479303932189941406e+01 -7.950132369995117188e+00 4.506617486476898193e-01 -6.617839932441711426e-01 -6.333667039871215820e-02 -3.855881690979003906e-01
2.721000000000000000e+03 1.555266952514648438e+01 -1.015620517730712891e+01 2.303147912025451660e-01 4.014418274164199829e-02 8.113769441843032837e-02 -3.356627374887466431e-02
2.722000000000000000e+03 2.403467750549316406e+01 -7.831459999084472656e+00 3.135022521018981934e-01 -5.833613276481628418e-01 -8.095772564411163330e-02 -3.775814175605773926e-01
2.723000000000000000e+03 1.927368164062500000e+01 -1.124490451812744141e+01 4.713857173919677734e-01 -2.313196957111358643e-01 7.201980799436569214e-02 7.252335548400878906e-03
2.724000000000000000e+03 9.606878280639648438e+00 1.303860378265380859e+01 -4.533896208158694208e-05 -3.089691017521545291e-05 -2.287076131324283779e-05 8.495494512317236513e-06
2.725000000000000000e+03 8.543066024780273438e+00 1.253629398345947266e+01 3.935250060749240220e-05 7.318434654735028744e-05 3.376105451025068760e-05 -3.280521923443302512e-06
2.726000000000000000e+03 6.958625793457031250e+01 -4.566407680511474609e+00 -1.989368945360183716e-01 4.530797246843576431e-03 -5.832182988524436951e-02 -3.279846906661987305e-02
2.727000000000000000e+03 7.161804199218750000e+01 -3.176626265048980713e-01 -2.716557979583740234e-01 -2.867205254733562469e-02 -9.009835124015808105e-02 -2.484064996242523193e-01
2.728000000000000000e+03 6.598017883300781250e+01 1.833362579345703125e+00 -7.279284596443176270e-01 1.296614259481430054e-01 -1.794801205396652222e-01 -5.157118439674377441e-01
2.729000000000000000e+03 6.820648193359375000e+01 3.648012638092041016e+00 -4.563530385494232178e-01 1.291370484977960587e-02 -1.330318003892898560e-01 -6.071094274520874023e-01
2.730000000000000000e+03 6.645900726318359375e+01 3.010770797729492188e+00 -6.272737979888916016e-01 1.028144285082817078e-01 -1.573378145694732666e-01 -6.100961565971374512e-01
2.731000000000000000e+03 6.294525909423828125e+01 5.056654930114746094e+00 -6.829584836959838867e-01 1.281115710735321045e-01 -1.664540618658065796e-01 -8.546326756477355957e-01
2.732000000000000000e+03 6.847863006591796875e+01 2.025097465515136719e+01 3.322222530841827393e-01 -4.419902265071868896e-01 -3.293038904666900635e-02 -4.638297557830810547e-01
2.733000000000000000e+03 6.852851867675781250e+01 1.861800003051757812e+01 3.175628185272216797e-01 -4.451538324356079102e-01 -3.827730193734169006e-02 -5.357558727264404297e-01
2.734000000000000000e+03 2.873486900329589844e+01 -1.050425052642822266e+01 1.668316364288330078e+00 -6.391185522079467773e-01 3.087593615055084229e-01 3.296599686145782471e-01
2.735000000000000000e+03 2.725470924377441406e+01 -9.277825355529785156e+00 1.262936830520629883e+00 -8.473638296127319336e-01 1.246718913316726685e-01 -8.724748343229293823e-02
2.736000000000000000e+03 7.013065338134765625e+01 6.752232074737548828e+00 -2.111012786626815796e-01 -2.105233669281005859e-01 -1.264874041080474854e-01 -6.838231682777404785e-01
2.737000000000000000e+03 3.031688690185546875e+01 -1.182085418701171875e+01 1.749019861221313477e+00 -8.536770194768905640e-02 4.990956187248229980e-01 6.814414262771606445e-01
2.738000000000000000e+03 6.939363098144531250e+01 1.414455890655517578e+01 1.612304896116256714e-01 -4.457835555076599121e-01 -8.536592125892639160e-02 -7.109801173210144043e-01
2.739000000000000000e+03 7.005420684814453125e+01 1.719505691528320312e+01 2.355347573757171631e-01 -5.775943994522094727e-01 -1.026178970932960510e-01 -5.816282033920288086e-01
2.740000000000000000e+03 6.908422851562500000e+01 9.314483642578125000e+00 -8.644565194845199585e-02 -2.615687847137451172e-01 -1.044043302536010742e-01 -7.775337100028991699e-01
2.741000000000000000e+03 7.036460113525390625e+01 9.139906883239746094e+00 -8.635166287422180176e-02 -3.343468010425567627e-01 -1.262095421552658081e-01 -7.254189252853393555e-01
2.742000000000000000e+03 7.141747283935546875e+01 -5.512654304504394531e+00 -1.032435446977615356e-01 -1.648766547441482544e-02 -3.591936081647872925e-02 -2.715307287871837616e-02
2.743000000000000000e+03 1.994232368469238281e+01 -9.217476844787597656e+00 2.287965416908264160e-01 -2.673821747303009033e-01 -1.157569140195846558e-02 -1.035328879952430725e-01
2.744000000000000000e+03 8.514165878295898438e+00 -8.520468711853027344e+00 -8.749632537364959717e-02 1.513549834489822388e-01 1.915759779512882233e-02 -2.766311466693878174e-01
2.745000000000000000e+03 7.854641914367675781e+00 -8.972202301025390625e+00 -5.757664889097213745e-02 1.377853602170944214e-01 2.406261488795280457e-02 -2.955001890659332275e-01
2.746000000000000000e+03 1.630718421936035156e+01 -8.753848075866699219e+00 6.612312793731689453e-02 -7.864478975534439087e-03 1.747759431600570679e-02 -6.288220733404159546e-02
2.747000000000000000e+03 6.043006515502929688e+01 7.018991470336914062e+00 -4.572307169437408447e-01 1.408216357231140137e-01 -9.492272883653640747e-02 -9.833426475524902344e-01
2.748000000000000000e+03 2.682956695556640625e+01 -7.321272850036621094e+00 6.372814774513244629e-01 -8.864184617996215820e-01 -7.474110275506973267e-02 -6.105005741119384766e-01
2.749000000000000000e+03 6.852941131591796875e+01 1.888023972511291504e+00 -4.876835644245147705e-01 4.897805675864219666e-02 -1.316116601228713989e-01 -4.664565026760101318e-01
2.750000000000000000e+03 9.995193481445312500e+00 3.031805419921875000e+01 3.322850170661695302e-05 -3.372026258148252964e-04 -9.119223250309005380e-05 -3.521509352140128613e-04
2.751000000000000000e+03 8.140638351440429688e+00 1.001744079589843750e+01 -1.593558954482432455e-05 -6.671802111668512225e-05 -2.479608338035177439e-05 8.495526344631798565e-06
2.752000000000000000e+03 6.700672912597656250e+01 2.829196357727050781e+01 2.825934588909149170e-01 -1.211765632033348083e-01 4.842506721615791321e-02 -1.260306537151336670e-01
2.753000000000000000e+03 6.676763153076171875e+01 2.609916496276855469e+01 3.320561051368713379e-01 -1.388971656560897827e-01 5.794768407940864563e-02 -1.793234050273895264e-01
2.754000000000000000e+03 6.933120727539062500e+01 -2.396795153617858887e-01 -4.312085211277008057e-01 4.328001663088798523e-02 -1.163785457611083984e-01 -2.820207178592681885e-01
2.755000000000000000e+03 6.959605407714843750e+01 -1.706890940666198730e+00 -3.727013170719146729e-01 4.137365147471427917e-02 -9.939830005168914795e-02 -1.756741106510162354e-01
2.756000000000000000e+03 7.171659088134765625e+01 2.172839736938476562e+01 1.931421458721160889e-01 -8.767081499099731445e-01 -2.050698101520538330e-01 -3.682924807071685791e-01
2.757000000000000000e+03 6.319599533081054688e+01 6.447818279266357422e+00 -4.814263284206390381e-01 7.481810450553894043e-02 -1.219824627041816711e-01 -9.348247051239013672e-01
2.758000000000000000e+03 7.014321899414062500e+01 2.179541778564453125e+01 2.435916662216186523e-01 -6.631655693054199219e-01 -1.258721649646759033e-01 -3.837999403476715088e-01
2.759000000000000000e+03 5.701245880126953125e+01 1.007161617279052734e+01 2.990168631076812744e-01 3.761411905288696289e-01 2.025474160909652710e-01 -8.004286289215087891e-01
2.760000000000000000e+03 1.097784328460693359e+01 1.049950790405273438e+01 -7.348230428760871291e-05 -9.701673661766108125e-06 -2.495519402145873755e-05 6.853546437923796475e-06
2.761000000000000000e+03 5.199786758422851562e+01 2.080939674377441406e+01 1.088189721107482910e+00 2.696022748947143555e+00 1.135263800621032715e+00 4.075910151004791260e-01
2.762000000000000000e+03 5.088522720336914062e+01 1.504914951324462891e+01 1.394589900970458984e+00 2.336349248886108398e+00 1.119281768798828125e+00 5.038810372352600098e-01
2.763000000000000000e+03 7.069563293457031250e+01 1.433898657560348511e-01 -3.456730842590332031e-01 -1.878711045719683170e-03 -1.042655408382415771e-01 -2.884264290332794189e-01
2.764000000000000000e+03 6.855397033691406250e+01 3.303843140602111816e-01 -4.982432723045349121e-01 7.751543819904327393e-02 -1.262183487415313721e-01 -3.403705656528472900e-01
2.765000000000000000e+03 5.127547073364257812e+01 1.046736431121826172e+01 1.064138054847717285e+00 1.218535065650939941e+00 6.848019361495971680e-01 5.999749526381492615e-03
2.766000000000000000e+03 7.821675300598144531e+00 3.597916412353515625e+01 -1.327428908552974463e-04 8.047603187151253223e-04 2.016052167164161801e-04 -3.006444894708693027e-04
2.767000000000000000e+03 5.180612564086914062e+01 8.565114021301269531e+00 5.091553330421447754e-01 7.375786304473876953e-01 3.740201890468597412e-01 -3.770700097084045410e-01
2.768000000000000000e+03 5.347755813598632812e+01 8.732874870300292969e+00 2.770288586616516113e-01 5.605836510658264160e-01 2.512837648391723633e-01 -6.193035840988159180e-01
2.769000000000000000e+03 5.132063674926757812e+01 1.192024326324462891e+01 1.254277825355529785e+00 1.547987937927246094e+00 8.406797647476196289e-01 1.498735696077346802e-01
2.770000000000000000e+03 6.454708862304687500e+01 6.201682090759277344e+00 -4.544962644577026367e-01 5.815587565302848816e-02 -1.189021170139312744e-01 -8.722640275955200195e-01
2.771000000000000000e+03 3.671272277832031250e+01 -7.563502788543701172e+00 4.654582500457763672e+00 6.343571662902832031e+00 3.299446344375610352e+00 1.340901732444763184e+00
2.772000000000000000e+03 3.669588088989257812e+01 -6.595405101776123047e+00 4.124275207519531250e+00 6.319921970367431641e+00 3.133259057998657227e+00 2.900252342224121094e-01
2.773000000000000000e+03 3.780062484741210938e+01 -1.151090335845947266e+01 4.120791330933570862e-02 8.513137817382812500e+00 2.566303730010986328e+00 -1.282316748984158039e-03
2.774000000000000000e+03 3.824362182617187500e+01 -3.852136373519897461e+00 -1.021688938140869141e+00 9.298036575317382812e+00 2.482904195785522461e+00 1.092962861061096191e+00
2.775000000000000000e+03 3.657317733764648438e+01 -7.917073249816894531e+00 4.380759239196777344e+00 6.245686531066894531e+00 3.187933683395385742e+00 1.569755673408508301e+00
2.776000000000000000e+03 3.646548843383789062e+01 -8.260478019714355469e+00 3.959452629089355469e+00 6.184980869293212891e+00 3.043329954147338867e+00 1.780531764030456543e+00
2.777000000000000000e+03 3.669718551635742188e+01 -5.071689128875732422e+00 1.412971496582031250e+00 6.536121368408203125e+00 2.384727954864501953e+00 -1.793064177036285400e-01
2.778000000000000000e+03 3.702315139770507812e+01 -1.144847106933593750e+01 5.303236842155456543e-01 7.487915039062500000e+00 2.405471563339233398e+00 5.208378434181213379e-01
2.779000000000000000e+03 3.520273208618164062e+01 -5.807093620300292969e+00 2.430464982986450195e+00 3.545478105545043945e+00 1.792782902717590332e+00 -4.026595503091812134e-02
2.780000000000000000e+03 3.635823440551757812e+01 -4.734168529510498047e+00 9.618454575538635254e-01 5.813253879547119141e+00 2.032529830932617188e+00 -1.533844023942947388e-01
2.781000000000000000e+03 3.624413681030273438e+01 -5.382732868194580078e+00 2.000278234481811523e+00 5.493301391601562500e+00 2.248073816299438477e+00 -1.903703063726425171e-01
2.782000000000000000e+03 3.598831176757812500e+01 -6.061039924621582031e+00 3.026398897171020508e+00 4.958916664123535156e+00 2.395594596862792969e+00 3.850541636347770691e-02
2.783000000000000000e+03 3.434459304809570312e+01 -5.635274410247802734e+00 1.932273268699645996e+00 2.177278757095336914e+00 1.232865691184997559e+00 -9.654898941516876221e-02
2.784000000000000000e+03 3.521579742431640625e+01 -6.786904811859130859e+00 3.224626064300537109e+00 3.596543312072753906e+00 2.046350955963134766e+00 4.198352098464965820e-01
2.785000000000000000e+03 3.395574951171875000e+01 -6.941422939300537109e+00 2.741773843765258789e+00 1.809165000915527344e+00 1.365281701087951660e+00 3.460895717144012451e-01
2.786000000000000000e+03 3.346511459350585938e+01 -6.611542701721191406e+00 2.367964982986450195e+00 1.152052998542785645e+00 1.056005358695983887e+00 1.424850970506668091e-01
2.787000000000000000e+03 3.387762832641601562e+01 -6.120805740356445312e+00 2.139490604400634766e+00 1.579427123069763184e+00 1.115675330162048340e+00 1.503051817417144775e-02
2.788000000000000000e+03 3.772334671020507812e+01 -4.473865985870361328e+00 -1.100295707583427429e-01 8.827516555786132812e+00 2.615246295928955078e+00 4.582318961620330811e-01
2.789000000000000000e+03 3.744428253173828125e+01 -1.110826873779296875e+01 3.723466992378234863e-01 8.345397949218750000e+00 2.615323543548583984e+00 5.013383030891418457e-01
2.790000000000000000e+03 2.202855300903320312e+01 -9.366685867309570312e+00 3.980417847633361816e-01 -4.360654354095458984e-01 -1.140709035098552704e-02 -1.294308304786682129e-01
2.791000000000000000e+03 3.140868949890136719e+01 -6.950247287750244141e+00 1.845318198204040527e+00 -3.706656992435455322e-01 4.423957467079162598e-01 -2.374351173639297485e-01
2.792000000000000000e+03 3.681003189086914062e+01 -1.038617801666259766e+01 1.291297554969787598e+00 7.539136886596679688e+00 2.649130344390869141e+00 1.283735513687133789e+00
2.793000000000000000e+03 3.728318405151367188e+01 -1.256108951568603516e+01 1.859024167060852051e-01 7.233933448791503906e+00 2.225950717926025391e+00 -1.774723380804061890e-01
2.794000000000000000e+03 3.648049545288085938e+01 -1.004470825195312500e+01 1.800291299819946289e+00 6.882434368133544922e+00 2.604817628860473633e+00 1.563181996345520020e+00
2.795000000000000000e+03 3.466553878784179688e+01 -1.315002822875976562e+01 8.338031172752380371e-01 3.736818075180053711e+00 1.371186375617980957e+00 3.782888054847717285e-01
2.796000000000000000e+03 1.116652965545654297e+01 -8.103972434997558594e+00 -9.260647743940353394e-02 1.866627186536788940e-01 2.821687236428260803e-02 -1.916995942592620850e-01
2.797000000000000000e+03 9.533529281616210938e+00 -8.212143898010253906e+00 -9.579160809516906738e-02 1.800325661897659302e-01 2.527228556573390961e-02 -2.458940446376800537e-01
2.798000000000000000e+03 3.303893280029296875e+01 -1.228828239440917969e+01 1.612699866294860840e+00 1.801354408264160156e+00 1.024216294288635254e+00 7.135686278343200684e-01
2.799000000000000000e+03 2.501889419555664062e+01 -9.002513885498046875e+00 6.884682178497314453e-01 -7.058615088462829590e-01 -5.217971745878458023e-03 -2.318058609962463379e-01
2.800000000000000000e+03 2.879829597473144531e+01 -7.807831764221191406e+00 1.355139851570129395e+00 -9.220761656761169434e-01 1.299190819263458252e-01 -3.919600844383239746e-01
2.801000000000000000e+03 2.801451492309570312e+01 -8.105651855468750000e+00 1.233073353767395020e+00 -9.255142211914062500e-01 9.226773679256439209e-02 -3.523228466510772705e-01
2.802000000000000000e+03 1.360657119750976562e+01 -8.706427574157714844e+00 -2.718677977100014687e-03 1.338211148977279663e-01 3.933072835206985474e-02 -1.098863258957862854e-01
2.803000000000000000e+03 1.056567382812500000e+01 -9.215705871582031250e+00 -1.384971663355827332e-02 2.173676341772079468e-01 6.105537712574005127e-02 -1.993827223777770996e-01
2.804000000000000000e+03 8.825819969177246094e+00 -7.976735591888427734e+00 -1.114118993282318115e-01 1.467468440532684326e-01 1.060048397630453110e-02 -2.690729498863220215e-01
2.805000000000000000e+03 1.669056892395019531e+01 -9.234023094177246094e+00 1.384026706218719482e-01 -3.898165002465248108e-02 2.982630766928195953e-02 -5.216819420456886292e-02
2.806000000000000000e+03 3.820372390747070312e+01 -1.115214538574218750e+01 -1.492005586624145508e-01 9.273282051086425781e+00 2.737224340438842773e+00 -2.148805111646652222e-01
2.807000000000000000e+03 1.420436763763427734e+01 -8.273500442504882812e+00 -3.611953929066658020e-02 1.059779450297355652e-01 2.095752209424972534e-02 -9.912636876106262207e-02
2.808000000000000000e+03 1.467426204681396484e+01 -8.860785484313964844e+00 4.732148721814155579e-02 9.071923792362213135e-02 4.141221567988395691e-02 -7.225589454174041748e-02
2.809000000000000000e+03 3.443793106079101562e+01 -1.158901882171630859e+01 1.612206935882568359e+00 3.514510869979858398e+00 1.538015365600585938e+00 8.842430710792541504e-01
2.810000000000000000e+03 3.115936851501464844e+01 -1.112061882019042969e+01 1.997682571411132812e+00 2.546170055866241455e-01 6.756898760795593262e-01 6.684276461601257324e-01
2.811000000000000000e+03 1.040736579895019531e+01 -8.302461624145507812e+00 -8.714690804481506348e-02 1.845673769712448120e-01 2.922613918781280518e-02 -2.159605473279953003e-01
2.812000000000000000e+03 6.924053192138671875e+01 2.856734991073608398e+00 -4.168758392333984375e-01 -1.942279934883117676e-02 -1.308895945549011230e-01 -5.126605629920959473e-01
2.813000000000000000e+03 6.880122375488281250e+01 6.907304286956787109e+00 -2.417585104703903198e-01 -1.460500359535217285e-01 -1.163425669074058533e-01 -7.467668056488037109e-01
2.814000000000000000e+03 1.995071220397949219e+01 -1.021160030364990234e+01 3.722635805606842041e-01 -2.769945859909057617e-01 2.858069352805614471e-02 -3.799960389733314514e-02
2.815000000000000000e+03 2.432656478881835938e+01 -1.077875328063964844e+01 8.100704550743103027e-01 -6.335016489028930664e-01 5.297064408659934998e-02 2.560652978718280792e-02
2.816000000000000000e+03 2.285404205322265625e+01 -1.134311866760253906e+01 6.858996748924255371e-01 -4.974626302719116211e-01 5.653111264109611511e-02 6.398840993642807007e-02
2.817000000000000000e+03 1.241160011291503906e+01 -8.032323837280273438e+00 -9.934242814779281616e-02 1.480361223220825195e-01 1.460810750722885132e-02 -1.575942635536193848e-01
2.818000000000000000e+03 2.645954895019531250e+01 -1.012643718719482422e+01 1.155723214149475098e+00 -7.968124747276306152e-01 1.076732128858566284e-01 3.736853972077369690e-02
2.819000000000000000e+03 1.252863788604736328e+01 -1.031775760650634766e+01 1.508928537368774414e-01 2.248144745826721191e-01 1.127121970057487488e-01 -9.830579161643981934e-02
2.820000000000000000e+03 3.067127609252929688e+01 -1.024188995361328125e+01 2.080495119094848633e+00 -8.950879424810409546e-02 5.972959399223327637e-01 4.928354024887084961e-01
2.821000000000000000e+03 3.054438400268554688e+01 -8.479884147644042969e+00 2.028744459152221680e+00 -4.450710415840148926e-01 4.751020073890686035e-01 7.125965505838394165e-02
2.822000000000000000e+03 6.986397552490234375e+01 5.854322314262390137e-01 -3.945707678794860840e-01 2.169420383870601654e-02 -1.118629723787307739e-01 -3.250531554222106934e-01
2.823000000000000000e+03 2.961600875854492188e+01 -1.072636795043945312e+01 1.845460295677185059e+00 -4.086925387382507324e-01 4.310303330421447754e-01 4.522180557250976562e-01
2.824000000000000000e+03 2.135474967956542969e+01 -9.820623397827148438e+00 3.904539346694946289e-01 -3.805448710918426514e-01 2.972719026729464531e-03 -8.949846774339675903e-02
2.825000000000000000e+03 1.839185905456542969e+01 -8.939055442810058594e+00 1.419054120779037476e-01 -1.497526615858078003e-01 -2.354175085201859474e-03 -7.195296883583068848e-02
2.826000000000000000e+03 6.720485687255859375e+01 1.698753547668457031e+01 3.494271039962768555e-01 -2.971734106540679932e-01 1.567611284554004669e-02 -6.227117180824279785e-01
2.827000000000000000e+03 6.870518493652343750e+01 1.707026100158691406e+01 2.735964953899383545e-01 -4.574359655380249023e-01 -5.515184253454208374e-02 -6.117334961891174316e-01
2.828000000000000000e+03 3.564511108398437500e+01 -1.332777881622314453e+01 4.732128083705902100e-01 4.980924606323242188e+00 1.636241197586059570e+00 1.686890274286270142e-01
2.829000000000000000e+03 3.696973037719726562e+01 -1.290027713775634766e+01 2.481507211923599243e-01 6.637852668762207031e+00 2.065801143646240234e+00 -5.759612098336219788e-02
2.830000000000000000e+03 1.146150112152099609e+01 6.788815021514892578e+00 -3.064319753320887685e-05 -4.269103737897239625e-05 -2.200026938226073980e-05 -1.461088140786159784e-05
2.831000000000000000e+03 2.484806060791015625e+01 -1.047465515136718750e+01 8.428223729133605957e-01 -6.748511195182800293e-01 5.039137601852416992e-02 -1.526498999737668782e-05
2.832000000000000000e+03 2.551794624328613281e+01 -9.485225677490234375e+00 8.883456587791442871e-01 -7.682372331619262695e-01 3.603252395987510681e-02 -1.432514190673828125e-01
2.833000000000000000e+03 5.945792770385742188e+01 8.936261177062988281e+00 -4.477846622467041016e-02 1.957451403141021729e-01 4.529000446200370789e-02 -9.576299786567687988e-01
2.834000000000000000e+03 6.754113769531250000e+01 2.519099712371826172e+00 -5.607112050056457520e-01 6.172058731317520142e-02 -1.496971845626831055e-01 -5.465431213378906250e-01
2.835000000000000000e+03 5.188188171386718750e+01 1.481197452545166016e+01 1.346367120742797852e+00 1.926756024360656738e+00 9.819369912147521973e-01 2.999327778816223145e-01
2.836000000000000000e+03 3.198634338378906250e+01 -1.174913311004638672e+01 1.910429954528808594e+00 8.816157579421997070e-01 8.376137018203735352e-01 7.902573347091674805e-01
2.837000000000000000e+03 6.081089401245117188e+01 8.511795043945312500e+00 -1.431493014097213745e-01 1.318472027778625488e-01 -3.390629542991518974e-03 -9.701078534126281738e-01
2.838000000000000000e+03 5.092530059814453125e+01 9.211915016174316406e+00 8.080296516418457031e-01 1.012829542160034180e+00 5.462577342987060547e-01 -1.550200879573822021e-01
2.839000000000000000e+03 5.230826187133789062e+01 1.752270317077636719e+01 1.261372208595275879e+00 2.243248939514160156e+00 1.051386356353759766e+00 3.766486048698425293e-01
2.840000000000000000e+03 5.257794189453125000e+01 1.062699508666992188e+01 9.311941266059875488e-01 9.984318614006042480e-01 5.788878202438354492e-01 -2.587308287620544434e-01
2.841000000000000000e+03 5.093600845336914062e+01 1.882937049865722656e+01 1.205768227577209473e+00 2.862869501113891602e+00 1.220591306686401367e+00 5.547605156898498535e-01
2.842000000000000000e+03 6.613834381103515625e+01 7.296963214874267578e+00 -2.839449346065521240e-01 -3.879187628626823425e-02 -9.682103991508483887e-02 -8.552026748657226562e-01
2.843000000000000000e+03 6.850784301757812500e+01 2.380860328674316406e+01 2.964344918727874756e-01 -4.338779151439666748e-01 -4.123302549123764038e-02 -2.975294589996337891e-01
2.844000000000000000e+03 6.873029327392578125e+01 2.571231651306152344e+01 2.768886983394622803e-01 -4.526833891868591309e-01 -5.273840576410293579e-02 -2.308527380228042603e-01
2.845000000000000000e+03 5.284797286987304688e+01 9.464591026306152344e+00 6.277401447296142578e-01 7.759280204772949219e-01 4.211004376411437988e-01 -4.407602846622467041e-01
2.846000000000000000e+03 6.874053955078125000e+01 5.630147457122802734e+00 -3.231964111328125000e-01 -9.537419676780700684e-02 -1.255711764097213745e-01 -6.977677941322326660e-01
2.847000000000000000e+03 6.473047637939453125e+01 2.421180152893066406e+01 4.652340710163116455e-01 1.210828870534896851e-01 1.758950948715209961e-01 -2.179740667343139648e-01
2.848000000000000000e+03 6.912902069091796875e+01 4.493251323699951172e+00 -3.678430616855621338e-01 -6.379073858261108398e-02 -1.294901371002197266e-01 -6.231068372726440430e-01
2.849000000000000000e+03 3.442831802368164062e+01 -7.095503807067871094e+00 2.983582019805908203e+00 2.452495098114013672e+00 1.630823135375976562e+00 5.140296816825866699e-01
2.850000000000000000e+03 3.657868194580078125e+01 -9.381515502929687500e+00 2.565391540527343750e+00 6.948426723480224609e+00 2.854145526885986328e+00 1.900088548660278320e+00
2.851000000000000000e+03 3.609812164306640625e+01 -6.527242660522460938e+00 3.547659158706665039e+00 5.105855941772460938e+00 2.596054553985595703e+00 2.638613879680633545e-01
2.852000000000000000e+03 3.640425491333007812e+01 -8.998547554016113281e+00 3.063794374465942383e+00 6.451305866241455078e+00 2.854530096054077148e+00 1.906427383422851562e+00
2.853000000000000000e+03 3.485186767578125000e+01 -1.074523448944091797e+01 1.949141621589660645e+00 4.061170101165771484e+00 1.803093433380126953e+00 1.158064246177673340e+00
2.854000000000000000e+03 3.634674835205078125e+01 -7.452677726745605469e+00 4.329454421997070312e+00 5.668688297271728516e+00 2.999442815780639648e+00 1.070850491523742676e+00
2.855000000000000000e+03 3.652511215209960938e+01 -1.255496311187744141e+01 4.447082877159118652e-01 6.312943935394287109e+00 2.027295589447021484e+00 1.640916168689727783e-01
2.856000000000000000e+03 3.612723159790039062e+01 -9.689691543579101562e+00 2.358269691467285156e+00 6.127484798431396484e+00 2.545726299285888672e+00 1.658274650573730469e+00
2.857000000000000000e+03 3.529242324829101562e+01 -9.045475959777832031e+00 3.000720262527465820e+00 4.353092670440673828e+00 2.206143856048583984e+00 1.449464678764343262e+00
2.858000000000000000e+03 3.693415832519531250e+01 -1.218264102935791016e+01 3.728958964347839355e-01 6.997723102569580078e+00 2.211185693740844727e+00 1.825073510408401489e-01
2.859000000000000000e+03 3.736888885498046875e+01 -1.184731960296630859e+01 2.114991396665573120e-01 7.776176929473876953e+00 2.396302700042724609e+00 8.906095474958419800e-02
2.860000000000000000e+03 3.607565307617187500e+01 -1.038367462158203125e+01 1.755463838577270508e+00 6.110705375671386719e+00 2.359850883483886719e+00 1.369567871093750000e+00
2.861000000000000000e+03 3.274865341186523438e+01 -1.152050971984863281e+01 1.903262495994567871e+00 1.509750247001647949e+00 1.023903846740722656e+00 8.135961294174194336e-01
2.862000000000000000e+03 3.307737350463867188e+01 -7.149933338165283203e+00 2.513909578323364258e+00 9.403432607650756836e-01 1.036275863647460938e+00 2.105906456708908081e-01
2.863000000000000000e+03 3.759703826904296875e+01 -3.259645938873291016e+00 -1.529358386993408203e+00 7.760843753814697266e+00 1.869445681571960449e+00 7.200659513473510742e-01
2.864000000000000000e+03 2.275229263305664062e+01 -9.043269157409667969e+00 3.914201855659484863e-01 -4.869365096092224121e-01 -2.865490503609180450e-02 -1.881745457649230957e-01
2.865000000000000000e+03 3.554605102539062500e+01 -6.958721160888671875e+00 3.531774520874023438e+00 4.143412590026855469e+00 2.302556037902832031e+00 5.756936669349670410e-01
2.866000000000000000e+03 3.377267837524414062e+01 -1.191340255737304688e+01 1.590717673301696777e+00 2.736607789993286133e+00 1.298197627067565918e+00 7.918128967285156250e-01
2.867000000000000000e+03 3.476708221435546875e+01 -1.219915199279785156e+01 1.203010320663452148e+00 3.997912406921386719e+00 1.560276865959167480e+00 6.734381914138793945e-01
2.868000000000000000e+03 3.640252304077148438e+01 -1.071042633056640625e+01 1.292585492134094238e+00 6.665054321289062500e+00 2.387291908264160156e+00 1.164433002471923828e+00
2.869000000000000000e+03 3.206029510498046875e+01 -7.362115383148193359e+00 2.197921752929687500e+00 7.671920210123062134e-02 6.823922991752624512e-01 3.268334642052650452e-02
2.870000000000000000e+03 3.099918365478515625e+01 -7.712843894958496094e+00 1.974130272865295410e+00 -4.071423113346099854e-01 4.700963795185089111e-01 -1.018086597323417664e-01
2.871000000000000000e+03 1.671391296386718750e+01 -1.022170734405517578e+01 2.711163163185119629e-01 -4.387497901916503906e-02 6.817239522933959961e-02 -2.947735041379928589e-02
2.872000000000000000e+03 1.301750469207763672e+01 -8.274136543273925781e+00 -6.031552702188491821e-02 1.494839638471603394e-01 2.675053104758262634e-02 -1.302216798067092896e-01
2.873000000000000000e+03 1.854874229431152344e+01 -1.095841693878173828e+01 3.993729054927825928e-01 -1.732437759637832642e-01 6.783873587846755981e-02 -7.909880951046943665e-03
2.874000000000000000e+03 2.951908874511718750e+01 -9.341773033142089844e+00 1.838464617729187012e+00 -6.161474585533142090e-01 3.666951358318328857e-01 1.401806175708770752e-01
2.875000000000000000e+03 1.030319404602050781e+01 9.867433547973632812e+00 5.218963269726373255e-05 5.944007352809421718e-05 3.348891186760738492e-05 8.406764209212269634e-06
2.876000000000000000e+03 9.023314476013183594e+00 9.462572097778320312e+00 2.749881969066336751e-05 6.225905963219702244e-05 2.692736416065599769e-05 -2.846941242751199752e-06
2.877000000000000000e+03 2.717100524902343750e+01 -8.334007263183593750e+00 1.068583846092224121e+00 -9.039252996444702148e-01 4.939754679799079895e-02 -3.319291472434997559e-01
2.878000000000000000e+03 2.651333236694335938e+01 -9.276184082031250000e+00 1.055218935012817383e+00 -8.416069746017456055e-01 6.408358365297317505e-02 -1.403084993362426758e-01
2.879000000000000000e+03 1.572718524932861328e+01 -9.090451240539550781e+00 9.872131794691085815e-02 1.904485747218132019e-02 3.532985225319862366e-02 -5.687416717410087585e-02
2.880000000000000000e+03 3.024656105041503906e+01 -9.253007888793945312e+00 2.022128343582153320e+00 -4.121088087558746338e-01 4.830058217048645020e-01 2.084376960992813110e-01
2.881000000000000000e+03 2.989158439636230469e+01 -8.033920288085937500e+00 1.725898385047912598e+00 -7.049305438995361328e-01 3.062903583049774170e-01 -1.824663579463958740e-01
2.882000000000000000e+03 2.788083457946777344e+01 -1.033044815063476562e+01 1.443728685379028320e+00 -7.548416852951049805e-01 2.066661268472671509e-01 1.769422292709350586e-01
2.883000000000000000e+03 2.876423454284667969e+01 -9.614569664001464844e+00 1.691933274269104004e+00 -7.269506454467773438e-01 2.894948124885559082e-01 1.177372485399246216e-01
2.884000000000000000e+03 3.167143440246582031e+01 -9.850846290588378906e+00 2.296876192092895508e+00 4.113869667053222656e-01 8.124788999557495117e-01 5.892827510833740234e-01
2.885000000000000000e+03 2.593555641174316406e+01 -8.989663124084472656e+00 8.690036535263061523e-01 -8.103185892105102539e-01 1.760552078485488892e-02 -2.303015738725662231e-01
2.886000000000000000e+03 3.043061447143554688e+01 -1.098475265502929688e+01 1.945818901062011719e+00 -8.196976035833358765e-02 5.591547489166259766e-01 6.234722733497619629e-01
2.887000000000000000e+03 2.430152130126953125e+01 -1.006907653808593750e+01 7.273051142692565918e-01 -6.197114586830139160e-01 3.227809816598892212e-02 -3.616834431886672974e-02
2.888000000000000000e+03 6.660659027099609375e+01 9.912723541259765625e+00 -3.376203402876853943e-02 -1.500700414180755615e-01 -5.514962226152420044e-02 -8.649303913116455078e-01
2.889000000000000000e+03 6.783617401123046875e+01 9.564476013183593750e+00 -7.694875448942184448e-02 -2.085437774658203125e-01 -8.564776182174682617e-02 -8.334130048751831055e-01
2.890000000000000000e+03 5.634060287475585938e+01 1.399293136596679688e+01 9.342901110649108887e-01 7.817087173461914062e-01 5.147996544837951660e-01 -3.882286846637725830e-01
2.891000000000000000e+03 5.221982955932617188e+01 1.905822563171386719e+01 1.175866484642028809e+00 2.462018489837646484e+00 1.091365456581115723e+00 3.965485095977783203e-01
2.892000000000000000e+03 5.368481445312500000e+01 1.222856140136718750e+01 1.056948900222778320e+00 1.040646195411682129e+00 6.292785406112670898e-01 -2.221986800432205200e-01
2.893000000000000000e+03 5.817956161499023438e+01 9.459670066833496094e+00 1.403359025716781616e-01 2.699685990810394287e-01 1.230913475155830383e-01 -8.948673009872436523e-01
2.894000000000000000e+03 5.591619110107421875e+01 1.074305057525634766e+01 5.650728344917297363e-01 5.424234867095947266e-01 3.322488963603973389e-01 -6.569007635116577148e-01
2.895000000000000000e+03 2.542117309570312500e+01 -8.407120704650878906e+00 6.400377154350280762e-01 -7.505645155906677246e-01 -3.315803408622741699e-02 -3.404452800750732422e-01
2.896000000000000000e+03 2.452917861938476562e+01 -8.637114524841308594e+00 5.601845383644104004e-01 -6.625965237617492676e-01 -3.072360157966613770e-02 -2.710694372653961182e-01
2.897000000000000000e+03 6.894573974609375000e+01 8.134097099304199219e+00 -1.621438711881637573e-01 -2.127093225717544556e-01 -1.124559640884399414e-01 -7.754796743392944336e-01
2.898000000000000000e+03 6.733155822753906250e+01 5.665612220764160156e+00 -3.836568593978881836e-01 -2.786388248205184937e-02 -1.234562247991561890e-01 -7.519955039024353027e-01
2.899000000000000000e+03 6.904627227783203125e+01 1.558594322204589844e+01 2.302963733673095703e-01 -4.522420167922973633e-01 -6.658369302749633789e-02 -6.624054908752441406e-01
2.900000000000000000e+03 5.034640502929687500e+01 2.052475547790527344e+01 1.055738210678100586e+00 3.293302774429321289e+00 1.304712295532226562e+00 5.543053150177001953e-01
2.901000000000000000e+03 5.252536773681640625e+01 1.198523426055908203e+01 1.113815307617187500e+00 1.212692022323608398e+00 6.979522109031677246e-01 -6.196218356490135193e-02
2.902000000000000000e+03 6.750514984130859375e+01 1.544327354431152344e+01 2.796839773654937744e-01 -3.233273029327392578e-01 -1.309299841523170471e-02 -6.987730860710144043e-01
2.903000000000000000e+03 6.677421569824218750e+01 2.034118080139160156e+01 4.214898049831390381e-01 -2.406021356582641602e-01 5.426630005240440369e-02 -4.480475783348083496e-01
2.904000000000000000e+03 6.348324584960937500e+01 7.856665611267089844e+00 -2.577843666076660156e-01 4.478976875543594360e-02 -6.389837712049484253e-02 -9.411399364471435547e-01
2.905000000000000000e+03 5.766943359375000000e+01 1.142407703399658203e+01 5.342370867729187012e-01 4.076322615146636963e-01 2.825608253479003906e-01 -7.410576939582824707e-01
2.906000000000000000e+03 6.844664764404296875e+01 2.198553466796875000e+01 3.267910182476043701e-01 -4.414581656455993652e-01 -3.440014645457267761e-02 -3.820443749427795410e-01
2.907000000000000000e+03 6.924042510986328125e+01 1.167489767074584961e+00 -4.411159455776214600e-01 1.949588954448699951e-02 -1.264860183000564575e-01 -3.960334658622741699e-01
2.908000000000000000e+03 6.215565109252929688e+01 8.162885665893554688e+00 -2.401026636362075806e-01 8.386687189340591431e-02 -4.687073826789855957e-02 -9.786495566368103027e-01
2.909000000000000000e+03 6.665503692626953125e+01 2.405375099182128906e+01 3.845539987087249756e-01 -1.717019230127334595e-01 6.385561823844909668e-02 -2.635671496391296387e-01
2.910000000000000000e+03 6.635367584228515625e+01 8.641108512878417969e+00 -1.573989093303680420e-01 -1.006434708833694458e-01 -7.741270959377288818e-02 -8.823298811912536621e-01
2.911000000000000000e+03 3.602591705322265625e+01 -6.974393367767333984e+00 3.956059455871582031e+00 5.013305187225341797e+00 2.690809249877929688e+00 6.147407293319702148e-01
2.912000000000000000e+03 3.558181762695312500e+01 -6.601654529571533203e+00 3.307308197021484375e+00 4.162846088409423828e+00 2.241046190261840820e+00 3.572389185428619385e-01
2.913000000000000000e+03 3.621668243408203125e+01 -7.834310054779052734e+00 4.104729652404785156e+00 5.549976348876953125e+00 2.896411895751953125e+00 1.386145949363708496e+00
2.914000000000000000e+03 3.670674896240234375e+01 -1.106928920745849609e+01 8.822346329689025879e-01 7.183391571044921875e+00 2.419687986373901367e+00 8.653050661087036133e-01
2.915000000000000000e+03 3.605192184448242188e+01 -8.570949554443359375e+00 3.538656711578369141e+00 5.587506294250488281e+00 2.737848997116088867e+00 1.720222592353820801e+00
2.916000000000000000e+03 3.470235443115234375e+01 -6.083375930786132812e+00 2.453894853591918945e+00 2.771786928176879883e+00 1.567704558372497559e+00 7.877098023891448975e-02
2.917000000000000000e+03 3.428071975708007812e+01 -6.462779998779296875e+00 2.554914236068725586e+00 2.163624763488769531e+00 1.415561676025390625e+00 2.310501337051391602e-01
2.918000000000000000e+03 3.462765502929687500e+01 -6.735527515411376953e+00 2.852869510650634766e+00 2.694130182266235352e+00 1.664099931716918945e+00 3.442553281784057617e-01
2.919000000000000000e+03 3.613723373413085938e+01 -1.211590671539306641e+01 7.525199651718139648e-01 5.861650943756103516e+00 1.984251260757446289e+00 5.059055089950561523e-01
2.920000000000000000e+03 3.571940612792968750e+01 -1.007106113433837891e+01 2.094830036163330078e+00 5.412163734436035156e+00 2.252098083496093750e+00 1.458586812019348145e+00
2.921000000000000000e+03 3.602283096313476562e+01 -1.101566600799560547e+01 1.302757501602172852e+00 6.056518077850341797e+00 2.207782745361328125e+00 1.048408269882202148e+00
2.922000000000000000e+03 3.543743896484375000e+01 -6.230592250823974609e+00 2.907972812652587891e+00 3.931230545043945312e+00 2.051760911941528320e+00 1.443253606557846069e-01
2.923000000000000000e+03 3.498897171020507812e+01 -6.453001499176025391e+00 2.851252555847167969e+00 3.200103998184204102e+00 1.815407037734985352e+00 2.490071207284927368e-01
2.924000000000000000e+03 3.366647720336914062e+01 -7.490229129791259766e+00 2.800640583038330078e+00 1.593154788017272949e+00 1.318138599395751953e+00 4.953238070011138916e-01
2.925000000000000000e+03 3.581937026977539062e+01 -1.165515327453613281e+01 1.053686141967773438e+00 5.531248092651367188e+00 1.975480198860168457e+00 7.780833244323730469e-01
2.926000000000000000e+03 3.447931671142578125e+01 -9.896867752075195312e+00 2.454511404037475586e+00 3.409400701522827148e+00 1.759173631668090820e+00 1.214230537414550781e+00
2.927000000000000000e+03 3.271918487548828125e+01 -7.796704292297363281e+00 2.537609100341796875e+00 7.485040426254272461e-01 9.858339428901672363e-01 3.790611922740936279e-01
2.928000000000000000e+03 3.165449142456054688e+01 -8.079675674438476562e+00 2.271787881851196289e+00 2.440479770302772522e-02 6.888578534126281738e-01 1.793887317180633545e-01
2.929000000000000000e+03 2.844287490844726562e+01 -8.890712738037109375e+00 1.498269081115722656e+00 -8.327934145927429199e-01 1.996426880359649658e-01 -1.041279956698417664e-01
2.930000000000000000e+03 3.126934242248535156e+01 -8.807547569274902344e+00 2.283544778823852539e+00 -2.470006793737411499e-02 6.776534318923950195e-01 2.944880127906799316e-01
2.931000000000000000e+03 6.777992248535156250e+01 1.400836277008056641e+01 2.105827778577804565e-01 -3.242619931697845459e-01 -3.410376235842704773e-02 -7.433062791824340820e-01
2.932000000000000000e+03 6.581375885009765625e+01 1.166912078857421875e+01 1.292112320661544800e-01 -1.470175683498382568e-01 -5.341900512576103210e-03 -8.530405163764953613e-01
2.933000000000000000e+03 2.995421981811523438e+01 -9.948239326477050781e+00 1.952826857566833496e+00 -3.986673951148986816e-01 4.662478268146514893e-01 3.627934157848358154e-01
2.934000000000000000e+03 1.509691047668457031e+01 -9.512063980102539062e+00 1.286114305257797241e-01 7.116303592920303345e-02 5.993233993649482727e-02 -6.059320643544197083e-02
2.935000000000000000e+03 1.405889892578125000e+01 -9.244051933288574219e+00 6.823085248470306396e-02 1.437476277351379395e-01 6.359354406595230103e-02 -7.663056254386901855e-02
2.936000000000000000e+03 6.805513000488281250e+01 1.063131141662597656e+01 5.114604718983173370e-04 -2.468484491109848022e-01 -7.390109449625015259e-02 -8.149996995925903320e-01
2.937000000000000000e+03 5.876920700073242188e+01 1.093018817901611328e+01 3.417712450027465820e-01 2.854482829570770264e-01 1.881658583879470825e-01 -8.312063217163085938e-01
2.938000000000000000e+03 6.662064361572265625e+01 1.263044261932373047e+01 1.612383723258972168e-01 -2.063702195882797241e-01 -1.353955361992120743e-02 -8.093264102935791016e-01
2.939000000000000000e+03 6.274525451660156250e+01 1.358406829833984375e+01 4.209402203559875488e-01 5.524773895740509033e-02 1.428563892841339111e-01 -7.841876745223999023e-01
2.940000000000000000e+03 5.357235717773437500e+01 1.334695625305175781e+01 1.144346475601196289e+00 1.204726219177246094e+00 7.047218084335327148e-01 -9.768110513687133789e-02
2.941000000000000000e+03 6.122717285156250000e+01 1.000559997558593750e+01 7.518347352743148804e-02 1.260312497615814209e-01 6.036441400647163391e-02 -9.404999613761901855e-01
2.942000000000000000e+03 5.284677124023437500e+01 1.460564613342285156e+01 1.262049198150634766e+00 1.615850210189819336e+00 8.633698225021362305e-01 1.506431996822357178e-01
2.943000000000000000e+03 5.216082382202148438e+01 1.614152145385742188e+01 1.304688096046447754e+00 2.063743114471435547e+00 1.010529279708862305e+00 3.495042324066162109e-01
2.944000000000000000e+03 6.764190673828125000e+01 8.360340118408203125e+00 -1.620912849903106689e-01 -1.487712413072586060e-01 -9.325876086950302124e-02 -8.244763016700744629e-01
2.945000000000000000e+03 5.364942932128906250e+01 1.898070526123046875e+01 1.176850795745849609e+00 1.998723030090332031e+00 9.526721239089965820e-01 2.479185611009597778e-01
2.946000000000000000e+03 4.900574493408203125e+01 1.952639770507812500e+01 1.052324414253234863e+00 3.820683002471923828e+00 1.461902141571044922e+00 6.977149844169616699e-01
2.947000000000000000e+03 6.694330596923828125e+01 1.103993606567382812e+01 3.254215419292449951e-02 -2.038365155458450317e-01 -5.138830840587615967e-02 -8.460716009140014648e-01
2.948000000000000000e+03 5.508169174194335938e+01 1.157061004638671875e+01 7.623083591461181641e-01 7.035881280899047852e-01 4.397689402103424072e-01 -4.965222477912902832e-01
2.949000000000000000e+03 5.476913070678710938e+01 1.268237876892089844e+01 9.637540578842163086e-01 8.841691017150878906e-01 5.543769598007202148e-01 -3.354679644107818604e-01
2.950000000000000000e+03 3.544567489624023438e+01 -7.347612857818603516e+00 3.652460336685180664e+00 4.059036731719970703e+00 2.313449144363403320e+00 7.922838330268859863e-01
2.951000000000000000e+03 3.571281814575195312e+01 -9.364668846130371094e+00 2.736981868743896484e+00 5.252550601959228516e+00 2.396859884262084961e+00 1.634038925170898438e+00
2.952000000000000000e+03 3.532267761230468750e+01 -9.760682106018066406e+00 2.472757101058959961e+00 4.669723987579345703e+00 2.142744302749633789e+00 1.430708289146423340e+00
2.953000000000000000e+03 3.582524108886718750e+01 -7.775585174560546875e+00 3.864519596099853516e+00 4.844765663146972656e+00 2.612785577774047852e+00 1.187544345855712891e+00
2.954000000000000000e+03 3.658612060546875000e+01 -1.178341197967529297e+01 6.247149109840393066e-01 6.724509239196777344e+00 2.204767227172851562e+00 4.892259240150451660e-01
2.955000000000000000e+03 3.506101608276367188e+01 -1.133017635345458984e+01 1.507514476776123047e+00 4.434462547302246094e+00 1.782593131065368652e+00 9.515876770019531250e-01
2.956000000000000000e+03 3.560317993164062500e+01 -1.118980979919433594e+01 1.446233749389648438e+00 5.227978706359863281e+00 2.002263784408569336e+00 1.024032831192016602e+00
2.957000000000000000e+03 3.323261260986328125e+01 -1.057497310638427734e+01 2.235415458679199219e+00 1.930367588996887207e+00 1.249734878540039062e+00 9.257898330688476562e-01
2.958000000000000000e+03 3.576284027099609375e+01 -8.148396492004394531e+00 3.683475255966186523e+00 4.892977237701416016e+00 2.572935819625854492e+00 1.402634501457214355e+00
2.959000000000000000e+03 3.627810287475585938e+01 -1.138297557830810547e+01 1.000865817070007324e+00 6.328606128692626953e+00 2.198841571807861328e+00 8.222766518592834473e-01
2.960000000000000000e+03 3.331948471069335938e+01 -8.725790023803710938e+00 2.732299327850341797e+00 1.535272479057312012e+00 1.280271530151367188e+00 7.472257614135742188e-01
2.961000000000000000e+03 3.230943298339843750e+01 -8.462185859680175781e+00 2.525508165359497070e+00 5.812999606132507324e-01 9.320424199104309082e-01 4.423401057720184326e-01
2.962000000000000000e+03 3.534125518798828125e+01 -1.048614788055419922e+01 1.929115533828735352e+00 4.913651943206787109e+00 2.052830219268798828e+00 1.252893328666687012e+00
2.963000000000000000e+03 3.531862640380859375e+01 -1.190789604187011719e+01 1.174926638603210449e+00 4.731749534606933594e+00 1.772002816200256348e+00 7.497846484184265137e-01
2.964000000000000000e+03 3.347710418701171875e+01 -1.123970222473144531e+01 1.956985831260681152e+00 2.246914625167846680e+00 1.261170148849487305e+00 8.821934461593627930e-01
2.965000000000000000e+03 3.136937141418457031e+01 -1.050518035888671875e+01 2.164229631423950195e+00 3.410148024559020996e-01 7.515733242034912109e-01 6.705031394958496094e-01
2.966000000000000000e+03 3.192183303833007812e+01 -9.125308990478515625e+00 2.414199113845825195e+00 4.499088525772094727e-01 8.592324256896972656e-01 5.170621275901794434e-01
2.967000000000000000e+03 3.249613189697265625e+01 -1.076312160491943359e+01 2.196763992309570312e+00 1.182853341102600098e+00 1.013885140419006348e+00 8.194085359573364258e-01
2.968000000000000000e+03 3.305506515502929688e+01 -9.949676513671875000e+00 2.457053422927856445e+00 1.651457548141479492e+00 1.232553362846374512e+00 8.843677043914794922e-01
2.969000000000000000e+03 6.040483093261718750e+01 1.196637630462646484e+01 3.975856900215148926e-01 2.203209847211837769e-01 1.853719949722290039e-01 -8.192330002784729004e-01
2.970000000000000000e+03 5.996007919311523438e+01 1.045729064941406250e+01 2.231041789054870605e-01 1.988995969295501709e-01 1.266011297702789307e-01 -8.847501873970031738e-01
2.971000000000000000e+03 5.426689147949218750e+01 1.554209518432617188e+01 1.192991614341735840e+00 1.398063302040100098e+00 7.773164510726928711e-01 9.446702897548675537e-03
2.972000000000000000e+03 6.830472564697265625e+01 1.155114650726318359e+01 5.403565242886543274e-02 -2.800575792789459229e-01 -6.780657172203063965e-02 -8.075693845748901367e-01
2.973000000000000000e+03 6.623838043212890625e+01 1.382837390899658203e+01 2.543244659900665283e-01 -1.967554390430450439e-01 1.727070659399032593e-02 -7.881127595901489258e-01
2.974000000000000000e+03 5.528722000122070312e+01 2.045299911499023438e+01 1.047113776206970215e+00 1.627866029739379883e+00 8.024939298629760742e-01 1.331308633089065552e-01
2.975000000000000000e+03 5.377156066894531250e+01 2.248609924316406250e+01 9.534791111946105957e-01 2.182592868804931641e+00 9.408215880393981934e-01 2.922411262989044189e-01
2.976000000000000000e+03 6.379578018188476562e+01 9.279768943786621094e+00 -9.101992845535278320e-02 -1.703332643955945969e-03 -2.781697735190391541e-02 -9.449188113212585449e-01
2.977000000000000000e+03 6.740831756591796875e+01 1.195486450195312500e+01 9.801582992076873779e-02 -2.519445419311523438e-01 -4.617860913276672363e-02 -8.195522427558898926e-01
2.978000000000000000e+03 4.986335754394531250e+01 2.275213241577148438e+01 9.005602598190307617e-01 3.566053152084350586e+00 1.339984059333801270e+00 4.766341745853424072e-01
2.979000000000000000e+03 4.907973861694335938e+01 1.456448364257812500e+01 1.489840626716613770e+00 3.043951511383056641e+00 1.360137581825256348e+00 8.667225241661071777e-01
2.980000000000000000e+03 5.319768905639648438e+01 1.592799472808837891e+01 1.270535707473754883e+00 1.715560793876647949e+00 8.958289623260498047e-01 1.684032380580902100e-01
2.981000000000000000e+03 5.376311492919921875e+01 1.435894680023193359e+01 1.195736527442932129e+00 1.326581597328186035e+00 7.566954493522644043e-01 -2.695699781179428101e-02
2.982000000000000000e+03 6.383700561523437500e+01 1.841993904113769531e+01 5.642157196998596191e-01 8.126609772443771362e-02 1.936445385217666626e-01 -5.043082237243652344e-01
2.983000000000000000e+03 6.747211456298828125e+01 7.060083389282226562e+00 -2.692284584045410156e-01 -9.977197647094726562e-02 -1.107001304626464844e-01 -8.106265068054199219e-01
2.984000000000000000e+03 6.251372528076171875e+01 9.617459297180175781e+00 -1.110500190407037735e-03 5.498252063989639282e-02 1.616160571575164795e-02 -9.473446011543273926e-01
2.985000000000000000e+03 3.486203002929687500e+01 -7.020069599151611328e+00 3.184423446655273438e+00 3.143137216567993164e+00 1.898268103599548340e+00 5.336732268333435059e-01
2.986000000000000000e+03 3.247509384155273438e+01 -9.368892669677734375e+00 2.525220870971679688e+00 8.719987273216247559e-01 1.019165873527526855e+00 6.802123785018920898e-01
2.987000000000000000e+03 3.559471511840820312e+01 -8.776834487915039062e+00 3.236380100250244141e+00 4.776254653930664062e+00 2.403790473937988281e+00 1.531091690063476562e+00
2.988000000000000000e+03 3.538899993896484375e+01 -8.141387939453125000e+00 3.514661312103271484e+00 4.193557262420654297e+00 2.312465429306030273e+00 1.229307770729064941e+00
2.989000000000000000e+03 3.490368652343750000e+01 -9.416333198547363281e+00 2.761067867279052734e+00 3.885588645935058594e+00 1.993996977806091309e+00 1.381780743598937988e+00
2.990000000000000000e+03 3.096007156372070312e+01 -9.536643028259277344e+00 2.169655084609985352e+00 -7.181534916162490845e-02 6.293519735336303711e-01 4.119125604629516602e-01
2.991000000000000000e+03 3.341535186767578125e+01 -8.112079620361328125e+00 2.808808565139770508e+00 1.483302474021911621e+00 1.287633299827575684e+00 6.258230805397033691e-01
2.992000000000000000e+03 3.238774108886718750e+01 -1.002030944824218750e+01 2.359101772308349609e+00 9.836479425430297852e-01 1.002824902534484863e+00 7.745269536972045898e-01
2.993000000000000000e+03 3.418938827514648438e+01 -1.093711566925048828e+01 1.954589724540710449e+00 3.198546171188354492e+00 1.545940756797790527e+00 1.004667043685913086e+00
2.994000000000000000e+03 6.568589782714843750e+01 1.688772773742675781e+01 4.108521342277526855e-01 -1.479879915714263916e-01 7.885923981666564941e-02 -6.271912455558776855e-01
2.995000000000000000e+03 6.163835144042968750e+01 1.144123268127441406e+01 2.791596353054046631e-01 1.179586276412010193e-01 1.191354766488075256e-01 -8.691853880882263184e-01
2.996000000000000000e+03 5.666695404052734375e+01 1.201611995697021484e+01 6.786338686943054199e-01 5.773250460624694824e-01 3.767876625061035156e-01 -5.964738130569458008e-01
2.997000000000000000e+03 5.813697052001953125e+01 1.402524852752685547e+01 7.798326015472412109e-01 5.431335568428039551e-01 3.968898653984069824e-01 -5.481252670288085938e-01
2.998000000000000000e+03 5.530374908447265625e+01 1.483810710906982422e+01 1.076460123062133789e+00 1.040858030319213867e+00 6.351954340934753418e-01 -2.045598477125167847e-01
2.999000000000000000e+03 6.538050842285156250e+01 1.032846546173095703e+01 7.228331174701452255e-03 -9.244485944509506226e-02 -2.556495927274227142e-02 -9.003583192825317383e-01
3.000000000000000000e+03 6.505564880371093750e+01 2.033892822265625000e+01 5.090098977088928223e-01 -2.040459960699081421e-02 1.465815901756286621e-01 -4.190197885036468506e-01
3.001000000000000000e+03 6.421424865722656250e+01 1.670624923706054688e+01 4.964910149574279785e-01 -6.778721231967210770e-03 1.469136923551559448e-01 -6.178840398788452148e-01
3.002000000000000000e+03 3.449057769775390625e+01 -9.088211059570312500e+00 2.867205858230590820e+00 3.200229644775390625e+00 1.820230603218078613e+00 1.191043853759765625e+00
3.003000000000000000e+03 3.496002578735351562e+01 -7.382630348205566406e+00 3.322115659713745117e+00 3.335436344146728516e+00 1.997265577316284180e+00 7.145816087722778320e-01
3.004000000000000000e+03 3.505573654174804688e+01 -8.629153251647949219e+00 3.212157011032104492e+00 3.828940629959106445e+00 2.112329244613647461e+00 1.293514370918273926e+00
3.005000000000000000e+03 3.404890441894531250e+01 -8.217145919799804688e+00 2.998687267303466797e+00 2.255034208297729492e+00 1.576116442680358887e+00 8.521626591682434082e-01
3.006000000000000000e+03 3.295510101318359375e+01 -9.386078834533691406e+00 2.583509206771850586e+00 1.469189286231994629e+00 1.215809583663940430e+00 8.152691125869750977e-01
3.007000000000000000e+03 3.341782379150390625e+01 -9.243474006652832031e+00 2.662987947463989258e+00 1.786429405212402344e+00 1.334825158119201660e+00 8.813399672508239746e-01
3.008000000000000000e+03 3.493273544311523438e+01 -1.021516323089599609e+01 2.215084075927734375e+00 4.065104484558105469e+00 1.884056568145751953e+00 1.277454257011413574e+00
3.009000000000000000e+03 3.411234664916992188e+01 -9.446399688720703125e+00 2.704309701919555664e+00 2.747559785842895508e+00 1.635560870170593262e+00 1.142010092735290527e+00
3.010000000000000000e+03 3.363623046875000000e+01 -9.750297546386718750e+00 2.565086841583251953e+00 2.213575363159179688e+00 1.433598637580871582e+00 1.020632505416870117e+00
3.011000000000000000e+03 6.288096618652343750e+01 1.104190731048583984e+01 1.400682628154754639e-01 2.700526081025600433e-02 5.012205615639686584e-02 -9.078356027603149414e-01
3.012000000000000000e+03 6.316029357910156250e+01 1.241457557678222656e+01 2.959501743316650391e-01 2.468364685773849487e-02 9.619014710187911987e-02 -8.333172798156738281e-01
3.013000000000000000e+03 5.921213912963867188e+01 1.242869758605957031e+01 5.376172661781311035e-01 3.127362132072448730e-01 2.551060616970062256e-01 -7.409483194351196289e-01
3.014000000000000000e+03 5.726965332031250000e+01 1.320761775970458984e+01 7.637149691581726074e-01 6.097627878189086914e-01 4.120433330535888672e-01 -5.441133379936218262e-01
3.015000000000000000e+03 5.814704895019531250e+01 1.271647167205810547e+01 5.970827937126159668e-01 4.372753202915191650e-01 3.103074431419372559e-01 -6.670782566070556641e-01
3.016000000000000000e+03 6.449584960937500000e+01 1.224544239044189453e+01 2.023578137159347534e-01 -7.256592065095901489e-02 3.893756866455078125e-02 -8.526363968849182129e-01
3.017000000000000000e+03 5.447937011718750000e+01 1.376511096954345703e+01 1.091402888298034668e+00 1.073209881782531738e+00 6.493838429450988770e-01 -1.919598877429962158e-01
3.018000000000000000e+03 5.573999023437500000e+01 1.265898418426513672e+01 8.562291860580444336e-01 7.411924004554748535e-01 4.792264997959136963e-01 -4.474995136260986328e-01
3.019000000000000000e+03 6.293860244750976562e+01 2.217584228515625000e+01 5.977146625518798828e-01 3.350107371807098389e-01 2.798176407814025879e-01 -2.555644214153289795e-01
3.020000000000000000e+03 5.928351593017578125e+01 2.105008125305175781e+01 8.148893117904663086e-01 8.716946840286254883e-01 5.059751868247985840e-01 -1.312817484140396118e-01
3.021000000000000000e+03 3.499562835693359375e+01 -8.185585021972656250e+00 3.362872362136840820e+00 3.578535556793212891e+00 2.082422494888305664e+00 1.134931564331054688e+00
3.022000000000000000e+03 3.455686950683593750e+01 -8.219066619873046875e+00 3.232437133789062500e+00 3.029214382171630859e+00 1.878495454788208008e+00 1.010127305984497070e+00
3.023000000000000000e+03 3.415679168701171875e+01 -8.717628479003906250e+00 2.952863693237304688e+00 2.492654800415039062e+00 1.633655548095703125e+00 9.913665056228637695e-01
3.024000000000000000e+03 6.479214477539062500e+01 1.375260925292968750e+01 3.227919340133666992e-01 -9.770924597978591919e-02 6.752480566501617432e-02 -7.862648963928222656e-01
3.025000000000000000e+03 5.731474685668945312e+01 1.527701854705810547e+01 9.290657639503479004e-01 7.584112286567687988e-01 5.062431097030639648e-01 -3.802222311496734619e-01
3.026000000000000000e+03 6.124934768676757812e+01 1.767619895935058594e+01 7.218282222747802734e-01 3.599912524223327637e-01 3.245458304882049561e-01 -4.552821815013885498e-01
3.027000000000000000e+03 6.262255477905273438e+01 1.544833564758300781e+01 5.372470021247863770e-01 1.154847443103790283e-01 1.958195269107818604e-01 -6.630547046661376953e-01
3.028000000000000000e+03 5.483846664428710938e+01 2.590207099914550781e+01 7.954038381576538086e-01 2.104885101318359375e+00 8.700866699218750000e-01 3.170797824859619141e-01
3.029000000000000000e+03 5.606435394287109375e+01 1.629704666137695312e+01 1.070205688476562500e+00 1.084722161293029785e+00 6.464783549308776855e-01 -1.576683372259140015e-01
3.030000000000000000e+03 5.524183273315429688e+01 1.870359802246093750e+01 1.112025856971740723e+00 1.508026003837585449e+00 7.860155701637268066e-01 7.359222322702407837e-02
3.031000000000000000e+03 6.666652679443359375e+01 2.213872909545898438e+01 4.067746400833129883e-01 -1.978268772363662720e-01 6.268432736396789551e-02 -3.577513694763183594e-01
3.032000000000000000e+03 6.336669158935546875e+01 2.021173858642578125e+01 6.173337697982788086e-01 2.016951143741607666e-01 2.457086741924285889e-01 -3.783929646015167236e-01
3.033000000000000000e+03 5.918613815307617188e+01 1.811375999450683594e+01 8.519452810287475586e-01 6.758452057838439941e-01 4.583371579647064209e-01 -3.213579952716827393e-01
3.034000000000000000e+03 5.349819946289062500e+01 1.738140869140625000e+01 1.208563685417175293e+00 1.852318882942199707e+00 9.182647466659545898e-01 2.127950936555862427e-01
3.035000000000000000e+03 6.185666656494140625e+01 1.637999916076660156e+01 6.353383064270019531e-01 2.265630811452865601e-01 2.585704326629638672e-01 -5.746666193008422852e-01
3.036000000000000000e+03 5.964303588867187500e+01 1.570995998382568359e+01 7.621834278106689453e-01 4.583102762699127197e-01 3.661481142044067383e-01 -5.167190432548522949e-01
3.037000000000000000e+03 5.778403472900390625e+01 2.263850402832031250e+01 8.383603096008300781e-01 1.232906341552734375e+00 6.213799715042114258e-01 4.954922944307327271e-02
3.038000000000000000e+03 5.485788345336914062e+01 2.764063262939453125e+01 6.329045891761779785e-01 2.132109642028808594e+00 8.295043110847473145e-01 3.175176978111267090e-01
3.039000000000000000e+03 5.601330184936523438e+01 2.357210731506347656e+01 8.668913841247558594e-01 1.714125990867614746e+00 7.743052244186401367e-01 1.984804719686508179e-01
3.040000000000000000e+03 5.348434448242187500e+01 2.670227813720703125e+01 7.110712528228759766e-01 2.500963926315307617e+00 9.636105298995971680e-01 3.294344246387481689e-01
3.041000000000000000e+03 6.273715972900390625e+01 2.431180381774902344e+01 5.554749965667724609e-01 4.289608001708984375e-01 2.953307330608367920e-01 -1.517334282398223877e-01
3.042000000000000000e+03 6.178655624389648438e+01 1.988475799560546875e+01 7.020320892333984375e-01 4.007780551910400391e-01 3.308430314064025879e-01 -3.342154324054718018e-01
3.043000000000000000e+03 3.391864013671875000e+01 -1.030657005310058594e+01 2.315103530883789062e+00 2.734210729598999023e+00 1.514794230461120605e+00 1.072858929634094238e+00
3.044000000000000000e+03 5.945455169677734375e+01 1.406900119781494141e+01 6.677697896957397461e-01 3.991141617298126221e-01 3.200652003288269043e-01 -6.212103366851806641e-01
3.045000000000000000e+03 6.245362854003906250e+01 1.815958595275878906e+01 6.476973891258239746e-01 2.264333367347717285e-01 2.622392177581787109e-01 -4.707456529140472412e-01
3.046000000000000000e+03 6.088162231445312500e+01 1.574470615386962891e+01 6.686930656433105469e-01 2.919803857803344727e-01 2.882020473480224609e-01 -5.847743153572082520e-01
3.047000000000000000e+03 5.788660430908203125e+01 1.956887817382812500e+01 9.467986226081848145e-01 1.035385489463806152e+00 5.946552157402038574e-01 -9.730775654315948486e-02
3.048000000000000000e+03 6.099731445312500000e+01 2.195272827148437500e+01 7.146266102790832520e-01 6.446483731269836426e-01 4.077824950218200684e-01 -1.733424961566925049e-01
3.049000000000000000e+03 5.654224777221679688e+01 2.547902488708496094e+01 7.579391002655029297e-01 1.706337451934814453e+00 7.392829656600952148e-01 2.308282703161239624e-01
3.050000000000000000e+03 6.477667236328125000e+01 2.635057830810546875e+01 4.090844988822937012e-01 1.602871268987655640e-01 1.708114892244338989e-01 -1.248044222593307495e-01
3.051000000000000000e+03 6.279004669189453125e+01 2.653844070434570312e+01 4.858667552471160889e-01 5.091800093650817871e-01 2.985140383243560791e-01 -5.619905889034271240e-02
3.052000000000000000e+03 6.204129028320312500e+01 1.270651817321777344e+01 3.710677027702331543e-01 9.647507965564727783e-02 1.402628272771835327e-01 -8.149415254592895508e-01
3.053000000000000000e+03 6.086256408691406250e+01 1.344121551513671875e+01 5.265468358993530273e-01 2.222632914781570435e-01 2.246430367231369019e-01 -7.359223365783691406e-01
3.054000000000000000e+03 6.038596725463867188e+01 1.920817756652832031e+01 7.839779853820800781e-01 5.650315284729003906e-01 4.047028422355651855e-01 -3.040291368961334229e-01
3.055000000000000000e+03 5.226668548583984375e+01 2.823504447937011719e+01 6.295640468597412109e-01 2.861952781677246094e+00 1.047455072402954102e+00 4.062413871288299561e-01
3.056000000000000000e+03 5.682657241821289062e+01 1.793113517761230469e+01 1.033761262893676758e+00 1.098961353302001953e+00 6.398167610168457031e-01 -1.199987083673477173e-01
3.057000000000000000e+03 6.079235076904296875e+01 2.685777854919433594e+01 5.387953519821166992e-01 9.194540977478027344e-01 4.374748468399047852e-01 3.990658000111579895e-02
3.058000000000000000e+03 6.361745452880859375e+01 1.448075866699218750e+01 4.175546467304229736e-01 1.532516628503799438e-02 1.298639476299285889e-01 -7.317594289779663086e-01
3.059000000000000000e+03 5.824898529052734375e+01 1.667308616638183594e+01 8.963385820388793945e-01 7.188706994056701660e-01 4.845627844333648682e-01 -3.440435528755187988e-01
3.060000000000000000e+03 6.023123550415039062e+01 1.691588401794433594e+01 7.836502790451049805e-01 4.678994715213775635e-01 3.754649162292480469e-01 -4.408441781997680664e-01
3.061000000000000000e+03 5.236783218383789062e+01 3.169842147827148438e+01 2.538026869297027588e-01 2.783788681030273438e+00 9.112774133682250977e-01 4.041708111763000488e-01
3.062000000000000000e+03 5.011473464965820312e+01 3.212777328491210938e+01 1.899427175521850586e-01 3.370621204376220703e+00 1.068169116973876953e+00 4.123803973197937012e-01
3.063000000000000000e+03 6.463737487792968750e+01 1.515766143798828125e+01 4.072510600090026855e-01 -6.357256323099136353e-02 1.031035482883453369e-01 -7.105212807655334473e-01
3.064000000000000000e+03 6.165291976928710938e+01 1.457763957977294922e+01 5.287896394729614258e-01 1.898573189973831177e-01 2.155940830707550049e-01 -6.770242452621459961e-01
3.065000000000000000e+03 6.289978790283203125e+01 1.663182258605957031e+01 5.627481341361999512e-01 1.211482286453247070e-01 2.051689177751541138e-01 -5.966333746910095215e-01
3.066000000000000000e+03 6.063282394409179688e+01 2.438128852844238281e+01 6.506192684173583984e-01 8.277007341384887695e-01 4.434959888458251953e-01 -4.831684380769729614e-02
3.067000000000000000e+03 5.670170974731445312e+01 2.776659393310546875e+01 6.262714266777038574e-01 1.766722798347473145e+00 7.178982496261596680e-01 2.897263169288635254e-01
3.068000000000000000e+03 1.709421920776367188e+01 4.157984924316406250e+01 -2.332510426640510559e-03 -3.125812392681837082e-03 -1.637496869079768658e-03 -3.105580108240246773e-04
3.069000000000000000e+03 9.350779533386230469e+00 3.904941940307617188e+01 -3.161136701237410307e-04 9.794235229492187500e-04 1.989929587580263615e-04 -1.959320652531459928e-04
3.070000000000000000e+03 7.083643341064453125e+01 -3.252948379516601562e+01 -1.543075218796730042e-02 4.451681859791278839e-03 -3.293721238151192665e-03 1.466039381921291351e-02
3.071000000000000000e+03 7.027571105957031250e+01 7.926779747009277344e+00 -1.470128744840621948e-01 -2.660315930843353271e-01 -1.239133477210998535e-01 -7.044104933738708496e-01
3.072000000000000000e+03 5.406415176391601562e+01 2.981941413879394531e+01 4.384895563125610352e-01 2.412847518920898438e+00 8.554010987281799316e-01 3.682132065296173096e-01
3.073000000000000000e+03 3.710227966308593750e+01 -4.100681686401367188e+01 -8.672426342964172363e-01 2.750835180282592773e+00 5.650777816772460938e-01 2.148225903511047363e-02
3.074000000000000000e+03 4.662485885620117188e+01 -3.402899551391601562e+01 -1.760185658931732178e-01 1.811823725700378418e+00 4.907415509223937988e-01 -5.573991537094116211e-01
3.075000000000000000e+03 4.741614151000976562e+01 -3.210821151733398438e+01 -3.061639703810214996e-02 1.642476677894592285e+00 4.835580885410308838e-01 -6.394409537315368652e-01
3.076000000000000000e+03 2.380788993835449219e+01 -3.437696838378906250e+01 -2.272649854421615601e-01 1.046855300664901733e-01 -3.677383437752723694e-02 2.782683819532394409e-02
3.077000000000000000e+03 5.299740219116210938e+01 3.778611755371093750e+01 -2.968919277191162109e-01 2.807064771652221680e+00 7.530518770217895508e-01 2.510363161563873291e-01
3.078000000000000000e+03 4.769408416748046875e+01 -3.773387527465820312e+01 -3.239890635013580322e-01 1.713982105255126953e+00 4.169979095458984375e-01 -3.348743617534637451e-01
3.079000000000000000e+03 5.131417083740234375e+01 -3.570629882812500000e+01 -8.233895897865295410e-02 1.017953395843505859e+00 2.806843221187591553e-01 -3.441100120544433594e-01
3.080000000000000000e+03 7.369409179687500000e+01 -3.810980224609375000e+01 7.974677719175815582e-03 -1.347305066883563995e-02 -1.649511861614882946e-03 1.527198869735002518e-02
3.081000000000000000e+03 6.812239170074462891e+00 3.822013092041015625e+01 -6.635609315708279610e-05 -1.460771600250154734e-04 -6.372997449943795800e-05 2.334497112315148115e-04
3.082000000000000000e+03 1.248691272735595703e+01 -4.136878967285156250e+01 2.103770524263381958e-02 -2.102170437574386597e-01 -5.675380304455757141e-02 4.520399495959281921e-03
3.083000000000000000e+03 2.790112113952636719e+01 -3.933239364624023438e+01 -2.196291834115982056e-01 1.008179903030395508e+00 2.365652024745941162e-01 2.195960879325866699e-01
3.084000000000000000e+03 3.115487670898437500e+01 -3.716690826416015625e+01 -4.383643269538879395e-01 1.816186308860778809e+00 4.133465886116027832e-01 4.982333183288574219e-01
3.085000000000000000e+03 1.272096157073974609e+01 3.957382965087890625e+01 -1.343730953522026539e-03 -1.228424720466136932e-03 -7.716467371210455894e-04 -9.571845876052975655e-04
3.086000000000000000e+03 5.356823730468750000e+01 -3.788486099243164062e+01 -1.635277830064296722e-02 7.071591019630432129e-01 2.072418928146362305e-01 -1.545649766921997070e-01
3.087000000000000000e+03 3.852645111083984375e+01 4.112678527832031250e+01 -3.133012354373931885e-01 1.976654291152954102e+00 4.990059137344360352e-01 -1.646197140216827393e-01
3.088000000000000000e+03 5.875175094604492188e+01 2.737610054016113281e+01 5.658562779426574707e-01 1.355019092559814453e+00 5.762625932693481445e-01 1.718081980943679810e-01
3.089000000000000000e+03 6.291994094848632812e+01 2.877450370788574219e+01 3.637558519840240479e-01 5.253869891166687012e-01 2.667428553104400635e-01 3.896806621924042702e-03
3.090000000000000000e+03 6.115766143798828125e+01 2.917272949218750000e+01 3.849698305130004883e-01 9.776858091354370117e-01 4.087966978549957275e-01 9.600082784891128540e-02
3.091000000000000000e+03 1.677374267578125000e+01 -4.116052246093750000e+01 7.785458583384752274e-03 -1.290529072284698486e-01 -3.638023510575294495e-02 1.966418465599417686e-03
3.092000000000000000e+03 5.648971176147460938e+01 3.053202819824218750e+01 3.684970736503601074e-01 1.918765783309936523e+00 6.861788630485534668e-01 3.082342147827148438e-01
3.093000000000000000e+03 4.756382369995117188e+01 3.446730422973632812e+01 -1.504822224378585815e-01 3.757295370101928711e+00 1.082043886184692383e+00 3.176015317440032959e-01
3.094000000000000000e+03 8.213877677917480469e+00 -4.124695968627929688e+01 3.645776584744453430e-02 -1.363677233457565308e-01 -2.997298724949359894e-02 2.473561791703104973e-03
3.095000000000000000e+03 4.176438903808593750e+01 -3.714306259155273438e+01 -6.719585657119750977e-01 2.708366394042968750e+00 6.109223961830139160e-01 -2.999427616596221924e-01
3.096000000000000000e+03 6.821823120117187500e+01 3.715234756469726562e+01 3.276043385267257690e-02 -1.933286786079406738e-01 -4.817047342658042908e-02 1.499308552592992783e-02
3.097000000000000000e+03 5.724779891967773438e+01 3.731671905517578125e+01 -9.912625700235366821e-02 1.987172126770019531e+00 5.664137601852416992e-01 1.860952973365783691e-01
3.098000000000000000e+03 5.850574111938476562e+01 2.481818962097167969e+01 7.303628921508789062e-01 1.235810995101928711e+00 5.898521542549133301e-01 8.414319157600402832e-02
3.099000000000000000e+03 7.188051605224609375e+01 -4.119577026367187500e+01 1.659765653312206268e-02 -1.661027409136295319e-02 -3.785470653383526951e-06 7.937731221318244934e-03
3.100000000000000000e+03 5.306826019287109375e+01 3.447327804565429688e+01 -9.427767508896067739e-05 2.746995925903320312e+00 8.240705132484436035e-01 3.734824657440185547e-01
3.101000000000000000e+03 4.990746688842773438e+01 3.480995178222656250e+01 -1.070750281214714050e-01 3.398834228515625000e+00 9.875277876853942871e-01 3.871499001979827881e-01
3.102000000000000000e+03 6.552166748046875000e+01 3.471466827392578125e+01 8.697518706321716309e-02 2.630010545253753662e-01 1.049928739666938782e-01 3.409517183899879456e-02
3.103000000000000000e+03 4.892573928833007812e+01 3.781571578979492188e+01 -4.963894784450531006e-01 3.517720699310302734e+00 9.063993692398071289e-01 2.406758517026901245e-01
3.104000000000000000e+03 5.816924667358398438e+01 -4.105027008056640625e+01 9.087772667407989502e-02 2.592916488647460938e-01 1.050508096814155579e-01 -2.178107202053070068e-02
3.105000000000000000e+03 6.015832519531250000e+01 3.290592575073242188e+01 1.802208423614501953e-01 1.218574643135070801e+00 4.196386635303497314e-01 1.782707720994949341e-01
3.106000000000000000e+03 2.322510719299316406e+01 -4.121659469604492188e+01 -1.829602941870689392e-02 2.525400221347808838e-01 7.027319818735122681e-02 2.654023468494415283e-02
3.107000000000000000e+03 6.238742446899414062e+01 3.105982780456542969e+01 2.682723402976989746e-01 7.740079760551452637e-01 3.126840889453887939e-01 8.662038296461105347e-02
3.108000000000000000e+03 4.178941726684570312e+01 -9.524660110473632812e+00 2.833440005779266357e-01 2.774830579757690430e+00 9.174523949623107910e-01 -4.415720701217651367e-01
3.109000000000000000e+03 6.806888580322265625e+01 -1.236721992492675781e+01 8.129402995109558105e-03 6.972909905016422272e-03 4.530693870037794113e-03 -1.199476327747106552e-02
3.110000000000000000e+03 2.611739349365234375e+01 -1.855448126792907715e+00 -2.173186540603637695e+00 -1.272533088922500610e-01 -6.901319622993469238e-01 1.845986545085906982e-01
3.111000000000000000e+03 4.144833755493164062e+01 -9.178091049194335938e+00 4.622604846954345703e-01 2.850335597991943359e+00 9.937788248062133789e-01 -1.765680074691772461e+00
3.112000000000000000e+03 4.099004745483398438e+01 -9.458034515380859375e+00 2.203868925571441650e-01 6.020980358123779297e+00 1.872410058975219727e+00 -2.733681678771972656e+00
3.113000000000000000e+03 4.119407653808593750e+01 -9.513449668884277344e+00 6.854844838380813599e-02 4.895779132843017578e+00 1.489298343658447266e+00 -1.983423948287963867e+00
3.114000000000000000e+03 4.046788787841796875e+01 -9.104678153991699219e+00 1.698827147483825684e-01 8.499668121337890625e+00 2.600865125656127930e+00 -3.679283380508422852e+00
3.115000000000000000e+03 3.939455795288085938e+01 -8.999449729919433594e+00 -3.187136650085449219e-01 1.437831115722656250e+01 4.217879295349121094e+00 -8.810645937919616699e-01
3.116000000000000000e+03 3.844062423706054688e+01 -8.580117225646972656e+00 3.190673112869262695e+00 1.297696495056152344e+01 4.850291252136230469e+00 2.777281761169433594e+00
3.117000000000000000e+03 3.790907669067382812e+01 -8.139251708984375000e+00 5.144308567047119141e+00 1.010648345947265625e+01 4.575237751007080078e+00 2.643358707427978516e+00
3.118000000000000000e+03 3.796358871459960938e+01 -7.421010971069335938e+00 6.876966476440429688e+00 9.863676071166992188e+00 5.022192955017089844e+00 1.465952277183532715e+00
3.119000000000000000e+03 3.796775436401367188e+01 -7.617940425872802734e+00 6.620823383331298828e+00 9.912467956542968750e+00 4.959987640380859375e+00 1.927831768989562988e+00
3.120000000000000000e+03 3.876119995117187500e+01 -5.591897964477539062e+00 1.154860734939575195e+00 1.290877342224121094e+01 4.219090461730957031e+00 7.460212707519531250e-01
3.121000000000000000e+03 4.020780181884765625e+01 -5.444164276123046875e+00 4.830768704414367676e-01 1.124719047546386719e+01 3.519080162048339844e+00 5.309806823730468750e+00
3.122000000000000000e+03 4.059072113037109375e+01 -5.668701171875000000e+00 1.379827857017517090e+00 9.044930458068847656e+00 3.127427577972412109e+00 5.648160457611083984e+00
3.123000000000000000e+03 4.085763549804687500e+01 -5.816471099853515625e+00 1.991525053977966309e+00 6.976509094238281250e+00 2.690410375595092773e+00 5.391539096832275391e+00
3.124000000000000000e+03 4.165266418457031250e+01 -5.641255378723144531e+00 1.149080038070678711e+00 3.672817707061767578e+00 1.446569323539733887e+00 2.833343505859375000e+00
3.125000000000000000e+03 4.169629669189453125e+01 -4.802736282348632812e+00 8.271933794021606445e-01 6.465449333190917969e+00 2.187792778015136719e+00 3.448597431182861328e+00
3.126000000000000000e+03 2.606549072265625000e+01 3.847666549682617188e+01 4.129427019506692886e-03 -2.059054374694824219e-02 -4.938335157930850983e-03 5.390524491667747498e-02
3.127000000000000000e+03 5.489857482910156250e+01 -3.309184646606445312e+01 -6.446956098079681396e-02 3.216683864593505859e-01 7.715965062379837036e-02 -1.543905436992645264e-01
3.128000000000000000e+03 4.451346969604492188e+01 2.134279012680053711e+00 -4.344722747802734375e+00 3.521680355072021484e+00 -2.469127625226974487e-01 2.298235177993774414e+00
3.129000000000000000e+03 7.673112869262695312e+00 -1.684942626953125000e+01 8.968703746795654297e-01 8.312960863113403320e-01 5.184499621391296387e-01 4.735027253627777100e-01
3.130000000000000000e+03 3.572380447387695312e+01 4.013555145263671875e+01 -7.706576492637395859e-03 9.466373920440673828e-01 2.816792428493499756e-01 -2.059771418571472168e-01
3.131000000000000000e+03 2.543587684631347656e+00 2.677736282348632812e+00 1.405954299116274342e-05 7.058924325065163430e-07 4.429630735103273764e-06 -8.041884939302690327e-06
3.132000000000000000e+03 4.215398406982421875e+01 -5.070001125335693359e+00 6.291179656982421875e-01 4.782590866088867188e+00 1.623512625694274902e+00 2.053625106811523438e+00
3.133000000000000000e+03 7.872312164306640625e+01 -9.995229721069335938e+00 2.029894531005993485e-04 1.342873740941286087e-02 4.089517984539270401e-03 1.033431664109230042e-02
3.134000000000000000e+03 7.721048736572265625e+01 -8.869606971740722656e+00 -1.963482238352298737e-03 4.897769074887037277e-03 8.802860975265502930e-04 1.401626877486705780e-02
3.135000000000000000e+03 2.835576057434082031e+01 3.907920455932617188e+01 2.667718334123492241e-03 -2.431287989020347595e-02 -6.493548862636089325e-03 9.884902834892272949e-02
3.136000000000000000e+03 3.600109338760375977e+00 -3.713393211364746094e+00 -8.905036747455596924e-02 -6.426148861646652222e-02 -4.599355533719062805e-02 -1.608038842678070068e-01
3.137000000000000000e+03 4.094681549072265625e+01 -5.502316951751708984e+00 1.407685637474060059e+00 7.252006053924560547e+00 2.597907543182373047e+00 5.176923274993896484e+00
3.138000000000000000e+03 4.041709899902343750e+01 -5.535537719726562500e+00 8.975099921226501465e-01 1.025122261047363281e+01 3.344619989395141602e+00 5.561375617980957031e+00
3.139000000000000000e+03 4.271885395050048828e+00 -3.420691680908203125e+01 -5.116577446460723877e-02 4.870913980994373560e-04 -1.520360540598630905e-02 -3.802130959229543805e-05
3.140000000000000000e+03 4.972841262817382812e+00 -3.386708974838256836e+00 -1.474106907844543457e-01 -2.407092414796352386e-02 -5.144448205828666687e-02 -1.753815263509750366e-01
3.141000000000000000e+03 3.749216079711914062e+01 3.608371734619140625e+01 4.857411235570907593e-02 1.381353616714477539e+00 4.289783239364624023e-01 -6.852933168411254883e-01
3.142000000000000000e+03 3.935568618774414062e+01 -9.869647979736328125e+00 -7.610026597976684570e-01 1.171251296997070312e+01 3.285453081130981445e+00 -1.198707699775695801e+00
3.143000000000000000e+03 3.798738098144531250e+01 -8.718781471252441406e+00 3.136397838592529297e+00 1.069428539276123047e+01 4.149204730987548828e+00 2.585911750793457031e+00
3.144000000000000000e+03 3.759920883178710938e+01 -7.634281158447265625e+00 5.875639438629150391e+00 8.658905029296875000e+00 4.360363483428955078e+00 1.759755849838256836e+00
3.145000000000000000e+03 3.725726318359375000e+01 -6.716506481170654297e+00 4.891461849212646484e+00 7.738724708557128906e+00 3.789056062698364258e+00 2.698102593421936035e-01
3.146000000000000000e+03 3.832164382934570312e+01 -5.854374885559082031e+00 2.667761325836181641e+00 1.182344055175781250e+01 4.347360610961914062e+00 -3.221227824687957764e-01
3.147000000000000000e+03 3.799836349487304688e+01 -6.633385658264160156e+00 5.697289943695068359e+00 1.032240009307861328e+01 4.805906772613525391e+00 -2.995588481426239014e-01
3.148000000000000000e+03 4.056335449218750000e+01 -4.239767551422119141e+00 -1.457108855247497559e-01 9.078418731689453125e+00 2.679812431335449219e+00 4.155998706817626953e+00
3.149000000000000000e+03 4.043489074707031250e+01 3.643268203735351562e+01 -3.721404373645782471e-01 3.200598478317260742e+00 8.485374450683593750e-01 -6.210471987724304199e-01
3.150000000000000000e+03 6.817093658447265625e+01 -5.492863178253173828e+00 -1.581780016422271729e-01 6.397272925823926926e-03 -4.553421586751937866e-02 6.860970519483089447e-03
3.151000000000000000e+03 5.347267913818359375e+01 3.266261577606201172e+00 -2.310727119445800781e+00 3.598608374595642090e-01 -5.852599143981933594e-01 -5.375061035156250000e-01
3.152000000000000000e+03 8.210892677307128906e+00 -3.133534049987792969e+01 -3.721005916595458984e-01 -2.765532732009887695e-01 -1.945961564779281616e-01 1.789752095937728882e-01
3.153000000000000000e+03 5.549555969238281250e+01 -3.529526901245117188e+01 6.092503201216459274e-03 3.428348898887634277e-01 1.046782210469245911e-01 -1.357109844684600830e-01
3.154000000000000000e+03 5.109108734130859375e+01 -3.222297668457031250e+01 1.988206245005130768e-02 8.514407873153686523e-01 2.613968551158905029e-01 -4.165309369564056396e-01
3.155000000000000000e+03 4.097366714477539062e+01 4.021811485290527344e+00 -1.117472171783447266e+00 8.263906478881835938e+00 2.143930435180664062e+00 1.837485432624816895e+00
3.156000000000000000e+03 7.262649536132812500e+01 -1.825850868225097656e+01 1.307145575992763042e-03 -9.649340063333511353e-04 1.026634636218659580e-04 8.290578261949121952e-04
3.157000000000000000e+03 3.765249252319335938e+01 -6.122484683990478516e+00 3.717159271240234375e+00 9.147370338439941406e+00 3.859358787536621094e+00 -2.990182638168334961e-01
3.158000000000000000e+03 3.774365997314453125e+01 -6.515861988067626953e+00 4.902481555938720703e+00 9.307785987854003906e+00 4.263080120086669922e+00 -1.307760328054428101e-01
3.159000000000000000e+03 3.748721313476562500e+01 -8.475858688354492188e+00 4.044059753417968750e+00 9.017511367797851562e+00 3.918471097946166992e+00 2.465162754058837891e+00
3.160000000000000000e+03 4.062989425659179688e+01 -4.700724601745605469e+00 3.755028545856475830e-01 8.891446113586425781e+00 2.780084609985351562e+00 4.649030208587646484e+00
3.161000000000000000e+03 3.909304046630859375e+01 -1.009247112274169922e+01 -6.102722883224487305e-01 1.144468688964843750e+01 3.250324487686157227e+00 -8.019128441810607910e-01
3.162000000000000000e+03 1.718631935119628906e+01 3.291524505615234375e+01 1.667181961238384247e-03 -1.854298025136813521e-04 4.445256490726023912e-04 1.540119759738445282e-03
3.163000000000000000e+03 5.487654495239257812e+01 -3.677409362792968750e+01 1.439699437469244003e-02 4.611445367336273193e-01 1.426624655723571777e-01 -1.303025037050247192e-01
3.164000000000000000e+03 7.639306640625000000e+01 -9.965325355529785156e+00 5.710208788514137268e-04 1.165499343187548220e-04 2.062712446786463261e-04 1.640728488564491272e-02
3.165000000000000000e+03 4.534702777862548828e+00 -4.668844699859619141e+00 -1.101296767592430115e-01 -6.410875916481018066e-02 -5.227153003215789795e-02 -2.183155268430709839e-01
3.166000000000000000e+03 2.475837516784667969e+01 -1.509687519073486328e+01 5.510513186454772949e-01 -2.412028312683105469e-01 9.295455366373062134e-02 4.079205095767974854e-01
3.167000000000000000e+03 3.693607330322265625e+01 -6.158605575561523438e+00 3.581166028976440430e+00 6.978333950042724609e+00 3.167850017547607422e+00 -6.956776976585388184e-02
3.168000000000000000e+03 3.374364376068115234e+00 4.468777179718017578e+00 1.636214983591344208e-05 2.597250568214803934e-05 1.270039683731738478e-05 -1.087937198462896049e-05
3.169000000000000000e+03 3.651078033447265625e+01 -1.929981827735900879e+00 -2.653692245483398438e+00 5.596559524536132812e+00 8.828601837158203125e-01 4.903466999530792236e-01
3.170000000000000000e+03 6.837368011474609375e+01 -4.731174468994140625e+00 -2.144141048192977905e-01 1.819563657045364380e-02 -5.886553972959518433e-02 -5.425383336842060089e-03
3.171000000000000000e+03 3.799993133544921875e+01 -1.002549934387207031e+01 5.539057254791259766e-01 1.022817420959472656e+01 3.234624147415161133e+00 1.054051399230957031e+00
3.172000000000000000e+03 6.515709686279296875e+01 -2.121926248073577881e-01 -8.309306502342224121e-01 1.594567745923995972e-01 -2.014421671628952026e-01 -2.891554832458496094e-01
3.173000000000000000e+03 5.126854705810546875e+01 4.034452915191650391e+00 -2.058689117431640625e+00 2.146368622779846191e-01 -5.532156229019165039e-01 -7.830466032028198242e-01
3.174000000000000000e+03 6.277071762084960938e+01 3.676704406738281250e+00 -8.820810317993164062e-01 1.371137499809265137e-01 -2.234901934862136841e-01 -7.786259651184082031e-01
3.175000000000000000e+03 1.481934070587158203e+01 -1.065370845794677734e+01 2.679377794265747070e-01 1.003706231713294983e-01 1.104925200343132019e-01 -3.194385766983032227e-02
3.176000000000000000e+03 3.754506301879882812e+01 -1.038911342620849609e+01 7.157871723175048828e-01 8.962621688842773438e+00 2.903522729873657227e+00 1.038212060928344727e+00
3.177000000000000000e+03 3.824436569213867188e+01 -1.041838455200195312e+01 -5.420895293354988098e-03 1.014585971832275391e+01 3.042131662368774414e+00 2.566309869289398193e-01
3.178000000000000000e+03 1.183407020568847656e+01 -3.446459960937500000e+01 -2.231311649084091187e-01 -1.987948268651962280e-01 -1.265777945518493652e-01 1.158063188195228577e-01
3.179000000000000000e+03 3.891504669189453125e+01 -3.390969276428222656e+00 -1.447075128555297852e+00 9.336112022399902344e+00 2.366710901260375977e+00 1.897732257843017578e+00
3.180000000000000000e+03 7.297508239746093750e+01 -9.257031440734863281e+00 -4.244126379489898682e-03 -1.709933951497077942e-02 -6.403040140867233276e-03 2.230815589427947998e-03
3.181000000000000000e+03 1.495161151885986328e+01 3.971998214721679688e+00 -3.164587906212545931e-05 -2.840173146978486329e-05 -1.801428334147203714e-05 -9.461321496928576380e-06
3.182000000000000000e+03 3.653427124023437500e+01 -7.046808719635009766e+00 4.397269248962402344e+00 5.988037109375000000e+00 3.115591764450073242e+00 7.280164957046508789e-01
3.183000000000000000e+03 3.739685440063476562e+01 -7.285608291625976562e+00 5.659871101379394531e+00 8.065546989440917969e+00 4.117625236511230469e+00 1.085147976875305176e+00
3.184000000000000000e+03 2.721489524841308594e+01 -1.286980628967285156e+01 1.117437243461608887e+00 -5.382084250450134277e-01 1.737686544656753540e-01 5.952059626579284668e-01
3.185000000000000000e+03 3.871158981323242188e+01 -2.452695131301879883e+00 -2.163594007492065430e+00 8.545543670654296875e+00 1.914584755897521973e+00 1.393365383148193359e+00
3.186000000000000000e+03 3.703086471557617188e+01 -7.844156742095947266e+00 4.791384696960449219e+00 7.263908386230468750e+00 3.616587877273559570e+00 1.730847835540771484e+00
3.187000000000000000e+03 3.713923263549804688e+01 -7.417558193206787109e+00 5.284450531005859375e+00 7.423136711120605469e+00 3.812276124954223633e+00 1.246555924415588379e+00
3.188000000000000000e+03 3.746329116821289062e+01 -7.830717086791992188e+00 5.314196109771728516e+00 8.355799674987792969e+00 4.100998401641845703e+00 1.874429345130920410e+00
3.189000000000000000e+03 3.718836212158203125e+01 -8.153923034667968750e+00 4.542372703552246094e+00 7.888450145721435547e+00 3.729246854782104492e+00 2.096187591552734375e+00
3.190000000000000000e+03 3.732680892944335938e+01 -8.816317558288574219e+00 3.297064065933227539e+00 8.734527587890625000e+00 3.609477519989013672e+00 2.389462471008300781e+00
3.191000000000000000e+03 7.129557037353515625e+01 -7.116008758544921875e+00 -5.949393287301063538e-02 -2.209398895502090454e-02 -2.447637729346752167e-02 -9.308236651122570038e-03
3.192000000000000000e+03 4.221698760986328125e+01 -2.684703826904296875e+01 2.789289653301239014e-01 3.376641511917114258e+00 1.096671104431152344e+00 -6.919720768928527832e-01
3.193000000000000000e+03 6.461708068847656250e+01 9.662028551101684570e-01 -9.137713909149169922e-01 1.683376133441925049e-01 -2.236301302909851074e-01 -4.335718154907226562e-01
3.194000000000000000e+03 4.591869354248046875e+01 -3.146841239929199219e+01 -3.651052713394165039e-02 1.929557800292968750e+00 5.679141879081726074e-01 -6.703042387962341309e-01
3.195000000000000000e+03 9.419237136840820312e+00 -1.095468330383300781e+01 1.039054393768310547e-01 2.825922071933746338e-01 1.159492880105972290e-01 -1.946076601743698120e-01
3.196000000000000000e+03 5.174473190307617188e+01 6.785807609558105469e+00 -3.224404156208038330e-01 4.752395749092102051e-01 4.583974555134773254e-02 -6.144400835037231445e-01
3.197000000000000000e+03 2.855575561523437500e+01 -1.143415164947509766e+01 1.540604114532470703e+00 -5.537501573562622070e-01 2.960562109947204590e-01 4.982241690158843994e-01
3.198000000000000000e+03 4.541917419433593750e+01 2.948068809509277344e+01 6.649456620216369629e-01 4.673633098602294922e+00 1.601573586463928223e+00 1.066367980092763901e-02
3.199000000000000000e+03 3.749155807495117188e+01 -7.972183704376220703e+00 5.292824745178222656e+00 8.685847282409667969e+00 4.193601608276367188e+00 2.194077014923095703e+00
3.200000000000000000e+03 3.741913223266601562e+01 -7.701537132263183594e+00 5.447715282440185547e+00 8.184855461120605469e+00 4.089771270751953125e+00 1.749534845352172852e+00
3.201000000000000000e+03 3.729501342773437500e+01 -7.568142890930175781e+00 5.492908477783203125e+00 7.967784404754638672e+00 4.038208007812500000e+00 1.561280965805053711e+00
3.202000000000000000e+03 7.244836425781250000e+01 -9.285350799560546875e+00 -8.409020490944385529e-03 -1.622359268367290497e-02 -7.389784324914216995e-03 1.966933719813823700e-03
3.203000000000000000e+03 6.428090667724609375e+01 4.867858409881591797e+00 -6.266638040542602539e-01 8.680612593889236450e-02 -1.619572937488555908e-01 -8.260444998741149902e-01
3.204000000000000000e+03 1.618912315368652344e+01 5.675420761108398438e+00 9.143510396825149655e-05 3.069774174946360290e-05 3.663985262392088771e-05 6.185231177369132638e-05
3.205000000000000000e+03 3.731003570556640625e+01 -7.806905269622802734e+00 5.244011402130126953e+00 8.075166702270507812e+00 3.995753526687622070e+00 1.748365044593811035e+00
3.206000000000000000e+03 3.688673400878906250e+01 -8.039898872375488281e+00 4.486754417419433594e+00 6.958194255828857422e+00 3.433484554290771484e+00 1.848472237586975098e+00
3.207000000000000000e+03 7.404171466827392578e+00 -6.484490394592285156e+00 -1.661546677350997925e-01 6.234139204025268555e-02 -3.114398382604122162e-02 -2.842513620853424072e-01
3.208000000000000000e+03 7.299743652343750000e+01 -8.744034767150878906e+00 -1.751224882900714874e-02 -1.763700507581233978e-02 -1.054477691650390625e-02 4.208649508655071259e-03
3.209000000000000000e+03 7.345577239990234375e+01 -9.057346343994140625e+00 -1.206687279045581818e-02 -1.733279973268508911e-02 -8.819901384413242340e-03 3.718469757586717606e-03
3.210000000000000000e+03 3.701564025878906250e+01 -8.666140556335449219e+00 3.613520860671997070e+00 7.759554862976074219e+00 3.411922693252563477e+00 2.177831649780273438e+00
3.211000000000000000e+03 3.678945922851562500e+01 -8.871572494506835938e+00 3.285726308822631836e+00 7.303224086761474609e+00 3.176685094833374023e+00 2.097350835800170898e+00
3.212000000000000000e+03 3.673347473144531250e+01 -8.607159614562988281e+00 3.627237319946289062e+00 6.934406280517578125e+00 3.168493032455444336e+00 1.983078241348266602e+00
3.213000000000000000e+03 8.205103874206542969e+00 3.120109939575195312e+01 2.410800952930003405e-04 -6.398980622179806232e-04 -1.196453958982601762e-04 -2.968639018945395947e-04
3.214000000000000000e+03 2.006722831726074219e+01 -7.371026515960693359e+00 -4.776687547564506531e-02 -2.155161798000335693e-01 -7.898491621017456055e-02 -1.607473045587539673e-01
3.215000000000000000e+03 2.599691772460937500e+01 -7.748916625976562500e+00 6.033952832221984863e-01 -8.084602355957031250e-01 -6.151947379112243652e-02 -4.883821904659271240e-01
3.216000000000000000e+03 5.345336914062500000e+01 5.733401775360107422e+00 -1.039184093475341797e+00 3.426729738712310791e-01 -2.089533358812332153e-01 -8.419101834297180176e-01
3.217000000000000000e+03 2.982673645019531250e+01 -7.001168251037597656e+00 1.356050491333007812e+00 -8.835464119911193848e-01 1.417512297630310059e-01 -5.323222279548645020e-01
3.218000000000000000e+03 2.943583297729492188e+01 -7.497056961059570312e+00 1.434231400489807129e+00 -8.916602134704589844e-01 1.627713590860366821e-01 -4.053383469581604004e-01
3.219000000000000000e+03 3.591567230224609375e+01 -7.383590698242187500e+00 3.984034061431884766e+00 4.919378280639648438e+00 2.671023607254028320e+00 9.555481076240539551e-01
3.220000000000000000e+03 3.573924636840820312e+01 -5.605652809143066406e+00 2.212930440902709961e+00 4.530870437622070312e+00 2.023140430450439453e+00 -1.078079640865325928e-01
3.221000000000000000e+03 3.698183822631835938e+01 -7.639472007751464844e+00 4.967704296112060547e+00 7.090171813964843750e+00 3.617362737655639648e+00 1.510335087776184082e+00
3.222000000000000000e+03 2.075297164916992188e+01 -1.417689132690429688e+01 6.703148484230041504e-01 -2.500899434089660645e-01 1.260674595832824707e-01 8.157515525817871094e-02
3.223000000000000000e+03 1.729532241821289062e+01 -1.158422183990478516e+01 4.406789839267730713e-01 -8.724103122949600220e-02 1.060313880443572998e-01 5.212710238993167877e-03
3.224000000000000000e+03 3.716334152221679688e+01 -7.709967613220214844e+00 5.205614566802978516e+00 7.656503677368164062e+00 3.858635425567626953e+00 1.674726724624633789e+00
3.225000000000000000e+03 7.659157562255859375e+01 -2.053141403198242188e+01 -1.376852043904364109e-03 -8.564024028601124883e-05 -4.387476656120270491e-04 7.770014781272038817e-05
3.226000000000000000e+03 1.601414680480957031e+01 6.466468334197998047e+00 -4.379675010568462312e-05 -3.413309286770527251e-06 -1.416301802237285301e-05 -3.708884833031333983e-05
3.227000000000000000e+03 1.482310485839843750e+01 5.598612785339355469e+00 6.668238347629085183e-05 -3.400065224923309870e-06 1.898469599836971611e-05 -8.549106496502645314e-06
3.228000000000000000e+03 3.552462387084960938e+01 -5.139942169189453125e+00 1.591410279273986816e+00 4.181916713714599609e+00 1.731998085975646973e+00 -1.822533309459686279e-01
3.229000000000000000e+03 3.679003906250000000e+01 -8.323088645935058594e+00 4.052010059356689453e+00 6.883479118347167969e+00 3.280646800994873047e+00 1.915788888931274414e+00
3.230000000000000000e+03 3.674898910522460938e+01 -1.340864753723144531e+01 2.218841463327407837e-01 6.180092811584472656e+00 1.920593142509460449e+00 -1.432700008153915405e-01
3.231000000000000000e+03 3.180731391906738281e+01 -1.100122833251953125e+01 2.075413942337036133e+00 6.920374035835266113e-01 8.302354216575622559e-01 7.555794119834899902e-01
3.232000000000000000e+03 1.723128318786621094e+01 -1.082158088684082031e+01 3.536462783813476562e-01 -7.831099629402160645e-02 8.260057866573333740e-02 -8.602081798017024994e-03
3.233000000000000000e+03 7.617876434326171875e+01 -2.148447227478027344e+01 1.921030809171497822e-03 7.817515142960473895e-05 5.997617845423519611e-04 -4.634140350390225649e-04
3.234000000000000000e+03 3.640604400634765625e+01 -8.612459182739257812e+00 3.625099420547485352e+00 6.189970016479492188e+00 2.944520950317382812e+00 1.847694158554077148e+00
3.235000000000000000e+03 2.326771736145019531e+01 -7.971422672271728516e+00 2.321986854076385498e-01 -4.876600205898284912e-01 -7.663840055465698242e-02 -3.164637684822082520e-01
3.236000000000000000e+03 6.993209362030029297e+00 2.829234123229980469e+01 5.482405867951456457e-06 3.312974877189844847e-04 1.010339692584238946e-04 -1.175448633148334920e-04
3.237000000000000000e+03 3.612402343750000000e+01 -8.200860023498535156e+00 3.874716043472290039e+00 5.526224613189697266e+00 2.820282220840454102e+00 1.576032519340515137e+00
3.238000000000000000e+03 7.284184265136718750e+01 2.240159034729003906e+01 1.509540081024169922e-01 -1.039358854293823242e+00 -2.665214538574218750e-01 -3.223210871219635010e-01
3.239000000000000000e+03 3.540903472900390625e+01 -7.753388881683349609e+00 3.607579708099365234e+00 4.123199462890625000e+00 2.319233894348144531e+00 1.052970290184020996e+00
3.240000000000000000e+03 3.498157119750976562e+01 -7.777995109558105469e+00 3.406612873077392578e+00 3.438311815261840820e+00 2.053477525711059570e+00 9.678395986557006836e-01
3.241000000000000000e+03 2.714494132995605469e+01 -1.012118721008300781e+01 1.323465704917907715e+00 -8.112972378730773926e-01 1.536505371332168579e-01 9.962206333875656128e-02
3.242000000000000000e+03 5.665913391113281250e+01 2.104119873046875000e+01 9.677979946136474609e-01 1.358142137527465820e+00 6.977820396423339844e-01 5.334181711077690125e-02
3.243000000000000000e+03 3.518241119384765625e+01 -1.277271842956542969e+01 8.677830100059509277e-01 4.446944236755371094e+00 1.594418287277221680e+00 4.672898054122924805e-01
3.244000000000000000e+03 3.580201339721679688e+01 -1.392506790161132812e+01 2.863523364067077637e-01 5.023653507232666016e+00 1.593001842498779297e+00 8.970347233116626740e-03
3.245000000000000000e+03 2.575974082946777344e+01 -1.019053363800048828e+01 1.020563364028930664e+00 -7.684357166290283203e-01 7.563829421997070312e-02 2.149926126003265381e-02
3.246000000000000000e+03 5.672447204589843750e+00 2.853699493408203125e+01 3.835575625998899341e-05 3.115836589131504297e-04 1.049818311003036797e-04 -1.182033010991290212e-04
3.247000000000000000e+03 2.076740455627441406e+01 -9.306836128234863281e+00 2.969660162925720215e-01 -3.268665373325347900e-01 -8.970163762569427490e-03 -1.053384169936180115e-01
3.248000000000000000e+03 5.193915843963623047e+00 5.405415058135986328e+00 2.866583781724330038e-05 2.219223097199574113e-05 1.525742027297383174e-05 -2.349206806684378535e-05
3.249000000000000000e+03 7.108274841308593750e+01 1.088831543922424316e+00 -3.118675947189331055e-01 -3.623959422111511230e-02 -1.044321581721305847e-01 -3.436574041843414307e-01
3.250000000000000000e+03 3.277582931518554688e+01 -8.891186714172363281e+00 2.649547338485717773e+00 1.068471670150756836e+00 1.115405678749084473e+00 6.848921775817871094e-01
3.251000000000000000e+03 7.011927795410156250e+01 1.422626376152038574e+00 -3.813611268997192383e-01 -9.636132046580314636e-03 -1.172991767525672913e-01 -3.912350833415985107e-01
3.252000000000000000e+03 7.023459625244140625e+01 2.350178718566894531e+01 2.387174218893051147e-01 -6.985576748847961426e-01 -1.379520744085311890e-01 -3.180925250053405762e-01
3.253000000000000000e+03 1.266481304168701172e+01 5.822106838226318359e+00 -2.669497007445897907e-05 2.143058372894302011e-05 -1.579315949129522778e-06 -1.817725387809332460e-05
3.254000000000000000e+03 3.448284530639648438e+01 -7.469964027404785156e+00 3.069239854812622070e+00 2.555678844451904297e+00 1.687475562095642090e+00 6.633602380752563477e-01
3.255000000000000000e+03 3.455944061279296875e+01 -7.819284915924072266e+00 3.209159851074218750e+00 2.866774082183837891e+00 1.822780132293701172e+00 8.603010177612304688e-01
3.256000000000000000e+03 1.243325138092041016e+01 -8.625166893005371094e+00 -3.552054241299629211e-02 1.727868914604187012e-01 4.117990657687187195e-02 -1.454292684793472290e-01
3.257000000000000000e+03 1.165516471862792969e+01 -8.562560081481933594e+00 -4.941149055957794189e-02 1.860448420047760010e-01 4.099000617861747742e-02 -1.738033294677734375e-01
3.258000000000000000e+03 2.466007041931152344e+01 -9.529295921325683594e+00 7.241676449775695801e-01 -6.766991615295410156e-01 1.424055825918912888e-02 -1.358947604894638062e-01
3.259000000000000000e+03 3.378828811645507812e+01 -8.986133575439453125e+00 2.799776554107666016e+00 2.166711091995239258e+00 1.489946246147155762e+00 9.722345471382141113e-01
3.260000000000000000e+03 3.541570663452148438e+01 -8.500315666198730469e+00 3.379195928573608398e+00 4.382948875427246094e+00 2.328643560409545898e+00 1.388784050941467285e+00
3.261000000000000000e+03 3.572153091430664062e+01 -8.490312576293945312e+00 3.497233152389526367e+00 4.937966823577880859e+00 2.530560016632080078e+00 1.502441287040710449e+00
3.262000000000000000e+03 6.166479587554931641e+00 2.754733085632324219e+01 1.405624352628365159e-04 -3.159255720674991608e-04 -5.260894249659031630e-05 -1.736574340611696243e-04
3.263000000000000000e+03 3.570220947265625000e+01 -1.075663185119628906e+01 1.635374426841735840e+00 5.404324531555175781e+00 2.111909627914428711e+00 1.201939105987548828e+00
3.264000000000000000e+03 2.340839385986328125e+01 -8.759364128112792969e+00 4.341545403003692627e-01 -5.520386695861816406e-01 -3.536523133516311646e-02 -2.295032292604446411e-01
3.265000000000000000e+03 3.461469268798828125e+01 -8.671292304992675781e+00 3.061520814895629883e+00 3.241687297821044922e+00 1.890962362289428711e+00 1.170152664184570312e+00
3.266000000000000000e+03 2.375901603698730469e+01 -9.549879074096679688e+00 6.072474718093872070e-01 -5.988007783889770508e-01 2.533999737352132797e-03 -1.321952641010284424e-01
3.267000000000000000e+03 1.176931762695312500e+01 -7.976809501647949219e+00 -1.075295060873031616e-01 1.580059230327606201e-01 1.514292415231466293e-02 -1.745854169130325317e-01
3.268000000000000000e+03 1.305288791656494141e+01 7.820828914642333984e+00 -3.846125400741584599e-05 9.163331560557708144e-05 1.595161847944837064e-05 4.511770748649723828e-05
3.269000000000000000e+03 2.400477981567382812e+01 -8.557103157043457031e+00 4.800410866737365723e-01 -6.040446758270263672e-01 -3.720108047127723694e-02 -2.654550075531005859e-01
3.270000000000000000e+03 2.421799087524414062e+01 -9.107935905456542969e+00 6.072006225585937500e-01 -6.375235319137573242e-01 -9.096886031329631805e-03 -1.958782970905303955e-01
3.271000000000000000e+03 2.515623664855957031e+01 -9.939173698425292969e+00 8.472907543182373047e-01 -6.908799409866333008e-01 4.692324250936508179e-02 -2.838640473783016205e-02
3.272000000000000000e+03 6.998681640625000000e+01 5.732605934143066406e+00 -2.499600648880004883e-01 -1.644259095191955566e-01 -1.243157908320426941e-01 -6.445671319961547852e-01
3.273000000000000000e+03 3.415708923339843750e+01 -7.730129718780517578e+00 3.019026517868041992e+00 2.244197130203247070e+00 1.578967094421386719e+00 6.748145818710327148e-01
3.274000000000000000e+03 9.097153663635253906e+00 2.759551239013671875e+01 3.389741177670657635e-04 -3.371425555087625980e-04 5.494706556419259869e-07 -1.030360181175637990e-05
3.275000000000000000e+03 5.160875320434570312e+01 1.341775417327880859e+01 1.340830683708190918e+00 1.774042606353759766e+00 9.344620108604431152e-01 2.605763077735900879e-01
3.276000000000000000e+03 4.840491104125976562e+01 1.559851932525634766e+01 1.404337286949157715e+00 3.683148145675659180e+00 1.526245713233947754e+00 9.790919423103332520e-01
3.277000000000000000e+03 6.413732147216796875e+01 1.071933460235595703e+01 8.447236567735671997e-02 -3.861011564731597900e-02 1.375867426395416260e-02 -9.029510617256164551e-01
3.278000000000000000e+03 5.040885543823242188e+01 1.698381614685058594e+01 1.307108759880065918e+00 2.836397171020507812e+00 1.243051767349243164e+00 6.162059903144836426e-01
3.279000000000000000e+03 7.165155792236328125e+01 4.404410362243652344e+00 -2.252330631017684937e-01 -1.814274489879608154e-01 -1.219981536269187927e-01 -5.239523649215698242e-01
3.280000000000000000e+03 5.436218643188476562e+01 8.168273925781250000e+00 6.156275421380996704e-02 4.427851140499114990e-01 1.513043642044067383e-01 -8.088010549545288086e-01
3.281000000000000000e+03 5.512977218627929688e+01 9.403052330017089844e+00 3.297086656093597412e-01 4.876200556755065918e-01 2.451986223459243774e-01 -7.033256888389587402e-01
3.282000000000000000e+03 7.163095092773437500e+01 1.029212379455566406e+01 -2.943567931652069092e-02 -4.629355967044830322e-01 -1.477113813161849976e-01 -6.726601719856262207e-01
3.283000000000000000e+03 6.600949859619140625e+01 1.531740474700927734e+01 3.585571050643920898e-01 -1.821977347135543823e-01 5.290781334042549133e-02 -7.031809091567993164e-01
3.284000000000000000e+03 7.062896728515625000e+01 4.111825466156005859e+00 -3.008328974246978760e-01 -1.110799759626388550e-01 -1.235738620162010193e-01 -5.504545569419860840e-01
3.285000000000000000e+03 7.101557159423828125e+01 5.379721641540527344e+00 -2.265609949827194214e-01 -2.003577053546905518e-01 -1.280756145715713501e-01 -5.860390067100524902e-01
3.286000000000000000e+03 6.778817749023437500e+01 1.283719253540039062e+01 1.464544683694839478e-01 -2.972084283828735352e-01 -4.522619396448135376e-02 -7.832785248756408691e-01
3.287000000000000000e+03 1.101973342895507812e+01 9.171900749206542969e+00 -6.186754035297781229e-05 -3.328575257910415530e-05 -2.854598824342247099e-05 -2.314742960152216256e-05
3.288000000000000000e+03 8.592917442321777344e+00 1.086817169189453125e+01 -7.700668902543839067e-06 1.016763999359682202e-04 2.819271867338102311e-05 5.871171651961049065e-06
3.289000000000000000e+03 9.308975219726562500e+00 1.137595653533935547e+01 -2.818736174958758056e-05 -3.181497231707908213e-05 -1.800070094759576023e-05 2.339203319934313186e-06
3.290000000000000000e+03 6.878023529052734375e+01 1.232596969604492188e+01 1.080572232604026794e-01 -3.556542396545410156e-01 -7.427909970283508301e-02 -7.780594825744628906e-01
3.291000000000000000e+03 7.190987396240234375e+01 -1.413351440429687500e+01 -2.650389888003701344e-06 4.580194654408842325e-04 1.366107171634212136e-04 -1.820271572796627879e-04
3.292000000000000000e+03 7.117191314697265625e+01 -1.423426437377929688e+01 1.329638907918706536e-04 -7.219299441203474998e-04 -1.766898203641176224e-04 2.265265211462974548e-04
3.293000000000000000e+03 7.054098510742187500e+01 -1.506571102142333984e+01 5.225062486715614796e-04 -6.611229619011282921e-04 -4.158501542406156659e-05 2.440391835989430547e-04
3.294000000000000000e+03 7.272534942626953125e+01 -1.476733016967773438e+01 -4.125710620428435504e-05 1.017647882690653205e-04 1.815230461943428963e-05 -2.621570602059364319e-04
3.295000000000000000e+03 7.199845123291015625e+01 -1.486828804016113281e+01 2.627878275234252214e-04 -2.704525832086801529e-04 -2.299429297636379488e-06 4.416086885612457991e-04
3.296000000000000000e+03 7.127030181884765625e+01 -1.496769714355468750e+01 -3.613090084400027990e-04 4.873996949754655361e-04 3.782720523304305971e-05 -3.376358072273433208e-04
3.297000000000000000e+03 7.264659118652343750e+01 -1.403121566772460938e+01 1.151702381321229041e-04 -1.995834463741630316e-04 -2.532396138121839613e-05 1.416921732015907764e-04
3.298000000000000000e+03 7.043277740478515625e+01 -1.433362007141113281e+01 -1.199003818328492343e-04 8.965924498625099659e-04 2.330076094949617982e-04 -1.482200459577143192e-04
3.299000000000000000e+03 7.413023376464843750e+01 -1.390827560424804688e+01 1.646573800826445222e-04 1.001124910544604063e-04 7.943095988593995571e-05 4.288635318516753614e-05
3.300000000000000000e+03 7.418925476074218750e+01 -1.464601135253906250e+01 -1.401869667461141944e-04 -7.565278065158054233e-05 -6.475192640209570527e-05 -9.412102372152730823e-05
3.301000000000000000e+03 7.345582580566406250e+01 -1.469340133666992188e+01 2.983222657348960638e-04 -1.526418782304972410e-05 8.491742482874542475e-05 1.834305148804560304e-04
3.302000000000000000e+03 7.487351226806640625e+01 -1.386064338684082031e+01 -7.428372100548585877e-06 -2.017064252868294716e-04 -6.274043698795139790e-05 -2.018215673160739243e-05
3.303000000000000000e+03 7.492264556884765625e+01 -1.459901237487792969e+01 3.524836793076246977e-04 1.077934066415764391e-04 1.380831236019730568e-04 6.903136090841144323e-05
3.304000000000000000e+03 7.565595245361328125e+01 -1.455239677429199219e+01 -2.540930872783064842e-04 -1.726529444567859173e-04 -1.280238066101446748e-04 -1.193631760543212295e-04
3.305000000000000000e+03 7.561669921875000000e+01 -1.381339359283447266e+01 1.774620905052870512e-04 3.066435747314244509e-04 1.452316937502473593e-04 3.476551137282513082e-05
3.306000000000000000e+03 7.338691711425781250e+01 -1.395629978179931641e+01 1.422530999661830720e-06 2.201786992372944951e-05 7.032120265648700297e-06 -5.688868623110465705e-05
3.307000000000000000e+03 7.636968994140625000e+01 -1.377867794036865234e+01 -5.110624624649062753e-05 -4.401123151183128357e-04 -1.473655720474198461e-04 -7.839775207685306668e-05
3.308000000000000000e+03 7.711952209472656250e+01 -1.377026462554931641e+01 2.064080617856234312e-04 6.109015084803104401e-04 2.451928739901632071e-04 1.543089456390589476e-04
3.309000000000000000e+03 7.880826568603515625e+01 -1.359098052978515625e+01 2.117893745889887214e-04 4.389444366097450256e-04 1.952201419044286013e-04 -1.999247033381834626e-04
3.310000000000000000e+03 7.957907104492187500e+01 -1.383945655822753906e+01 -8.632821118226274848e-05 -1.703896996332332492e-04 -7.701537106186151505e-05 9.873137605609372258e-05
3.311000000000000000e+03 7.818760681152343750e+01 -1.360080337524414062e+01 1.709502103039994836e-04 -3.813264193013310432e-04 -6.311286415439099073e-05 1.829641223594080657e-05
3.312000000000000000e+03 7.770421600341796875e+01 -1.456077384948730469e+01 2.500712580513209105e-04 3.865513135679066181e-04 1.909867714857682586e-04 -2.457294031046330929e-04
3.313000000000000000e+03 7.832720947265625000e+01 -1.463026809692382812e+01 -1.797481818357482553e-04 -3.752023330889642239e-04 -1.664851588429883122e-04 5.385957192629575729e-04
3.314000000000000000e+03 7.636756134033203125e+01 -1.452004623413085938e+01 4.078337224200367928e-04 2.386760752415284514e-04 1.939529320225119591e-04 1.473010343033820391e-04
3.315000000000000000e+03 7.868551635742187500e+01 -1.398741340637207031e+01 -1.601648837095126510e-04 9.141675400314852595e-05 -2.062443672912195325e-05 2.059594989987090230e-04
3.316000000000000000e+03 7.704452514648437500e+01 -1.451572895050048828e+01 -3.209166170563548803e-04 -3.031090891454368830e-04 -1.872077118605375290e-04 -1.712928788037970662e-04
3.317000000000000000e+03 7.932569885253906250e+01 -1.446048069000244141e+01 -6.354724755510687828e-04 3.378959954716265202e-04 -8.927294402383267879e-05 -1.891012652777135372e-04
3.318000000000000000e+03 7.842517852783203125e+01 -1.427305221557617188e+01 6.916451093275099993e-05 2.677615557331591845e-04 1.010778214549645782e-04 1.926191907841712236e-04
3.319000000000000000e+03 7.781768798828125000e+01 -1.396652030944824219e+01 -3.176413592882454395e-04 -5.568788619711995125e-04 -2.623560721985995770e-04 -1.120148954214528203e-04
3.320000000000000000e+03 7.885647583007812500e+01 -1.460024929046630859e+01 5.977323744446039200e-04 -1.255300303455442190e-04 1.416606974089518189e-04 -4.616122751031070948e-04
3.321000000000000000e+03 7.711834716796875000e+01 -1.299776554107666016e+01 1.356633752584457397e-02 1.728695788187906146e-04 4.121762234717607498e-03 3.733410732820630074e-03
3.322000000000000000e+03 7.789198303222656250e+01 -1.297994422912597656e+01 7.306463550776243210e-03 7.859189063310623169e-04 2.427714643999934196e-03 2.686853054910898209e-03
3.323000000000000000e+03 7.903719329833984375e+01 -1.217878055572509766e+01 1.433916273526847363e-03 3.155660349875688553e-03 1.376872998662292957e-03 3.582428442314267159e-03
3.324000000000000000e+03 7.634127044677734375e+01 -1.300821304321289062e+01 2.158859744668006897e-02 3.373437793925404549e-04 6.577782332897186279e-03 4.061419982463121414e-03
3.325000000000000000e+03 7.865165710449218750e+01 -1.295684051513671875e+01 2.343475585803389549e-03 1.847066450864076614e-04 7.584546692669391632e-04 1.906269812025129795e-03
3.326000000000000000e+03 7.934807586669921875e+01 -1.291915225982666016e+01 1.175097888335585594e-03 1.052194507792592049e-03 6.681877421215176582e-04 1.671445788815617561e-04
3.327000000000000000e+03 7.966441345214843750e+01 -1.234435749053955078e+01 2.326910544070415199e-05 1.290863729082047939e-03 3.942398470826447010e-04 1.202050712890923023e-03
3.328000000000000000e+03 7.627622985839843750e+01 -1.226877021789550781e+01 1.553448103368282318e-02 6.869054632261395454e-04 4.866416100412607193e-03 9.870965965092182159e-03
3.329000000000000000e+03 7.770402526855468750e+01 -1.224003696441650391e+01 7.852580398321151733e-03 1.561253448016941547e-03 2.824150258675217628e-03 8.430347777903079987e-03
3.330000000000000000e+03 7.840223693847656250e+01 -1.221670055389404297e+01 5.013898480683565140e-03 3.153633559122681618e-03 2.450259635224938393e-03 5.810930859297513962e-03
3.331000000000000000e+03 7.699185180664062500e+01 -1.225809097290039062e+01 1.285215374082326889e-02 1.026372308842837811e-03 4.163557663559913635e-03 9.012052789330482483e-03
3.332000000000000000e+03 7.406774902343750000e+01 -1.312981986999511719e+01 3.733723238110542297e-02 2.651780960150063038e-04 1.128072291612625122e-02 4.138808231800794601e-03
3.333000000000000000e+03 7.400872802734375000e+01 -1.239208412170410156e+01 2.698007971048355103e-02 -1.190374139696359634e-03 7.736911531537771225e-03 6.317132618278264999e-03
3.334000000000000000e+03 7.557528686523437500e+01 -1.303425216674804688e+01 2.796576544642448425e-02 6.319674430415034294e-04 8.579319342970848083e-03 4.636110272258520126e-03
3.335000000000000000e+03 7.331423187255859375e+01 -1.317915630340576172e+01 4.060172662138938904e-02 2.962442522402852774e-05 1.218940597027540207e-02 3.922840114682912827e-03
3.336000000000000000e+03 7.482145690917968750e+01 -1.308151912689208984e+01 3.346861153841018677e-02 -1.119030202971771359e-04 1.000701170414686203e-02 4.592482000589370728e-03
3.337000000000000000e+03 7.553604125976562500e+01 -1.229524612426757812e+01 2.037574537098407745e-02 7.641758566023781896e-05 6.135648582130670547e-03 8.883472532033920288e-03
3.338000000000000000e+03 7.324532318115234375e+01 -1.244205474853515625e+01 2.712104655802249908e-02 -1.090662786737084389e-03 7.809115108102560043e-03 3.738864790648221970e-03
3.339000000000000000e+03 7.477232360839843750e+01 -1.234315013885498047e+01 2.321695908904075623e-02 -2.344516979064792395e-04 6.894752383232116699e-03 7.806169334799051285e-03
3.340000000000000000e+03 7.096827697753906250e+01 -1.272444248199462891e+01 2.528645843267440796e-02 -4.489236511290073395e-03 6.239166483283042908e-03 -5.382637493312358856e-03
3.341000000000000000e+03 7.106666564941406250e+01 -1.345787525177001953e+01 2.951506711542606354e-02 -5.173404351808130741e-04 8.699318394064903259e-03 5.267520318739116192e-04
3.342000000000000000e+03 7.031845092773437500e+01 -1.356116008758544922e+01 2.225982025265693665e-02 -1.285396516323089600e-03 6.292326841503381729e-03 -1.093788654543459415e-03
3.343000000000000000e+03 7.181496429443359375e+01 -1.335562419891357422e+01 3.568064793944358826e-02 -9.039982687681913376e-04 1.043299585580825806e-02 2.427445491775870323e-03
3.344000000000000000e+03 7.172639465332031250e+01 -1.262085151672363281e+01 2.696836553514003754e-02 -3.338109236210584641e-03 7.089076563715934753e-03 -2.340609906241297722e-03
3.345000000000000000e+03 7.256328582763671875e+01 -1.325442695617675781e+01 3.969055414199829102e-02 4.303802561480551958e-04 1.203628070652484894e-02 3.580210264772176743e-03
3.346000000000000000e+03 7.248452758789062500e+01 -1.251831245422363281e+01 2.824545279145240784e-02 -2.392763737589120865e-03 7.755806669592857361e-03 5.721541238017380238e-04
3.347000000000000000e+03 7.021024322509765625e+01 -1.282906818389892578e+01 2.018851786851882935e-02 -3.249031025916337967e-03 5.081845913082361221e-03 -8.089592680335044861e-03
3.348000000000000000e+03 6.788661956787109375e+01 -1.320209407806396484e+01 -6.607779650948941708e-04 4.409685730934143066e-03 1.124672358855605125e-03 -3.498377045616507530e-03
3.349000000000000000e+03 6.878565216064453125e+01 -1.352828216552734375e+01 5.069687031209468842e-03 -8.220407762564718723e-04 1.274293870665132999e-03 -4.184440243989229202e-03
3.350000000000000000e+03 6.828938293457031250e+01 -1.306586265563964844e+01 6.078455597162246704e-03 5.011133849620819092e-03 3.326876787468791008e-03 -6.272171158343553543e-03
3.351000000000000000e+03 6.830919647216796875e+01 -1.388005447387695312e+01 2.657376695424318314e-03 5.765653331764042377e-04 9.701825911179184914e-04 -1.192203606478869915e-03
3.352000000000000000e+03 6.952383422851562500e+01 -1.367080211639404297e+01 1.244560815393924713e-02 1.474433083785697818e-04 3.777915379032492638e-03 -1.852840301580727100e-03
3.353000000000000000e+03 6.948915863037109375e+01 -1.292583274841308594e+01 1.611461490392684937e-02 -1.803894876502454281e-03 4.293215926736593246e-03 -9.921580553054809570e-03
3.354000000000000000e+03 6.884123229980468750e+01 -1.296961402893066406e+01 1.235535275191068649e-02 -2.143300953321158886e-04 3.642306663095951080e-03 -9.101424366235733032e-03
3.355000000000000000e+03 6.915425872802734375e+01 -1.528317165374755859e+01 -3.799999249167740345e-04 -1.105717165046371520e-04 -1.471714931540191174e-04 -5.723098292946815491e-04
3.356000000000000000e+03 6.981649780273437500e+01 -1.516665935516357422e+01 -4.585642309393733740e-04 6.918440340086817741e-04 6.998393655521795154e-05 1.554720802232623100e-04
3.357000000000000000e+03 6.849820709228515625e+01 -1.521993160247802734e+01 -8.057311060838401318e-04 -4.129482840653508902e-04 -3.656038315966725349e-04 4.170188040006905794e-04
3.358000000000000000e+03 6.962475585937500000e+01 -1.444882297515869141e+01 -1.951249032572377473e-05 -7.224662113003432751e-04 -2.225936186732724309e-04 1.511021691840142012e-04
3.359000000000000000e+03 6.880525207519531250e+01 -1.459250164031982422e+01 8.105426095426082611e-04 6.716092466376721859e-04 4.446455568540841341e-04 -5.175431142561137676e-04
3.360000000000000000e+03 1.628620338439941406e+01 -1.255944609642028809e+00 -9.320383667945861816e-01 -1.825086399912834167e-02 -2.850867807865142822e-01 4.119616746902465820e-02
3.361000000000000000e+03 1.779829025268554688e+01 -2.059187889099121094e+00 -8.728648424148559570e-01 -2.167882211506366730e-02 -2.683630883693695068e-01 -3.150828182697296143e-02
3.362000000000000000e+03 1.623538208007812500e+01 -1.994474172592163086e+00 -7.932955622673034668e-01 -2.200339362025260925e-02 -2.445896863937377930e-01 7.585177663713693619e-03
3.363000000000000000e+03 1.858121871948242188e+01 -2.091711521148681641e+00 -8.697941303253173828e-01 -5.718950927257537842e-02 -2.780950963497161865e-01 -5.335470661520957947e-02
3.364000000000000000e+03 1.856809425354003906e+01 -1.350533485412597656e+00 -1.058847427368164062e+00 -2.159379795193672180e-02 -3.241323828697204590e-01 -1.490205712616443634e-02
3.365000000000000000e+03 1.704577255249023438e+01 -1.287305474281311035e+00 -9.418915510177612305e-01 -1.083482522517442703e-03 -2.828924953937530518e-01 2.515949495136737823e-02
3.366000000000000000e+03 1.701626777648925781e+01 -2.026717901229858398e+00 -8.385422229766845703e-01 -2.132360450923442841e-02 -2.579597532749176025e-01 -2.554670441895723343e-03
3.367000000000000000e+03 1.780648040771484375e+01 -1.318892598152160645e+00 -9.783102273941040039e-01 -9.310825727880001068e-03 -2.962863147258758545e-01 1.624662801623344421e-02
3.368000000000000000e+03 2.016102409362792969e+01 -1.984116315841674805e+00 -9.207777380943298340e-01 -3.350070118904113770e-02 -2.862835526466369629e-01 -6.676138937473297119e-02
3.369000000000000000e+03 1.932956504821777344e+01 -1.326877713203430176e+00 -1.068536162376403809e+00 -3.916624560952186584e-02 -3.323107361793518066e-01 -6.851867586374282837e-02
3.370000000000000000e+03 2.095439147949218750e+01 -1.900163888931274414e+00 -9.163391590118408203e-01 -8.459365926682949066e-03 -2.774395644664764404e-01 -8.821189403533935547e-02
3.371000000000000000e+03 1.936882019042968750e+01 -2.066858530044555664e+00 -8.875864744186401367e-01 -4.523866251111030579e-02 -2.798475325107574463e-01 -4.693104699254035950e-02
3.372000000000000000e+03 2.174835014343261719e+01 -1.814883351325988770e+00 -8.897868990898132324e-01 -1.581415161490440369e-02 -2.716803252696990967e-01 -7.168814539909362793e-02
3.373000000000000000e+03 2.161623764038085938e+01 -1.084643244743347168e+00 -9.816148877143859863e-01 -1.065942458808422089e-02 -2.976822853088378906e-01 -1.107065081596374512e-01
3.374000000000000000e+03 2.009082221984863281e+01 -1.247412800788879395e+00 -1.008122324943542480e+00 -2.872557146474719048e-03 -3.032984733581542969e-01 -9.582702070474624634e-02
3.375000000000000000e+03 2.085324478149414062e+01 -1.166737556457519531e+00 -9.871146082878112793e-01 -2.238829247653484344e-02 -3.028508722782135010e-01 -9.784595668315887451e-02
3.376000000000000000e+03 2.387390518188476562e+01 -4.479292035102844238e-01 -2.193748205900192261e-01 2.431279979646205902e-02 -5.851860716938972473e-02 1.044574156403541565e-01
3.377000000000000000e+03 2.338660240173339844e+01 -1.393575310707092285e+00 -9.386703372001647949e-01 1.542188376188278198e-01 -2.353354543447494507e-01 4.571877419948577881e-03
3.378000000000000000e+03 2.463154602050781250e+01 -7.788130044937133789e-01 -5.437328815460205078e-01 -1.413449794054031372e-01 -2.055233567953109741e-01 2.215783447027206421e-01
3.379000000000000000e+03 2.316317939758300781e+01 -6.830692291259765625e-01 -5.277491807937622070e-01 1.001288443803787231e-01 -1.282861083745956421e-01 -1.870009675621986389e-02
3.380000000000000000e+03 2.239013290405273438e+01 -9.233466386795043945e-01 -8.236965537071228027e-01 -2.690327167510986328e-02 -2.551799416542053223e-01 -1.007764935493469238e-01
3.381000000000000000e+03 2.256301116943359375e+01 -1.645976901054382324e+00 -9.061752557754516602e-01 8.986576646566390991e-02 -2.448928505182266235e-01 -1.106012612581253052e-02
3.382000000000000000e+03 2.414787673950195312e+01 -1.146310925483703613e+00 -9.538606405258178711e-01 9.668286889791488647e-02 -2.571533322334289551e-01 4.825642704963684082e-02
3.383000000000000000e+03 2.268977355957031250e+01 7.519461512565612793e-01 -1.460683870391221717e-05 -9.198206498695071787e-06 -7.141513833630597219e-06 -7.165850092860637233e-06
3.384000000000000000e+03 2.288392829895019531e+01 3.258301690220832825e-02 3.782691010201233439e-06 -2.902849303154653171e-07 1.047721752911456861e-06 8.617525963927619159e-07
3.385000000000000000e+03 2.203942871093750000e+01 5.569665431976318359e-01 9.124144071392947808e-07 1.418456577084725723e-05 4.529093985183862969e-06 3.684988314489601180e-06
3.386000000000000000e+03 2.220252990722656250e+01 -1.685228794813156128e-01 -1.045870931193348952e-06 -2.791614633679273538e-06 -1.151245669461786747e-06 -1.996062110265484080e-06
3.387000000000000000e+03 2.341383171081542969e+01 3.852292895317077637e-01 -6.158349492579873186e-07 1.792871131556239561e-07 -1.309643522517944803e-07 -1.812477137264068006e-07
3.388000000000000000e+03 2.074801826477050781e+01 -3.961672186851501465e-01 -8.401435707128257491e-07 -4.386312411952530965e-06 -1.567936806168290786e-06 2.157798917323816568e-06
3.389000000000000000e+03 2.001827239990234375e+01 -4.734351336956024170e-01 3.511082695695222355e-06 4.008037137737119338e-07 1.173565919998509344e-06 -1.846486043177719694e-06
3.390000000000000000e+03 2.134514999389648438e+01 4.143537878990173340e-01 -1.207891727972310036e-06 -7.404869393212720752e-06 -2.583828290880774148e-06 3.685737738123862073e-06
3.391000000000000000e+03 1.924920082092285156e+01 1.924032717943191528e-01 7.609986369061516598e-06 -1.022319679577776697e-06 1.976299927264335565e-06 -2.401027813903056085e-06
3.392000000000000000e+03 1.994807052612304688e+01 2.632684409618377686e-01 -6.864871011202922091e-06 6.279523745433834847e-07 -1.871075596682203468e-06 3.195822273482917808e-06
3.393000000000000000e+03 2.064687156677246094e+01 3.372591733932495117e-01 5.901048098166938871e-06 5.769901463281712495e-07 1.943411461979849264e-06 -3.849272616207599640e-06
3.394000000000000000e+03 1.928845596313476562e+01 -5.475775003433227539e-01 -1.563709020047099330e-06 3.236498741898685694e-06 5.018368938181083649e-07 1.061429657056578435e-06
3.395000000000000000e+03 2.147724342346191406e+01 -3.157954216003417969e-01 7.461228506144834682e-07 5.561870239034760743e-06 1.892397904157405719e-06 3.485818353965441929e-07
3.396000000000000000e+03 1.707793617248535156e+01 -5.109162330627441406e-01 2.728778554228483699e-06 -7.657264177396427840e-06 -1.478545755162485875e-06 6.121698561400990002e-07
3.397000000000000000e+03 1.633993148803710938e+01 -4.782602787017822266e-01 -1.337066805717768148e-06 6.193238277774071321e-06 1.456851464354258496e-06 -9.413486736775666941e-07
3.398000000000000000e+03 1.781616592407226562e+01 -5.415064096450805664e-01 -1.841333073571149725e-06 7.735336112091317773e-06 1.768201059348939452e-06 1.284534789647295838e-07
3.399000000000000000e+03 1.854128074645996094e+01 1.711868941783905029e-01 -6.619304258492775261e-06 8.757415344007313251e-07 -1.723068862702348270e-06 1.341229108220431954e-06
3.400000000000000000e+03 1.855440711975097656e+01 -5.699911117553710938e-01 2.697536729101557285e-06 -5.964060619589872658e-06 -9.799571216717595235e-07 -8.725770044293312822e-07
3.401000000000000000e+03 1.639075088500976562e+01 2.602692842483520508e-01 5.709082870453130454e-06 3.388132370218954748e-07 1.814368829400336836e-06 3.575576101866317913e-06
3.402000000000000000e+03 1.710744285583496094e+01 2.284961640834808350e-01 -7.194357749540358782e-06 4.622098686013487168e-07 -2.019644398387754336e-06 -2.494195541657973081e-06
3.403000000000000000e+03 1.782435607910156250e+01 1.987887471914291382e-01 7.751353223284240812e-06 -7.162989845710399095e-07 2.110516334141721018e-06 2.363569109320451389e-07
3.404000000000000000e+03 1.421318435668945312e+01 5.040000677108764648e-01 -5.427303676697192714e-06 -2.480875537003157660e-06 -2.372453764110105112e-06 -2.592658120192936622e-06
3.405000000000000000e+03 1.412459087371826172e+01 -2.306861728429794312e-01 1.751073568811989389e-06 -2.351196144445566460e-06 -1.800367357418508618e-07 5.890706233913078904e-07
3.406000000000000000e+03 1.338628387451171875e+01 -1.375386416912078857e-01 -1.654215679991466459e-06 1.583374796609859914e-06 -2.125226750138153875e-08 -6.025736070114362519e-07
3.407000000000000000e+03 1.486306858062744141e+01 -3.233485221862792969e-01 -1.618677970327553339e-06 3.483251020952593535e-06 5.593718697127769701e-07 -7.594812245770299342e-07
3.408000000000000000e+03 1.566856193542480469e+01 3.219058215618133545e-01 -5.616207545244833454e-06 -1.581699507369194180e-06 -2.159372115784208290e-06 -3.470199544608476572e-06
3.409000000000000000e+03 1.560165977478027344e+01 -4.155019819736480713e-01 2.167075535908224992e-06 -4.693292339652543887e-06 -7.578651093353983015e-07 5.469681241265789140e-07
3.410000000000000000e+03 1.348572158813476562e+01 5.957868695259094238e-01 5.098580913909245282e-06 2.946864697150886059e-06 2.413633637843304314e-06 2.736011538218008354e-06
3.411000000000000000e+03 1.494081592559814453e+01 4.126985073089599609e-01 4.929324404656654224e-06 2.495614580766414292e-06 2.227481672889553010e-06 2.679969156815786846e-06
3.412000000000000000e+03 1.115022563934326172e+01 2.165033817291259766e-01 7.632526717316068243e-07 1.279415755561785772e-06 6.128005338723596651e-07 1.309727053921960760e-06
3.413000000000000000e+03 1.122651290893554688e+01 9.537453055381774902e-01 -4.989182343706488609e-06 -5.160369710210943595e-06 -3.044865707124699838e-06 -4.573675596475368366e-06
3.414000000000000000e+03 1.040434932708740234e+01 3.321511745452880859e-01 -3.549748498699045740e-06 -3.330110757815418765e-06 -2.063957708742236719e-06 -2.314865014341194183e-06
3.415000000000000000e+03 1.189680099487304688e+01 9.631319344043731689e-02 -2.104158738802652806e-06 1.260059718788397731e-07 -5.934458044976054225e-07 -1.180139975076599512e-06
3.416000000000000000e+03 1.274307727813720703e+01 7.053368687629699707e-01 -6.040887001290684566e-06 -3.631440222306991927e-06 -2.901698280766140670e-06 -3.082071543758502230e-06
3.417000000000000000e+03 1.264393043518066406e+01 -2.822761237621307373e-02 1.692562364041805267e-06 -9.908252422974328510e-07 2.105211507341664401e-07 6.011911182213225402e-07
3.418000000000000000e+03 1.046920776367187500e+01 1.071231842041015625e+00 7.238842954393476248e-06 6.018798558216076344e-06 3.977292635681806132e-06 4.846334377361927181e-06
3.419000000000000000e+03 1.198451900482177734e+01 8.317164182662963867e-01 5.214694283495191485e-06 4.223159521643538028e-06 2.831356141541618854e-06 3.376164613655419089e-06
3.420000000000000000e+03 9.722556114196777344e+00 1.127092480659484863e+00 -2.101848622260149568e-06 -6.762518751202151179e-06 -2.659310212038690224e-06 -6.314688562270021066e-06
3.421000000000000000e+03 8.893199920654296875e+00 3.828711509704589844e-01 -2.367781689827097580e-06 -1.036891080730129033e-05 -3.821007794613251463e-06 -2.842711865014280193e-06
3.422000000000000000e+03 8.134614944458007812e+00 3.804794847965240479e-01 1.378975071020249743e-06 1.253120353794656694e-05 4.173053639533463866e-06 3.707363930516294204e-06
3.423000000000000000e+03 7.376657485961914062e+00 3.794998824596405029e-01 -2.169466824852861464e-06 -1.459675422665895894e-05 -5.029866315453546122e-06 -4.172618901066016406e-06
3.424000000000000000e+03 5.861315727233886719e+00 3.756705820560455322e-01 -2.329397375433472916e-06 -1.724545472825411707e-05 -5.872455858479952440e-06 -5.291045908961677924e-06
3.425000000000000000e+03 5.314155578613281250e+00 1.111996769905090332e+00 -3.668505542009370402e-06 -1.439956395188346505e-05 -5.420421075541526079e-06 -5.721318302676081657e-06
3.426000000000000000e+03 4.345917224884033203e+00 3.706551194190979004e-01 -3.384119963811826892e-06 -1.832195812312420458e-05 -6.511823812616057694e-06 -6.894023954373551533e-06
3.427000000000000000e+03 2.830904960632324219e+00 3.606805205345153809e-01 -3.122477437500492670e-06 -1.960904410225339234e-05 -6.819456302764592692e-06 -8.178351890819612890e-06
3.428000000000000000e+03 2.075619697570800781e+00 3.579981029033660889e-01 3.338990836709854193e-06 1.829913344408851117e-05 6.491437488875817508e-06 7.669255865039303899e-06
3.429000000000000000e+03 2.378913402557373047e+00 1.097998142242431641e+00 8.853727990754123311e-07 -1.441097356291720644e-05 -4.057680143887409940e-06 -3.899598596035502851e-06
3.430000000000000000e+03 1.332661628723144531e+00 3.664357960224151611e-01 -2.611935769891715609e-06 -1.593388697074260563e-05 -5.563746981351869181e-06 -6.852259048173436895e-06
3.431000000000000000e+03 1.659207582473754883e+00 1.106435775756835938e+00 -1.716560632303298917e-06 1.210079062730073929e-05 3.115269009867915884e-06 1.060434442479163408e-06
3.432000000000000000e+03 6.544207930564880371e-01 3.946581482887268066e-01 1.652828359510749578e-05 1.715032158244866878e-05 1.010358118946896866e-05 1.394993614667328075e-05
3.433000000000000000e+03 3.110946178436279297e+00 1.100680470466613770e+00 1.820356146708945744e-06 1.467421952838776633e-05 4.948372861690586433e-06 6.749494787072762847e-06
3.434000000000000000e+03 3.587856292724609375e+00 3.676122725009918213e-01 3.662262997750076465e-06 1.931730548676569015e-05 6.893870249768951908e-06 8.064220310188829899e-06
3.435000000000000000e+03 5.103871345520019531e+00 3.719967305660247803e-01 2.539490196795668453e-06 1.779615922714583576e-05 6.100694918131921440e-06 5.939107268204679713e-06
3.436000000000000000e+03 6.048347473144531250e+00 1.115670561790466309e+00 3.447860308369854465e-06 1.389834505971521139e-05 5.203861746849725023e-06 5.947984391241334379e-06
3.437000000000000000e+03 6.618996143341064453e+00 3.784884214401245117e-01 1.856767767094424926e-06 1.616432564333081245e-05 5.406328000390203670e-06 4.826257736567640677e-06
3.438000000000000000e+03 8.251890182495117188e+00 1.120479464530944824e+00 -4.461923253984423354e-06 -1.066054574039299041e-05 -4.536740561889018863e-06 -5.878427600691793486e-06
3.439000000000000000e+03 8.987222671508789062e+00 1.122871160507202148e+00 4.224746589898131788e-06 8.445057574135717005e-06 3.800941158260684460e-06 6.183046934893354774e-06
3.440000000000000000e+03 9.651785850524902344e+00 3.870925009250640869e-01 -1.469903878614786663e-07 7.269684829225298017e-06 2.136808461727923714e-06 3.387324113646172918e-06
3.441000000000000000e+03 7.517184734344482422e+00 1.119499921798706055e+00 3.789320771829807200e-06 1.199907910631736740e-05 4.736520168080460280e-06 6.231424777070060372e-06
3.442000000000000000e+03 6.782775878906250000e+00 1.118488430976867676e+00 -3.891284904966596514e-06 -1.313035318162292242e-05 -5.106491698825266212e-06 -5.886663075216347352e-06
3.443000000000000000e+03 4.579453945159912109e+00 1.110655069351196289e+00 4.569687007460743189e-06 1.417450312146684155e-05 5.623257038678275421e-06 6.186619884829269722e-06
3.444000000000000000e+03 3.844645261764526367e+00 1.107612252235412598e+00 -4.161431661486858502e-06 -1.394310584146296605e-05 -5.431361387309152633e-06 -6.859937457193154842e-06
3.445000000000000000e+03 1.004219174385070801e+00 1.134658098220825195e+00 -9.752722689881920815e-06 -2.930388291133567691e-06 -3.804933157880441286e-06 3.250743247917853296e-06
3.446000000000000000e+03 3.516347110271453857e-01 9.575126171112060547e-01 -1.192508716485463083e-05 -8.261937182396650314e-06 -6.056106940377503633e-06 -9.087265425478108227e-06
3.447000000000000000e+03 1.328147125244140625e+01 -9.107246994972229004e-01 -7.151962518692016602e-01 -1.060463674366474152e-02 -2.177402526140213013e-01 6.827838718891143799e-02
3.448000000000000000e+03 1.470345211029052734e+01 -1.836183547973632812e+00 -7.329004406929016113e-01 -2.139175310730934143e-03 -2.205118983983993530e-01 1.101198792457580566e-02
3.449000000000000000e+03 1.318203258514404297e+01 -1.644050240516662598e+00 -6.373476982116699219e-01 4.122789017856121063e-03 -1.899674832820892334e-01 1.062120124697685242e-02
3.450000000000000000e+03 1.478120040893554688e+01 -1.100136518478393555e+00 -8.132497668266296387e-01 -9.479406289756298065e-03 -2.468187659978866577e-01 7.271549105644226074e-02
3.451000000000000000e+03 1.546425342559814453e+01 -1.930399060249328613e+00 -7.599514126777648926e-01 -2.033137716352939606e-02 -2.340848296880722046e-01 3.384863259270787239e-03
3.452000000000000000e+03 1.553115558624267578e+01 -1.192991256713867188e+00 -8.880748748779296875e-01 -1.474051270633935928e-02 -2.708446085453033447e-01 6.490030139684677124e-02
3.453000000000000000e+03 1.403127861022949219e+01 -1.006039500236511230e+00 -7.604259252548217773e-01 -5.334249231964349747e-03 -2.297280579805374146e-01 7.007680833339691162e-02
3.454000000000000000e+03 1.394268608093261719e+01 -1.740725755691528320e+00 -6.863045096397399902e-01 5.997629486955702305e-04 -2.057114243507385254e-01 1.591616123914718628e-02
3.455000000000000000e+03 1.171745300292968750e+01 -1.416588187217712402e+00 -5.485424399375915527e-01 1.645020209252834320e-02 -1.596276611089706421e-01 -5.991627462208271027e-03
3.456000000000000000e+03 1.027132415771484375e+01 -1.186757922172546387e+00 -4.595095217227935791e-01 3.302847966551780701e-02 -1.279443204402923584e-01 -2.456910721957683563e-02
3.457000000000000000e+03 1.244032764434814453e+01 -1.534988999366760254e+00 -5.923489332199096680e-01 7.968332618474960327e-03 -1.753141880035400391e-01 4.330092051532119513e-04
3.458000000000000000e+03 1.253947448730468750e+01 -8.014244437217712402e-01 -6.567813754081726074e-01 -8.018326014280319214e-03 -1.994399130344390869e-01 6.780910491943359375e-02
3.459000000000000000e+03 1.180517101287841797e+01 -6.811850070953369141e-01 -5.861183404922485352e-01 -4.781595896929502487e-03 -1.772699952125549316e-01 6.051025912165641785e-02
3.460000000000000000e+03 1.107078933715820312e+01 -5.637502074241638184e-01 -5.187480449676513672e-01 -4.562622343655675650e-04 -1.557613015174865723e-01 4.847442731261253357e-02
3.461000000000000000e+03 1.099450206756591797e+01 -1.300992131233215332e+00 -4.969608485698699951e-01 2.415022440254688263e-02 -1.418431848287582397e-01 -1.709316857159137726e-02
3.462000000000000000e+03 1.033618259429931641e+01 -4.476772546768188477e-01 -4.427147805690765381e-01 9.623398073017597198e-03 -1.299274116754531860e-01 2.796346507966518402e-02
3.463000000000000000e+03 9.576753616333007812e+00 -3.928347527980804443e-01 -4.036219418048858643e-01 1.239138096570968628e-02 -1.173691675066947937e-01 1.085095922462642193e-03
3.464000000000000000e+03 9.504050254821777344e+00 -1.132834792137145996e+00 -4.137229025363922119e-01 2.754149213433265686e-02 -1.158544197678565979e-01 -2.972913533449172974e-02
3.465000000000000000e+03 8.792594909667968750e+00 -3.964475393295288086e-01 -3.914347290992736816e-01 3.013899782672524452e-03 -1.165262460708618164e-01 -1.567666791379451752e-02
3.466000000000000000e+03 8.008638381958007812e+00 -3.979170620441436768e-01 -3.550433516502380371e-01 2.785590244457125664e-03 -1.056773290038108826e-01 -2.178703993558883667e-02
3.467000000000000000e+03 7.224994659423828125e+00 -3.992207646369934082e-01 -3.084790408611297607e-01 3.637876361608505249e-04 -9.243457764387130737e-02 -2.538725920021533966e-02
3.468000000000000000e+03 6.441524982452392578e+00 -4.004793763160705566e-01 -2.565995156764984131e-01 1.062822528183460236e-03 -7.666100561618804932e-02 -2.683691680431365967e-02
3.469000000000000000e+03 5.658351421356201172e+00 -4.034211039543151855e-01 -2.024898529052734375e-01 -1.080186571925878525e-03 -6.107101216912269592e-02 -2.733805775642395020e-02
3.470000000000000000e+03 4.875236511230468750e+00 -4.076028764247894287e-01 -1.493747383356094360e-01 -1.621233241166919470e-04 -4.486105963587760925e-02 -2.597871609032154083e-02
3.471000000000000000e+03 4.092308998107910156e+00 -4.107097685337066650e-01 -9.979946166276931763e-02 -3.213626332581043243e-03 -3.090392611920833588e-02 -2.361708506941795349e-02
3.472000000000000000e+03 2.531672000885009766e+00 -4.164903461933135986e-01 -2.489944919943809509e-02 -4.825436044484376907e-03 -8.917465806007385254e-03 -1.233679056167602539e-02
3.473000000000000000e+03 2.214911937713623047e+00 -1.156490325927734375e+00 -3.406418859958648682e-02 -1.505168993026018143e-02 -1.473476365208625793e-02 -3.036916255950927734e-02
3.474000000000000000e+03 3.740455806255340576e-01 -5.643077492713928223e-01 6.553383427672088146e-04 2.539622830227017403e-03 9.584883227944374084e-04 1.306821592152118683e-03
3.475000000000000000e+03 1.421646475791931152e+00 -1.153123378753662109e+00 -1.520153693854808807e-02 -1.251862384378910065e-02 -8.316048420965671539e-03 -1.253353990614414215e-02
3.476000000000000000e+03 8.692774772644042969e+00 -1.136447548866271973e+00 -3.618882596492767334e-01 1.672998443245887756e-02 -1.035474836826324463e-01 -4.738387092947959900e-02
3.477000000000000000e+03 7.881700515747070312e+00 -1.137917041778564453e+00 -3.228059113025665283e-01 7.165801245719194412e-03 -9.469203650951385498e-02 -6.252019852399826050e-02
3.478000000000000000e+03 7.070939540863037109e+00 -1.139220714569091797e+00 -2.790248692035675049e-01 5.058466456830501556e-03 -8.218992501497268677e-02 -7.028415054082870483e-02
3.479000000000000000e+03 6.260352134704589844e+00 -1.140479445457458496e+00 -2.327670454978942871e-01 -9.833739022724330425e-05 -6.985961645841598511e-02 -7.381208240985870361e-02
3.480000000000000000e+03 5.450060844421386719e+00 -1.143421053886413574e+00 -1.865636706352233887e-01 -1.416908577084541321e-03 -5.639417096972465515e-02 -7.365027070045471191e-02
3.481000000000000000e+03 4.639828681945800781e+00 -1.147602915763854980e+00 -1.411445885896682739e-01 -6.731606088578701019e-03 -4.436286166310310364e-02 -6.957520544528961182e-02
3.482000000000000000e+03 3.829783916473388672e+00 -1.150709748268127441e+00 -1.001769974827766418e-01 -8.508859202265739441e-03 -3.260575607419013977e-02 -6.148294731974601746e-02
3.483000000000000000e+03 3.020616531372070312e+00 -1.151894450187683105e+00 -6.278543919324874878e-02 -1.542117446660995483e-02 -2.346198447048664093e-02 -4.874053597450256348e-02
3.484000000000000000e+03 3.310259342193603516e+00 -4.118944704532623291e-01 -5.709660053253173828e-02 -2.111431444063782692e-03 -1.776240952312946320e-02 -1.811765693128108978e-02
3.485000000000000000e+03 1.765524148941040039e+00 -4.131233394145965576e-01 -5.460519809275865555e-03 -1.606962643563747406e-03 -2.120244782418012619e-03 -4.953372757881879807e-03
3.486000000000000000e+03 1.067645549774169922e+00 -3.868701159954071045e-01 1.742265070788562298e-03 -3.789677983149886131e-03 -6.142238853499293327e-04 -3.695140767376869917e-04
3.487000000000000000e+03 6.966503262519836426e-01 -1.126870155334472656e+00 -5.046771373599767685e-03 -2.606017980724573135e-03 -2.295836806297302246e-03 -1.783072249963879585e-03
3.488000000000000000e+03 3.999549484252929688e+01 -7.375474929809570312e+00 2.978000450134277344e+01 3.354659080505371094e+00 9.940399169921875000e+00 7.606862068176269531e+00
3.489000000000000000e+03 3.999285507202148438e+01 -7.356206417083740234e+00 2.886429214477539062e+01 1.165568923950195312e+01 1.215599441528320312e+01 1.707522583007812500e+01
3.490000000000000000e+03 3.998652267456054688e+01 -7.337819099426269531e+00 2.714785194396972656e+01 2.006007575988769531e+01 1.416237831115722656e+01 2.099658966064453125e+01
3.491000000000000000e+03 3.997673416137695312e+01 -7.321014404296875000e+00 2.392429733276367188e+01 2.938592338562011719e+01 1.599306583404541016e+01 2.289741134643554688e+01
3.492000000000000000e+03 3.996386718750000000e+01 -7.306434631347656250e+00 2.074657440185546875e+01 3.786285781860351562e+01 1.758283042907714844e+01 2.237924194335937500e+01
3.493000000000000000e+03 3.994840621948242188e+01 -7.294635772705078125e+00 1.737928962707519531e+01 4.553186416625976562e+01 1.887334632873535156e+01 1.980896949768066406e+01
3.494000000000000000e+03 3.993094635009765625e+01 -7.286068916320800781e+00 1.527787113189697266e+01 5.131639480590820312e+01 1.997827911376953125e+01 1.566205692291259766e+01
3.495000000000000000e+03 3.991215515136718750e+01 -7.281060695648193359e+00 1.394399833679199219e+01 5.472843933105468750e+01 2.060173034667968750e+01 1.047319602966308594e+01
3.496000000000000000e+03 3.989274597167968750e+01 -7.279803276062011719e+00 1.485341835021972656e+01 5.598418807983398438e+01 2.125128173828125000e+01 5.163142681121826172e+00
3.497000000000000000e+03 3.987346649169921875e+01 -7.282343864440917969e+00 1.652752113342285156e+01 5.472390747070312500e+01 2.137542915344238281e+01 2.459715455770492554e-01
3.498000000000000000e+03 3.985504913330078125e+01 -7.288585662841796875e+00 1.985284996032714844e+01 5.211827087402343750e+01 2.159133720397949219e+01 -3.321892976760864258e+00
3.499000000000000000e+03 3.983819580078125000e+01 -7.298290252685546875e+00 2.343168449401855469e+01 4.818687820434570312e+01 2.148556900024414062e+01 -5.548732757568359375e+00
3.500000000000000000e+03 3.982355117797851562e+01 -7.311087131500244141e+00 2.729706573486328125e+01 4.422824478149414062e+01 2.145759391784667969e+01 -6.075962066650390625e+00
3.501000000000000000e+03 3.981167602539062500e+01 -7.326487541198730469e+00 3.055598640441894531e+01 4.036397933959960938e+01 2.127598953247070312e+01 -5.248971939086914062e+00
3.502000000000000000e+03 3.980302047729492188e+01 -7.343903541564941406e+00 3.321692276000976562e+01 3.757878494262695312e+01 2.123871231079101562e+01 -3.200283288955688477e+00
3.503000000000000000e+03 3.979791641235351562e+01 -7.362670421600341797e+00 3.475116729736328125e+01 3.567462158203125000e+01 2.112773704528808594e+01 -3.937744498252868652e-01
3.504000000000000000e+03 3.979656219482421875e+01 -7.382070541381835938e+00 3.521726608276367188e+01 3.529972076416015625e+01 2.115509605407714844e+01 2.822309017181396484e+00
3.505000000000000000e+03 3.979900741577148438e+01 -7.401364326477050781e+00 3.438441848754882812e+01 3.617048645019531250e+01 2.116647148132324219e+01 6.049501895904541016e+00
3.506000000000000000e+03 3.980515670776367188e+01 -7.419814109802246094e+00 3.236010360717773438e+01 3.853349304199218750e+01 2.126807975769042969e+01 8.841209411621093750e+00
3.507000000000000000e+03 3.981477737426757812e+01 -7.436715602874755859e+00 2.909899520874023438e+01 4.182826232910156250e+01 2.127817726135253906e+01 1.076803588867187500e+01
3.508000000000000000e+03 3.982749938964843750e+01 -7.451423645019531250e+00 2.505247497558593750e+01 4.605878829956054688e+01 2.133337974548339844e+01 1.132709503173828125e+01
3.509000000000000000e+03 3.984284210205078125e+01 -7.463376522064208984e+00 2.037687873840332031e+01 5.017483901977539062e+01 2.116551399230957031e+01 1.033716869354248047e+01
3.510000000000000000e+03 3.986021423339843750e+01 -7.472117424011230469e+00 1.599784851074218750e+01 5.383407974243164062e+01 2.094957923889160156e+01 7.553706645965576172e+00
3.511000000000000000e+03 3.987895584106445312e+01 -7.477313041687011719e+00 1.209825229644775391e+01 5.593393707275390625e+01 2.040965652465820312e+01 3.323987007141113281e+00
3.512000000000000000e+03 3.989834976196289062e+01 -7.478765010833740234e+00 9.580335617065429688e+00 5.606908035278320312e+01 1.969482421875000000e+01 -1.917822122573852539e+00
3.513000000000000000e+03 3.991765213012695312e+01 -7.476417541503906250e+00 8.405062675476074219e+00 5.374793243408203125e+01 1.864589881896972656e+01 -7.483266830444335938e+00
3.514000000000000000e+03 3.993613433837890625e+01 -7.470360279083251953e+00 8.630543708801269531e+00 4.907359695434570312e+01 1.731124305725097656e+01 -1.249016761779785156e+01
3.515000000000000000e+03 3.995308303833007812e+01 -7.460824489593505859e+00 1.007786655426025391e+01 4.230043029785156250e+01 1.571348857879638672e+01 -1.637545013427734375e+01
3.516000000000000000e+03 3.996785736083984375e+01 -7.448174476623535156e+00 1.194009208679199219e+01 3.416074371337890625e+01 1.383025074005126953e+01 -1.856110954284667969e+01
3.517000000000000000e+03 3.997988510131835938e+01 -7.432893753051757812e+00 1.436203670501708984e+01 2.496306800842285156e+01 1.179753112792968750e+01 -1.871714782714843750e+01
3.518000000000000000e+03 3.998871231079101562e+01 -7.415565013885498047e+00 1.613922882080078125e+01 1.590321445465087891e+01 9.612732887268066406e+00 -1.679236412048339844e+01
3.519000000000000000e+03 3.999400329589843750e+01 -7.396850109100341797e+00 1.902971076965332031e+01 5.730847835540771484e+00 7.428167343139648438e+00 -9.549531936645507812e+00
