# el_label, x, y, sXX, sYY, sZZ, sXY
1.000000000000000000e+00 3.892633438110351562e+01 -6.099218368530273438e+00 -4.594492646579906303e-13 -1.390302515447789863e-14 -1.420056834709054749e-13 -1.114520124410531277e-13
2.000000000000000000e+00 3.819995880126953125e+01 -5.994579792022705078e+00 -4.917240117689736234e-13 -1.192369499577322633e-13 -1.832882803864954724e-13 -9.449032675008448012e-14
3.000000000000000000e+00 3.965283203125000000e+01 -6.203396797180175781e+00 -2.635759720290981045e-13 -9.008565378040844784e-14 -1.060984863875992501e-13 -9.646586508109747382e-14
4.000000000000000000e+00 3.747375488281250000e+01 -5.889500617980957031e+00 -6.383485862300475322e-13 -9.057416817427610400e-14 -2.186768290318025221e-13 -9.945564743941634478e-14
5.000000000000000000e+00 3.883199310302734375e+01 -6.833267211914062500e+00 -4.214630218175169363e-13 -4.337415843158609619e-14 -1.394511540747309097e-13 7.511226443070433828e-15
6.000000000000000000e+00 3.735847854614257812e+01 -6.620533466339111328e+00 -6.334862647471017905e-13 -6.561485160544097694e-14 -2.097303450701581973e-13 8.592011515240124964e-14
7.000000000000000000e+00 3.956896591186523438e+01 -6.938953399658203125e+00 -2.924519621697735383e-13 -1.253365494073913067e-13 -1.253365494073913067e-13 -4.752011704598456399e-14
8.000000000000000000e+00 3.809514999389648438e+01 -6.727120399475097656e+00 -5.285486132967920359e-13 1.852377165502058776e-13 -1.029932703792285631e-13 -5.106583762077253341e-14
9.000000000000000000e+00 3.602727127075195312e+01 -5.635575294494628906e+00 -5.881306184250811864e-13 1.825780330958273745e-13 -1.216657796645342904e-13 3.390029142819050989e-14
1.000000000000000000e+01 3.589171600341796875e+01 -6.363053321838378906e+00 -7.894007171029004954e-13 -6.380888927046829417e-14 -2.559628670042307652e-13 1.288873928374442701e-13
1.100000000000000000e+01 3.674950027465820312e+01 -5.769296169281005859e+00 -5.528387535085055315e-13 -1.225535379558925775e-13 -2.026176942155830107e-13 -9.666853507790348389e-16
1.200000000000000000e+01 3.530526733398437500e+01 -5.501914978027343750e+00 -6.369447070470046768e-13 4.728032879488044959e-14 -1.768993209295272040e-13 1.326383257784294334e-13
1.300000000000000000e+01 3.458345413208007812e+01 -5.366842746734619141e+00 -6.383870754071707676e-13 2.296659769914638494e-13 -1.226163403667338003e-13 1.256608207246545650e-13
1.400000000000000000e+01 3.442784118652343750e+01 -6.090587139129638672e+00 -8.546018168305302698e-13 -9.175223514984454098e-14 -2.839062264361341681e-13 2.148963109240356606e-13
1.500000000000000000e+01 3.662397384643554688e+01 -6.498641014099121094e+00 -7.464704852508385891e-13 9.184260340092120778e-14 -1.963883699759860768e-13 5.379702420842645549e-14
1.600000000000000000e+01 3.515968322753906250e+01 -6.227526187896728516e+00 -8.644236043110764545e-13 -5.021061217085238948e-14 -2.743902652833918321e-13 8.385561803313582030e-14
1.700000000000000000e+01 3.226944732666015625e+01 -5.557944297790527344e+00 -8.060799749042002471e-13 2.054474686620337553e-14 -2.356605579081905155e-13 2.179012585602421725e-13
1.800000000000000000e+01 3.298600387573242188e+01 -5.743535041809082031e+00 -8.383037103029677972e-13 6.734570922304651541e-15 -2.494707457105505011e-13 2.269619767732850013e-13
1.900000000000000000e+01 3.387306594848632812e+01 -5.209352970123291016e+00 -5.394009349422856925e-13 6.620933320914193509e-14 -1.419574771318113382e-13 1.623825585713584152e-13
2.000000000000000000e+01 3.177811241149902344e+01 -4.666917800903320312e+00 -5.898419773442409308e-13 2.171627982961669284e-14 -1.704377063744752507e-13 1.750373527760820669e-13
2.100000000000000000e+01 3.247554397583007812e+01 -4.846903800964355469e+00 -5.395084335876876303e-13 -2.463166093143111419e-15 -1.625914843299963719e-13 2.185357336715806897e-13
2.200000000000000000e+01 3.317391204833984375e+01 -5.027786254882812500e+00 -5.503060030234707689e-13 1.301621570942712580e-13 -1.260431646207815781e-13 9.383678323303737412e-14
2.300000000000000000e+01 3.155382919311523438e+01 -5.373250484466552734e+00 -8.179215226118696780e-13 -3.028114326127095968e-14 -2.544607862094150352e-13 2.535473458790959977e-13
2.400000000000000000e+01 3.370334243774414062e+01 -5.929809570312500000e+00 -7.446858884749274488e-13 9.260744704723752885e-14 -1.956235331059333338e-13 1.806277702279604491e-13
2.500000000000000000e+01 2.987388610839843750e+01 -4.818999767303466797e+00 -6.499265643895857369e-13 8.746763757077127832e-14 -1.687376773680179798e-13 3.896876311221264544e-13
2.600000000000000000e+01 3.037936019897460938e+01 -4.439162731170654297e+00 -4.261253079996391024e-13 4.612960743098117045e-14 -1.139987084765314851e-13 2.659152195313985168e-13
2.700000000000000000e+01 2.879686164855957031e+01 -4.290716171264648438e+00 -6.623496781425763924e-13 -8.942260994182493761e-14 -2.255316837148149678e-13 4.199684220176913563e-13
2.800000000000000000e+01 2.921942710876464844e+01 -3.663818836212158203e+00 -3.016297877699719576e-13 -1.521453861334787216e-13 -1.361325467500243414e-13 2.072889657232096505e-13
2.900000000000000000e+01 3.090592002868652344e+01 -5.174968242645263672e+00 -6.417538484133900045e-13 -4.628261207444139824e-14 -2.064109381463494208e-13 3.773046328495177626e-13
3.000000000000000000e+01 3.106612968444824219e+01 -4.441179275512695312e+00 -4.935300757478999767e-13 -1.200110025462511332e-13 -1.840623329750143422e-13 2.918433723853031125e-13
3.100000000000000000e+01 2.938850212097167969e+01 -4.542905330657958984e+00 -6.393075088415023366e-13 -1.481738180503927582e-13 -2.362444007780739597e-13 3.204695623454378861e-13
3.200000000000000000e+01 2.995739936828613281e+01 -3.975629329681396484e+00 -2.490142152807711673e-13 -1.467524561073185740e-13 -1.187300041269323536e-13 2.619182269073677682e-13
3.300000000000000000e+01 3.035063171386718750e+01 -5.015617370605468750e+00 -7.081547262650922381e-13 -2.348684669060269181e-13 -2.829069443988085908e-13 2.732291660718227932e-13
3.400000000000000000e+01 2.816823577880859375e+01 -3.966109514236450195e+00 -7.481815731194552122e-13 -2.291473488822554083e-13 -2.931986793110186174e-13 3.346577030251263185e-13
3.500000000000000000e+01 2.789355468750000000e+01 -2.894280195236206055e+00 -2.918693119222798282e-13 -3.080906298309760150e-13 -1.799879825259767530e-13 -5.615192487959212719e-14
3.600000000000000000e+01 2.562896156311035156e+01 -1.636830329895019531e+00 1.583052157243247660e-12 1.380178523552322289e-13 5.163209811955005168e-13 -3.806671232571556818e-13
3.700000000000000000e+01 2.462794876098632812e+01 -1.666833639144897461e+00 -9.799449527661194259e-14 -5.681335393456499183e-13 -1.998384097090522005e-13 5.269692559921324015e-13
3.800000000000000000e+01 2.514396286010742188e+01 -2.042605638504028320e+00 -8.935867996072432984e-13 -8.433346794338436592e-13 -5.210764545543478121e-13 9.985990983771286800e-13
3.900000000000000000e+01 2.609882736206054688e+01 -1.828935980796813965e+00 1.742025035507410724e-12 1.975707602077172997e-13 5.818787292277693979e-13 -1.916265946920112095e-13
4.000000000000000000e+01 2.754680633544921875e+01 -3.554769992828369141e+00 -8.938644095735082118e-13 -1.543299993009283888e-13 -3.144583118203092553e-13 4.589997002271695159e-13
4.100000000000000000e+01 2.522968101501464844e+01 -1.372770905494689941e+00 9.244566917532281991e-13 -2.671930331068356201e-13 1.971790921729069113e-13 -2.271564148803931205e-13
4.200000000000000000e+01 2.664891433715820312e+01 -2.094555377960205078e+00 1.059682506673875757e-12 1.453307282460111760e-13 3.615039582786916394e-13 -1.230577868337884295e-13
4.300000000000000000e+01 2.726955223083496094e+01 -2.485347747802734375e+00 8.900226475955230754e-14 8.389477806035328111e-14 5.186911284597167660e-14 -2.655451169554252228e-14
4.400000000000000000e+01 2.692463302612304688e+01 -3.148237466812133789e+00 -1.244445085174517018e-12 -3.846430281489315872e-13 -4.887264096024857007e-13 5.692052189830432152e-13
4.500000000000000000e+01 2.851676559448242188e+01 -3.308110713958740234e+00 -3.428501785859155992e-13 8.181895780464895629e-14 -7.830936826725906630e-14 1.785911777621093655e-13
4.600000000000000000e+01 2.630582427978515625e+01 -2.759845256805419922e+00 -1.543128689066031178e-12 -3.410842300873712096e-13 -5.652638730355152852e-13 9.067726495885775062e-13
4.700000000000000000e+01 2.571068191528320312e+01 -2.400697946548461914e+00 -1.550144127643315883e-12 -5.156569073648531454e-13 -6.197403159234615710e-13 1.126031668081950432e-12
4.800000000000000000e+01 2.172982406616210938e+01 9.475308060646057129e-01 -6.269149018271399920e-14 -1.869961027385971808e-13 -7.490627448826156498e-14 -1.652267867880211072e-13
4.900000000000000000e+01 4.136654663085937500e+01 -6.368330001831054688e+00 4.314022233111456175e-15 1.848526621486476507e-13 5.675000467925302161e-14 -9.373757195799137243e-14
5.000000000000000000e+01 4.130027008056640625e+01 -7.105504035949707031e+00 -4.541429827142028086e-14 2.628767768243257807e-14 -5.737986684916079189e-15 -6.806906519560632085e-14
5.100000000000000000e+01 4.048490142822265625e+01 -6.293570041656494141e+00 -6.264730216792163686e-14 -4.972431700330653959e-14 -3.371148778424752634e-14 -8.163849912930232211e-14
5.200000000000000000e+01 4.041038513183593750e+01 -7.030169010162353516e+00 -9.888469979912190011e-14 4.912274065163937942e-14 -1.492858977712382962e-14 1.593240809939842732e-15
5.300000000000000000e+01 4.190933990478515625e+01 -6.585752010345458984e+00 3.468519620282960181e-14 6.061603584524288824e-14 2.859036724272949470e-14 1.825197182655407049e-15
5.400000000000000000e+01 2.155677795410156250e+01 1.608102619647979736e-01 -1.380168494682226799e-13 3.235182033291955639e-14 -3.169950670771186363e-14 -2.275281742528112439e-13
5.500000000000000000e+01 2.135924911499023438e+01 -3.259362876415252686e-01 -6.341636065018349533e-14 -7.292938768079654244e-14 -4.090372585454672694e-14 6.069360055804709584e-16
5.600000000000000000e+01 2.169140625000000000e+01 -3.674370646476745605e-01 3.385708258348517352e-14 -2.599955027746819747e-13 -6.784153181718308168e-14 -8.631125463865255143e-14
5.700000000000000000e+01 2.020203399658203125e+01 -4.924022257328033447e-01 -6.046544693974822970e-14 -1.631666129249184638e-13 -6.708961728177365025e-14 -9.667342881075624561e-14
5.800000000000000000e+01 2.035652732849121094e+01 8.064453303813934326e-02 4.620070483547485465e-15 -2.089544391735507350e-14 -4.882612157197218500e-15 -7.129572031762485690e-15
5.900000000000000000e+01 2.060061454772949219e+01 5.231055021286010742e-01 -8.317009732826396995e-14 -1.271462319110683303e-13 -6.309489470604154326e-14 -4.285377188197915521e-14
6.000000000000000000e+01 1.936305427551269531e+01 -5.345144867897033691e-01 -1.358059715031445513e-13 -1.245160794133629012e-14 -4.447727315571789464e-14 3.002888668518326198e-14
6.100000000000000000e+01 1.930697822570800781e+01 2.036849558353424072e-01 -6.658040140267509899e-14 -5.140992950900154235e-14 -3.539710028994252911e-14 -1.206953780625782957e-13
6.200000000000000000e+01 2.001774978637695312e+01 3.803771734237670898e-01 -1.127505681593025944e-13 8.893117497835514862e-14 -7.145818970723770425e-15 -6.186498253783756507e-14
6.300000000000000000e+01 2.252597236633300781e+01 -9.809318929910659790e-02 -4.854672775432035403e-15 -9.358247006095374299e-14 -2.953114302032232297e-14 -4.172411792154398502e-14
6.400000000000000000e+01 2.204184722900390625e+01 2.426947355270385742e-01 -6.960504086083937891e-14 -2.357099975272558545e-13 -9.159451083880221223e-14 -1.654256294664549487e-13
6.500000000000000000e+01 2.196405410766601562e+01 -2.709311544895172119e-01 1.935103688616504614e-13 1.744349158389404963e-13 1.103835854101772873e-13 -1.560460338419569770e-14
6.600000000000000000e+01 2.208825492858886719e+01 -4.565824568271636963e-01 1.854423055001538923e-13 3.539809775594121577e-13 1.618269862731225306e-13 -6.063151960751869685e-14
6.700000000000000000e+01 2.213679504394531250e+01 -3.176961839199066162e-01 -6.086355920122132890e-14 2.026703593361114941e-13 4.254204004046704957e-14 -3.150786380932968367e-13
6.800000000000000000e+01 2.317906761169433594e+01 6.173933148384094238e-01 9.971313359692039052e-15 -4.147752968993931311e-14 -9.451864475557708589e-15 6.504752926616078068e-14
6.900000000000000000e+01 2.210161399841308594e+01 7.484969496726989746e-01 5.858022264970327853e-14 -1.121470402437249603e-13 -1.607004460058014672e-14 -2.230525199221553012e-13
7.000000000000000000e+01 2.351302909851074219e+01 3.730374276638031006e-01 -1.071627866739560675e-13 4.557498719777799967e-14 -1.847633984285342035e-14 1.418331191426272508e-13
7.100000000000000000e+01 2.363309669494628906e+01 5.051566660404205322e-02 -1.080367569629989491e-14 -9.613204600845276504e-14 -3.208071557968955601e-14 6.086807896902787784e-14
7.200000000000000000e+01 2.304950714111328125e+01 1.849839687347412109e-01 4.000599629133336221e-14 -4.403640538157282958e-13 -1.201074152244394067e-13 3.220821775517385133e-14
7.300000000000000000e+01 2.286560440063476562e+01 9.441013336181640625e-01 -5.578269644162039964e-14 -2.390687135560808085e-14 -2.390687135560808085e-14 1.678639594947933800e-13
7.400000000000000000e+01 2.283967971801757812e+01 -5.941835641860961914e-01 2.599320159612193704e-14 2.856456390865069750e-13 9.349165457648092592e-14 8.310829102816871816e-14
7.500000000000000000e+01 2.332585906982421875e+01 -4.485427737236022949e-01 -2.010103238372917822e-13 -8.614728261259127495e-14 -8.614728261259127495e-14 -1.981627074888400730e-13
7.600000000000000000e+01 2.388146781921386719e+01 -4.832005202770233154e-01 -4.396541995483477239e-13 8.608246765146737589e-14 -1.060715168585586732e-13 7.811879093632453225e-15
7.700000000000000000e+01 2.487991523742675781e+01 -1.071164608001708984e+00 5.098859702512559267e-13 -3.304888101466479933e-13 5.381915209714052684e-14 1.239995383933364947e-13
7.800000000000000000e+01 2.323109054565429688e+01 -8.689097762107849121e-01 1.637268337399688800e-13 -2.133325153086829823e-14 4.271807720382901630e-14 -1.539131100130805563e-13
7.900000000000000000e+01 2.412024879455566406e+01 -1.838944107294082642e-01 -1.775120442347802308e-13 -2.247671721054139704e-13 -1.206837635468055447e-13 8.815889268869604029e-15
8.000000000000000000e+01 2.439415168762207031e+01 -4.617021083831787109e-01 -4.990434606354232638e-13 -1.223738721033845733e-13 -1.864252025321477824e-13 2.010628263274943928e-13
8.100000000000000000e+01 2.458996200561523438e+01 -7.636967897415161133e-01 -4.012272759586037185e-14 -1.544482993104737134e-13 -5.837131044359247789e-14 2.962118939887903313e-13
8.200000000000000000e+01 2.389279937744140625e+01 -9.169918298721313477e-01 4.059615057311338759e-13 3.112363611192797697e-13 2.151593654761349561e-13 -1.424237247235615733e-13
8.300000000000000000e+01 2.414810371398925781e+01 -1.305503129959106445e+00 2.922693554188726672e-13 -1.492473950415879047e-13 4.290658946843814436e-14 9.027734750076746306e-14
8.400000000000000000e+01 3.973936843872070312e+01 -5.390396118164062500e+00 -2.090202061997073479e-13 9.342370898158397496e-14 -3.467894848781065409e-14 -2.020684102899475421e-13
8.500000000000000000e+01 3.758313369750976562e+01 -4.554668426513671875e+00 -4.314375462791120164e-13 4.385294549908748396e-14 -1.162753704084251716e-13 -2.170884321915297899e-13
8.600000000000000000e+01 3.535306549072265625e+01 1.122043967247009277e+00 1.187856562244460346e-12 7.950247990322345526e-13 5.948644354880627816e-13 9.011815274052870084e-13
8.700000000000000000e+01 3.463538360595703125e+01 9.086918830871582031e-02 1.209988164350972450e-12 7.930720424993709106e-13 6.009180783181355956e-13 5.814208706503287694e-13
8.800000000000000000e+01 3.128393936157226562e+01 -1.878799676895141602e+00 1.004615661492902490e-12 1.102929393322939211e-13 3.344725755041744186e-13 3.784765469777573443e-13
8.900000000000000000e+01 2.916773414611816406e+01 -1.650045990943908691e+00 1.276217412998770229e-12 -1.393139211847485570e-13 3.410710299259211986e-13 4.474251982908468428e-14
9.000000000000000000e+01 3.033173561096191406e+01 -1.485802888870239258e+00 1.155689476409205163e-12 1.292878835674332594e-13 3.854932052824860955e-13 3.414504464761825009e-13
9.100000000000000000e+01 4.328375244140625000e+01 -8.056762218475341797e-01 -6.456244501691632554e-13 -9.629603971855749123e-13 -4.825754596274323127e-13 -5.475340775391857040e-13
9.200000000000000000e+01 4.426335906982421875e+01 1.952027827501296997e-01 -7.306527344957958192e-13 -6.333935112512456556e-13 -4.092138954081558921e-13 -7.769571119288498640e-13
9.300000000000000000e+01 4.701689529418945312e+01 1.329993486404418945e+00 -6.556380872241307500e-13 -7.510847819343011156e-14 -2.192239716581473319e-13 -1.602428042687953358e-13
9.400000000000000000e+01 4.849777984619140625e+01 1.044445037841796875e+00 -3.090486579756385188e-13 -1.807205101712894280e-14 -9.813621405308295409e-14 9.287786062158256972e-14
9.500000000000000000e+01 5.175529098510742188e+01 8.183308601379394531e+00 1.225511391585859533e-13 -3.897998189419243920e-14 2.507134514643898082e-14 -5.744813262251180497e-14
9.600000000000000000e+01 4.571694564819335938e+01 1.874402999877929688e+01 -1.946464941538026544e-14 -5.409294025074742884e-14 -2.206727842449761334e-14 2.615969778036603133e-14
9.700000000000000000e+01 4.679944610595703125e+01 3.052936553955078125e+01 1.452480442778320002e-13 3.596303213993651271e-13 1.514635178346754318e-13 3.293728950606172878e-14
9.800000000000000000e+01 5.212222290039062500e+01 4.113293457031250000e+01 -4.960498022543377572e-14 1.445879142325870448e-13 2.849487952451962292e-14 -1.781766500021184779e-14
9.900000000000000000e+01 4.014804840087890625e+01 3.754290771484375000e+01 3.836436512439159174e-14 2.337588672976509407e-13 8.163697446999726437e-14 -4.677599860182166114e-14
1.000000000000000000e+02 4.181821441650390625e+01 3.680139923095703125e+01 2.913032364154979903e-14 2.412391575563888058e-13 8.111084503700793924e-14 -1.107636321529513468e-13
1.010000000000000000e+02 3.791685867309570312e+01 3.389241409301757812e+01 2.589716669462813897e-14 2.198374945625025667e-13 7.372039448078765433e-14 -6.526392246726173130e-14
1.020000000000000000e+02 3.985123062133789062e+01 3.177124214172363281e+01 3.745439017526636105e-13 4.350245207465630592e-13 2.428705294602734321e-13 -1.527382820915024197e-13
1.030000000000000000e+02 4.079282760620117188e+01 3.085862731933593750e+01 -4.032299667777738961e-14 5.317300961517335001e-13 1.474221271316814019e-13 -1.150250007004791075e-13
1.040000000000000000e+02 4.079331207275390625e+01 2.950833129882812500e+01 2.010786556792126811e-13 1.092697438608014604e-12 3.881328309966736168e-13 -2.942385647197037768e-13
1.050000000000000000e+02 4.120675659179687500e+01 2.671167945861816406e+01 -2.548511396490912850e-14 8.583458379826658380e-13 2.498582124619425082e-13 -1.297319388959654318e-14
1.060000000000000000e+02 4.157341003417968750e+01 2.434682083129882812e+01 -4.555533603340169990e-14 8.954952664813609076e-13 2.549819892987831293e-13 1.188165234602966969e-13
1.070000000000000000e+02 4.155443191528320312e+01 1.791710281372070312e+01 -5.951916290689940672e-15 3.177058225875550868e-13 9.352617286314743317e-14 1.855753980930900660e-14
1.080000000000000000e+02 4.017397689819335938e+01 9.899234771728515625e+00 9.429074545892063286e-14 1.321436883527926653e-12 4.247182846302960391e-13 2.642003098501238822e-13
1.090000000000000000e+02 3.918400192260742188e+01 5.522724151611328125e+00 4.315209485312304638e-13 1.099956497413456802e-12 4.594432473359333358e-13 8.653052775177416667e-13
1.100000000000000000e+02 3.969633483886718750e+01 6.667291641235351562e+00 3.389662953535294010e-13 9.230373626892274252e-13 3.786010947023216167e-13 5.034603376558033361e-13
1.110000000000000000e+02 5.154502868652343750e+01 1.106438517570495605e+00 -1.549059546000070009e-13 5.942684902114289680e-14 -2.864373031840651562e-14 -1.644879877107669613e-14
1.120000000000000000e+02 5.100856018066406250e+01 2.632744312286376953e+00 -1.159355001324052781e-13 1.322091036908695783e-14 -3.081437760662185388e-14 -3.299030360416448093e-14
1.130000000000000000e+02 5.237421417236328125e+01 -4.028526246547698975e-01 -4.998021243293564175e-14 7.008180521366272342e-14 6.030479020064250656e-15 -5.015291398055132105e-15
1.140000000000000000e+02 5.371086883544921875e+01 -6.199700236320495605e-01 1.667817021099547714e-14 3.002326238641349343e-14 1.401042977922269117e-14 3.380459788097445531e-15
1.150000000000000000e+02 5.640153503417968750e+01 -1.044334530830383301e+00 3.870417780217107195e-14 8.521392684361639436e-14 3.717543241017577660e-14 6.576421506601919532e-16
1.160000000000000000e+02 5.843176269531250000e+01 2.694577217102050781e+00 -3.420475911514696266e-14 2.140955598570193352e-13 5.396724056137489067e-14 -1.087718714469325387e-13
1.170000000000000000e+02 5.435363769531250000e+01 9.378739356994628906e+00 1.053796467947142046e-13 -2.346371557606589248e-14 2.457478055144061979e-14 -6.640058647236837808e-14
1.180000000000000000e+02 5.675026702880859375e+01 1.462107658386230469e+01 7.589097400636721225e-14 2.155284956582848022e-13 8.742584157702196213e-14 -9.695414908200347681e-14
1.190000000000000000e+02 5.820893096923828125e+01 2.780216979980468750e+01 3.721317281017363920e-14 1.074503984052621597e-13 4.339907136463073967e-14 -1.961799033092055319e-15
1.200000000000000000e+02 5.666172790527343750e+01 3.156015968322753906e+01 2.592070743429823049e-14 1.140485140138300379e-13 4.199076389333963877e-14 3.634648192227946106e-14
1.210000000000000000e+02 5.714401245117187500e+01 4.090428161621093750e+01 -3.896508427871613056e-14 8.624031393525410927e-14 1.418256804992844636e-14 3.318650353980288903e-14
1.220000000000000000e+02 5.706923294067382812e+01 3.768465042114257812e+01 -7.759026778822626647e-15 -3.325297190923982849e-15 -3.325297190923982849e-15 3.300695288377571146e-14
1.230000000000000000e+02 6.035539627075195312e+01 -2.005857467651367188e+00 2.189728162248910648e-13 1.395964371658439673e-13 1.075707787277259408e-13 -8.996923079587423877e-14
1.240000000000000000e+02 6.293556213378906250e+01 -2.226347684860229492e+00 1.516285740629091938e-13 1.336100961856281910e-13 8.557160514031936227e-14 -3.358715351198596211e-14
1.250000000000000000e+02 6.185811233520507812e+01 3.007310867309570312e+00 2.799254155295277657e-15 6.982610290754559523e-14 2.178760678003908297e-14 2.822170970496421655e-14
1.260000000000000000e+02 6.287084960937500000e+01 8.158182144165039062e+00 1.923593696709444828e-14 3.111944838103675171e-14 1.510661577384594945e-14 -2.248184260690523281e-15
1.270000000000000000e+02 6.373119735717773438e+01 1.556889724731445312e+01 4.301493175865554741e-14 1.099368670100589473e-13 4.588553996942752733e-14 -9.661337417479591572e-15
1.280000000000000000e+02 6.608631896972656250e+01 2.675935745239257812e+01 -1.351014506845954846e-16 -7.154375697556933367e-14 -2.150365761919691837e-14 -3.570507469330061467e-14
1.290000000000000000e+02 6.474034118652343750e+01 3.082823562622070312e+01 -6.105938644236294510e-16 -1.003418810714695741e-13 -3.028574434424044504e-14 -9.529269734409595571e-15
1.300000000000000000e+02 6.216124725341796875e+01 4.094048690795898438e+01 -1.916317006066172585e-14 -5.968260553736864926e-14 -2.365373217118934418e-14 -1.751512516024334581e-14
1.310000000000000000e+02 6.542201232910156250e+01 -3.904016017913818359e+00 5.311522028412715701e-14 -1.118083490375676448e-16 1.590102425815323461e-14 1.752044960934978635e-14
1.320000000000000000e+02 6.955271148681640625e+01 -1.002037620544433594e+01 1.313648490116822720e-14 1.428827623708647798e-13 4.680577689211533332e-14 1.152498235734711329e-13
1.330000000000000000e+02 7.087751770019531250e+01 -1.199224185943603516e+01 4.281760357513139659e-14 -2.740054683798495705e-14 4.625117105847226587e-15 4.251763871532254768e-14
1.340000000000000000e+02 7.474051666259765625e+01 -1.155517959594726562e+01 -3.141118346873007783e-15 -1.614745121468474931e-13 -4.938469067277545532e-14 -8.838418820607263360e-14
1.350000000000000000e+02 7.626963806152343750e+01 -1.150784397125244141e+01 -2.353621820821907157e-14 -5.583789927285885690e-14 -2.381223575254314689e-14 -3.293121458576402094e-14
1.360000000000000000e+02 7.821163177490234375e+01 -9.640278816223144531e-01 4.436872689996679275e-13 1.215252535104530129e-13 1.695637581082889978e-13 3.434360543348724537e-13
1.370000000000000000e+02 7.818276214599609375e+01 7.344931602478027344e+00 -2.203793381507293536e-13 -3.460784989747084373e-13 -1.699373470718731904e-13 5.237748846838655159e-14
1.380000000000000000e+02 7.815090942382812500e+01 1.421931838989257812e+01 1.122314386065893788e-13 -1.806555529086303902e-13 -2.052723530705184013e-14 -2.265310673960942156e-14
1.390000000000000000e+02 7.803668975830078125e+01 2.113647651672363281e+01 -1.896773076060995211e-14 -2.368837819042429738e-13 -7.675544905607137314e-14 3.327495072015518307e-14
1.400000000000000000e+02 7.784706878662109375e+01 2.818485641479492188e+01 -2.721825179520867555e-14 -3.776725568567507185e-13 -1.214672351416978824e-13 3.294821961921309827e-14
1.410000000000000000e+02 7.847875976562500000e+01 3.564427947998046875e+01 5.252081576042439900e-15 -3.408812132305732989e-13 -1.006887444515019991e-13 6.012765020038321473e-14
1.420000000000000000e+02 7.751174926757812500e+01 3.799533843994140625e+01 -1.897415974067961225e-14 -3.512638856000005472e-13 -1.110714168209292474e-13 4.073089386385717048e-14
1.430000000000000000e+02 7.928474426269531250e+01 3.740388488769531250e+01 9.802931680107356688e-15 -4.075572886987066656e-13 -1.193263017692722250e-13 5.950430849010340806e-14
1.440000000000000000e+02 7.127854919433593750e+01 3.711208724975585938e+01 -5.700620249964429356e-15 -1.625714401423325461e-13 -5.048161866826050836e-14 -1.019677066036155794e-14
1.450000000000000000e+02 7.206243133544921875e+01 3.421553039550781250e+01 -9.033735978508043024e-15 -1.925942586834816783e-13 -6.048839814448703223e-14 -6.037033784526578059e-15
1.460000000000000000e+02 7.154626464843750000e+01 2.229572296142578125e+01 3.504279064327079155e-15 -2.501283956433258959e-13 -7.398723018796349304e-14 -3.834192891568471984e-14
1.470000000000000000e+02 7.306167602539062500e+01 1.715859985351562500e+01 7.876139248175900720e-14 -1.034979664905205654e-13 -7.420972541441646364e-15 -6.351723210980611545e-14
1.480000000000000000e+02 7.326511383056640625e+01 9.316663742065429688e+00 9.006151672954348930e-14 1.072242135032909494e-13 5.918572245798212061e-14 -5.238701250684547894e-14
1.490000000000000000e+02 7.317211151123046875e+01 2.111778259277343750e+00 1.174553211852683021e-13 -3.156695824874100609e-13 -5.946428110114795884e-14 -7.206437730626971683e-14
1.500000000000000000e+02 6.832141876220703125e+01 -4.475632667541503906e+00 7.370363678095917526e-14 7.733822127630948784e-14 4.531255945005967234e-14 2.414583459662156956e-14
1.510000000000000000e+02 6.714450073242187500e+01 -4.578656673431396484e+00 7.072403237053451197e-14 5.318577474050165121e-14 3.717294213331084896e-14 1.067818776516417031e-14
1.520000000000000000e+02 7.940811157226562500e+01 -2.608465671539306641e+00 4.477014462281325713e-13 -1.055091208628997079e-13 1.026576962543171434e-13 -2.186045330756884730e-14
1.530000000000000000e+02 6.426206970214843750e+01 -4.517791271209716797e+00 -7.256354229241614856e-15 1.976560869186919089e-14 3.752776084678388635e-15 -4.980192893819755662e-14
1.540000000000000000e+02 6.560954284667968750e+01 -6.889021396636962891e+00 -1.845499461258261198e-14 6.071713769782716152e-14 1.267864326438654377e-14 1.187202120025456203e-15
1.550000000000000000e+02 6.671082305908203125e+01 -9.364744186401367188e+00 3.612050877854506431e-15 9.304991673009244124e-14 2.899858968946102122e-14 1.592797007027128842e-14
1.560000000000000000e+02 6.615212249755859375e+01 -8.137104034423828125e+00 1.356685895353634819e-14 -1.706110533611967378e-14 -1.048274105357410810e-15 -1.302923020125509868e-14
1.570000000000000000e+02 7.761373901367187500e+01 -1.153362560272216797e+01 -3.350973470060691906e-14 -1.436131487168867960e-14 -1.436131487168867960e-14 -2.143259960173528149e-15
1.580000000000000000e+02 7.955941772460937500e+01 -1.113023281097412109e+01 -7.009343328196263045e-14 -1.901683563225453621e-13 -7.807853484847332437e-14 -7.198230828401024767e-15
1.590000000000000000e+02 3.669788360595703125e+01 3.538344955444335938e+01 5.498273819744270430e-14 2.065678222007080733e-13 7.846516811944523329e-14 -6.193048190158284561e-14
1.600000000000000000e+02 4.775780200958251953e+00 3.904612731933593750e+01 -1.828483246974280108e-14 -1.450892086595628738e-13 -4.901220962828627126e-14 1.594591192216002901e-14
1.610000000000000000e+02 1.973657846450805664e+00 4.169580459594726562e+01 2.093326902064766154e-14 -7.109276275313325399e-14 -1.504784693389955158e-14 1.768740848534131830e-15
1.620000000000000000e+02 1.439159393310546875e+01 3.934650802612304688e+01 -1.870230112812655554e-14 -1.945300948861909685e-14 -1.144659233799074846e-14 2.870255167439564326e-14
1.630000000000000000e+02 9.105508804321289062e+00 3.805521774291992188e+01 -5.876642759656408588e-14 -2.518560989102358594e-14 -2.518560989102358594e-14 -3.883337065541808686e-14
1.640000000000000000e+02 6.263329982757568359e+00 3.004902267456054688e+01 4.903322620977354496e-14 -1.848650356059411415e-13 -4.074954214122392115e-14 -4.414204462024895470e-14
1.650000000000000000e+02 1.669215393066406250e+01 2.773730659484863281e+01 1.176175313827992897e-13 9.654265234471104407e-13 3.249131920544240382e-13 2.907628565002040588e-13
1.660000000000000000e+02 1.751793479919433594e+01 2.957863426208496094e+01 2.744484327299456794e-14 2.862677813981334696e-13 9.411378333558026443e-14 3.180857270287940075e-13
1.670000000000000000e+02 1.946300888061523438e+01 3.263437271118164062e+01 3.132672073136166802e-14 1.342573818232609822e-14 1.342573818232609822e-14 -6.723863409411820480e-14
1.680000000000000000e+02 2.094831657409667969e+01 3.469422912597656250e+01 -4.010335764642256051e-14 -8.581357873642739276e-14 -3.777508091485498598e-14 9.347805461547981087e-14
1.690000000000000000e+02 1.872253608703613281e+01 3.711817169189453125e+01 -2.298957702537903630e-14 -1.242300533277340691e-13 -4.416588690364826875e-14 5.084358295167658304e-14
1.700000000000000000e+02 1.857858276367187500e+01 3.554323577880859375e+01 -9.376339629848726154e-14 -7.449752349297095178e-14 -5.047827458218474839e-14 1.362936727453828434e-13
1.710000000000000000e+02 7.295067310333251953e-01 3.461349868774414062e+01 4.032505327377332305e-14 -3.258499427314515140e-13 -8.565746717611663619e-14 -2.655191469252624059e-14
1.720000000000000000e+02 1.798366904258728027e+00 3.018884277343750000e+01 7.121898760293308983e-15 -2.028270265500356495e-13 -5.871153986158200722e-14 -4.075794809619247283e-14
1.730000000000000000e+02 1.421168518066406250e+01 2.449897193908691406e+01 1.825090778376572964e-13 6.729804972842312605e-13 2.566468901548518700e-13 -8.575149799765723058e-15
1.740000000000000000e+02 1.561594867706298828e+01 2.225328063964843750e+01 -1.510553292692617955e-13 8.502810001226324133e-13 2.097676958350003229e-13 -4.954987734408309447e-15
1.750000000000000000e+02 1.573548030853271484e+01 2.465373992919921875e+01 -1.128764982416367857e-13 1.049647131365349928e-12 2.810311933252457317e-13 2.599694819225423226e-13
1.760000000000000000e+02 1.528932189941406250e+01 2.352618026733398438e+01 -1.392740784489756092e-14 7.260462847255566565e-13 2.136356684005052964e-13 1.749783552372399104e-14
1.770000000000000000e+02 5.789016485214233398e-01 2.757798004150390625e+01 -1.597757401372839475e-14 -3.957305945608002862e-13 -1.235124470148202258e-13 -1.691538009380814944e-14
1.780000000000000000e+02 1.710280776023864746e+00 2.602925872802734375e+01 2.349979409742124214e-14 -3.788117280793812380e-13 -1.065935805334011777e-13 -1.109787437932031016e-15
1.790000000000000000e+02 1.408838176727294922e+01 1.859540748596191406e+01 -3.683931957230990317e-14 6.704759360556811210e-13 1.900909849450113653e-13 4.408060762651870579e-14
1.800000000000000000e+02 1.738333320617675781e+01 1.205192565917968750e+01 -2.919311114461115020e-13 4.696490050158652618e-13 5.331536061703619211e-14 3.442840969453998812e-14
1.810000000000000000e+02 1.603169441223144531e+01 1.665847969055175781e+01 8.256923248427250339e-14 4.471453589338647561e-13 1.589143720044303154e-13 -1.220903803403339261e-13
1.820000000000000000e+02 1.586673545837402344e+01 1.744570541381835938e+01 1.305326391410049219e-14 6.918584628812229909e-13 2.114735253230803913e-13 -1.740008554991859246e-13
1.830000000000000000e+02 5.769526958465576172e-01 2.052499961853027344e+01 -2.442990573020813877e-14 -5.366058617416180621e-13 -1.683107321050203442e-13 4.087327840822472386e-15
1.840000000000000000e+02 1.726084947586059570e+00 1.759716987609863281e+01 5.374471822986760794e-14 -4.573514960845570521e-13 -1.210820316623409387e-13 8.116580053462579825e-14
1.850000000000000000e+02 5.852810382843017578e+00 1.176141643524169922e+01 -9.707775151779861333e-15 -7.278689641027763502e-14 -2.474840197683701726e-14 6.322267470833253800e-15
1.860000000000000000e+02 1.640278244018554688e+01 9.370879530906677246e-01 -1.686499857410546366e-14 -2.359825930584730225e-13 -7.585428053909215595e-14 4.492259564553915951e-14
1.870000000000000000e+02 1.751442718505859375e+01 1.167350006103515625e+01 4.253839576591478266e-13 5.940659747981358318e-13 3.058349743161742351e-13 -7.392057208314636862e-14
1.880000000000000000e+02 5.626403093338012695e-01 1.487441825866699219e+01 -6.921934949050481678e-14 -4.414239698595501249e-13 -1.531929964826428403e-13 5.231408635821867270e-14
1.890000000000000000e+02 1.649606704711914062e+00 1.194408512115478516e+01 1.872593673548673954e-14 -1.292274392963171925e-13 -3.315045381756774601e-14 3.038363085975694100e-15
1.900000000000000000e+02 9.759081840515136719e+00 2.422427177429199219e+00 -7.023613461665245694e-14 -2.131049920946551102e-13 -8.500233801339227013e-14 1.449043115315726271e-13
1.910000000000000000e+02 9.022955894470214844e+00 1.825088024139404297e+00 -5.412287100697160680e-14 2.255543367639563368e-14 -9.470230690953023583e-15 1.719906769087620191e-13
1.920000000000000000e+02 1.353596019744873047e+01 1.279486656188964844e+00 -6.827088265375091947e-14 -2.122627431894869021e-13 -8.416008910822406208e-14 4.162240620523768864e-14
1.930000000000000000e+02 1.923167228698730469e+01 6.439126014709472656e+00 5.197669873576718155e-15 1.394804139808608623e-13 4.340342511397962677e-14 -2.219841064438066169e-13
1.940000000000000000e+02 1.980563354492187500e+01 6.129981517791748047e+00 1.966401217204372109e-13 6.790366879894094154e-13 2.627030266499214006e-13 -3.506664097348310451e-15
1.950000000000000000e+02 2.055855369567871094e+01 1.003620266914367676e+00 -8.124889107861965609e-14 2.854356833358051571e-13 6.125604038766108150e-14 4.835784279521443407e-14
1.960000000000000000e+02 2.216081237792968750e+01 1.865581274032592773e+00 1.432350061041781641e-13 4.731449607109361466e-13 1.849139873340288620e-13 -1.847385498699935513e-13
1.970000000000000000e+02 2.246084594726562500e+01 1.586260080337524414e+00 -3.045633677981746112e-13 -3.902526088742086507e-14 -1.030765845399204961e-13 -1.036225413201391499e-13
1.980000000000000000e+02 2.269615936279296875e+01 1.315151810646057129e+00 -2.060520265696752507e-13 -8.830800945092837084e-14 -8.830800945092837084e-14 2.760840601273573114e-13
1.990000000000000000e+02 1.495206832885742188e+00 3.412690877914428711e+00 5.798138729665343327e-15 -2.039055807068288623e-14 -4.377725887008557595e-15 -2.705386980520092799e-14
2.000000000000000000e+02 5.237217545509338379e-01 6.434599399566650391e+00 -3.936534270991933534e-16 2.270676627681798149e-14 6.693933669627179228e-15 -7.834800652218101846e-15
2.010000000000000000e+02 1.566280245780944824e+00 6.436470985412597656e+00 1.176655479865132414e-14 -4.070813917076213095e-14 -8.682475650446420945e-15 -6.194725315393848075e-14
2.020000000000000000e+02 2.360014915466308594e+01 3.599280166625976562e+01 1.153284959936121123e-13 1.409283930872695656e-13 7.687706943476993460e-14 8.485270456106211445e-14
2.030000000000000000e+02 3.340900421142578125e+01 3.685414123535156250e+01 6.850769273701248774e-14 3.496170909202123145e-13 1.254374344195410829e-13 6.711178921620097881e-14
2.040000000000000000e+02 4.008483123779296875e+01 9.503267288208007812e+00 2.483822338344293668e-13 1.250223232232561266e-12 4.495816425306026209e-13 3.951058501639598264e-13
2.050000000000000000e+02 3.925276565551757812e+01 6.792783737182617188e+00 4.426016031542495677e-13 1.379211089953813474e-12 5.465438214849460685e-13 5.779364074982862309e-13
2.060000000000000000e+02 3.772899627685546875e+01 3.910028934478759766e+00 8.398945601506557779e-13 1.435102145626310222e-12 6.824989792070246253e-13 1.043363962935361933e-12
2.070000000000000000e+02 3.180088806152343750e+01 -1.765117526054382324e+00 9.279242955614885879e-13 2.375535206912415820e-13 3.496433557178407758e-13 1.981492362768469406e-13
2.080000000000000000e+02 3.754963302612304688e+01 -5.197663784027099609e+00 -3.962388956443158028e-13 5.893807712925927533e-14 -1.011902421663851692e-13 -1.262926395406704927e-13
2.090000000000000000e+02 6.149089813232421875e+01 4.078564345836639404e-01 8.822666718293764587e-14 1.064378484438507910e-13 5.839935739854196228e-14 -4.462679818783080177e-14
2.100000000000000000e+02 5.936621475219726562e+01 4.778887927532196045e-01 9.599816059267796131e-14 1.097684904126719485e-13 6.172999936736311977e-14 -1.416118334792229594e-13
2.110000000000000000e+02 7.939268493652343750e+01 4.336737632751464844e+00 2.901242072105014724e-13 -1.272912710566925787e-13 4.884988084614266812e-14 -1.201627501928176356e-13
2.120000000000000000e+02 7.159751892089843750e+01 6.206467747688293457e-01 1.861718244844379200e-13 -2.862196699267294253e-13 -3.001435159980837819e-14 6.902356968320824682e-14
2.130000000000000000e+02 5.418450546264648438e+01 8.049369812011718750e+00 2.204235193892581379e-14 4.375993450521538375e-14 1.974068559442918036e-14 -1.033658429032760506e-13
2.140000000000000000e+02 4.087834930419921875e+01 1.386192703247070312e+01 -3.112826565520449007e-13 9.534789678720262396e-14 -6.478042250844182059e-14 9.817950082481943785e-14
2.150000000000000000e+02 4.961760711669921875e+01 6.831632614135742188e+00 1.411247963108153147e-13 -2.597745965820380531e-13 -3.559493330510324349e-14 -9.125426109202194880e-14
2.160000000000000000e+02 7.939171600341796875e+01 1.128274917602539062e+01 -1.296536662753755564e-13 -1.699432288686589243e-13 -8.987906583270491301e-14 6.081123967013532527e-14
2.170000000000000000e+02 7.320336151123046875e+01 1.063345909118652344e+01 -2.656764240029085844e-14 -2.401408878607153019e-13 -8.001255501254370128e-14 2.489848096849742870e-14
2.180000000000000000e+02 5.593696212768554688e+01 1.498560237884521484e+01 2.612405971614325390e-14 -8.030587235778249844e-14 -1.625454362308518391e-14 -1.903135140527822261e-14
2.190000000000000000e+02 4.119606399536132812e+01 1.827963638305664062e+01 -1.043876560169985923e-13 2.297681359411662960e-13 3.761414126674487990e-14 -1.094054114338972872e-13
2.200000000000000000e+02 4.572108840942382812e+01 1.830008888244628906e+01 -1.984652134474906848e-13 -8.505652101696223322e-14 -8.505652101696223322e-14 2.998201730289307143e-13
2.210000000000000000e+02 7.936206054687500000e+01 1.821600341796875000e+01 1.591229318448350583e-14 -2.219351953733003646e-13 -6.180686930139234203e-14 -2.893022735435402115e-14
2.220000000000000000e+02 7.177214050292968750e+01 1.712492370605468750e+01 -1.986868921341825023e-14 -3.287717862711370120e-13 -1.045921433229929365e-13 5.014264052969231045e-16
2.230000000000000000e+02 6.560063171386718750e+01 2.418451881408691406e+01 6.103373828472008489e-15 -8.888616703566984412e-14 -2.483483830097252959e-14 -2.224505200540145139e-14
2.240000000000000000e+02 6.044457244873046875e+01 2.651557159423828125e+01 3.795755214048429638e-14 -6.607951355151395201e-15 9.404880405006459804e-15 -6.816851363987755374e-14
2.250000000000000000e+02 7.932722473144531250e+01 2.379367446899414062e+01 -2.199513662837996458e-14 -3.983095591634372434e-13 -1.260914116174571831e-13 -1.368176744316086657e-14
2.260000000000000000e+02 7.255593109130859375e+01 2.408193206787109375e+01 -2.908663029399863320e-14 -1.497185486481686367e-13 -5.364155300502382318e-14 3.178274632950443823e-14
2.270000000000000000e+02 6.213433456420898438e+01 2.908631515502929688e+01 -1.154025046503455096e-14 -7.357224503018108819e-14 -2.553374890267457592e-14 -3.011889918242208197e-14
2.280000000000000000e+02 4.797367477416992188e+01 3.290626144409179688e+01 -5.855052906270433177e-14 3.409144982372686039e-13 8.470919685100650187e-14 5.842564252496115773e-14
2.290000000000000000e+02 7.927072143554687500e+01 3.076054573059082031e+01 6.785335639712675171e-14 -3.826785351275507896e-13 -9.444754819811634894e-14 7.479156928654438763e-15
2.300000000000000000e+02 6.975893402099609375e+01 3.306698226928710938e+01 -2.271406770082331356e-14 -1.584251799842048558e-13 -5.434177481372821916e-14 -4.396425579275206608e-14
2.310000000000000000e+02 8.518089294433593750e+00 3.246731185913085938e+01 -8.863529789954974897e-15 7.639081831293734193e-15 -3.673342870132097248e-16 -9.950612382680912305e-14
2.320000000000000000e+02 1.414046669006347656e+01 2.368401908874511719e+01 -5.805450318066042448e-15 7.752780622344301875e-13 2.308417942475243789e-13 -1.137770704474211358e-13
2.330000000000000000e+02 1.312773609161376953e+01 1.696530723571777344e+01 -9.656453425505723276e-14 1.416189892135613637e-13 1.351633767339736544e-14 -9.171537905224361187e-14
2.340000000000000000e+02 6.965032100677490234e+00 1.064062404632568359e+01 1.276159658904294641e-14 1.198466239443751746e-13 3.978246768468474137e-14 8.123273074877722811e-16
2.350000000000000000e+02 3.957486724853515625e+01 -3.089834213256835938e+00 -2.134059937227913983e-13 9.154408188525448020e-14 -3.655857219600835983e-14 -2.741285117738995192e-13
2.360000000000000000e+02 4.231473541259765625e+01 -1.591626524925231934e+00 -3.032145931905483316e-13 -5.531453658828844322e-13 -2.569079931430406916e-13 -4.747107654884397121e-13
2.370000000000000000e+02 5.108541870117187500e+01 -1.237331330776214600e-02 -9.008185229654117054e-14 -3.860650812708907309e-14 -3.860650812708907309e-14 1.753429690397149965e-14
2.380000000000000000e+02 5.671872329711914062e+01 3.769307583570480347e-02 4.002668761216889026e-14 -5.721179857176659361e-15 1.029165190298119564e-14 -1.035010903480300393e-14
2.390000000000000000e+02 5.774090957641601562e+01 -1.332723617553710938e+00 6.917505305549520589e-14 -6.185544833498327066e-14 2.195881882021701557e-15 -4.763542533516018640e-14
2.400000000000000000e+02 6.158693313598632812e+01 -2.366357326507568359e+00 1.469484798601039532e-13 -5.139945001737811214e-14 2.866470963044411013e-14 -3.021189662376702612e-14
2.410000000000000000e+02 6.343748092651367188e+01 -3.501561164855957031e+00 7.975341714079250965e-14 3.989890422174610651e-14 3.589569437588251144e-14 1.011972369644635952e-14
2.420000000000000000e+02 6.501090240478515625e+01 -5.654880046844482422e+00 4.324327490057636170e-14 4.140830676935790267e-14 2.539547416216710041e-14 3.079593261716244423e-14
2.430000000000000000e+02 7.013703155517578125e+01 -1.211328220367431641e+01 5.177136185572674132e-14 1.594405759763189989e-13 6.336358033317418537e-14 7.261194683721994281e-14
2.440000000000000000e+02 6.880335235595703125e+01 -1.230041885375976562e+01 -2.844486731118194001e-14 1.479376652646982593e-13 3.584783701436264347e-14 -1.214282716261241846e-14
2.450000000000000000e+02 6.776250457763671875e+01 -1.238269138336181641e+01 7.657843949888595847e-14 2.615740740327665570e-13 1.014457547371221124e-13 4.983391290228587900e-14
2.460000000000000000e+02 6.944496917724609375e+01 -1.222806835174560547e+01 1.442655663153887642e-16 6.182809795875378453e-17 6.182809795875378453e-17 -9.214162466602681539e-15
2.470000000000000000e+02 6.923650360107421875e+01 -1.104425144195556641e+01 -1.147172770188734092e-13 7.665055927214697862e-14 -1.142001667927064479e-14 4.350506567951835379e-14
2.480000000000000000e+02 7.163090515136718750e+01 -1.187702465057373047e+01 6.593843174381927574e-14 -1.089935162523064660e-13 -1.291652484432638873e-14 1.305053070818629202e-13
2.490000000000000000e+02 7.239390563964843750e+01 -1.177116584777832031e+01 5.284668373479323167e-14 -1.603552224815549265e-13 -3.225255823589671944e-14 2.664205932690483225e-14
2.500000000000000000e+02 7.394997406005859375e+01 -1.161892604827880859e+01 -1.535058667364360557e-14 -5.232977002027003333e-14 -2.030410819402021783e-14 4.145311820039944417e-14
2.510000000000000000e+02 7.552954864501953125e+01 -1.150933361053466797e+01 1.740083839280211209e-14 -3.829344813791567270e-14 -6.267782923534068185e-15 6.990955259350908890e-14
2.520000000000000000e+02 7.667550659179687500e+01 -7.151720046997070312e+00 5.538005763607717347e-14 -2.050204353076096053e-13 -4.489211262383337175e-14 1.168754102423260124e-14
2.530000000000000000e+02 7.883910369873046875e+01 -1.133826351165771484e+01 8.180647592713821692e-14 -1.069103047871044002e-14 2.133463388863821725e-14 -1.999220694591866132e-14
2.540000000000000000e+02 7.799505615234375000e+01 4.161685180664062500e+01 -4.304366989248999131e-14 -3.730171282533695232e-13 -1.248182465588346113e-13 1.532777438230815276e-14
2.550000000000000000e+02 7.613021850585937500e+01 3.743594360351562500e+01 -6.416118721389030277e-15 -3.687573521277826005e-13 -1.125520439652569205e-13 -1.607889440081305965e-14
2.560000000000000000e+02 7.676557159423828125e+01 3.899732589721679688e+01 -3.607009168345859385e-14 -4.129199694842544677e-13 -1.346970224160720653e-13 7.051202425900149687e-15
2.570000000000000000e+02 7.945954895019531250e+01 3.614759063720703125e+01 5.174519870205195049e-14 -3.667065566134719568e-13 -9.448840906749189639e-14 -1.955218857641310287e-14
2.580000000000000000e+02 7.938040924072265625e+01 3.493860626220703125e+01 -4.738852878356271392e-14 -3.748792183795590649e-13 -1.266803231324969969e-13 8.687047934295699658e-15
2.590000000000000000e+02 7.773091125488281250e+01 3.367999267578125000e+01 -4.615943315511988887e-14 -3.057260391028937541e-13 -1.055656416774040929e-13 1.628955657699288767e-14
2.600000000000000000e+02 7.923699188232421875e+01 3.359221649169921875e+01 1.836697264276983960e-14 -3.581360197551369806e-13 -1.019307183688748786e-13 -5.985035702444057443e-15
2.610000000000000000e+02 7.927503204345703125e+01 2.937937545776367188e+01 -5.542909745559140844e-14 -4.355138753971143917e-13 -1.472828884676799510e-13 5.501794088673059302e-15
2.620000000000000000e+02 7.928801727294921875e+01 2.799148750305175781e+01 6.636048390923886004e-16 -3.657231852430276042e-13 -1.095178770805019242e-13 -2.523434604922623024e-15
2.630000000000000000e+02 7.791078186035156250e+01 2.677688407897949219e+01 2.274825733870628613e-14 -4.706356832029356951e-13 -1.343662323332467379e-13 5.081091458496687918e-14
2.640000000000000000e+02 7.930345153808593750e+01 2.659458923339843750e+01 3.510871945272033001e-14 -3.967119330521712284e-13 -1.084809664515275218e-13 3.812832838221086665e-15
2.650000000000000000e+02 7.933676147460937500e+01 2.239706039428710938e+01 3.631390842325984969e-14 -3.275689994860359056e-13 -8.737653070696460578e-14 -2.933830749955040895e-15
2.660000000000000000e+02 7.934474945068359375e+01 2.100147247314453125e+01 -5.134991976578741693e-15 -2.995818653914184004e-13 -9.141506182672870517e-14 3.243860732869523200e-14
2.670000000000000000e+02 7.806189727783203125e+01 1.973790740966796875e+01 -4.964544129525821914e-14 -3.415332524171060813e-13 -1.173536094689620057e-13 6.612932755914197741e-15
2.680000000000000000e+02 7.937087249755859375e+01 1.682762718200683594e+01 -4.684503856328646465e-14 -1.802047687503652296e-13 -6.811494050002961376e-14 4.398682413859870965e-14
2.690000000000000000e+02 7.937863159179687500e+01 1.544082355499267578e+01 1.038237353620345693e-13 -2.757607510395221340e-13 -5.158110809137805841e-14 -3.080995609463718643e-14
2.700000000000000000e+02 7.938455200195312500e+01 1.405479812622070312e+01 -1.341435643120725274e-13 -1.718674708843861976e-13 -9.180331462469576431e-14 1.357677262715101252e-14
2.710000000000000000e+02 7.816344451904296875e+01 1.284772491455078125e+01 -6.203984401946874283e-14 -1.180904061603288424e-13 -5.403907573156563338e-14 3.010961908945196386e-14
2.720000000000000000e+02 7.939361572265625000e+01 9.896372795104980469e+00 2.120893928146336260e-13 -1.378592877875062239e-13 2.226903150813822063e-14 -8.439687208643131822e-14
2.730000000000000000e+02 7.939438629150390625e+01 8.509010314941406250e+00 -2.485541611939312556e-13 -2.209005954502060720e-13 -1.408364256379884827e-13 3.385013691331768826e-14
2.740000000000000000e+02 7.939360046386718750e+01 7.119850158691406250e+00 2.492527397587179783e-13 -2.363095071185317142e-13 3.882973519000847140e-15 -8.143838251331581013e-14
2.750000000000000000e+02 7.818412017822265625e+01 8.726448059082031250e+00 1.552940176625938751e-13 4.367910384512480038e-14 5.969193645231560263e-14 -4.686888423481756771e-14
2.760000000000000000e+02 7.939566040039062500e+01 2.947684049606323242e+00 -4.526663603416497539e-13 -1.711243858204189450e-13 -1.871372252038733253e-13 1.633377406853181446e-13
2.770000000000000000e+02 7.940050506591796875e+01 1.561155915260314941e+00 7.751347307072276038e-13 4.008270223978399605e-13 3.527885178000039756e-13 -4.855534919447068720e-13
2.780000000000000000e+02 7.819171905517578125e+01 1.804747819900512695e+00 4.165470594320874742e-13 -9.598552963736850518e-14 9.616846164892112192e-14 -1.839183373739811111e-13
2.790000000000000000e+02 7.940384674072265625e+01 1.734511256217956543e-01 1.245037818502214844e-12 2.590819269190913765e-13 4.512359182053810036e-13 4.075684288760289542e-13
2.800000000000000000e+02 7.940822601318359375e+01 -3.994090318679809570e+00 -3.041873393797023262e-13 -2.904943267271337115e-13 -1.784045052530616737e-13 2.706877758507260368e-14
2.810000000000000000e+02 7.939694213867187500e+01 -5.376229763031005859e+00 1.360617890057425061e-13 -2.619444374948876053e-13 -3.776479454674352976e-14 2.856999101815034525e-14
2.820000000000000000e+02 7.936080932617187500e+01 -6.766386032104492188e+00 -8.583226767137561164e-14 -2.197890578304467768e-13 -9.168639697292035873e-14 -1.906340143793643083e-14
2.830000000000000000e+02 7.787827301025390625e+01 -7.759720802307128906e+00 -1.144185522152993406e-13 -2.549157987561528893e-13 -1.108003052914356690e-13 -3.648902740290699276e-14
2.840000000000000000e+02 2.797007942199707031e+01 3.688843917846679688e+01 -9.804346055722681919e-14 -4.201862450104072721e-14 -4.201862450104072721e-14 5.495542985522322565e-14
2.850000000000000000e+02 4.737076950073242188e+01 4.152740478515625000e+01 -6.671533036304092001e-14 2.116002007944081664e-13 4.346546180703653173e-14 3.708672095554393922e-14
2.860000000000000000e+02 6.698247528076171875e+01 4.068863296508789062e+01 -3.260105469545145074e-14 -1.455058540019218971e-13 -5.343207159277246765e-14 3.268107008633030185e-15
2.870000000000000000e+02 4.236505329608917236e-01 2.168006658554077148e+00 3.211985527811628272e-14 -9.109823254094002315e-15 6.903009353096799944e-15 -3.651477381637173447e-14
2.880000000000000000e+02 2.399793863296508789e+00 2.636472463607788086e+00 -7.555626046693020292e-14 -1.238831492901201758e-13 -5.983182563762054484e-14 -3.798683237540498303e-14
2.890000000000000000e+02 4.594665527343750000e+00 2.670258760452270508e+00 -2.792525664375468397e-14 3.378298075312757831e-14 1.757317656328341929e-15 -3.726004761347469219e-14
2.900000000000000000e+02 5.289450883865356445e-01 9.232745170593261719e+00 -2.324734778595335949e-14 -1.472159931936375954e-13 -5.113900432675635988e-14 2.416402547619680291e-14
2.910000000000000000e+02 1.591936588287353516e+00 9.145528793334960938e+00 8.224410396966662373e-15 -1.566035712566304916e-13 -4.451374978255845383e-14 -2.263437841762915535e-15
2.920000000000000000e+02 5.490911602973937988e-01 1.204891777038574219e+01 -7.704056712238074867e-14 -2.617721306646253465e-13 -1.016438113689809020e-13 2.328099532275008932e-14
2.930000000000000000e+02 5.696615576744079590e-01 1.628686523437500000e+01 7.609464816073219229e-14 -4.477729764664623024e-13 -1.115034984917190330e-13 4.435862755673009028e-14
2.940000000000000000e+02 1.709612369537353516e+00 1.618100547790527344e+01 -3.073896795739369803e-14 -5.164342803225252521e-13 -1.641519765168547584e-13 8.338557573378188592e-14
2.950000000000000000e+02 5.750985741615295410e-01 1.770109939575195312e+01 -1.714541221942578880e-14 -4.648575361448914478e-13 -1.446008840010754026e-13 1.313360837727935160e-14
2.960000000000000000e+02 5.758317708969116211e-01 2.193623733520507812e+01 3.488494351245111091e-14 -5.111852239246539309e-13 -1.428900807355290570e-13 -8.015350807123039489e-15
2.970000000000000000e+02 5.750681757926940918e-01 2.334690666198730469e+01 -3.717043152765518721e-14 -5.649415939397439690e-13 -1.806335978146375587e-13 -1.938288024278412430e-14
2.980000000000000000e+02 1.708781838417053223e+00 2.462797546386718750e+01 2.120749424325534677e-14 -4.484205704240878942e-13 -1.281639182802718491e-13 -6.396604437537006804e-14
2.990000000000000000e+02 5.745381712913513184e-01 2.475732612609863281e+01 -4.029487518392854684e-14 -4.976542181817089627e-13 -1.613847266544385373e-13 4.563429644474474578e-14
3.000000000000000000e+02 5.873733758926391602e-01 2.898441886901855469e+01 9.162739096374872966e-15 -3.163297531902364845e-13 -9.215010346582883094e-14 1.479651531779025558e-14
3.010000000000000000e+02 6.018619537353515625e-01 3.038820075988769531e+01 6.631425179218653626e-15 -3.174146058840254803e-13 -9.323495615961782668e-14 9.087140558799479406e-15
3.020000000000000000e+02 2.901231288909912109e+00 2.864061927795410156e+01 1.526123147397185492e-14 -1.993387415853350997e-13 -5.522325150874966837e-14 -1.229985648312152506e-15
3.030000000000000000e+02 6.283811330795288086e-01 3.179261589050292969e+01 -5.286103395522737721e-16 -2.747322497536480723e-13 -8.257825846735844522e-14 1.787880383834466319e-14
3.040000000000000000e+02 7.959632277488708496e-01 3.602453613281250000e+01 -1.128739418962019722e-14 -2.335921983186856066e-13 -7.346387902304116202e-14 -4.954999084649802654e-14
3.050000000000000000e+02 2.642397165298461914e+00 3.839214706420898438e+01 -2.959526341442947350e-14 -5.843463462672920938e-14 -2.640896941234760487e-14 -5.076923039956660055e-14
3.060000000000000000e+02 9.528554081916809082e-01 3.879711532592773438e+01 -2.064577428576740885e-16 -9.159037731801961124e-14 -2.753905197145408573e-14 4.061034085255126784e-16
3.070000000000000000e+02 1.248052477836608887e+00 4.018624496459960938e+01 1.193178551567222051e-14 -1.092637468675349000e-13 -2.919959060784446669e-14 2.207082410441481984e-15
3.080000000000000000e+02 1.050972938537597656e+01 1.734664082527160645e+00 -1.530397851631434825e-13 2.591341956282005449e-14 -3.813790917187726004e-14 1.801579918852487029e-16
3.090000000000000000e+02 8.293467521667480469e+00 1.838924765586853027e+00 -1.548253577210098597e-13 7.089912424512734290e-14 -2.517787139801747065e-14 3.332434968163905387e-14
3.100000000000000000e+02 8.262736320495605469e+00 2.518216609954833984e+00 -1.385178304930080248e-14 3.981446858943200884e-14 7.788805916149246084e-15 2.151130971484241372e-13
3.110000000000000000e+02 6.837990283966064453e+00 1.859877943992614746e+00 -9.307308477526574086e-14 5.862483587503516252e-15 -2.616318077984514101e-14 8.791777120773294762e-14
3.120000000000000000e+02 4.664876461029052734e+00 1.886661648750305176e+00 -9.249442574701949304e-14 -1.768933171599970655e-13 -8.081632151685225196e-14 -2.466482015373375192e-14
3.130000000000000000e+02 3.943135738372802734e+00 1.893012404441833496e+00 -5.692287732752404628e-14 -7.014646432072432769e-14 -3.812080249447451219e-14 3.156546543787476511e-14
3.140000000000000000e+02 3.222061634063720703e+00 1.893635272979736328e+00 -7.564576135626888131e-14 -1.696724629286078256e-13 -7.359546728546301209e-14 7.229844300278218117e-14
3.150000000000000000e+02 1.814097404479980469e+00 1.857241511344909668e+00 -7.692913146783997291e-14 1.278131975121976280e-14 -1.924434461612889447e-14 -5.476040560131560653e-14
3.160000000000000000e+02 1.166891694068908691e+00 1.982250571250915527e+00 -7.219764735260834031e-17 -1.830347397084597372e-13 -5.493207885093331910e-14 -3.482252396050204701e-14
3.170000000000000000e+02 9.757387161254882812e+00 1.803574562072753906e+00 -4.757712575146656742e-14 -1.118920968791285719e-13 -4.784076645036536291e-14 -1.225898079066940066e-14
3.180000000000000000e+02 1.279496097564697266e+01 1.385397672653198242e+00 -7.834270070779941753e-14 -3.357544412852311866e-14 -3.357544412852311866e-14 -1.255962429327558971e-13
3.190000000000000000e+02 1.498004341125488281e+01 1.090616941452026367e+00 -9.338915003733599951e-14 5.147797335972037480e-14 -1.257335368091104522e-14 1.906551054997509403e-14
3.200000000000000000e+02 1.569617938995361328e+01 1.001995921134948730e+00 -9.765379829643552889e-14 -1.791044661756183154e-13 -8.302747730873707988e-14 4.872468260027490450e-14
3.210000000000000000e+02 1.963846206665039062e+01 6.494909763336181641e+00 -7.396394186411168331e-15 4.258106454241294969e-14 1.055540186913018694e-14 -8.277459392826841400e-14
3.220000000000000000e+02 2.015775871276855469e+01 5.409277439117431641e+00 1.617737214532673912e-14 3.729407462103179194e-13 1.167354380477922393e-13 -2.461271746308224539e-13
3.230000000000000000e+02 2.125352096557617188e+01 3.269236087799072266e+00 1.748627149111489643e-13 1.664430583376425021e-13 1.023917346851428711e-13 -2.692296594540045940e-14
3.240000000000000000e+02 2.165150833129882812e+01 2.540566921234130859e+00 1.454003204729575893e-13 3.825710635872031640e-13 1.583914206390590884e-13 -1.461836429900512102e-13
3.250000000000000000e+02 2.094012641906738281e+01 2.754019260406494141e+00 1.668624819480685195e-13 4.832710295311903881e-13 1.950400561542831035e-13 9.201335169056051866e-14
3.260000000000000000e+02 2.189062309265136719e+01 2.191338062286376953e+00 2.188556275225725378e-13 2.767990643550571894e-13 1.486964034975307714e-13 -1.800259567070680577e-13
3.270000000000000000e+02 2.107590484619140625e+01 3.634284019470214844e+00 1.701323001750132402e-13 4.389214415100733957e-13 1.827161197950205596e-13 5.953815592667568990e-14
3.280000000000000000e+02 2.089752197265625000e+01 3.993309974670410156e+00 -9.407759808807356072e-14 -4.031897157721203717e-14 -4.031897157721203717e-14 -3.468154040862925225e-14
3.290000000000000000e+02 2.052897834777832031e+01 4.700615882873535156e+00 3.346740338203493814e-14 -7.715872483039093455e-14 -1.310739609569362002e-14 -1.940645316970621148e-14
3.300000000000000000e+02 1.905097007751464844e+01 1.408171772956848145e+00 1.089737024576042934e-13 -1.363007742696126234e-13 -8.198121882415677908e-15 -1.042127877591038365e-13
3.310000000000000000e+02 1.951609611511230469e+01 1.981765031814575195e+00 -2.050797716596306636e-14 -3.747967105942329180e-13 -1.185914159842343940e-13 -8.939323483921415847e-14
3.320000000000000000e+02 1.779853630065917969e+01 8.605353832244873047e-01 -8.136275263552136816e-14 1.023830949490808773e-13 6.306103541100799986e-15 2.177811662289804578e-14
3.330000000000000000e+02 1.997829437255859375e+01 5.767680168151855469e+00 3.914434152253037924e-13 5.795199931914185587e-13 2.912890198145112741e-13 -1.766908288517582415e-13
3.340000000000000000e+02 1.947314262390136719e+01 6.859070777893066406e+00 3.699120952041154431e-14 1.988571660853713507e-13 7.075451200410851071e-14 -1.540611713722606080e-13
3.350000000000000000e+02 1.913965415954589844e+01 7.584385871887207031e+00 -1.434016073205077180e-13 2.587988146268010992e-13 3.461916151426165655e-14 -1.215727144605535659e-13
3.360000000000000000e+02 1.897540283203125000e+01 7.948966503143310547e+00 1.378049014960289198e-13 3.793158820895869976e-13 1.551362391414429220e-13 -1.126748095325001697e-13
3.370000000000000000e+02 1.866488647460937500e+01 8.687818527221679688e+00 5.805747457223939256e-14 -2.086917234346303412e-14 1.115649202388562314e-14 -2.811074940531343991e-13
3.380000000000000000e+02 1.851881599426269531e+01 9.061116218566894531e+00 3.015524841550737412e-13 -8.016065702930522119e-15 8.806092655208250242e-14 -1.173053980476701855e-14
3.390000000000000000e+02 1.881694030761718750e+01 8.316793441772460938e+00 -4.727275632033199615e-14 1.169930986940834194e-13 2.091610135687271138e-14 -1.180803061394657821e-14
3.400000000000000000e+02 1.784323883056640625e+01 9.767658233642578125e+00 2.046106339914643968e-14 -8.273287247341845618e-14 -1.868154204465524715e-14 -2.414328163931854510e-14
3.410000000000000000e+02 1.794251441955566406e+01 1.054980850219726562e+01 -5.485326074112541195e-14 4.340009525805738066e-13 1.137443004367577615e-13 -6.777928505995525765e-14
3.420000000000000000e+02 1.779359054565429688e+01 1.092170333862304688e+01 8.092782323996291355e-15 9.497023528920803259e-14 3.091890486044482356e-14 -5.967383705229867275e-14
3.430000000000000000e+02 1.725485038757324219e+01 1.243170547485351562e+01 7.832400499658762061e-14 5.825787985705432881e-13 1.982708431030183460e-13 -9.130620792861116053e-14
3.440000000000000000e+02 1.701289939880371094e+01 1.319766902923583984e+01 -8.360208413136366312e-14 4.216800248823399100e-13 1.014233795147874428e-13 -3.761593358846127000e-14
3.450000000000000000e+02 1.690408325195312500e+01 1.358542537689208984e+01 -1.455075209627620936e-13 3.036472169624243600e-13 4.744191218803046894e-14 -1.082364449803141504e-13
3.460000000000000000e+02 1.680030059814453125e+01 1.397270679473876953e+01 1.479138399219578903e-13 1.548935404851320419e-13 9.084221683263241087e-14 -1.897512230892087204e-13
3.470000000000000000e+02 1.669428253173828125e+01 1.435764884948730469e+01 -3.037220946749616401e-14 7.189985369235318835e-13 2.065878934934262112e-13 -1.434621735643681895e-13
3.480000000000000000e+02 1.646839523315429688e+01 1.512149620056152344e+01 4.994965487233049561e-14 3.416636277283474632e-13 1.174839847802033876e-13 -3.673754822488412008e-13
3.490000000000000000e+02 1.624193763732910156e+01 1.588723850250244141e+01 -1.382628413886324847e-13 2.152501945131349292e-13 2.309620661497709115e-14 -1.660517426685381714e-13
3.500000000000000000e+02 1.613392257690429688e+01 1.627162742614746094e+01 9.598344932445004862e-14 4.071433674143060122e-13 1.509380456992531760e-13 -2.339872815903393244e-13
3.510000000000000000e+02 1.581324481964111328e+01 1.784586524963378906e+01 5.952320748922254601e-15 7.345661622373822475e-13 2.221555459123308873e-13 -1.042762203624578166e-13
3.520000000000000000e+02 1.577140331268310547e+01 1.824486732482910156e+01 9.641429093900505398e-14 7.733356056222051578e-13 2.609249621920994855e-13 -1.442846425561521151e-14
3.530000000000000000e+02 1.572812175750732422e+01 1.864121246337890625e+01 -1.422651601558355683e-13 9.913010082934770040e-13 2.547107761253358804e-13 -1.981301373779522507e-14
3.540000000000000000e+02 1.544830703735351562e+01 1.785648727416992188e+01 1.008094093770360578e-13 8.667211371347904869e-13 2.902591632759216056e-13 -1.217840254639709907e-15
3.550000000000000000e+02 1.564078140258789062e+01 1.943794822692871094e+01 -2.711531696332654395e-14 1.040650963839151455e-12 3.040607045659560193e-13 -3.503332335601933023e-14
3.560000000000000000e+02 1.561315536499023438e+01 2.024850273132324219e+01 -1.899317563034547129e-14 9.526300104659157775e-13 2.800910545164292387e-13 1.472309789005404185e-14
3.570000000000000000e+02 1.561843109130859375e+01 1.984296798706054688e+01 1.167871138338383297e-13 1.148074365610318726e-12 3.794584546752688414e-13 -2.380844273900534214e-14
3.580000000000000000e+02 1.561496448516845703e+01 2.065166282653808594e+01 1.030892764816021545e-13 9.592000587907434372e-13 3.186868087132199712e-13 4.943678997529517283e-15
3.590000000000000000e+02 1.561533069610595703e+01 2.145124053955078125e+01 2.081390750941283785e-13 9.127195527147691223e-13 3.362575788559002410e-13 5.278863826098378897e-14
3.600000000000000000e+02 1.562228393554687500e+01 2.265502548217773438e+01 8.803262209911705272e-14 6.782415341161085465e-13 2.298822482198203954e-13 -1.484610096533570123e-13
3.610000000000000000e+02 1.565271377563476562e+01 2.345491409301757812e+01 1.127274729589627586e-14 7.368463478263365118e-13 2.244357315012851517e-13 -3.393103533604405198e-14
3.620000000000000000e+02 1.567306423187255859e+01 2.385335159301757812e+01 1.348908235544038492e-13 9.728293474606242164e-13 3.323160431729921260e-13 1.142912736565131204e-14
3.630000000000000000e+02 1.569802570343017578e+01 2.425285911560058594e+01 2.068072953555558091e-13 1.003650721559390391e-12 3.631373901667039883e-13 1.879575054625215458e-13
3.640000000000000000e+02 1.587689971923828125e+01 2.545143318176269531e+01 8.196724955679066116e-14 1.499159195221533292e-12 4.743379083613219471e-13 4.114452105841853724e-13
3.650000000000000000e+02 1.598186302185058594e+01 2.584400177001953125e+01 -1.527811961687421116e-14 1.091475000658537198e-12 3.228590626184330015e-13 3.493644176039145677e-13
3.660000000000000000e+02 1.579405117034912109e+01 2.505416297912597656e+01 1.963148746212187157e-13 1.365161564521877313e-12 4.684429385191923867e-13 1.563502474190292535e-13
3.670000000000000000e+02 1.610495376586914062e+01 2.623119544982910156e+01 2.014197185776223087e-13 1.001341696192648012e-12 3.608284190100702338e-13 2.202524864965485496e-13
3.680000000000000000e+02 1.684903335571289062e+01 2.810711288452148438e+01 1.923906590680160567e-13 6.314644987459594461e-13 2.471565432784345040e-13 4.163255840333029978e-13
3.690000000000000000e+02 1.700752067565917969e+01 2.847608184814453125e+01 2.178002244702936796e-13 8.253581195230563772e-13 3.129475031980050170e-13 3.390221859755210287e-13
3.700000000000000000e+02 1.716834259033203125e+01 2.884529876708984375e+01 1.956308379180704549e-13 7.243550919668051424e-13 2.759957789654626792e-13 4.003031359080949647e-13
3.710000000000000000e+02 1.733582305908203125e+01 2.921571159362792969e+01 2.416486607169365808e-13 5.610732147984243134e-13 2.408165626546082683e-13 3.240096992790375552e-13
3.720000000000000000e+02 1.772267341613769531e+01 2.991989517211914062e+01 1.056770027930455103e-13 4.112977319836730317e-13 1.550924238211473516e-13 1.404145896777286850e-13
3.730000000000000000e+02 1.759986495971679688e+01 3.044461250305175781e+01 1.179438220266088022e-13 3.250530541346746682e-13 1.328990628483850411e-13 -1.140956852786626299e-14
3.740000000000000000e+02 1.793173789978027344e+01 3.025571250915527344e+01 1.782286070031030567e-13 5.338931879060593300e-13 2.136365357622432848e-13 2.476988069950031290e-13
3.750000000000000000e+02 1.855700492858886719e+01 3.129857063293457031e+01 8.085056875297563783e-14 3.091559397806059595e-13 1.170019484943163324e-13 9.079865901035280573e-14
3.760000000000000000e+02 1.901811218261718750e+01 3.195767593383789062e+01 5.433463940818054894e-14 1.147881702884268051e-13 5.073684324779538513e-14 -9.699812703262492009e-14
3.770000000000000000e+02 1.878280830383300781e+01 3.163627815246582031e+01 -9.334783515830072376e-14 2.344994858016757888e-13 4.234549112725437270e-14 1.731718067554677276e-13
3.780000000000000000e+02 1.924693679809570312e+01 3.228488159179687500e+01 -5.712921455347519384e-14 -1.159858477707900737e-13 -5.193451734202686465e-14 3.986653401063383617e-14
3.790000000000000000e+02 1.969136047363281250e+01 3.298753738403320312e+01 -2.089658063557028878e-13 -3.640624585653229328e-13 -1.719084808315604618e-13 8.671694953906947112e-14
3.800000000000000000e+02 1.995030212402343750e+01 3.331445312500000000e+01 -1.885115327726616385e-13 -8.079065303041865764e-14 -8.079065303041865764e-14 -1.864222074236462912e-13
3.810000000000000000e+02 2.023625373840332031e+01 3.360821151733398438e+01 -2.088186394633151366e-13 -2.724974922357209506e-13 -1.443948449307216886e-13 -4.200718447405511063e-15
3.820000000000000000e+02 2.053636741638183594e+01 3.388308715820312500e+01 -1.083822769487770288e-13 -1.379514449721674918e-13 -7.390011454340428276e-14 -1.185726592866503948e-13
3.830000000000000000e+02 2.084743881225585938e+01 3.414032363891601562e+01 -1.114082513308661815e-13 -2.307501791639493538e-13 -1.026475318589500918e-13 1.486436435093121955e-13
3.840000000000000000e+02 2.216688537597656250e+01 3.497912216186523438e+01 9.593446879724212145e-15 -8.739042204729957630e-14 -2.333909161853636727e-14 -2.320662752404705625e-14
3.850000000000000000e+02 2.276383018493652344e+01 3.559336090087890625e+01 7.860036813035417569e-14 3.081915690532344154e-13 1.160375777669447883e-13 -4.523486281187392988e-14
3.860000000000000000e+02 2.315519905090332031e+01 3.584776306152343750e+01 1.484759038807015319e-13 2.466363159710216468e-13 1.185336686660223848e-13 1.440233837139009987e-13
3.870000000000000000e+02 2.481461906433105469e+01 3.625117874145507812e+01 2.088896411530857811e-14 -2.655532857411685432e-13 -7.339929445487891613e-14 4.618159492515185038e-14
3.880000000000000000e+02 2.554759407043457031e+01 3.653947830200195312e+01 9.208591869721768908e-14 -9.778745331924867945e-14 -1.710459793686234034e-15 -1.109039211378073930e-13
3.890000000000000000e+02 2.637960624694824219e+01 3.661811828613281250e+01 1.199726082368179902e-13 -2.688398006815695407e-13 -4.466016112155725415e-14 1.496216345264755887e-13
3.900000000000000000e+02 2.713287162780761719e+01 3.680018615722656250e+01 -2.884489386711583392e-14 -1.953658860121693097e-13 -6.726323870717004771e-14 4.792465320532963979e-14
3.910000000000000000e+02 2.924623680114746094e+01 3.702731323242187500e+01 9.744693082785940014e-15 7.280271898573234535e-14 2.476422455229172759e-14 -1.417653971644283750e-14
3.920000000000000000e+02 3.195477104187011719e+01 3.646352386474609375e+01 1.709015958265003299e-13 7.324354203653779538e-14 7.324354203653779538e-14 -7.745088343455788782e-14
3.930000000000000000e+02 3.187666511535644531e+01 3.697706985473632812e+01 -1.038111111829886912e-13 -4.449047670529969467e-14 -4.449047670529969467e-14 -1.650226992815778670e-13
3.940000000000000000e+02 3.315855407714843750e+01 3.616809082031250000e+01 1.090301690620000541e-13 -2.735294358634926537e-13 -4.934977936282142208e-14 -5.099757692961920386e-14
3.950000000000000000e+02 3.275452804565429688e+01 3.631673049926757812e+01 2.140654867992600185e-14 3.980572924229541787e-13 1.258391584295012744e-13 8.488018908613462199e-14
3.960000000000000000e+02 3.386964035034179688e+01 3.588534927368164062e+01 7.395220368152863322e-14 -4.258156869642315545e-13 -1.055590415966790874e-13 -1.162629020834415883e-13
3.970000000000000000e+02 3.425434112548828125e+01 3.586223220825195312e+01 6.291230828393140628e-14 2.696241735195177569e-14 2.696241735195177569e-14 6.262189795576758589e-14
3.980000000000000000e+02 3.510575485229492188e+01 3.566130447387695312e+01 1.209449478501573028e-13 -6.254382184682147350e-14 1.752033949506664329e-14 -8.967125815755733198e-14
3.990000000000000000e+02 3.728157424926757812e+01 3.443061065673828125e+01 -7.677020437001254305e-15 -1.472788870840371217e-14 -6.721472828324784668e-15 -1.144445595149118367e-13
4.000000000000000000e+02 3.760890197753906250e+01 3.416657257080078125e+01 8.038939658264535049e-14 9.164128738628138371e-14 5.160920248017258904e-14 -7.651244546789948142e-14
4.010000000000000000e+02 3.821586227416992188e+01 3.361570358276367188e+01 1.659050230095465706e-13 -1.009206087093845496e-15 4.946874344619739405e-14 -4.130916325694768132e-14
4.020000000000000000e+02 3.910240554809570312e+01 3.277835083007812500e+01 3.854336351493715951e-14 2.567110749234630118e-13 8.857632915982779909e-14 -2.536331333759939133e-13
4.030000000000000000e+02 3.937412643432617188e+01 3.245619583129882812e+01 2.833427394620391393e-13 3.044363806187222465e-13 1.763337333137229845e-13 -2.681807954960785390e-13
4.040000000000000000e+02 3.962522125244140625e+01 3.211922836303710938e+01 1.624394520803595920e-13 3.441225982555445873e-13 1.519686205217821162e-13 -3.252065229521899914e-13
4.050000000000000000e+02 4.046163177490234375e+01 3.165840911865234375e+01 1.684634148759606154e-13 5.983345329613198871e-13 2.300393762196678571e-13 -7.879327480189365907e-14
4.060000000000000000e+02 4.022552490234375000e+01 3.103694343566894531e+01 3.056472447100083700e-13 4.969992516493104695e-13 2.407939570393119455e-13 -1.812739005126531855e-13
4.070000000000000000e+02 4.037709808349609375e+01 3.065486526489257812e+01 7.470273585916814563e-14 5.810268173707389128e-13 1.967188754557411268e-13 -3.182535886301490757e-13
4.080000000000000000e+02 4.005084609985351562e+01 3.141031646728515625e+01 8.232710303410217811e-14 4.927925472200667123e-13 1.725358950762506671e-13 -4.483467633611959435e-13
4.090000000000000000e+02 4.093096160888671875e+01 2.912496566772460938e+01 -1.443821360483810851e-14 1.000333062911584747e-12 2.957684553002437600e-13 -3.957056037007244953e-13
4.100000000000000000e+02 4.104574203491210938e+01 2.873235321044921875e+01 2.505095875746446432e-14 1.017257025143214477e-12 3.126923904268191778e-13 -3.094334684317079365e-13
4.110000000000000000e+02 4.117362594604492188e+01 2.792541122436523438e+01 5.411575254208288166e-14 1.212717101219118465e-12 3.800498598553053720e-13 -1.447660757545807253e-13
4.120000000000000000e+02 4.112599563598632812e+01 2.833078384399414062e+01 8.924879878104835518e-14 1.227774175729945405e-12 3.951068801560236876e-13 -2.309195315432915896e-13
4.130000000000000000e+02 4.119737625122070312e+01 2.751983070373535156e+01 1.224274723482868255e-13 7.844840770911132299e-13 2.720734607660618698e-13 -5.779002900134153076e-14
4.140000000000000000e+02 4.120586395263671875e+01 2.711525154113769531e+01 2.152196538931887282e-14 6.954879380738354655e-13 2.151029734106385538e-13 -4.845676438499247479e-15
4.150000000000000000e+02 4.120596694946289062e+01 2.630878257751464844e+01 -8.805585790692613268e-14 1.151786457008474596e-12 3.191191885396071903e-13 -1.528135020053503906e-14
4.160000000000000000e+02 4.158905792236328125e+01 2.596094703674316406e+01 -1.286518770205261064e-13 7.226295842092944621e-13 1.781933162223886535e-13 6.876966054584045598e-15
4.170000000000000000e+02 4.158210754394531250e+01 2.515163803100585938e+01 3.145825478367489381e-14 6.539954125125979623e-13 2.056360995112554990e-13 7.642483515609907463e-14
4.180000000000000000e+02 4.120089340209960938e+01 2.429857063293457031e+01 1.878048633491627428e-13 9.040048982826565105e-13 3.275429244237876292e-13 2.992004633959287341e-14
4.190000000000000000e+02 4.120392227172851562e+01 2.510177421569824219e+01 2.390341613880964111e-13 1.017462156194248735e-12 3.769489061167252686e-13 1.012271660266218787e-13
4.200000000000000000e+02 4.119841384887695312e+01 2.309450721740722656e+01 6.487413145746245835e-14 6.225655299445242985e-13 2.062318957100905958e-13 -2.977915426727838211e-14
4.210000000000000000e+02 4.156616210937500000e+01 2.314181137084960938e+01 -5.591895100854867365e-15 -9.389842690280675308e-14 -2.984709647404354405e-14 -4.473531327276944469e-14
4.220000000000000000e+02 4.119729614257812500e+01 2.189090728759765625e+01 -6.804528051044742010e-14 5.656000841292030401e-13 1.492664363422421814e-13 -1.138973355734040904e-13
4.230000000000000000e+02 4.119713973999023438e+01 2.148979187011718750e+01 3.942428032118047362e-15 5.049500314407984192e-13 1.526677411876550816e-13 -1.840155496512715927e-13
4.240000000000000000e+02 4.119694900512695312e+01 2.068758964538574219e+01 -1.242110933422427288e-13 9.532875790835282359e-13 2.487229443671329365e-13 4.797813825375106533e-14
4.250000000000000000e+02 4.119708633422851562e+01 2.028640747070312500e+01 8.252750425315896754e-14 7.673840946367804783e-13 2.549734783117291181e-13 1.516609273333625191e-14
4.260000000000000000e+02 4.119727325439453125e+01 1.988517379760742188e+01 -4.000086665980479017e-14 5.318681692983995291e-13 1.475601867258202748e-13 1.271715277030051328e-14
4.270000000000000000e+02 4.119704055786132812e+01 1.948384284973144531e+01 -1.374043972135127745e-13 2.156180914153135730e-13 2.346410859935341847e-14 2.466295837531568697e-14
4.280000000000000000e+02 4.119502639770507812e+01 1.868129730224609375e+01 -8.420651328999717578e-14 1.011643365107263437e-13 5.087347220328634553e-15 -5.416348793085834501e-14
4.290000000000000000e+02 4.119535064697265625e+01 1.747280693054199219e+01 -6.849714887088506621e-14 1.078969270700003147e-13 1.181993312092139564e-14 -6.663308007573073843e-14
4.300000000000000000e+02 4.151071166992187500e+01 1.669539070129394531e+01 1.353713555097765808e-13 1.495181880866933155e-13 8.546686443419368451e-14 -1.389239743208869893e-13
4.310000000000000000e+02 4.117850494384765625e+01 1.706907653808593750e+01 2.109207855030201251e-13 5.479041157406550067e-13 2.276474635968389615e-13 -7.151341964353047365e-14
4.320000000000000000e+02 4.111608505249023438e+01 1.626842880249023438e+01 9.324945905774071481e-15 4.974735291134006754e-14 1.772168939102435753e-14 -9.018847002767796384e-14
4.330000000000000000e+02 4.114809799194335938e+01 1.666785240173339844e+01 -1.155256175010971331e-13 1.792437726022555466e-13 1.911544483628162955e-14 -5.951273138573090482e-14
4.340000000000000000e+02 4.109395217895507812e+01 1.586798000335693359e+01 8.517256453073607236e-14 4.940120036135697834e-13 1.737553785748080504e-13 5.429534046755973842e-14
4.350000000000000000e+02 4.105355834960937500e+01 1.506024169921875000e+01 1.057762547256729802e-13 -1.834220573820530276e-13 -2.329374147454037203e-14 -1.847346738472269156e-13
4.360000000000000000e+02 4.094686889648437500e+01 1.425832271575927734e+01 2.849381700639058712e-13 2.593692133897457230e-13 1.632922041940737534e-13 7.903113012381213914e-15
4.370000000000000000e+02 4.100868225097656250e+01 1.465732860565185547e+01 -7.163775052766024887e-14 -3.070189501935827181e-14 -3.070189501935827181e-14 -7.647979065371693363e-14
4.380000000000000000e+02 4.053695297241210938e+01 1.188224124908447266e+01 8.755306084350187451e-15 1.867560739301360462e-13 5.865341307260962811e-14 3.475962329383894267e-14
4.390000000000000000e+02 4.080936431884765625e+01 1.346617889404296875e+01 3.797135403414003685e-13 5.287419807542548256e-13 2.725366590392019894e-13 1.590959453751355362e-14
4.400000000000000000e+02 4.105735397338867188e+01 1.266043376922607422e+01 -1.328178696581930329e-13 4.463384956771010437e-13 9.405618509516697201e-14 3.985878196510056481e-13
4.410000000000000000e+02 4.039849472045898438e+01 1.109018707275390625e+01 -5.537008297609030683e-14 3.880285036426261991e-13 9.979752348945533647e-14 3.893951065997262873e-14
4.420000000000000000e+02 4.032787322998046875e+01 1.069363307952880859e+01 9.361771340782309991e-14 8.636389671988486949e-13 2.871769933399798136e-13 1.412596304034910433e-13
4.430000000000000000e+02 4.025416183471679688e+01 1.029640007019042969e+01 4.769780761765957111e-14 8.439590172548694369e-13 2.674970433960005556e-13 2.198645318541789240e-13
4.440000000000000000e+02 4.065394973754882812e+01 1.026205825805664062e+01 2.881792569332797260e-13 9.470225168298207485e-13 3.705605158658975551e-13 1.143517653614742335e-13
4.450000000000000000e+02 3.998674011230468750e+01 9.109366416931152344e+00 2.043903647675968105e-13 1.322871499842559473e-12 4.581785797118376191e-13 5.326610463471381784e-13
4.460000000000000000e+02 4.008485412597656250e+01 7.841066837310791016e+00 3.939232024342126381e-13 1.312597925316738579e-12 5.119563627198342459e-13 5.343767962850964892e-13
4.470000000000000000e+02 3.965282440185546875e+01 7.939071178436279297e+00 7.520992563545686460e-14 1.267508450628063166e-12 4.028155033922869999e-13 3.601113005881340090e-13
4.480000000000000000e+02 3.939684295654296875e+01 7.172183990478515625e+00 1.051568432482684334e-13 1.005837123660424659e-12 3.332981948159924324e-13 4.898232969403892856e-13
4.490000000000000000e+02 3.909458160400390625e+01 6.417736530303955078e+00 3.701298978680406249e-13 1.576906465648730826e-12 5.841109388705911787e-13 8.005426833587736546e-13
4.500000000000000000e+02 3.936976242065429688e+01 5.894590377807617188e+00 5.008795570145274656e-13 1.266934473997949340e-12 5.303442147247539040e-13 8.123774005927564268e-13
4.510000000000000000e+02 3.836565399169921875e+01 4.963231563568115234e+00 3.522053525564783349e-13 1.477722675127801644e-12 5.489783974632622687e-13 7.104537227617391260e-13
4.520000000000000000e+02 3.874281692504882812e+01 5.686376094818115234e+00 3.117418703822011361e-13 1.323128347337221289e-12 4.904610788683538836e-13 5.932020282969907576e-13
4.530000000000000000e+02 3.816574859619140625e+01 4.605199337005615234e+00 6.500154147576209240e-13 1.330849818369228554e-12 5.942595590960331187e-13 7.583545336836694517e-13
4.540000000000000000e+02 3.795387268066406250e+01 4.253306388854980469e+00 8.572236345240347166e-13 1.991540179296924507e-12 8.546291929353855288e-13 1.046597162233930955e-12
4.550000000000000000e+02 3.749256515502929688e+01 3.576069116592407227e+00 5.822045861907099162e-13 1.210286211528188716e-12 5.377472555787021768e-13 1.087193161018740195e-12
4.560000000000000000e+02 3.724589157104492188e+01 3.250496149063110352e+00 1.041294654668956099e-12 1.407039090274564419e-12 7.345000801149692560e-13 9.577125334100933252e-13
4.570000000000000000e+02 3.620280456542968750e+01 1.998446345329284668e+00 9.425822752526236137e-13 1.233199740241497366e-12 6.527345938062145692e-13 9.258661545774593549e-13
4.580000000000000000e+02 3.593211746215820312e+01 1.694959282875061035e+00 8.909510499158224128e-13 1.191056042855465069e-12 6.246021495154296943e-13 8.170973663304548218e-13
4.590000000000000000e+02 3.565005493164062500e+01 1.400969862937927246e+00 9.301515720844255597e-13 1.182121349592446524e-12 6.336818548190181755e-13 9.547483246705179560e-13
4.600000000000000000e+02 3.471952056884765625e+01 6.172843575477600098e-01 1.104318459593800483e-12 7.020340797407598199e-13 5.419057672213789534e-13 6.101497345561979202e-13
4.610000000000000000e+02 3.439008331298828125e+01 3.859484791755676270e-01 9.251293307810382061e-13 5.222991093442597155e-13 4.342285266165785140e-13 8.554307436015040622e-13
4.620000000000000000e+02 3.504171371459960938e+01 8.613060712814331055e-01 9.010872018162807695e-13 4.433689201367718713e-13 4.033368420069266547e-13 1.060221897254687295e-12
4.630000000000000000e+02 3.405605697631835938e+01 1.633867472410202026e-01 1.303326262018511539e-12 1.038953320077473652e-12 7.026838963128390070e-13 6.495181996413190717e-13
4.640000000000000000e+02 3.303573608398437500e+01 -4.803837239742279053e-01 1.069862514552211152e-12 2.297577547053647473e-13 3.898860943297999260e-13 7.550136188992639941e-13
4.650000000000000000e+02 3.196463012695312500e+01 -1.085198163986206055e+00 1.293154927757556028e-12 2.225148640648197396e-13 4.547009199284274272e-13 4.132184774473940392e-13
4.660000000000000000e+02 3.157104873657226562e+01 -1.248051166534423828e+00 1.252166447786307035e-12 1.706351531426120172e-13 4.268404748576648533e-13 5.195021929998988597e-13
4.670000000000000000e+02 3.295567703247070312e+01 -1.640405058860778809e+00 7.426974616905890336e-13 6.557121382325115100e-13 4.195228691349084382e-13 5.003797940231202723e-13
4.680000000000000000e+02 3.117905426025390625e+01 -3.797809362411499023e+00 -1.605104531276005386e-13 -2.303924534334013396e-14 -5.506491055772173848e-14 2.840752264497703461e-13
4.690000000000000000e+02 3.073510551452636719e+01 -1.440923929214477539e+00 1.297082666967819264e-12 -3.886974225017318652e-14 3.774639021486558832e-13 2.513446807454744469e-13
4.700000000000000000e+02 2.955727577209472656e+01 -1.598546385765075684e+00 1.090286931917927582e-12 2.385110880499807795e-13 3.986394005693616460e-13 1.584831712479056742e-13
4.710000000000000000e+02 2.878129577636718750e+01 -1.709199905395507812e+00 1.494829217005277933e-12 4.118863182380610999e-13 5.720146578624962785e-13 4.412535807118804498e-14
4.720000000000000000e+02 2.837570190429687500e+01 -1.783327221870422363e+00 1.579239343463267886e-12 1.278054674895209852e-13 5.121134636146273955e-13 4.446024440534629418e-14
4.730000000000000000e+02 2.795240020751953125e+01 -1.759679913520812988e+00 1.589143313468488472e-12 4.065557298368188688e-13 5.987097211231084959e-13 -2.874507001784237792e-13
4.740000000000000000e+02 2.781861686706542969e+01 -2.023854970932006836e+00 9.985550797689257685e-13 1.763219426150972047e-13 3.524630945179324515e-13 -2.908202107951285420e-13
4.750000000000000000e+02 2.740204238891601562e+01 -1.990949273109436035e+00 1.304826255724145234e-12 -9.048191341141931243e-13 1.200021391934910642e-13 -2.930300316630884971e-13
4.760000000000000000e+02 2.693508148193359375e+01 -1.696251749992370605e+00 2.163983835873350969e-12 5.815358909483023253e-14 6.666412213918171403e-13 -2.428872532787840210e-13
4.770000000000000000e+02 2.758120918273925781e+01 -1.704447865486145020e+00 1.937154863601575627e-12 -9.540777456268356715e-13 2.949231028663568122e-13 -1.405171552032458138e-13
4.780000000000000000e+02 2.826753044128417969e+01 -2.422985792160034180e+00 4.691291842842670867e-13 2.124931090460857597e-13 2.044866961306221476e-13 1.845955334390473462e-14
4.790000000000000000e+02 2.912433242797851562e+01 -2.533262491226196289e+00 5.055440116009946028e-13 3.365792819692674243e-14 1.617605788900577934e-13 -1.221073752093876363e-13
4.800000000000000000e+02 3.192140960693359375e+01 -4.056217193603515625e+00 -3.089299378377513561e-13 4.854304316099979782e-15 -9.122269048001188652e-14 1.709160563729758553e-13
4.810000000000000000e+02 3.266606521606445312e+01 -3.733906269073486328e+00 -1.702694110922511883e-13 -1.187235531240060649e-13 -8.669788790962446035e-14 8.237278182688170802e-14
4.820000000000000000e+02 3.233289718627929688e+01 -8.930851221084594727e-01 1.146204875804301970e-12 4.797929089618568899e-13 4.877993625349019702e-13 6.212678483642763982e-13
4.830000000000000000e+02 3.268815994262695312e+01 -6.896335482597351074e-01 1.227156397332063165e-12 3.657958538936384452e-13 4.778856889202376390e-13 6.753034546488900780e-13
4.840000000000000000e+02 3.358705902099609375e+01 -1.116644859313964844e+00 7.760257280525761914e-13 3.869116940898031931e-13 3.488812158006920905e-13 4.779213049616037878e-13
4.850000000000000000e+02 3.423392868041992188e+01 -6.552121639251708984e-01 5.818466910535724512e-13 5.238685461990411074e-13 3.317145820178057924e-13 5.752064948481849793e-13
4.860000000000000000e+02 3.684301757812500000e+01 -5.086745738983154297e+00 -5.031461900763256612e-13 1.961244616146759490e-13 -9.210651853849491366e-14 -1.012507270950827043e-13
4.870000000000000000e+02 3.613325500488281250e+01 -4.962587833404541016e+00 -4.172232492220123712e-13 4.994477935068609986e-14 -1.101835433330901337e-13 6.202006410608446041e-14
4.880000000000000000e+02 3.899457550048828125e+01 -5.342071056365966797e+00 -3.938055393934436488e-13 -7.727190198467126514e-14 -1.413232324134344742e-13 -2.049207835754310314e-13
4.890000000000000000e+02 3.826844787597656250e+01 -4.613948822021484375e+00 -4.392335833155319724e-13 -1.424920159079010040e-13 -1.745176811222826085e-13 -2.775678179054580363e-13
4.900000000000000000e+02 4.057777786254882812e+01 -5.429275989532470703e+00 -1.647040387105572212e-13 -1.620893360938097105e-13 -9.803801244131007953e-14 -2.486419544648482693e-13
4.910000000000000000e+02 2.117448425292968750e+01 3.436972427368164062e+01 3.407034599784601950e-15 2.759658549855020793e-13 8.381186369921245216e-14 -7.508598099835103734e-14
4.920000000000000000e+02 2.151401901245117188e+01 3.456829833984375000e+01 -1.144756896697893267e-13 -3.235666942713599781e-13 -1.314127165375975070e-13 1.162459614244965023e-13
4.930000000000000000e+02 2.157052421569824219e+01 3.508987808227539062e+01 -9.389229438426863195e-14 1.885151919549937771e-13 2.838686927121754355e-14 8.510422591255159541e-14
4.940000000000000000e+02 2.516394996643066406e+01 3.635732269287109375e+01 -2.330560840613140478e-14 3.102685209449562720e-13 8.608887122054861840e-14 9.296728019575831170e-14
4.950000000000000000e+02 2.144142913818359375e+01 2.902325868606567383e+00 6.777226485088841401e-14 7.479620763896355218e-14 4.277054242458194766e-14 -8.197297549951410023e-14
4.960000000000000000e+02 2.120999336242675781e+01 1.204972743988037109e+00 1.864784749752994471e-15 1.380520453812469905e-13 4.197504634997038797e-14 -3.956792101540880513e-14
4.970000000000000000e+02 1.494703102111816406e+01 2.398911476135253906e+01 9.237779269831436491e-14 1.229115116976875477e-12 3.964478756130623838e-13 -6.243130876637179028e-14
4.980000000000000000e+02 1.539491271972656250e+01 2.473069572448730469e+01 1.643131973799033529e-13 1.076940836855500017e-12 3.723762021391047172e-13 8.173684981887391343e-14
4.990000000000000000e+02 2.597687721252441406e+01 3.663018798828125000e+01 1.843453232945602149e-13 1.247560811167697237e-13 9.273042267865169719e-14 -1.148150280091183445e-14
5.000000000000000000e+02 2.534832954406738281e+01 3.731536865234375000e+01 -2.549994212368376229e-14 1.263242982441070694e-13 3.024730598909404489e-14 5.012520075658305485e-14
5.010000000000000000e+02 1.553810214996337891e+01 2.555017280578613281e+01 1.557011762359436502e-13 1.347755674424577776e-12 4.510370484218928500e-13 1.963102532094584962e-13
5.020000000000000000e+02 2.173484420776367188e+01 1.542979478836059570e+00 -1.200659987014504604e-13 1.315469407665512125e-13 3.444280332541268044e-15 -7.173224552325593861e-14
5.030000000000000000e+02 2.179406547546386719e+01 3.532909774780273438e+01 2.601794681664302417e-14 1.941543442945253828e-13 6.605169021326254275e-14 -1.463166203865065573e-13
5.040000000000000000e+02 1.587030124664306641e+01 1.587529945373535156e+01 -1.018021658725359879e-13 2.766271369955553006e-13 5.244749065927943599e-14 -1.528839582059030033e-13
5.050000000000000000e+02 1.594034385681152344e+01 1.704911994934082031e+01 5.268857995299053298e-14 9.375998241689664781e-13 2.970865198813343877e-13 -1.479133926885617401e-13
5.060000000000000000e+02 2.185254859924316406e+01 3.475771713256835938e+01 -4.172447028725004281e-14 7.361998380708834055e-14 9.568653378325131520e-15 4.737180496505212501e-14
5.070000000000000000e+02 1.624148941040039062e+01 2.661341094970703125e+01 2.229637508692830505e-13 1.010574870313751816e-12 3.700615931311740381e-13 3.623680674101625865e-13
5.080000000000000000e+02 1.563715648651123047e+01 2.595799255371093750e+01 1.456059394149694652e-13 9.774214857621865704e-13 3.369082356846631043e-13 3.960151434209691068e-13
5.090000000000000000e+02 2.126522445678710938e+01 3.490341567993164062e+01 -1.060302375549071821e-14 3.957766460480766080e-13 1.155520855866329355e-13 1.094147694538985527e-13
5.100000000000000000e+02 2.443573188781738281e+01 3.621564102172851562e+01 2.149353726954312399e-14 1.007134168271896224e-13 3.666208639842641337e-14 -5.797926547912056125e-15
5.110000000000000000e+02 1.813300514221191406e+01 3.060177230834960938e+01 1.111135922854389335e-13 4.136277095573986928e-13 1.574223878423458567e-13 2.418650674705646875e-13
5.120000000000000000e+02 1.792405128479003906e+01 3.119644165039062500e+01 -2.281346362905181668e-14 3.333549256946677364e-13 9.316243658680570250e-14 2.505415850912601217e-13
5.130000000000000000e+02 1.738032341003417969e+01 3.016073608398437500e+01 1.420689602201971602e-13 5.183961983637463966e-13 1.981395462199303514e-13 3.209557185995803863e-13
5.140000000000000000e+02 2.195597648620605469e+01 3.570181274414062500e+01 6.247542224226479424e-14 -1.897576740921350091e-14 1.304989695813515635e-14 -1.089041779932936604e-13
5.150000000000000000e+02 2.755284118652343750e+01 3.686441040039062500e+01 -6.830435061956283138e-14 -2.122770817632180229e-13 -8.417443445821876091e-14 -2.148118414104036727e-14
5.160000000000000000e+02 2.651524162292480469e+01 3.712975692749023438e+01 -2.018260978806606099e-15 1.020746665360630634e-13 3.001691980370445323e-14 1.145258746778482495e-13
5.170000000000000000e+02 1.568105220794677734e+01 1.903707885742187500e+01 5.212396473100976146e-14 5.713502045610885371e-13 1.870422626460907511e-13 -1.548668453947663753e-14
5.180000000000000000e+02 1.534945011138916016e+01 1.865267753601074219e+01 -5.255014088809129014e-14 4.807389295674591168e-13 1.284566393143157792e-13 3.704200778032427921e-14
5.190000000000000000e+02 1.638704490661621094e+01 2.699146842956542969e+01 3.072543914716015234e-14 6.536813191432289116e-13 2.053220332469407605e-13 3.131216531719605012e-13
5.200000000000000000e+02 1.575271797180175781e+01 2.636207389831542969e+01 1.344921624155809292e-13 1.064160370066458139e-12 3.595957624551171516e-13 2.644942370590847025e-13
5.210000000000000000e+02 2.402429580688476562e+01 3.612817001342773438e+01 5.247282710879770662e-14 2.248835544323667113e-14 2.248835544323667113e-14 6.763343276270164517e-14
5.220000000000000000e+02 1.551061916351318359e+01 1.745021820068359375e+01 6.192123907806240668e-14 5.297981020904729554e-13 1.775158118373296179e-13 3.464215676471371630e-14
5.230000000000000000e+02 1.713067626953125000e+01 2.983771705627441406e+01 1.055834564743507453e-13 5.027595635816173303e-13 1.825028978852741290e-13 1.962210504757172513e-13
5.240000000000000000e+02 2.220700263977050781e+01 1.291569828987121582e+00 -1.829942345929220365e-14 -9.934450994047300254e-14 -3.529317951170979351e-14 -4.863324369955290827e-13
5.250000000000000000e+02 3.035221672058105469e+01 3.908250045776367188e+01 1.019373591071813523e-13 1.351893315175434207e-13 7.113800786504378970e-14 -5.260519464153103064e-14
5.260000000000000000e+02 1.597527885437011719e+01 1.549014759063720703e+01 5.071966541962506791e-14 4.792464710669241956e-13 1.589898460281624626e-13 -1.463306472521130885e-13
5.270000000000000000e+02 1.658300209045410156e+01 1.473965167999267578e+01 1.002083141400829380e-13 6.834596907520640308e-13 2.351004048557758797e-13 -2.085558153041774943e-13
5.280000000000000000e+02 1.710190773010253906e+01 8.957398533821105957e-01 -7.611856837116265373e-14 -1.698750867621182103e-13 -7.379809789523697483e-14 1.433579715711969654e-14
5.290000000000000000e+02 1.853850936889648438e+01 3.263279342651367188e+01 -1.715316121564045004e-13 -1.650154486795493702e-13 -1.009641182507861612e-13 1.067235018349828313e-13
5.300000000000000000e+02 1.649639129638671875e+01 2.828786468505859375e+01 8.974564797911699365e-14 6.789757016172071058e-13 2.306164157209189547e-13 2.851296130625124992e-13
5.310000000000000000e+02 2.071494483947753906e+01 4.347341537475585938e+00 -1.829200853287193951e-14 -7.839432228373688361e-15 -7.839432228373688361e-15 2.708729711343137170e-14
5.320000000000000000e+02 1.987552833557128906e+01 9.149473905563354492e-01 -3.745409947355886338e-14 -1.533046015437730669e-13 -5.722761267689183140e-14 -8.276276934832474397e-14
5.330000000000000000e+02 1.740817642211914062e+01 1.087782955169677734e+01 -6.353096759607879118e-14 2.930290829861875723e-13 6.884943326177991874e-14 -2.058729841334164257e-13
5.340000000000000000e+02 1.765026283264160156e+01 1.129664230346679688e+01 -1.964156241080969312e-13 3.733313571480101345e-13 5.307472194485303441e-14 -1.845690348603254427e-13
5.350000000000000000e+02 1.713035583496093750e+01 1.281277942657470703e+01 1.770662067489270353e-14 3.735961464235854068e-13 1.173908247085325707e-13 8.323802259437018680e-14
5.360000000000000000e+02 1.700170135498046875e+01 1.201883602142333984e+01 -1.985411008233010921e-14 3.574986986130956890e-13 1.012933701217792748e-13 -1.450137210833035706e-13
5.370000000000000000e+02 2.034218788146972656e+01 5.054340362548828125e+00 1.542298427371132513e-14 -8.489204754739618219e-14 -2.084071881269886767e-14 -4.343869556590329584e-14
5.380000000000000000e+02 1.569972229003906250e+01 2.783371448516845703e+00 4.429695678190639918e-14 2.934901128549827209e-13 1.013361147924295158e-13 1.328782190616190073e-13
5.390000000000000000e+02 1.956826400756835938e+01 5.701956272125244141e+00 -1.331338095593870979e-14 4.518037419881659744e-13 1.315471169494042414e-13 4.754607352362022477e-14
5.400000000000000000e+02 1.823554992675781250e+01 9.809967041015625000e+00 4.932373479375924685e-14 3.871463425449833684e-13 1.309410208299305323e-13 -4.204042204690536938e-15
5.410000000000000000e+02 1.906933021545410156e+01 6.805690288543701172e+00 -5.561292732206811473e-14 -6.958506443581133349e-14 -3.755939583329793996e-14 -1.230474191505140369e-13
5.420000000000000000e+02 1.539645004272460938e+01 1.825732803344726562e+01 5.196582029162559457e-14 8.457881205299611072e-13 2.693262008812008501e-13 -3.397950256128594304e-14
5.430000000000000000e+02 1.563498973846435547e+01 2.305579376220703125e+01 5.764315348828763508e-14 9.397232341237793385e-13 2.992099027310929360e-13 -1.567492609235582313e-13
5.440000000000000000e+02 1.827922248840332031e+01 8.644329071044921875e+00 2.457894185490389072e-13 1.053383251394153508e-13 1.053383251394153508e-13 1.052751093764958679e-13
5.450000000000000000e+02 1.633524894714355469e+01 2.791641044616699219e+01 2.316873364167915117e-13 8.313097389286983052e-13 3.188991226036469451e-13 2.968849395924150203e-13
5.460000000000000000e+02 1.809116363525390625e+01 1.018051433563232422e+01 1.385751864819984025e-13 2.881441016778368835e-13 1.280157891584560170e-13 1.532717298891560220e-14
5.470000000000000000e+02 1.653795623779296875e+01 2.736590766906738281e+01 9.131028723928513724e-14 8.626500663973246663e-13 2.861880925384557850e-13 2.178251069101522219e-13
5.480000000000000000e+02 1.588279438018798828e+01 2.676151657104492188e+01 -2.188029928952301556e-14 5.396340926194787002e-13 1.553261507044809142e-13 1.423951424437894242e-13
5.490000000000000000e+02 1.755419349670410156e+01 1.050326728820800781e+01 1.585926045165591408e-14 1.440496756165837722e-13 4.797267997343895862e-14 -1.037640432561756643e-13
5.500000000000000000e+02 1.638070678710937500e+01 1.538799285888671875e+00 -1.051248609782460056e-14 -5.025630112802728644e-14 -1.823063591364568192e-14 5.155685923216406230e-14
5.510000000000000000e+02 1.561618518829345703e+01 2.105181884765625000e+01 -6.856084574851858959e-14 7.026319630287769513e-13 1.902213331511984351e-13 -2.303318736370137121e-14
5.520000000000000000e+02 1.527209091186523438e+01 1.945845794677734375e+01 6.137291060559144085e-14 8.498197805184570797e-13 2.733578066595881984e-13 -9.255779736400127078e-14
5.530000000000000000e+02 2.025693893432617188e+01 3.054604768753051758e+00 1.459830520356142358e-13 1.083151174004551298e-13 7.628945218607352530e-14 5.509663363566230654e-14
5.540000000000000000e+02 2.075482940673828125e+01 3.149424076080322266e+00 3.942136059861128805e-14 -1.661089207806096257e-13 -3.800627008747857472e-14 -6.294078891974988488e-14
5.550000000000000000e+02 1.866234970092773438e+01 3.225606536865234375e+01 -1.813818057338698053e-13 -5.303355339075939683e-16 -5.457364500084140035e-14 2.530797023770486875e-13
5.560000000000000000e+02 1.837682151794433594e+01 9.435981750488281250e+00 -2.332632784846078167e-13 -8.468083141166884986e-15 -7.251941018179830500e-14 8.915941986445408141e-14
5.570000000000000000e+02 1.918190574645996094e+01 8.495665788650512695e-01 -7.003790180194063852e-14 1.072366005131115962e-13 1.115960910513151896e-14 -1.034262465168106493e-13
5.580000000000000000e+02 1.813144302368164062e+01 9.018988609313964844e+00 -4.500042103273288463e-14 -3.395425488082054466e-13 -1.153628923075342150e-13 -1.575385872101819906e-13
5.590000000000000000e+02 1.640784454345703125e+01 1.395487403869628906e+01 -9.281902232493449700e-14 6.007337097387044356e-13 1.523744102898891284e-13 -3.298266878799110957e-13
5.600000000000000000e+02 1.663193130493164062e+01 1.317442035675048828e+01 -1.633107847088047238e-13 4.332700918961013281e-13 8.098779486669441252e-14 -2.492064172208985351e-13
5.610000000000000000e+02 1.617643737792968750e+01 2.754045295715332031e+01 1.347084607489917873e-13 6.067436050111174595e-13 2.224356088860110492e-13 2.550025349299517297e-13
5.620000000000000000e+02 1.635383415222167969e+01 1.550407791137695312e+01 2.200564762962903265e-13 5.060684401918258413e-13 2.178374803674457127e-13 -8.773611313373300136e-14
5.630000000000000000e+02 1.619098281860351562e+01 1.472146034240722656e+01 1.187767874506751031e-13 9.665528875315784751e-14 6.462962353877624300e-14 -2.824805818944786662e-13
5.640000000000000000e+02 1.526720333099365234e+01 2.312616539001464844e+01 1.728822976703597858e-13 6.231037821130547272e-13 2.387958266455297851e-13 1.623160156630221174e-13
5.650000000000000000e+02 1.726620101928710938e+01 1.125783157348632812e+01 8.373456686057781373e-14 2.646409838231306155e-13 1.045126645274861710e-13 2.997371773526269489e-14
5.660000000000000000e+02 1.930672645568847656e+01 7.221610546112060547e+00 -2.613393781437413355e-14 2.175544900478998400e-13 5.742616397599181743e-14 -3.100784670803831411e-14
5.670000000000000000e+02 1.874708747863769531e+01 7.533778667449951172e+00 1.610244869301030723e-13 3.435161768754191325e-13 1.513621991416566614e-13 -1.791407733958694237e-13
5.680000000000000000e+02 1.561443042755126953e+01 2.185154533386230469e+01 -5.816734490989364237e-14 8.443391927466514790e-13 2.358515401208738371e-13 1.153584199735727123e-13
5.690000000000000000e+02 1.522514343261718750e+01 2.110454368591308594e+01 -9.865669208224819853e-14 6.439828054496943288e-13 1.635978272339702611e-13 1.637366694865523969e-14
5.700000000000000000e+02 1.522489070892333984e+01 2.150567626953125000e+01 1.590584048749132257e-14 6.473300628168088267e-13 1.989707769205206755e-13 -5.680889040974614057e-14
5.710000000000000000e+02 1.629953193664550781e+01 1.433877086639404297e+01 3.943188007018982866e-13 3.062466187760126690e-13 2.101696231328678555e-13 -1.943797499261851192e-13
5.720000000000000000e+02 1.608266830444335938e+01 1.510530853271484375e+01 1.308090734255390464e-13 7.423252550847747600e-13 2.619402904215778483e-13 -2.692563240511841594e-14
5.730000000000000000e+02 2.838343620300292969e+01 3.692002487182617188e+01 -9.231023335044136191e-14 -1.768143736893129647e-13 -8.073738482243172920e-14 -4.358817316417115673e-14
5.740000000000000000e+02 1.602480316162109375e+01 2.715510368347167969e+01 1.761098184600504157e-13 9.904945787175822858e-13 3.499813286400588197e-13 2.588211762966086127e-13
5.750000000000000000e+02 1.858750915527343750e+01 7.900618076324462891e+00 1.686733342042457014e-15 2.294776239690488051e-13 6.934931144966793859e-14 -1.018677736564985170e-14
5.760000000000000000e+02 1.890790557861328125e+01 7.169565200805664062e+00 1.379866391911259080e-14 -3.983723683505420443e-14 -7.811571620672599914e-15 -2.807100255367012132e-13
5.770000000000000000e+02 1.675180053710937500e+01 1.278465270996093750e+01 5.875614800471620769e-14 2.081850046086602957e-13 8.008234375113387760e-14 -2.177516386604391729e-13
5.780000000000000000e+02 2.042552566528320312e+01 3.903460502624511719e+00 1.460101164323449052e-13 2.913305176526631568e-13 1.312021915807551342e-13 1.127946748589320203e-13
5.790000000000000000e+02 1.890063667297363281e+01 3.252847290039062500e+01 3.212614365071669864e-14 -2.607373410061508689e-13 -6.858336327238839791e-14 1.248079500263277880e-14
5.800000000000000000e+02 1.812980079650878906e+01 3.159156608581542969e+01 -1.516991420718108441e-13 3.924955792235923502e-13 7.223893385603988304e-14 9.650137270224637409e-14
5.810000000000000000e+02 1.522873306274414062e+01 2.070117759704589844e+01 -9.100284816074971639e-14 1.013270630595419775e-12 2.766803171121157146e-13 -4.345611056329884425e-14
5.820000000000000000e+02 1.713126182556152344e+01 1.163856029510498047e+01 -1.048122837978525401e-13 1.838351926198786290e-13 2.370687332423418447e-14 -1.018689052925160488e-13
5.830000000000000000e+02 1.531560993194580078e+01 2.392378997802734375e+01 1.182651524454791936e-13 8.742021321249404675e-13 2.977401853711258983e-13 1.905914120102492060e-13
5.840000000000000000e+02 1.833990097045898438e+01 3.095084571838378906e+01 1.252149696862742134e-13 1.451654551773429169e-13 8.111413152484328593e-14 1.592231798882084992e-13
5.850000000000000000e+02 1.923115348815917969e+01 2.953715085983276367e+00 -2.313097731746188018e-14 1.730905186975856269e-13 4.498786122819099786e-14 -1.408646962096360422e-13
5.860000000000000000e+02 1.798648071289062500e+01 9.394895553588867188e+00 6.558788885266397806e-14 4.856185982851646266e-13 1.653619461413485814e-13 -3.553543635563538583e-13
5.870000000000000000e+02 2.880106353759765625e+01 3.698006820678710938e+01 -2.659083585645257569e-14 3.435487707032294780e-14 2.329212491216053720e-15 -2.560762711633409600e-14
5.880000000000000000e+02 4.065149307250976562e+01 2.988807868957519531e+01 4.934654708509469967e-14 6.616618060742429641e-13 2.133025066254276569e-13 -4.076217445178609289e-13
5.890000000000000000e+02 3.792152404785156250e+01 3.455714416503906250e+01 9.390531158660203603e-14 4.024513402113398530e-14 4.024513402113398530e-14 -7.042063872135517766e-14
5.900000000000000000e+02 3.122079467773437500e+01 3.669688034057617188e+01 -1.536589459187956419e-13 2.564806108110422728e-14 -3.840326765359308725e-14 -1.109995545456841926e-13
5.910000000000000000e+02 2.967447471618652344e+01 3.696925735473632812e+01 -5.094255028123377549e-14 1.840467475687848631e-13 3.993125749219943177e-14 -6.242079200529868088e-14
5.920000000000000000e+02 4.152827835083007812e+01 2.801326179504394531e+01 1.335783697195558339e-13 9.265159169394299177e-13 3.180282914187065879e-13 2.399571325331379540e-14
5.930000000000000000e+02 3.952943038940429688e+01 3.322053527832031250e+01 1.255895886419222673e-13 5.570845434260673912e-13 2.048022396203968976e-13 -1.141242455355781504e-13
5.940000000000000000e+02 4.148617172241210938e+01 1.629369926452636719e+01 -5.683274963380439970e-14 3.416506986174405736e-13 8.544538367865131545e-14 6.967464664031294830e-14
5.950000000000000000e+02 3.881341171264648438e+01 3.307119369506835938e+01 1.044761133617462534e-13 1.362773690552140926e-13 7.222604540271446161e-14 -2.134951151413697068e-13
5.960000000000000000e+02 3.820095825195312500e+01 3.424753189086914062e+01 1.127262345967938728e-13 -1.346925500821105626e-13 -6.589895577331248908e-15 -1.425169661103953267e-13
5.970000000000000000e+02 4.051477813720703125e+01 3.027020072937011719e+01 1.435283370019441174e-13 3.360178346505093838e-13 1.438638569167469128e-13 -1.866403217956960625e-13
5.980000000000000000e+02 4.093033599853515625e+01 3.045699691772460938e+01 6.280655113826902336e-14 6.674303579430607147e-13 2.190710720467725636e-13 -2.680144246727106383e-13
5.990000000000000000e+02 4.105908584594726562e+01 3.005962944030761719e+01 8.763035598807061843e-14 5.865672531024657133e-13 2.022592840824136151e-13 -1.817909700812386786e-13
6.000000000000000000e+02 3.692855834960937500e+01 3.466228485107421875e+01 5.425372404479524013e-14 1.833799225751248096e-13 7.129009432478919384e-14 -1.113853882175538934e-13
6.010000000000000000e+02 3.528932571411132812e+01 5.765605568885803223e-01 1.151049199531184453e-12 7.678125171252381254e-13 5.756584987338941861e-13 7.431484897943430035e-13
6.020000000000000000e+02 3.624505615234375000e+01 3.501256942749023438e+01 -4.145621918801934216e-15 8.972520399190206386e-14 2.567387356313885483e-14 -2.808830370983755875e-13
6.030000000000000000e+02 3.553081512451171875e+01 3.550028991699218750e+01 1.839191234205561631e-13 2.275130767375593832e-13 1.234296546264238015e-13 -1.050734545486771421e-14
6.040000000000000000e+02 4.156181716918945312e+01 2.759790802001953125e+01 -1.857668343154331159e-13 1.064159394284502902e-12 2.635177503724356329e-13 2.161262501972939509e-14
6.050000000000000000e+02 3.650746917724609375e+01 1.722397208213806152e+00 8.487555276659453085e-13 1.187269466768059445e-12 6.108075200142448757e-13 8.290045624796682500e-13
6.060000000000000000e+02 3.115426254272460938e+01 -1.366792798042297363e+00 1.363113940298921190e-12 2.868105059006254010e-13 4.949773230178422523e-13 4.562495672065514096e-13
6.070000000000000000e+02 3.296480178833007812e+01 -1.042555570602416992e+00 1.018280403573823545e-12 5.279077956027444785e-13 4.638564380689269573e-13 6.592656650629413750e-13
6.080000000000000000e+02 3.467472076416015625e+01 3.579065704345703125e+01 7.636565804627210019e-14 -5.877375951375551910e-14 5.277569220941795425e-15 -6.314010593663418880e-14
6.090000000000000000e+02 4.143577194213867188e+01 1.548345470428466797e+01 9.779830889350069056e-14 3.164192540795751629e-13 1.242652627932855358e-13 1.510016748142509191e-13
6.100000000000000000e+02 4.124723052978515625e+01 1.385608673095703125e+01 2.143570829735499950e-13 2.748711089468891533e-13 1.467684616418898913e-13 4.656538894168456288e-14
6.110000000000000000e+02 3.399699020385742188e+01 -4.555728912353515625e+00 -3.474161876151210526e-13 2.628659009212830355e-13 -2.536508600815140513e-14 2.181768627524879878e-13
6.120000000000000000e+02 3.485093688964843750e+01 -3.573993921279907227e+00 -1.899050578249572574e-13 -1.728897786653499358e-13 -1.088384482365867267e-13 7.793189311651287088e-15
6.130000000000000000e+02 4.119834136962890625e+01 1.787686920166015625e+01 -3.464454539762497343e-14 2.139070848618598863e-13 5.377876217808365278e-14 8.382200776578876966e-14
6.140000000000000000e+02 3.330169296264648438e+01 -8.067325949668884277e-01 1.026237471737911910e-12 1.653103652229925835e-13 3.574643565092822106e-13 5.770416154453339441e-13
6.150000000000000000e+02 3.877232742309570312e+01 4.783950328826904297e+00 6.477333318148648100e-13 1.375622814443755448e-12 6.070068492985969399e-13 7.221311764706028757e-13
6.160000000000000000e+02 3.377703094482421875e+01 3.637112808227539062e+01 -6.229370995815622369e-14 -2.669730281572475772e-14 -2.669730281572475772e-14 -8.651786969141039840e-14
6.170000000000000000e+02 3.021440315246582031e+01 -2.194926500320434570e+00 7.310968779157545061e-13 3.882154268734262781e-14 2.309755305855004659e-13 4.155111042562775747e-13
6.180000000000000000e+02 3.234281539916992188e+01 3.641386413574218750e+01 2.727837249973889128e-14 -3.543168633924481670e-13 -9.811154845365890886e-14 -9.587646567508004147e-14
6.190000000000000000e+02 3.171225738525390625e+01 3.816837692260742188e+01 1.332714049794708755e-13 7.999179254094060387e-14 6.397895993374980161e-14 -1.259792644552407137e-13
6.200000000000000000e+02 3.892324066162109375e+01 6.049428939819335938e+00 3.644495458459545700e-13 1.528721160076740304e-12 5.679511765402378565e-13 7.230282995582260064e-13
6.210000000000000000e+02 4.552968597412109375e+01 9.828889369964599609e-01 -1.021437491879884085e-12 -5.063853524868433542e-13 -4.583468478890073694e-13 -4.022319857830553014e-13
6.220000000000000000e+02 3.784368896484375000e+01 3.354270935058593750e+00 8.756776770715846148e-13 1.290309439155867821e-12 6.497961348682357308e-13 9.817259852273885201e-13
6.230000000000000000e+02 3.849803924560546875e+01 3.398093032836914062e+01 1.606096847314372744e-13 -1.141710695169023682e-13 1.393158456436047188e-14 -2.160949641883541661e-13
6.240000000000000000e+02 3.898387908935546875e+01 5.153108119964599609e+00 4.361175320617000084e-13 8.960472338073732779e-13 3.996494433132491420e-13 6.868462504479311281e-13
6.250000000000000000e+02 4.107835006713867188e+01 1.546490955352783203e+01 -8.878419104508400439e-14 3.279572251789486526e-13 7.175191024015939445e-14 -3.053888522272507622e-14
6.260000000000000000e+02 2.885210418701171875e+01 -2.828066587448120117e+00 1.050849606442326445e-13 -4.124730884538102549e-13 -9.221643630999420971e-14 -1.087116711213052811e-13
6.270000000000000000e+02 3.079141807556152344e+01 3.676430130004882812e+01 -1.791070818133594367e-13 6.049266719054119390e-14 -3.558432167634004162e-14 4.865085520859221968e-14
6.280000000000000000e+02 3.699111938476562500e+01 2.931712388992309570e+00 7.591623727223884011e-13 1.446253598651192629e-12 6.616247805700525841e-13 1.177602720198178687e-12
6.290000000000000000e+02 4.158037948608398438e+01 2.718522262573242188e+01 4.541204855191237344e-14 8.887303328160289784e-13 2.802427072953056486e-13 4.891816186608673178e-14
6.300000000000000000e+02 3.352301025390625000e+01 3.597988510131835938e+01 5.789161196863984449e-14 5.738220770941382387e-13 1.895141080740861406e-13 1.607026652321232735e-14
6.310000000000000000e+02 3.592559432983398438e+01 3.528422927856445312e+01 6.947216510833770231e-14 7.552473051250160885e-14 4.349906868625179335e-14 -7.815734957014944251e-14
6.320000000000000000e+02 3.759150314331054688e+01 3.014855861663818359e+00 5.719330716490167443e-13 1.251635080301571890e-12 5.470704184801222780e-13 8.047136091163253901e-13
6.330000000000000000e+02 3.337862777709960938e+01 -2.678806781768798828e-01 1.244157012657287620e-12 5.560856137544478717e-13 5.400728150285749596e-13 7.347949288957766889e-13
6.340000000000000000e+02 3.555350112915039062e+01 -3.665717601776123047e+00 -1.696235247530472612e-13 2.018098958344455296e-13 9.655910477386533269e-15 -6.581641834183318829e-14
6.350000000000000000e+02 3.261056137084960938e+01 -4.233666896820068359e+00 -3.180840465154266550e-13 1.381839656805841643e-13 -5.397002221757367380e-14 1.891607530335459586e-13
6.360000000000000000e+02 4.072811889648437500e+01 1.066517829895019531e+01 1.566643949985069284e-13 4.789004479435754469e-13 1.906694474616138502e-13 1.789163028885834561e-13
6.370000000000000000e+02 3.160222434997558594e+01 3.655483245849609375e+01 1.077423672740489280e-13 4.617529977628785642e-14 4.617529977628785642e-14 -1.158319588249329124e-13
6.380000000000000000e+02 3.983837127685546875e+01 7.057882785797119141e+00 2.322824549892688051e-13 9.688176910022106014e-13 3.603300383764329595e-13 4.244146538118914735e-13
6.390000000000000000e+02 4.146165466308593750e+01 1.589081668853759766e+01 -2.434657462885726070e-14 1.725695460011791860e-13 4.446689191991634593e-14 -1.252239956693601552e-13
6.400000000000000000e+02 4.140329360961914062e+01 1.507244396209716797e+01 -8.900260357273120926e-14 1.448598185849192532e-13 1.675716619772230770e-14 3.904535589706152610e-14
6.410000000000000000e+02 4.029853439331054688e+01 8.642866134643554688e+00 3.108023007795251980e-13 1.185472835348033716e-12 4.488825218647296555e-13 7.066320185239449714e-13
6.420000000000000000e+02 3.673098754882812500e+01 2.617625951766967773e+00 8.301651466952053582e-13 9.619851573314242010e-13 5.376450695239454181e-13 1.138471586968614613e-12
6.430000000000000000e+02 3.733073425292968750e+01 2.681937456130981445e+00 7.186160846071876218e-13 9.484916107735386070e-13 5.001323248772504559e-13 8.662110742227446814e-13
6.440000000000000000e+02 3.371862411499023438e+01 -5.365537106990814209e-02 1.256289777068486657e-12 7.900401253341238217e-13 6.138989598787614188e-13 8.761625322831201323e-13
6.450000000000000000e+02 2.994442749023437500e+01 -1.537210941314697266e+00 1.100012008564688060e-12 1.511770851732319176e-13 3.753567281213759932e-13 2.418672900850182828e-13
6.460000000000000000e+02 3.036645126342773438e+01 -3.475242137908935547e+00 -1.473174880695093947e-13 -1.088870137176504993e-13 -7.686135527953247282e-14 2.676191516656767355e-13
6.470000000000000000e+02 3.656242370605468750e+01 3.481991577148437500e+01 1.691057640055768085e-13 1.639757936638258640e-13 9.992447001132623297e-14 6.064022160050231390e-16
6.480000000000000000e+02 3.430340194702148438e+01 -1.346327960491180420e-01 5.153859110318403935e-13 8.728306705868549287e-13 4.164649853276303215e-13 7.617159940992435097e-13
6.490000000000000000e+02 3.851467132568359375e+01 3.334286117553710938e+01 6.236199436623207637e-14 3.816430610664549306e-14 3.015788980305009193e-14 -1.866904661461735171e-13
6.500000000000000000e+02 3.988137435913085938e+01 8.717352867126464844e+00 8.375501084779274352e-14 1.271170668726284703e-12 4.064776943854542246e-13 4.281572926062571227e-13
6.510000000000000000e+02 4.019456481933593750e+01 8.240261077880859375e+00 2.185689915732216826e-13 1.191695180036145274e-12 4.230792691010953899e-13 4.461296241285717112e-13
6.520000000000000000e+02 2.896364402770996094e+01 -2.030481576919555664e+00 1.034721895838697225e-12 3.169370622608906618e-14 3.199246965436552959e-13 -1.205946556807543923e-13
6.530000000000000000e+02 3.855703353881835938e+01 5.324501991271972656e+00 5.408209687376985819e-13 1.146799343855475772e-12 5.062860937779523063e-13 6.473869292207556914e-13
6.540000000000000000e+02 3.996752166748046875e+01 7.447460174560546875e+00 2.164248326993328808e-13 7.790177465778758137e-13 2.986327548096245899e-13 7.516935207965702581e-13
6.550000000000000000e+02 3.952885818481445312e+01 7.554315090179443359e+00 3.644207602782750799e-13 9.796974429626681413e-13 4.032354419987449479e-13 3.687985247052827376e-13
6.560000000000000000e+02 3.396971893310546875e+01 -3.555722832679748535e-01 1.035527024371984961e-12 8.098049140981000704e-13 5.535995923830472343e-13 7.426188028229752103e-13
6.570000000000000000e+02 4.118268203735351562e+01 2.966237258911132812e+01 1.523800074836045848e-14 7.385457263114902915e-13 2.261351235389660874e-13 -3.238211294161880138e-13
6.580000000000000000e+02 4.155757522583007812e+01 1.832312774658203125e+01 -2.264296944929668209e-14 2.190506212832940558e-13 5.892229521138603321e-14 2.412204008588048065e-13
6.590000000000000000e+02 4.060527801513671875e+01 1.227823066711425781e+01 -2.654224962308159540e-15 5.021229200659338421e-13 1.498406027077361924e-13 8.031758174124534189e-14
6.600000000000000000e+02 3.330251693725585938e+01 -4.395175933837890625e+00 -3.792245922666637181e-13 -1.167738730148068504e-13 -1.487995382291884550e-13 6.759157578258012666e-14
6.610000000000000000e+02 3.621798324584960938e+01 1.418694496154785156e+00 8.277545857950097119e-13 9.037633380386267401e-13 5.194553554660474859e-13 7.970248267798185626e-13
6.620000000000000000e+02 3.706186294555664062e+01 2.354896783828735352e+00 7.008663940009929316e-13 1.581397881568469277e-12 6.846793097758929747e-13 9.456579399755304927e-13
6.630000000000000000e+02 4.074110031127929688e+01 1.307034301757812500e+01 -1.799983773143054577e-13 4.718692342246810778e-13 8.756125165210182359e-14 1.862161005906567968e-13
6.640000000000000000e+02 3.363580322265625000e+01 -5.780726671218872070e-01 7.355818428325666680e-13 3.152493728304089915e-13 3.152493728304089915e-13 7.340212964355996572e-13
6.650000000000000000e+02 3.418847274780273438e+01 -1.172704100608825684e+00 7.675064468519454675e-13 6.434691104603706968e-13 4.232926671936948493e-13 4.110692092707673995e-13
6.660000000000000000e+02 4.120567703247070312e+01 2.590625381469726562e+01 1.225240747618552839e-13 4.642688685753404432e-13 1.760378816459060025e-13 -2.857704510853507907e-14
6.670000000000000000e+02 4.158842468261718750e+01 2.677517700195312500e+01 8.039046723229067992e-14 8.122191612856821674e-13 2.677828932987763588e-13 -1.354972042769478358e-13
6.680000000000000000e+02 4.153220748901367188e+01 1.710016441345214844e+01 1.625770779936294708e-13 4.356834717219454367e-13 1.794781635594197566e-13 4.522554883758592159e-14
6.690000000000000000e+02 4.154689025878906250e+01 1.750854682922363281e+01 6.636474681430415412e-14 3.944496367990629748e-13 1.382443150840101387e-13 7.849067397555295478e-14
6.700000000000000000e+02 3.977030181884765625e+01 8.326896667480468750e+00 1.835958007801938296e-13 1.313959574825163124e-12 4.492666004843326455e-13 3.478170171582889436e-13
6.710000000000000000e+02 2.976086425781250000e+01 -2.754596948623657227e+00 3.254089434977930351e-13 -4.553013781966042117e-13 -3.896772363337977496e-14 1.800205085911513181e-13
6.720000000000000000e+02 3.678745651245117188e+01 2.034543275833129883e+00 5.466385807548213016e-13 1.332296469327975963e-12 5.636805041828174545e-13 9.462868856557893338e-13
6.730000000000000000e+02 4.139797592163085938e+01 2.884735488891601562e+01 2.256929316829178744e-13 1.057495454051537997e-12 3.849565252071057708e-13 -6.995955464245140476e-14
6.740000000000000000e+02 4.129840087890625000e+01 2.925887489318847656e+01 1.855442611619489979e-13 1.086039895167867364e-12 3.814752333464177525e-13 -1.240443159430601461e-13
6.750000000000000000e+02 4.155904006958007812e+01 1.872652053833007812e+01 -3.851801690102352183e-14 7.499417617939582725e-14 1.094284744469851273e-14 9.709535286244255770e-14
6.760000000000000000e+02 4.119599533081054688e+01 1.908255386352539062e+01 1.039100243024372594e-13 3.647894974371373999e-13 1.406098544889933244e-13 -5.062305961792482045e-14
6.770000000000000000e+02 4.120514678955078125e+01 2.550383949279785156e+01 -1.217180653143024038e-13 9.543559519042954520e-13 2.497913713980087769e-13 -4.712934347796647605e-14
6.780000000000000000e+02 4.067324066162109375e+01 1.267431545257568359e+01 -5.630882756867561928e-15 2.720924614091346783e-13 7.993847012284505116e-14 1.298491614796018490e-13
6.790000000000000000e+02 4.118470001220703125e+01 1.345708751678466797e+01 -1.256960166376788757e-13 -1.911225626545498546e-13 -9.504557378766861908e-14 2.862781897389893304e-13
6.800000000000000000e+02 3.646794509887695312e+01 2.306662797927856445e+00 8.567625233400766316e-13 1.522395382501373629e-12 7.137473663314242156e-13 9.338597603547604820e-13
6.810000000000000000e+02 4.156026458740234375e+01 1.912841224670410156e+01 -2.359940728960071600e-15 7.310037991592466255e-13 2.185931557291409533e-13 2.774688573521644219e-13
6.820000000000000000e+02 4.158623123168945312e+01 2.555564117431640625e+01 2.492733124949408907e-13 5.185899452919695563e-13 2.303589990201165838e-13 2.231903186301464198e-14
6.830000000000000000e+02 4.046806716918945312e+01 1.148626327514648438e+01 9.958821826005700983e-14 4.086882470898806075e-13 1.524829389273549274e-13 1.069186853310845342e-13
6.840000000000000000e+02 4.112098693847656250e+01 1.305877399444580078e+01 7.867212198538198198e-14 3.082223061848243795e-13 1.160683284510619084e-13 1.468142420786230917e-13
6.850000000000000000e+02 4.057425689697265625e+01 9.857089996337890625e+00 2.593957492379173058e-13 1.026188574219932814e-12 3.856752970373550360e-13 4.274064826018109109e-13
6.860000000000000000e+02 4.120236587524414062e+01 2.470010185241699219e+01 -2.706060473357113638e-13 4.330373678997773146e-13 4.872939210346163841e-14 1.061854461780961656e-13
6.870000000000000000e+02 4.159022903442382812e+01 2.636729621887207031e+01 1.563319244023142485e-13 1.119271233855634318e-12 3.826809474773845698e-13 3.983086460619201033e-15
6.880000000000000000e+02 4.389226913452148438e+01 1.246019959449768066e+00 -4.774144404459668145e-13 -5.477382870183733488e-13 -3.075458182393020490e-13 -2.490776140028072572e-13
6.890000000000000000e+02 3.855244064331054688e+01 4.418120861053466797e+00 6.289168946911616320e-13 1.276056734236807877e-12 5.714920724153582654e-13 6.959809248016646244e-13
6.900000000000000000e+02 4.119975280761718750e+01 2.389710426330566406e+01 -1.570274129909093874e-13 2.529591662005226116e-13 2.877952664051032505e-14 -5.818426524004799427e-14
6.910000000000000000e+02 4.197321701049804688e+01 2.601334571838378906e+01 1.678794229282784545e-13 7.124616109750736559e-13 2.641022979737311926e-13 -3.579067923108192328e-14
6.920000000000000000e+02 4.119896697998046875e+01 2.349575614929199219e+01 9.205873910400619309e-14 2.682084968615855436e-13 1.080801707896775210e-13 8.892753273668195513e-16
6.930000000000000000e+02 4.157746887207031250e+01 2.474888801574707031e+01 2.773665628771904146e-13 8.508865812460741918e-13 3.384759378159685195e-13 8.798301307346226285e-14
6.940000000000000000e+02 4.119793701171875000e+01 2.269327926635742188e+01 5.950846911594032118e-14 3.457602585320296296e-13 1.215806291364127101e-13 6.546790832975130092e-14
6.950000000000000000e+02 4.156804656982421875e+01 2.354328918457031250e+01 -5.030587966049597515e-14 8.934592974317590031e-13 2.529460202491812248e-13 1.683954489522729303e-13
6.960000000000000000e+02 4.156113052368164062e+01 1.953018379211425781e+01 6.785069332554058419e-14 3.950864700501266480e-13 1.388811483350738119e-13 1.663761766161273026e-13
6.970000000000000000e+02 4.143961715698242188e+01 1.264920425415039062e+01 1.730564069867338017e-13 3.486727237229231280e-13 1.565187459891606570e-13 7.906416271468916235e-14
6.980000000000000000e+02 4.156147003173828125e+01 2.033363533020019531e+01 -1.093495750220142837e-13 4.106453946415428158e-13 9.038874249772677061e-14 2.110666649053280497e-13
6.990000000000000000e+02 4.086474990844726562e+01 1.146484947204589844e+01 6.202274073019778400e-14 3.010868735320998413e-13 1.089328822458102142e-13 1.464498959385593380e-13
7.000000000000000000e+02 4.156150817871093750e+01 2.073496437072753906e+01 1.611753130048229621e-13 7.553393674419872639e-13 2.749544027787903522e-13 8.584231009399825862e-14
7.010000000000000000e+02 4.119701004028320312e+01 2.108870506286621094e+01 1.687149633325044085e-13 9.415744009130810888e-13 3.330868296024663833e-13 -4.273173137493875562e-14
7.020000000000000000e+02 4.079789733886718750e+01 1.106583976745605469e+01 2.279599848730579081e-13 6.924594903555403302e-13 2.761258290160523154e-13 2.756264726004598042e-13
7.030000000000000000e+02 4.099383926391601562e+01 1.226192283630371094e+01 8.190770652873047286e-14 2.638580543293245206e-13 1.037297282574164980e-13 2.193248566702971081e-13
7.040000000000000000e+02 4.156175613403320312e+01 2.113590431213378906e+01 1.473293600832981110e-13 7.494053663216482253e-13 2.690204287635056257e-13 9.891880303964425275e-15
7.050000000000000000e+02 4.231289291381835938e+01 2.362817955017089844e+01 -9.514973173512658589e-14 7.827386200136288164e-13 2.062766732598142472e-13 2.117358209336589470e-13
7.060000000000000000e+02 4.156328582763671875e+01 2.233926391601562500e+01 -1.096710985643966491e-14 7.273149638976905695e-13 2.149043611251663655e-13 -7.497718808660569501e-14
7.070000000000000000e+02 4.119755172729492188e+01 2.229205894470214844e+01 -1.060240559084581202e-13 4.120706055023293235e-13 9.181396691104043439e-14 5.318400952383957325e-14
7.080000000000000000e+02 4.156221771240234375e+01 2.153679466247558594e+01 2.765634570585807223e-14 5.151131799753516649e-13 1.628308490646268591e-13 1.206866366825626313e-13
7.090000000000000000e+02 7.819355773925781250e+01 -5.063177585601806641e+00 -1.879751373003515913e-13 -2.178136143671238756e-13 -1.217366322765062181e-13 -8.824352652671979547e-14
7.100000000000000000e+02 7.695146179199218750e+01 -1.153652572631835938e+01 -2.972401919867570519e-14 -1.273886476583748276e-14 -1.273886476583748276e-14 -8.344521362953216670e-15
7.110000000000000000e+02 7.825086975097656250e+01 -1.151083087921142578e+01 1.262266200986955980e-14 5.116066126515175783e-14 1.913499774483604782e-14 1.889274293378952890e-14
7.120000000000000000e+02 7.933436584472656250e+01 -9.698225975036621094e+00 5.692700491907601648e-15 -2.034395465673813352e-13 -5.932405310266411491e-14 -4.068767824288825607e-14
7.130000000000000000e+02 7.810333251953125000e+01 -6.405722618103027344e+00 1.370975679986993767e-13 -1.928741183692544992e-13 -1.673296646641925234e-14 2.300347344791169035e-14
7.140000000000000000e+02 7.927132415771484375e+01 -8.197911262512207031e+00 3.570209652545806855e-14 -3.049557405643971153e-13 -8.077609761625303975e-14 -4.160516061443159108e-14
7.150000000000000000e+02 7.638227844238281250e+01 -1.071006298065185547e+01 5.591755086308686229e-14 -4.466175693162988125e-14 3.376737925327210135e-15 3.455259150087104658e-14
7.160000000000000000e+02 1.849009132385253906e+01 8.333294391632080078e-01 -4.085644786356278091e-14 -2.005137050321847969e-13 -7.241104417465837884e-14 -5.410788530006878372e-14
7.170000000000000000e+02 2.009980201721191406e+01 4.625998020172119141e+00 5.613004771263044312e-14 -1.589480635869403025e-13 -3.084540272941388439e-14 -1.672298367491609206e-13
7.180000000000000000e+02 1.939716339111328125e+01 6.069336414337158203e+00 6.046415267340482513e-14 2.591320949864913542e-14 2.591320949864913542e-14 -1.681288707431130569e-13
7.190000000000000000e+02 1.983005142211914062e+01 4.200927257537841797e+00 1.466862520121611779e-13 -3.031420600652090513e-13 -4.693673835015621520e-14 -2.039600584778644699e-13
7.200000000000000000e+02 3.470197677612304688e+01 -4.704990386962890625e+00 -4.074093764173253307e-13 2.371545342917669164e-13 -5.107645602579931332e-14 1.081566544766827953e-13
7.210000000000000000e+02 3.036226654052734375e+01 -1.857998251914978027e+00 1.044888784870745546e-12 8.180190194922304370e-14 3.380072101117487238e-13 3.392012961744156341e-13
7.220000000000000000e+02 3.541807556152343750e+01 -4.836373329162597656e+00 -4.825475414214908110e-13 2.507034022655035832e-13 -6.955322954952172787e-14 1.577913621704334080e-14
7.230000000000000000e+02 3.549317932128906250e+01 -4.241158962249755859e+00 -2.287032596724053457e-13 8.498811463614197592e-14 -4.311453944512086411e-14 -1.067812965870398867e-13
7.240000000000000000e+02 5.387180328369140625e+00 1.878410458564758301e+00 -6.629737042554775805e-14 2.003415879373027231e-13 4.021326186539470049e-14 6.580153089075224671e-14
7.250000000000000000e+02 6.111363887786865234e+00 1.869726896286010742e+00 -1.121496423289389255e-13 -4.806413242668811092e-14 -4.806413242668811092e-14 9.205337230325238984e-14
7.260000000000000000e+02 7.524170398712158203e+00 2.552015781402587891e+00 -7.855745405311448382e-14 -1.251693789849211980e-13 -6.111804855615798893e-14 -8.158696564479137048e-14
7.270000000000000000e+02 7.565541267395019531e+00 1.849840641021728516e+00 -4.368733022910853414e-14 -2.932288472364680265e-13 -1.010748491739148214e-13 -5.066451341036344591e-14
7.280000000000000000e+02 6.786389350891113281e+00 2.584385871887207031e+00 -1.373289638473620955e-13 -1.046062243987080920e-13 -7.258055918432648745e-14 1.332478913448550961e-13
7.290000000000000000e+02 8.249420166015625000e+00 3.204998493194580078e+00 -4.469545867853523535e-14 -1.106570957369774899e-13 -4.660576530821428087e-14 1.916799645439518085e-13
7.300000000000000000e+02 3.770315885543823242e+00 3.506829500198364258e+00 3.877523285501739345e-15 -4.408915249489060717e-14 -1.206348897457489716e-14 5.321969332784150242e-14
7.310000000000000000e+02 5.972995758056640625e+00 4.169281959533691406e+00 -9.693419298576616550e-14 4.995867069102107039e-14 -1.409265719664329689e-14 1.370305236468583043e-13
7.320000000000000000e+02 2.501709699630737305e+00 1.885712862014770508e+00 3.896411866115626066e-14 1.082008018338936894e-13 4.414947818139405844e-14 -6.435963686903661829e-14
7.330000000000000000e+02 1.127453804016113281e+01 1.620745778083801270e+00 -5.514957997112927834e-14 2.508701525596318538e-13 5.871617482586938275e-14 -4.467733217346399333e-14
7.340000000000000000e+02 9.769974708557128906e+00 3.061235666275024414e+00 -7.825488710809166970e-14 -1.250397084050919316e-13 -6.098837797632872260e-14 1.339126834594417392e-13
7.350000000000000000e+02 1.425974464416503906e+01 1.184090614318847656e+00 -6.122742422657104222e-14 1.951062466969133435e-14 -1.251504054469027016e-14 8.966828337784657488e-14
7.360000000000000000e+02 1.426717185974121094e+01 1.801247358322143555e+00 -1.151384760103568716e-14 -5.068545545295136123e-14 -1.865979023856975672e-14 1.221338161898691266e-13
7.370000000000000000e+02 1.568802070617675781e+01 1.613460421562194824e+00 -1.402406933901409036e-15 4.514991895979147962e-14 1.312425289837692785e-14 -6.629120402569174675e-15
7.380000000000000000e+02 1.498279285430908203e+01 1.702382206916809082e+00 -1.264924580010595712e-13 8.304178877741388853e-14 -1.303520093650029424e-14 -6.748096344406408209e-15
7.390000000000000000e+02 1.203643512725830078e+01 1.502843499183654785e+00 -1.544148381209253795e-13 -6.617778970218618495e-14 -6.617778970218618495e-14 -8.233429942602205065e-14
7.400000000000000000e+02 3.826551437377929688e+01 -5.282219886779785156e+00 -4.177801767729638627e-13 3.955143690722228919e-15 -1.241475184373536100e-13 -2.413302034338232760e-13
7.410000000000000000e+02 3.560739135742187500e+01 8.428286910057067871e-01 7.884100815779004900e-13 7.038976064348279049e-13 4.476923118248293809e-13 6.963852237917844690e-13
7.420000000000000000e+02 3.496477890014648438e+01 3.266339898109436035e-01 8.818795845487448215e-13 4.694503249677572931e-13 4.053989674339397720e-13 9.341931525227997746e-13
7.430000000000000000e+02 3.554944992065429688e+01 2.840703427791595459e-01 6.794399027773567745e-13 6.571961399561010442e-13 4.009908182410482080e-13 6.912141757402234798e-13
7.440000000000000000e+02 2.864856910705566406e+01 -2.195210933685302734e+00 9.177578402103092614e-13 -3.559034238652912518e-14 2.646502537517053666e-13 -1.502396026597380141e-13
7.450000000000000000e+02 2.955281066894531250e+01 -3.165438652038574219e+00 2.193384769600889572e-13 2.500306582056081167e-15 6.655163616378634295e-14 1.644993413403919580e-13
7.460000000000000000e+02 7.316719055175781250e+01 -1.168659687042236328e+01 9.932734397076394689e-15 -4.149406377306971705e-14 -9.468398558688112532e-15 -5.726343200616532125e-14
7.470000000000000000e+02 6.823426055908203125e+01 -9.781307220458984375e+00 -2.302893017610847110e-14 8.163235305823704491e-14 1.758102771167151940e-14 3.788618453248043805e-14
7.480000000000000000e+02 6.832434082031250000e+01 -1.138489055633544922e+01 -2.059666490367238062e-14 1.513011856644000397e-13 3.921135402593263486e-14 -4.113192330680061348e-14
7.490000000000000000e+02 7.151486206054687500e+01 -1.111262989044189453e+01 4.205626664521670832e-14 -1.192287371262756857e-13 -2.315173978906497759e-14 1.389819926896421198e-13
7.500000000000000000e+02 7.076831817626953125e+01 -1.124481582641601562e+01 -8.929205336553284328e-15 -4.957774981024544447e-14 -1.755208628992973446e-14 -1.561656010127913941e-14
7.510000000000000000e+02 6.777480316162109375e+01 -8.634389877319335938e+00 2.488206546997964036e-14 1.066374246528169548e-14 1.066374246528169548e-14 -2.790273403768719213e-14
7.520000000000000000e+02 7.306925201416015625e+01 -1.091372776031494141e+01 7.091325529578638640e-15 -2.257156050608499775e-13 -6.558728576520553299e-14 3.338197841523844744e-14
7.530000000000000000e+02 7.557677459716796875e+01 -1.065290451049804688e+01 -3.809814266906956515e-14 -1.535806258643607203e-13 -5.750363022121590673e-14 -2.985817905312541931e-14
7.540000000000000000e+02 7.471732330322265625e+01 -1.071951293945312500e+01 -6.335806445462166536e-14 -7.290440359698432959e-14 -4.087874177073451409e-14 -6.990214613741829730e-14
7.550000000000000000e+02 9.005772590637207031e+00 2.477572202682495117e+00 -2.084103424776842517e-13 -2.723225291101361023e-13 -1.442198547000825282e-13 -2.100192104102262258e-14
7.560000000000000000e+02 1.354193878173828125e+01 1.904193878173828125e+00 -3.311109389057473318e-14 1.230623811404943369e-13 2.698538549734952330e-14 -3.416709325404845843e-14
7.570000000000000000e+02 1.052440452575683594e+01 2.340123176574707031e+00 -1.023375855628907982e-13 -8.960991264338538653e-14 -5.758424742900378202e-14 4.124935256647616066e-15
7.580000000000000000e+02 1.280347537994384766e+01 2.011291503906250000e+00 1.295461761003030912e-14 5.551979096731982088e-15 5.551979096731982088e-15 -5.432713808439966485e-14
7.590000000000000000e+02 1.205147933959960938e+01 2.123574495315551758e+00 -1.217331628295542645e-13 3.933054172600668197e-14 -2.472078700869063256e-14 -7.246101234228280452e-14
7.600000000000000000e+02 2.115207862854003906e+01 2.349442958831787109e+00 2.426312324882787252e-14 3.327395460940921201e-14 1.726112369628430426e-14 -1.129513217440654416e-13
7.610000000000000000e+02 2.927914047241210938e+01 -1.959744334220886230e+00 1.170262020969148331e-12 2.270351739724549289e-13 4.191891517062174000e-13 9.840950753944865959e-14
7.620000000000000000e+02 3.055436897277832031e+01 -2.975181341171264648e+00 3.244248131858279427e-13 2.305411178800398364e-13 1.664897738987494713e-13 2.851944483524271323e-13
7.630000000000000000e+02 3.071752738952636719e+01 -2.431348323822021484e+00 5.056794284523380423e-13 -2.407897286508392520e-13 7.946690316418605904e-14 1.745204593903496026e-13
7.640000000000000000e+02 4.149235534667968750e+01 -5.410647392272949219e+00 -3.025015879606039737e-14 -1.730926735494034419e-13 -6.100285207533140408e-14 -1.469429639815514332e-13
7.650000000000000000e+02 4.243284988403320312e+01 -2.754986763000488281e+00 -2.049168533425557714e-13 -6.597083448099672065e-13 -2.593875635115150402e-13 -3.672010070142339710e-13
7.660000000000000000e+02 4.141265869140625000e+01 -4.323121070861816406e+00 -1.353442097978829750e-13 -2.638839396561926121e-13 -1.197684394152118137e-13 -3.169742571716704926e-13
7.670000000000000000e+02 4.981890106201171875e+01 5.010626912117004395e-01 -2.134494295723265989e-13 -4.572737858938441535e-14 -7.775304380376601987e-14 2.616339931434553262e-14
7.680000000000000000e+02 3.954045104980468750e+01 6.276658058166503906e+00 5.592238369427071643e-13 1.108935426125112755e-12 5.004477734993351135e-13 4.546902134319741329e-13
7.690000000000000000e+02 6.160181808471679688e+01 -8.803310990333557129e-01 9.607154752722807389e-14 1.784263654793644127e-13 8.234937661248317720e-14 4.407022215555242081e-15
7.700000000000000000e+02 6.600039672851562500e+01 -5.099640369415283203e+00 7.368602527191986384e-14 4.301746269310194326e-14 3.501104638950654213e-14 -9.971939952314770421e-16
7.710000000000000000e+02 5.906512451171875000e+01 -1.647705435752868652e+00 1.861609418051315967e-13 1.712851594500713892e-13 1.072338290213081802e-13 -6.233076934366449384e-14
7.720000000000000000e+02 5.275616836547851562e+01 7.798225879669189453e-01 -9.702855245609029455e-14 1.185446597655459566e-13 6.454829397627972684e-15 -7.048951266436231933e-14
7.730000000000000000e+02 6.482919311523437500e+01 -2.782576322555541992e+00 7.096299052935031715e-14 5.328818441195648514e-14 3.727535180476568288e-14 -4.967928195556692295e-14
7.740000000000000000e+02 6.433202362060546875e+01 -1.618258476257324219e+00 7.425348313647162080e-14 -8.255445345340881036e-14 -2.490291688004219947e-15 -3.725129945719544977e-14
7.750000000000000000e+02 5.798484802246093750e+01 -3.141985237598419189e-01 6.666779487404100868e-14 7.432285852298353701e-14 4.229719669673372151e-14 -8.648373765176783912e-14
7.760000000000000000e+02 5.922811126708984375e+01 -5.981405377388000488e-01 7.311868938011251151e-14 8.461106130780351314e-15 2.447393789093820632e-14 -9.632680937621262984e-14
7.770000000000000000e+02 6.717967224121093750e+01 -7.458822250366210938e+00 -6.993003046204190887e-14 1.578093700908920344e-14 -1.624472820529240108e-14 7.678622176304512187e-15
7.780000000000000000e+02 6.726551818847656250e+01 -1.057253456115722656e+01 -1.917817948448707205e-14 8.328267817134943352e-14 1.923134943665211899e-14 -7.750088548350020368e-14
7.790000000000000000e+02 4.918178939819335938e+01 2.203896760940551758e+00 -1.126435099710332288e-13 1.749119817354930634e-14 -2.854569472509130290e-14 -5.884611899734061222e-15
7.800000000000000000e+02 5.542005920410156250e+01 4.496861100196838379e-01 -3.513520786704686649e-14 5.356847777859830018e-14 5.529981651091787909e-15 -8.006776123191394756e-14
7.810000000000000000e+02 5.505683898925781250e+01 -8.021783828735351562e-01 4.339281179115053039e-15 4.761064115112352557e-14 1.558497593674192105e-14 -1.926155124341941832e-14
7.820000000000000000e+02 6.818605041503906250e+01 -1.233220100402832031e+01 6.111218031189941113e-14 1.176928292236784079e-13 5.364150557117877693e-14 -1.962144199018061447e-14
7.830000000000000000e+02 5.406972885131835938e+01 6.645547747611999512e-01 -1.583660443789922968e-15 1.075902520151833172e-14 2.752609533197641033e-15 4.162902237958869198e-15
7.840000000000000000e+02 7.137358093261718750e+01 -1.033886814117431641e+01 -5.770943042827849506e-15 -1.397261077456732337e-13 -4.364911549066020913e-14 2.470898614566948565e-14
7.850000000000000000e+02 6.044655227661132812e+01 -8.018530607223510742e-01 9.903322872048883618e-14 1.956733860770769329e-14 3.558017121489849555e-14 -6.612025244814509484e-14
7.860000000000000000e+02 7.739997863769531250e+01 3.503792953491210938e+01 -1.648116898218896648e-14 -3.730709588912334285e-13 -1.168656371761805923e-13 8.331848055996397828e-15
7.870000000000000000e+02 7.821880340576171875e+01 -3.716692447662353516e+00 2.192468618765139321e-13 -1.347917952384744544e-13 2.533652066903820110e-14 6.715990746386860111e-14
7.880000000000000000e+02 7.817914581298828125e+01 3.179114818572998047e+00 2.223414865849121513e-13 1.867911072128344840e-13 1.227397767840712750e-13 -2.893758366609433530e-13
7.890000000000000000e+02 7.811265563964843750e+01 1.696546745300292969e+01 6.997778279147631730e-14 -1.987642635117164991e-13 -3.863594421607205454e-14 -5.111114371905527143e-14
7.900000000000000000e+02 7.872574615478515625e+01 4.006011199951171875e+01 1.332026987489872902e-14 -3.602988946690283134e-13 -1.040935932827662114e-13 4.548414122011908145e-14
7.910000000000000000e+02 7.907982635498046875e+01 3.872140884399414062e+01 -1.121330252365796906e-14 -4.165642440365213695e-13 -1.283332571070869288e-13 2.209747853719901817e-14
7.920000000000000000e+02 7.926602172851562500e+01 3.215032958984375000e+01 -6.430077146733423343e-14 -3.706895901345319544e-13 -1.304971078029334985e-13 2.590304679734797833e-14
7.930000000000000000e+02 7.778900909423828125e+01 2.957542419433593750e+01 -1.833537831383725419e-14 -3.509901245514479573e-13 -1.107976557723766575e-13 6.682009817422090991e-14
7.940000000000000000e+02 7.780615234375000000e+01 3.229451370239257812e+01 -2.031643252340276790e-15 -3.668782942375936607e-13 -1.106729792988044025e-13 -7.877689318469376090e-15
7.950000000000000000e+02 7.931606292724609375e+01 2.519283676147460938e+01 1.282372052649341856e-14 -3.605117235554872179e-13 -1.043063950641708038e-13 -7.433338883658380247e-14
7.960000000000000000e+02 7.801128387451171875e+01 2.254033279418945312e+01 -2.952623446439298430e-16 -3.432586517543995130e-13 -1.030661761990646352e-13 3.025729081347627858e-14
7.970000000000000000e+02 7.795237731933593750e+01 2.535751342773437500e+01 8.471302713399398582e-15 -3.852525124001943135e-13 -1.130343580779506751e-13 4.308108841996789729e-14
7.980000000000000000e+02 7.935321044921875000e+01 1.960741233825683594e+01 4.735627800409600643e-16 -2.743027430630179397e-13 -8.214875177672831263e-14 -1.214339552172002609e-14
7.990000000000000000e+02 7.808783721923828125e+01 1.834626579284667969e+01 -8.482400539074324425e-15 -1.637636288511976068e-13 -5.167381076525735806e-14 6.097106462288684470e-14
8.000000000000000000e+02 7.813404846191406250e+01 1.559168434143066406e+01 -6.284013430056176186e-14 -1.870598131687578602e-13 -7.496998491842224444e-14 4.630148396850622405e-14
8.010000000000000000e+02 7.938892364501953125e+01 1.266878604888916016e+01 1.102914553305703316e-13 -2.729888797653456933e-13 -4.880922665280625072e-14 6.309570870470385465e-15
8.020000000000000000e+02 7.817365264892578125e+01 1.147382831573486328e+01 1.605940722201534832e-13 -1.141777644653174661e-13 1.392489469814305741e-14 -8.021587002493904550e-14
8.030000000000000000e+02 7.817823028564453125e+01 5.955179214477539062e+00 1.619001699197653021e-13 -1.364934776532447658e-13 7.622006494110034752e-15 -8.340603327352397178e-14
8.040000000000000000e+02 7.939253997802734375e+01 5.728366851806640625e+00 -2.957928498491246838e-13 -2.182702532171204579e-13 -1.542189363408844049e-13 5.124351463992038447e-14
8.050000000000000000e+02 7.817461395263671875e+01 4.563191890716552734e+00 -2.171560050919299489e-13 -1.616932905927279118e-13 -1.136547859948919270e-13 7.073385117645908382e-14
8.060000000000000000e+02 7.820405578613281250e+01 4.261222481727600098e-01 6.026735100556068758e-13 -2.678472678027676857e-13 1.004478618338300322e-13 1.559814729907172542e-14
8.070000000000000000e+02 7.940554809570312500e+01 -1.217629432678222656e+00 -6.095253425250635182e-13 -1.925987174649160250e-13 -2.406372085102248537e-13 -6.837401992650744484e-15
8.080000000000000000e+02 7.578714752197265625e+01 8.814204335212707520e-01 3.577205534826405353e-13 -2.355742554152606694e-13 3.664388874258760198e-14 -2.876045145853815821e-14
8.090000000000000000e+02 7.727595520019531250e+01 -8.899139404296875000e+00 5.284114075118639953e-14 -1.546387258695436362e-13 -3.053927485788081320e-14 8.246104631281519115e-17
8.100000000000000000e+02 7.816086578369140625e+01 -9.885523796081542969e+00 1.471738486458304841e-15 -1.366221046884830148e-13 -4.054510904533820126e-14 -2.981660328794238923e-14
8.110000000000000000e+02 7.704243469238281250e+01 -1.087760066986083984e+01 -5.247701822782072090e-14 -6.824110097532545827e-14 -3.621543576094385375e-14 -7.255491780294720527e-14
8.120000000000000000e+02 7.738024902343750000e+01 -1.031314468383789062e+01 -1.086995771848843842e-14 -6.613639350798797278e-14 -2.310190375858032358e-14 -4.564950238021385498e-15
8.130000000000000000e+02 3.774043655395507812e+01 -1.272950321435928345e-01 2.535439848523612927e-13 7.034240269258862366e-13 2.870903926914525339e-13 3.238013156214858412e-13
8.140000000000000000e+02 3.917883300781250000e+01 4.593647956848144531e+00 5.613089203507226621e-13 9.725761862533488511e-13 4.601655428232431788e-13 7.195661709709366693e-13
8.150000000000000000e+02 3.977606582641601562e+01 -4.506737709045410156e+00 -2.935182207963044076e-13 -1.715444735046756097e-13 -1.395188082902940052e-13 -3.306783828965070837e-13
8.160000000000000000e+02 4.091901779174804688e+01 -3.683943510055541992e+00 -2.170933924164689111e-13 -1.959796664145405098e-13 -1.239219230703136887e-13 -3.836402495595997442e-13
8.170000000000000000e+02 4.225959396362304688e+01 -4.047424793243408203e+00 -7.729443983733180756e-14 -3.533828232208519049e-13 -1.292031802727078293e-13 -1.842213041185550293e-13
8.180000000000000000e+02 8.426834940910339355e-01 3.742041015625000000e+01 -1.595587302961973958e-14 -1.898420250211543814e-13 -6.173937093989154135e-14 -1.522142029017619237e-15
8.190000000000000000e+02 6.703426837921142578e-01 3.320058059692382812e+01 -2.233993663615287811e-14 -3.298308891633294770e-13 -1.056512529914489795e-13 -1.471947089497389893e-14
8.200000000000000000e+02 3.931260108947753906e+00 3.762927627563476562e+01 -1.720308669280433411e-14 -1.738077218228165771e-14 -1.037515749311920810e-14 -2.084251791067883580e-14
8.210000000000000000e+02 5.743356943130493164e-01 2.616872024536132812e+01 1.285984648169381447e-14 -4.291226391155839037e-13 -1.248788399077493949e-13 -2.456939342189608244e-15
8.220000000000000000e+02 1.726506590843200684e+00 2.742581939697265625e+01 3.224327814292660133e-14 -2.835626156626191996e-13 -7.539580532166592630e-14 -3.819974257702682396e-14
8.230000000000000000e+02 2.846049785614013672e+00 2.727853202819824219e+01 -1.791115372066619943e-14 -3.279328577351220408e-13 -1.037532012344508092e-13 1.782505112751190529e-14
8.240000000000000000e+02 2.805971145629882812e+00 2.452576065063476562e+01 -1.862723198614319592e-14 -4.426171072453161104e-13 -1.383733080374816016e-13 3.267255444059508074e-14
8.250000000000000000e+02 1.874019026756286621e+00 3.156557846069335938e+01 -3.254165058079461215e-14 -2.655766502979856059e-13 -8.943548484262320297e-14 -5.760480068346890761e-15
8.260000000000000000e+02 1.991255402565002441e+00 3.295039367675781250e+01 -1.830620649913381609e-14 -3.738531023384644714e-13 -1.176477941759387913e-13 -4.587908896650123858e-14
8.270000000000000000e+02 3.207239627838134766e+00 3.959212875366210938e+01 -1.487120498901324528e-14 -1.665017001226468119e-13 -5.441186848417940702e-14 -3.521029225562327669e-14
8.280000000000000000e+02 5.769131779670715332e-01 1.911422729492187500e+01 2.827776803947940065e-14 -4.911414157315885376e-13 -1.388590848208637318e-13 1.879088552781630478e-14
8.290000000000000000e+02 1.718709707260131836e+00 2.182281112670898438e+01 -4.970330719808284392e-14 -3.644335267588560967e-13 -1.242410579797847969e-13 5.209157080297496800e-14
8.300000000000000000e+02 5.560036301612854004e-01 1.346218299865722656e+01 8.495747914850568239e-14 -2.838462971610500318e-13 -5.966664066037880021e-14 1.982498400740582284e-14
8.310000000000000000e+02 1.725914001464843750e+00 2.041646003723144531e+01 1.206411904135620125e-18 -4.346335032330561621e-13 -1.303896904726944972e-13 7.647661258609883550e-14
8.320000000000000000e+02 1.562612771987915039e+00 7.775459766387939453e+00 -2.054639858045052142e-14 -7.743202509302021808e-14 -2.939352727144781130e-14 -4.151974665906341469e-15
8.330000000000000000e+02 5.201315879821777344e-01 7.832072734832763672e+00 2.488869434982485251e-14 -1.037107886007158919e-13 -2.364662895289366962e-14 1.617681479764744579e-14
8.340000000000000000e+02 5.603533983230590820e-01 5.012506961822509766e+00 -1.470091070903366270e-14 -7.492681334316658726e-14 -2.688831721566007499e-14 -3.221323896648517482e-15
8.350000000000000000e+02 3.016757726669311523e+00 3.484973430633544922e+00 -4.915342018498893017e-14 -8.969217648322272418e-14 -4.165367866165031741e-14 -1.477855313711078089e-14
8.360000000000000000e+02 1.625630497932434082e+00 1.053618907928466797e+01 -1.403715875090624787e-14 -2.347706718700687256e-13 -7.464234579816070303e-14 6.285483201626251848e-14
8.370000000000000000e+02 5.399017333984375000e-01 1.063849735260009766e+01 3.019066320184525531e-14 -2.615668369832652163e-13 -6.941285247323916718e-14 -4.343417579809674689e-14
8.380000000000000000e+02 1.667816996574401855e+00 1.335834598541259766e+01 -3.895609895321165694e-14 -2.683256991164312266e-13 -9.218453366106882374e-14 5.851094890714503283e-14
8.390000000000000000e+02 1.730366945266723633e+00 1.901003646850585938e+01 5.997247799961096318e-15 -3.863128079147765126e-13 -1.140946739213236083e-13 2.651520597865813372e-15
8.400000000000000000e+02 1.713830947875976562e+00 2.322575187683105469e+01 7.719536408755736656e-15 -4.542011027269116097e-13 -1.339444776881498766e-13 5.390312016726774014e-14
8.410000000000000000e+02 2.136590766906738281e+01 3.544618225097656250e+01 -8.158095658130531166e-16 1.826541576408630130e-13 5.455150694773196196e-14 1.539320971036262087e-13
8.420000000000000000e+02 4.185174179077148438e+01 1.631762886047363281e+01 9.722946189491543656e-14 1.789226183662381842e-13 8.284562272309337061e-14 -8.999041339581917431e-14
8.430000000000000000e+02 1.501186084747314453e+01 1.825187301635742188e+01 3.407218151824271957e-14 7.923685037096450667e-13 2.479322086176849460e-13 2.178205702016867279e-14
8.440000000000000000e+02 4.200164794921875000e+01 2.991634941101074219e+01 -7.202455320522160864e-14 5.181437418878831469e-13 1.338357457627767366e-13 -2.935384411668212623e-13
8.450000000000000000e+02 2.026567649841308594e+01 4.264952659606933594e+00 4.909587954281605104e-14 6.679203766674426945e-14 3.476637584049445395e-14 -3.548596082237308325e-14
8.460000000000000000e+02 4.158419036865234375e+01 2.979716300964355469e+01 2.068850733089044880e-13 7.291783279614327817e-13 2.808190149600903185e-13 -1.472789446822775350e-13
8.470000000000000000e+02 1.612979888916015625e+01 1.352461814880371094e+01 -1.550893338449557679e-13 5.282954520895166706e-13 1.119618449601372800e-13 -1.386516904977944109e-13
8.480000000000000000e+02 1.651728630065917969e+01 1.356682109832763672e+01 -1.255880707588807876e-13 4.494369828557387425e-13 9.715467227380467086e-14 -1.211830521997622756e-13
8.490000000000000000e+02 1.590911483764648438e+01 1.429929065704345703e+01 8.109883072168408424e-14 8.582737385381955519e-13 2.818117646793266706e-13 -6.874591228309828717e-14
8.500000000000000000e+02 1.769967842102050781e+01 1.013525009155273438e+01 6.940667252085599981e-14 1.212476164391337874e-13 5.719628601037057836e-14 -1.472407672132788892e-13
8.510000000000000000e+02 1.760363769531250000e+01 9.337016105651855469e+00 -8.129253699232577568e-14 5.666223851339032003e-14 -7.389088527241099991e-15 5.825755391877622535e-15
8.520000000000000000e+02 1.992478752136230469e+01 4.984454154968261719e+00 -4.198216820299090213e-14 1.650114371315111739e-13 3.690877966211654482e-14 -2.817140509585314145e-13
8.530000000000000000e+02 1.766408920288085938e+01 3.187217330932617188e+01 6.741377340255608197e-14 1.203935090727040191e-13 5.634218542020438814e-14 2.711165439286261636e-13
8.540000000000000000e+02 1.774782371520996094e+01 3.080621528625488281e+01 -8.862059848978309784e-14 -3.798025601160250064e-14 -3.798025601160250064e-14 1.038641693268047006e-13
8.550000000000000000e+02 1.731631469726562500e+01 1.007317256927490234e+01 -4.231858258458599809e-14 3.021201182024785270e-13 7.794045492554371735e-14 -1.639591485135002513e-16
8.560000000000000000e+02 1.636811065673828125e+01 2.122760295867919922e+00 1.462578972863393112e-13 4.744404738868390758e-13 1.862095140624589473e-13 1.362133469169288236e-13
8.570000000000000000e+02 4.191426467895507812e+01 1.795445632934570312e+01 7.756594439011291198e-14 3.992501316531227307e-13 1.430448234905970506e-13 1.681618575942109284e-14
8.580000000000000000e+02 4.192237091064453125e+01 1.876867675781250000e+01 -1.325129242446543287e-13 3.092163298416134021e-13 5.301102506721951102e-14 1.029369799576858313e-13
8.590000000000000000e+02 1.522835826873779297e+01 2.190829849243164062e+01 -3.414274952714436984e-14 8.088844806637685014e-13 2.324225068048996201e-13 -3.046972396614222589e-13
8.600000000000000000e+02 1.482630252838134766e+01 2.114343833923339844e+01 -1.387617099132473775e-13 8.555496805798257220e-13 2.150363898447207878e-13 -1.620687091474781738e-13
8.610000000000000000e+02 1.843109130859375000e+01 8.271306991577148438e+00 4.503201197353368102e-14 3.395560742303072033e-13 1.153764312821631277e-13 -6.892929830431063221e-14
8.620000000000000000e+02 1.580460262298583984e+01 1.468687820434570312e+01 8.755401460260048285e-14 -1.912315927355204281e-13 -3.110327343987598359e-14 -1.348357105086578009e-14
8.630000000000000000e+02 1.974545097351074219e+01 5.340543270111083984e+00 2.453716212418716180e-13 7.456725666619978821e-13 2.973132536606554188e-13 -3.220069610260223314e-14
8.640000000000000000e+02 3.642665481567382812e+01 3.600417709350585938e+01 1.545265244972185426e-13 -7.960549808314759668e-14 2.247630724659492596e-14 -4.452244372872907197e-14
8.650000000000000000e+02 3.585815048217773438e+01 3.629736328125000000e+01 1.029643679210023519e-14 1.073523933051330481e-13 3.529464996090622697e-14 -1.779508886166208947e-13
8.660000000000000000e+02 4.197483062744140625e+01 2.642504882812500000e+01 -3.937079611979199534e-14 7.608929220200011390e-13 2.164566404805681743e-13 -1.464071377153819409e-13
8.670000000000000000e+02 2.088902091979980469e+01 1.711914896965026855e+00 -6.439727223694902136e-14 2.469068515181110923e-13 5.475287717248041031e-14 5.714580284671422206e-14
8.680000000000000000e+02 4.130662918090820312e+01 1.425692844390869141e+01 -1.447206612360807387e-13 -1.627219240157417451e-14 -4.829785592188988452e-14 -7.787763896217533843e-14
8.690000000000000000e+02 1.523613739013671875e+01 2.231399345397949219e+01 -6.282896701818516116e-14 7.050884941010859830e-13 1.926778506709803107e-13 9.448191063072056139e-14
8.700000000000000000e+02 1.483620071411132812e+01 2.073303031921386719e+01 -2.146334393310529720e-14 9.058203948204834877e-13 2.653071176379057095e-13 -8.887041899911449216e-14
8.710000000000000000e+02 1.534907913208007812e+01 2.432457351684570312e+01 1.919117398633748972e-13 1.088768723615796130e-12 3.842041431095094550e-13 -2.753136091229301669e-14
8.720000000000000000e+02 1.524908638000488281e+01 2.272098541259765625e+01 -1.305430915275740400e-13 8.590719281775793803e-13 2.185586509950016021e-13 8.528838442781183637e-14
8.730000000000000000e+02 1.968796730041503906e+01 4.561204433441162109e+00 5.431254878891615678e-14 2.977824963609071451e-13 1.056285118508810961e-13 -1.909549043411021274e-13
8.740000000000000000e+02 2.062895774841308594e+01 3.446555328369140625e+01 8.647635152446778162e-14 1.285631892828167921e-13 6.451186563031716115e-14 -1.326469451857006931e-13
8.750000000000000000e+02 2.030358505249023438e+01 3.422956085205078125e+01 -6.353607012255305109e-14 -4.847392561131702582e-13 -1.644825904168270569e-13 7.330979356554023774e-14
8.760000000000000000e+02 1.402213287353515625e+01 2.073938179016113281e+01 6.111619185993760750e-14 1.032713519734385077e-12 3.281489121230440897e-13 -2.326954343730321118e-14
8.770000000000000000e+02 4.179675674438476562e+01 1.549813365936279297e+01 -3.247171276440571908e-14 1.690873461211717110e-13 4.098468865177708198e-14 -1.683554012345267470e-13
8.780000000000000000e+02 1.530661964416503906e+01 1.905022811889648438e+01 -8.978866370031035604e-14 8.765380999156691111e-13 2.360248498381456450e-13 3.516735107332927268e-14
8.790000000000000000e+02 1.523600292205810547e+01 2.029078674316406250e+01 6.055025611359206653e-15 6.888592344114763399e-13 2.084742833008065843e-13 5.035338126817799631e-14
8.800000000000000000e+02 1.485146141052246094e+01 2.031503868103027344e+01 -1.879958049042645962e-13 1.063204103750325924e-12 2.625624869433129671e-13 -7.229055543197734912e-14
8.810000000000000000e+02 4.231782150268554688e+01 2.403061676025390625e+01 1.808216933390366377e-13 4.435026022646393340e-13 1.872972941021136539e-13 4.499344486937929821e-14
8.820000000000000000e+02 4.228402709960937500e+01 1.839767456054687500e+01 -4.636191638116102937e-15 2.725187425983016665e-13 8.036477164080277347e-14 1.848293382494120562e-13
8.830000000000000000e+02 4.274385070800781250e+01 2.026720285415649414e+00 -1.568532901220082154e-13 2.427906102076340944e-14 -3.977226601986801058e-14 -4.211054112834497487e-14
8.840000000000000000e+02 3.740486526489257812e+01 2.091484069824218750e+00 4.599335235583312809e-13 1.020631495984858361e-12 4.441694950209351678e-13 7.466646658599307429e-13
8.850000000000000000e+02 1.906263160705566406e+01 3.291216278076171875e+01 -2.874643611257970965e-13 -2.375763973570810261e-13 -1.575122275448634368e-13 -4.482328526763832907e-15
8.860000000000000000e+02 1.837014579772949219e+01 3.197230911254882812e+01 1.707673478806241013e-14 -1.756851906791964679e-13 -4.758253659793362789e-14 1.491419021702050651e-13
8.870000000000000000e+02 4.092983245849609375e+01 1.186342334747314453e+01 -7.550155230293294217e-16 2.284311791372201084e-13 6.830284628904850774e-14 1.446666137577823363e-13
8.880000000000000000e+02 1.650019836425781250e+01 1.234797096252441406e+01 1.782987277786085567e-13 1.679156352808394703e-13 1.038643048520762613e-13 -1.863474652363805717e-13
8.890000000000000000e+02 1.851317405700683594e+01 7.111487865447998047e+00 -2.292173883425979719e-13 3.901682443926621224e-14 -5.706016442761502327e-14 -1.753998388317936502e-14
8.900000000000000000e+02 4.156141662597656250e+01 1.993204498291015625e+01 2.133260473650977485e-13 7.319387066925808760e-13 2.835794207962927249e-13 1.880087611202257980e-13
8.910000000000000000e+02 4.192660140991210938e+01 2.078057861328125000e+01 8.041125003268451144e-14 6.749752666512787158e-13 2.266159536499362526e-13 1.428249337374898342e-13
8.920000000000000000e+02 4.155751800537109375e+01 1.345172309875488281e+01 1.160993908433036181e-13 1.412587765942802109e-13 7.720745294178057994e-14 -9.598933112123578248e-15
8.930000000000000000e+02 4.157030487060546875e+01 2.394499969482421875e+01 1.728866243146543608e-14 4.649189019878541274e-13 1.446622769490923943e-13 1.751321120459573000e-13
8.940000000000000000e+02 4.235583114624023438e+01 2.564666938781738281e+01 1.195929206360135666e-13 4.630126577281901135e-13 1.747816707987556728e-13 -6.132239356061719437e-14
8.950000000000000000e+02 1.564622592926025391e+01 2.731452369689941406e+01 7.358209094115997218e-14 3.517918107428380514e-13 1.276121677946939759e-13 1.511099052961192846e-13
8.960000000000000000e+02 4.156443023681640625e+01 2.274055671691894531e+01 2.403819703781628209e-14 4.678115533840454532e-13 1.475549283452837201e-13 -8.244656856098292463e-14
8.970000000000000000e+02 4.194211578369140625e+01 2.399055290222167969e+01 -2.627738250517847041e-13 8.024016021936086762e-13 1.618883385635580541e-13 -3.619945055516327059e-14
8.980000000000000000e+02 4.149842453002929688e+01 1.305033111572265625e+01 3.743451607181834395e-14 1.075452593190910633e-13 4.349393227845964327e-14 1.383364451636170944e-13
8.990000000000000000e+02 1.675232124328613281e+01 1.158579826354980469e+01 -7.206800260728396523e-14 2.436194150058634822e-13 5.146542033144206607e-14 -2.253010874652544571e-13
9.000000000000000000e+02 1.687524032592773438e+01 1.240028572082519531e+01 1.925166552189201338e-15 6.870893285750023782e-13 2.067043368067511544e-13 2.144080523341180752e-15
9.010000000000000000e+02 4.156269073486328125e+01 2.193795013427734375e+01 -1.809070098856158798e-14 8.157639060785148999e-13 2.393019593247003307e-13 1.216792102189459546e-13
9.020000000000000000e+02 4.193876266479492188e+01 2.358842277526855469e+01 1.314508940065961529e-13 7.426003171759343324e-13 2.622153796177917329e-13 9.080340917112100785e-14
9.030000000000000000e+02 4.193214416503906250e+01 2.278558921813964844e+01 1.681668720292586738e-13 8.040866692100856472e-13 2.916760799900885992e-13 2.690080756350028690e-14
9.040000000000000000e+02 4.192742538452148438e+01 2.118076705932617188e+01 1.594330543237473807e-13 8.460945702740141350e-13 3.016582751820540143e-13 3.620152680232358033e-13
9.050000000000000000e+02 4.193007659912109375e+01 2.238464736938476562e+01 -9.440726331114493441e-14 5.543021011807092169e-13 1.379684398412212021e-13 -1.000188955502202479e-14
9.060000000000000000e+02 4.138111114501953125e+01 1.224785900115966797e+01 -5.297461959114652119e-14 2.518022953774262662e-13 5.964829731487306108e-14 2.983946911176010852e-13
9.070000000000000000e+02 4.048873138427734375e+01 9.451410293579101562e+00 2.659251399812767591e-13 9.374850071589002631e-13 3.610230333000313818e-13 4.722179678534610403e-13
9.080000000000000000e+02 4.105731201171875000e+01 1.022728538513183594e+01 1.662325333808001293e-13 7.117557953607855925e-13 2.633965094644974414e-13 3.117868105622506603e-13
9.090000000000000000e+02 4.192663955688476562e+01 1.997706222534179688e+01 -2.462140463298928550e-14 4.927084131314818372e-13 1.404260957732841875e-13 2.402300634894022346e-13
9.100000000000000000e+02 4.196907424926757812e+01 2.560410881042480469e+01 -7.024532323006427159e-14 2.444005555660849760e-13 5.224657105605892693e-14 6.461537983273521468e-14
9.110000000000000000e+02 1.601644706726074219e+01 1.391390037536621094e+01 8.365421392706948178e-14 8.593688911526231600e-13 2.829069172937542787e-13 1.343602827738252237e-13
9.120000000000000000e+02 4.119690704345703125e+01 1.104216957092285156e+01 9.299945389522681904e-14 3.143626038735330974e-13 1.222086125872434703e-13 2.260403236115093861e-13
9.130000000000000000e+02 4.132177734375000000e+01 1.184641933441162109e+01 9.062696882007614807e-14 2.218439191029042412e-13 9.374127179790497921e-14 1.908768824422646393e-13
9.140000000000000000e+02 3.591754531860351562e+01 1.124549388885498047e+00 8.107196012609174662e-13 8.049607530015434609e-13 4.847041279627817278e-13 7.042708972428146641e-13
9.150000000000000000e+02 3.681940460205078125e+01 1.436765551567077637e+00 5.844982700967116251e-13 7.995106313107847029e-13 4.152026758432597608e-13 8.065826110313645270e-13
9.160000000000000000e+02 4.126067733764648438e+01 1.144482898712158203e+01 6.580500033770420032e-14 3.027078370951286068e-13 1.105538525851025577e-13 2.703907518893100548e-13
9.170000000000000000e+02 4.182216262817382812e+01 1.263886928558349609e+01 1.234204795655391429e-13 2.358982963395622745e-13 1.077956287057722784e-13 1.071847756492667891e-13
9.180000000000000000e+02 1.507049465179443359e+01 1.784929084777832031e+01 7.882292095504755958e-14 6.285436038831748728e-13 2.122099560962140141e-13 -1.602579288891015086e-13
9.190000000000000000e+02 1.576908111572265625e+01 1.626182365417480469e+01 1.154310073090206168e-13 6.899837146946696809e-13 2.416244287983815298e-13 -2.619594570831083186e-14
9.200000000000000000e+02 1.580126190185546875e+01 2.771752166748046875e+01 1.983126119917133501e-13 9.771346058673469059e-13 3.526341545156963520e-13 3.055061629023136938e-13
9.210000000000000000e+02 4.195430755615234375e+01 2.479400062561035156e+01 -1.624309817508870490e-13 2.963943110043110174e-13 4.018899945365354831e-14 -2.071686057295366035e-14
9.220000000000000000e+02 4.197163009643554688e+01 2.683983802795410156e+01 9.988554715333400336e-15 8.735488461059093268e-13 2.650612205851859970e-13 3.562126247723569616e-14
9.230000000000000000e+02 4.192477416992187500e+01 1.917131614685058594e+01 4.753485203113499979e-14 4.321306225178733751e-13 1.438996355884389344e-13 8.498515340895837489e-14
9.240000000000000000e+02 4.003926086425781250e+01 3.242450332641601562e+01 8.408903998460837137e-14 1.961664880013869183e-13 8.407665975105130252e-14 -5.809253495999214256e-14
9.250000000000000000e+02 3.882486343383789062e+01 3.375371551513671875e+01 -2.479699286888920745e-14 4.468821959615482120e-13 1.266255573702593229e-13 -1.240063688670231534e-13
9.260000000000000000e+02 1.489264011383056641e+01 2.318870162963867188e+01 1.738661027216731325e-13 9.895329998108048919e-13 3.490197497332814258e-13 1.251293177146478586e-13
9.270000000000000000e+02 1.665163803100585938e+01 2.865895271301269531e+01 2.849503131282377089e-13 1.128642426913295527e-12 4.240778193019545395e-13 3.722183423027908278e-13
9.280000000000000000e+02 1.596992969512939453e+01 2.809965133666992188e+01 1.010776477707725496e-13 9.812134828604546222e-13 3.246873256368409955e-13 1.042981890089778041e-13
9.290000000000000000e+02 1.898440742492675781e+01 6.000063419342041016e+00 9.777765484211484170e-14 1.334066049903798179e-13 6.935528133788018690e-14 -1.735695192173897228e-13
9.300000000000000000e+02 1.717278289794921875e+01 1.044091796875000000e+01 -5.820668789622771011e-14 -1.164476230285788061e-13 -5.239629259981559706e-14 -2.067206811545013734e-13
9.310000000000000000e+02 2.140102386474609375e+01 3.657009887695312500e+01 4.838374845087325959e-14 1.122377879655619970e-13 4.818646092493057698e-14 -1.141670715213913279e-13
9.320000000000000000e+02 1.567330551147460938e+01 1.665192604064941406e+01 -3.036484028085505160e-14 2.614921896636895893e-13 6.933820515366354020e-14 -1.288840995733453454e-13
9.330000000000000000e+02 1.550623512268066406e+01 2.690023994445800781e+01 5.633042521476470943e-14 8.476586945381503480e-13 2.711967477843357788e-13 2.776537409276275126e-13
9.340000000000000000e+02 1.914917755126953125e+01 5.623325824737548828e+00 2.172264646806143507e-13 3.218518116951396557e-13 1.617234856232316331e-13 -2.235174122611899294e-13
9.350000000000000000e+02 1.680122184753417969e+01 2.903511047363281250e+01 2.396741659305146044e-13 5.602269950027993772e-13 2.399703428589833321e-13 3.325998330916402068e-13
9.360000000000000000e+02 4.147453689575195312e+01 3.020932388305664062e+01 3.229117955015972652e-14 8.373561718143240906e-13 2.608941979554552093e-13 -2.294754826697581462e-13
9.370000000000000000e+02 4.001169586181640625e+01 6.129405021667480469e+00 3.001142357631630952e-13 8.148846181166291558e-13 3.344996534534322441e-13 6.733430544907104132e-13
9.380000000000000000e+02 3.832424163818359375e+01 4.056488513946533203e+00 8.713854833010403755e-13 1.196967980461594028e-12 6.205060337077794586e-13 5.154918917942008516e-13
9.390000000000000000e+02 4.361249923706054688e+01 2.283717393875122070e+00 -1.044369872158466828e-13 -2.277624974473396735e-13 -9.965985014234041151e-14 -2.983941219114605303e-14
9.400000000000000000e+02 4.098102951049804688e+01 9.815155982971191406e+00 2.579923850509063810e-13 8.425833273283112046e-13 3.301727110032598445e-13 2.153951658961233973e-13
9.410000000000000000e+02 2.699164390563964844e+01 3.754278945922851562e+01 1.806547634739235492e-14 -3.800860112214941855e-14 -5.982938025350182168e-15 9.142911749145544303e-15
9.420000000000000000e+02 2.799354553222656250e+01 3.753705978393554688e+01 -9.649442025581531079e-14 5.014714568618051926e-14 -1.390418220148384801e-14 -3.267568507436813263e-14
9.430000000000000000e+02 1.545729732513427734e+01 2.514031410217285156e+01 8.813843345488805991e-14 1.135796426528223879e-12 3.671804342780110586e-13 2.388852191146512149e-13
9.440000000000000000e+02 1.498582553863525391e+01 2.439235305786132812e+01 5.576258110318900452e-14 8.474153453605359765e-13 2.709533715016670952e-13 1.029882762729715517e-13
9.450000000000000000e+02 1.835850906372070312e+01 7.475641727447509766e+00 -7.098345738645482281e-16 3.657033714483254316e-13 1.094980632857997516e-13 3.580092494161191130e-14
9.460000000000000000e+02 1.638224220275878906e+01 1.150936698913574219e+01 1.182056568512640515e-13 4.908618609776767283e-15 3.693428213009247729e-14 -9.223915203957367553e-15
9.470000000000000000e+02 1.485005569458007812e+01 2.236571693420410156e+01 3.702686960749095035e-14 6.563819583346730546e-13 2.080226453333305914e-13 -1.128534860505257809e-13
9.480000000000000000e+02 1.695451736450195312e+01 2.942730140686035156e+01 8.757991348199573034e-14 8.610513018737775415e-13 2.845893822250172844e-13 2.628484181612517068e-13
9.490000000000000000e+02 4.031121444702148438e+01 6.940890789031982422e+00 4.039841107039005008e-13 4.018907873593741131e-13 2.417624748399932466e-13 6.818629862126446284e-13
9.500000000000000000e+02 4.043368911743164062e+01 7.339472770690917969e+00 1.454526332277800149e-13 7.943520515842072971e-13 2.819414081541016248e-13 5.070978901546008277e-13
9.510000000000000000e+02 1.774970626831054688e+01 8.961586952209472656e+00 -1.068544853158803418e-14 4.071790647708350974e-13 1.189480778414006568e-13 -2.870778701563603263e-13
9.520000000000000000e+02 1.789773941040039062e+01 8.587208747863769531e+00 1.141624365571039523e-13 -2.255789413770081797e-13 -3.342495009071855261e-14 -2.205024628599422387e-13
9.530000000000000000e+02 1.688669395446777344e+01 1.120202541351318359e+01 6.164621086822072438e-15 4.839293028802149621e-14 1.636726507363989169e-14 -1.103161209299943768e-13
9.540000000000000000e+02 1.745953369140625000e+01 9.707570075988769531e+00 -7.506619430870317689e-14 2.880854192352511056e-13 6.390576273457987400e-14 -1.653466859957708479e-13
9.550000000000000000e+02 1.487024307250976562e+01 2.277880477905273438e+01 1.528845511289660813e-14 2.810578918037431873e-13 8.890390051745356015e-14 6.151047553248911726e-14
9.560000000000000000e+02 1.773761367797851562e+01 1.432081937789916992e+00 -9.894250132744253357e-14 -1.339058258807007684e-13 -6.985450222820113741e-14 -5.740831529772727482e-14
9.570000000000000000e+02 1.558618736267089844e+01 1.704733467102050781e+01 1.473869447711842473e-13 7.036791396970720758e-13 2.553198266957296125e-13 -2.011103143826492579e-13
9.580000000000000000e+02 1.570137214660644531e+01 1.507476711273193359e+01 1.753346003541961240e-13 3.038981555552461300e-13 1.437698294833381074e-13 -3.003722758802146453e-13
9.590000000000000000e+02 1.804875946044921875e+01 8.214461326599121094e+00 9.900138705793565252e-14 -1.863255779050235206e-13 -2.619725691531318151e-14 -1.113346204508272597e-14
9.600000000000000000e+02 2.966413116455078125e+01 -1.942189812660217285e+00 1.008141486957825350e-12 2.030207531494680750e-14 3.085330656325130372e-13 1.708011444952195479e-13
9.610000000000000000e+02 4.039675140380859375e+01 9.046674728393554688e+00 1.153012418615012580e-13 9.186828815038738938e-13 3.101952288780962519e-13 3.201604563060622688e-13
9.620000000000000000e+02 1.614056968688964844e+01 2.846635627746582031e+01 1.354753847082265650e-13 7.214496469849784877e-13 2.570775081527088002e-13 1.494555483061779655e-13
9.630000000000000000e+02 1.882578086853027344e+01 6.376681804656982422e+00 1.115968211937157228e-13 4.782721053507750508e-14 4.782721053507750508e-14 -9.392725312806771143e-14
9.640000000000000000e+02 3.522344589233398438e+01 2.985703945159912109e-02 1.007307952327618494e-12 8.892129112030022764e-13 5.689562861642405434e-13 6.909120085947517698e-13
9.650000000000000000e+02 1.789585304260253906e+01 3.231678771972656250e+01 -1.634999508828491321e-13 1.129323888636284134e-13 -1.517027029983211012e-14 1.210136185052571034e-13
9.660000000000000000e+02 3.262051010131835938e+01 -1.285821437835693359e+00 9.722806327411293026e-13 1.421859862921898143e-13 3.343399775784794414e-13 4.759264813844477082e-13
9.670000000000000000e+02 3.406671905517578125e+01 -3.980471134185791016e+00 -2.622139159448588774e-13 1.163773531752745893e-13 -4.375096612036985522e-14 1.665610601915903932e-13
9.680000000000000000e+02 1.702864646911621094e+01 1.081737327575683594e+01 -5.070114335016745813e-15 2.265818419390844274e-13 6.645351586717640480e-14 3.751373059304556612e-14
9.690000000000000000e+02 1.842423439025878906e+01 6.309772968292236328e+00 -1.107644520808442890e-13 -1.847233303819972861e-13 -8.864633473885247250e-14 -4.682017306408686741e-14
9.700000000000000000e+02 1.996290779113769531e+01 3.836127996444702148e+00 2.228701300116889272e-13 3.242705041116289433e-13 1.641421915922480768e-13 -1.149180034985819443e-13
9.710000000000000000e+02 3.690543365478515625e+01 -4.445988178253173828e+00 -4.684915107765197373e-13 2.797266338374661265e-14 -1.321556525237660429e-13 -9.980851458897890827e-14
9.720000000000000000e+02 1.957253074645996094e+01 3.374489974975585938e+01 -7.195461538883271557e-14 -3.325080011676306846e-13 -1.213387842893126622e-13 3.224777758194241617e-14
9.730000000000000000e+02 1.817783546447753906e+01 3.317668914794921875e+01 -2.257601522176119757e-13 -9.675435095040513245e-14 -9.675435095040513245e-14 2.395411614290049451e-13
9.740000000000000000e+02 3.768481063842773438e+01 2.434245347976684570e+00 7.532104822662033516e-13 1.054819643089843773e-12 5.424090538698467245e-13 7.552786521203280756e-13
9.750000000000000000e+02 1.538214874267578125e+01 2.648147010803222656e+01 9.707497663786340825e-14 7.278677985854409282e-13 2.474828339222440166e-13 2.359604482291000060e-13
9.760000000000000000e+02 4.090083694458007812e+01 9.401259422302246094e+00 2.389536322717350503e-13 1.017427678565163696e-12 3.769144013825859174e-13 1.737487920466102009e-13
9.770000000000000000e+02 1.654348945617675781e+01 2.960458755493164062e+01 9.552510963229537966e-14 6.357016692562500459e-13 2.193680350218163433e-13 3.377163999840337993e-13
9.780000000000000000e+02 4.108871841430664062e+01 8.085413932800292969e+00 3.319824070594640242e-13 7.370405284354286657e-13 3.207068670959406509e-13 3.598981464410233588e-13
9.790000000000000000e+02 4.081510543823242188e+01 8.987450599670410156e+00 2.736617627386445095e-13 6.662949814280338945e-13 2.819870259605089524e-13 5.235284861876410289e-13
9.800000000000000000e+02 3.038637733459472656e+01 3.676698303222656250e+01 -2.434654413567115955e-14 1.268186131195975230e-13 3.074162086458449850e-14 -5.946190263263206877e-14
9.810000000000000000e+02 3.650847244262695312e+01 1.131835103034973145e+00 7.633289616712501946e-13 5.101447693098282166e-13 3.820421355573561106e-13 6.133332231851584826e-13
9.820000000000000000e+02 3.456308364868164062e+01 -4.346631467342376709e-01 1.261729761468932676e-12 8.152470126927824356e-13 6.230929943014384964e-13 4.554518112480365755e-13
9.830000000000000000e+02 3.964655685424804688e+01 5.342972755432128906e+00 3.633191295558668710e-13 7.962214871801154281e-13 3.478621741787729649e-13 6.558400740888647995e-13
9.840000000000000000e+02 3.225377273559570312e+01 -1.553095102310180664e+00 9.510545562890770910e-13 4.990966949620923021e-13 4.350453916383834052e-13 3.465583126461418972e-13
9.850000000000000000e+02 3.390806198120117188e+01 -8.794520497322082520e-01 9.136079479749037446e-13 7.632726915784981969e-13 5.030641701819771328e-13 3.957048176541494433e-13
9.860000000000000000e+02 3.808763504028320312e+01 3.701283693313598633e+00 5.523473388738264767e-13 1.426244972818624390e-12 5.935777043497569849e-13 8.191452073938454426e-13
9.870000000000000000e+02 4.112929153442382812e+01 1.063657283782958984e+01 2.121406484723378782e-13 5.484269180282275169e-13 2.281702658844114717e-13 3.241326478053974114e-13
9.880000000000000000e+02 1.628526687622070312e+01 2.883183670043945312e+01 1.253467273552855143e-13 8.314861386221616968e-13 2.870498706352558882e-13 2.578022701999610478e-13
9.890000000000000000e+02 4.190575790405273438e+01 1.754313850402832031e+01 -4.724163632984987315e-14 2.542592872356586042e-13 6.210528917310539909e-14 1.143544216567968230e-13
9.900000000000000000e+02 4.187410354614257812e+01 1.672346115112304688e+01 4.450877939322396559e-14 3.850827805500917078e-13 1.288774723875660277e-13 6.326507378954029925e-14
9.910000000000000000e+02 3.795262527465820312e+01 2.782233476638793945e+00 7.109467094895682848e-13 1.128208529203866828e-12 5.517465824500522587e-13 7.142325468036114788e-13
9.920000000000000000e+02 3.002734947204589844e+01 -1.870676994323730469e+00 9.687430978927435987e-13 3.236737321308386095e-13 3.877250625596018185e-13 3.830644026807383806e-13
9.930000000000000000e+02 4.135994720458984375e+01 1.466221237182617188e+01 2.588805092604978819e-13 2.939525792916564129e-13 1.658499184341299948e-13 9.450447558843541596e-14
9.940000000000000000e+02 1.732621002197265625e+01 3.095769500732421875e+01 1.257106398144802739e-13 1.911288374746231145e-13 9.505184183147830090e-14 1.288400809651424339e-13
9.950000000000000000e+02 1.686778831481933594e+01 3.107373809814453125e+01 -1.492396701011089455e-13 7.329298843186671242e-14 -2.278400551721220663e-14 2.745714625714684720e-13
9.960000000000000000e+02 3.031628608703613281e+01 3.719688796997070312e+01 8.710551404516111984e-14 1.445546088971010057e-14 3.046829349690090283e-14 -1.819930653661899767e-13
9.970000000000000000e+02 3.003535461425781250e+01 3.683224105834960938e+01 -1.294418131708718889e-14 1.774562891380601637e-13 4.935363166866553464e-14 -1.293541689777535919e-13
9.980000000000000000e+02 4.026369476318359375e+01 3.204502105712890625e+01 -5.894094348875278389e-14 7.067547502098703305e-13 1.943441474373461264e-13 -1.984382439184501079e-13
9.990000000000000000e+02 4.024282836914062500e+01 3.311605453491210938e+01 1.513635001842636441e-13 6.138814500136757779e-13 2.295734945461508358e-13 -1.825715651522421407e-14
1.000000000000000000e+03 4.147496414184570312e+01 2.843048858642578125e+01 4.960335731030683648e-14 7.990246918970766998e-13 2.545884239101708912e-13 -1.534826546455494989e-13
1.001000000000000000e+03 4.168556213378906250e+01 2.938039588928222656e+01 2.803506125165222684e-13 1.218173023391500021e-12 4.495570853513958243e-13 -1.909002741041360141e-13
1.002000000000000000e+03 1.559885597229003906e+01 1.546232604980468750e+01 -7.178442952907038155e-14 4.724956862399432023e-13 1.202133824342727086e-13 -9.114796862153690116e-14
1.003000000000000000e+03 3.820872497558593750e+01 3.135189771652221680e+00 5.802379518700384597e-13 1.072190513456972027e-12 4.957285124930488340e-13 6.593037205591956162e-13
1.004000000000000000e+03 3.288835144042968750e+01 3.705786895751953125e+01 8.377010158678102614e-14 -5.131098996212501984e-13 -1.288019441537252563e-13 4.341107551555922761e-14
1.005000000000000000e+03 3.144607162475585938e+01 3.733710098266601562e+01 -8.637953057639893156e-15 -1.867057805018598748e-13 -5.860311964433345677e-14 -1.847273317656401154e-14
1.006000000000000000e+03 2.140826034545898438e+01 1.941506743431091309e+00 1.863052491142894174e-13 2.857243792692837348e-13 1.416088925808300925e-13 -1.565443200314206324e-15
1.007000000000000000e+03 3.263397216796875000e+01 -1.919837236404418945e+00 5.328940413940053134e-13 6.825483646159813400e-14 1.803446579356701718e-13 2.985242803822674151e-13
1.008000000000000000e+03 3.984307479858398438e+01 5.727058887481689453e+00 4.532661951935773592e-13 9.262720798708379277e-13 4.138614906508408797e-13 4.730191390488192038e-13
1.009000000000000000e+03 3.845651245117187500e+01 3.493506193161010742e+00 7.639265196986155804e-13 1.059412215072275121e-12 5.470016258522780728e-13 4.870746818028126590e-13
1.010000000000000000e+03 2.446813774108886719e+01 3.699997711181640625e+01 7.055616399291586571e-14 7.362880480820104684e-15 2.337571224097795969e-14 1.578493873154521165e-13
1.011000000000000000e+03 3.762351226806640625e+01 3.492293548583984375e+01 2.215548165936109815e-13 -4.230078134016650171e-14 5.377621091484652283e-14 -5.923035092990705519e-14
1.012000000000000000e+03 3.722131729125976562e+01 3.531073379516601562e+01 7.647407148725707260e-14 2.157783907065155549e-13 8.767573662525271483e-14 -1.440633501164842456e-13
1.013000000000000000e+03 4.193704605102539062e+01 2.768057250976562500e+01 1.441585701722827850e-13 9.768012136993076133e-13 3.362879365167298351e-13 -1.272362206913846272e-13
1.014000000000000000e+03 3.711695098876953125e+01 1.756779551506042480e+00 6.355021218464040889e-13 1.095875126755352369e-12 5.194131800015377998e-13 7.886393903373811742e-13
1.015000000000000000e+03 3.338300323486328125e+01 -3.308674335479736328e+00 -2.437252263616344894e-14 2.640603393496560036e-13 7.190634128710279849e-14 1.584594407728553977e-13
1.016000000000000000e+03 1.527371120452880859e+01 2.606076240539550781e+01 2.997108583448898633e-13 1.272221260631423156e-12 4.715796438244101996e-13 7.532595559670354768e-14
1.017000000000000000e+03 1.518017101287841797e+01 2.563949012756347656e+01 1.115952897581470871e-13 6.425889009266383400e-13 2.262552531396774813e-13 3.257932118527762100e-13
1.018000000000000000e+03 3.396348190307617188e+01 3.740143966674804688e+01 5.436131755788727038e-14 -2.245324084537529685e-14 9.572422674940413156e-15 -7.354224651132112989e-14
1.019000000000000000e+03 3.476672744750976562e+01 3.658364105224609375e+01 2.280024855982193399e-13 5.196440066440599637e-14 8.399006587878760088e-14 -9.336525693195985021e-14
1.020000000000000000e+03 4.108930587768554688e+01 3.147710990905761719e+01 9.434728660221575192e-14 6.809478111588496141e-13 2.325885252625614630e-13 -3.001277882903191641e-13
1.021000000000000000e+03 4.063801956176757812e+01 3.126154708862304688e+01 1.734275226141120119e-14 7.394477825189982312e-13 2.270371661939468710e-13 -2.346017260665411719e-13
1.022000000000000000e+03 3.078270530700683594e+01 -1.910068035125732422e+00 9.884872868154426229e-13 4.236374163794909276e-13 4.236374163794909276e-13 1.843532921805279834e-13
1.023000000000000000e+03 3.200076675415039062e+01 -3.575394153594970703e+00 -1.426542532104863037e-13 -6.113753709020841587e-14 -6.113753709020841587e-14 3.436259523453832898e-13
1.024000000000000000e+03 4.176145935058593750e+01 1.508321475982666016e+01 1.581053572839805771e-14 4.642854568685794714e-13 1.440287911722362701e-13 -2.991026480311798075e-14
1.025000000000000000e+03 2.372834968566894531e+01 3.795326995849609375e+01 -8.356900241257569917e-14 -1.293981316817819846e-14 -2.895264662240194797e-14 1.153823130789488616e-13
1.026000000000000000e+03 2.310667228698730469e+01 3.734272384643554688e+01 1.807907664720664886e-13 2.147346021700094476e-13 1.186576200793917901e-13 -1.031882031535778788e-13
1.027000000000000000e+03 3.489336776733398438e+01 -2.086984664201736450e-01 8.474485761571226572e-13 9.122035809008832707e-13 5.278956525384126408e-13 6.999476410800287152e-13
1.028000000000000000e+03 3.746125411987304688e+01 1.468044638633728027e+00 4.681815915855147558e-13 9.326644274595952133e-13 4.202538111345438532e-13 6.051856064892557896e-13
1.029000000000000000e+03 3.209398269653320312e+01 -2.765370130538940430e+00 3.740713251307314913e-13 3.433200718074708169e-13 2.152174245024715549e-13 1.100606083592574336e-13
1.030000000000000000e+03 3.269451904296875000e+01 -3.257876157760620117e+00 1.239342694225528674e-13 2.818694171298485873e-13 1.217411046104677208e-13 2.851402924539114814e-13
1.031000000000000000e+03 1.451047515869140625e+01 2.323972511291503906e+01 1.145224865460592323e-13 1.055601894957292064e-12 3.510373144510053889e-13 -1.392303698548313928e-13
1.032000000000000000e+03 2.063480186462402344e+01 2.183218479156494141e+00 1.944316696577200188e-13 2.663316615858501990e-13 1.382290007283237809e-13 8.089527176379993079e-14
1.033000000000000000e+03 3.587089920043945312e+01 5.540423989295959473e-01 9.340471104901659771e-13 6.748116063333420289e-13 4.826575879419980897e-13 6.288908738390219799e-13
1.034000000000000000e+03 3.919685363769531250e+01 3.354448318481445312e+01 2.167523091892685494e-14 4.146141980090889412e-13 1.308868242738334131e-13 -1.606902951629615717e-13
1.035000000000000000e+03 3.979182052612304688e+01 3.280856704711914062e+01 2.148435204426309836e-14 6.497208370273566125e-13 2.013615646835956174e-13 -1.759050939848308404e-13
1.036000000000000000e+03 4.161526489257812500e+01 1.385436725616455078e+01 -6.068532081098768505e-16 -9.176197941686975446e-14 -2.771064898810654542e-14 -3.469820324076763884e-14
1.037000000000000000e+03 4.182619476318359375e+01 1.590996837615966797e+01 2.714952523593435613e-14 3.776430936627134249e-13 1.214377855001877449e-13 1.389926720810411021e-13
1.038000000000000000e+03 4.122976684570312500e+01 3.104665946960449219e+01 -4.065224516063871418e-15 2.727634470286316448e-13 8.060946929486917378e-14 -3.263700616186471226e-13
1.039000000000000000e+03 4.069128799438476562e+01 3.341716003417968750e+01 2.032483000804184703e-14 -8.279125676040680060e-14 -1.873992802570948607e-14 -1.440448644694433677e-13
1.040000000000000000e+03 2.060948181152343750e+01 3.548419570922851562e+01 -2.404473443810319078e-14 -1.475577337184050264e-13 -5.148074146339200186e-14 -1.300343703157166853e-13
1.041000000000000000e+03 4.000929641723632812e+01 3.356001281738281250e+01 2.043067185699895538e-14 2.375107489155370288e-13 7.738242284362900625e-14 -1.934770431973736882e-13
1.042000000000000000e+03 3.828990936279296875e+01 3.486637115478515625e+01 2.522043988581468277e-14 -1.264440890316395616e-13 -3.036709338849474804e-14 -1.299112320539766441e-13
1.043000000000000000e+03 2.215734100341796875e+01 3.619466400146484375e+01 1.019107012862653650e-13 -2.074934682757970453e-15 2.995072926107421318e-14 1.338295200706144175e-14
1.044000000000000000e+03 3.874254989624023438e+01 3.434060287475585938e+01 -1.036446861495121663e-13 4.708274650147212248e-14 -1.696858223322519205e-14 6.985997744917218921e-14
1.045000000000000000e+03 3.848616790771484375e+01 3.456813049316406250e+01 2.534275144339820374e-13 2.916155815088639081e-13 1.635129342038646461e-13 -4.686403920635927312e-14
1.046000000000000000e+03 4.190029144287109375e+01 2.810514068603515625e+01 3.649675657855068825e-15 7.335793214199859413e-13 2.211687050949345812e-13 -3.678762210222036311e-13
1.047000000000000000e+03 4.184693908691406250e+01 2.853128242492675781e+01 2.139367513438045210e-13 6.406985402288012388e-13 2.563905847612762967e-13 -2.519143070143711749e-14
1.048000000000000000e+03 2.883257293701171875e+01 3.759829330444335938e+01 1.135955072411112821e-13 -4.281810840676796015e-14 2.123321863386345987e-14 -1.461661737825470375e-13
1.049000000000000000e+03 2.942087554931640625e+01 3.774970626831054688e+01 -6.560447036963942824e-14 6.338569805749288966e-14 -6.656323183307601751e-16 -9.540387253600545077e-16
1.050000000000000000e+03 2.031287956237792969e+01 1.549995422363281250e+00 4.242505801418765266e-14 -5.044425435089122667e-14 -2.405759705692372095e-15 1.611286381012974611e-14
1.051000000000000000e+03 1.839949798583984375e+01 1.403949379920959473e+00 -5.624054485466566111e-14 6.739880463631220398e-14 3.347479077988441652e-15 -2.938389481277163540e-14
1.052000000000000000e+03 3.477889251708984375e+01 -4.120868682861328125e+00 -3.231456443576752324e-13 3.190184932628375991e-13 -1.238142257956856198e-15 1.216247019547242458e-13
1.053000000000000000e+03 7.831311035156250000e+01 -1.085032367706298828e+01 1.363427345877537070e-14 -8.565863946971563614e-14 -2.160730904095242710e-14 -7.488676562542040394e-14
1.054000000000000000e+03 7.664904022216796875e+01 -9.826683044433593750e+00 -6.744550664489201708e-14 -2.004712720696591455e-13 -8.037503768012349559e-14 4.248805354854084948e-15
1.055000000000000000e+03 2.754206085205078125e+01 3.761783218383789062e+01 -6.832336481516279592e-14 1.646950703257116927e-14 -1.555615648774454074e-14 1.272206623902094602e-13
1.056000000000000000e+03 1.706364822387695312e+01 1.478697299957275391e+00 7.657582386114483719e-14 2.615729627255397594e-13 1.014446298773681587e-13 8.805078926176976295e-14
1.057000000000000000e+03 2.010333061218261719e+01 3.456003665924072266e+00 9.468995547509337363e-14 8.633235592343455056e-14 5.430669409718473506e-14 6.293191201446265981e-14
1.058000000000000000e+03 3.335763549804687500e+01 -3.851262331008911133e+00 -1.585165782273453838e-13 2.523209776967433315e-13 2.814131441980852189e-14 2.125082472189190885e-13
1.059000000000000000e+03 3.388196182250976562e+01 -1.404947042465209961e+00 1.001782099115111624e-12 6.123389555828806508e-13 4.842362947253542327e-13 3.243500845510893793e-13
1.060000000000000000e+03 3.140331983566284180e+00 2.677028894424438477e+00 3.913952224387368117e-14 1.082759777020284031e-13 4.422465066139698309e-14 1.114916688295776795e-14
1.061000000000000000e+03 5.320664405822753906e+00 2.644647359848022461e+00 -8.252345882380288100e-14 1.038375318346794474e-14 -2.164191033684776527e-14 8.621034929771204114e-14
1.062000000000000000e+03 2.596673727035522461e+00 7.709375858306884766e+00 6.331727981821137080e-15 -8.878829746081229324e-14 -2.473697211424676773e-14 -4.825868911840884568e-14
1.063000000000000000e+03 6.002702713012695312e+00 3.380886316299438477e+00 -1.492875105219698684e-13 -1.326067890477372613e-13 -8.456829122616485450e-14 7.875973229718238877e-14
1.064000000000000000e+03 6.050555706024169922e+00 2.616400241851806641e+00 -6.941388246530302841e-14 6.175308609737348298e-14 -2.298239037433805719e-15 1.963320558375208219e-14
1.065000000000000000e+03 9.004425048828125000e+00 3.139142036437988281e+00 5.006658014740242649e-15 2.145710426489934840e-15 2.145710426489934840e-15 -2.505978145264306511e-14
1.066000000000000000e+03 7.500417232513427734e+00 3.264189720153808594e+00 -4.049797674402118297e-14 2.839467213872765017e-14 -3.630991381588059841e-15 -1.201147522238285234e-14
1.067000000000000000e+03 6.751092910766601562e+00 3.322188377380371094e+00 -4.296312383546968539e-14 7.308913131838512545e-14 9.037801736654863666e-15 2.347724946849712169e-14
1.068000000000000000e+03 5.259276866912841797e+00 3.436723470687866211e+00 -8.991296070312224109e-14 -1.071605505069753161e-13 -5.912205268540290937e-14 8.138833303052844803e-14
1.069000000000000000e+03 3.867280721664428711e+00 2.685616493225097656e+00 -1.204229451616870006e-14 -1.652893045957920526e-13 -5.319947973358822579e-14 7.722168987155803022e-14
1.070000000000000000e+03 1.635645985603332520e+00 2.535991907119750977e+00 1.106707244970988116e-14 4.743030868368603228e-15 4.743030868368603228e-15 -1.783111249528245706e-14
1.071000000000000000e+03 1.969253540039062500e+01 1.455075621604919434e+00 7.424818409835359789e-14 4.893301475822342539e-13 1.690734954384182087e-13 -1.023991750225515529e-13
1.072000000000000000e+03 1.950358009338378906e+01 3.795726060867309570e+00 2.072643407813670735e-13 4.090842248283266258e-13 1.849045683276553942e-13 -7.067135369747887252e-14
1.073000000000000000e+03 1.129130744934082031e+01 2.235759973526000977e+00 -1.125172952856287600e-13 -4.822169749553635587e-14 -4.822169749553635587e-14 -2.001332347729371103e-14
1.074000000000000000e+03 1.131104278564453125e+01 2.856688022613525391e+00 -8.923927135445763881e-14 -1.297473006854968358e-13 -6.569597025673362678e-14 -1.152122153106130420e-13
1.075000000000000000e+03 3.137744140625000000e+01 -2.424414634704589844e+00 5.365540368777732549e-13 3.672045577763488611e-13 2.711275756857312036e-13 2.008501736238885171e-13
1.076000000000000000e+03 3.132548141479492188e+01 -3.294621706008911133e+00 5.202297807490631476e-14 -2.345538585406259369e-14 8.570277666253116322e-15 2.021263473435397362e-13
1.077000000000000000e+03 1.428318214416503906e+01 2.405769586563110352e+00 -1.744579720757647584e-14 1.297760727006491699e-13 3.369908383376793437e-14 -2.085443058204902028e-14
1.078000000000000000e+03 1.703180503845214844e+01 2.050418615341186523e+00 -4.842974911617274614e-14 -6.650655368220168007e-14 -3.448089185595186457e-14 -1.645533786542949933e-14
1.079000000000000000e+03 1.355916404724121094e+01 2.515029907226562500e+00 -2.871509792641037395e-14 1.249463721505680858e-13 2.886938328368685025e-14 4.775245479528462955e-14
1.080000000000000000e+03 3.898824691772460938e+01 -4.588392257690429688e+00 -3.028470486540757456e-13 5.321220555658777440e-14 -7.489045191280685465e-14 -2.616011790870786946e-13
1.081000000000000000e+03 3.961046600341796875e+01 -3.734052896499633789e+00 -1.483984376354774426e-13 1.194044727459084299e-13 -8.698189805683882725e-15 -3.860765873664462333e-13
1.082000000000000000e+03 4.019908142089843750e+01 -3.347289800643920898e+00 -2.002856837627839393e-13 5.141612640204365481e-14 -4.466086924110115874e-14 -3.892037516925461738e-13
1.083000000000000000e+03 3.492154312133789062e+01 -3.073394536972045898e+00 2.059933813965391519e-14 1.460811316746427058e-13 5.000414280776147025e-14 -7.867618943759469713e-15
1.084000000000000000e+03 3.620527267456054688e+01 -4.343820095062255859e+00 -4.506599086961937672e-13 8.136573419149570330e-14 -1.107882503185303458e-13 4.407602009607637650e-14
1.085000000000000000e+03 4.133009338378906250e+01 -2.813919067382812500e+00 -2.704104843688492910e-13 -1.387656808037041056e-13 -1.227528414202497253e-13 -2.927173477565436777e-13
1.086000000000000000e+03 7.387752532958984375e+01 -1.081938838958740234e+01 -5.481539498025135571e-14 -2.522470622136341323e-13 -9.211873614172610969e-14 -4.050273706918475214e-14
1.087000000000000000e+03 7.228274536132812500e+01 -1.100648975372314453e+01 1.032270853539886402e-13 -1.387636208195763832e-13 -1.066095911501701785e-14 1.211638808795505954e-16
1.088000000000000000e+03 7.005829620361328125e+01 -1.140707302093505859e+01 -2.102654598286519960e-14 1.739924122747676938e-13 4.588976158163664276e-14 3.950921485590050408e-14
1.089000000000000000e+03 7.295459747314453125e+01 -1.014943122863769531e+01 1.035145954413410618e-13 -1.157649280256189961e-13 -3.675098081217485768e-15 -2.871295323898792606e-14
1.090000000000000000e+03 7.465225219726562500e+01 -9.909699440002441406e+00 -4.120321298777332442e-14 -1.765851936788402632e-14 -1.765851936788402632e-14 -2.898977038241420945e-14
1.091000000000000000e+03 6.889710998535156250e+01 -1.157540893554687500e+01 9.096273268036775272e-14 -5.251786893280090129e-14 1.153345895486346598e-14 6.807279277584895021e-16
1.092000000000000000e+03 1.207153987884521484e+01 2.742319583892822266e+00 -1.318080030971585659e-13 -1.937419951032748333e-13 -9.766499946013001976e-14 4.105381924576724170e-15
1.093000000000000000e+03 1.282175445556640625e+01 2.627263307571411133e+00 -9.380612911067624099e-15 3.162363762781311705e-13 9.205672655372351687e-14 -1.198077688490187254e-13
1.094000000000000000e+03 3.421657943725585938e+01 3.657193374633789062e+01 1.560281580586381223e-13 1.354956321837977318e-13 8.745714113848890303e-14 -4.257888258554082261e-14
1.095000000000000000e+03 3.082274627685546875e+01 3.738673400878906250e+01 8.005098320329473438e-14 -1.486962273146777425e-13 -2.059357492748079693e-14 5.351013753732321299e-15
1.096000000000000000e+03 4.060417175292968750e+01 -4.497104167938232422e+00 -1.324784330630421336e-13 -1.025274158107658540e-13 -7.050175737264782749e-14 -3.630674862316329854e-13
1.097000000000000000e+03 4.048154067993164062e+01 -2.664544820785522461e+00 -2.865169310573706385e-13 -9.991749723610443557e-14 -1.159303366195588159e-13 -4.248365981923685197e-13
1.098000000000000000e+03 7.215809631347656250e+01 -1.023641204833984375e+01 4.241321310545324852e-14 -1.877021758509012095e-13 -4.358668916244756719e-14 1.464765402069481692e-13
1.099000000000000000e+03 1.057375240325927734e+01 3.599088907241821289e+00 -3.359124637518709489e-14 -1.974000390231323010e-13 -6.929738494186946096e-14 9.301344687951546009e-14
1.100000000000000000e+03 5.201977157592773438e+01 2.153782606124877930e+00 -1.635088142356092011e-13 -1.615771047774189340e-13 -9.752578112491930296e-14 -9.314994115676780706e-14
1.101000000000000000e+03 6.609116363525390625e+01 -2.135745048522949219e+00 5.240949953752918611e-14 1.102347651094764958e-14 1.902989281454305071e-14 3.444505219788764061e-14
1.102000000000000000e+03 6.742561340332031250e+01 -5.776105880737304688e+00 -1.104975761396034557e-15 2.240191403690347527e-14 6.389081429712673010e-15 2.498511380427670403e-14
1.103000000000000000e+03 5.380056500434875488e-01 3.562543392181396484e+00 -5.422641909070755051e-14 -6.899084033012634065e-14 -3.696517850387652515e-14 -3.620038567953703934e-14
1.104000000000000000e+03 6.891718292236328125e+01 -8.151551246643066406e+00 -2.862225633912772460e-14 1.060879374392741450e-14 -5.404038863263387754e-15 1.086933548808538541e-13
1.105000000000000000e+03 4.827898406982421875e+01 3.057499408721923828e+00 -3.103662888758601524e-13 -1.330141238039400653e-13 -1.330141238039400653e-13 -1.698896692813381404e-13
1.106000000000000000e+03 4.673595428466796875e+01 3.412678956985473633e+00 -1.108711782321983308e-13 -1.847690701611490183e-13 -8.869207451800420472e-14 -1.791773652191908095e-13
1.107000000000000000e+03 7.821829986572265625e+01 -2.351171731948852539e+00 -2.654464647221244089e-13 -2.510156253861250963e-13 -1.549386161904531267e-13 -7.029750723587871453e-14
1.108000000000000000e+03 7.566465759277343750e+01 3.630314588546752930e+00 1.917962316744237228e-13 -1.694318378089518240e-13 6.709318329048159085e-15 -8.127988570822558545e-14
1.109000000000000000e+03 7.573886108398437500e+01 1.043739128112792969e+01 -4.468307505684637748e-14 -1.792782095737591175e-13 -6.718838809968707970e-14 2.254381577249109370e-14
1.110000000000000000e+03 7.696596527099609375e+01 1.028270053863525391e+01 8.821369063818570999e-14 -7.657150738124562928e-14 3.492656078224855645e-15 -9.859395065777917799e-14
1.111000000000000000e+03 7.559672546386718750e+01 1.712715911865234375e+01 5.178303735787169459e-15 -2.036599919741019504e-13 -5.954450528564830813e-14 -7.626278758889395992e-14
1.112000000000000000e+03 7.688532257080078125e+01 1.570952224731445312e+01 6.381447291165659452e-14 -1.556547317253798024e-13 -2.755207764411696236e-14 -3.503091439431733900e-14
1.113000000000000000e+03 7.520331573486328125e+01 2.694167518615722656e+01 -6.236734083819514551e-15 -3.686804821937533783e-13 -1.124751604787005421e-13 -1.113710767488770847e-14
1.114000000000000000e+03 7.673490142822265625e+01 2.123210144042968750e+01 2.125606650058269737e-14 -2.653959409008865844e-13 -7.324196316712411337e-14 3.287091346321604005e-15
1.115000000000000000e+03 7.447633361816406250e+01 2.975746726989746094e+01 -2.860678612937907206e-14 -2.638902822389016523e-13 -8.774911678353924938e-14 -2.330016198428055962e-14
1.116000000000000000e+03 7.637206268310546875e+01 2.830743598937988281e+01 1.499400782570617374e-14 -3.481438499031846989e-13 -9.994495465612263096e-14 5.301779794266575641e-14
1.117000000000000000e+03 7.512701416015625000e+01 4.005979919433593750e+01 -1.093849962458025640e-14 -3.249445797073174935e-13 -1.007649232066462619e-13 -5.204408444188599742e-15
1.118000000000000000e+03 7.666733551025390625e+01 3.613447189331054688e+01 1.499865973065249436e-14 -2.852342927822659746e-13 -8.107069567530808540e-14 -1.091578304796784332e-14
1.119000000000000000e+03 7.605867767333984375e+01 3.499932479858398438e+01 -8.565817190752875177e-14 -2.997785938756158952e-13 -1.156310290573170363e-13 3.949899963855661722e-14
1.120000000000000000e+03 7.652841949462890625e+01 2.690172576904296875e+01 -1.474283206365917254e-14 -3.036995297172467856e-13 -9.553270582376635622e-14 5.843443133882186835e-14
1.121000000000000000e+03 7.677846527099609375e+01 1.982641029357910156e+01 -5.174938304481138673e-14 -2.509330633906903252e-13 -9.080473054251872456e-14 1.662156977539405028e-14
1.122000000000000000e+03 7.693269348144531250e+01 1.299744892120361328e+01 1.361104425782327931e-13 -5.604432459023651891e-14 2.401983675165159787e-14 -6.501807962465064317e-14
1.123000000000000000e+03 7.818125915527343750e+01 1.010022449493408203e+01 -1.581675464429679878e-13 -2.965408409279224333e-13 -1.364125148560144107e-13 1.032420202389146280e-13
1.124000000000000000e+03 7.697687530517578125e+01 7.561973094940185547e+00 1.031360055952362798e-13 -1.549802736943155668e-15 3.047586258331756726e-14 -8.983690392072238295e-14
1.125000000000000000e+03 7.699249267578125000e+01 6.701462864875793457e-01 3.623672542585332224e-13 -1.192054403320944034e-13 7.294854417793164569e-14 -4.492260580993452657e-14
1.126000000000000000e+03 7.563973236083984375e+01 -9.723752975463867188e+00 -8.800199677587612623e-15 1.910396076358275574e-14 3.091128368150190299e-15 3.161567416285621102e-14
1.127000000000000000e+03 7.691744232177734375e+01 -5.984462261199951172e+00 -1.277505119919031262e-13 -1.462521239097708259e-13 -8.220079348100761685e-14 -1.220835634191744234e-13
1.128000000000000000e+03 7.377525329589843750e+01 -1.005051898956298828e+01 -2.301619588277944994e-14 -1.013659845622814915e-13 -3.731465413351828242e-14 4.560354914875941468e-14
1.129000000000000000e+03 7.795263671875000000e+01 3.683024215698242188e+01 1.870024622619651661e-14 -4.266196228751295560e-13 -1.223758101147678912e-13 1.951096009473844706e-14
1.130000000000000000e+03 7.702090454101562500e+01 -3.439599037170410156e+00 -9.110977760001109926e-14 -2.449263123045775092e-13 -1.008108256161238669e-13 -5.595106965087560946e-14
1.131000000000000000e+03 7.700656890869140625e+01 -4.734005451202392578e+00 1.984815577952409038e-13 -1.436912248258329083e-13 1.643709955200921974e-14 1.271611939010486303e-13
1.132000000000000000e+03 7.694141387939453125e+01 3.405722618103027344e+00 1.070209255959499173e-13 -1.142622102620269309e-13 -2.172385188064867266e-15 -1.460224221270026157e-13
1.133000000000000000e+03 7.695994567871093750e+01 2.042065858840942383e+00 3.901569822425954293e-13 -6.154460079586809851e-14 9.858371849977634604e-14 -1.236791702038941843e-13
1.134000000000000000e+03 7.697482299804687500e+01 8.929306983947753906e+00 -1.289372254797971351e-13 -2.611380892341558235e-13 -1.170225889931750252e-13 2.490876394847709591e-14
1.135000000000000000e+03 7.798300170898437500e+01 2.394636726379394531e+01 -3.975493657280013485e-15 -2.990849484307139816e-13 -9.091813131349713029e-14 1.695835007522236010e-14
1.136000000000000000e+03 7.668705749511718750e+01 2.264729309082031250e+01 -4.899009190396756697e-14 -3.412523898443237114e-13 -1.170727468961796358e-13 2.251169967126299964e-14
1.137000000000000000e+03 7.778240966796875000e+01 3.094531631469726562e+01 -1.117025969741029454e-14 -2.106665265410451182e-13 -6.655103307632789789e-14 4.084116400106252431e-14
1.138000000000000000e+03 7.620769500732421875e+01 2.973918342590332031e+01 -2.988450144899429395e-14 -2.186869121120066373e-13 -7.457142542355299497e-14 2.913448765551850117e-14
1.139000000000000000e+03 7.632368469238281250e+01 3.361334228515625000e+01 8.633019090722136857e-15 -3.394322583422093587e-13 -9.923976923434732478e-14 8.555444425280799015e-15
1.140000000000000000e+03 7.434118652343750000e+01 3.485496902465820312e+01 1.153455374494779216e-15 -2.625736271206352557e-13 -7.842604874980924068e-14 -4.837423372977675204e-15
1.141000000000000000e+03 7.663677215576171875e+01 2.406550216674804688e+01 2.556645284476806446e-14 -3.779260162196235173e-13 -1.057078686736434570e-13 5.933877792341918367e-14
1.142000000000000000e+03 7.659226226806640625e+01 2.548202323913574219e+01 -2.975493759531638166e-15 -3.901582832852024119e-13 -1.179401357392223515e-13 2.245162809464372466e-14
1.143000000000000000e+03 7.681911468505859375e+01 1.843495178222656250e+01 2.320143690614628190e-14 -2.188112701011907246e-13 -5.868295080554628007e-14 -3.412069956546144589e-14
1.144000000000000000e+03 7.691136169433593750e+01 1.435446071624755859e+01 -5.185506903970620030e-14 -2.967293023705547261e-13 -1.045753110842650990e-13 6.739716478052631965e-14
1.145000000000000000e+03 7.695120239257812500e+01 1.163803863525390625e+01 -5.642312111238043104e-14 -1.385587066089766228e-13 -5.849455034928618957e-14 5.394836527917827584e-14
1.146000000000000000e+03 7.696703338623046875e+01 6.178518772125244141e+00 -6.999120656962440346e-14 -1.214981349036137193e-13 -5.744679769858693219e-14 -8.544012868624654977e-15
1.147000000000000000e+03 7.694876098632812500e+01 4.786066055297851562e+00 1.285018369923812687e-13 -1.050561005376537960e-13 7.033721359934715436e-15 -1.139774987715322374e-13
1.148000000000000000e+03 7.701294708251953125e+01 -7.209389805793762207e-01 3.620819464568436619e-13 -3.023315105210588882e-13 1.792513145836178989e-14 4.638875885525951814e-14
1.149000000000000000e+03 7.581195831298828125e+01 -3.191920757293701172e+00 1.131112280119798974e-13 2.725293144165163474e-15 3.475095645272263667e-14 1.316277273809285386e-13
1.150000000000000000e+03 4.795892238616943359e+00 3.364149475097656250e+01 -1.576878547442789325e-14 -9.825994862601786228e-14 -3.420862158538644227e-14 -6.799880211856568213e-14
1.151000000000000000e+03 3.504043579101562500e+00 3.399654388427734375e+01 -2.195793155320476669e-14 -1.695388621159032994e-13 -5.744904064183126158e-14 -8.185978818083840258e-15
1.152000000000000000e+03 2.971934318542480469e+00 2.997480010986328125e+01 -5.312299689361589874e-15 -1.852804883259104307e-13 -5.717784102091116871e-14 -5.580773981773892028e-15
1.153000000000000000e+03 4.914476871490478516e+00 2.696804428100585938e+01 -2.720920887146378864e-14 -1.489139351109128317e-13 -5.283694285589980721e-14 -5.715815597521697877e-14
1.154000000000000000e+03 1.753687381744384766e+00 2.881359291076660156e+01 -2.073779583927799763e-14 -2.605178442763311786e-13 -8.437669237349593176e-14 -5.832414764908935845e-14
1.155000000000000000e+03 2.424824714660644531e+00 3.579812240600585938e+01 -3.096453960751109624e-14 -1.733988386903861922e-13 -6.130901044005057643e-14 1.827959441799698048e-14
1.156000000000000000e+03 6.890609264373779297e+00 3.874189376831054688e+01 -2.954397048727554209e-14 -4.697491243102307201e-14 -2.295566521430276313e-14 -4.922509272485380005e-14
1.157000000000000000e+03 2.160302877426147461e+00 3.434975433349609375e+01 -3.014675386089253964e-15 -2.986731684456039870e-13 -9.050635132838713570e-14 -5.291212888842988793e-14
1.158000000000000000e+03 4.812288761138916016e+00 3.639339065551757812e+01 -3.282635190689393856e-14 -1.284458108451180802e-13 -4.838164780916406893e-14 -3.309029414952195658e-14
1.159000000000000000e+03 3.269582033157348633e+00 3.264905548095703125e+01 2.110589094716629893e-14 -2.425848421878235017e-13 -6.644368350872467688e-14 -1.536998881033341258e-14
1.160000000000000000e+03 3.087999105453491211e+00 3.130635070800781250e+01 5.003509339165414238e-14 -2.301866108746913886e-13 -5.404545558372435277e-14 -1.161945295839392212e-13
1.161000000000000000e+03 4.460929870605468750e+00 4.075711822509765625e+01 -1.179260783804297191e-14 -1.423068206243133238e-13 -4.622982836930029926e-14 1.961452808374865124e-15
1.162000000000000000e+03 2.821417093276977539e+00 2.313893699645996094e+01 2.672011849519199955e-14 -2.173032668520077926e-13 -5.717494078009976999e-14 -5.771869527465556260e-14
1.163000000000000000e+03 3.983785867691040039e+00 2.033519172668457031e+01 1.555470975547063039e-14 -2.449639070149084441e-13 -6.882276188833677533e-14 -1.719222984800290212e-15
1.164000000000000000e+03 3.718251705169677734e+00 8.923248291015625000e+00 6.298941454015291250e-15 2.699546307183948134e-15 2.699546307183948134e-15 8.828767557799658411e-15
1.165000000000000000e+03 1.687827348709106445e+00 1.476941776275634766e+01 4.365218174992926969e-14 -3.015485539221984812e-13 -7.736891097405440565e-14 6.106210372405773690e-14
1.166000000000000000e+03 2.833214282989501953e+00 4.336752414703369141e+00 -4.280875038676669464e-14 2.740434154558865631e-14 -4.621322398243527321e-15 8.099903329983858258e-15
1.167000000000000000e+03 4.518486499786376953e+00 3.483309507369995117e+00 -8.836930075499169202e-14 -2.895027696302870934e-13 -1.133616245037154246e-13 8.743946864307738931e-14
1.168000000000000000e+03 2.717363119125366211e+00 1.043464851379394531e+01 -3.003266784025980518e-14 -3.574661996529754360e-14 -1.973378566404084683e-14 -5.588712882775327684e-14
1.169000000000000000e+03 2.806663274765014648e+00 1.468088340759277344e+01 1.650984612965120807e-14 -2.445545664846865419e-13 -6.841341458185129509e-14 -3.567240971472269984e-14
1.170000000000000000e+03 2.863999128341674805e+00 2.034551239013671875e+01 1.182877868598957230e-14 -2.694362202966538167e-13 -7.728222901036418957e-14 4.294048772698726146e-14
1.171000000000000000e+03 2.659941196441650391e+00 9.047972679138183594e+00 -1.785866054782600867e-15 -9.226727183935662380e-14 -2.821593971652752025e-14 3.228869943769016593e-14
1.172000000000000000e+03 2.747372627258300781e+00 1.185101222991943359e+01 -1.095913419420831841e-14 -1.648250898831152278e-13 -5.273526840904319002e-14 7.754023524609784945e-14
1.173000000000000000e+03 2.849628448486328125e+00 1.609571838378906250e+01 5.349043893910186698e-14 -3.202076462056197004e-13 -8.001516387402124453e-14 2.856456323102433970e-14
1.174000000000000000e+03 4.059306621551513672e+00 1.746336555480957031e+01 2.597210031133993791e-14 -1.489974186781942156e-13 -3.690759720412217781e-14 5.806133026621529414e-14
1.175000000000000000e+03 2.838925123214721680e+00 2.174720382690429688e+01 2.336404690322837346e-14 -3.331189490918262663e-13 -9.292647353649138853e-14 -1.582810319172411190e-14
1.176000000000000000e+03 2.883688688278198242e+00 1.751844406127929688e+01 -3.084974970249919346e-14 -4.249798484044081670e-13 -1.367488885800280385e-13 -3.451002597768914985e-15
1.177000000000000000e+03 7.060154724121093750e+01 -1.048728656768798828e+01 -2.783795380491413049e-15 4.455789375163755894e-14 1.253222938428890168e-14 7.962294018559745723e-14
1.178000000000000000e+03 6.275110244750976562e+01 -7.374691963195800781e-01 9.698932466623705340e-14 1.869137948530465859e-14 3.470421378656135536e-14 2.002933239999681730e-14
1.179000000000000000e+03 5.090713882446289062e+01 4.215181350708007812e+00 1.080191556183550047e-14 -1.097479786628212384e-13 -2.968381901499901609e-14 -3.113668380744748221e-14
1.180000000000000000e+03 5.036613845825195312e+01 1.590531587600708008e+00 -1.632941693105113834e-13 -1.729228468316107437e-13 -1.008651034873839225e-13 -9.250312646945368922e-14
1.181000000000000000e+03 5.827033996582031250e+01 7.223161458969116211e-01 3.259169328731839621e-14 5.971881788992966511e-14 2.769315267554806059e-14 -5.174728240310219607e-14
1.182000000000000000e+03 5.006890869140625000e+01 3.249450922012329102e+00 -1.784568993230470357e-13 -1.837103060821354550e-13 -1.086501629768074628e-13 -1.763738758991592603e-13
1.183000000000000000e+03 4.131678390502929688e+01 -1.902709960937500000e+00 -3.666966903737023387e-13 -1.571557283180230469e-13 -1.571557283180230469e-13 -3.070783915776892359e-13
1.184000000000000000e+03 3.713754272460937500e+01 1.136247038841247559e+00 6.094439731520184811e-13 8.759686227245710999e-13 4.456237896049985991e-13 6.449891076960867498e-13
1.185000000000000000e+03 6.044536590576171875e+01 3.609422147274017334e-01 4.625258306239533879e-14 1.799508621540962805e-13 6.786103390376066469e-14 -4.315856482958735363e-14
1.186000000000000000e+03 6.669485473632812500e+01 -3.304616689682006836e+00 1.131906458211144606e-13 2.563480332141380297e-14 4.164763423453871072e-14 3.284005393536519775e-15
1.187000000000000000e+03 4.925681304931640625e+01 3.964504241943359375e+00 -1.351022463661703116e-14 -3.031712522087032236e-13 -9.500444864401352829e-14 -1.303590753138489378e-13
1.188000000000000000e+03 6.252281570434570312e+01 5.938156247138977051e-01 1.034302716173760017e-13 1.358291598771085851e-13 7.177782944834537604e-14 6.851153466670299643e-16
1.189000000000000000e+03 4.175392150878906250e+01 -7.193256020545959473e-01 -5.773180869993177478e-13 -8.729371798977744734e-14 -1.993835462401130632e-13 -3.541559406849970060e-13
1.190000000000000000e+03 4.247237014770507812e+01 2.383457310497760773e-02 -4.317291966635106171e-13 -3.337173744809296405e-13 -2.296339659223212148e-13 -2.257845196614385874e-13
1.191000000000000000e+03 4.037237930297851562e+01 -1.494535803794860840e+00 -3.154296214415847066e-13 1.850725112441733988e-13 -3.910713170397067673e-14 -2.336381684907989920e-13
1.192000000000000000e+03 3.985287094116210938e+01 4.747836589813232422e+00 5.209910194231559544e-13 5.664139947000879083e-13 3.262214988159622964e-13 6.632732557632081694e-13
1.193000000000000000e+03 4.191928863525390625e+01 1.836331176757812500e+01 -1.314296436440154370e-13 -5.632698964913064599e-14 -5.632698964913064599e-14 5.878058998744217778e-14
1.194000000000000000e+03 4.234875869750976562e+01 3.045055389404296875e+01 5.659837222916734578e-14 6.190187793776724678e-13 2.026851451432387652e-13 -1.341659937445158213e-13
1.195000000000000000e+03 4.166958618164062500e+01 1.425950908660888672e+01 2.224606810612497765e-13 2.783440795559033454e-13 1.502414322509040834e-13 1.014735712991099437e-13
1.196000000000000000e+03 4.216123962402343750e+01 1.550792598724365234e+01 -2.577241805384877793e-13 2.555543667306925393e-13 -6.509374084266413354e-16 2.120455910468652116e-13
1.197000000000000000e+03 1.467082500457763672e+01 1.782141876220703125e+01 -1.987083559490659262e-14 9.522539007322805560e-13 2.797149176777397050e-13 2.136641558125873530e-13
1.198000000000000000e+03 1.574146175384521484e+01 1.345241737365722656e+01 -2.928786499347552086e-14 3.077047080676797997e-13 8.352505156700856803e-14 1.067956080557166954e-13
1.199000000000000000e+03 1.892197036743164062e+01 1.950825333595275879e+00 3.311581017002504512e-14 5.994343747501434949e-14 2.791777395469863948e-14 -7.917701460831774729e-14
1.200000000000000000e+03 1.549795913696289062e+01 1.584996891021728516e+01 2.082889524919473434e-13 6.382780588787273501e-13 2.539701034112024081e-13 -8.729222043552670174e-14
1.201000000000000000e+03 1.483818340301513672e+01 1.699602127075195312e+01 -1.427533933347647360e-14 5.428933669802959994e-13 1.585854115127710573e-13 -6.703612545708864667e-14
1.202000000000000000e+03 1.722982406616210938e+01 9.258391380310058594e+00 -4.385056703057159389e-14 2.099616460511308236e-13 4.983332336735459001e-14 -2.522321815388167687e-13
1.203000000000000000e+03 1.551964282989501953e+01 1.423957538604736328e+01 -2.326595879387043098e-14 1.730326765116835253e-13 4.493001226602531817e-14 -8.666484007215438656e-14
1.204000000000000000e+03 1.737564277648925781e+01 8.885622978210449219e+00 -1.044793795207908660e-14 1.327751520925971040e-13 3.669816661384765755e-14 4.509801955704731413e-14
1.205000000000000000e+03 4.135672378540039062e+01 3.062357330322265625e+01 1.005363598361591615e-13 5.920984189056177627e-13 2.077904227805113524e-13 -2.086081416115270759e-13
1.206000000000000000e+03 1.486914539337158203e+01 1.989084625244140625e+01 -1.194954373081799637e-13 8.638066390648235782e-13 2.232933618822458000e-13 1.347112119120044693e-13
1.207000000000000000e+03 1.613428497314453125e+01 1.227143573760986328e+01 8.013364684268317606e-14 4.461015432923043367e-13 1.578705563628698960e-13 -7.594393728249312914e-14
1.208000000000000000e+03 1.866911888122558594e+01 6.745952606201171875e+00 9.102403245476054644e-15 1.411538800340922384e-13 4.507688439094742483e-14 -1.578004491398915521e-13
1.209000000000000000e+03 1.568839550018310547e+01 2.205960273742675781e+00 -4.383350185778326150e-15 3.641290014736592306e-13 1.079237000873971286e-13 -1.122084467442691080e-13
1.210000000000000000e+03 1.951526451110839844e+01 4.911134719848632812e+00 -1.534601608386022137e-14 -1.438297045483136194e-13 -4.775271906956417289e-14 -1.182038679176794504e-13
1.211000000000000000e+03 4.192630004882812500e+01 1.957398986816406250e+01 4.528599988496556650e-14 7.514234460354041190e-13 2.390128297103527588e-13 7.385375134800337138e-14
1.212000000000000000e+03 4.189245605468750000e+01 1.713175964355468750e+01 1.485401022018398298e-14 3.266226536197819330e-13 1.024429971191107014e-13 1.415968443841883473e-13
1.213000000000000000e+03 4.227864074707031250e+01 1.798652076721191406e+01 -5.080681494550216837e-15 4.357351271792007930e-14 1.154785004463731654e-14 1.914159884200059003e-13
1.214000000000000000e+03 1.863363647460937500e+01 3.308847427368164062e+01 6.953325312449368245e-14 -2.447057313725853334e-13 -5.255174347442749527e-14 2.133415107985828230e-13
1.215000000000000000e+03 1.482584762573242188e+01 2.154925727844238281e+01 -1.847522514749483369e-14 9.071010002165147412e-13 2.665877501389912752e-13 -2.394240404893221985e-13
1.216000000000000000e+03 1.440978527069091797e+01 2.116848182678222656e+01 8.714089969356561549e-14 9.523650314549603202e-13 3.118517813774368541e-13 -4.768331742503089180e-15
1.217000000000000000e+03 4.236371231079101562e+01 2.647906112670898438e+01 1.598599995867450163e-13 7.090246900882946068e-13 2.606654041920064557e-13 9.277873743796308248e-14
1.218000000000000000e+03 1.820332145690917969e+01 7.842866897583007812e+00 5.282316671204566327e-14 4.801479851733458926e-13 1.598913465820570035e-13 -1.089158467191750357e-13
1.219000000000000000e+03 1.636603736877441406e+01 2.690372705459594727e+00 -1.937809620069803201e-14 3.577026912518488366e-13 1.014973763130595785e-13 -2.327571830748869502e-14
1.220000000000000000e+03 4.192975997924804688e+01 1.344678020477294922e+01 6.111091992687389673e-14 2.619039425437452717e-14 2.619039425437452717e-14 7.344899834822379847e-14
1.221000000000000000e+03 4.196002578735351562e+01 2.725842857360839844e+01 -9.730603367334722531e-14 9.190673395942372537e-13 2.465283836447507149e-13 -1.662559385951986601e-13
1.222000000000000000e+03 1.542261219024658203e+01 1.463388347625732422e+01 5.930277563502908689e-14 8.031815772364947481e-13 2.587453092495889395e-13 -1.008527639114083219e-13
1.223000000000000000e+03 1.694332313537597656e+01 9.990350723266601562e+00 2.465896885013411921e-14 3.308247772948469390e-13 1.066451207941757073e-13 -1.126173874749399062e-13
1.224000000000000000e+03 1.667416572570800781e+01 3.005468368530273438e+01 -1.486107786309587286e-14 3.596385613358760169e-13 1.034332463970867588e-13 2.000348264851251057e-13
1.225000000000000000e+03 3.776450347900390625e+01 1.826446533203125000e+00 6.445725572214178190e-13 7.795058001858201635e-13 4.272234963801496699e-13 4.614802463775991015e-13
1.226000000000000000e+03 4.194718551635742188e+01 2.439216995239257812e+01 8.429130467614912026e-14 6.308871610891109150e-13 2.145535404072043684e-13 2.010835549177796000e-14
1.227000000000000000e+03 4.269424057006835938e+01 2.365811538696289062e+01 1.576956745524479842e-13 2.505876636835907556e-13 1.224850028260643375e-13 -4.731530109120668515e-14
1.228000000000000000e+03 1.524914836883544922e+01 1.987450027465820312e+01 7.024116260422735847e-14 1.265378969141084387e-12 4.006860490103625327e-13 1.054794543809550733e-13
1.229000000000000000e+03 4.192648696899414062e+01 2.037933158874511719e+01 1.257148410978986552e-13 2.826325328289525096e-13 1.225042203095716431e-13 7.963805802964005198e-14
1.230000000000000000e+03 4.229376602172851562e+01 2.041964340209960938e+01 -2.006685087736249928e-14 4.946603565127161151e-13 1.423780527070456214e-13 1.373784034664274345e-13
1.231000000000000000e+03 1.871541404724121094e+01 5.530489921569824219e+00 4.373912459976724010e-14 1.102472402107236571e-13 4.619590978196044806e-14 -1.288772419946043746e-13
1.232000000000000000e+03 4.275592803955078125e+01 2.610092353820800781e+01 9.026086085148210536e-14 6.791964993896337788e-13 2.308372134933456277e-13 -2.171337620067350510e-14
1.233000000000000000e+03 4.229398345947265625e+01 2.001637268066406250e+01 1.433750443672818231e-13 5.647068641694008573e-13 2.124245874687846758e-13 -6.004855765190039718e-14
1.234000000000000000e+03 4.192853546142578125e+01 2.158139610290527344e+01 7.636872091740937174e-14 4.902389258432116037e-13 1.699823008044498707e-13 5.512825168151741506e-14
1.235000000000000000e+03 4.159924316406250000e+01 1.101847839355468750e+01 2.501528172972611319e-13 5.647178146113429609e-13 2.444611895725812278e-13 2.015078642142453802e-13
1.236000000000000000e+03 4.196239471435546875e+01 2.519761848449707031e+01 2.894089048272041609e-13 6.272928140468869707e-13 2.750105102412164770e-13 -8.351825328057390502e-15
1.237000000000000000e+03 4.230868148803710938e+01 2.322514343261718750e+01 7.057282682505425231e-14 4.420040451268841819e-13 1.537730581974497412e-13 -2.757431903524596578e-14
1.238000000000000000e+03 4.192930221557617188e+01 2.198301887512207031e+01 4.797651872675591511e-14 6.610746563877334392e-13 2.127153569389181320e-13 2.451575590754415113e-14
1.239000000000000000e+03 4.229993438720703125e+01 2.242423820495605469e+01 -4.745860551335495670e-14 4.829210490699120673e-13 1.306387317117144176e-13 2.988666985333926496e-13
1.240000000000000000e+03 4.193553924560546875e+01 2.318651390075683594e+01 -1.979910105222998373e-13 1.896523980611866667e-13 -2.501584754773487906e-15 1.086445996644098966e-13
1.241000000000000000e+03 4.229398727416992188e+01 2.082024002075195312e+01 1.117095375620727471e-13 4.596340669182907845e-13 1.714030799888563439e-13 1.732719463786239200e-13
1.242000000000000000e+03 4.229711151123046875e+01 2.161947631835937500e+01 1.177129225392531744e-14 6.455580969962071425e-13 1.971988246524461474e-13 2.043122480010692299e-13
1.243000000000000000e+03 4.176932144165039062e+01 1.223459148406982422e+01 1.128898339283583574e-13 4.838135642983021345e-14 4.838135642983021345e-14 4.704267252570457428e-15
1.244000000000000000e+03 4.165919876098632812e+01 1.142505073547363281e+01 -1.441474909813326988e-14 8.532414954697670195e-14 2.127281911821349292e-14 1.848249743356678021e-13
1.245000000000000000e+03 4.225453567504882812e+01 1.303350162506103516e+01 9.182346723257683863e-14 2.223567060729084166e-13 9.425405199164557657e-14 1.183716482038715823e-13
1.246000000000000000e+03 4.187540817260742188e+01 1.304287528991699219e+01 1.617882802555647981e-13 2.358688433099203480e-14 5.561254785130774481e-14 6.847316767408240246e-14
1.247000000000000000e+03 1.483459186553955078e+01 2.195536994934082031e+01 1.442263158674041840e-14 4.636906093466452994e-13 1.434339707553564103e-13 6.386011358795349799e-15
1.248000000000000000e+03 4.234733581542968750e+01 2.523662567138671875e+01 8.340818134907820869e-14 4.932558268083697683e-13 1.729992153221351914e-13 -2.301018533698573343e-14
1.249000000000000000e+03 4.236132812500000000e+01 2.606106376647949219e+01 3.616593176737452342e-14 4.730091643888323372e-13 1.527525257975434481e-13 -1.501730733039288723e-13
1.250000000000000000e+03 1.491736793518066406e+01 2.359089279174804688e+01 1.060379286140682512e-14 3.705520861940064803e-13 1.143467644789536442e-13 2.596175498973535278e-13
1.251000000000000000e+03 4.229343032836914062e+01 1.961095428466796875e+01 -1.330390435132482868e-14 5.890606470486392521e-13 1.727270263667327055e-13 3.128671705932874192e-14
1.252000000000000000e+03 4.219180297851562500e+01 1.592390155792236328e+01 8.981847248379012938e-14 2.672483816277410051e-13 1.071200555558329826e-13 -1.394782455765158913e-13
1.253000000000000000e+03 1.496108245849609375e+01 1.864820861816406250e+01 -4.898144200351020605e-14 3.907664935989124677e-13 1.025355134457416051e-13 -1.614123873623640737e-13
1.254000000000000000e+03 3.941741561889648438e+01 4.967274665832519531e+00 5.654136555656441576e-13 1.340342875751077134e-12 5.717269648160272499e-13 8.462995386947225196e-13
1.255000000000000000e+03 3.894034576416015625e+01 4.224473476409912109e+00 5.970114268401272017e-13 1.170880991989420306e-12 5.303677419118968395e-13 5.848956301929275625e-13
1.256000000000000000e+03 3.957952499389648438e+01 4.384084224700927734e+00 4.707848694218697005e-13 8.880291792710826027e-13 4.076442146078856910e-13 7.401691564344614616e-13
1.257000000000000000e+03 1.540628337860107422e+01 2.790481758117675781e+01 1.275128548756943037e-13 7.180371206470803624e-13 2.536649818148106750e-13 1.464979803049090701e-13
1.258000000000000000e+03 4.228787994384765625e+01 1.880399703979492188e+01 -1.127329769790540170e-13 -1.398160287633537502e-13 -7.576469833459054115e-14 4.696123793112259859e-14
1.259000000000000000e+03 1.932658386230468750e+01 5.258670330047607422e+00 1.613341215180377763e-13 6.181545618259842723e-13 2.338466063584593302e-13 2.724863274944431916e-15
1.260000000000000000e+03 1.940410041809082031e+01 4.163868904113769531e+00 -1.307443736608959739e-13 3.546859664695437009e-14 -2.858273039367704993e-14 -2.146655384916221210e-13
1.261000000000000000e+03 1.665772819519042969e+01 1.073740482330322266e+01 1.026015684631002844e-13 -1.778849233847546243e-15 3.024681470998463739e-14 -3.018321812105206892e-13
1.262000000000000000e+03 1.662490844726562500e+01 1.196626091003417969e+01 3.424565725397218929e-14 1.519295621385183259e-13 5.585256310724172335e-14 -2.037493539500372791e-14
1.263000000000000000e+03 4.177463531494140625e+01 2.895771217346191406e+01 2.223037156917281876e-13 7.357863233622974342e-13 2.874270103609549709e-13 -3.035453561683193469e-13
1.264000000000000000e+03 4.209299468994140625e+01 2.949213409423828125e+01 2.177278946328617404e-13 1.008330897077358568e-12 3.678176469998351017e-13 -1.528380151388439301e-13
1.265000000000000000e+03 1.453579711914062500e+01 2.364447402954101562e+01 -1.393622494965870984e-13 3.977827995379351611e-13 7.752616772290985003e-14 -3.618794174910233696e-13
1.266000000000000000e+03 1.562141227722167969e+01 1.384684562683105469e+01 -1.318097615375570658e-14 8.178680714447661426e-13 2.414061246909515734e-13 -1.096598330261981669e-13
1.267000000000000000e+03 4.146752548217773438e+01 1.019278812408447266e+01 3.112789973697127621e-13 8.196695275644594325e-13 3.392845629012625208e-13 2.340199431807854502e-13
1.268000000000000000e+03 1.559652423858642578e+01 2.830521392822265625e+01 2.331548819842817893e-14 5.590037439016926069e-13 1.746957613291133526e-13 3.012205285549129918e-13
1.269000000000000000e+03 1.524408531188964844e+01 2.746835899353027344e+01 3.822032463061215621e-15 7.794041562321496475e-13 2.349678611401895267e-13 2.102034908982308714e-13
1.270000000000000000e+03 1.810749435424804688e+01 3.273648071289062500e+01 6.488036561995425000e-14 -3.382017159814926233e-13 -8.199640781896694319e-14 2.563701746553792571e-13
1.271000000000000000e+03 3.945203399658203125e+01 3.413062286376953125e+01 8.490552553565289262e-14 2.880183071207742529e-13 1.118771484416754280e-13 -1.972750576176990345e-13
1.272000000000000000e+03 3.904047012329101562e+01 3.419440460205078125e+01 1.169879216287098012e-14 -8.648812867056640541e-14 -2.243680162993498539e-14 -1.268740700607201566e-13
1.273000000000000000e+03 1.774822044372558594e+01 6.968773365020751953e+00 -2.044875431635694019e-14 4.944966961947794282e-13 1.422143788365817785e-13 -1.380779442606422380e-13
1.274000000000000000e+03 1.539988899230957031e+01 1.623876190185546875e+01 -8.960403254066554718e-15 3.621674086930898318e-13 1.059621073068277297e-13 -2.561567223526711734e-13
1.275000000000000000e+03 1.625721359252929688e+01 1.188908767700195312e+01 2.093737238705734027e-13 8.973159400845615030e-14 8.973159400845615030e-14 -2.272830632466665834e-13
1.276000000000000000e+03 1.579615211486816406e+01 2.864350128173828125e+01 6.233083710630027419e-14 6.672264737245248156e-13 2.188672013807638206e-13 2.226788225383538600e-13
1.277000000000000000e+03 1.440696907043457031e+01 2.158283424377441406e+01 -8.721368354065728301e-14 5.573850300581717487e-13 1.410514093762652021e-13 9.655865245827149890e-14
1.278000000000000000e+03 1.448447513580322266e+01 2.282718467712402344e+01 7.578712099077025699e-14 4.442387213296483672e-13 1.560077615052682387e-13 -2.692127662289045542e-13
1.279000000000000000e+03 1.995270347595214844e+01 3.399937438964843750e+01 -1.628476813033546966e-13 9.033645684795865716e-14 -2.175336801424516964e-14 -5.492201609951993801e-14
1.280000000000000000e+03 1.530584526062011719e+01 1.663159179687500000e+01 -3.384674878152867106e-14 3.515018408718068033e-13 9.529652593301754515e-14 -5.729292230525692697e-14
1.281000000000000000e+03 1.641585350036621094e+01 2.920366859436035156e+01 -5.738175234450137996e-14 6.616720517847729521e-13 1.812870871215760404e-13 2.431008682118179776e-13
1.282000000000000000e+03 1.830928230285644531e+01 1.956628799438476562e+00 -1.552817856598025757e-15 4.508545636437363835e-14 1.305979114999203383e-14 1.301217011066444981e-14
1.283000000000000000e+03 3.619039916992187500e+01 8.375232219696044922e-01 7.138409871890183389e-13 6.719394463582106791e-13 4.157341517482121551e-13 5.852942371216418582e-13
1.284000000000000000e+03 4.227008438110351562e+01 1.757202911376953125e+01 3.510835692261890517e-14 4.725559136706247720e-13 1.522992886318630390e-13 1.375447742897953352e-13
1.285000000000000000e+03 4.236051940917968750e+01 2.690151596069335938e+01 -7.632240346178761209e-15 7.744951598456784048e-13 2.300588918587725962e-13 -3.223138715559986656e-13
1.286000000000000000e+03 1.680078697204589844e+01 1.035899734497070312e+01 -1.624155454224562867e-13 2.964009246375631790e-13 4.019561647503749890e-14 5.285707089982541115e-15
1.287000000000000000e+03 1.489071846008300781e+01 1.946698760986328125e+01 -8.445194278053000381e-14 9.703272256869621692e-13 2.657625638655125577e-13 2.130852596151158740e-13
1.288000000000000000e+03 1.856942939758300781e+01 5.926228046417236328e+00 1.244471648127742913e-13 5.333449678538056127e-14 5.333449678538056127e-14 -6.412310461258174943e-14
1.289000000000000000e+03 1.990272712707519531e+01 2.537774324417114258e+00 1.087232178744422517e-13 9.234661510959182862e-14 6.032094989521022410e-14 5.930255879459458979e-14
1.290000000000000000e+03 2.042949485778808594e+01 2.630102396011352539e+00 1.779272394567335547e-13 7.625453409985591402e-14 7.625453409985591402e-14 -1.089740751521010853e-13
1.291000000000000000e+03 3.805591583251953125e+01 2.188127994537353516e+00 5.634452865214967243e-13 7.904879550414689593e-13 4.061799724688897051e-13 7.418673965073341314e-13
1.292000000000000000e+03 1.797669219970703125e+01 7.407982349395751953e+00 -1.368014859379207415e-13 3.073783903188159750e-13 5.117307199189492783e-14 -2.996780612291721768e-13
1.293000000000000000e+03 1.752340316772460938e+01 8.513194084167480469e+00 -1.031846794965173009e-13 9.303084154812027440e-14 -3.046151765683934205e-15 -1.373431397907673435e-13
1.294000000000000000e+03 1.767330360412597656e+01 8.143111228942871094e+00 3.413927330392883819e-14 -7.687078106216951867e-14 -1.281945148043925689e-14 -1.331129217269078069e-13
1.295000000000000000e+03 1.625114059448242188e+01 1.312926483154296875e+01 -3.480204948010101607e-14 6.713490440651836977e-13 1.909641065070410981e-13 1.668907830129021802e-14
1.296000000000000000e+03 1.587640094757080078e+01 1.305520439147949219e+01 1.234752182227225048e-13 6.476802601185216446e-13 2.313466529891422541e-13 -1.651853838175593170e-13
1.297000000000000000e+03 1.510615158081054688e+01 2.702506065368652344e+01 4.628851081188607719e-14 4.773474367517072103e-13 1.570907846078911652e-13 -8.708513443245018137e-15
1.298000000000000000e+03 4.072591400146484375e+01 8.572703361511230469e+00 1.784585391788329201e-13 8.084974204881911763e-13 2.960867770580855041e-13 2.969244316565478048e-13
1.299000000000000000e+03 4.139606475830078125e+01 9.774291992187500000e+00 1.353714503774666733e-13 5.155258273221996479e-13 1.952691887309107588e-13 2.846682308280112927e-13
1.300000000000000000e+03 4.171886444091796875e+01 1.466906833648681641e+01 -8.621749147952328940e-14 5.120610424395877214e-13 1.277530598670084672e-13 -1.572060895089349986e-13
1.301000000000000000e+03 3.326971817016601562e+01 -1.372240304946899414e+00 8.297919643074358476e-13 3.956571940737230175e-13 3.676347420933367971e-13 4.811161235032668237e-13
1.302000000000000000e+03 3.419831085205078125e+01 -2.116448163986206055e+00 3.336143481694892055e-13 5.089851608762463453e-13 2.527798391611935092e-13 2.670098571497941942e-13
1.303000000000000000e+03 1.723443222045898438e+01 3.051564025878906250e+01 -2.292185843531194950e-14 2.646820479804135040e-13 7.252805669412387690e-14 1.818523359242013582e-13
1.304000000000000000e+03 1.700303268432617188e+01 3.158481216430664062e+01 8.411316348294617384e-14 1.275503953759166142e-13 6.349906494715340521e-14 2.226186899753623827e-13
1.305000000000000000e+03 1.708600044250488281e+01 9.626010894775390625e+00 -7.279972387723085414e-14 1.975548630933632310e-13 3.742654040958699746e-14 -7.347714017086337535e-14
1.306000000000000000e+03 3.614344406127929688e+01 2.575698792934417725e-01 6.717732381651686513e-13 6.367538332545386037e-13 3.925581105838904517e-13 5.946519860723642470e-13
1.307000000000000000e+03 4.050069046020507812e+01 5.982855319976806641e+00 5.681122889830692024e-13 8.839899840774878559e-13 4.356306710761453926e-13 6.032178879664118476e-13
1.308000000000000000e+03 3.870014953613281250e+01 3.857285976409912109e+00 6.517056859445258254e-13 1.194321442958556911e-12 5.538081386709248211e-13 5.680444179270716099e-13
1.309000000000000000e+03 4.063348388671875000e+01 8.156950950622558594e+00 3.706511009574087190e-13 1.302624241111827175e-12 5.019825700947055935e-13 4.935098553773831220e-13
1.310000000000000000e+03 4.049787902832031250e+01 3.272366714477539062e+01 1.247515410201724406e-13 4.194725350490507987e-13 1.632672268865251186e-13 -2.392195328545371202e-13
1.311000000000000000e+03 4.044784164428710938e+01 3.375590896606445312e+01 7.628648418262634623e-14 2.156979971154257547e-13 8.759534303416291467e-14 -2.239101102880641792e-14
1.312000000000000000e+03 1.637754249572753906e+01 3.244377374649047852e+00 1.307151679648746456e-13 2.390245933039242265e-13 1.109219256701342304e-13 -3.683610423524212585e-14
1.313000000000000000e+03 1.888661575317382812e+01 5.134479045867919922e+00 -4.261771735210653778e-14 1.189881120066196840e-13 2.291111805754076497e-14 -2.650461772800427607e-13
1.314000000000000000e+03 1.875418281555175781e+01 3.361415100097656250e+01 -6.647719890838163503e-14 -2.849022761957330230e-14 -2.849022761957330230e-14 2.485548117152347469e-13
1.315000000000000000e+03 1.770624923706054688e+01 3.310206985473632812e+01 -2.078850329725878687e-13 -8.909358846379347718e-14 -8.909358846379347718e-14 1.452662317692754446e-13
1.316000000000000000e+03 1.589407920837402344e+01 2.898875045776367188e+01 1.502062905479883970e-13 7.048874288081985462e-13 2.565281158068560829e-13 1.984757166560366382e-13
1.317000000000000000e+03 3.489318466186523438e+01 -2.178715944290161133e+00 2.440060415005718131e-13 6.078344750269637498e-13 2.555521441162389440e-13 2.564211050524317637e-13
1.318000000000000000e+03 3.359355926513671875e+01 -1.671323299407958984e+00 5.889408969186882281e-13 4.754391325079154740e-13 3.193140196700028355e-13 2.836340374807316822e-13
1.319000000000000000e+03 4.212487411499023438e+01 1.508922767639160156e+01 7.249113368092011470e-16 4.578201424736139113e-13 1.375635174348521783e-13 -1.744951839272035343e-13
1.320000000000000000e+03 4.153530502319335938e+01 1.060794639587402344e+01 1.805716085554257000e-13 3.976444824457803229e-13 1.734648259451090913e-13 1.294095581562404451e-13
1.321000000000000000e+03 3.833163833618164062e+01 2.551989078521728516e+00 4.171902352658601876e-13 5.905543523816725315e-13 3.023233790047652469e-13 5.152637756571099015e-13
1.322000000000000000e+03 1.513898944854736328e+01 1.743914031982421875e+01 7.946443660424365452e-14 8.118223432905524728e-13 2.673860210935380399e-13 -9.437027846453602264e-14
1.323000000000000000e+03 1.532490825653076172e+01 1.502572631835937500e+01 -1.038672525267327063e-13 4.698736042721592121e-14 -1.706396830748139332e-14 -3.089474409265734189e-14
1.324000000000000000e+03 1.503684425354003906e+01 2.480328750610351562e+01 1.496326933886349408e-13 1.070649211648566634e-12 3.660845498271170229e-13 -3.648292537755497278e-14
1.325000000000000000e+03 1.466229057312011719e+01 2.486525726318359375e+01 1.733188110175296059e-13 9.892984868808962773e-13 3.487851825932641869e-13 -9.131154084804707360e-15
1.326000000000000000e+03 4.094913864135742188e+01 7.232320785522460938e+00 3.615118729545507836e-13 2.464355488337316435e-13 1.823842319574955906e-13 5.904014256652434511e-13
1.327000000000000000e+03 4.016846847534179688e+01 6.538545131683349609e+00 4.554118583979804846e-13 6.526860215488872186e-13 3.324293694050711734e-13 7.113788724755210069e-13
1.328000000000000000e+03 1.677567100524902344e+01 3.055792236328125000e+01 1.352324421064268756e-13 1.952096118215326803e-13 9.913261617838786677e-14 2.257091405053965327e-13
1.329000000000000000e+03 1.624434471130371094e+01 3.068125915527343750e+01 2.465185716150897210e-14 3.765726608578184864e-13 1.203673526952928063e-13 2.119830461340399541e-13
1.330000000000000000e+03 4.092824172973632812e+01 3.190640258789062500e+01 9.038357220861673036e-14 5.877471903267816877e-13 2.034392348592567457e-13 -2.939024078361246461e-13
1.331000000000000000e+03 1.499059581756591797e+01 2.658388328552246094e+01 1.529592695993092777e-13 8.890710433487325481e-13 3.126090965949179790e-13 5.307845905421632038e-14
1.332000000000000000e+03 2.039459991455078125e+01 3.482054138183593750e+01 -3.294017958247776046e-14 -1.971210195940431564e-13 -6.901835873651673836e-14 -4.962322870324942237e-14
1.333000000000000000e+03 2.011388969421386719e+01 3.459717178344726562e+01 5.312707874538871722e-14 1.142706399339180057e-13 5.021931628141837467e-14 -1.348672963672609137e-13
1.334000000000000000e+03 1.747657966613769531e+01 3.140986824035644531e+01 -5.686035951975310088e-14 9.000864832110766489e-14 9.944487826252495360e-15 5.743641646278538349e-14
1.335000000000000000e+03 1.599931240081787109e+01 2.934851455688476562e+01 1.753728862434120184e-14 4.192745326273006334e-13 1.310435456978661928e-13 2.878916180969193217e-13
1.336000000000000000e+03 3.299512481689453125e+01 -2.261968135833740234e+00 3.740950149482002995e-13 1.603264369138754364e-13 1.603264369138754364e-13 3.768363117211126490e-13
1.337000000000000000e+03 4.015507125854492188e+01 5.120348453521728516e+00 5.002256204741928336e-13 8.320202166123280563e-13 3.996737565469671294e-13 5.707306372296216956e-13
1.338000000000000000e+03 4.058238983154296875e+01 4.193767547607421875e+00 3.283353948967115965e-13 5.181604928114480479e-13 2.539487717334587558e-13 3.941429973196297620e-13
1.339000000000000000e+03 3.764722442626953125e+01 -3.930319547653198242e+00 -2.525734612776608934e-13 3.035127758930361574e-13 1.528179743393118933e-14 -3.039846748886104733e-13
1.340000000000000000e+03 4.234841537475585938e+01 2.732922363281250000e+01 1.096071272480882153e-13 7.332387193074996201e-13 2.528537546443027084e-13 -1.925450630099051486e-13
1.341000000000000000e+03 3.970399475097656250e+01 3.809596061706542969e+00 5.348015324861676856e-13 1.235721594494698650e-12 5.311569326732490381e-13 5.427794715420763971e-13
1.342000000000000000e+03 1.460220623016357422e+01 1.822763442993164062e+01 9.418646384465236693e-15 6.445498431859042476e-13 1.961905437370889405e-13 6.204247320973702018e-14
1.343000000000000000e+03 1.521818447113037109e+01 1.703172683715820312e+01 6.529711938253052184e-14 3.939920763772197798e-13 1.377867546621669437e-13 -1.065945732560153597e-14
1.344000000000000000e+03 3.858954620361328125e+01 2.918442726135253906e+00 7.444350583023229273e-13 1.188311601896252512e-12 5.798240034805834942e-13 3.663367352524371512e-13
1.345000000000000000e+03 3.883580398559570312e+01 3.285923480987548828e+00 5.663062250041428491e-13 5.629592928976800970e-13 3.387796499495360214e-13 5.428989506214842997e-13
1.346000000000000000e+03 4.223954772949218750e+01 1.674524116516113281e+01 -1.557627182617593586e-14 4.508339502499320028e-13 1.305772981061159577e-13 -6.795418381103611460e-15
1.347000000000000000e+03 4.221765136718750000e+01 1.633567237854003906e+01 -9.855189038975031846e-14 1.865182270785470386e-13 2.638989931257312155e-14 5.944375579877009264e-14
1.348000000000000000e+03 1.510127162933349609e+01 2.521942138671875000e+01 1.266553187198940500e-13 9.235488892742060862e-13 3.150612637534827565e-13 1.060713186528490157e-14
1.349000000000000000e+03 2.067600440979003906e+01 3.602865600585937500e+01 -1.018184763389683167e-14 2.701420359109418801e-13 7.798805817717940903e-14 2.837933279556934842e-15
1.350000000000000000e+03 2.100642776489257812e+01 3.527681732177734375e+01 8.617507206952479404e-14 -4.541756781859668246e-13 -1.104001804796798936e-13 1.771725534295207072e-13
1.351000000000000000e+03 3.197144508361816406e+01 -2.292240619659423828e+00 5.218434733812726822e-13 4.064340213666937929e-14 1.687460663823275864e-13 2.550198821647114977e-13
1.352000000000000000e+03 1.932118797302246094e+01 3.430163192749023438e+01 -1.092735724497230498e-13 -2.395605686478924357e-14 -3.996888947198004582e-14 2.099433907970515989e-13
1.353000000000000000e+03 1.926085853576660156e+01 3.336516571044921875e+01 -1.001105123278611675e-13 1.400992901334427443e-13 1.199663266404811524e-14 -4.467706112292087195e-14
1.354000000000000000e+03 3.510647201538085938e+01 -1.065350770950317383e+00 6.029204913104990737e-13 3.041454620707900736e-13 2.721197833038813130e-13 2.702941765807959085e-13
1.355000000000000000e+03 4.198382186889648438e+01 1.385173034667968750e+01 1.280485185115379232e-13 1.921307893597984373e-13 9.605379371665362376e-14 1.303223750703103034e-13
1.356000000000000000e+03 3.210702514648437500e+01 -3.164877653121948242e+00 -4.441576839935186538e-14 -1.105372236342820613e-13 -4.648589659365064131e-14 1.367702202577716908e-13
1.357000000000000000e+03 1.372239112854003906e+01 2.370531845092773438e+01 9.072700002301509192e-14 3.591396386011524999e-13 1.349599956530084244e-13 -2.763296759651385354e-14
1.358000000000000000e+03 3.995626068115234375e+01 3.414300918579101562e+01 7.888134589961737220e-14 2.168100903887984487e-13 8.870742953127203068e-14 -1.489525869183619400e-13
1.359000000000000000e+03 1.489157390594482422e+01 2.614661216735839844e+01 1.520823126720943774e-13 9.801971517439667103e-13 3.396838203512803078e-13 1.476503381364624445e-13
1.360000000000000000e+03 1.480467224121093750e+01 2.571355247497558594e+01 2.841500092946175338e-13 8.080428145172680043e-13 3.276578498540710926e-13 -1.773186733891856520e-14
1.361000000000000000e+03 2.295062446594238281e+01 3.666014862060546875e+01 -7.746693640297425132e-14 1.498036856237630610e-13 2.170102476623664289e-14 8.877228853810918696e-15
1.362000000000000000e+03 3.706564712524414062e+01 5.322426557540893555e-01 5.937658676367918442e-13 7.806070243324136904e-13 4.123118675907616604e-13 5.468418144520537094e-13
1.363000000000000000e+03 3.162593460083007812e+01 -2.905407905578613281e+00 2.737712400530112333e-13 7.944302361133706580e-14 1.059642824874362788e-13 2.699707319676891704e-13
1.364000000000000000e+03 3.549565505981445312e+01 -2.764821052551269531e-01 7.700344810575299181e-13 5.702072386308543184e-13 4.020724996434826837e-13 4.778495307777852474e-13
1.365000000000000000e+03 3.822755813598632812e+01 -4.011090755462646484e+00 -1.864060257062219450e-13 3.776211927788292178e-13 5.736455418754032864e-14 -2.004807723911955497e-13
1.366000000000000000e+03 4.180117034912109375e+01 3.076462364196777344e+01 -1.991673969845009218e-14 6.319775432139795868e-13 1.836182437651642796e-13 -1.911532455760311944e-13
1.367000000000000000e+03 4.217497634887695312e+01 2.906323432922363281e+01 2.399365970663647207e-13 7.890942131487388433e-13 3.087092484855419317e-13 -1.279580689452983200e-13
1.368000000000000000e+03 3.866801071166992188e+01 3.634697341918945312e+01 2.369577549855925863e-14 1.931591280153466261e-13 6.505647393408378609e-14 -2.834932030066576042e-15
1.369000000000000000e+03 3.871408462524414062e+01 3.493326950073242188e+01 -1.151627079289119227e-13 -2.323592436081350909e-13 -1.042565895268722509e-13 -9.115894786259921140e-15
1.370000000000000000e+03 4.073250961303710938e+01 3.232371139526367188e+01 6.097612649177963640e-14 5.751439905929411900e-13 1.908360351254162479e-13 -1.117142064076780128e-13
1.371000000000000000e+03 4.127045440673828125e+01 3.262562179565429688e+01 1.275820811844075031e-13 3.520592021036272889e-13 1.438923849864104376e-13 -2.520070198526458416e-13
1.372000000000000000e+03 4.099467849731445312e+01 3.305878448486328125e+01 1.390560165929685676e-13 7.001086993127514368e-13 2.517494134164632857e-13 -1.065194414335939033e-13
1.373000000000000000e+03 4.158802032470703125e+01 3.166616821289062500e+01 5.327390682459756666e-14 6.175940293028092665e-13 2.012603679633212517e-13 -1.582439013809652795e-13
1.374000000000000000e+03 4.232604980468750000e+01 2.776088142395019531e+01 5.197812937441509407e-14 1.166050112369476643e-12 3.654084684574093744e-13 -3.839895794995745737e-13
1.375000000000000000e+03 4.229223251342773438e+01 2.819420433044433594e+01 1.113358537307984619e-13 5.052248766915234945e-13 1.849682109951802933e-13 -9.672801839014089076e-14
1.376000000000000000e+03 3.810947799682617188e+01 3.534013748168945312e+01 1.138763291563121838e-13 1.403060339352085739e-13 7.625471028270894291e-14 -9.128993811976029993e-14
1.377000000000000000e+03 2.006652832031250000e+01 3.551063919067382812e+01 1.531522643622752755e-14 -8.493822778368048665e-14 -2.088690074304906663e-14 -5.017634460593826951e-14
1.378000000000000000e+03 2.069554328918457031e+01 3.505222320556640625e+01 1.416213473532865197e-13 -1.223089283932526916e-13 5.793724840977201168e-15 2.582258374955650332e-14
1.379000000000000000e+03 4.053676986694335938e+01 7.744319438934326172e+00 1.078570216537892701e-13 1.144247240361662143e-12 3.756312752165036351e-13 4.635074333896038734e-13
1.380000000000000000e+03 4.124173355102539062e+01 8.933702468872070312e+00 1.630238370513292789e-13 5.731278082329871459e-13 2.208454908747894962e-13 1.879688082701697072e-13
1.381000000000000000e+03 2.928401756286621094e+01 -2.251825332641601562e+00 7.374955138771122076e-13 1.330657047222960632e-13 2.611683655798224812e-13 -4.579691999435399341e-14
1.382000000000000000e+03 3.068325996398925781e+01 3.811453247070312500e+01 -4.394435729475516805e-14 -8.745971611864855610e-14 -3.942122168520793835e-14 -6.702409081297405757e-14
1.383000000000000000e+03 1.961843299865722656e+01 3.406329870223999023e+00 9.207572042053274730e-14 1.309629217138147395e-13 6.691159128505153042e-14 -1.729974128360234342e-13
1.384000000000000000e+03 3.234910202026367188e+01 3.708115005493164062e+01 -1.797514875389715633e-14 3.583039626716549853e-13 1.020986409566021491e-13 -2.384723430689074733e-15
1.385000000000000000e+03 3.252332687377929688e+01 -2.299988031387329102e+00 4.986401374272586562e-13 2.594538624743625288e-13 2.274281837074537682e-13 2.098683775592427581e-13
1.386000000000000000e+03 2.652555847167968750e+01 3.833489608764648438e+01 6.357884189825760424e-14 1.473443085207512548e-13 6.327694580332901553e-14 7.385156600299945528e-15
1.387000000000000000e+03 2.469466018676757812e+01 3.800769805908203125e+01 3.584407618807683438e-14 1.640523247846761845e-13 5.996892300233133688e-14 -1.836661858299788730e-14
1.388000000000000000e+03 2.841487884521484375e+01 3.753017807006835938e+01 3.005812287439069141e-14 5.863300296671258849e-14 2.660733605826508946e-14 1.073011511999559520e-13
1.389000000000000000e+03 2.797385406494140625e+01 3.816674804687500000e+01 8.843229290121309982e-14 3.789955410051989992e-14 3.789955410051989992e-14 5.096953844499919201e-15
1.390000000000000000e+03 3.531263732910156250e+01 3.641014862060546875e+01 1.468787927654674474e-13 -7.430479300428449729e-14 2.177220263886031626e-14 5.625771251844061127e-14
1.391000000000000000e+03 3.346394729614257812e+01 3.855071640014648438e+01 1.109348480047775420e-13 8.757558344956936636e-14 5.955313146918314593e-14 5.033347938204930927e-14
1.392000000000000000e+03 3.412768554687500000e+01 -3.420821428298950195e+00 -4.033593595307964630e-14 5.774755131547626430e-13 1.611418653678017843e-13 2.387160835757434763e-13
1.393000000000000000e+03 1.431029987335205078e+01 2.997019290924072266e+00 8.301160052317374527e-15 2.323123789692294050e-13 7.218406644984853848e-14 5.927707326727760240e-14
1.394000000000000000e+03 3.333027267456054688e+01 -1.993324995040893555e+00 4.892058438031587908e-13 -6.484605062119508379e-14 1.273079271125673873e-13 3.216196840100105092e-13
1.395000000000000000e+03 3.887120819091796875e+01 -3.874044895172119141e+00 -3.098037776837203605e-13 1.646081274758737223e-13 -4.355869302947491806e-14 -3.472086442142530149e-13
1.396000000000000000e+03 3.896704101562500000e+01 -2.879086732864379883e+00 -2.474455373675105152e-13 3.972123465648819129e-13 4.493004275921141932e-14 -4.297827285032473910e-13
1.397000000000000000e+03 3.699073791503906250e+01 -3.777632236480712891e+00 -3.381966744413905657e-13 2.668171131085805836e-13 -2.141387551491975155e-14 -8.395517489762430174e-14
1.398000000000000000e+03 3.483140182495117188e+01 -7.412439584732055664e-01 7.728952569098501701e-13 5.142446256149735273e-13 3.861419647574471092e-13 4.436892205635784014e-13
1.399000000000000000e+03 1.767868423461914062e+01 1.991971135139465332e+00 3.670231368715741460e-14 6.148051089494704913e-14 2.945484906869723363e-14 8.565112459340759599e-15
1.400000000000000000e+03 1.912790107727050781e+01 4.798892021179199219e+00 -1.699445400756612740e-14 -6.447202120047831886e-14 -2.443994307063310223e-14 -2.191233576965406771e-13
1.401000000000000000e+03 3.582407379150390625e+01 -1.793757639825344086e-02 9.091980640585362039e-13 6.412865030669401278e-13 4.651453918216863492e-13 5.720671874577532012e-13
1.402000000000000000e+03 3.543870544433593750e+01 -8.408145904541015625e-01 7.603472972766978089e-13 9.892518661874794006e-13 5.248797273552097131e-13 3.539713552651313488e-13
1.403000000000000000e+03 1.912944793701171875e+01 3.389190435409545898e+00 1.780567067486554800e-13 2.593138106587317138e-13 1.312111498012052957e-13 -7.607694178400278839e-14
1.404000000000000000e+03 1.358893680572509766e+01 3.112988710403442383e+00 -9.356790787052454705e-14 3.716579995149960070e-13 8.342702613808872236e-14 -4.458546975626836995e-14
1.405000000000000000e+03 2.133587455749511719e+01 3.594031143188476562e+01 4.109737452694800508e-14 -2.111415832754467981e-13 -5.101326397980235350e-14 5.397715084685776599e-14
1.406000000000000000e+03 3.405742645263671875e+01 -2.380750417709350586e+00 5.467599571880310538e-13 -4.017999718749012961e-14 1.519739873225359195e-13 1.830913757194449487e-13
1.407000000000000000e+03 9.022407531738281250e+00 3.818295240402221680e+00 4.216894574412405339e-14 -2.564332752218179134e-13 -6.427930426431902045e-14 7.097416458799049588e-14
1.408000000000000000e+03 2.009022712707519531e+01 2.058869123458862305e+00 1.121894189961419874e-13 2.768359272289216966e-13 1.167076011570136740e-13 -6.126184086928387895e-14
1.409000000000000000e+03 1.974933433532714844e+01 2.988052129745483398e+00 2.012545674816984542e-13 1.320029019901899914e-13 9.997724355207196489e-14 -5.572235381445800328e-14
1.410000000000000000e+03 1.499305820465087891e+01 2.300868511199951172e+00 2.098384196979642680e-14 5.474402398411570836e-14 2.271836046379999835e-14 1.165695822204562693e-13
1.411000000000000000e+03 1.812587356567382812e+01 7.044949531555175781e+00 -1.019100710937526078e-13 2.075204886268144575e-15 -2.995045821053109181e-14 -1.434234302773607778e-14
1.412000000000000000e+03 8.258136749267578125e+00 3.912331342697143555e+00 -7.806094366822474706e-14 1.229625955771100967e-14 -1.972940480963764759e-14 1.725080175278906336e-14
1.413000000000000000e+03 6.736958980560302734e+00 4.082341194152832031e+00 -1.108245236574635639e-13 -1.847490666310666607e-13 -8.867207776418542520e-14 -1.030461387876643875e-13
1.414000000000000000e+03 7.499796390533447266e+00 3.999260425567626953e+00 -4.776121989222281705e-14 -1.119709929159676265e-13 -4.791966248720441746e-14 7.232318991736916280e-14
1.415000000000000000e+03 5.211004734039306641e+00 4.260142326354980469e+00 -1.046365888358012641e-13 -2.278480409987487798e-13 -9.974538691748593977e-14 7.732520407397608375e-14
1.416000000000000000e+03 4.394036293029785156e+00 5.256836891174316406e+00 -5.988122459910441564e-14 -9.428980355828328608e-14 -4.625130912484266832e-14 -7.640017633293860744e-14
1.417000000000000000e+03 1.976507782936096191e+00 4.130996704101562500e+00 -1.354218522259600932e-13 -1.952907779066703764e-13 -9.921378903978914088e-14 9.823701097380621583e-14
1.418000000000000000e+03 2.277639865875244141e+00 3.389987707138061523e+00 5.244608627865288836e-15 2.247689381691089956e-15 2.247689381691089956e-15 5.758924153526079337e-14
1.419000000000000000e+03 3.478263092041015625e+01 -1.272763013839721680e+00 7.248627696340714799e-13 8.024781468669861528e-13 4.582022695293064274e-13 3.729374393936918386e-13
1.420000000000000000e+03 3.626095962524414062e+01 -3.725563764572143555e+00 -2.730768085615342677e-13 1.117218297042033015e-13 -4.840649297957293207e-14 7.987809361436476463e-14
1.421000000000000000e+03 3.858839797973632812e+01 -3.281862258911132812e+00 -9.029061542485325442e-14 2.129342438050157993e-13 3.679308851404876346e-14 -2.766982064479617254e-13
1.422000000000000000e+03 6.943344116210937500e+01 -1.157569789886474609e+01 7.594014935115300791e-14 2.155495698380124892e-13 8.744691575674964912e-14 -4.305472706058344895e-15
1.423000000000000000e+03 6.986399841308593750e+01 -1.071432590484619141e+01 2.806797618965287643e-15 -1.360499305444809459e-13 -3.997294167759971040e-14 -1.485477932610008989e-14
1.424000000000000000e+03 7.121661376953125000e+01 -9.556702613830566406e+00 5.224414176556620160e-14 -4.851279032049742642e-16 1.552770465104626879e-14 4.960892739896798076e-14
1.425000000000000000e+03 7.038582611083984375e+01 -9.722389221191406250e+00 5.976023441291861138e-14 2.736055756551213428e-15 1.874888794022554206e-14 -2.519274360250536166e-14
1.426000000000000000e+03 1.285295677185058594e+01 3.231597661972045898e+00 -1.371182864245892169e-14 1.313763551072377744e-13 3.529935607596117186e-14 3.714483080385737324e-14
1.427000000000000000e+03 1.054203796386718750e+01 2.965422868728637695e+00 -7.814895377957625788e-14 -1.707452538732279201e-13 -7.466825823008310659e-14 7.123656861878630009e-14
1.428000000000000000e+03 7.448429107666015625e+01 -9.153940200805664062e+00 1.607893167026273884e-14 5.264191860199218809e-14 2.061625508167647808e-14 7.698960962027392996e-14
1.429000000000000000e+03 7.532207489013671875e+01 -7.527984619140625000e+00 1.455316580136270521e-13 -1.663840370818778225e-13 -6.255711433486273523e-15 2.757689740353740787e-14
1.430000000000000000e+03 7.582729339599609375e+01 -5.620927810668945312e+00 9.945089727864814266e-14 -1.861329287315000025e-13 -2.600460943585555795e-14 1.552985442066640021e-13
1.431000000000000000e+03 7.364218139648437500e+01 -9.305757522583007812e+00 8.273502732523627112e-14 3.545786643357855261e-14 3.545786643357855261e-14 -6.998345452409113210e-14
1.432000000000000000e+03 7.271965026855468750e+01 -8.620348930358886719e+00 -8.120907205976923143e-15 -4.923133705174095875e-14 -1.720567353142524875e-14 3.595162565545560740e-14
1.433000000000000000e+03 3.776793289184570312e+01 3.595566177368164062e+01 4.523842373838418696e-14 1.938789637189776427e-14 1.938789637189776427e-14 -5.793519011971018373e-14
1.434000000000000000e+03 3.722258377075195312e+01 3.677619934082031250e+01 2.976618111065823524e-14 4.302343529181962278e-13 1.380001527547664031e-13 -2.905286078445749876e-14
1.435000000000000000e+03 9.851819992065429688e+00 4.379209041595458984e+00 2.260223902299501181e-14 -2.190680769382710724e-13 -5.893975086636304983e-14 8.480385447692806444e-14
1.436000000000000000e+03 1.210411167144775391e+01 3.353130578994750977e+00 -1.983553126166503339e-14 3.725000519085204520e-14 5.224342517569282446e-15 -2.282563549250386098e-14
1.437000000000000000e+03 1.134391880035400391e+01 3.476352214813232422e+00 -1.002114583263831460e-13 -1.344496616904194974e-13 -7.039833803791986644e-14 -7.956103224154853493e-14
1.438000000000000000e+03 2.280419158935546875e+01 3.887048721313476562e+01 5.178208190470719174e-14 1.708829068915521110e-13 6.679949833294368533e-14 -7.434528795542683088e-14
1.439000000000000000e+03 2.392511367797851562e+01 3.695932388305664062e+01 1.117905748982024605e-13 1.851630963356845627e-13 8.908610069253974917e-14 1.446313331414633002e-14
1.440000000000000000e+03 2.774619483947753906e+01 3.903243255615234375e+01 6.352480797248635791e-14 1.187268192830506774e-13 5.467548546615567939e-14 1.260865733652624665e-13
1.441000000000000000e+03 2.598879814147949219e+01 3.745457077026367188e+01 -4.823540926488650848e-14 -6.642326662656405922e-14 -3.439760141218245471e-14 2.188539503973369743e-14
1.442000000000000000e+03 3.484512710571289062e+01 3.748024749755859375e+01 -6.762581624243993450e-14 -9.760891232649462901e-14 -4.957041789305401125e-14 -3.076048259425395726e-14
1.443000000000000000e+03 3.567479705810546875e+01 3.704618835449218750e+01 2.426144781765820352e-14 1.819638190125871802e-13 6.186757784678795224e-14 -3.080298331941538903e-14
1.444000000000000000e+03 2.052835273742675781e+01 3.666285324096679688e+01 -1.682748179080567619e-13 1.938411691088711558e-14 -4.466721182381019895e-14 5.690209452713021476e-14
1.445000000000000000e+03 2.232747840881347656e+01 3.685660934448242188e+01 2.270158887263118430e-13 2.345453746586262378e-13 1.384683790154814242e-13 -4.864479045268987889e-14
1.446000000000000000e+03 6.787650299072265625e+01 -2.513701915740966797e+00 1.110798193877660101e-13 2.473016196935084315e-14 4.074299288247575090e-14 7.874129450750303079e-16
1.447000000000000000e+03 6.724096679687500000e+01 -1.432290077209472656e+00 6.188542652505249486e-14 -8.785504333579108316e-14 -7.790885382034755391e-15 -9.103783909180079154e-15
1.448000000000000000e+03 4.600241088867187500e+01 2.709135770797729492e+00 -9.136911875966963192e-14 -3.594148362175836331e-13 -1.352351797169124015e-13 -2.408764377195837803e-13
1.449000000000000000e+03 4.705324935913085938e+01 2.469911336898803711e+00 -2.652890656717338258e-13 -2.280726876888877763e-13 -1.480085314291973431e-13 -3.423188653112890778e-13
1.450000000000000000e+03 5.302885055541992188e+01 1.816305756568908691e+00 -1.094056757081768305e-13 -2.401267254698372100e-14 -4.002550515417452326e-14 -7.625365996185434758e-14
1.451000000000000000e+03 5.264177322387695312e+01 4.070355892181396484e+00 -1.671770462677562435e-14 -3.004020643349036845e-14 -1.402737297926661894e-14 -9.487090204141762628e-14
1.452000000000000000e+03 3.782347106933593750e+01 1.161843061447143555e+00 5.617816867080349663e-13 6.239277757641437105e-13 3.557128278996318782e-13 2.779297516956880099e-13
1.453000000000000000e+03 4.056510162353515625e+01 -2.020288944244384766e+00 -2.541703826575147929e-13 2.113264804034370448e-13 -1.285317355613534510e-14 -2.957015058160927801e-13
1.454000000000000000e+03 5.716094589233398438e+01 1.102433681488037109e+00 1.305118021305024661e-14 6.278204816917085096e-14 2.274996834525973982e-14 -7.297224077166403200e-14
1.455000000000000000e+03 5.350211334228515625e+01 2.701110601425170898e+00 -1.222813896580715598e-13 3.909558833896549512e-14 -2.495574039573181940e-14 -1.226585293837706425e-13
1.456000000000000000e+03 1.652171611785888672e+00 5.130104064941406250e+00 -9.789618863275360849e-15 4.155539912284629545e-14 9.529733908464690928e-15 -3.728200270746752365e-14
1.457000000000000000e+03 6.876379394531250000e+01 -1.055927181243896484e+01 1.262585278298186675e-13 5.411079909340733851e-14 5.411079909340733851e-14 -5.573152209907908383e-14
1.458000000000000000e+03 4.165990066528320312e+01 4.804243147373199463e-01 -2.609456975586482708e-13 1.054831406683415240e-13 -4.663876571183930841e-14 -5.974305658474829417e-14
1.459000000000000000e+03 4.281470870971679688e+01 1.037356138229370117e+00 -2.938549468860240932e-13 -1.488133075967790209e-13 -1.328004817658517966e-13 -1.321506380887182974e-13
1.460000000000000000e+03 4.100805664062500000e+01 -1.172273755073547363e+00 -2.761953534803629484e-13 6.463436014701728904e-14 -6.346829393424555099e-14 -2.974778626554930305e-13
1.461000000000000000e+03 6.827967834472656250e+01 -5.628211975097656250e+00 1.733884066326078083e-14 7.430931954835462427e-15 7.430931954835462427e-15 -8.096304604628329956e-16
1.462000000000000000e+03 4.509741592407226562e+01 1.901499867439270020e+00 -4.373845307204665689e-13 -5.763335772165922855e-13 -3.041154296706122251e-13 -3.177150654110755257e-13
1.463000000000000000e+03 7.685493469238281250e+01 1.706483650207519531e+01 -7.413160525975709403e-14 -2.376499604744841676e-13 -9.353446700976694728e-14 1.049144563000821428e-13
1.464000000000000000e+03 7.566771697998046875e+01 1.445421981811523438e+01 1.052565898481370998e-13 -4.639193014661403824e-14 1.765939689401738177e-14 5.885400063891481348e-15
1.465000000000000000e+03 7.577617645263671875e+01 7.762601375579833984e+00 -6.384552175137114816e-14 -7.311331580309513023e-14 -4.108765058871352571e-14 -1.353866334430462066e-15
1.466000000000000000e+03 7.569522094726562500e+01 2.259266853332519531e+00 2.039233853393801477e-13 -1.871099575192353148e-13 5.044026143757786990e-15 -1.557830334999663058e-13
1.467000000000000000e+03 7.576106262207031250e+01 9.106509208679199219e+00 6.804925140090414826e-14 -3.946245524908027769e-14 8.576039184360340073e-15 -8.514143437585858232e-14
1.468000000000000000e+03 7.569666290283203125e+01 1.311157894134521484e+01 -1.528514829627052735e-14 -2.353055088017558250e-13 -7.517720305863853647e-14 9.674569088555240448e-14
1.469000000000000000e+03 7.571372222900390625e+01 5.012772560119628906e+00 -3.818227336952265127e-14 -2.679940416718679108e-13 -9.185289654529624204e-14 -1.028040432188119524e-13
1.470000000000000000e+03 7.563319396972656250e+01 1.579076099395751953e+01 -2.666438203319677208e-14 -1.944313850546497413e-13 -6.632873097338690127e-14 4.696724847691631510e-14
1.471000000000000000e+03 7.551123046875000000e+01 1.986451148986816406e+01 2.871212992296319488e-14 -2.164495525088655503e-13 -5.632122643695752773e-14 1.661997227125552867e-14
1.472000000000000000e+03 7.571862030029296875e+01 1.177054595947265625e+01 1.636652646090988594e-13 4.726678304398795882e-14 6.327961565117876108e-14 -6.576605037465765857e-14
1.473000000000000000e+03 7.544862365722656250e+01 2.127582931518554688e+01 -2.185777329532373470e-14 -1.923714144794544390e-13 -6.426875362192802088e-14 1.508800984812656149e-14
1.474000000000000000e+03 7.391622924804687500e+01 2.417465400695800781e+01 5.832758236769047464e-15 -2.605682054672431303e-13 -7.642063387268069330e-14 -1.161185608929658775e-15
1.475000000000000000e+03 7.701837158203125000e+01 -2.101913452148437500e+00 1.974617978893825065e-13 8.462648577777301395e-14 8.462648577777301395e-14 2.241704407822051048e-13
1.476000000000000000e+03 7.585240173339843750e+01 -4.453170299530029297e+00 -4.314989798847104763e-14 -2.014966020641786870e-13 -7.339395475917942502e-14 -4.891121958405103554e-14
1.477000000000000000e+03 7.433493804931640625e+01 1.715732383728027344e+01 -1.894260098713081153e-14 -3.054994137437899715e-13 -9.733261017910027624e-14 7.308341892818884244e-14
1.478000000000000000e+03 7.536664581298828125e+01 2.270572090148925781e+01 7.519339832859003869e-14 -2.651554377539749874e-13 -5.698860708423097998e-14 3.896567381364741955e-14
1.479000000000000000e+03 7.521246337890625000e+01 2.558448982238769531e+01 -7.124281887490408957e-16 -3.205619634755879632e-13 -9.638232052744388767e-14 -6.220715843753988478e-15
1.480000000000000000e+03 7.527854919433593750e+01 2.414777565002441406e+01 -4.977480257571283964e-17 -3.431534570386141070e-13 -1.029609679307520731e-13 -1.152864526662421979e-14
1.481000000000000000e+03 7.580750274658203125e+01 -1.870065093040466309e+00 2.472762663033312158e-13 -2.371565671708403267e-13 3.035907325703367070e-15 7.097088741751756899e-15
1.482000000000000000e+03 7.455926513671875000e+01 -3.024370908737182617e+00 1.594048108571541333e-13 -1.490006577321845160e-13 3.121246953930421897e-15 5.447198749464372824e-14
1.483000000000000000e+03 7.620872497558593750e+01 3.119030189514160156e+01 -4.210420532189951270e-14 -2.467994070828177788e-13 -8.667108101090975625e-14 4.538418455607949598e-14
1.484000000000000000e+03 7.485739135742187500e+01 2.821269035339355469e+01 -3.566601969816861339e-14 -2.097269704908963361e-13 -7.361789671790630596e-14 -2.346904510737001653e-14
1.485000000000000000e+03 7.265959167480468750e+01 3.184248733520507812e+01 -6.180223433710496650e-15 -2.199656743643446655e-13 -6.784376798416383303e-14 -2.207252664063880099e-14
1.486000000000000000e+03 7.639556121826171875e+01 3.245960235595703125e+01 -4.660212221950814013e-15 -2.307519680975339549e-13 -7.062365557815308836e-14 1.578715592498794451e-14
1.487000000000000000e+03 7.450826263427734375e+01 3.165910530090332031e+01 -9.161765008485530520e-15 -2.441189611568361784e-13 -7.598421539320096563e-14 -2.986744220543659234e-14
1.488000000000000000e+03 7.425295257568359375e+01 -8.473567962646484375e+00 2.828536592501627173e-14 1.036241947284521903e-13 3.957286768782077024e-14 2.753231975358930855e-14
1.489000000000000000e+03 7.619231414794921875e+01 -8.161111831665039062e+00 -1.088715096265839566e-13 5.628041638955881554e-14 -1.577732864873390012e-14 -8.667389570139348229e-16
1.490000000000000000e+03 3.886639833450317383e+00 2.309839439392089844e+01 9.560481204450022030e-15 -2.017819234183954036e-13 -5.766642995367818325e-14 6.460083119483317482e-14
1.491000000000000000e+03 2.887175798416137695e+00 1.893696022033691406e+01 3.957276265573531071e-14 -2.346704644842767529e-13 -5.852931258144150606e-14 9.044110946265782047e-14
1.492000000000000000e+03 4.057538032531738281e+00 1.890954399108886719e+01 -4.107092338207114779e-14 -3.149829843566293031e-13 -1.068161740156760298e-13 -1.123286644364070164e-14
1.493000000000000000e+03 3.981803894042968750e+00 1.602176284790039062e+01 1.106513274426066881e-14 -2.240125402883097472e-13 -6.388422099266530263e-14 1.450825984144425013e-14
1.494000000000000000e+03 3.856845140457153320e+00 2.579508209228515625e+01 1.652255162386002257e-14 -2.674245915858242117e-13 -7.527061385206174071e-14 3.080667638306541778e-14
1.495000000000000000e+03 2.809817790985107422e+00 2.590399742126464844e+01 1.526302548975413953e-14 -2.450889155253960228e-13 -6.894777039882435399e-14 -1.627518009853737724e-15
1.496000000000000000e+03 4.119003295898437500e+00 2.975755500793457031e+01 1.862047605135589562e-14 -3.351519094803995236e-13 -9.495943392506464575e-14 -2.858900182561852077e-14
1.497000000000000000e+03 4.910012245178222656e+00 2.310622978210449219e+01 5.030956933601421488e-14 -9.281612886038667631e-14 -1.275196751849855953e-14 -2.641660287326826062e-14
1.498000000000000000e+03 3.860692501068115234e+00 2.445650291442871094e+01 2.986241760599347983e-15 -2.045994531565606400e-13 -6.048395969184341969e-14 -7.099097649792759923e-14
1.499000000000000000e+03 3.804745912551879883e+00 1.033338832855224609e+01 -6.476842174564512167e-14 -1.650107459526262144e-13 -6.893375030948140081e-14 7.840698034410065187e-14
1.500000000000000000e+03 2.771628379821777344e+00 1.326910018920898438e+01 2.596074668171494126e-14 -1.032513376013344253e-13 -2.318717795351220301e-14 -8.582849329256264648e-15
1.501000000000000000e+03 3.902538299560546875e+00 1.460261535644531250e+01 4.425264679436963222e-14 -1.640383792342325897e-13 -3.593571837670617164e-14 3.111540972794424320e-14
1.502000000000000000e+03 3.826583147048950195e+00 1.177572917938232422e+01 2.451583214050940401e-14 1.050678471905663186e-14 1.050678471905663186e-14 -3.058832145365862620e-14
1.503000000000000000e+03 3.849768161773681641e+00 1.319620227813720703e+01 3.805941971085288755e-14 -1.666926145726943531e-13 -3.858995710329972406e-14 4.580080956964778516e-14
1.504000000000000000e+03 6.383834362030029297e+00 3.485778808593750000e+01 -4.213412252559653459e-14 -6.380842848454498784e-14 -3.178276665829517234e-14 -1.030299096363949951e-13
1.505000000000000000e+03 3.829816102981567383e+00 3.534571456909179688e+01 -1.412778280593298547e-14 -1.204321337750988152e-13 -4.036797751540838197e-14 -5.654665578553978722e-14
1.506000000000000000e+03 2.577543258666992188e+00 6.446595191955566406e+00 -3.403607080963537423e-14 7.691500973454334922e-14 1.286368184687898195e-14 2.544302489776006232e-14
1.507000000000000000e+03 4.512479782104492188e+00 3.231090927124023438e+01 2.293700846660653991e-14 -1.960491231162153625e-13 -5.193363642776172018e-14 -3.419560438305303818e-14
1.508000000000000000e+03 4.258218765258789062e+00 3.102259635925292969e+01 2.914537033482482442e-14 -1.705129229001914326e-13 -4.241026543079680355e-14 2.807240828954938455e-14
1.509000000000000000e+03 2.653423786163330078e+00 5.304911136627197266e+00 -2.465527578648409046e-14 -2.393212852284248848e-13 -7.919297270904401831e-14 -6.334247227212860820e-14
1.510000000000000000e+03 5.240425109863281250e+00 6.081353187561035156e+00 -2.749857311393774997e-15 -1.613068267283454538e-13 -4.921700525427341599e-14 5.962263560470304480e-14
1.511000000000000000e+03 6.549267768859863281e+00 3.663872146606445312e+01 -1.506448202570891560e-15 -1.208335782641864128e-14 -4.076941946339713782e-15 -5.856574177443701901e-14
1.512000000000000000e+03 5.155547714233398438e+01 5.142379760742187500e+00 -4.087134886717087856e-14 2.823465575653005127e-14 -3.791008187302132362e-15 -9.269951614047228228e-14
1.513000000000000000e+03 5.951084899902343750e+01 1.544782042503356934e+00 9.663327097872691923e-15 9.564332155041418981e-14 3.159199450978276980e-14 -3.832255896624690850e-14
1.514000000000000000e+03 5.440956497192382812e+01 3.494977951049804688e+00 -4.755031885275186332e-14 1.054364047784438208e-13 1.736582543889440833e-14 -1.037433146658904570e-13
1.515000000000000000e+03 6.322227096557617188e+01 2.149472713470458984e+00 3.424263842854817497e-14 1.290527878788569338e-13 4.898862823103471154e-14 -2.240765046165963661e-16
1.516000000000000000e+03 7.016384887695312500e+01 -8.900502204895019531e+00 3.340263246662429630e-14 6.006636567258347159e-14 2.804069876413597256e-14 8.266678357474188665e-14
1.517000000000000000e+03 6.920890045166015625e+01 -9.201497077941894531e+00 6.758026619866838725e-14 6.327618686180827567e-14 3.925693456289028327e-14 2.278669061165500276e-14
1.518000000000000000e+03 5.009457015991210938e+01 4.833473682403564453e+00 -1.376519510626773163e-14 -5.165031745943231278e-14 -1.962465393911660277e-14 -1.384923669885476660e-13
1.519000000000000000e+03 6.394028854370117188e+01 -3.513764142990112305e-01 1.245650175889234657e-13 1.220114368696498253e-13 7.397293227181384045e-14 -3.480284569107143511e-14
1.520000000000000000e+03 6.358843612670898438e+01 9.197140932083129883e-01 1.131865732867040619e-13 -2.011789138869814891e-14 2.792060473880836335e-14 -2.852182872476946573e-14
1.521000000000000000e+03 6.622448730468750000e+01 7.937487959861755371e-01 -1.299603413301925539e-14 -9.707162916365585925e-14 -3.302029873489265022e-14 -1.318540020683921579e-14
1.522000000000000000e+03 6.556719207763671875e+01 -9.920088052749633789e-01 4.083093523119148138e-14 -6.256518740588301597e-14 -6.520275398297576200e-15 -2.070178508055842831e-14
1.523000000000000000e+03 6.510245513916015625e+01 1.852677017450332642e-01 5.858867265038508743e-14 -2.064151868636128484e-14 1.138414568098737242e-14 -1.573355906821748140e-14
1.524000000000000000e+03 6.798869323730468750e+01 -6.624731540679931641e+00 1.038767528482691105e-13 4.486527269083372474e-15 3.250898221408490829e-14 3.103707950911395452e-14
1.525000000000000000e+03 4.255921554565429688e+01 1.592795276641845703e+01 -1.325957030805235970e-13 4.921846350619540900e-13 1.078766863706927259e-13 3.424028367695480801e-13
1.526000000000000000e+03 4.280621337890625000e+01 3.054512405395507812e+01 6.935641297389771864e-14 3.957317600781357081e-13 1.395264519156100280e-13 5.727878701943314721e-14
1.527000000000000000e+03 1.936002922058105469e+01 2.482983827590942383e+00 1.494101744452594471e-13 6.403293287314884563e-14 6.403293287314884563e-14 -1.223287286354277081e-13
1.528000000000000000e+03 1.309362316131591797e+01 1.786842346191406250e+01 -1.172804258223192342e-13 6.703143899319807808e-13 1.659102000749201888e-13 -1.385363855967505775e-13
1.529000000000000000e+03 1.522559261322021484e+01 1.541578769683837891e+01 1.456765209763982716e-13 2.911875384911666309e-13 1.310592124192586083e-13 -5.461258141136078603e-14
1.530000000000000000e+03 1.521037960052490234e+01 1.375179290771484375e+01 1.237899892184493589e-13 1.445547511986361444e-13 8.050342076987293538e-14 1.760096788368942233e-13
1.531000000000000000e+03 1.602146720886230469e+01 1.140936470031738281e+01 1.442603225461705496e-13 1.075768028260468134e-13 7.555113761166520892e-14 -1.034804024153263002e-13
1.532000000000000000e+03 1.637586593627929688e+01 1.273563289642333984e+01 -1.524125606538334621e-13 6.666954857105500398e-13 1.542848829380258358e-13 2.196482470732952219e-14
1.533000000000000000e+03 1.880278015136718750e+01 2.469273090362548828e+00 -6.336189981980683283e-14 6.434679584955624310e-14 2.954692853808559092e-16 -1.352260046560277429e-13
1.534000000000000000e+03 1.686343765258789062e+01 9.159761428833007812e+00 -1.039361129172126919e-13 2.299616389239006464e-13 3.780765780200638637e-14 2.908570533402023151e-14
1.535000000000000000e+03 1.735163307189941406e+01 3.269974899291992188e+01 1.963236193893661691e-14 1.456667089467372778e-13 4.958972346798783126e-14 2.849717532261986097e-13
1.536000000000000000e+03 1.447648429870605469e+01 1.989402580261230469e+01 -1.545345611458220914e-13 1.031793682611248375e-12 2.631777445711441787e-13 -1.032153353129443285e-13
1.537000000000000000e+03 1.443261051177978516e+01 2.074715423583984375e+01 -1.963493251452494426e-13 9.681220668883439018e-13 2.315318347202027782e-13 -1.408481350214513261e-13
1.538000000000000000e+03 1.512599182128906250e+01 1.416549205780029297e+01 -9.116948325839716039e-14 4.641878244629471517e-13 1.119054935522223460e-13 1.801096842198382508e-13
1.539000000000000000e+03 4.263786697387695312e+01 1.758926010131835938e+01 3.673533780770496526e-14 2.444984590222604171e-13 8.437013972661597250e-14 2.567205921856583611e-14
1.540000000000000000e+03 4.265222167968750000e+01 1.842116546630859375e+01 3.835301488289838412e-14 1.643700637838502177e-14 1.643700637838502177e-14 6.335519809512815681e-14
1.541000000000000000e+03 1.651605987548828125e+01 1.112451267242431641e+01 6.612853134817155837e-15 2.315888366494212036e-13 7.146050380124960300e-14 -2.280305393294324023e-13
1.542000000000000000e+03 1.671996688842773438e+01 9.524751663208007812e+00 -4.576324196437116243e-14 3.006438143143136399e-13 7.646417136616956434e-14 -1.502662333755996893e-13
1.543000000000000000e+03 1.782561874389648438e+01 7.773405075073242188e+00 5.387936936342672956e-14 2.060949474231785206e-13 7.799229334191568053e-14 5.359621302542319499e-14
1.544000000000000000e+03 1.700947570800781250e+01 2.605079174041748047e+00 9.665070799897909626e-14 4.142173054750598882e-14 4.142173054750598882e-14 3.015489130641681170e-14
1.545000000000000000e+03 1.827551651000976562e+01 6.678991794586181641e+00 -1.305472386008837971e-13 -5.594881654323591302e-14 -5.594881654323591302e-14 1.713241534588311882e-14
1.546000000000000000e+03 4.203520202636718750e+01 1.425963497161865234e+01 -1.004465133573780034e-13 9.420434132203711619e-14 -1.872652627041802853e-15 -5.652408743969314364e-14
1.547000000000000000e+03 4.229119873046875000e+01 1.920693778991699219e+01 8.564356905951808763e-14 8.144705070968483174e-13 2.700342391099425088e-13 -4.942660525113738712e-14
1.548000000000000000e+03 4.275928878784179688e+01 2.652590370178222656e+01 1.763470012378087759e-13 7.160905440665998878e-13 2.677312581703117367e-13 -1.186513317067913742e-13
1.549000000000000000e+03 1.815982437133789062e+01 5.861701011657714844e+00 6.606160388687720708e-14 2.113159094322553111e-13 8.321325535099247106e-14 -2.501437540447255109e-14
1.550000000000000000e+03 4.232567214965820312e+01 2.443135833740234375e+01 -6.500695977611908871e-14 4.754003180701404929e-13 1.231180007119428432e-13 -2.156354386500733411e-13
1.551000000000000000e+03 4.274035263061523438e+01 2.526600074768066406e+01 1.319760137763123509e-13 2.853158789957455088e-13 1.251875664763646423e-13 -2.780707013662429145e-14
1.552000000000000000e+03 4.216117477416992188e+01 1.222052574157714844e+01 1.684640653972641067e-13 3.467045715192101918e-13 1.545505937854477208e-13 2.826840324321455711e-13
1.553000000000000000e+03 1.931521606445312500e+01 4.502095222473144531e+00 7.727983021305756539e-14 -2.413857687951631581e-13 -4.923178089700532001e-14 -1.461018534886643350e-13
1.554000000000000000e+03 1.395052623748779297e+01 2.161218261718750000e+01 -1.850543373052571106e-13 9.272118663139483630e-13 2.226472587026073757e-13 -1.989370988905378446e-13
1.555000000000000000e+03 4.249095916748046875e+01 1.508596515655517578e+01 -1.220142693478254436e-13 6.797233674353531097e-13 1.673127240052474374e-13 9.253033316771949734e-14
1.556000000000000000e+03 1.445707225799560547e+01 2.032226753234863281e+01 -1.152100198012137588e-13 1.002896116847340480e-12 2.663058304690907319e-13 -4.428332632771918298e-14
1.557000000000000000e+03 4.266313552856445312e+01 2.044905471801757812e+01 4.987081304560006534e-14 4.331317476988921777e-13 1.449007607694577371e-13 -1.268897774396940403e-13
1.558000000000000000e+03 4.171549606323242188e+01 1.182999706268310547e+01 1.767858591721765960e-13 6.247767602753084848e-13 2.404687777027292306e-13 1.308782590766707776e-13
1.559000000000000000e+03 4.267354965209960938e+01 2.245243453979492188e+01 2.421073087290840503e-14 3.763836302090456387e-13 1.201783084939928026e-13 1.588361332651583302e-13
1.560000000000000000e+03 4.229534530639648438e+01 2.121912765502929688e+01 7.143936863514971369e-15 7.350768756707315443e-13 2.226662457931530281e-13 -1.026921781185669187e-15
1.561000000000000000e+03 4.315861511230468750e+01 2.613201141357421875e+01 1.324847891982783299e-13 6.515415377356115201e-13 2.352079035011778174e-13 -1.183394202942944506e-13
1.562000000000000000e+03 4.233641052246093750e+01 2.483211135864257812e+01 2.698632062172329205e-13 5.274142125637204526e-13 2.391832120817588558e-13 -3.421051555105650288e-14
1.563000000000000000e+03 4.268771743774414062e+01 2.325342941284179688e+01 1.218302904035500206e-14 8.287383908463230586e-13 2.522764169874541773e-13 1.329773964553471188e-13
1.564000000000000000e+03 4.229835510253906250e+01 2.202219581604003906e+01 1.446066573776438879e-13 7.024875472994018821e-13 2.541282614031137310e-13 2.023809586712208008e-13
1.565000000000000000e+03 4.268004608154296875e+01 2.285192680358886719e+01 4.207095080839030887e-14 4.755399090998480016e-13 1.552832569560319564e-13 9.097457081283857883e-14
1.566000000000000000e+03 4.266363906860351562e+01 2.084917259216308594e+01 6.578850013589168655e-14 7.602102541220956411e-13 2.477996377970442810e-13 -1.955446709504121694e-15
1.567000000000000000e+03 4.270164871215820312e+01 2.406099319458007812e+01 3.086728667263914649e-14 6.537421428851053484e-13 2.053828163312357291e-13 -3.783673136088794298e-14
1.568000000000000000e+03 4.230368804931640625e+01 2.282425689697265625e+01 7.207409277417472365e-15 7.808550355793697495e-13 2.364187404874096288e-13 2.090036314589954758e-13
1.569000000000000000e+03 4.211391830444335938e+01 1.181329727172851562e+01 1.208325025323433999e-13 3.262910503853272415e-13 1.341370590990376144e-13 -6.215111026742006772e-14
1.570000000000000000e+03 4.303582382202148438e+01 2.125835609436035156e+01 -3.027170053797496874e-14 5.360377940133442820e-13 1.517298249932921839e-13 -7.075231649470922757e-14
1.571000000000000000e+03 4.266197586059570312e+01 1.963638114929199219e+01 1.151465939741233568e-13 2.323523318192854958e-13 1.042496777380226558e-13 1.646934812919026436e-13
1.572000000000000000e+03 4.309915542602539062e+01 2.407694625854492188e+01 5.929765955602767091e-14 -1.575905069417168902e-13 -2.948785624858583920e-14 -6.464240357188441588e-15
1.573000000000000000e+03 4.220732116699218750e+01 1.262741947174072266e+01 6.617406275721826603e-14 -3.376472820955378484e-13 -8.144196715674859033e-14 2.513618213041950850e-14
1.574000000000000000e+03 4.259649276733398438e+01 1.261376380920410156e+01 5.371526520022568141e-14 1.145227304915480415e-13 5.047139667465304347e-14 1.614392349186602460e-13
1.575000000000000000e+03 4.272756576538085938e+01 2.485988998413085938e+01 1.431899032938027672e-13 7.018803940828099996e-13 2.535210810814675364e-13 -1.080928627313591794e-13
1.576000000000000000e+03 4.265627288818359375e+01 1.882815170288085938e+01 5.411569833197425738e-14 4.807019040632687368e-13 1.604452925770341598e-13 2.644680806816734897e-13
1.577000000000000000e+03 3.947603225708007812e+01 3.553877639770507812e+01 1.717911904852882643e-14 1.446153309950237720e-13 4.853833196374716941e-14 -1.516466937917168578e-13
1.578000000000000000e+03 1.700307846069335938e+01 3.143979787826538086e+00 6.604298949082834658e-15 1.858342039279259339e-13 5.773154984666309386e-14 -1.777508126582158510e-14
1.579000000000000000e+03 4.265963745117187500e+01 1.923098945617675781e+01 4.686990406248606189e-14 4.775965864109443793e-13 1.573399478196554901e-13 2.638819609872278260e-13
1.580000000000000000e+03 4.225715637207031250e+01 1.715712547302246094e+01 -1.197549682032186813e-13 8.592928343702233018e-14 -1.014770627689185259e-14 7.355859085907134887e-14
1.581000000000000000e+03 4.302222824096679688e+01 1.842966270446777344e+01 -7.826764681240910848e-14 6.069699864247324328e-13 1.586107005284442817e-13 1.648407159469261751e-13
1.582000000000000000e+03 1.492038726806640625e+01 1.905134201049804688e+01 4.137329720358198792e-14 5.209918325747853185e-13 1.687095423216419809e-13 -8.273579981928416704e-14
1.583000000000000000e+03 4.132131958007812500e+01 9.353885650634765625e+00 3.842698999712707009e-13 6.221965759452274813e-13 3.019399509064657483e-13 4.573508455632535608e-13
1.584000000000000000e+03 4.188648605346679688e+01 1.015864086151123047e+01 3.167692074357991716e-13 5.932677309486433792e-13 2.730110788048273340e-13 6.965978629428631885e-14
1.585000000000000000e+03 1.445605754852294922e+01 2.241078948974609375e+01 -1.076216938781853968e-14 3.613952399058456555e-13 1.051899181907928194e-13 -7.695574863117449205e-14
1.586000000000000000e+03 1.456630802154541016e+01 2.404586791992187500e+01 2.495680528555310751e-13 9.304747727520434886e-13 3.540128531032832315e-13 7.165307165961018465e-14
1.587000000000000000e+03 1.499182796478271484e+01 2.810692024230957031e+01 1.400150069670591524e-13 7.920216132245583296e-13 2.796109968995069694e-13 1.847836391278417922e-13
1.588000000000000000e+03 1.482160854339599609e+01 2.760837936401367188e+01 -1.487376811071163679e-14 2.681312203517416393e-13 7.597723584171559019e-14 -5.247882410206426707e-14
1.589000000000000000e+03 1.700868606567382812e+01 8.789649963378906250e+00 5.169156118770001918e-14 4.339120751074843074e-13 1.456810881780498668e-13 -1.483221640126430874e-13
1.590000000000000000e+03 1.451242446899414062e+01 1.903984451293945312e+01 -7.787078138343436762e-14 6.528910441797042274e-13 1.725060795165073158e-13 -1.357209615824922153e-14
1.591000000000000000e+03 3.679678726196289062e+01 8.363088965415954590e-01 5.299978121306447854e-13 9.191250191498134825e-13 4.347368548051483428e-13 5.780009175275491184e-13
1.592000000000000000e+03 3.813393020629882812e+01 1.566688418388366699e+00 2.180566789416679696e-13 1.185756787897007669e-12 4.211440224333173887e-13 5.755401580667673933e-13
1.593000000000000000e+03 1.442786979675292969e+01 2.199517822265625000e+01 -9.733215616944054793e-14 8.733051716676432097e-13 2.327919215901197436e-13 -9.320005840219094950e-14
1.594000000000000000e+03 4.230409622192382812e+01 1.343826580047607422e+01 2.442021736735744408e-13 2.876618756565696433e-13 1.595592147990432252e-13 1.956977738496942787e-13
1.595000000000000000e+03 1.657759475708007812e+01 9.888097763061523438e+00 -1.206390808647719859e-13 2.228032347376465716e-13 3.064924683948873352e-14 -1.951914378826163921e-13
1.596000000000000000e+03 1.615466880798339844e+01 1.102345275878906250e+01 -1.799808945542741290e-13 -7.713466909468891242e-14 -7.713466909468891242e-14 2.858232381786236787e-14
1.597000000000000000e+03 1.512589550018310547e+01 1.580562305450439453e+01 -1.047184596523510758e-13 4.583811086776579113e-13 1.060987913194602617e-13 -1.091288111309055009e-13
1.598000000000000000e+03 1.504020786285400391e+01 1.456596374511718750e+01 -3.289865125113977662e-14 6.721647977797617912e-13 1.917798466690920356e-13 1.615453952520055220e-14
1.599000000000000000e+03 1.411830520629882812e+01 2.327884483337402344e+01 -1.303363477258082104e-13 4.474019895880920750e-13 9.511969255868515938e-14 -2.327182500524993536e-13
1.600000000000000000e+03 1.553369426727294922e+01 2.891245460510253906e+01 -4.929566412188723934e-14 7.108884878329058132e-13 1.984778444028001410e-13 3.373649287447683109e-13
1.601000000000000000e+03 1.863377952575683594e+01 3.409927368164062500e+00 1.889794371608567031e-14 2.826048043583911928e-13 9.045082662462872181e-14 -1.266872078162922799e-13
1.602000000000000000e+03 1.629470252990722656e+01 1.063577461242675781e+01 -1.062311724047207417e-13 5.949856492909466610e-13 1.466263362896041977e-13 -7.102561675733851110e-14
1.603000000000000000e+03 1.822691726684570312e+01 2.488312959671020508e+00 1.790690534221595076e-13 2.597476812631061005e-13 1.316450204055796824e-13 -1.553359491816147520e-14
1.604000000000000000e+03 4.226465988159179688e+01 3.087702369689941406e+01 -6.373612575216736076e-14 4.301939934923254549e-13 1.099373616773001439e-13 -1.853066175982673314e-13
1.605000000000000000e+03 4.169520950317382812e+01 3.120427131652832031e+01 -1.026263340124121057e-14 4.531112084930205564e-13 1.328545699017316672e-13 -2.740431782866613319e-14
1.606000000000000000e+03 1.502715015411376953e+01 1.619576072692871094e+01 5.345810260930748681e-14 7.091748520891838492e-13 2.287898874259869375e-13 2.013606295592218487e-13
1.607000000000000000e+03 1.494855785369873047e+01 1.495924186706542969e+01 2.635899277439370664e-14 6.060590397594101120e-13 1.897254055249764093e-13 1.249429298086704443e-13
1.608000000000000000e+03 4.007616806030273438e+01 3.585269451141357422e+00 4.070670124763087205e-13 6.090912821853089465e-13 3.048474829774744377e-13 5.849413835246064508e-13
1.609000000000000000e+03 4.036645507812500000e+01 5.539608001708984375e+00 2.615995798888742785e-13 3.866197997599157832e-13 1.944658084736261561e-13 7.417286186292559869e-13
1.610000000000000000e+03 4.206371307373046875e+01 1.140514564514160156e+01 1.522858716299785309e-13 3.397710715211110788e-13 1.476170802348214517e-13 5.072540491487566305e-14
1.611000000000000000e+03 3.932540893554687500e+01 4.022161483764648438e+00 7.009620748427147774e-13 7.121708821625216679e-13 4.239398816805600712e-13 6.406541963599465817e-13
1.612000000000000000e+03 4.075122070312500000e+01 3.609555959701538086e+00 1.722616325841933027e-13 5.198981436332905659e-13 2.076479450625196010e-13 3.095961258626350743e-13
1.613000000000000000e+03 1.572325420379638672e+01 3.350274324417114258e+00 3.987554644119262193e-14 2.915952256130754927e-13 9.944122755052228757e-14 5.996579236855828499e-14
1.614000000000000000e+03 1.975064468383789062e+01 3.445279312133789062e+01 -1.875487138096494644e-14 -6.028001448693531827e-13 -1.864664970823923240e-13 -4.087360536294236402e-14
1.615000000000000000e+03 1.880995750427246094e+01 3.425188827514648438e+01 -7.801159891684950054e-14 -2.164373416818979323e-13 -8.833468082437151425e-14 5.011640516645876620e-14
1.616000000000000000e+03 1.475004959106445312e+01 1.740705490112304688e+01 9.569558856545746367e-15 5.073616765431665510e-13 1.550793727374960573e-13 2.220953930205486759e-14
1.617000000000000000e+03 1.400727367401123047e+01 2.203777503967285156e+01 -1.145600134937543868e-13 6.829180233466902727e-13 1.705074070216389126e-13 -1.765775026196791941e-13
1.618000000000000000e+03 1.409147071838378906e+01 2.286806678771972656e+01 -1.159269891453512669e-13 9.110869610834404497e-13 2.385479780288995988e-13 -2.723099252598809583e-13
1.619000000000000000e+03 1.610708618164062500e+01 2.972058868408203125e+01 -5.270560531523034442e-14 3.434194660416334255e-13 8.721415787910774542e-14 1.408448146522980893e-13
1.620000000000000000e+03 1.522868061065673828e+01 2.856340026855468750e+01 -1.834197839456225970e-14 4.496486462248622251e-13 1.293919940810461799e-13 5.283301601115633628e-14
1.621000000000000000e+03 1.643602561950683594e+01 1.025712490081787109e+01 1.038950148786119132e-13 -9.272641113061350082e-14 3.350581336157760527e-15 -2.477781705940290680e-13
1.622000000000000000e+03 1.374507045745849609e+01 2.411395645141601562e+01 5.970082691012998377e-14 7.576012300142265232e-13 2.451906136891751631e-13 1.962164019589027197e-13
1.623000000000000000e+03 1.803370285034179688e+01 6.241363048553466797e+00 -1.324766136362714314e-14 -2.801832659111991308e-13 -8.802927462490950372e-14 -9.352243914191593621e-14
1.624000000000000000e+03 1.730439758300781250e+01 8.055830001831054688e+00 -3.932215609982886440e-14 3.491552478997878017e-13 9.294992618473496560e-14 -8.262233128566998097e-14
1.625000000000000000e+03 1.789060592651367188e+01 6.604002952575683594e+00 -1.637591666816314712e-14 -1.442710968052596243e-13 -4.819410455024659978e-14 -5.345475852323172683e-15
1.626000000000000000e+03 1.765756988525390625e+01 6.155262947082519531e+00 -8.861859271576399966e-14 1.450244004747025528e-13 1.692174300530792375e-14 -7.921019119479580373e-14
1.627000000000000000e+03 1.837590599060058594e+01 5.007746219635009766e+00 3.260080736183085248e-14 -7.753012506083942212e-14 -1.347879463207621309e-14 -6.191568931819199650e-14
1.628000000000000000e+03 3.444522476196289062e+01 -2.555052518844604492e+00 2.000370118301290218e-14 8.573014429705694966e-15 8.573014429705694966e-15 1.576551118386698702e-13
1.629000000000000000e+03 1.927087020874023438e+01 3.494634246826171875e+01 -9.062281497050281298e-14 -3.590949965767004093e-13 -1.349153400760291777e-13 5.115521314923501817e-14
1.630000000000000000e+03 1.493091678619384766e+01 1.659147644042968750e+01 1.529488578703216278e-14 2.810606565192830253e-13 8.890665845672982015e-14 2.060057650182280098e-14
1.631000000000000000e+03 1.475138092041015625e+01 1.574113178253173828e+01 1.741129755563480819e-13 5.778803000358601061e-13 2.255979826776624564e-13 -5.779475629222015701e-15
1.632000000000000000e+03 3.844559860229492188e+01 1.938983082771301270e+00 3.663306637202712324e-13 3.056894472795723683e-13 2.016060387209639426e-13 3.152276074717963450e-13
1.633000000000000000e+03 1.826038360595703125e+01 5.451664924621582031e+00 1.636264366187967223e-13 -2.137628080458881669e-14 4.267504793010849784e-14 3.911284748229874875e-14
1.634000000000000000e+03 1.819086647033691406e+01 3.369925308227539062e+01 -2.288575111483639318e-14 2.646975249664257346e-13 7.254352690387252944e-14 8.815357162772138877e-14
1.635000000000000000e+03 3.535738754272460938e+01 -2.051967620849609375e+00 2.641677024697863807e-13 5.935997136538584407e-13 2.573302356791151713e-13 8.071210935928566088e-14
1.636000000000000000e+03 3.516226196289062500e+01 -5.168061256408691406e-01 9.263565392200745485e-13 8.659571540739485762e-13 5.376940754621417629e-13 5.705193804363128951e-13
1.637000000000000000e+03 4.116230392456054688e+01 8.511960029602050781e+00 4.784339157487549343e-13 6.168016401450482356e-13 3.285706667681409510e-13 4.308525107868388382e-13
1.638000000000000000e+03 4.200917053222656250e+01 1.099416446685791016e+01 8.514138016574995804e-14 3.109948550853586235e-13 1.188408773515961525e-13 1.252723697209778483e-14
1.639000000000000000e+03 4.258536529541015625e+01 1.634311866760253906e+01 1.395558270182208072e-14 3.719885456523325251e-13 1.157832374898068450e-13 1.068153676403102437e-13
1.640000000000000000e+03 4.102128982543945312e+01 7.657358646392822266e+00 4.884908666805132249e-13 1.032870295368526481e-12 4.564083486147119118e-13 6.601761780473947017e-13
1.641000000000000000e+03 1.535073280334472656e+01 1.333965969085693359e+01 4.932678750050115135e-14 5.244005099949711202e-13 1.721181790842463144e-13 -9.413111024154929840e-14
1.642000000000000000e+03 1.468066501617431641e+01 2.712948608398437500e+01 9.590723668798789570e-14 6.816163844285128004e-13 2.332570985322246493e-13 -1.083531932255001051e-13
1.643000000000000000e+03 3.646315383911132812e+01 5.448884367942810059e-01 7.690407013462297048e-13 8.614436204298914213e-13 4.891452911118254754e-13 5.018003699196194045e-13
1.644000000000000000e+03 4.275716781616210938e+01 2.695617866516113281e+01 2.231615228980715626e-13 5.531501363724433684e-13 2.328934842286273232e-13 8.646290741752896136e-14
1.645000000000000000e+03 1.614866638183593750e+01 3.017360687255859375e+01 3.476352980979167950e-14 1.979024447573349277e-13 6.979979745233566568e-14 2.755542918408265818e-13
1.646000000000000000e+03 4.194974517822265625e+01 1.057890701293945312e+01 2.416233988063176685e-13 7.440661585131347344e-13 2.957068726168465833e-13 2.654435102712043859e-13
1.647000000000000000e+03 4.262475585937500000e+01 1.717082405090332031e+01 3.394124377712436080e-14 3.805538512351852587e-13 1.243485295201324226e-13 7.424721509266193897e-14
1.648000000000000000e+03 4.613848495483398438e+01 4.169379234313964844e+00 1.411809308782957517e-13 -4.427543130302441510e-13 -9.047202277710081342e-14 -1.378902011019492169e-13
1.649000000000000000e+03 4.118596649169921875e+01 2.582438707351684570e+00 8.573784043841570224e-14 6.315071078913381264e-13 2.151734872094315798e-13 2.217928802856344861e-13
1.650000000000000000e+03 3.698946762084960938e+01 -3.102566003799438477e+00 -2.071131623409411260e-13 2.314938605391114734e-13 7.314210814703819841e-15 7.094071017470574003e-14
1.651000000000000000e+03 1.652271270751953125e+01 3.172270202636718750e+01 -2.142495707756209011e-13 2.513108807427472113e-13 1.111838739972044118e-14 8.630207280150431481e-14
1.652000000000000000e+03 1.449141883850097656e+01 1.946409606933593750e+01 -2.826547420328295174e-14 7.656523527167780063e-13 2.212160576248178856e-13 -1.429817906867941746e-13
1.653000000000000000e+03 3.873319625854492188e+01 2.320027351379394531e+00 5.296964581368024394e-13 6.845222630912084494e-13 3.642656109473924042e-13 3.039393552378005792e-13
1.654000000000000000e+03 4.208258438110351562e+01 1.467204475402832031e+01 1.394208607884053069e-14 3.719827722757640398e-13 1.157774505607112037e-13 1.624142985899579283e-13
1.655000000000000000e+03 4.066910552978515625e+01 6.401824474334716797e+00 2.316384117937581033e-13 3.737792952755725207e-13 1.816253175418100496e-13 5.617267718679985755e-13
1.656000000000000000e+03 4.252334213256835938e+01 2.959689140319824219e+01 2.124109265214113584e-13 8.230484436350105071e-13 3.106378002049048348e-13 -5.383839245053740827e-15
1.657000000000000000e+03 4.024820709228515625e+01 4.481118202209472656e+00 4.288540822374592443e-13 6.413041213522430173e-13 3.210474421033726600e-13 4.994858151217973496e-13
1.658000000000000000e+03 3.907932281494140625e+01 3.655004501342773438e+00 7.278642749283803504e-13 1.181209860826037961e-12 5.727222624103689430e-13 6.519565161171303469e-13
1.659000000000000000e+03 1.454817581176757812e+01 1.862843322753906250e+01 -1.075196247139753591e-13 5.944334651244997936e-13 1.460741521231573303e-13 1.603873148658604975e-13
1.660000000000000000e+03 1.472830104827880859e+01 2.528619384765625000e+01 2.054294776822340740e-13 5.455506922949493465e-13 2.252940537036604574e-13 -6.861526761537967839e-15
1.661000000000000000e+03 3.326050567626953125e+01 -2.754549503326416016e+00 2.226583311172938839e-13 4.385571224750639541e-13 1.983646401434654982e-13 2.363787334272449137e-13
1.662000000000000000e+03 4.167734527587890625e+01 8.885715484619140625e+00 4.937546140178217247e-13 4.861147834094026177e-13 2.939608192281673027e-13 3.804005992581044326e-13
1.663000000000000000e+03 4.191530990600585938e+01 1.207154512405395508e+00 -1.835014345336061226e-13 -7.864347194297405252e-14 -7.864347194297405252e-14 -8.545065561171502622e-14
1.664000000000000000e+03 4.108939361572265625e+01 3.384550476074218750e+01 -7.005209129787304256e-14 6.333664604070421422e-13 1.689943080222452987e-13 -1.228374091897035947e-13
1.665000000000000000e+03 4.042467117309570312e+01 3.418513870239257812e+01 -9.531680051364302408e-14 5.081613298554832348e-13 1.238533608354311366e-13 -2.272331221840964699e-13
1.666000000000000000e+03 3.899116897583007812e+01 2.701845407485961914e+00 4.840494866910349803e-13 6.649592443515317530e-13 3.447026193127700200e-13 3.399067052128890154e-13
1.667000000000000000e+03 3.922779846191406250e+01 3.077688217163085938e+00 6.413837017917034533e-13 1.052644841952055099e-12 5.082085468600949785e-13 5.617518169381829907e-13
1.668000000000000000e+03 3.916342544555664062e+01 -2.253885746002197266e+00 -1.533352573602000946e-13 2.087905857321020742e-13 1.663659952801013059e-14 -2.735027644900495103e-13
1.669000000000000000e+03 4.260717391967773438e+01 1.675586891174316406e+01 1.343484463354202921e-14 9.725969080673704803e-14 3.320836037797383899e-14 1.652202002598232577e-13
1.670000000000000000e+03 3.611981964111328125e+01 -3.327619433403015137e-01 6.464518590570955681e-13 8.517970942305275184e-13 4.494746859862869259e-13 4.345946345851725567e-13
1.671000000000000000e+03 4.274745178222656250e+01 2.739223098754882812e+01 9.785602233039480957e-14 1.048459171044957561e-12 3.438945634336165735e-13 -1.641456847561225535e-14
1.672000000000000000e+03 3.263805389404296875e+01 -2.780127763748168945e+00 3.229019970244634274e-13 2.298884823823121870e-13 1.658371384010218219e-13 2.624876498883571552e-13
1.673000000000000000e+03 4.146437454223632812e+01 3.214725112915039062e+01 1.273157875783179072e-13 6.493262416466805131e-13 2.329926074122468105e-13 -1.187971026888820503e-13
1.674000000000000000e+03 1.457707118988037109e+01 2.666225624084472656e+01 5.130595452066018247e-14 6.625015748669416116e-13 2.141422483130719923e-13 -7.771402607808369778e-14
1.675000000000000000e+03 2.006798934936523438e+01 3.499929809570312500e+01 -1.243535304026530119e-13 -3.278000700740468787e-13 -1.356460787877572516e-13 -7.395407393027617071e-14
1.676000000000000000e+03 4.235473251342773438e+01 1.384344100952148438e+01 1.548113139147443834e-14 6.634770959360308112e-15 6.634770959360308112e-15 1.021833306988004231e-13
1.677000000000000000e+03 4.240354919433593750e+01 1.425226211547851562e+01 1.117291074112861105e-13 5.053934159192363662e-13 1.851367502228931650e-13 1.008125942209177339e-13
1.678000000000000000e+03 3.506134796142578125e+01 -1.628323912620544434e+00 4.322298270166557987e-13 4.597470407846637741e-13 2.675930494983741470e-13 2.992696964809055116e-13
1.679000000000000000e+03 1.386149215698242188e+01 2.495548439025878906e+01 8.475319513041867925e-14 4.938322971034803111e-13 1.735756449596642659e-13 -9.695249567369043642e-14
1.680000000000000000e+03 1.449199008941650391e+01 2.620980072021484375e+01 3.097773231507117142e-13 1.047780677325416132e-12 4.072674001428383539e-13 -2.047639130735995350e-13
1.681000000000000000e+03 1.441428184509277344e+01 2.576923179626464844e+01 3.809006197475275912e-14 5.653357014294424499e-13 1.810277324093903517e-13 -7.751537313503004123e-14
1.682000000000000000e+03 3.902660751342773438e+01 3.464912414550781250e+01 1.751267723502578089e-13 2.580581148076133147e-13 1.299554675026140527e-13 -2.352388032630936543e-13
1.683000000000000000e+03 4.152348709106445312e+01 3.353012084960937500e+01 -3.237427687041716240e-14 3.006630860079295697e-13 8.048664274125372220e-14 -2.448458645033790848e-13
1.684000000000000000e+03 4.218216323852539062e+01 3.131657791137695312e+01 9.230515792902141414e-14 7.715745360334369529e-13 2.591639197083855928e-13 -2.917348166427830014e-13
1.685000000000000000e+03 4.224270248413085938e+01 2.862903785705566406e+01 1.640935922298664140e-13 6.193372095557314605e-13 2.350292540882065184e-13 -3.755139645414407035e-13
1.686000000000000000e+03 4.243574142456054688e+01 3.002323722839355469e+01 5.321117895265570219e-14 4.345633282474420378e-13 1.463323548705347532e-13 -2.845757280539075451e-14
1.687000000000000000e+03 1.953518676757812500e+01 3.539989471435546875e+01 -1.717574514689332310e-13 -3.938669865515692647e-13 -1.696873300508980331e-13 5.127642695211889756e-14
1.688000000000000000e+03 3.949196624755859375e+01 3.480546951293945312e+01 2.691032482569563622e-14 1.030348969663884284e-13 3.898356653762521939e-14 -1.243620820472884914e-13
1.689000000000000000e+03 3.876676177978515625e+01 3.553058242797851562e+01 3.384600000440329826e-14 8.313185209662954378e-14 3.509335766318892602e-14 -2.210803256772180675e-14
1.690000000000000000e+03 4.212703704833984375e+01 3.179454231262207031e+01 1.048938903401228084e-13 5.024640100693977818e-13 1.822073714781088927e-13 -1.240571637388040993e-13
1.691000000000000000e+03 4.273039245605468750e+01 2.783243942260742188e+01 2.814818961683479559e-13 9.441521999983826241e-13 3.676902261395137428e-13 1.706323071119092427e-13
1.692000000000000000e+03 4.270470809936523438e+01 2.827588653564453125e+01 -2.403301827837676929e-14 6.302134378591284225e-13 1.818541248577859593e-13 -2.399099019759990542e-14
1.693000000000000000e+03 4.209613418579101562e+01 3.235154342651367188e+01 4.878689886431662737e-14 7.986748198560156276e-13 2.542384976590011947e-13 -9.181990291793479253e-14
1.694000000000000000e+03 2.232515907287597656e+01 3.771104812622070312e+01 -1.910030022599790156e-13 1.926472626171890634e-13 4.932791659541984133e-16 -1.185001041384544859e-14
1.695000000000000000e+03 1.870389747619628906e+01 2.956953048706054688e+00 1.441126000001693996e-13 1.075134921954372380e-13 7.548782698105563349e-14 -1.413870512638124022e-13
1.696000000000000000e+03 2.930679130554199219e+01 3.948387145996093750e+01 8.750823416586728243e-14 1.747563682305552923e-13 7.867937936367405682e-14 1.072631617722715966e-14
1.697000000000000000e+03 2.861020278930664062e+01 3.810789108276367188e+01 6.577067178641787804e-14 1.654402797483106591e-13 6.936328410516584553e-14 -7.364931147585407345e-14
1.698000000000000000e+03 1.762899398803710938e+01 2.534130573272705078e+00 6.372428084343295662e-14 1.645632550584599785e-13 6.848625941531516492e-14 3.439157392572979310e-14
1.699000000000000000e+03 3.427376174926757812e+01 -2.940861463546752930e+00 1.455174143075860238e-13 1.538665028721908357e-13 8.981517921969120466e-14 1.936278015094577976e-13
1.700000000000000000e+03 3.558153915405273438e+01 -3.109779834747314453e+00 -1.317197625928454019e-13 2.180543614595242818e-13 2.590037864356412728e-14 2.253481960496489522e-13
1.701000000000000000e+03 1.776982307434082031e+01 5.825654029846191406e+00 -6.324798405279649649e-15 8.879127224052305034e-14 2.473994181175984131e-14 3.200788091062105323e-14
1.702000000000000000e+03 4.083229064941406250e+01 6.814471244812011719e+00 5.060678980907395985e-13 8.573995463265204897e-13 4.090402333251780265e-13 5.994888830143652036e-13
1.703000000000000000e+03 3.979048156738281250e+01 -2.475387334823608398e+00 -2.613061134658367646e-13 7.101545913823503753e-14 -5.708720171929138054e-14 -2.719837972463973186e-13
1.704000000000000000e+03 3.578082275390625000e+01 -5.978887677192687988e-01 8.204371969126877939e-13 1.020723544749302381e-12 5.523482062355644651e-13 4.148690939398402833e-13
1.705000000000000000e+03 3.799493408203125000e+01 -3.501038312911987305e+00 -3.767374324829819709e-13 4.904921412605955933e-13 3.412640179126236184e-14 -2.056221404082847481e-13
1.706000000000000000e+03 3.378998947143554688e+01 -2.618309736251831055e+00 1.181612181147193019e-13 1.421424149173830531e-13 7.809109126488342212e-14 3.169777537236767584e-13
1.707000000000000000e+03 3.817632675170898438e+01 4.454378187656402588e-01 3.127260549042748528e-13 7.745387447730123220e-13 3.261794317716698588e-13 2.034365379063526880e-13
1.708000000000000000e+03 1.504667282104492188e+01 3.461612701416015625e+00 5.123381103047663920e-14 2.507121029879377794e-13 9.058377013976617875e-14 5.154946632860042677e-14
1.709000000000000000e+03 1.501414775848388672e+01 2.885658740997314453e+00 8.956915341796350960e-14 1.756396270828977646e-13 7.956263143975295105e-14 -5.086950893612614266e-14
1.710000000000000000e+03 1.859793472290039062e+01 4.207204818725585938e+00 -4.125524791578905059e-14 -1.091827163076687646e-13 -4.513138926703734455e-14 -2.817312897730739341e-13
1.711000000000000000e+03 1.434829902648925781e+01 3.578239917755126953e+00 1.816949622847991927e-15 2.752843797099863155e-13 8.313040197622384442e-14 1.757427685908190262e-14
1.712000000000000000e+03 3.626720046997070312e+01 -3.113237619400024414e+00 -1.014484245849718580e-13 4.140316019717038554e-13 9.377494982788781019e-14 -9.505804211265220238e-14
1.713000000000000000e+03 3.655075073242187500e+00 4.373872756958007812e+00 -1.239582980532005774e-13 -2.590042438334327901e-13 -1.148887706975063039e-13 -3.573743812814930698e-14
1.714000000000000000e+03 4.443220615386962891e+00 4.337357521057128906e+00 -2.364106394643020886e-14 -5.588283267664480303e-14 -2.385716915632909302e-14 5.752773339076297510e-14
1.715000000000000000e+03 5.193344116210937500e+00 5.131829261779785156e+00 -1.285870281780843172e-13 -1.237351421410487484e-13 -7.569665109573991968e-14 2.087334211725577759e-13
1.716000000000000000e+03 3.643293762207031250e+01 -4.303628206253051758e-02 7.046167577358375400e-13 3.849022066782642471e-13 3.268556757717033801e-13 4.592957958404753072e-13
1.717000000000000000e+03 6.751539707183837891e+00 4.870192527770996094e+00 -7.527577736490820293e-14 -1.695138983608818206e-13 -7.343690271773700706e-14 8.775904400968106978e-14
1.718000000000000000e+03 9.797183990478515625e+00 3.715216398239135742e+00 -9.141444518674310404e-14 -8.492856483181820959e-14 -5.290290300556839409e-14 7.417229672254319062e-14
1.719000000000000000e+03 1.738438606262207031e+01 6.883808612823486328e+00 1.484658208004974167e-13 -1.193755923105388472e-13 8.727067699954623586e-15 -7.277225290468550267e-14
1.720000000000000000e+03 5.972167015075683594e+00 4.992439270019531250e+00 -7.537654040431357449e-14 -3.296853892317819223e-13 -1.215185856670922271e-13 -4.297040493068428335e-14
1.721000000000000000e+03 8.296621322631835938e+00 4.648867130279541016e+00 -1.486974639827807337e-14 -4.638822420806321123e-13 -1.436255899368160671e-13 6.156621030041845022e-14
1.722000000000000000e+03 7.528723716735839844e+00 4.763941764831542969e+00 -1.253655518155052939e-13 -7.977145386037134273e-15 -4.000280805931989703e-14 -3.006066058510066530e-14
1.723000000000000000e+03 1.363014984130859375e+01 3.698641061782836914e+00 -2.370575524074380880e-14 4.015989201345410153e-13 1.133679535338973088e-13 -5.276466384044470326e-14
1.724000000000000000e+03 1.289782238006591797e+01 3.822769641876220703e+00 -3.303575878024593571e-14 1.688456096942889118e-13 4.074295561302607172e-14 2.799190458417644134e-14
1.725000000000000000e+03 2.931241226196289062e+01 3.852130126953125000e+01 -4.969375605456960443e-14 -2.129732378137755983e-14 -2.129732378137755983e-14 1.056816851911779320e-13
1.726000000000000000e+03 9.946727752685546875e+00 5.044387340545654297e+00 -1.266284034009620973e-13 -8.518365558014742017e-15 -4.054402823129750477e-14 6.471932771602226242e-14
1.727000000000000000e+03 7.000722503662109375e+01 -7.977455139160156250e+00 1.135968675760245725e-14 -1.095089324125789187e-13 -2.944477615288848549e-14 3.005129578883582175e-14
1.728000000000000000e+03 7.283267974853515625e+01 -9.388836860656738281e+00 7.637292220082775307e-14 9.855777218653605232e-15 2.586860982584440749e-14 1.868089694436261827e-13
1.729000000000000000e+03 7.539775848388671875e+01 -8.833846092224121094e+00 2.152097436077058529e-14 4.353648721372969932e-14 1.951723830294349593e-14 -3.922607207042412558e-14
1.730000000000000000e+03 7.565807342529296875e+01 -6.666281223297119141e+00 -6.587627307801796617e-14 -7.398363876826713481e-14 -4.195797355388553029e-14 -2.601623919822135950e-14
1.731000000000000000e+03 3.999144744873046875e+01 -1.907450199127197266e+00 -1.988548621557548191e-13 9.778028403238311905e-14 -3.032237343701151000e-14 -3.336405587570090425e-13
1.732000000000000000e+03 7.383348083496093750e+01 -6.735588550567626953e+00 1.592626719523412837e-13 -2.291257461539686346e-13 -2.095892226048820528e-14 7.169838453415650070e-14
1.733000000000000000e+03 7.202927398681640625e+01 -9.461170196533203125e+00 9.535790532850738077e-14 -5.063422351216963213e-14 1.341710352846178789e-14 1.163129126027133767e-14
1.734000000000000000e+03 3.569393157958984375e+01 4.036754989624023438e+01 5.642766459710950311e-14 -3.872426942367994396e-14 5.311018552028867745e-15 1.721510026697436026e-16
1.735000000000000000e+03 1.215357303619384766e+01 3.952478647232055664e+00 -1.227911273094656197e-13 3.887712837747324401e-14 -2.517419866315817600e-14 -3.029757570044769310e-14
1.736000000000000000e+03 1.139787101745605469e+01 4.089270591735839844e+00 6.604417533695450260e-14 7.405559591120228213e-14 4.202993069682067762e-14 -5.004136143546382420e-14
1.737000000000000000e+03 3.494924545288085938e+01 3.870717239379882812e+01 1.059170790353516911e-13 2.970232566845698585e-13 1.208821047817346117e-13 -1.216401247306278521e-13
1.738000000000000000e+03 9.070041656494140625e+00 4.518035411834716797e+00 -7.807144010050712235e-14 -7.921013698468717945e-14 -4.718447177030557493e-14 5.800699818484661430e-14
1.739000000000000000e+03 3.822449493408203125e+01 9.445448517799377441e-01 1.396456870495291214e-13 8.833652125755930840e-13 3.069032658217785148e-13 3.545732772062409888e-13
1.740000000000000000e+03 3.768200302124023438e+01 3.700602948665618896e-01 3.809358427656062140e-13 1.078277224453305649e-12 4.377639201656735590e-13 2.576856371512559196e-13
1.741000000000000000e+03 4.116879272460937500e+01 -1.255851686000823975e-01 -1.944502908300324573e-13 8.528143198138077308e-14 -3.275065765459550526e-14 -1.442685624826814395e-13
1.742000000000000000e+03 5.690375137329101562e+01 2.673264026641845703e+00 -4.844982379702267306e-14 1.472275534993017221e-13 2.963331891068371471e-14 -1.081223055966057389e-13
1.743000000000000000e+03 5.605107498168945312e+01 1.659927129745483398e+00 -2.368794605539043191e-16 -8.016567824061654468e-14 -2.412076750358052579e-14 -5.865195617594035071e-14
1.744000000000000000e+03 4.103336334228515625e+01 8.065598011016845703e-01 -7.861362927817638901e-14 2.408141231997201759e-13 4.866015224222128288e-14 -2.702367985689489022e-14
1.745000000000000000e+03 3.996182632446289062e+01 4.150125980377197266e+00 5.437252753072441269e-13 9.078515933805264559e-13 4.354730551853203124e-13 4.994752983607242403e-13
1.746000000000000000e+03 5.379735183715820312e+01 4.492213726043701172e+00 -7.016641364069806097e-14 6.143057660864051361e-14 -2.620752126056800912e-15 -1.294273390718692074e-13
1.747000000000000000e+03 5.515003585815429688e+01 2.502459287643432617e+00 -8.173292636226223151e-14 3.359802602689691831e-14 -1.444047010060959396e-14 -9.278455147211303600e-14
1.748000000000000000e+03 5.256432723999023438e+01 3.132262945175170898e+00 -2.090540502481478408e-14 3.679148931584434734e-14 4.765825372012163705e-15 -2.303476962124684224e-14
1.749000000000000000e+03 2.028865623474121094e+01 3.771868515014648438e+01 1.148296952316330000e-13 7.208820264901008579e-14 5.607537004181928353e-14 -1.902840881281946117e-14
1.750000000000000000e+03 6.894728088378906250e+01 -6.954926967620849609e+00 1.180452050941315639e-14 -2.925413275338406560e-14 -5.234882995564914959e-15 -3.177942257221941236e-14
1.751000000000000000e+03 7.052970886230468750e+01 -3.919375181198120117e+00 3.288319120578649113e-14 -7.740910099333572769e-14 -1.335777310567136042e-14 -8.986658522574359452e-16
1.752000000000000000e+03 6.886949920654296875e+01 -1.640054345130920410e+00 6.219445802552875380e-14 -4.769052313431318413e-14 4.351179450925134196e-15 -4.229351040934727080e-14
1.753000000000000000e+03 6.670626068115234375e+01 -3.330954909324645996e-01 1.005450334535390455e-13 -1.409795708179426704e-14 2.593412274211684410e-14 6.682915465049295289e-15
1.754000000000000000e+03 5.240975952148437500e+01 4.951623916625976562e+00 -6.193926393917997819e-14 -2.654539931509596051e-14 -2.654539931509596051e-14 -1.748561012778968027e-13
1.755000000000000000e+03 5.169705200195312500e+01 3.573708534240722656e+00 -8.352414354768911142e-14 -3.257919785728050077e-14 -3.483100445436995707e-14 -1.526169734209284479e-13
1.756000000000000000e+03 5.407691955566406250e+01 1.844436645507812500e+00 -3.966467928303955837e-14 -3.987462148121422023e-14 -2.386179056808931248e-14 -7.785129962564751871e-14
1.757000000000000000e+03 4.765100097656250000e+01 4.041175365447998047e+00 2.640185264152477423e-14 -4.690698784254321296e-13 -1.328004140032160163e-13 -1.916110363908360426e-13
1.758000000000000000e+03 4.204232406616210938e+01 7.650013923645019531e+00 4.659450451340030330e-13 5.199473664119214078e-13 2.957677234637773322e-13 1.286609978713021407e-13
1.759000000000000000e+03 4.856168365478515625e+01 4.776772022247314453e+00 -2.527062828200539457e-14 -1.766774525074552016e-13 -6.058442457565135775e-14 -1.081546622551908532e-13
1.760000000000000000e+03 4.451202774047851562e+01 2.786918401718139648e+00 3.258183721194414517e-14 -3.977948883921583745e-13 -1.095639150152510899e-13 -1.116345649818453745e-13
1.761000000000000000e+03 4.096877670288085938e+01 5.851808547973632812e+00 3.548583139573874279e-13 6.095916414879110068e-13 2.893349893440949616e-13 3.257669199500934365e-13
1.762000000000000000e+03 7.393369293212890625e+01 2.729619979858398438e+01 -2.210924890703406392e-14 -2.153546573924539076e-13 -7.123917070400026530e-14 -6.754541587508655631e-14
1.763000000000000000e+03 7.380911254882812500e+01 2.571973991394042969e+01 -4.641098838792726000e-14 -2.715206531833658232e-13 -9.537948772800342034e-14 -5.308232152445579999e-14
1.764000000000000000e+03 7.475851440429687500e+01 -4.306250095367431641e+00 7.225422788293550669e-14 5.384157136518845366e-14 3.782873875799765140e-14 2.483034665465982949e-13
1.765000000000000000e+03 7.419500732421875000e+01 2.126085853576660156e+01 5.113090669178060876e-14 -1.839660287170433173e-13 -3.985053525232609695e-14 3.819187533501272602e-14
1.766000000000000000e+03 7.442240142822265625e+01 1.452152442932128906e+01 -4.069270284233136858e-14 -1.546925700599346976e-13 -5.861558119305346204e-14 -1.921902341320367441e-14
1.767000000000000000e+03 7.555787658691406250e+01 1.848172760009765625e+01 -2.666534426262485297e-14 -1.944318051829915794e-13 -6.632914432546516137e-14 5.938531052540954591e-14
1.768000000000000000e+03 7.448921203613281250e+01 1.055538463592529297e+01 9.260734540328385833e-14 3.968886376774956315e-14 3.968886376774956315e-14 -5.988178025271781446e-14
1.769000000000000000e+03 7.453063201904296875e+01 9.244381904602050781e+00 -4.386482428913977827e-14 -2.018030111506502466e-13 -7.370035029312382857e-14 4.044748680410124864e-14
1.770000000000000000e+03 7.430513000488281250e+01 3.850663423538208008e+00 5.858855067764068281e-14 -2.036453687973005522e-13 -4.351704272539252960e-14 -1.367804930733559909e-13
1.771000000000000000e+03 7.437184906005859375e+01 2.396081924438476562e+00 2.819456907526829426e-13 -8.504540116843067876e-14 5.907008552002296353e-14 -2.578073015756677383e-14
1.772000000000000000e+03 7.576322174072265625e+01 6.399900913238525391e+00 8.123340054008026945e-14 3.481431451717725833e-14 3.481431451717725833e-14 -9.144104202128688907e-14
1.773000000000000000e+03 7.448829650878906250e+01 5.259619712829589844e+00 1.154109360163024789e-13 -6.491554120418782658e-14 1.514861844363439569e-14 -8.942744819401965417e-14
1.774000000000000000e+03 7.430018615722656250e+01 1.849720382690429688e+01 -4.667397178925898615e-15 -2.765060045078343576e-13 -8.435201999780830850e-14 -4.723895631760476055e-14
1.775000000000000000e+03 7.406784057617187500e+01 2.269404983520507812e+01 -2.754730715455802614e-14 -2.291230085434831087e-13 -7.700108861077512024e-14 -4.522701589865056604e-14
1.776000000000000000e+03 7.582965850830078125e+01 -5.033054947853088379e-01 1.807519791393458197e-13 -1.055386585958363599e-13 2.256399548542648015e-14 5.503285205473405772e-14
1.777000000000000000e+03 7.101226806640625000e+01 -1.183810830116271973e+00 1.384805085272861058e-13 -7.790405961386609457e-14 1.817293602927871898e-14 1.775310245490623051e-14
1.778000000000000000e+03 7.457979583740234375e+01 7.932846546173095703e+00 6.488811766548752136e-14 2.780919449525600523e-14 2.780919449525600523e-14 -8.803111099233915104e-14
1.779000000000000000e+03 7.458267974853515625e+01 6.615185260772705078e+00 -1.397771482570088833e-14 -1.661187734678520878e-13 -5.402894521751647194e-14 -3.294104355608395984e-14
1.780000000000000000e+03 7.511013793945312500e+01 3.312040328979492188e+01 -2.051318133639099678e-14 -1.917951610247783933e-13 -6.369250016725197527e-14 7.677471058529193593e-15
1.781000000000000000e+03 7.256033325195312500e+01 2.982560729980468750e+01 -2.091421543801564968e-15 -2.296510692115921737e-13 -6.952274991594772913e-14 -2.991577390540692272e-14
1.782000000000000000e+03 7.445327758789062500e+01 1.319990062713623047e+01 1.312232251029013530e-13 7.911400213330560538e-14 6.310116952611480312e-14 -8.901645425548471158e-14
1.783000000000000000e+03 7.426667022705078125e+01 1.986260795593261719e+01 2.551041145091182544e-14 -1.491952855746728202e-13 -3.710546410060078237e-14 6.367432622833568701e-14
1.784000000000000000e+03 7.464646911621093750e+01 9.987315535545349121e-01 1.629633250175774317e-13 -1.817888016768937076e-13 -5.647643421311356396e-15 -9.454513994616720041e-14
1.785000000000000000e+03 7.470809936523437500e+01 -3.158304095268249512e-01 2.947124152791885665e-13 -2.625777470888907006e-13 9.640403845221148793e-15 1.262591800451880533e-14
1.786000000000000000e+03 4.030554771423339844e+00 2.846791458129882812e+01 -1.119835747433661419e-14 -1.878030879681052978e-13 -5.970043388684245778e-14 -8.536385336934630003e-15
1.787000000000000000e+03 5.732924938201904297e+00 3.190321922302246094e+01 -9.786989673007083501e-15 -1.871982251286027910e-13 -5.909556427107637289e-14 -4.061643260762880236e-14
1.788000000000000000e+03 3.918560504913330078e+00 2.713309669494628906e+01 8.872918303142341562e-15 -1.334501628126594230e-13 -3.737317394577818752e-14 6.410179114604646310e-16
1.789000000000000000e+03 5.182973384857177734e+00 2.830130577087402344e+01 3.441222797711564196e-14 -6.531606581549470603e-14 -9.271149996261003612e-15 -4.335258280835363465e-14
1.790000000000000000e+03 7.449267578125000000e+01 -7.117438793182373047e+00 -4.797035571503169282e-14 -1.006228859457870828e-13 -4.457797182061927488e-14 7.623082225953047714e-15
1.791000000000000000e+03 4.861632823944091797e+00 1.173401260375976562e+01 -2.445777311417280525e-14 -1.248592700585360316e-13 -4.479511379884559830e-14 6.151151230081655652e-14
1.792000000000000000e+03 7.484341430664062500e+01 -5.392494201660156250e+00 1.076857973316336023e-14 -1.097622630264437349e-13 -2.969810676675330163e-14 -3.723419616792449094e-14
1.793000000000000000e+03 3.921166181564331055e+00 2.172887992858886719e+01 -2.166789264898831731e-15 -2.068078916667506761e-13 -6.269240497829703385e-14 -6.753332024459976490e-14
1.794000000000000000e+03 4.873685836791992188e+00 2.443083190917968750e+01 5.681674664033192421e-15 -8.906689676155959967e-14 -2.501556633279639064e-14 6.510985733855154112e-14
1.795000000000000000e+03 7.421940612792968750e+01 -7.813486099243164062e+00 1.017642391252897294e-13 -1.622660203903433795e-13 -1.815053539595563176e-14 1.451122615082553469e-13
1.796000000000000000e+03 5.258827686309814453e+00 1.895476913452148438e+01 2.031663581131010893e-14 -1.514211932923670290e-13 -3.933136504203141315e-14 7.037154469173231841e-14
1.797000000000000000e+03 5.272329330444335938e+00 1.741434478759765625e+01 -2.056212290008335025e-14 -1.575029169587072175e-13 -5.341951178823058088e-14 9.450139069444151579e-16
1.798000000000000000e+03 4.887876510620117188e+00 1.023407840728759766e+01 1.381543453619351550e-15 -7.947207345329609929e-14 -2.342715763406239687e-14 4.171019608802291334e-14
1.799000000000000000e+03 4.957578182220458984e+00 2.177519226074218750e+01 -2.398612992254856024e-14 -1.017816676752124339e-13 -3.773034063458101384e-14 7.967862751968174395e-14
1.800000000000000000e+03 5.351789951324462891e+00 3.070904159545898438e+01 3.600524284101680461e-14 -1.904484464012798361e-13 -4.633296310095798287e-14 -6.258309707051976090e-14
1.801000000000000000e+03 6.085797309875488281e+00 3.330304336547851562e+01 4.450906060816245402e-14 -2.667563740699988722e-14 5.350026536832296412e-15 -3.824314793337592333e-14
1.802000000000000000e+03 4.955017566680908203e+00 1.451873016357421875e+01 4.258247061710539183e-14 -1.876296427255619292e-13 -4.351414926084470891e-14 3.218627960183996495e-14
1.803000000000000000e+03 3.595145225524902344e+00 7.602430343627929688e+00 -5.624561349982203085e-14 -6.985620984662280208e-14 -3.783054802037298658e-14 6.530530510893278739e-14
1.804000000000000000e+03 5.038383007049560547e+00 3.500140380859375000e+01 -7.893122258768349442e-15 -4.913371481050400613e-14 -1.710805129018829612e-14 -1.279717874909120506e-14
1.805000000000000000e+03 3.528070211410522461e+00 6.399106979370117188e+00 -4.226927171452864174e-14 -2.011191912879364829e-13 -7.301653720667364289e-14 -4.193227796239762384e-14
1.806000000000000000e+03 4.412057876586914062e+00 6.278229236602783203e+00 -7.895873760594210311e-14 1.191149060625600747e-14 -2.011417460812559704e-14 6.177759584273523341e-14
1.807000000000000000e+03 6.001442337036132812e+01 2.318336725234985352e+00 7.775870028978778409e-15 1.291476284638951033e-13 4.107704912434569089e-14 -7.019046937640008310e-14
1.808000000000000000e+03 6.038232040405273438e+01 1.418876171112060547e+00 2.830404850721738620e-15 1.613413450150119610e-13 4.925152692907171226e-14 -6.507253367876372763e-14
1.809000000000000000e+03 3.200856781005859375e+01 3.938047027587890625e+01 1.955217332982005229e-14 -2.593370939003858400e-14 -1.914460691010617423e-15 -1.564167462816522941e-14
1.810000000000000000e+03 6.919077301025390625e+01 -5.789806842803955078e+00 9.986558428083311401e-14 6.567501127348676637e-14 4.966217866629596411e-14 4.368382012457511232e-14
1.811000000000000000e+03 5.221881866455078125e+01 5.712015628814697266e+00 6.709631223018874824e-14 -1.084972836942234287e-13 -1.242029143921040413e-14 -1.578833363959780689e-13
1.812000000000000000e+03 6.424591827392578125e+01 2.564857244491577148e+00 1.436753412640059957e-13 -2.992675145240333845e-14 3.412457558822808157e-14 -7.639032703382793443e-15
1.813000000000000000e+03 6.283284378051757812e+01 3.317248821258544922e+00 8.874890704063317926e-14 1.515977047941794581e-14 3.117260478067464258e-14 -7.966050101461050192e-14
1.814000000000000000e+03 6.127624511718750000e+01 1.596068501472473145e+00 1.535452537684833807e-13 2.373711578858295201e-13 1.172749234962938703e-13 7.866142565332405467e-15
1.815000000000000000e+03 6.733088684082031250e+01 1.433489918708801270e+00 1.259422253985231777e-13 -8.327760952619306378e-14 1.279938442288585526e-14 3.144429906883593195e-14
1.816000000000000000e+03 4.252789306640625000e+01 1.550815868377685547e+01 1.998714338295997511e-14 2.830716076037548268e-13 9.091762309372877771e-14 -7.808161127213775199e-14
1.817000000000000000e+03 4.244918441772460938e+01 1.466623497009277344e+01 -6.960674847926104358e-14 1.531723288787298354e-13 2.506967649153288985e-14 -1.651176889444147533e-13
1.818000000000000000e+03 4.289505767822265625e+01 1.549596691131591797e+01 -4.054980499599777910e-14 5.773838438610789936e-13 1.610502096266452909e-13 3.228627760108737643e-13
1.819000000000000000e+03 1.485364723205566406e+01 1.265511703491210938e+01 1.029131681674726184e-13 4.101132411102326181e-13 1.539079193951797819e-13 6.093895190979053966e-14
1.820000000000000000e+03 1.472220611572265625e+01 1.409178733825683594e+01 1.017768023179634052e-13 2.266224317579168535e-13 9.851977090039043539e-14 2.281023982165456682e-14
1.821000000000000000e+03 4.275431060791015625e+01 3.097050857543945312e+01 8.085712139985559710e-14 4.921625173376353857e-13 1.719059058514008087e-13 -7.712564311160297059e-14
1.822000000000000000e+03 1.650282096862792969e+01 9.043259620666503906e+00 5.144131038563141967e-14 2.965519811052447219e-13 1.043979830426915167e-13 -1.210510641377893215e-13
1.823000000000000000e+03 1.715537452697753906e+01 8.420749664306640625e+00 -1.814508558597299759e-13 -1.692665511877564088e-13 -1.052152207589931998e-13 1.280138680877316443e-14
1.824000000000000000e+03 1.905165672302246094e+01 3.791598081588745117e+00 4.805872496835283947e-14 1.578494415255607408e-13 6.177245265867950530e-14 -2.154978398418577745e-13
1.825000000000000000e+03 1.899282646179199219e+01 4.174463272094726562e+00 6.065140794112022782e-14 -1.112593903725839217e-13 -1.518239472943910817e-14 -1.452890135674247962e-13
1.826000000000000000e+03 4.264664459228515625e+01 1.800755691528320312e+01 1.042688071301034469e-13 6.851998894490118897e-13 2.368406035527237385e-13 9.008098493480318214e-14
1.827000000000000000e+03 4.268267059326171875e+01 1.342314052581787109e+01 -2.950954368016733831e-14 1.246059055633533252e-13 2.852890653207672267e-14 4.815341308746050319e-14
1.828000000000000000e+03 1.303280448913574219e+01 2.183570671081542969e+01 6.901119622591475600e-14 8.988442585719513822e-13 2.903566330512280524e-13 -1.150433237171941125e-13
1.829000000000000000e+03 1.396156120300292969e+01 2.117341232299804688e+01 -9.971446005051579076e-14 8.265332862578134154e-13 2.180456336320357735e-13 -1.807592365176378946e-14
1.830000000000000000e+03 4.274938583374023438e+01 2.568055534362792969e+01 -6.615293436738195476e-14 3.834072816177869214e-13 9.517630824087963681e-14 -2.379672522402620505e-13
1.831000000000000000e+03 1.431018161773681641e+01 1.401598739624023438e+01 1.939904264785727306e-13 1.746406567536967769e-13 1.105893195486699898e-13 1.019891907472897374e-13
1.832000000000000000e+03 1.760269546508789062e+01 7.329020023345947266e+00 9.348022979608835992e-14 1.773158036415603545e-13 8.123880799841554090e-14 -1.939968029425996610e-14
1.833000000000000000e+03 1.645746421813964844e+01 4.322852611541748047e+00 -5.568078143740676222e-14 6.763870469576535593e-14 3.587377655133935916e-15 -2.917566023301863820e-14
1.834000000000000000e+03 4.301626968383789062e+01 1.801397705078125000e+01 -2.124509572984985967e-14 1.738987507595921023e-13 4.579609667832926223e-14 1.365622516463641314e-14
1.835000000000000000e+03 4.271283721923828125e+01 2.446053314208984375e+01 2.542447860316016106e-13 2.004639401524677123e-13 1.364126232762316593e-13 1.429387614130736561e-13
1.836000000000000000e+03 4.314598846435546875e+01 2.528494262695312500e+01 1.282571867721599146e-13 6.954806739192798126e-13 2.471213609179373494e-13 -2.381622188959292563e-13
1.837000000000000000e+03 4.255871582031250000e+01 1.220555496215820312e+01 6.919453481328205480e-14 -2.906018524775899614e-13 -6.642218920065515175e-14 -7.719678710290875379e-14
1.838000000000000000e+03 1.745485496520996094e+01 7.690416812896728516e+00 -3.386289661763512704e-14 7.698923014951356003e-14 1.293789972075035100e-14 -5.163638207338408503e-14
1.839000000000000000e+03 4.356771469116210938e+01 2.572417068481445312e+01 9.504965309834259579e-14 4.982450541556049384e-13 1.779884155643160493e-13 -1.851785191115881690e-13
1.840000000000000000e+03 1.621502304077148438e+01 9.767418861389160156e+00 -1.398166115220214611e-13 3.060861839595391265e-13 4.988087579701344643e-14 1.313796551476002772e-14
1.841000000000000000e+03 4.266292190551757812e+01 2.004419326782226562e+01 8.662903429540805278e-14 6.776400187508135886e-13 2.292807057494711254e-13 1.050232509058933797e-14
1.842000000000000000e+03 4.303363800048828125e+01 2.086278724670410156e+01 1.974546828126255704e-13 1.091144318995929119e-12 3.865797113845881317e-13 2.301102288316397848e-13
1.843000000000000000e+03 4.311548995971679688e+01 2.447555541992187500e+01 7.854688985819632818e-14 7.656781567284831613e-13 2.532675132983774891e-13 -3.115469037265339303e-13
1.844000000000000000e+03 4.308630371093750000e+01 2.367313575744628906e+01 -1.104751276489188486e-14 4.070238883348981096e-13 1.187929149579908250e-13 2.758589119937135403e-14
1.845000000000000000e+03 4.304297637939453125e+01 2.206099319458007812e+01 1.486225286720030403e-13 8.414615033404404532e-13 2.970252082484803324e-13 -6.860236391546120638e-14
1.846000000000000000e+03 4.266531372070312500e+01 2.124647903442382812e+01 9.122737965440788632e-14 7.711126116978495038e-13 2.587019953727981436e-13 3.390750408314296971e-13
1.847000000000000000e+03 4.342481994628906250e+01 2.245374870300292969e+01 3.801946686079679671e-14 8.855620772275918373e-13 2.770744788119228197e-13 -2.845942611347934692e-13
1.848000000000000000e+03 4.307370376586914062e+01 2.326611709594726562e+01 3.602877002815974006e-13 8.406732341509348672e-13 3.602882694877379555e-13 -1.309106225115194699e-13
1.849000000000000000e+03 4.267024230957031250e+01 2.204944992065429688e+01 3.214046189565708533e-14 8.372915533648439546e-13 2.608296066110293854e-13 1.548169958117545653e-13
1.850000000000000000e+03 4.266783142089843750e+01 2.164603233337402344e+01 -5.289777337403982205e-14 8.008465852277213415e-13 2.243846520264339284e-13 1.655634857726864806e-13
1.851000000000000000e+03 4.303161621093750000e+01 2.005692291259765625e+01 7.804766219161179963e-14 1.707018451287470318e-13 7.462485626186579624e-14 1.475251263380675248e-13
1.852000000000000000e+03 4.433067703247070312e+01 2.355462837219238281e+01 2.115634869983423760e-13 5.481795573025749491e-13 2.279229051587589039e-13 1.571955401370934199e-15
1.853000000000000000e+03 4.182015991210937500e+01 9.734554290771484375e+00 2.833404897425312319e-13 3.044354319418213217e-13 1.763327710842949037e-13 1.586522932342862569e-13
1.854000000000000000e+03 4.303059387207031250e+01 1.964774703979492188e+01 1.053371121882348826e-13 5.941558551582348802e-13 2.098478861381827820e-13 1.632417481354717093e-13
1.855000000000000000e+03 4.316184234619140625e+01 2.656375885009765625e+01 8.083108021892521089e-14 6.751551900018026853e-13 2.267958770004602220e-13 -1.853996048752169085e-14
1.856000000000000000e+03 4.302621841430664062e+01 1.883750152587890625e+01 -3.869139353389816280e-15 4.558512855384888596e-13 1.355946469471999705e-13 1.494287685125175735e-13
1.857000000000000000e+03 1.358461856842041016e+01 2.210216331481933594e+01 2.352266398699710825e-14 9.251001657425983460e-13 2.845868343499119435e-13 -2.343323018266785240e-13
1.858000000000000000e+03 4.292712402343750000e+01 1.591829109191894531e+01 -1.020998471315190392e-13 4.595033663463976570e-13 1.072210557644635853e-13 -9.887849951794799863e-14
1.859000000000000000e+03 4.175086212158203125e+01 9.308869361877441406e+00 1.825227387850306138e-13 6.272354055418538632e-13 2.429274500743289211e-13 8.888758327475765331e-14
1.860000000000000000e+03 4.252061843872070312e+01 1.179610157012939453e+01 3.085520662755858456e-13 3.609913474915404930e-13 2.008630214196324704e-13 3.230867450746549574e-13
1.861000000000000000e+03 1.600844383239746094e+01 1.266069316864013672e+01 7.700894230026206211e-14 -1.042490136641920084e-13 -8.172020562146036643e-15 -3.452153927302470393e-13
1.862000000000000000e+03 3.849951171875000000e+01 1.308932423591613770e+00 4.265513723483715935e-13 8.890880111127319463e-13 3.946918204593419244e-13 6.683381333170285155e-14
1.863000000000000000e+03 3.746138381958007812e+01 8.008198738098144531e-01 4.403881773140660982e-13 6.462472701071475534e-13 3.259906450683858203e-13 5.870180643657851860e-13
1.864000000000000000e+03 1.414376258850097656e+01 1.817957687377929688e+01 -1.634269027614779213e-13 6.619750862919826506e-13 1.495644564144041344e-13 1.334987621750410858e-13
1.865000000000000000e+03 1.895492744445800781e+01 4.544374942779541016e+00 3.957585602005868342e-14 1.999648818924726346e-13 7.186222103494621649e-14 -2.370422922618603545e-13
1.866000000000000000e+03 1.406964969635009766e+01 1.945849227905273438e+01 -1.485550235342386616e-13 1.125858195734352751e-12 2.931909543705396581e-13 1.620298269470674124e-13
1.867000000000000000e+03 1.465032005310058594e+01 1.448812580108642578e+01 2.540647813659147047e-13 6.578963177190921829e-13 2.735883080414586166e-13 -1.661071318470250247e-13
1.868000000000000000e+03 1.455268573760986328e+01 2.824127769470214844e+01 -6.152045696873956193e-14 4.768945112941513909e-13 1.246122210410080533e-13 -1.069942135649253057e-13
1.869000000000000000e+03 1.416870212554931641e+01 2.408885192871093750e+01 8.983966863626222099e-15 5.071106837402361567e-13 1.548284070396199752e-13 -3.224502641892973420e-13
1.870000000000000000e+03 1.492347812652587891e+01 2.890672111511230469e+01 1.621949509379369547e-14 6.474645038861970292e-13 1.991051908848545660e-13 8.849380782197449613e-14
1.871000000000000000e+03 1.705696678161621094e+01 6.793370723724365234e+00 -1.456296427849654296e-13 -1.310391275740133143e-13 -8.300062975244090757e-14 2.519994168849112870e-14
1.872000000000000000e+03 1.531054878234863281e+01 1.243031597137451172e+01 2.059257034640535333e-13 4.542614656828647401e-13 1.980561575203390601e-13 -3.356151001302431179e-16
1.873000000000000000e+03 4.247839736938476562e+01 1.138457012176513672e+01 1.261136242094659798e-13 3.285544037355536684e-13 1.364004124492640413e-13 2.074834851454807061e-13
1.874000000000000000e+03 1.437680339813232422e+01 2.772784996032714844e+01 3.788885438033018360e-14 5.194985067125124090e-13 1.672162164593690714e-13 -5.696049236664571525e-14
1.875000000000000000e+03 1.525308990478515625e+01 2.933152008056640625e+01 1.332273219967639727e-14 5.709742371289884544e-15 5.709742371289884544e-15 9.694185016360934437e-14
1.876000000000000000e+03 1.485146141052246094e+01 1.534999847412109375e+01 -8.230189533359189014e-14 3.764863041547800160e-13 8.825532400160915336e-14 -7.316553707835925235e-15
1.877000000000000000e+03 1.456421756744384766e+01 1.487756443023681641e+01 5.254480458052358804e-14 4.800286687242638628e-13 1.597720436855021298e-13 -3.477436844338474553e-14
1.878000000000000000e+03 1.347856426239013672e+01 2.169965553283691406e+01 -2.647228952972618954e-13 3.440568142887290293e-13 2.380018077963782369e-14 -1.874704411890595890e-13
1.879000000000000000e+03 1.405534744262695312e+01 2.245454025268554688e+01 2.022929485598692900e-14 7.864358036319130107e-13 2.419995356450072022e-13 -2.838077537738181721e-13
1.880000000000000000e+03 4.097439575195312500e+01 3.982262611389160156e+00 5.544391443353113846e-13 7.866281410973119392e-13 4.023201856297869972e-13 3.195968338066956793e-13
1.881000000000000000e+03 4.060294723510742188e+01 4.792559146881103516e+00 5.621983456029211457e-13 7.442026053565420352e-13 3.919202744458172294e-13 5.381026570508429252e-13
1.882000000000000000e+03 1.664668655395507812e+01 8.675101280212402344e+00 -2.055326937290546940e-13 9.491835621525460120e-14 -3.318430125414002785e-14 -3.902608759157738527e-14
1.883000000000000000e+03 1.556990718841552734e+01 3.022237205505371094e+01 -4.064022745718307017e-14 5.773450836334126368e-13 1.610114629515060902e-13 5.924790145257416429e-14
1.884000000000000000e+03 1.456114959716796875e+01 2.872393035888671875e+01 9.957942266993272118e-14 5.459373187896576773e-13 1.936550285365143398e-13 -3.044736500684014358e-14
1.885000000000000000e+03 1.371141242980957031e+01 2.330359649658203125e+01 4.500359317112035198e-15 3.679363129276136402e-13 1.117310047650879601e-13 -6.811859968236175233e-14
1.886000000000000000e+03 1.369350051879882812e+01 2.290273666381835938e+01 1.250223205127506954e-13 7.855961974695402361e-13 2.731855540394345638e-13 -8.599815060376589382e-14
1.887000000000000000e+03 1.379244327545166016e+01 2.453342056274414062e+01 2.808927678128736449e-13 4.863902249713225601e-13 2.301849032562697239e-13 -6.685120122404408782e-14
1.888000000000000000e+03 1.465016555786132812e+01 1.613384246826171875e+01 -4.647159867750098872e-14 -6.566734731938000946e-14 -3.364168549313019396e-14 -1.102438114213531717e-13
1.889000000000000000e+03 1.635849952697753906e+01 9.405059814453125000e+00 -2.084048943617675120e-13 4.596949990803844699e-13 7.538703006033237175e-14 -7.719967548525889095e-15
1.890000000000000000e+03 1.593414592742919922e+01 1.051355648040771484e+01 7.664702206255924466e-14 2.158525230300592512e-13 8.774986217253283316e-14 1.049937233373520948e-14
1.891000000000000000e+03 1.579685020446777344e+01 1.090036964416503906e+01 2.082106866476210461e-13 8.923315238844667374e-14 8.923315238844667374e-14 -3.507392545682949149e-15
1.892000000000000000e+03 1.552016162872314453e+01 1.294530868530273438e+01 1.443126217484658191e-13 2.448520715608165643e-13 1.167494107032901463e-13 4.637171655236076162e-14
1.893000000000000000e+03 1.565527153015136719e+01 1.255756950378417969e+01 1.028851415413138681e-13 5.931049922025533050e-13 2.087970502875555190e-13 6.457699907582922783e-14
1.894000000000000000e+03 1.816226768493652344e+01 2.993577003479003906e+00 -4.632246328054381856e-14 1.174003656876504431e-13 2.132337004450562956e-14 1.187962522678030070e-14
1.895000000000000000e+03 1.576008129119873047e+01 3.912619590759277344e+00 1.603195691707390985e-14 5.262178632290184788e-14 2.059612280258613787e-14 3.376977720354577828e-14
1.896000000000000000e+03 3.673073959350585938e+01 2.558143734931945801e-01 4.789687526804420337e-13 4.854968965913031287e-13 2.893396785184909614e-13 4.202412885994516456e-13
1.897000000000000000e+03 3.813423538208007812e+01 -1.255043745040893555e+00 1.195123169807528474e-14 8.286390237172147621e-13 2.521770769634001930e-13 -1.679789797927669359e-13
1.898000000000000000e+03 1.637735557556152344e+01 3.119896125793457031e+01 1.372587075465850348e-13 2.418289635382209202e-13 1.137263026806945021e-13 8.442461410951979106e-14
1.899000000000000000e+03 1.446812915802001953e+01 1.526646423339843750e+01 1.036788181891547256e-13 6.849470535023882700e-13 2.365877676061001189e-13 5.615428640744907218e-15
1.900000000000000000e+03 4.300704574584960938e+01 1.759227180480957031e+01 1.095726292902124421e-13 4.129672949090834599e-13 1.567619731940306238e-13 1.202557069765811115e-13
1.901000000000000000e+03 4.316119384765625000e+01 2.700037765502929688e+01 1.632308519036382299e-13 1.076476906745893469e-12 3.719123533446611063e-13 -3.708252983652092494e-14
1.902000000000000000e+03 1.678823280334472656e+01 8.308452606201171875e+00 5.008111438574436303e-14 5.704747113068064923e-13 1.861667558392815502e-13 -1.391409502806556509e-13
1.903000000000000000e+03 1.693927955627441406e+01 7.950811862945556641e+00 -7.455413917516542921e-14 -3.195177344819492837e-14 -3.195177344819492837e-14 3.789398062372696663e-14
1.904000000000000000e+03 1.421811008453369141e+01 2.721093940734863281e+01 6.535000811975708035e-14 5.312675755049511839e-13 1.789852716992806902e-13 5.978689308086754597e-15
1.905000000000000000e+03 4.160507583618164062e+01 8.465039253234863281e+00 3.448160268600120038e-13 5.137858996757949104e-13 2.575805779607420742e-13 1.033159289457602492e-13
1.906000000000000000e+03 4.242973709106445312e+01 1.096873092651367188e+01 1.239026784817520710e-13 2.361049452736380116e-13 1.080022844161115936e-13 2.634135585436597760e-13
1.907000000000000000e+03 3.446309280395507812e+01 -1.467649459838867188e+00 6.687815449005207746e-13 6.297527603560393317e-13 3.895602915769680319e-13 3.956252372146890073e-13
1.908000000000000000e+03 1.662142944335937500e+01 3.230163574218750000e+01 -2.595333514342646614e-14 3.091337949512329430e-13 8.495413167429813339e-14 2.445874178105128527e-13
1.909000000000000000e+03 1.364825248718261719e+01 1.989650344848632812e+01 -1.092594778214807383e-13 1.051197323631569702e-12 2.825813313813568817e-13 5.821369455276739768e-14
1.910000000000000000e+03 1.589789772033691406e+01 1.179012489318847656e+01 -1.407682293213391445e-13 -6.032924404182973821e-14 -6.032924404182973821e-14 7.408416463844727518e-14
1.911000000000000000e+03 3.391170501708984375e+01 -1.915439963340759277e+00 7.308822600957110005e-13 1.302314647181473939e-13 2.583341255756738120e-13 1.610032365675223565e-13
1.912000000000000000e+03 1.821808242797851562e+01 4.340704917907714844e+00 -3.155409486759082338e-14 4.439862919588394297e-13 1.237296669200776966e-13 9.119804520937857539e-14
1.913000000000000000e+03 3.946089935302734375e+01 3.449573755264282227e+00 4.811671894255908910e-13 5.035956460869295270e-13 2.954288560747669878e-13 4.472634285504484275e-13
1.914000000000000000e+03 1.730630874633789062e+01 5.535352706909179688e+00 -2.102328998821595407e-13 1.844058759858935304e-13 -7.748108524132518715e-15 -7.705334715548892155e-14
1.915000000000000000e+03 1.778171730041503906e+01 5.442803859710693359e+00 -2.875500302498406333e-16 9.137865973878750436e-14 2.732733439222197885e-14 1.260757584485919236e-13
1.916000000000000000e+03 3.554912948608398438e+01 -2.559591054916381836e+00 2.146840783487716231e-13 6.410188677606620811e-13 2.567108851880828269e-13 1.505154236924183264e-13
1.917000000000000000e+03 1.715435791015625000e+01 3.212625885009765625e+01 -1.712755236032634243e-13 2.011018982632853391e-13 8.947909518094553788e-15 -1.409397602694217183e-14
1.918000000000000000e+03 4.285805892944335938e+01 1.507153701782226562e+01 4.779550778592767113e-14 2.034875902761495992e-13 7.538492941862318109e-14 2.139342983363892725e-14
1.919000000000000000e+03 1.405410385131835938e+01 2.031747436523437500e+01 -1.246266409299021105e-13 7.701056589301535915e-13 1.936437121763390223e-13 1.215283299341174406e-13
1.920000000000000000e+03 1.406878376007080078e+01 1.989175224304199219e+01 1.926607270529186178e-14 9.232758871671742362e-13 2.827625828795421459e-13 -1.531920410294783375e-14
1.921000000000000000e+03 4.154944610595703125e+01 8.040090560913085938e+00 6.169310938844430048e-13 6.304066426862653394e-13 3.742013209712125033e-13 3.928831272901472937e-13
1.922000000000000000e+03 4.089690780639648438e+01 4.398200035095214844e+00 3.490063869415055420e-13 4.927062989372454904e-13 2.525138030531198785e-13 3.890490902526411165e-13
1.923000000000000000e+03 4.090370941162109375e+01 5.461484432220458984e+00 4.485320535124737162e-13 4.667336937942689890e-13 2.745797296130336740e-13 3.443940282694263333e-13
1.924000000000000000e+03 1.566108417510986328e+01 2.966060447692871094e+01 -7.572572126648968727e-14 3.335537141629929536e-13 7.734839922420369551e-14 3.576151148213663200e-13
1.925000000000000000e+03 3.371399688720703125e+01 -2.222958326339721680e+00 3.513121054916218400e-13 5.165699140143031887e-13 2.603646194043046647e-13 1.174063559046534255e-13
1.926000000000000000e+03 3.885689544677734375e+01 1.662869811058044434e+00 4.536750207277673308e-13 7.091303455900033192e-13 3.488416153163420574e-13 1.776578152168709068e-13
1.927000000000000000e+03 3.689035415649414062e+01 -2.498238563537597656e+00 5.403385123234696885e-14 3.891649643598255048e-13 1.329596426447726687e-13 -1.277122261026872319e-13
1.928000000000000000e+03 4.237412643432617188e+01 1.054854774475097656e+01 3.521945918499164163e-13 5.169481379421747569e-13 2.607428162271219207e-13 1.978433286338801556e-13
1.929000000000000000e+03 4.212220764160156250e+01 8.837908744812011719e+00 2.175630145874810073e-13 3.219960376891345399e-13 1.618677116172265174e-13 2.306887624990098390e-14
1.930000000000000000e+03 4.231405258178710938e+01 1.012384128570556641e+01 3.377444537152468618e-13 6.480080686453726369e-13 2.957257648397021432e-13 3.519860184569845174e-13
1.931000000000000000e+03 1.433976268768310547e+01 2.533810424804687500e+01 1.819960062645828436e-13 9.015153532541952952e-13 3.250534065003807260e-13 -3.270749751428463602e-15
1.932000000000000000e+03 5.773442268371582031e+00 2.672233963012695312e+01 -1.930245954664001201e-14 -1.912762754175539870e-13 -6.317362133629114695e-14 -5.526666702949413479e-14
1.933000000000000000e+03 1.414099216461181641e+01 2.670631408691406250e+01 2.807278335573842876e-13 5.320704814237853242e-13 2.438394809418237275e-13 -1.247053540076245581e-13
1.934000000000000000e+03 4.295388031005859375e+01 1.633603668212890625e+01 -7.648200649190695088e-14 3.789805383576372311e-13 9.074955820446636845e-14 5.096818827448126865e-14
1.935000000000000000e+03 3.932373046875000000e+01 1.399967193603515625e+00 2.654861465216373784e-13 4.683496429222500090e-13 2.201507341226607850e-13 1.027616305850770351e-13
1.936000000000000000e+03 4.297601318359375000e+01 1.675181007385253906e+01 5.521588571024034497e-14 3.896715307198650446e-13 1.334662225573393646e-13 4.774492297831764431e-14
1.937000000000000000e+03 1.434226703643798828e+01 1.734415435791015625e+01 9.080607224270717537e-14 6.336791985236955860e-13 2.173455913943161955e-13 1.029494686114601487e-13
1.938000000000000000e+03 4.266426086425781250e+01 2.872176742553710938e+01 6.614845525715687402e-14 7.146135896571315094e-13 2.342285978888802855e-13 8.194105252179798016e-14
1.939000000000000000e+03 3.838143920898437500e+01 -2.733873367309570312e+00 -1.939283559041979355e-13 6.031520768945419775e-13 1.227671122313450658e-13 -1.193017988001740526e-13
1.940000000000000000e+03 1.492027759552001953e+01 3.033155822753906250e+01 1.262319377715384605e-13 6.488617152258790988e-13 2.325281080964997082e-13 -1.128992122771503570e-13
1.941000000000000000e+03 4.153378677368164062e+01 7.606877803802490234e+00 3.425554382253254149e-13 1.010585319312189145e-13 1.330841903693369410e-13 2.453541655868946014e-13
1.942000000000000000e+03 3.916510391235351562e+01 2.081679821014404297e+00 3.663522935536123182e-13 1.798836009618207110e-13 1.638707615783663307e-13 2.530344369363474177e-13
1.943000000000000000e+03 3.942424392700195312e+01 2.484349489212036133e+00 4.576264497554993760e-13 6.993860785647898481e-13 3.471037476540650424e-13 4.170026953950745074e-13
1.944000000000000000e+03 3.963882064819335938e+01 2.872327327728271484e+00 5.613784177099789829e-13 5.608473754858955829e-13 3.366677325377515073e-13 3.904905641460149068e-13
1.945000000000000000e+03 4.272983932495117188e+01 1.382670974731445312e+01 6.282775830216942928e-15 2.771983218050749764e-13 8.504432374252177129e-14 3.500128179369059456e-14
1.946000000000000000e+03 4.277521896362304688e+01 1.423543930053710938e+01 -7.900434694201995817e-15 1.338669436802900070e-13 3.778995481340877149e-14 2.577858547014432594e-14
1.947000000000000000e+03 3.606974029541015625e+01 -9.382659792900085449e-01 4.572236144383123868e-13 9.279682057494742509e-13 4.155575352143142664e-13 3.466329328606632121e-13
1.948000000000000000e+03 1.393994426727294922e+01 2.537731552124023438e+01 1.570327662391360346e-13 8.450658792527598884e-13 3.006296112658540798e-13 -1.058722472755194155e-13
1.949000000000000000e+03 1.454911613464355469e+01 1.653042411804199219e+01 1.312772861337269115e-13 7.425259409069018268e-13 2.621409491386506030e-13 6.580991990506185330e-14
1.950000000000000000e+03 3.644688796997070312e+01 -6.680926680564880371e-01 6.093499186135553636e-13 7.644103991281958610e-13 4.121280953225253674e-13 3.551989973850366855e-13
1.951000000000000000e+03 1.407607460021972656e+01 2.624470520019531250e+01 2.727832608233338174e-13 6.659184922236383031e-13 2.816105367561133610e-13 -7.788071538583976605e-14
1.952000000000000000e+03 1.401273441314697266e+01 2.580529785156250000e+01 2.746220406028149208e-13 9.412122773874709303e-13 3.647502764235477368e-13 -1.111121963751418584e-13
1.953000000000000000e+03 3.676816940307617188e+01 -3.403145074844360352e-01 3.872198514522778856e-13 6.234608640985628281e-13 3.032042119547467829e-13 3.491486613715899523e-13
1.954000000000000000e+03 3.771411895751953125e+01 -2.920069932937622070e+00 -1.786708530692598940e-13 2.894343564732032581e-13 3.322905169880936704e-14 -2.360979792746797923e-13
1.955000000000000000e+03 4.260265731811523438e+01 2.916452407836914062e+01 1.830586734714173547e-13 9.934726652449654694e-13 3.529594151674420033e-13 -1.066482310991580251e-13
1.956000000000000000e+03 1.427029418945312500e+01 2.491514778137207031e+01 4.549335355045341922e-14 4.770066177987863920e-13 1.567499927600246590e-13 -1.431051457889687128e-13
1.957000000000000000e+03 4.315724945068359375e+01 2.744161796569824219e+01 2.643712614276705342e-13 5.708114645015804900e-13 2.505548123577644448e-13 -8.738592260828376146e-14
1.958000000000000000e+03 4.315115737915039062e+01 2.788730621337890625e+01 1.467095623588696163e-13 9.778945231700419960e-13 3.373812188824099056e-13 -1.484316955371184354e-13
1.959000000000000000e+03 4.267185592651367188e+01 3.179854583740234375e+01 -1.148059901675711411e-14 7.270949250667846364e-13 2.146842951892061202e-13 -3.595759554366785571e-14
1.960000000000000000e+03 4.266797256469726562e+01 3.138338470458984375e+01 2.108563161313387058e-14 7.410518596331905350e-13 2.286412433081391749e-13 -2.029155304815954096e-15
1.961000000000000000e+03 3.970259475708007812e+01 3.632176589965820312e+01 4.521162022780127188e-15 1.391904847674110823e-13 4.311349590052984682e-14 -1.215070253614281004e-13
1.962000000000000000e+03 1.768543624877929688e+01 3.439386367797851562e+01 -9.186632709970790622e-14 6.379665811470994208e-15 -2.564599770884471580e-14 2.366439834887434923e-13
1.963000000000000000e+03 4.314038085937500000e+01 2.834108161926269531e+01 -1.017479523757799237e-14 4.988998038475689345e-13 1.466175000418984409e-13 -2.307203398872834793e-15
1.964000000000000000e+03 4.311631011962890625e+01 2.880467414855957031e+01 7.804619851867894420e-14 9.484673246448749317e-13 3.079540745673514657e-13 -1.577805404774992870e-13
1.965000000000000000e+03 4.190658187866210938e+01 3.296216201782226562e+01 -8.707312350525811540e-14 3.515659985353636330e-13 7.934786454191072869e-14 1.303804188500538516e-14
1.966000000000000000e+03 4.280889892578125000e+01 3.232768630981445312e+01 7.123413594016178574e-14 5.337893755480438429e-13 1.815070446373190372e-13 -4.770610515241087424e-14
1.967000000000000000e+03 4.154126739501953125e+01 7.135902881622314453e+00 4.121490475295086497e-13 1.137405274131975119e-12 4.648662639723799561e-13 2.845038115685538660e-13
1.968000000000000000e+03 1.859848976135253906e+01 3.829009294509887695e+00 1.274689175826543286e-13 1.003804854450736361e-13 6.835482023069203161e-14 -5.219395336937548979e-14
1.969000000000000000e+03 1.880971908569335938e+01 3.494305419921875000e+01 7.495683388488317417e-15 -8.828946281751529068e-14 -2.423813408281797616e-14 1.158225127135051324e-13
1.970000000000000000e+03 1.824740600585937500e+01 3.431289672851562500e+01 -1.219243889877263953e-13 3.924858959429393390e-14 -2.480274083446927513e-14 2.295222117833922715e-13
1.971000000000000000e+03 4.152770233154296875e+01 3.965206623077392578e+00 3.297644817802647399e-13 3.243314362737226286e-13 1.962287754161962106e-13 1.517354221870076403e-13
1.972000000000000000e+03 3.850796508789062500e+01 -2.080904483795166016e+00 -1.636819071124465119e-13 4.559865397595064263e-13 8.769138979411797430e-14 -2.508630510354020737e-13
1.973000000000000000e+03 3.495708465576171875e+01 -2.611653566360473633e+00 2.160931345971880968e-13 4.128679819900837877e-13 1.886883390419397122e-13 1.754542556164570555e-13
1.974000000000000000e+03 3.570932006835937500e+01 -1.796530961990356445e+00 4.353177432241117639e-13 4.153194986273450739e-13 2.551911590029098953e-13 3.557018232475811503e-13
1.975000000000000000e+03 1.759722137451171875e+01 3.057065963745117188e+00 1.562024435578651671e-13 1.126948537201639955e-13 8.066918850578239097e-14 6.552175929640594032e-14
1.976000000000000000e+03 1.723432159423828125e+01 7.236305236816406250e+00 -5.051746849072009937e-14 -2.961560304718530157e-13 -1.040020527380905446e-13 -1.401842509261841396e-13
1.977000000000000000e+03 3.992545318603515625e+01 -1.030712723731994629e+00 -1.038127916963560438e-13 4.759258308631442169e-13 1.116339144605418832e-13 -2.791359808226867578e-13
1.978000000000000000e+03 3.944009780883789062e+01 -1.595248103141784668e+00 -2.522343228381074276e-13 6.239147653380738845e-13 1.115041286842317902e-13 -3.102140668908431875e-13
1.979000000000000000e+03 6.194519996643066406e+00 6.696403026580810547e+00 -5.896618591761390929e-15 -2.527122162858494621e-15 -2.527122162858494621e-15 1.766958703918602991e-13
1.980000000000000000e+03 4.190398025512695312e+01 3.033900260925292969e+01 2.715700284279271709e-14 5.606501049006118453e-13 1.763421358805597472e-13 -1.949548378635257428e-13
1.981000000000000000e+03 1.508902263641357422e+01 4.034894943237304688e+00 -1.801860493222309095e-14 2.210324886444889336e-13 6.090416257258091104e-14 1.026493682263797391e-13
1.982000000000000000e+03 1.640622329711914062e+01 3.789239883422851562e+00 4.881758517392975616e-14 -7.058007742708274912e-14 -6.528746998319540085e-15 -6.292193735447579317e-14
1.983000000000000000e+03 1.439320373535156250e+01 4.153964519500732422e+00 -1.356236493553139577e-13 1.248793684563084816e-13 -3.223282660339043051e-15 -8.469385539026583198e-14
1.984000000000000000e+03 5.430077075958251953e+00 7.130099773406982422e+00 -1.034632245871559830e-13 -1.358432816104052088e-13 -7.179195118164199974e-14 5.437730276366785354e-14
1.985000000000000000e+03 3.622316741943359375e+01 -2.492247819900512695e+00 -3.492076961798817880e-14 5.797963021150764895e-13 1.634626543281156308e-13 1.959885026622462667e-13
1.986000000000000000e+03 3.539095306396484375e+01 -1.417926192283630371e+00 5.266854118633756965e-13 9.977695752949600205e-13 4.573364798844681278e-13 3.412620663487131445e-13
1.987000000000000000e+03 7.589888095855712891e+00 5.563704490661621094e+00 1.456629006866064224e-14 -4.512667908622425283e-13 -1.310101522709536392e-13 5.202386576543503727e-15
1.988000000000000000e+03 3.670495605468750000e+01 -1.038305282592773438e+00 3.344948287537646836e-13 8.067436692640872486e-13 3.423715575368718733e-13 2.433765266141724171e-13
1.989000000000000000e+03 9.322631835937500000e+00 5.956670761108398438e+00 -7.560051624435834561e-14 1.963545157631502169e-13 3.622619985563756140e-14 3.131557038964401241e-14
1.990000000000000000e+03 6.024896144866943359e+00 5.849696159362792969e+00 -5.822713865970621794e-14 -2.765847175855568052e-13 -1.004435521301944023e-13 1.296322803875232799e-13
1.991000000000000000e+03 1.367893791198730469e+01 4.275119781494140625e+00 -1.085943333411880374e-14 -4.654042857479487316e-15 -4.654042857479487316e-15 2.906028375769076182e-15
1.992000000000000000e+03 4.056524658203125000e+01 -5.976343154907226562e-01 -3.720570943346879211e-13 5.268111793153840150e-13 4.642622481658247036e-14 -1.872738617826608110e-13
1.993000000000000000e+03 3.947772598266601562e+01 7.543938159942626953e-01 5.863439887700966358e-14 9.401480245349591591e-13 2.996347202473270688e-13 -7.126607247040506188e-14
1.994000000000000000e+03 1.063007926940917969e+01 4.233197689056396484e+00 -8.863282964554144994e-14 -1.294873903196977483e-13 -6.543606666719811726e-14 9.575071346966477354e-15
1.995000000000000000e+03 9.162254333496093750e+00 5.236331462860107422e+00 -4.446575350763523615e-14 -3.850643491131594542e-13 -1.288590273981066181e-13 1.806393305336245758e-13
1.996000000000000000e+03 7.106723022460937500e+01 -8.746836662292480469e+00 3.362171923249751559e-14 -7.709258849786931878e-14 -1.304126145723789876e-14 -9.356308994712056459e-14
1.997000000000000000e+03 7.191250610351562500e+01 -8.670219421386718750e+00 7.780693542800212748e-14 -3.528059260211359460e-14 1.275790267835997041e-14 1.364001685037752321e-13
1.998000000000000000e+03 1.295481300354003906e+01 4.402611732482910156e+00 -7.303355918078166531e-14 1.974546421550441022e-13 3.732632624753144668e-14 -1.538688881169703038e-14
1.999000000000000000e+03 1.927831268310546875e+01 3.608302307128906250e+01 1.085050289634931220e-13 1.380040558825873509e-13 7.395272545382414187e-14 4.200416056643341278e-14
2.000000000000000000e+03 4.193906021118164062e+01 1.959295630455017090e+00 -3.255044617091890080e-14 7.755170746033546170e-14 1.350037872563814717e-14 7.585241706660819649e-14
2.001000000000000000e+03 1.667942810058593750e+01 3.302072906494140625e+01 -1.648554746489991341e-13 2.267288190960919936e-13 1.856200197887514225e-14 2.245630541057846291e-14
2.002000000000000000e+03 7.096836090087890625e+01 -7.886156558990478516e+00 9.802811401428846577e-15 4.201205067833708659e-15 4.201205067833708659e-15 7.203883756884410516e-14
2.003000000000000000e+03 1.685016822814941406e+01 3.385537338256835938e+01 4.720578650739028215e-14 2.489857820787977349e-13 8.885747633568044646e-14 6.324177699535901698e-14
2.004000000000000000e+03 7.183554077148437500e+01 -7.853791713714599609e+00 -4.548588949612221433e-14 3.381521755655065610e-15 -1.263131021626102621e-14 -2.037227062935166588e-14
2.005000000000000000e+03 7.350702667236328125e+01 -8.560380935668945312e+00 7.571363918853005193e-14 -1.505550919394041398e-13 -2.245243616407540527e-14 8.133961169540238068e-14
2.006000000000000000e+03 7.486150360107421875e+01 -8.163054466247558594e+00 2.908648460433170546e-14 2.676280726166772178e-14 1.675478772920641762e-14 -1.617508092120441623e-15
2.007000000000000000e+03 7.476940917968750000e+01 -6.328885555267333984e+00 1.384647875957850660e-13 -1.694126880880802988e-13 -9.284371333534695986e-15 2.131104673156261620e-13
2.008000000000000000e+03 4.008132934570312500e+01 3.484929275512695312e+01 7.426976649784963747e-14 4.893393633007003807e-13 1.690827518144658037e-13 -1.784765640399504916e-13
2.009000000000000000e+03 7.654804229736328125e+00 6.421853065490722656e+00 5.639408143481676461e-14 2.416889252751172612e-14 2.416889252751172612e-14 -1.224258189399737851e-13
2.010000000000000000e+03 1.222189998626708984e+01 4.540058135986328125e+00 7.728284565034979070e-14 4.448797558641304217e-13 1.566487824872231371e-13 -2.222610896056905622e-14
2.011000000000000000e+03 1.147815322875976562e+01 4.691649436950683594e+00 -3.777990561452254648e-14 1.668124053602268453e-13 3.870975127896400525e-14 -5.065802174985568895e-14
2.012000000000000000e+03 4.064258193969726562e+01 3.349963426589965820e-01 -2.392022127248316643e-13 1.991550912898432113e-13 -1.201413405880428359e-14 2.331645042785625982e-14
2.013000000000000000e+03 4.254293823242187500e+01 2.834886550903320312e+00 1.180474582017712604e-13 4.840820822129112203e-15 3.686648561299424309e-14 1.892063572874261301e-13
2.014000000000000000e+03 7.096226501464843750e+01 -6.967632293701171875e+00 1.417868355683233814e-14 1.433294265608744955e-13 4.725243430586147098e-14 5.349755740399059212e-14
2.015000000000000000e+03 7.000386810302734375e+01 -6.962142944335937500e+00 4.654857364361567051e-14 -4.867703530292595560e-14 -6.385377460513448362e-16 1.122741087383402614e-13
2.016000000000000000e+03 4.325228500366210938e+01 3.142999172210693359e+00 1.249763367881101539e-13 -3.124463036387192805e-13 -5.624098869993002237e-14 -9.077627701175455810e-14
2.017000000000000000e+03 4.397277832031250000e+01 3.619414091110229492e+00 1.021387293319298006e-13 -1.392300581467068032e-13 -1.112739813621333243e-14 -5.268475051703599629e-15
2.018000000000000000e+03 5.776716613769531250e+01 3.487392187118530273e+00 2.306874326572826497e-15 -1.591396556633456472e-13 -4.704983418927360939e-14 -2.116556780643215341e-14
2.019000000000000000e+03 6.090617370605468750e+01 2.713696956634521484e+00 2.994917072045126527e-14 -1.015420115612480911e-13 -2.147785360749176337e-14 -7.067123172473446790e-14
2.020000000000000000e+03 7.339335632324218750e+01 -3.253443717956542969e+00 3.360817686973681384e-14 -7.709839575575569426e-14 -1.304706532699248522e-14 5.470099132226340088e-14
2.021000000000000000e+03 4.533854675292968750e+01 3.451740503311157227e+00 -8.617125703313036067e-14 -2.656852873556686534e-13 -1.055569612837606308e-13 -2.325428532460455111e-13
2.022000000000000000e+03 2.726703071594238281e+01 4.162859725952148438e+01 3.227125394710851636e-14 1.383053776891777012e-14 1.383053776891777012e-14 2.660861507801544346e-14
2.023000000000000000e+03 5.769464492797851562e+01 2.049607992172241211e+00 2.149868214766474661e-14 -7.656930509558276809e-14 -1.652118790081494315e-14 -3.037248051803928539e-14
2.024000000000000000e+03 5.471548461914062500e+01 6.075505256652832031e+00 9.756923815027818483e-16 -2.245732015604927356e-14 -6.444488395891418558e-15 -1.096942971027560498e-13
2.025000000000000000e+03 5.614177322387695312e+01 3.431856870651245117e+00 5.574898114218788947e-14 1.016946380044973699e-15 1.702977866959842074e-14 -1.126264270105530041e-13
2.026000000000000000e+03 2.173141670227050781e+01 4.144261932373046875e+01 -3.216049253079375503e-14 1.234697836593329212e-13 2.739278632212221315e-14 -4.372130302655700962e-14
2.027000000000000000e+03 3.841016006469726562e+01 3.739928817749023438e+01 9.052823018941471428e-15 2.097590493226747510e-13 6.564356263422110871e-14 -1.035542162544818290e-13
2.028000000000000000e+03 6.976165008544921875e+01 -9.665349125862121582e-01 9.555291941801963285e-14 -5.055064507719815581e-14 1.350068196343326421e-14 -1.603819446769749052e-14
2.029000000000000000e+03 5.938442611694335938e+01 3.310647726058959961e+00 1.957794176614142262e-14 -1.059868271163603992e-13 -2.592266408040638792e-14 -8.724113418441190038e-14
2.030000000000000000e+03 6.917129516601562500e+00 3.135044860839843750e+01 2.714777357179943423e-14 -7.986713639615908300e-14 -1.581580935552766298e-14 -7.217344804482175857e-14
2.031000000000000000e+03 7.147691345214843750e+01 -3.981583118438720703e+00 8.666823498020698180e-14 -1.001093197054714334e-13 -4.032324909359567139e-15 1.505725882519626246e-13
2.032000000000000000e+03 7.455253601074218750e+01 -1.649507045745849609e+00 1.001144967708450517e-13 -2.572021134755134858e-14 2.231828477995516369e-14 1.229741541887083289e-13
2.033000000000000000e+03 2.559944343566894531e+01 3.926181793212890625e+01 -2.053701896110910093e-15 1.849830781174705008e-13 5.487881064294639066e-14 2.783147146176879333e-14
2.034000000000000000e+03 4.941026306152343750e+01 5.507968425750732422e+00 7.014031824965905049e-14 -2.444455499562431244e-13 -5.229157222248065340e-14 -1.172655587000290267e-13
2.035000000000000000e+03 7.339320373535156250e+01 8.038677215576171875e+00 -2.412714269705803528e-15 -2.069132896704434232e-13 -6.279780298198978095e-14 -9.871815787509865409e-15
2.036000000000000000e+03 7.447029113769531250e+01 1.187353515625000000e+01 -3.760871686775066336e-14 -2.448727527172567253e-13 -8.474444697413943683e-14 2.240708432601351552e-14
2.037000000000000000e+03 7.321244812011718750e+01 1.195630455017089844e+01 8.219623983188317773e-14 1.267288547322428793e-13 6.267753107974324833e-14 -4.810613848460834618e-14
2.038000000000000000e+03 7.332223510742187500e+01 5.579991340637207031e+00 9.071770298938602872e-15 -1.791158909560108814e-13 -5.101323687474804136e-14 -1.277253449489743065e-13
2.039000000000000000e+03 7.303186035156250000e+01 1.849925994873046875e+01 -4.287754301461089990e-14 -3.615082137722186451e-13 -1.213157314406201892e-13 4.308206504895608149e-15
2.040000000000000000e+03 7.223090362548828125e+01 3.238333940505981445e+00 7.442200203539375836e-14 -5.102845297461251761e-14 7.018065226454140576e-15 -5.864715180506352432e-14
2.041000000000000000e+03 7.332133483886718750e+01 -1.146599054336547852e+00 1.699237403346084974e-13 -2.245567013586802219e-13 -1.638988762959515955e-14 5.232346470701067231e-14
2.042000000000000000e+03 7.335063457489013672e+00 3.289505386352539062e+01 -3.123495995811971515e-14 -1.338641044258508106e-14 -1.338641044258508106e-14 -9.946703833849102061e-14
2.043000000000000000e+03 7.345780944824218750e+01 6.808264255523681641e+00 1.004466624351767201e-13 -2.557785221417221283e-14 2.246064391333429944e-14 -6.409286214823298189e-14
2.044000000000000000e+03 7.232044982910156250e+01 5.988413810729980469e+00 1.385958811909657196e-13 -1.236055528763824185e-13 4.497098663781579769e-15 -1.697139268854418181e-14
2.045000000000000000e+03 7.297382354736328125e+01 4.940262734889984131e-01 2.152429303585792764e-13 -4.110134541740473324e-13 -5.873115714464041681e-14 4.646308091418339947e-14
2.046000000000000000e+03 7.321460723876953125e+01 1.326606750488281250e+01 -9.897879838329827484e-15 -4.241948199629587760e-15 -4.241948199629587760e-15 2.710880666809394740e-14
2.047000000000000000e+03 7.280123901367187500e+01 2.257893753051757812e+01 4.464719135306889630e-15 -2.268412915189602086e-13 -6.671297222331576404e-14 -1.749425596248889436e-14
2.048000000000000000e+03 5.896442890167236328e+00 2.315355110168457031e+01 -3.080963761024901881e-14 -3.607960555752215415e-14 -2.006677295033135189e-14 8.379772841338867240e-14
2.049000000000000000e+03 6.230393409729003906e+00 2.782957077026367188e+01 5.411120905735380959e-14 -1.369377972560564816e-13 -2.484797747605033830e-14 -1.934690167131655064e-15
2.050000000000000000e+03 7.397789001464843750e+01 -5.353650569915771484e+00 3.749321884319485598e-14 6.181947315164748602e-14 2.979380793726588150e-14 1.819373102694699096e-13
2.051000000000000000e+03 1.328938293457031250e+01 2.412626075744628906e+01 2.036410861987192344e-13 3.160294833985666241e-13 1.559011708791857576e-13 -1.640139033701887294e-14
2.052000000000000000e+03 7.098207855224609375e+01 3.092782592773437500e+01 -1.678072218398544979e-14 -2.245087389650748944e-13 -7.238683936115763995e-14 1.876982998281345738e-14
2.053000000000000000e+03 1.335023784637451172e+01 2.456680679321289062e+01 -6.326594115127828766e-14 7.049011981757891121e-13 1.924905818507377520e-13 1.353920908763253661e-13
2.054000000000000000e+03 4.834822654724121094e+00 2.570892906188964844e+01 5.096780880372089872e-14 -1.154094994484239356e-13 -1.933250719341091106e-14 -3.823236689802327060e-14
2.055000000000000000e+03 5.962991237640380859e+00 2.187723731994628906e+01 4.371188402018354180e-14 -4.989275797519752975e-14 -1.854261847691017484e-15 1.467551073204434800e-15
2.056000000000000000e+03 6.444286823272705078e+00 1.711985588073730469e+01 4.004594575325766403e-14 -2.858840212629186472e-14 3.437263299847976607e-15 8.994988456335895055e-14
2.057000000000000000e+03 1.363067054748535156e+01 1.946727943420410156e+01 -4.034513811901861702e-14 1.080731966592030080e-12 3.121160556569801958e-13 -1.181958668444596863e-14
2.058000000000000000e+03 8.226563453674316406e+00 2.010489654541015625e+01 8.331435720357674435e-14 2.415854246252263637e-13 9.746993116050914341e-14 -4.270431122437023941e-14
2.059000000000000000e+03 5.064575672149658203e+00 2.041381263732910156e+01 1.996498669512569712e-14 -3.719452453280688853e-14 -5.168861859524125774e-15 4.343031671598905630e-14
2.060000000000000000e+03 5.942337989807128906e+00 1.036454772949218750e+01 9.493592706671244441e-15 4.068682528071037099e-15 4.068682528071037099e-15 5.728224969012152279e-14
2.061000000000000000e+03 4.881977558135986328e+00 1.313946914672851562e+01 1.500219863430612283e-14 -1.644596121070339423e-14 -4.331283917543551562e-16 2.845082703499882126e-14
2.062000000000000000e+03 5.962601661682128906e+00 1.440899562835693359e+01 3.574560013762904942e-14 -7.555931147960621291e-15 8.456900612197233713e-15 5.172258292236026067e-14
2.063000000000000000e+03 5.083499431610107422e+00 1.592349147796630859e+01 4.812992994603082497e-14 -7.087478390635504333e-14 -6.823456865723623310e-15 1.048098443429644477e-13
2.064000000000000000e+03 6.140157699584960938e+00 1.573691368103027344e+01 1.754216245191970308e-14 -4.967061511445061694e-14 -9.638536137572453061e-15 6.347155839922426906e-15
2.065000000000000000e+03 4.767107009887695312e+00 8.743195533752441406e+00 -2.218604769029571683e-14 4.768037906773686663e-14 7.648299243825755489e-15 7.276330823676249726e-14
2.066000000000000000e+03 6.299162387847900391e+00 9.238129615783691406e+00 -6.046823198407880184e-14 -1.631678055473081979e-13 -6.709080990416338430e-14 1.912772003775323887e-14
2.067000000000000000e+03 7.404751586914062500e+01 -6.139471530914306641e+00 -1.213290501866828158e-14 -2.339545657897845743e-13 -7.382623971787655170e-14 -6.875263433656769729e-14
2.068000000000000000e+03 6.576188659667968750e+01 1.944395542144775391e+00 1.135472737969628332e-13 7.153859346272287145e-14 5.552576085553206919e-14 -2.333371634745309148e-14
2.069000000000000000e+03 6.467292785644531250e+01 1.379879713058471680e+00 3.947326338948724256e-14 1.084190110736335533e-13 4.436768064487034424e-14 -3.241435846948123589e-15
2.070000000000000000e+03 6.687087249755859375e+01 2.579998016357421875e+00 4.494536727929314412e-14 1.926230002054479112e-14 1.926230002054479112e-14 -5.623730241254357165e-14
2.071000000000000000e+03 5.081457519531250000e+01 5.687809467315673828e+00 5.943465527678479243e-14 -2.061421779803174203e-13 -4.401225884393886179e-14 -4.085141648785609036e-14
2.072000000000000000e+03 6.779042053222656250e+01 3.393672704696655273e-01 8.133313358742177979e-14 -1.023957868907625357e-13 -6.318796329815405677e-15 -4.215038555818381716e-14
2.073000000000000000e+03 6.933679199218750000e+01 2.016067504882812500e-03 9.244886215072078972e-14 -9.763190418881489974e-14 -1.554913310230414489e-15 -4.462181424596915746e-14
2.074000000000000000e+03 3.234279251098632812e+01 4.129979324340820312e+01 6.628465815507536552e-14 1.199096025380694264e-13 5.585827888556979537e-14 -4.206671564365403737e-14
2.075000000000000000e+03 2.730161094665527344e+01 4.016968536376953125e+01 -9.899638278728327412e-15 1.330101393609561811e-13 3.693315049407494555e-14 3.226474873407360333e-14
2.076000000000000000e+03 3.760799407958984375e+01 3.876427841186523438e+01 5.227086734911796928e-14 4.112848570828747663e-13 1.390667230894218620e-13 5.080996590806595437e-14
2.077000000000000000e+03 3.638898849487304688e+01 3.782147979736328125e+01 1.203184009672050858e-13 -1.543142377118458808e-13 -1.019875187042518574e-14 -6.425219243374330480e-14
2.078000000000000000e+03 7.226219177246093750e+01 2.776137351989746094e+01 -3.931269304774213935e-14 -1.998520977614798300e-13 -7.174943690395341189e-14 1.217067675888519260e-14
2.079000000000000000e+03 7.117720031738281250e+01 2.377023124694824219e+01 9.742200264822170608e-16 -1.825862730323382643e-13 -5.448361556294363528e-14 -1.031694600085210356e-13
2.080000000000000000e+03 7.171049499511718750e+01 4.059318923950195312e+01 -3.709658380718176829e-14 -2.732476246138093590e-13 -9.310325947697872806e-14 -8.135910277055164938e-16
2.081000000000000000e+03 7.421845245361328125e+01 3.736465072631835938e+01 -4.167677216792425865e-14 -2.351784945172491481e-13 -8.305657458454115960e-14 1.239806698874034580e-14
2.082000000000000000e+03 4.329538345336914062e+01 1.589486026763916016e+01 -4.930826458401059431e-14 1.618716825076832455e-13 3.376902503828861646e-14 1.890991567976216259e-13
2.083000000000000000e+03 1.614627838134765625e+01 8.909779548645019531e+00 -2.117318771482565309e-13 2.752653519618591949e-13 1.906004210526762027e-14 -1.120881138556503731e-13
2.084000000000000000e+03 6.101614475250244141e+00 2.061672401428222656e+01 -1.497183927941063419e-14 1.645897163677322028e-14 4.461397177966876671e-16 2.653177224904053333e-14
2.085000000000000000e+03 1.424658393859863281e+01 1.439930343627929688e+01 2.387157583150917306e-13 5.598162450097532439e-13 2.395595928659371987e-13 6.198465135262565262e-14
2.086000000000000000e+03 1.628955459594726562e+01 8.552484512329101562e+00 -3.639482039851336947e-15 4.559497310957505434e-13 1.356930653994073421e-13 -7.123277391118260082e-14
2.087000000000000000e+03 1.702025604248046875e+01 3.670500278472900391e+00 -2.205001081083488718e-14 3.630094543103506988e-14 4.275280216653465359e-15 2.746953597747292530e-14
2.088000000000000000e+03 1.750500106811523438e+01 6.508286952972412109e+00 -2.072982085467300895e-13 -4.309114100698591132e-14 -7.511680622136751584e-14 -2.949328606859091817e-13
2.089000000000000000e+03 1.607343482971191406e+01 1.013657188415527344e+01 -2.416390655277100841e-13 4.454517809303337739e-13 6.114381191028167573e-14 6.917532410603832727e-14
2.090000000000000000e+03 1.585272312164306641e+01 9.627307891845703125e+00 -2.089122738734364160e-13 -2.725376348211572264e-13 -1.444349739636308083e-13 -1.256665263385872700e-13
2.091000000000000000e+03 4.263743209838867188e+01 1.301991081237792969e+01 7.631400936528032197e-14 -1.045468440009737765e-13 -8.469849204861910202e-15 2.084399547495202620e-13
2.092000000000000000e+03 4.296348190307617188e+01 1.219125938415527344e+01 2.454090600981402581e-14 -2.182372121559139622e-13 -5.810889286026951761e-14 2.882719562190272367e-13
2.093000000000000000e+03 4.338644027709960938e+01 1.800584411621093750e+01 -2.028663390431836161e-14 3.573133271466549798e-13 1.011080054316021437e-13 2.214400436292580238e-14
2.094000000000000000e+03 4.339286804199218750e+01 1.842333030700683594e+01 -2.434568143261438104e-15 5.479679752486144029e-13 1.636600333336166169e-13 -3.064104840759225915e-15
2.095000000000000000e+03 4.303244018554687500e+01 2.046301460266113281e+01 -3.319599030881213719e-14 3.517807247756243871e-13 9.557542338936228510e-14 1.816198287683118417e-13
2.096000000000000000e+03 4.302893066406250000e+01 1.924116897583007812e+01 1.696138075910763598e-13 1.641935285651152654e-13 1.001421981363520564e-13 5.558817701934934408e-14
2.097000000000000000e+03 4.315290451049804688e+01 2.570525169372558594e+01 -5.761219273999959589e-14 2.498147630598801516e-13 5.766076499732694649e-14 -4.024314942293856848e-16
2.098000000000000000e+03 4.400276947021484375e+01 2.444973182678222656e+01 -7.013220028589256527e-14 4.274528322446846662e-13 1.071961868771321991e-13 -5.211076118142796143e-14
2.099000000000000000e+03 1.355737781524658203e+01 2.109442138671875000e+01 -1.452433279983816883e-13 1.401783203403006439e-12 3.769619707529037189e-13 -3.094995776591752401e-13
2.100000000000000000e+03 4.349104309082031250e+01 2.366742897033691406e+01 2.260913217711976730e-13 2.799000723037459171e-13 1.517974114462194990e-13 -1.850617911951929484e-13
2.101000000000000000e+03 4.354395294189453125e+01 2.447199630737304688e+01 1.007762056855036892e-13 -9.406304267390794283e-14 2.013948310555660828e-15 1.112207182363440794e-13
2.102000000000000000e+03 1.566521167755126953e+01 1.128732776641845703e+01 -4.865918323652962396e-14 2.536517545483063518e-13 6.149777003828030275e-14 2.075296315004471204e-13
2.103000000000000000e+03 4.293927383422851562e+01 1.177996253967285156e+01 2.379066182337657986e-13 2.849637843402308413e-13 1.568611099301772671e-13 -5.906421049950080771e-14
2.104000000000000000e+03 1.407146358489990234e+01 1.902309799194335938e+01 -1.328368431962115292e-13 9.495907749360044114e-13 2.450261944297177363e-13 8.981911622883004265e-14
2.105000000000000000e+03 4.340007781982421875e+01 2.046091842651367188e+01 5.388722305291367143e-14 4.806040006070932957e-13 1.603473755683315627e-13 1.098138710498540449e-13
2.106000000000000000e+03 4.339883041381835938e+01 2.005562210083007812e+01 -1.056544310590670777e-13 4.122290074397294557e-13 9.197237562470414463e-14 -5.750342015704498766e-14
2.107000000000000000e+03 4.304922103881835938e+01 2.246350669860839844e+01 -1.549470763555303027e-14 4.508688886649403482e-13 1.306122636261786152e-13 -4.330555892725386491e-15
2.108000000000000000e+03 4.346565246582031250e+01 2.325783920288085938e+01 2.104173362242264811e-13 1.188201663795962482e-12 4.195856986508039732e-13 -1.054032485207564984e-13
2.109000000000000000e+03 4.356869888305664062e+01 2.615771675109863281e+01 -3.346095576724043841e-14 3.516671817031108427e-13 9.546186676432158458e-14 1.377579826470146096e-13
2.110000000000000000e+03 4.341452789306640625e+01 2.205472183227539062e+01 8.717317503698779335e-14 4.033675249284079944e-13 1.471622032133551583e-13 -1.851725017895308745e-13
2.111000000000000000e+03 4.390936660766601562e+01 2.363205718994140625e+01 -1.982489422191341388e-14 9.065225783574937246e-13 2.660093011749159464e-13 -1.505865880125148437e-13
2.112000000000000000e+03 4.306038284301757812e+01 2.286275100708007812e+01 -4.095042108686296201e-14 5.772121604470659140e-13 1.608785262126322113e-13 3.002064674867237215e-14
2.113000000000000000e+03 4.313372802734375000e+01 2.487515640258789062e+01 1.899372450769529208e-13 3.565072567127298975e-14 6.767639427378638328e-14 -2.743166682846708004e-14
2.114000000000000000e+03 4.351795196533203125e+01 2.407225799560546875e+01 -2.464990390353260369e-14 3.554433494496606061e-13 9.923803451087134797e-14 -1.646202434351512478e-13
2.115000000000000000e+03 4.303905868530273438e+01 2.165723609924316406e+01 1.199142781599382701e-13 7.834070306529661298e-13 2.709963872228604576e-13 1.211198161080520586e-13
2.116000000000000000e+03 4.376824569702148438e+01 2.084372329711914062e+01 5.481422268665235575e-14 3.894993865199286587e-13 1.332940919099301347e-13 3.845680691212313707e-14
2.117000000000000000e+03 4.340220260620117188e+01 2.085953521728515625e+01 9.531146081794353297e-14 4.068553491071852379e-13 1.506500409446595579e-13 9.757364695676864347e-15
2.118000000000000000e+03 4.339839553833007812e+01 1.964627456665039062e+01 4.534707096046260155e-14 2.939401380717271417e-13 1.017861671142282487e-13 -2.819920065142388077e-14
2.119000000000000000e+03 1.383281040191650391e+01 1.429662418365478516e+01 1.009137367310834754e-13 4.092563419232086996e-13 1.530510202081558635e-13 -7.806831624299764849e-14
2.120000000000000000e+03 4.341137695312500000e+01 1.297871112823486328e+01 1.315459361854757689e-14 -3.146189634772172949e-13 -9.043930697654606332e-14 4.148917808702995424e-13
2.121000000000000000e+03 1.354655551910400391e+01 1.855744171142578125e+01 -2.004307229084081876e-13 5.546144056164936664e-13 1.062551061676783593e-13 -5.124881706617019639e-14
2.122000000000000000e+03 1.423792362213134766e+01 1.776377105712890625e+01 8.815666838017655049e-14 6.782947142326689605e-13 2.299354012313264972e-13 1.271187609385229789e-13
2.123000000000000000e+03 1.708889198303222656e+01 7.592436313629150391e+00 -2.425900666870421662e-14 -1.039671702272567180e-14 -1.039671702272567180e-14 -1.259389931207964552e-14
2.124000000000000000e+03 1.763325309753417969e+01 4.046498775482177734e+00 7.423986284667977165e-14 3.181708504518612757e-14 3.181708504518612757e-14 -5.030479884645527866e-14
2.125000000000000000e+03 1.444685268402099609e+01 1.693264389038085938e+01 -1.512237058666487943e-13 2.669173950332719147e-14 -3.735959092543601756e-14 1.182152113829090800e-13
2.126000000000000000e+03 4.339653396606445312e+01 1.883295631408691406e+01 3.302243664605152007e-14 1.514053232830672724e-13 5.532832763992245884e-14 -1.532582383483721555e-13
2.127000000000000000e+03 4.322652053833007812e+01 1.504731750488281250e+01 -8.244799157633431186e-14 3.306727450452101591e-13 7.446742333015732296e-14 3.325467342902427292e-13
2.128000000000000000e+03 1.330619335174560547e+01 2.135261344909667969e+01 1.562968911196158106e-13 1.073505217011327950e-12 3.689406365050412751e-13 -5.228412510880839359e-14
2.129000000000000000e+03 4.225218582153320312e+01 9.694953918457031250e+00 3.390279051419808898e-13 5.113052451051480762e-13 2.550999504951495522e-13 1.272350280689948931e-13
2.130000000000000000e+03 1.379569911956787109e+01 2.825469207763671875e+01 1.841322402982171341e-14 5.569027769318501964e-13 1.725947943592709422e-13 -9.639243748896589303e-14
2.131000000000000000e+03 1.365549468994140625e+01 2.250263023376464844e+01 -8.464009251503770703e-14 9.702465610453292477e-13 2.656819263289339483e-13 -1.775521190575807262e-13
2.132000000000000000e+03 4.299371719360351562e+01 1.717019462585449219e+01 -3.182023261961812455e-14 -1.051391368715390295e-13 -4.108780983090760952e-14 1.332112724164793982e-13
2.133000000000000000e+03 4.337676620483398438e+01 1.758172798156738281e+01 -1.122761077360957815e-13 -4.811833237091701909e-14 -4.811833237091701909e-14 -8.093810452587668625e-14
2.134000000000000000e+03 1.400294876098632812e+01 2.792008590698242188e+01 5.697851045149970872e-14 5.734307343199795959e-13 1.891227788524546538e-13 6.317091083085993319e-14
2.135000000000000000e+03 4.290752792358398438e+01 1.136331653594970703e+01 1.661850453256452642e-13 1.169731087165282180e-13 8.494745027841019147e-14 2.310612909773440693e-13
2.136000000000000000e+03 1.416481494903564453e+01 1.478196144104003906e+01 5.104666079484669605e-14 4.793866041977179471e-13 1.591299927114833701e-13 -1.835687770410446285e-13
2.137000000000000000e+03 6.849745750427246094e+00 2.321118545532226562e+01 1.606269743679566292e-14 -1.599146027186568175e-14 2.137122524873845999e-17 4.814649198124848831e-15
2.138000000000000000e+03 1.458736228942871094e+01 2.916002464294433594e+01 -1.816696749631918628e-13 1.966472639022484592e-13 4.493277698156515620e-15 2.306137831425188883e-14
2.139000000000000000e+03 1.779552841186523438e+01 4.999643802642822266e+00 2.728124394143008336e-14 2.861976606226279696e-13 9.404366933633834247e-14 2.103963298071345744e-13
2.140000000000000000e+03 3.727306365966796875e+01 2.164606153964996338e-01 5.375130679094453079e-13 9.623779637785156993e-13 4.499672932433557149e-13 6.389360069671001785e-13
2.141000000000000000e+03 3.867589950561523438e+01 4.703605473041534424e-01 1.426382612284421425e-13 1.067651609482078712e-12 3.630869476606291002e-13 1.259463318142514665e-13
2.142000000000000000e+03 4.356832122802734375e+01 2.659381866455078125e+01 2.484973490000930152e-13 8.385140455244299851e-13 3.261034291993786249e-13 3.761707538887416880e-14
2.143000000000000000e+03 4.306758880615234375e+01 1.339970493316650391e+01 2.423238476198519287e-13 4.241097219508799254e-13 1.999300654502086938e-13 2.837534894550852727e-13
2.144000000000000000e+03 3.910582733154296875e+01 9.688246846199035645e-01 6.759645469235631143e-14 8.524869720728800448e-13 2.760250253190654757e-13 6.626882880335707715e-14
2.145000000000000000e+03 1.568186283111572266e+01 3.082304573059082031e+01 -1.573233087044396267e-14 4.278915817588352377e-13 1.236477825510007289e-13 9.438215047832473892e-14
2.146000000000000000e+03 1.396099948883056641e+01 1.555613422393798828e+01 1.110430852629094856e-13 5.050993802900582974e-13 1.848427416987694083e-13 -4.946508426386525548e-14
2.147000000000000000e+03 1.361697959899902344e+01 2.070923423767089844e+01 6.831861465439459380e-14 7.612945647147983941e-13 2.488839483897470339e-13 -1.225202800542515846e-13
2.148000000000000000e+03 1.327153873443603516e+01 2.255118942260742188e+01 1.811049140515441636e-13 9.468843894730460953e-13 3.383967910573770776e-13 -6.934123414348292158e-14
2.149000000000000000e+03 1.329356956481933594e+01 2.292109298706054688e+01 -9.078912480749851133e-15 3.621166409263631980e-13 1.059113124350467838e-13 1.118325606273319617e-13
2.150000000000000000e+03 1.436638069152832031e+01 1.565716075897216797e+01 3.636841414638271666e-15 2.760643276478180752e-13 8.391035669031918220e-14 -2.323538429260633975e-14
2.151000000000000000e+03 1.406722068786621094e+01 1.516691684722900391e+01 -2.496522377660927855e-14 1.723044179124250119e-13 4.420175705489859386e-14 2.746378970595875213e-14
2.152000000000000000e+03 1.577835369110107422e+01 1.217182636260986328e+01 1.507145103163409772e-13 5.678523515122158027e-13 2.155700612590724652e-13 -1.351009419354315400e-13
2.153000000000000000e+03 1.363632678985595703e+01 2.767073440551757812e+01 1.335771635446389438e-13 4.918813837143098944e-13 1.876375574014210734e-13 -1.373127821299377493e-13
2.154000000000000000e+03 1.554214286804199219e+01 1.167136001586914062e+01 1.838832498811740490e-13 3.533128108655636535e-13 1.611588195792740263e-13 -1.282064325579604369e-13
2.155000000000000000e+03 1.641000747680664062e+01 8.170671463012695312e+00 9.370212193508288545e-15 3.700234021096482362e-13 1.138180803945954001e-13 -4.056086724628892026e-14
2.156000000000000000e+03 4.218901824951171875e+01 9.263682365417480469e+00 5.816050765994340566e-13 2.950102727210246467e-13 2.629845939541158861e-13 2.912648421060648474e-13
2.157000000000000000e+03 4.286362838745117188e+01 1.094084644317626953e+01 2.280877038889767006e-13 3.722575633163804909e-13 1.801035855826180199e-13 1.871901884799992422e-13
2.158000000000000000e+03 1.543483638763427734e+01 1.075828266143798828e+01 -1.498095538680216388e-13 2.103015976423136535e-13 1.814761482635349893e-14 1.504900398090550095e-13
2.159000000000000000e+03 1.570877552032470703e+01 9.997674942016601562e+00 2.074132966073394257e-14 2.833948353764270678e-13 9.124085086640101872e-14 -4.563748806488999998e-14
2.160000000000000000e+03 1.589515209197998047e+01 5.050113201141357422e+00 3.596726188366192178e-14 1.526673888219490238e-13 5.659039656693599929e-14 -5.060989672592448863e-14
2.161000000000000000e+03 1.759464263916015625e+01 3.561365127563476562e+00 6.889203563089502103e-14 3.040308619011583557e-13 1.118768638386051506e-13 -1.562862015638214613e-14
2.162000000000000000e+03 1.657927131652832031e+01 7.816470146179199219e+00 -1.319586529890254267e-13 -5.655370648779273202e-14 -5.655370648779273202e-14 -5.429720055191190886e-14
2.163000000000000000e+03 1.812732315063476562e+01 3.470103502273559570e+00 1.379667186702723813e-13 5.912859177975571257e-14 5.912859177975571257e-14 6.748340628708396349e-14
2.164000000000000000e+03 1.606746101379394531e+01 3.184172439575195312e+01 -8.068633414670071252e-15 8.804391135423805803e-14 2.399258431360663801e-14 4.294771122396144614e-14
2.165000000000000000e+03 1.507620716094970703e+01 3.103637695312500000e+01 -1.970260705887877384e-13 2.358168998614629253e-13 1.163724929002232442e-14 -2.555670518961106197e-14
2.166000000000000000e+03 4.313001251220703125e+01 3.154967689514160156e+01 8.320254885453917670e-14 4.016658154085833710e-13 1.454605072460576909e-13 -3.061935674084602377e-14
2.167000000000000000e+03 3.471281433105468750e+01 -1.793214201927185059e+00 4.182903481052269168e-13 7.969050766498675387e-13 3.645586436895609239e-13 3.504452858547196792e-13
2.168000000000000000e+03 3.440229415893554688e+01 -1.929490566253662109e+00 4.490153366308591298e-13 4.211898841852135256e-13 2.610615716658326591e-13 1.419186847168929858e-14
2.169000000000000000e+03 1.503367996215820312e+01 1.315186500549316406e+01 6.718649752214880810e-14 2.117980134807781467e-13 8.369535262325172864e-14 1.885037536220740551e-13
2.170000000000000000e+03 1.518820095062255859e+01 1.280261421203613281e+01 -5.192204901704328135e-14 7.097628691374313625e-13 1.973522528123800024e-13 -2.516993808743348687e-14
2.171000000000000000e+03 4.205069351196289062e+01 8.421922683715820312e+00 4.775908943495388304e-13 5.706893833369586222e-13 3.144840887269600982e-13 2.556288514199422934e-13
2.172000000000000000e+03 1.284137535095214844e+01 2.325843429565429688e+01 -1.008659640728583329e-13 1.397755202596842605e-13 1.167286702545436775e-14 -4.434101265955898985e-14
2.173000000000000000e+03 1.722393608093261719e+01 5.111487865447998047e+00 8.769341589692780659e-14 4.035904911051796384e-13 1.473851693901268023e-13 -2.511565445634938998e-13
2.174000000000000000e+03 1.773435974121093750e+01 4.524614334106445312e+00 3.005094003499797495e-14 -2.158757656141319092e-13 -5.574744970661925370e-14 1.549585926154811721e-13
2.175000000000000000e+03 4.138577270507812500e+01 4.521368503570556641e+00 4.614174168617035665e-13 7.010107555202593765e-13 3.487284517145888829e-13 3.491638402020047494e-13
2.176000000000000000e+03 4.109947967529296875e+01 5.013753890991210938e+00 3.316331042245435068e-13 6.682643804642451890e-13 2.999692508276474712e-13 3.743516184973733063e-13
2.177000000000000000e+03 3.599296188354492188e+01 -1.534876108169555664e+00 3.410636573511482972e-13 7.981211720166359047e-13 3.417554325473026733e-13 2.681237935668601136e-13
2.178000000000000000e+03 4.280897140502929688e+01 1.051424884796142578e+01 2.599225901785823245e-13 3.859010821397751423e-13 1.937471044060126713e-13 2.449455568931391269e-13
2.179000000000000000e+03 1.371175289154052734e+01 2.719472694396972656e+01 2.201374661985749936e-13 4.146012688981820515e-13 1.904216259500379760e-13 -1.622530641743821778e-13
2.180000000000000000e+03 4.336334609985351562e+01 1.715637207031250000e+01 3.451980793768051614e-14 1.977979954305431054e-13 6.969534134928026536e-14 -5.702088242765315784e-14
2.181000000000000000e+03 4.357022857666015625e+01 2.703121948242187500e+01 1.262661714551346903e-13 4.658726204288810013e-13 1.776416334994465607e-13 -1.299481355854226194e-13
2.182000000000000000e+03 4.257452774047851562e+01 8.778304100036621094e+00 4.002410111236115453e-13 1.257809232203116467e-13 1.578065884346932513e-13 2.279198693926759445e-13
2.183000000000000000e+03 4.268819427490234375e+01 9.653677940368652344e+00 3.737222662412997831e-13 5.719252111832662244e-13 2.836942378063589398e-13 4.222649519543958396e-13
2.184000000000000000e+03 1.586927032470703125e+01 3.136381340026855469e+01 -1.575140300309751940e-13 4.815053520831891198e-13 9.719740339192775580e-14 7.024026136117147989e-14
2.185000000000000000e+03 3.984251022338867188e+01 3.245544672012329102e+00 3.343463201611884816e-13 6.465517140771814830e-13 2.942694102715109894e-13 4.087844429276343838e-13
2.186000000000000000e+03 4.184068679809570312e+01 2.670598983764648438e+00 6.368274234769960573e-14 1.416699738207224946e-13 6.160581756103206130e-14 7.861049186813975909e-14
2.187000000000000000e+03 3.663272094726562500e+01 -1.707643508911132812e+00 8.728170367445359235e-14 8.609235286477501248e-13 2.844615547888812435e-13 1.689038449034785394e-13
2.188000000000000000e+03 3.571845626831054688e+01 -1.183602213859558105e+00 5.514763450585602467e-13 4.651017526842438077e-13 3.049734130598086290e-13 3.001085437017575464e-13
2.189000000000000000e+03 4.133406448364257812e+01 5.623966217041015625e+00 3.654130763166424378e-13 4.539867830624655376e-13 2.458199659452486863e-13 5.403128573895632503e-13
2.190000000000000000e+03 4.281789398193359375e+01 1.465032005310058594e+01 -3.876492022888457234e-14 7.611525884403114173e-13 2.167163069008784526e-13 2.998128004541578129e-13
2.191000000000000000e+03 1.266438293457031250e+01 1.921560478210449219e+01 -3.715224742434353189e-14 7.160927666810534831e-13 2.036821639085292790e-13 -1.949148172508338717e-13
2.192000000000000000e+03 4.332300949096679688e+01 1.631479072570800781e+01 1.014477130772961644e-13 6.382399491723644847e-13 2.219062878328764699e-13 -1.397220487637899911e-14
2.193000000000000000e+03 1.364321613311767578e+01 2.031062126159667969e+01 2.923073770338090183e-14 8.360445582361597516e-13 2.595825843772908703e-13 -1.486327337249515601e-13
2.194000000000000000e+03 4.326272964477539062e+01 1.547173976898193359e+01 -2.710471888709049815e-14 3.086403203324261657e-13 8.446068416054566819e-14 -3.634089828109116072e-14
2.195000000000000000e+03 4.198555755615234375e+01 6.358965396881103516e+00 3.355143040565528034e-13 4.754862410923099691e-13 2.433001445711208133e-13 3.438397841188517434e-13
2.196000000000000000e+03 1.239761161804199219e+01 2.313687705993652344e+01 5.894036750634865096e-14 2.997658545000891905e-13 1.076118632137995634e-13 2.045630510686194392e-13
2.197000000000000000e+03 1.536926746368408203e+01 3.162571144104003906e+01 -3.985130774637399287e-14 3.489284599103581463e-13 9.272314497156888824e-14 4.574832740823590871e-14
2.198000000000000000e+03 1.478302383422851562e+01 2.966262054443359375e+01 1.744337638741322305e-14 4.192342816216471091e-13 1.310032946922126684e-13 -4.215533900685936031e-14
2.199000000000000000e+03 4.165802383422851562e+01 3.339905738830566406e+00 2.265384738521850072e-13 2.572162318206783205e-13 1.451264103466062827e-13 1.635301459133528534e-13
2.200000000000000000e+03 1.363884639739990234e+01 2.624186325073242188e+01 1.322007959917229081e-13 2.854122374638251580e-13 1.252839113919171354e-13 -5.816551531872757308e-14
2.201000000000000000e+03 3.964554977416992188e+01 1.837816715240478516e+00 2.496763375475080649e-13 4.043853197178287617e-13 1.962184890480847543e-13 3.128655104087108008e-13
2.202000000000000000e+03 4.048616790771484375e+01 2.060367345809936523e+00 1.293009346510845536e-13 7.874298543937563455e-13 2.750192380687049853e-13 1.441899849302305525e-13
2.203000000000000000e+03 3.704039382934570312e+01 -2.020134210586547852e+00 8.691934975588178069e-14 6.434512211245246860e-13 2.191111739746273712e-13 6.137381862491089746e-14
2.204000000000000000e+03 4.311127471923828125e+01 1.380131244659423828e+01 -9.453024571882268079e-14 1.882417832721472450e-13 2.811346058837101147e-14 1.360516923730112349e-13
2.205000000000000000e+03 3.878181838989257812e+01 -1.374074578285217285e+00 -7.679635735929196683e-14 2.644684330473795475e-13 5.630162609455806322e-14 -1.392106780328736249e-13
2.206000000000000000e+03 1.404794406890869141e+01 1.684113311767578125e+01 1.110627974136579876e-13 5.051078370670036843e-13 1.848511849231876392e-13 -8.223135612381044651e-15
2.207000000000000000e+03 4.357700347900390625e+01 2.747106742858886719e+01 2.881099493094035902e-13 9.927437561244034647e-13 3.842561034986258228e-13 -1.717629402424314389e-13
2.208000000000000000e+03 1.367456054687500000e+01 2.669544410705566406e+01 2.068358505302736461e-13 6.376553473609603007e-13 2.533473647883810465e-13 4.659816911674330431e-14
2.209000000000000000e+03 8.553952217102050781e+00 2.820323562622070312e+01 1.209392151311702857e-13 1.147386493541985297e-13 7.070335799035792901e-14 -6.116728488731598690e-14
2.210000000000000000e+03 5.869340419769287109e+00 2.447977638244628906e+01 3.044642310620279679e-14 -9.827007744600112921e-15 6.185824015557742084e-15 -2.427171893917660916e-14
2.211000000000000000e+03 3.711555099487304688e+01 -9.673554897308349609e-01 3.102115190157378466e-13 8.192120484577791739e-13 3.388270566895279501e-13 6.162784041766067311e-14
2.212000000000000000e+03 3.746527862548828125e+01 -2.347506999969482422e+00 -9.793239082091925729e-14 5.527913196634592907e-13 1.364576718764984320e-13 2.231261982360392693e-14
2.213000000000000000e+03 3.788747787475585938e+01 -1.863642930984497070e+00 6.772480390078786106e-14 4.407834503211000010e-13 1.525524769441927164e-13 -3.226003245462329139e-14
2.214000000000000000e+03 3.731705093383789062e+01 -1.319841146469116211e-01 1.361542443460012075e-13 5.616122801185841062e-13 2.093299492078593005e-13 3.574231297216734493e-13
2.215000000000000000e+03 1.319956684112548828e+01 2.710407829284667969e+01 1.120924100067588469e-13 6.428019466535317417e-13 2.264682988665708829e-13 2.562403245045651728e-14
2.216000000000000000e+03 4.118077468872070312e+01 6.228594779968261719e+00 5.511684858516829877e-13 5.107207517139611408e-13 3.185667604276715137e-13 5.627847905580185550e-13
2.217000000000000000e+03 4.359807586669921875e+01 2.887051963806152344e+01 2.664307847694696862e-13 7.089469527925273962e-13 2.926133185580936935e-13 -5.490377778609965842e-14
2.218000000000000000e+03 4.407613754272460938e+01 2.837941932678222656e+01 1.876320144178142413e-13 4.464213016180246241e-13 1.902159934554989440e-13 -1.592581047506896885e-13
2.219000000000000000e+03 4.306311035156250000e+01 2.926583671569824219e+01 2.227469510923674179e-13 9.189800613193521706e-13 3.425180874604832892e-13 1.951013948921914709e-13
2.220000000000000000e+03 4.359962081909179688e+01 2.837886619567871094e+01 5.440118909278042481e-14 9.840846670536307350e-13 3.115457653142528205e-13 -6.531667567921672912e-14
2.221000000000000000e+03 4.065173339843750000e+01 3.475509643554687500e+01 5.618898087696860832e-14 2.757112030002395464e-13 9.957005787366787763e-14 -2.140278649838747715e-13
2.222000000000000000e+03 4.352035903930664062e+01 3.201126098632812500e+01 1.519566434759079404e-14 6.012747808328833266e-13 1.849411330459224678e-13 -9.490393463229464949e-15
2.223000000000000000e+03 3.737879943847656250e+01 -1.585497140884399414e+00 1.004517107515423557e-13 9.351941963886556408e-13 3.106937721420593990e-13 3.907286075092476774e-14
2.224000000000000000e+03 4.307032394409179688e+01 3.294927597045898438e+01 6.856741025385981042e-15 5.519499787776105393e-13 1.676420233100855972e-13 -4.293053000765933991e-14
2.225000000000000000e+03 4.322872543334960938e+01 3.362882614135742188e+01 -8.243749514405193657e-14 3.306772444842259739e-13 7.447192276917313780e-14 -2.256267241996286893e-14
2.226000000000000000e+03 4.218309020996093750e+01 3.407390594482421875e+01 -5.160422870270631179e-14 4.353933934306969400e-13 1.151367548394080509e-13 2.813837013328386594e-14
2.227000000000000000e+03 1.594089508056640625e+01 3.296066665649414062e+01 -8.499167895078402202e-14 4.668354461681567535e-13 1.145531288099591039e-13 1.253927110799260558e-13
2.228000000000000000e+03 1.610911178588867188e+01 3.232378387451171875e+01 -2.317861072347049411e-13 2.209197316185504412e-13 -3.259914717725423405e-15 -9.215330186223766318e-14
2.229000000000000000e+03 1.741160774230957031e+01 5.922438621520996094e+00 -2.414507226696904069e-14 2.641578091249624505e-13 7.200381783867282337e-14 -1.804069317979523079e-13
2.230000000000000000e+03 1.714173126220703125e+01 4.660612583160400391e+00 -1.813802471932468574e-14 -7.773439044420158567e-15 -7.773439044420158567e-15 -1.909103707368672853e-13
2.231000000000000000e+03 1.813625526428222656e+01 3.919942855834960938e+00 8.480274316970126680e-14 3.108497346245714388e-13 1.186957433382818117e-13 3.968603467770573379e-14
2.232000000000000000e+03 6.802618503570556641e+00 5.675108432769775391e+00 -1.572546075561537249e-13 -1.588967266140731138e-13 -9.484539618530990479e-14 -2.439987671816207931e-14
2.233000000000000000e+03 3.634666442871093750e+01 -1.306898355484008789e+00 5.562068817674403753e-13 8.674499378351352430e-13 4.270970241967292358e-13 3.074035709142719508e-13
2.234000000000000000e+03 4.142007064819335938e+01 6.655082225799560547e+00 2.066849024828093517e-13 2.029566158147019794e-13 1.228924595550115462e-13 3.553417597060987143e-13
2.235000000000000000e+03 1.684331512451171875e+01 5.708701610565185547e+00 1.222373439448143362e-13 5.238743263518731708e-14 5.238743263518731708e-14 -5.508625578799254685e-14
2.236000000000000000e+03 1.443878173828125000e+01 4.728620052337646484e+00 1.014105876232180084e-14 1.873499592226421373e-13 5.924730514137929727e-14 -2.013456099710011354e-14
2.237000000000000000e+03 4.172925567626953125e+01 3.487879943847656250e+01 -1.520577792098101039e-14 2.451134455995485073e-13 6.897230047297683853e-14 -1.720690376207784089e-13
2.238000000000000000e+03 8.374408721923828125e+00 5.423114776611328125e+00 -4.004975062525673035e-14 -6.291512720957986859e-14 -3.088946199519826408e-14 4.662396974031667030e-14
2.239000000000000000e+03 4.061987686157226562e+01 1.170210838317871094e+00 8.044263768557796679e-14 3.890452684399831051e-13 1.408463731929210372e-13 1.254871857467310114e-13
2.240000000000000000e+03 4.297674179077148438e+01 2.970402526855468750e+01 1.334514638552664056e-13 6.977067578198270503e-13 2.493474719235388992e-13 1.100452499578578186e-14
2.241000000000000000e+03 4.270713424682617188e+01 3.556021499633789062e+01 -9.466673152574555522e-15 3.505126961247939654e-13 1.023138076539954755e-13 5.848350419262104624e-15
2.242000000000000000e+03 1.373056507110595703e+01 4.847236633300781250e+00 -5.528991977796215984e-14 2.965609528782220394e-13 7.238131670634154191e-14 -5.643596551999259525e-14
2.243000000000000000e+03 6.871885776519775391e+00 6.434801101684570312e+00 1.010182605967746561e-13 -9.395930485479181415e-14 2.117686976704736754e-15 5.895135182960864473e-14
2.244000000000000000e+03 3.824058532714843750e+01 -6.718073487281799316e-01 3.591978399290242374e-14 6.101565108197759546e-13 1.938228901378694080e-13 6.979043943233440017e-14
2.245000000000000000e+03 8.506181716918945312e+00 6.260595321655273438e+00 -4.321872110950135404e-14 -2.472770523499062678e-13 -8.714873305426182326e-14 1.283296927924448827e-13
2.246000000000000000e+03 7.343544769287109375e+01 -7.793338298797607422e+00 -1.332688689628267961e-14 -5.146247265678562111e-14 -1.943680744240401659e-14 -3.160230120668496012e-14
2.247000000000000000e+03 1.302171993255615234e+01 4.976817131042480469e+00 -1.874254535751650186e-14 8.346937778545143738e-14 1.941804905075412285e-14 4.431731945395839256e-14
2.248000000000000000e+03 4.165999603271484375e+01 5.950221061706542969e+00 2.296551620747933065e-13 1.098613794337996441e-13 1.018549597420724540e-13 2.256402394573350789e-13
2.249000000000000000e+03 7.329098510742187500e+01 -7.091330528259277344e+00 -1.330231362344988510e-14 1.717448239017555639e-14 1.161650947655056606e-15 1.451322785908648605e-13
2.250000000000000000e+03 1.569604110717773438e+01 3.209123992919921875e+01 -1.608941116188616904e-13 2.970529638240959613e-13 4.084765566157028127e-14 1.441245939867025205e-13
2.251000000000000000e+03 7.263835144042968750e+01 -7.850399494171142578e+00 8.046924807264890789e-14 -1.485169815905115764e-13 -2.041431903891926386e-14 1.787219596491654294e-13
2.252000000000000000e+03 3.991108703613281250e+01 2.270015954971313477e+00 2.854247057888087413e-13 4.425815183090042737e-13 2.184018753608601981e-13 1.813412565726188475e-13
2.253000000000000000e+03 1.071982574462890625e+01 4.860309123992919922e+00 3.581785882429341927e-14 -2.134042318942611094e-13 -5.327591259861666484e-14 1.349326195481531654e-14
2.254000000000000000e+03 9.582509040832519531e+00 6.632431507110595703e+00 -4.592770188141005738e-14 -4.085663556606389246e-13 -1.363482216671860203e-13 8.697905541426784182e-14
2.255000000000000000e+03 4.019630432128906250e+01 3.570178985595703125e+01 -1.160299019543767698e-14 -2.784818511588401518e-14 -1.183535250869321293e-14 -1.332905004902337764e-13
2.256000000000000000e+03 1.230899238586425781e+01 5.119610309600830078e+00 -2.713713992017960375e-14 3.412074699930649213e-14 2.095081784924887613e-15 -1.042487222848581530e-13
2.257000000000000000e+03 1.158586406707763672e+01 5.282018661499023438e+00 2.654095366267229632e-15 4.688841681458125188e-14 1.486275329426554187e-14 3.852593835314624404e-14
2.258000000000000000e+03 1.757275199890136719e+01 3.371807861328125000e+01 -3.790446604458102761e-15 2.271302720555090637e-13 6.700194598360104115e-14 2.428043389176431921e-13
2.259000000000000000e+03 1.830103302001953125e+01 3.495678329467773438e+01 -3.008815612160148714e-15 -2.300442280243897297e-13 -6.991591550500886321e-14 1.083095405355304075e-13
2.260000000000000000e+03 4.472378540039062500e+01 4.202613830566406250e+00 2.034142711042352669e-13 -3.245809925087744796e-13 -3.635001574373540600e-14 -3.288401113367943329e-14
2.261000000000000000e+03 4.013943862915039062e+01 -9.686122089624404907e-02 -1.946235734422499530e-13 6.714805577887061894e-13 1.430570885276732929e-13 -1.827873925353343254e-13
2.262000000000000000e+03 3.823277282714843750e+01 -1.089452132582664490e-01 1.818144972683816141e-13 9.014375617483194603e-13 3.249756149945048911e-13 3.188101570391309314e-14
2.263000000000000000e+03 6.147437286376953125e+01 4.137679576873779297e+00 1.044861761131596345e-13 -2.384663376053114403e-14 2.419186236697536824e-14 -1.125308342602576728e-13
2.264000000000000000e+03 7.184745025634765625e+01 -6.989573955535888672e+00 5.124176297578546257e-14 1.363381250344547491e-13 5.627396877476431580e-14 9.620432163577607998e-14
2.265000000000000000e+03 4.699597167968750000e+01 4.951168537139892578e+00 5.576202544957560570e-15 -1.577385140907883176e-13 -4.564869600484806889e-14 -1.266030737277074047e-13
2.266000000000000000e+03 4.408407211303710938e+01 7.830721855163574219e+00 1.593164077225150965e-13 5.257879635151008202e-13 2.055312978187576189e-13 2.492749184694088849e-14
2.267000000000000000e+03 4.534573078155517578e+00 7.426319599151611328e+00 1.320347758399951707e-15 -1.595624538530335257e-13 -4.747263237896148791e-14 2.798506225202852110e-14
2.268000000000000000e+03 6.874423980712890625e+01 -3.324637651443481445e+00 -3.616368204786661600e-14 1.881449064199038762e-14 -5.204756998246394886e-15 -3.815757727691250489e-14
2.269000000000000000e+03 6.938144683837890625e+01 -4.724422931671142578e+00 2.010589740216502802e-14 5.436776178454998110e-14 2.234209826423427109e-14 8.297105279129088590e-17
2.270000000000000000e+03 5.706541442871093750e+01 4.274276733398437500e+00 -3.648514799200856806e-14 1.444918268150505170e-13 3.240200534097847918e-14 -9.880327621596823873e-14
2.271000000000000000e+03 5.333600997924804688e+01 5.317288398742675781e+00 3.227090285195187945e-15 -4.436791103783199741e-14 -1.234224582345039289e-14 -3.691024672318118927e-14
2.272000000000000000e+03 7.031713104248046875e+01 2.884996831417083740e-01 8.870236088611566094e-14 -2.364904062510109206e-13 -4.433640818845771547e-14 5.836363293695856491e-14
2.273000000000000000e+03 7.025960540771484375e+01 -3.115653753280639648e+00 -4.515283614126182343e-15 -3.624833452061521077e-14 -1.222908476279606013e-14 6.081632186781885108e-14
2.274000000000000000e+03 7.318070220947265625e+01 1.455852317810058594e+01 1.326530709279752362e-13 1.110036423266876418e-14 4.312602860001742144e-14 -4.131785720311829946e-14
2.275000000000000000e+03 7.185367584228515625e+01 1.068935966491699219e+01 3.522695169962987427e-14 4.941047774382166524e-14 2.539122883303546185e-14 -5.807003776491306835e-14
2.276000000000000000e+03 6.990880966186523438e+00 2.701346969604492188e+01 3.626972718473106538e-14 -1.217086734129832482e-13 -2.563168454610201263e-14 -4.277565172731978560e-14
2.277000000000000000e+03 7.321599578857421875e+01 -5.543783664703369141e+00 7.035127011110683948e-14 -2.901061010342209645e-13 -6.592644453354973288e-14 9.405406200708467911e-17
2.278000000000000000e+03 7.042269706726074219e+00 2.891091346740722656e+01 -7.867502900245695874e-15 -2.338782650618959069e-14 -9.376598821930585970e-15 -2.758434282314377317e-14
2.279000000000000000e+03 1.411148452758789062e+01 2.923894119262695312e+01 -1.274044448228411203e-14 2.690455009387443530e-13 7.689151642871830394e-14 -1.799499270297225118e-13
2.280000000000000000e+03 7.437929534912109375e+01 1.583507823944091797e+01 5.380734784598759091e-14 -1.141925502724447372e-13 -1.811556140556350170e-14 -9.199100357328016120e-14
2.281000000000000000e+03 7.375880432128906250e+01 -4.395208835601806641e+00 1.411714170042321914e-13 -1.225017537496292386e-13 5.600897367018286069e-15 3.995022764208613908e-14
2.282000000000000000e+03 7.263655090332031250e+01 -2.205844163894653320e+00 2.054351561911124668e-13 -7.208468576821308593e-14 4.000514248212252988e-14 1.087107766545129806e-13
2.283000000000000000e+03 7.223722839355468750e+01 7.983123779296875000e+00 5.557982527448941668e-14 -3.336876131312949134e-14 6.663318934298093424e-15 -1.172631192451409343e-13
2.284000000000000000e+03 6.957548522949218750e+01 1.913407444953918457e+00 1.707690521109139770e-13 -1.326925358870537086e-13 1.142295503656466996e-14 -4.392307982712014003e-14
2.285000000000000000e+03 7.295009613037109375e+01 4.330797195434570312e+00 1.134644610797756747e-13 -1.572516395527065458e-13 -1.313615455831879802e-14 -2.190045867366766791e-14
2.286000000000000000e+03 7.200758361816406250e+01 1.331390762329101562e+01 1.538412003039904552e-13 2.260602729314831194e-13 1.139704379048839256e-13 -8.822493245946166907e-14
2.287000000000000000e+03 7.197357940673828125e+01 1.205284118652343750e+01 -4.135248391000205526e-14 -1.772249237825835461e-14 -1.772249237825835461e-14 -2.010140473941279121e-14
2.288000000000000000e+03 7.192272949218750000e+01 9.272407531738281250e+00 3.914493732550547792e-15 -2.385148285474758545e-13 -7.038010311263137586e-14 -6.926222968642661848e-14
2.289000000000000000e+03 7.245819854736328125e+01 6.905793190002441406e+00 3.600044185827176724e-14 -2.590769395890979432e-13 -6.692294830280831608e-14 -1.198483180102696832e-13
2.290000000000000000e+03 6.885086059570312500e+01 9.752760529518127441e-01 1.473485911193325726e-13 -1.541676129205443724e-13 -2.045705905088829497e-15 1.410776233519168282e-14
2.291000000000000000e+03 1.279389953613281250e+01 2.413257217407226562e+01 -7.599532168920536401e-15 4.542525481199960469e-13 1.339959095287071578e-13 1.263123720202097289e-13
2.292000000000000000e+03 1.327233886718750000e+01 2.370336532592773438e+01 -5.629421625033548260e-14 3.418814981549084253e-13 8.567618321611916721e-14 7.225566445081404998e-14
2.293000000000000000e+03 7.504693508148193359e+00 2.624087142944335938e+01 6.011821764148259084e-14 7.151589975600003424e-14 3.949023454161842972e-14 -1.001620593648992752e-13
2.294000000000000000e+03 5.735280513763427734e+00 2.568937301635742188e+01 2.267809590561931793e-14 -1.315629022554092725e-14 2.856541534616927752e-15 6.556862393531162625e-14
2.295000000000000000e+03 7.372381591796875000e+01 -7.890745252370834351e-02 1.079372661670803535e-13 -1.138694986826255251e-13 -1.779667891191067525e-15 2.562802197563808504e-14
2.296000000000000000e+03 1.227393817901611328e+01 2.351853561401367188e+01 -3.634518426780426748e-15 3.644499524217692521e-13 1.082446239304528379e-13 1.732904049206104857e-13
2.297000000000000000e+03 8.218249320983886719e+00 7.649322509765625000e+00 4.909555767029609441e-14 -7.046094393711732629e-14 -6.409615625936485386e-15 5.051631652591183352e-14
2.298000000000000000e+03 6.816276550292968750e+00 1.306057167053222656e+01 1.366167920978378358e-14 5.160595326178692155e-14 1.958028974147121154e-14 1.003992353663940573e-13
2.299000000000000000e+03 6.819155693054199219e+00 1.184494113922119141e+01 -7.339741065360422256e-14 -8.580559799199836274e-15 -2.459339155935769128e-14 1.111802842715739481e-13
2.300000000000000000e+03 5.867043972015380859e+00 1.309675598144531250e+01 1.004082935367319948e-14 -6.432320767604110534e-14 -1.628471493666638209e-14 1.134689537425279116e-13
2.301000000000000000e+03 6.829994964599609375e+01 -6.888135075569152832e-01 7.380951589936596280e-14 -8.274472415841643835e-14 -2.680560487187716619e-15 1.614751931613370856e-14
2.302000000000000000e+03 7.304503631591796875e+01 1.983869171142578125e+01 8.618699151715855655e-14 -1.003155620637324885e-13 -4.238572773334779373e-15 -8.944260669564371713e-14
2.303000000000000000e+03 5.290433502197265625e+01 6.667681217193603516e+00 2.776913322498266584e-14 -3.384989296782887902e-14 -1.824227753447274503e-15 -1.562352948836914779e-13
2.304000000000000000e+03 6.979557800292968750e+01 2.318936347961425781e+01 -3.016419172817766392e-14 -2.188067842147020658e-13 -7.469129074998484552e-14 -5.326215000728967697e-14
2.305000000000000000e+03 5.863287353515625000e+01 4.213951110839843750e+00 -1.515897935064521029e-14 1.765070836885762606e-13 4.840443299544520961e-14 -1.300758952589228801e-13
2.306000000000000000e+03 1.715036201477050781e+01 3.779187774658203125e+01 -2.655391030214997172e-14 -3.425572000538557038e-14 -1.824288909226066263e-14 4.234071386143185844e-14
2.307000000000000000e+03 2.161561393737792969e+01 3.737675476074218750e+01 -1.197009478299745910e-13 1.088279179229864613e-13 -3.261907998008549588e-15 2.520270640403096674e-14
2.308000000000000000e+03 5.637773513793945312e+01 5.090704917907714844e+00 6.438977768943171531e-14 2.187675022147402004e-14 2.587995837327172061e-14 -1.283829271191139210e-13
2.309000000000000000e+03 7.233026123046875000e+01 2.576434135437011719e+01 -5.229318412617927833e-15 -1.509317166690712919e-13 -4.684831149859465527e-14 -1.527888702872442356e-14
2.310000000000000000e+03 7.077060699462890625e+01 2.545611572265625000e+01 -4.369110799605328832e-14 -1.788530803494003951e-13 -6.676325887532835734e-14 -2.674635957589793778e-14
2.311000000000000000e+03 6.244866561889648438e+01 4.413985729217529297e+00 -3.922457790430516900e-14 9.756683850593861340e-14 1.750267716405049662e-14 4.021864560680744882e-14
2.312000000000000000e+03 6.927818775177001953e+00 1.426714897155761719e+01 -1.570233404564989887e-14 -2.126088476279985873e-13 -6.849335416328136694e-14 1.729302871690194254e-13
2.313000000000000000e+03 7.496228218078613281e+00 1.662372398376464844e+01 -2.540474409074185147e-14 5.773867847594718605e-14 9.700178960308884768e-15 6.778017275048398016e-14
2.314000000000000000e+03 6.932515716552734375e+01 2.946929740905761719e+01 -5.532082631614157475e-14 -1.295079901609749728e-13 -5.544864697601403769e-14 -3.763757697432951188e-14
2.315000000000000000e+03 7.041596984863281250e+01 1.834924125671386719e+01 1.136464105331094765e-15 -1.825167350155004753e-13 -5.441408093423763526e-14 -5.024545571817064238e-14
2.316000000000000000e+03 7.186861419677734375e+01 2.102812767028808594e+01 7.349828888949042072e-14 -2.201309474330129246e-13 -4.398979891830946676e-14 -6.202151422649015977e-14
2.317000000000000000e+03 3.986481475830078125e+01 3.934961700439453125e+01 9.273485266096583718e-15 1.297894625974793659e-13 4.171888325792995345e-14 -9.198792037335215555e-14
2.318000000000000000e+03 6.615409851074218750e+01 3.304654693603515625e+01 -3.993950505200684689e-15 -7.462726861169957648e-14 -2.358636594682831517e-14 -3.891514999240959505e-14
2.319000000000000000e+03 5.255806922912597656e+00 2.958715629577636719e+01 2.590315479404875325e-15 -1.818936575795002120e-13 -5.379100349823737193e-14 6.490126954605953888e-15
2.320000000000000000e+03 1.435379219055175781e+01 1.363544273376464844e+01 -3.218445466935510556e-15 2.731263566008168553e-13 8.097237209079080622e-14 1.630628683295387571e-13
2.321000000000000000e+03 1.542592430114746094e+01 1.205239582061767578e+01 2.524442108261734652e-14 4.683285009798865417e-13 1.480718894936519647e-13 2.048820911104004550e-13
2.322000000000000000e+03 4.318930816650390625e+01 1.462618827819824219e+01 7.153915589259984831e-14 3.051653168443385633e-13 1.130113458868396703e-13 9.203481889357573165e-14
2.323000000000000000e+03 4.359868240356445312e+01 1.501640796661376953e+01 -2.473735836127071569e-14 1.724020638705844877e-13 4.429941317745343665e-14 -1.664626146343287094e-13
2.324000000000000000e+03 1.599880504608154297e+01 9.264882087707519531e+00 5.160408978930296209e-14 6.626293480929690283e-13 2.142700215390994090e-13 -3.666540676757965023e-14
2.325000000000000000e+03 1.563567733764648438e+01 9.103329658508300781e+00 -9.180139016583960254e-14 7.841736157990220057e-13 2.077116690452074366e-13 2.996390570560170108e-14
2.326000000000000000e+03 4.302371215820312500e+01 1.300284099578857422e+01 -2.462613446496675351e-14 -1.935578569168053265e-13 -6.545519605927890838e-14 -3.566873020359982716e-14
2.327000000000000000e+03 1.713118743896484375e+01 6.473990440368652344e+00 -4.628147366216028846e-14 1.631688761969535273e-13 3.506622211569068726e-14 6.256468596237824142e-14
2.328000000000000000e+03 1.359542179107666016e+01 1.902400588989257812e+01 -1.495897047724958906e-13 8.051581320070444470e-13 1.966705335913754293e-13 3.485143488905773079e-14
2.329000000000000000e+03 4.374806213378906250e+01 1.756069946289062500e+01 -7.933442043497190843e-14 1.175048404254306830e-14 -2.027518032480558896e-14 -6.514612136012233948e-15
2.330000000000000000e+03 4.376448440551757812e+01 1.840657615661621094e+01 8.661775181655062550e-14 1.286237961842587318e-13 6.457245897923194478e-14 -1.188270266688426502e-13
2.331000000000000000e+03 1.702622604370117188e+01 6.107594966888427734e+00 -5.007626258102249039e-14 1.844180190502253680e-13 4.030252558550814768e-14 8.562168850442461454e-14
2.332000000000000000e+03 1.581348419189453125e+01 4.477489948272705078e+00 9.289743724705951111e-14 -5.937762370141321314e-15 2.608790157369086232e-14 -6.032859352052624691e-14
2.333000000000000000e+03 1.374921035766601562e+01 1.467175674438476562e+01 2.406711982483322743e-13 4.691523862107582765e-13 2.129470780482325964e-13 -6.656917991018987402e-14
2.334000000000000000e+03 4.337402343750000000e+01 1.176994800567626953e+01 1.060315640085025823e-13 1.369439907609668050e-13 7.289266710846717401e-14 5.075543392692172251e-13
2.335000000000000000e+03 4.401440429687500000e+01 2.487299346923828125e+01 2.746088607701556439e-14 3.777765318450920784e-13 1.215712236825663983e-13 1.269252850608429406e-13
2.336000000000000000e+03 4.339806747436523438e+01 1.923883056640625000e+01 -1.285834469227833260e-14 5.892516292613225737e-13 1.729179814743617150e-13 6.227701324469994693e-14
2.337000000000000000e+03 4.386026382446289062e+01 2.322210693359375000e+01 2.678553180038983905e-13 6.638065206017451647e-13 2.794985651342202226e-13 -2.740345927607079624e-13
2.338000000000000000e+03 4.398846435546875000e+01 2.574517822265625000e+01 5.474641939329054352e-14 2.979684370334884091e-13 1.058144592997259381e-13 1.300892580506987639e-13
2.339000000000000000e+03 4.356739425659179688e+01 2.529599189758300781e+01 4.046781220670356283e-14 3.375999837757631683e-13 1.134203408276190927e-13 1.122603681698699021e-14
2.340000000000000000e+03 1.635919380187988281e+01 7.534052848815917969e+00 -6.841703310660196546e-14 -2.932158368103982005e-14 -2.932158368103982005e-14 -2.119373605649968462e-13
2.341000000000000000e+03 4.396440505981445312e+01 2.404019927978515625e+01 1.437960061895400543e-14 2.806683921732777698e-13 8.851439411072456465e-14 -7.753917137271609805e-14
2.342000000000000000e+03 4.315139389038085938e+01 1.421058082580566406e+01 -1.010530431577207067e-13 7.344576878100250727e-13 1.900213927180649520e-13 4.239796447952359770e-13
2.343000000000000000e+03 4.356184005737304688e+01 2.487789535522460938e+01 1.241249399271115994e-13 8.767134696170686414e-13 3.002515228632540722e-13 -1.856445634154310631e-13
2.344000000000000000e+03 4.376566314697265625e+01 2.044653892517089844e+01 -1.267624107894813057e-14 5.435786911735240867e-13 1.592707357059991446e-13 -1.748855373668797841e-13
2.345000000000000000e+03 4.377695465087890625e+01 2.163428306579589844e+01 1.707867923689612710e-13 3.477000317438777577e-13 1.555460540101152866e-13 -1.422455632015678928e-14
2.346000000000000000e+03 4.382223892211914062e+01 2.281874656677246094e+01 3.575002842587729490e-14 5.643328144198933582e-13 1.800248589523684162e-13 -1.834784663882083749e-14
2.347000000000000000e+03 4.344254302978515625e+01 2.285219955444335938e+01 6.103352144428558779e-14 4.379157626799301539e-13 1.496847893030228693e-13 -2.959207043903150369e-13
2.348000000000000000e+03 4.340895462036132812e+01 2.165238380432128906e+01 9.952768589751442851e-14 6.831679861575568058e-13 2.348087002612686547e-13 -4.799258524769943468e-14
2.349000000000000000e+03 4.416552734375000000e+01 2.237956428527832031e+01 -9.689542598183623068e-14 5.989866805680699180e-13 1.506273675667274548e-13 -7.371668786461046952e-14
2.350000000000000000e+03 4.340507888793945312e+01 2.125424957275390625e+01 -5.586252421470143392e-14 4.335684101238607147e-13 1.133117647563082475e-13 1.286053376422721661e-13
2.351000000000000000e+03 4.335554504394531250e+01 1.134332656860351562e+01 3.149936366429739731e-13 4.095029708123948398e-13 2.173489795261052127e-13 1.397234378978234881e-13
2.352000000000000000e+03 1.556935787200927734e+01 1.037289237976074219e+01 -1.375086161473429436e-13 1.240715294175895322e-13 -4.031127628288623185e-15 1.148781861737974141e-13
2.353000000000000000e+03 1.533828353881835938e+01 9.839819908142089844e+00 -9.594823985889858187e-14 -2.241244706100917194e-13 -9.602180975256530138e-14 -3.779392231573371064e-14
2.354000000000000000e+03 4.334560394287109375e+01 1.673407554626464844e+01 4.618020917925014235e-14 3.400481664913440616e-13 1.158685099906728300e-13 4.277048482634153437e-14
2.355000000000000000e+03 4.413899230957031250e+01 1.838508987426757812e+01 3.169189357558194198e-14 5.168426992809005416e-13 1.645603683701757358e-13 2.466143066669201911e-13
2.356000000000000000e+03 4.379292297363281250e+01 1.220394611358642578e+01 1.979283436367301752e-13 -9.817736630179235702e-14 2.992529116760227204e-14 3.960476694861436719e-13
2.357000000000000000e+03 4.376752471923828125e+01 1.881984901428222656e+01 -6.242115792353189474e-14 6.137613746230730083e-13 1.654020616217305450e-13 1.332926688945787475e-13
2.358000000000000000e+03 1.426209354400634766e+01 1.605087471008300781e+01 -7.195256048690267664e-15 1.799201114699791604e-13 5.181745738871632034e-14 1.439669374382959721e-14
2.359000000000000000e+03 4.376767730712890625e+01 1.922831726074218750e+01 3.338099246888784344e-14 4.260646739931428506e-13 1.378337006162355660e-13 -7.777199701299378209e-14
2.360000000000000000e+03 4.274857711791992188e+01 1.008543872833251953e+01 2.768127253024305068e-13 3.016378108660483504e-13 1.735351635610490884e-13 1.898388672823270173e-13
2.361000000000000000e+03 4.337749099731445312e+01 1.258958244323730469e+01 1.793631161563918885e-13 -1.463199272031326381e-14 4.941933770844994522e-14 3.661086462204005132e-13
2.362000000000000000e+03 1.319413757324218750e+01 2.104404258728027344e+01 -5.379686835436416070e-14 7.089593669074023552e-13 1.965487505823509951e-13 -1.462257100343436478e-13
2.363000000000000000e+03 1.297588825225830078e+01 1.863763236999511719e+01 -3.521134935274145006e-14 6.711736743637841673e-13 1.907886961480600996e-13 -2.403196456939038494e-13
2.364000000000000000e+03 1.667322540283203125e+01 5.287555694580078125e+00 -5.413610843787129701e-14 -2.062049803911586432e-13 -7.810232630989580316e-14 1.462969285645487894e-13
2.365000000000000000e+03 4.366602706909179688e+01 1.586133193969726562e+01 6.052704995193614046e-14 3.004458661026720989e-13 1.082918680401188938e-13 -2.066434791835568274e-14
2.366000000000000000e+03 3.866112136840820312e+01 9.509461522102355957e-01 3.217137385484736267e-13 1.007145322001745669e-12 3.986577235860766510e-13 1.688563161907422061e-13
2.367000000000000000e+03 4.337479400634765625e+01 1.218473339080810547e+01 2.056252608776624330e-14 -1.284403356241470284e-13 -3.236334336913400389e-14 1.864679336502708673e-13
2.368000000000000000e+03 1.411228179931640625e+01 2.874570465087890625e+01 1.339661210740181185e-14 5.547528040238114411e-13 1.704448214512321869e-13 -1.173521864536106185e-13
2.369000000000000000e+03 1.360876178741455078e+01 1.809183883666992188e+01 5.681726925966038011e-14 2.988559378268307309e-13 1.067019668693318379e-13 -7.317578617702102939e-14
2.370000000000000000e+03 1.319394683837890625e+01 1.950730133056640625e+01 -2.209642787753124393e-13 6.830671553555156539e-13 1.386308602635555332e-13 -1.428163414352728866e-13
2.371000000000000000e+03 3.912338256835937500e+01 5.469863414764404297e-01 1.568626278132187468e-13 8.449929666566602382e-13 3.005566715647001175e-13 4.207475229225758617e-14
2.372000000000000000e+03 1.362073040008544922e+01 2.869311523437500000e+01 6.510233822707876469e-15 1.857938987121637853e-13 5.769123785463736720e-14 -5.522962119651302071e-14
2.373000000000000000e+03 4.398160934448242188e+01 2.618535423278808594e+01 1.194519743535904510e-13 3.256994012598019017e-13 1.335454099735122746e-13 -4.419393978782838392e-15
2.374000000000000000e+03 1.686185073852539062e+01 7.117206573486328125e+00 -3.645075845435004347e-14 -1.986255533962741349e-13 -7.052289253874771680e-14 1.535374881704229533e-13
2.375000000000000000e+03 1.513825416564941406e+01 4.614062786102294922e+00 -9.921243378707353400e-14 9.473323547056627936e-14 -1.343759854941178975e-15 4.831056480423048805e-14
2.376000000000000000e+03 1.328488636016845703e+01 2.330393218994140625e+01 1.554178742082731879e-13 6.156190466254096716e-13 2.313110640528304174e-13 1.785790346977775278e-13
2.377000000000000000e+03 1.495898056030273438e+01 1.228948307037353516e+01 1.486581311608420330e-13 5.212201113422021415e-13 2.009634727509132524e-13 9.706428369393726996e-15
2.378000000000000000e+03 1.594952297210693359e+01 8.433395385742187500e+00 -5.399568731587547910e-14 2.513646842755568045e-13 5.921069976553075542e-14 -1.366705414205388047e-13
2.379000000000000000e+03 1.672463226318359375e+01 7.478593349456787109e+00 -3.707475746219691948e-14 -1.073910789939000465e-13 -4.333975195326862651e-14 1.395558337944843852e-13
2.380000000000000000e+03 1.353183174133300781e+01 1.544133472442626953e+01 1.515771693274062248e-13 2.479654394142716267e-13 1.198627785567452086e-13 -1.462857070720635644e-13
2.381000000000000000e+03 1.289445018768310547e+01 2.289689064025878906e+01 2.542750217196868001e-14 5.599088900853921302e-13 1.756009210653400321e-13 -2.263308626886811892e-13
2.382000000000000000e+03 1.347648143768310547e+01 2.808287811279296875e+01 8.593728620430798881e-14 2.427095254376593347e-13 9.859404552546927047e-14 -1.625669000457352631e-13
2.383000000000000000e+03 1.415641880035400391e+01 1.644502449035644531e+01 9.175172693007618840e-15 1.869360108331871717e-13 5.883335675192433167e-14 8.846509001693078633e-14
2.384000000000000000e+03 1.526993465423583984e+01 8.928290367126464844e+00 3.666112416899833248e-14 3.817195040958787366e-13 1.255141823808259005e-13 -9.730201534904545091e-14
2.385000000000000000e+03 4.263171768188476562e+01 9.215409278869628906e+00 2.648248916166384692e-13 5.252549155169983219e-13 2.370239421400910373e-13 5.220333849443106744e-14
2.386000000000000000e+03 1.318537521362304688e+01 2.219096183776855469e+01 -1.887768912543774658e-13 6.968617306465918482e-13 1.524254626596860396e-13 -2.240113883235014813e-13
2.387000000000000000e+03 1.437982749938964844e+01 1.326553916931152344e+01 1.521430550988078778e-13 6.520416259876704590e-14 6.520416259876704590e-14 1.252338483566026173e-13
2.388000000000000000e+03 1.518426036834716797e+01 1.153483486175537109e+01 -1.638241815425309222e-13 2.042953344471784560e-13 1.214134654902061794e-14 1.469646886825826115e-13
2.389000000000000000e+03 6.951240062713623047e+00 2.202869415283203125e+01 -1.559242305041418086e-14 1.534458595343207721e-13 4.135602789585336725e-14 5.277776913420462179e-14
2.390000000000000000e+03 1.277790927886962891e+01 2.366691780090332031e+01 2.496221003338294775e-13 4.272375367982833572e-13 2.030578938501392816e-13 3.809819010291461139e-14
2.391000000000000000e+03 1.548782157897949219e+01 9.469989776611328125e+00 -1.553727171877891666e-13 2.079173828549094050e-13 1.576340342708103942e-14 -8.240552473249077026e-14
2.392000000000000000e+03 1.602404212951660156e+01 8.100234031677246094e+00 2.791901274038399890e-15 1.196529117445028524e-15 1.196529117445028524e-15 -1.835631391897477038e-13
2.393000000000000000e+03 1.595422554016113281e+01 7.703253746032714844e+00 -4.685755093398330517e-14 -2.008180778514511572e-14 -2.008180778514511572e-14 2.715479716899806689e-14
2.394000000000000000e+03 4.373462677001953125e+01 1.713323783874511719e+01 -9.189472642036344840e-14 2.351222515295514626e-13 4.296825346699825743e-14 -1.282541882755266344e-14
2.395000000000000000e+03 3.876650619506835938e+01 -6.794044375419616699e-02 8.325527602023104646e-16 6.866210616567058889e-13 2.062360834409818211e-13 6.471436749108314124e-14
2.396000000000000000e+03 4.397352218627929688e+01 2.661934852600097656e+01 1.612253760401374802e-13 5.266061024744583818e-13 2.063494367781151806e-13 -8.745340064099382804e-14
2.397000000000000000e+03 1.582459354400634766e+01 6.591845035552978516e+00 -1.475073488105705516e-14 8.518015394594347089e-14 2.112882521124615637e-14 -1.050604102412894258e-14
2.398000000000000000e+03 4.356481552124023438e+01 1.459783172607421875e+01 1.056546682282923089e-13 6.857938696092080733e-13 2.374345566078656100e-13 2.500287574636744781e-13
2.399000000000000000e+03 4.325547409057617188e+01 1.047052574157714844e+01 1.377012111107578374e-13 2.420185904981886349e-13 1.139159431931893729e-13 1.529101687934228404e-13
2.400000000000000000e+03 1.317377853393554688e+01 2.756678009033203125e+01 1.389669222794445713e-13 4.713158032257358521e-13 1.830848162963014114e-13 -4.478713813661425180e-14
2.401000000000000000e+03 4.346284484863281250e+01 1.336496829986572266e+01 -1.056160299733703567e-13 3.207435673394792852e-13 6.453826595321718318e-14 3.132976733946635228e-13
2.402000000000000000e+03 1.322807979583740234e+01 1.991814804077148438e+01 -4.958769313001326270e-15 1.278901355476758095e-12 3.821827836841817927e-13 -2.144512594847575171e-13
2.403000000000000000e+03 4.248767852783203125e+01 8.347826004028320312e+00 4.008100817388948744e-13 4.005304931036651750e-13 2.404021805842843085e-13 -3.349942800370472873e-14
2.404000000000000000e+03 4.312218475341796875e+01 9.607306480407714844e+00 3.264722747784581935e-13 5.059242955129938935e-13 2.497189737979410573e-13 -9.172408824500728058e-15
2.405000000000000000e+03 3.979843139648437500e+01 1.120640993118286133e+00 9.436275003570082642e-14 5.894525861339927619e-13 2.051445900088863517e-13 8.648850814132677534e-14
2.406000000000000000e+03 1.320411968231201172e+01 2.069536018371582031e+01 -1.162823364073833909e-13 1.048187469980532693e-12 2.795715319404284971e-13 -2.774777749150331152e-13
2.407000000000000000e+03 1.268595504760742188e+01 1.820100212097167969e+01 -9.627407649304836612e-14 4.734378579278331056e-13 1.131491344304354218e-13 -7.476046962485299874e-14
2.408000000000000000e+03 4.041881942749023438e+01 3.346115827560424805e+00 4.323570310365426606e-13 8.572629368527873162e-13 3.868859984983152867e-13 2.393233452125526073e-13
2.409000000000000000e+03 4.219361877441406250e+01 4.077021598815917969e+00 4.120274542558644004e-13 5.883417125880641141e-13 3.001107663162111416e-13 2.274680823474012348e-13
2.410000000000000000e+03 4.318898010253906250e+01 1.003705215454101562e+01 2.814599410743551244e-13 3.036294902569042220e-13 1.755268293993778039e-13 2.028132029723364593e-13
2.411000000000000000e+03 4.369417953491210938e+01 1.628405570983886719e+01 1.346482604233645297e-13 5.152159081311946665e-13 1.949592424348514652e-13 1.493546090839195650e-13
2.412000000000000000e+03 4.371694946289062500e+01 1.670746803283691406e+01 -8.307382695161083519e-14 1.016497812571931503e-13 5.572786037564810349e-15 -3.213128005850884872e-14
2.413000000000000000e+03 1.353749465942382812e+01 2.541210746765136719e+01 1.906064688679195984e-13 5.391979722955964061e-13 2.189413337043075169e-13 -1.315022123447385019e-14
2.414000000000000000e+03 6.832052230834960938e+00 2.445318603515625000e+01 3.834412442508400298e-14 8.505961776941739494e-14 3.702112333597677718e-14 1.287431126333407616e-14
2.415000000000000000e+03 1.374361801147460938e+01 1.633912849426269531e+01 4.267966510670398103e-15 4.593386218262884846e-13 1.390819696824724394e-13 -8.951679322929603777e-14
2.416000000000000000e+03 1.428943252563476562e+01 3.038983535766601562e+01 6.504637730135251483e-14 3.938846048368721542e-13 1.376792966743464741e-13 -4.955495784770072576e-14
2.417000000000000000e+03 4.203806304931640625e+01 4.681941032409667969e+00 3.316465754365366392e-13 3.937644481311064482e-13 2.176233097807983574e-13 2.346691634416697703e-13
2.418000000000000000e+03 4.166257476806640625e+01 5.220950603485107422e+00 3.761883925028353115e-13 4.814802528028960804e-13 2.573005827496976927e-13 3.016863289132670767e-13
2.419000000000000000e+03 1.334341621398925781e+01 1.748473739624023438e+01 -5.040104889431767932e-14 3.444071471157134079e-13 8.820182540066057175e-14 -1.071635998255854316e-13
2.420000000000000000e+03 4.021569824218750000e+01 3.062667369842529297e+00 3.783903800100990589e-13 4.824239423738274635e-13 2.582442994256833879e-13 2.895810490271405468e-13
2.421000000000000000e+03 4.008880996704101562e+01 2.688627243041992188e+00 2.810376443281720205e-13 4.407013491115885362e-13 2.165216926109173046e-13 3.272463951296128437e-13
2.422000000000000000e+03 4.398139953613281250e+01 2.704584121704101562e+01 2.039333193417855461e-13 6.364113879983590571e-13 2.521034054257798029e-13 1.366071291459755588e-13
2.423000000000000000e+03 1.322362518310546875e+01 2.031557273864746094e+01 -8.990102092669774447e-14 8.764899613392107547e-13 2.359766841566329765e-13 -2.431137431126162429e-13
2.424000000000000000e+03 4.549105834960937500e+01 4.861283302307128906e+00 1.793004899284036946e-13 -1.490522386505405139e-13 9.074475722172133108e-15 -1.213561450765995864e-13
2.425000000000000000e+03 4.350124740600585938e+01 1.376911640167236328e+01 -1.201660027993350921e-13 4.060097798328637930e-13 8.575312768904774785e-14 4.792023982486126599e-13
2.426000000000000000e+03 4.363339614868164062e+01 1.543831253051757812e+01 -3.292065716710944334e-14 2.603968473138817963e-13 6.824285602759216918e-14 2.090335012288474514e-13
2.427000000000000000e+03 4.214823150634765625e+01 7.198479652404785156e+00 6.406075214564210807e-13 2.745460651355779991e-13 2.745460651355779991e-13 1.796612175437167780e-13
2.428000000000000000e+03 4.018700790405273438e+01 1.556924700736999512e+00 1.066370638167814244e-13 5.947129724445665566e-13 2.104050169770416145e-13 -9.072818586914124794e-14
2.429000000000000000e+03 4.060100555419921875e+01 2.578581809997558594e+00 1.540444611062771751e-13 2.490228617930967392e-13 1.209201873830431651e-13 1.671725231118179056e-13
2.430000000000000000e+03 1.360468864440917969e+01 2.582038688659667969e+01 3.524056318027907198e-13 8.830461860863392243e-13 3.706355426562335520e-13 1.549852504363971595e-13
2.431000000000000000e+03 1.363855457305908203e+01 1.672654342651367188e+01 1.293477755730677164e-14 9.704537114229097594e-14 3.299404410165955592e-14 -2.546516600018811083e-13
2.432000000000000000e+03 1.317297267913818359e+01 2.618460273742675781e+01 1.614783068544511924e-13 5.267144684815983080e-13 2.064578434428365750e-13 2.909431542392907147e-15
2.433000000000000000e+03 4.198464584350585938e+01 8.025839805603027344e+00 4.470075839427961606e-13 3.288275142628027670e-13 2.327505321721851095e-13 -7.608003176019437208e-14
2.434000000000000000e+03 4.424330902099609375e+01 3.161057662963867188e+01 6.353922108511683708e-14 5.304915577999946841e-13 1.782092268892698783e-13 -2.712822278082738410e-15
2.435000000000000000e+03 4.330341720581054688e+01 3.107071113586425781e+01 8.024155884016337392e-14 5.376496773831784814e-13 1.853673735775079878e-13 1.267674929871648315e-13
2.436000000000000000e+03 3.720280838012695312e+01 -5.355629920959472656e-01 4.855697007671855303e-13 8.028636349494133739e-13 3.865300007149796713e-13 3.264662032462922747e-13
2.437000000000000000e+03 3.759535217285156250e+01 -1.107128143310546875e+00 1.492226074694194549e-13 5.672129974911011008e-13 2.149306801329034511e-13 2.272298966826333255e-13
2.438000000000000000e+03 1.271068286895751953e+01 2.704257774353027344e+01 5.329240941229738959e-14 2.515943454007435465e-13 9.146602610509910192e-14 -5.187114572504508692e-14
2.439000000000000000e+03 8.160459518432617188e+00 2.668898200988769531e+01 3.015816551227442320e-15 6.991891738977393245e-14 2.188041956820152567e-14 -3.020079371589441675e-14
2.440000000000000000e+03 4.306823730468750000e+01 9.169680595397949219e+00 2.995217463809540792e-13 3.113702600875817295e-13 1.832675992300553114e-13 3.246397562665231940e-13
2.441000000000000000e+03 1.314805030822753906e+01 2.546244239807128906e+01 2.362071990910305508e-14 2.388779007499869378e-13 7.874958823060607127e-14 -5.042940247519406977e-15
2.442000000000000000e+03 3.696590805053710938e+01 -1.351179957389831543e+00 2.284192529133227678e-13 6.240299076087918451e-13 2.557347508671398151e-13 1.605641617927200393e-13
2.443000000000000000e+03 4.403967285156250000e+01 2.791354179382324219e+01 1.608157644593724567e-13 5.721814623667331734e-13 2.198991721135898358e-13 -3.158237899176553898e-14
2.444000000000000000e+03 4.358888244628906250e+01 2.791696739196777344e+01 1.031952640202261906e-13 5.017360225206823898e-13 1.814793839293935007e-13 -1.267046499187421404e-13
2.445000000000000000e+03 1.612443351745605469e+01 3.428868865966796875e+01 -1.613878437356844331e-13 3.377341605708718275e-14 -3.828432728713963840e-14 1.063395045305427777e-13
2.446000000000000000e+03 1.446913719177246094e+01 3.142661285400390625e+01 1.733386857986039808e-14 4.649383092067416179e-13 1.446816435103984166e-13 -8.215924820901068792e-14
2.447000000000000000e+03 4.330302810668945312e+01 3.023215866088867188e+01 -1.365400932644639589e-14 4.516577812706951134e-13 1.314011291268790682e-13 -5.499275012687925013e-14
2.448000000000000000e+03 4.356266021728515625e+01 2.937827491760253906e+01 5.757353415628690962e-14 8.481914714857097248e-13 2.717294976268408435e-13 -1.927443258166808282e-13
2.449000000000000000e+03 4.345592880249023438e+01 2.984462738037109375e+01 1.066275025088728179e-13 5.032070138182020980e-13 1.829503481218588967e-13 -7.080565246533193635e-14
2.450000000000000000e+03 4.254306411743164062e+01 3.337653732299804688e+01 -4.389034030964286681e-14 3.014465033927132831e-13 7.726684689204205148e-14 -1.336181734918132080e-13
2.451000000000000000e+03 4.385208511352539062e+01 3.270773696899414062e+01 4.916947654153708269e-14 5.014575994027881123e-13 1.651881214280448429e-13 -6.054060247909220926e-14
2.452000000000000000e+03 1.706695365905761719e+01 4.179172515869140625e+00 2.301831854734526922e-14 1.013668925816009481e-13 3.731556215283773903e-14 2.867573122315378309e-14
2.453000000000000000e+03 6.705089569091796875e+00 7.151626586914062500e+00 5.172979286680728928e-14 -2.294603038393433492e-13 -5.331915532463989138e-14 -2.366703228252713120e-14
2.454000000000000000e+03 1.682455253601074219e+01 6.614630222320556641e+00 -8.745567068929246957e-14 2.370247010816117772e-13 4.487070640719036108e-14 1.486956852135914997e-14
2.455000000000000000e+03 3.886950683593750000e+01 -6.839137077331542969e-01 5.025000259103150346e-14 8.450528146165814380e-13 2.685908407577125567e-13 -1.842064912063734461e-13
2.456000000000000000e+03 1.622466087341308594e+01 7.148130416870117188e+00 -4.682087440736719397e-14 1.171867507546164866e-13 2.110976527586704010e-14 -1.699638016048818367e-13
2.457000000000000000e+03 4.374995040893554688e+01 3.765621185302734375e+01 -2.713586598262693328e-14 2.628760382115957750e-13 7.072205370156972593e-14 -1.829643004485660696e-14
2.458000000000000000e+03 4.468238067626953125e+01 3.236419296264648438e+01 -8.894050081110441847e-15 3.736335785035904689e-13 1.094218642018647547e-13 -4.541063908908814228e-14
2.459000000000000000e+03 4.411651992797851562e+01 3.355935287475585938e+01 4.949281612255836127e-14 4.100942675722141217e-13 1.378761200262340614e-13 -7.066619018463241031e-14
2.460000000000000000e+03 1.568347167968750000e+01 5.968802452087402344e+00 7.958625349458597897e-14 -1.488953952537633296e-13 -2.079274286656638410e-14 -1.403621413976346988e-13
2.461000000000000000e+03 1.378157711029052734e+01 5.420343399047851562e+00 1.894583157079163943e-14 9.962153714807020499e-14 3.557021010743878497e-14 -4.321842041280507876e-15
2.462000000000000000e+03 7.203844547271728516e+00 8.019883155822753906e+00 5.936870867964336163e-14 -2.033110143998331787e-13 -4.318269171605694512e-14 -2.160314841511551398e-14
2.463000000000000000e+03 4.117617034912109375e+01 1.954358935356140137e+00 3.942559915147934857e-14 1.541495338493181766e-13 5.807253820617336304e-14 3.464058551859655957e-15
2.464000000000000000e+03 4.308781433105468750e+01 3.448521804809570312e+01 -1.485932111676326745e-14 3.596393202773967568e-13 1.034339985623439206e-13 -1.117129799039703886e-13
2.465000000000000000e+03 1.788484001159667969e+01 3.597523880004882812e+01 5.384090051509422825e-14 -5.698948799849612445e-14 -9.445770497018687525e-16 1.015881782450052395e-13
2.466000000000000000e+03 1.009463024139404297e+01 5.695835113525390625e+00 -6.990827865595641843e-14 -4.417192252161722399e-13 -1.534882518392649553e-13 1.062415807455766026e-13
2.467000000000000000e+03 7.500731468200683594e+00 7.278919219970703125e+00 -8.900113989979835383e-14 7.607603545874922629e-15 -2.441806082147373463e-14 -1.952776861654376139e-14
2.468000000000000000e+03 1.717065048217773438e+01 3.468958663940429688e+01 -1.554469985891315797e-13 2.488175545592094529e-14 -3.916957158471047473e-14 1.989349033811385614e-13
2.469000000000000000e+03 1.487467098236083984e+01 3.202886581420898438e+01 -1.609486876457191795e-13 4.342824385696053557e-13 8.200012121140770605e-14 -4.890211567393394632e-14
2.470000000000000000e+03 1.387799644470214844e+01 3.192174720764160156e+01 -6.376230245836930766e-14 4.301827991048945421e-13 1.099261469610784969e-13 -1.500504297094300277e-14
2.471000000000000000e+03 1.309668636322021484e+01 5.554913043975830078e+00 -9.373244232646280039e-14 3.258365528346213180e-13 6.963123111956848188e-14 -1.225014826990861172e-13
2.472000000000000000e+03 1.084766483306884766e+01 5.472241401672363281e+00 -1.055342675770377936e-13 9.202387522789720609e-14 -4.053117450632292076e-15 3.022400241864918458e-14
2.473000000000000000e+03 7.261796569824218750e+01 -7.099656105041503906e+00 3.077368953196754631e-14 1.504415759719449075e-13 5.436457694066830493e-14 6.074352446820002749e-14
2.474000000000000000e+03 7.255541992187500000e+01 -5.940701007843017578e+00 -1.026484466545331264e-13 1.390116049614781302e-13 1.090894749208350112e-14 1.512473821315904465e-13
2.475000000000000000e+03 1.241219043731689453e+01 5.698867797851562500e+00 -6.213317434476195791e-15 -9.416474761395066118e-14 -3.011342057331924116e-14 6.663955818371133932e-14
2.476000000000000000e+03 8.838646888732910156e+00 7.038511753082275391e+00 2.035231442723523616e-16 1.259023267585757111e-13 3.783175758342166572e-14 6.674735498471071060e-14
2.477000000000000000e+03 4.212240982055664062e+01 5.543678760528564453e+00 2.687031369977277429e-13 1.609094395270752043e-13 1.288837743126935997e-13 3.520000046650095804e-13
2.478000000000000000e+03 4.228926086425781250e+01 3.489811182022094727e+00 1.566079622754290579e-13 2.136675168393220581e-14 5.339241689831381033e-14 1.727506619740928895e-13
2.479000000000000000e+03 4.279972839355468750e+01 3.835562705993652344e+00 2.317440130853581914e-13 9.931886855909372036e-14 9.931886855909372036e-14 4.862358752395420924e-14
2.480000000000000000e+03 4.106895828247070312e+01 3.172226190567016602e+00 1.751171771610313121e-13 3.953068612467386389e-13 1.711272047460674073e-13 2.003322773511465038e-13
2.481000000000000000e+03 7.347257232666015625e+01 -6.217231273651123047e+00 1.690457703559886810e-14 5.299576830977356656e-14 2.097010309539196204e-14 6.273231717077165648e-14
2.482000000000000000e+03 7.797067165374755859e+00 9.464273452758789062e+00 -8.386725626583109439e-15 1.794094793517927999e-13 5.130682865866174891e-14 1.190240668611647346e-13
2.483000000000000000e+03 7.063629913330078125e+01 1.276521444320678711e+00 1.387055482407126283e-13 -9.181185779900177119e-15 3.885731119463928240e-14 -1.270003254037060936e-14
2.484000000000000000e+03 1.171740150451660156e+01 5.861382961273193359e+00 -6.700559161340602365e-14 -7.446763339432824202e-14 -4.244196817994663751e-14 -1.262518599864578817e-13
2.485000000000000000e+03 1.101121807098388672e+01 6.062676429748535156e+00 -6.717471359978660628e-14 -1.202910655199312950e-13 -5.623973509116808600e-14 4.944719153988745564e-14
2.486000000000000000e+03 7.211544036865234375e+01 -5.327642440795898438e+00 4.692335184145780824e-14 -7.139188735625842663e-14 -7.340561162659953870e-15 1.023278480721291628e-13
2.487000000000000000e+03 7.131336212158203125e+01 -5.009901523590087891e+00 6.609902241435511305e-14 5.452677612677097815e-15 2.146550894931847919e-14 5.621736664509699444e-14
2.488000000000000000e+03 1.769865226745605469e+01 3.506694793701171875e+01 -1.351899684863197559e-13 1.479407145833083748e-13 3.825221542107628062e-15 1.159812263590298542e-13
2.489000000000000000e+03 4.305175018310546875e+01 8.701964378356933594e+00 3.375048721401818774e-13 1.903958897009686013e-13 1.583702244865869968e-13 1.217033879273923813e-13
2.490000000000000000e+03 4.335661697387695312e+01 4.399133682250976562e+00 3.355341991664179124e-13 -7.101462565781493930e-14 7.935587408545996535e-14 3.826521822384958138e-14
2.491000000000000000e+03 7.113377094268798828e+00 2.090724372863769531e+01 7.962613688794039496e-15 2.628802327187505783e-14 1.027519151171720282e-14 4.444945320559827440e-14
2.492000000000000000e+03 7.106176757812500000e+01 -6.003087997436523438e+00 9.179157813617860873e-14 1.646377431358415216e-14 3.247660522670905991e-14 1.417693951599394153e-13
2.493000000000000000e+03 6.847102355957031250e+01 2.021943092346191406e+00 9.553896709131246001e-14 1.806979790948924636e-14 3.408263051668004862e-14 -6.209751679878139363e-14
2.494000000000000000e+03 7.034964752197265625e+01 -4.889575481414794922e+00 6.403319714742838897e-14 2.744279853545989606e-14 2.744279853545989606e-14 1.361124076946704231e-13
2.495000000000000000e+03 4.268739700317382812e+01 5.046617031097412109e+00 3.090075125031926939e-13 3.097167162492697745e-13 1.856172686257387405e-13 5.388878498166840836e-14
2.496000000000000000e+03 5.732164382934570312e+00 8.315618515014648438e+00 1.360742251434740938e-14 7.445817373037330600e-14 2.641967929693268824e-14 6.633665920177320152e-14
2.497000000000000000e+03 8.790088653564453125e+00 8.211521148681640625e+00 -1.216800504756296308e-13 8.510425301760590755e-14 -1.097273839037416973e-14 1.254377596801928285e-13
2.498000000000000000e+03 6.540122985839843750e+00 7.941113471984863281e+00 -9.848701105412242807e-15 -4.997182003049424615e-14 -1.794615651017853614e-14 2.955437882813140293e-14
2.499000000000000000e+03 6.042428970336914062e+01 3.861661911010742188e+00 9.648036459108857293e-15 1.413877153376430496e-13 4.531072647076181403e-14 -3.497083265330269697e-14
2.500000000000000000e+03 5.899708938598632812e+01 5.198328495025634766e+00 -4.823994936148379153e-14 7.082763466437907995e-14 6.776305506165291800e-15 -4.428109577233170719e-16
2.501000000000000000e+03 5.544868087768554688e+01 4.271031379699707031e+00 1.056537652911705358e-14 1.760940704234950638e-13 5.599783603395941389e-14 -1.521309255870031962e-13
2.502000000000000000e+03 5.378777313232421875e+01 6.023022174835205078e+00 -9.252273019998494274e-15 -2.098445251114480770e-13 -6.572903842299443467e-14 -1.843789742194887338e-13
2.503000000000000000e+03 7.061778545379638672e+00 1.830107688903808594e+01 -2.879340442831813951e-14 2.054346445832123252e-14 -2.474982202757308909e-15 6.951286334738737693e-14
2.504000000000000000e+03 7.145762920379638672e+00 1.546495819091796875e+01 -2.662802060283703948e-14 8.008988573249622989e-14 1.603856038593070438e-14 1.038735900272440629e-14
2.505000000000000000e+03 6.922409820556640625e+01 2.476325225830078125e+01 3.313654892470561941e-14 -1.459269445731881110e-13 -3.383711971098428417e-14 -7.115074046430691634e-14
2.506000000000000000e+03 5.207778167724609375e+01 6.487803459167480469e+00 6.139012739727733176e-15 -4.311994351532434655e-14 -1.109427914797568929e-14 -2.912704731810981940e-14
2.507000000000000000e+03 7.184131622314453125e+01 -3.072435140609741211e+00 1.954361660298688935e-14 -8.312606516753390240e-14 -1.907473304470479886e-14 7.057878993700292258e-14
2.508000000000000000e+03 7.168611907958984375e+01 -1.644923329353332520e+00 1.606943880261627045e-13 -6.838382263880601886e-14 2.769317300433879470e-14 3.124548349545640258e-14
2.509000000000000000e+03 7.077609252929687500e+01 1.222016525268554688e+01 7.826734188054809693e-14 1.479205213178458322e-13 6.785635828189182095e-14 -1.049013984401672706e-13
2.510000000000000000e+03 7.179188537597656250e+01 5.096284389495849609e+00 4.190848650097514505e-14 -4.914693953590948752e-15 1.109813823008337988e-14 -1.244815611266963939e-13
2.511000000000000000e+03 1.289141845703125000e+01 2.461842727661132812e+01 1.859414044177304381e-13 2.626929706747715976e-13 1.345903098172451795e-13 4.793747389601928088e-15
2.512000000000000000e+03 4.793716812133789062e+01 5.661133289337158203e+00 1.344743137373163866e-13 -4.227531139825574380e-13 -8.648363600781416860e-14 -1.678902920550576217e-13
2.513000000000000000e+03 8.108420372009277344e+00 3.096353149414062500e+01 1.337021940779831511e-14 5.148104300712122439e-14 1.945537779273961987e-14 -1.120316269224638783e-13
2.514000000000000000e+03 1.359415245056152344e+01 2.986532974243164062e+01 1.039293976400068598e-13 3.190468722547024072e-13 1.268928809684127801e-13 -1.020548391888337347e-13
2.515000000000000000e+03 6.966500091552734375e+01 -3.788126707077026367e+00 8.784324586090172526e-14 -6.529252507582461451e-14 6.765216150819838500e-15 1.146682846332042205e-13
2.516000000000000000e+03 7.183867645263671875e+01 1.581363964080810547e+01 9.182623872438025470e-14 -1.436496863300995575e-13 -1.554703563696850643e-14 -1.449324872355300942e-13
2.517000000000000000e+03 7.241822052001953125e+01 -3.819949388504028320e+00 9.557852014181744682e-14 -2.564189366480867927e-13 -4.825212630713351936e-14 6.535950844129348458e-14
2.518000000000000000e+03 7.111379146575927734e+00 9.647130012512207031e+00 -4.051970822131593930e-14 7.413630798668024990e-14 1.008498009901588263e-14 1.988447790755507039e-14
2.519000000000000000e+03 1.449871349334716797e+01 1.252142715454101562e+01 9.079715467983848209e-14 4.964225645137654297e-13 1.761659123699493845e-13 -6.904014442392011897e-14
2.520000000000000000e+03 7.090197753906250000e+01 2.048511314392089844e+01 -4.140509651448780887e-15 -1.619028262150878916e-13 -4.981300135288406483e-14 -5.714025986310738991e-14
2.521000000000000000e+03 7.713609695434570312e+00 2.772628021240234375e+01 7.022097611502839398e-14 -1.071581449334051139e-13 -1.108115013729324763e-14 -9.055813553465047461e-14
2.522000000000000000e+03 6.212573242187500000e+01 5.447864532470703125e+00 1.691731641112557277e-14 -6.137614288331816326e-14 -1.333764844987754550e-14 -5.536979498488824036e-14
2.523000000000000000e+03 7.196115112304687500e+01 1.455098819732666016e+01 -3.830218612979954806e-14 -1.765435399866260857e-13 -6.445371851255404794e-14 -3.060994789886792300e-14
2.524000000000000000e+03 8.109859466552734375e+00 2.949094390869140625e+01 1.511801006105241429e-14 -1.994001209808249353e-13 -5.528463429237129301e-14 -8.819289428526472241e-14
2.525000000000000000e+03 7.237557983398437500e+01 -2.615499198436737061e-01 1.730630341725131194e-13 5.543448204403710403e-15 5.358194560245964355e-14 4.683922114100472212e-14
2.526000000000000000e+03 7.849233150482177734e+00 1.917190170288085938e+01 1.095024881859162080e-13 1.963350814392084143e-13 9.175127292041646010e-14 1.873802686025937379e-15
2.527000000000000000e+03 1.284160232543945312e+01 2.229870223999023438e+01 1.962006268172930556e-13 8.618520935983753350e-13 3.174158256114695265e-13 -3.868017627657767410e-14
2.528000000000000000e+03 6.478855133056640625e+01 4.207350254058837891e+00 1.353607845385948472e-13 -1.061466029412009779e-14 3.742383668041936173e-14 -1.912091836318678684e-14
2.529000000000000000e+03 7.836345672607421875e+00 1.409943485260009766e+01 -3.851199619083443826e-14 1.436231775869822869e-13 3.153335611291024909e-14 -9.618290864286949127e-14
2.530000000000000000e+03 9.751620292663574219e+00 3.543150711059570312e+01 -2.736087859099914366e-14 -4.032043525014489260e-14 -2.030439279709049527e-14 -5.304679018638437660e-14
2.531000000000000000e+03 7.768325805664062500e+00 3.447263717651367188e+01 -9.310772503467665273e-15 -3.990330709900593437e-15 -3.990330709900593437e-15 -7.218786115745223775e-14
2.532000000000000000e+03 3.842887115478515625e+01 4.141564178466796875e+01 7.386432231918510505e-15 2.490769634815037659e-13 7.693901803640032511e-14 1.621511423939049623e-14
2.533000000000000000e+03 7.167913818359375000e+01 -7.887449264526367188e-01 1.673620009939869036e-13 -2.656866697134385724e-13 -2.949740400396728968e-14 2.142492929488142017e-14
2.534000000000000000e+03 9.364724159240722656e+00 2.371576499938964844e+01 8.150120525294776708e-14 3.551857159084237381e-13 1.310060729602796625e-13 6.972269034908121221e-14
2.535000000000000000e+03 1.318040275573730469e+01 2.663251495361328125e+01 1.513209181439392759e-13 3.851084761415796143e-13 1.609288196409083826e-13 -1.234005437980925657e-13
2.536000000000000000e+03 7.028307342529296875e+01 2.742493438720703125e+01 1.842384921111207136e-14 -1.751078665748750929e-13 -4.700520232921688579e-14 -2.241950182902026356e-14
2.537000000000000000e+03 6.528443908691406250e+01 3.094191789627075195e+00 3.812198410543593194e-15 7.026022423367236924e-14 2.222172641209996247e-14 -1.544274385830487345e-14
2.538000000000000000e+03 1.246587371826171875e+01 1.885129356384277344e+01 -5.237944342042881452e-14 5.494385328652651168e-13 1.491177244617586384e-13 -9.282718094628245042e-14
2.539000000000000000e+03 5.485370635986328125e+01 5.110590934753417969e+00 5.825364062655991049e-15 2.496584507527608958e-15 2.496584507527608958e-15 -1.161112764096194905e-13
2.540000000000000000e+03 6.381079483032226562e+01 3.706492424011230469e+00 -2.081273284412158558e-14 1.740840544633970310e-13 4.598139699400240199e-14 -1.342529349002878972e-14
2.541000000000000000e+03 7.134436035156250000e+01 2.290908336639404297e+00 1.507618628462242816e-13 -1.098132679623955998e-13 1.228457812633542562e-14 3.076986771930953490e-14
2.542000000000000000e+03 2.058921623229980469e+01 3.941269302368164062e+01 -1.124184414584864997e-14 5.237075286238998539e-14 1.233867303847887426e-14 -1.849367521915192686e-14
2.543000000000000000e+03 1.674827003479003906e+01 3.625297927856445312e+01 -1.348651821730245670e-13 -5.779935991628848413e-14 -5.779935991628848413e-14 1.328783139293090998e-13
2.544000000000000000e+03 1.475572490692138672e+01 1.299011135101318359e+01 -5.355459999079048572e-14 5.260593935289825662e-13 1.417514380614576242e-13 -4.010584114702391012e-14
2.545000000000000000e+03 7.909677505493164062e+00 1.090267086029052734e+01 -8.950731323655036764e-14 3.026614400184098053e-14 -1.777235043159963723e-14 9.637843095215009592e-14
2.546000000000000000e+03 4.404199981689453125e+01 1.582301425933837891e+01 1.286381889680984769e-13 5.126401148199122293e-13 1.923835033336776523e-13 2.835377603278149694e-13
2.547000000000000000e+03 1.389769935607910156e+01 1.392146682739257812e+01 -8.365270387908276418e-16 1.826452807355757879e-13 5.454262665431294788e-14 -3.854025659808663073e-14
2.548000000000000000e+03 1.354243755340576172e+01 1.343259334564208984e+01 -8.622885188541186408e-15 2.708101754997360722e-13 7.865618421344644506e-14 -1.829975244688891722e-13
2.549000000000000000e+03 1.654098892211914062e+01 4.828153133392333984e+00 6.853348997245406471e-14 3.038771762432085355e-13 1.117232052857096425e-13 1.036786487825652747e-13
2.550000000000000000e+03 1.542358207702636719e+01 8.536285400390625000e+00 -8.279349970365112998e-14 2.390227772652853133e-13 4.686877920273210818e-14 -6.002990937453364650e-14
2.551000000000000000e+03 1.519443416595458984e+01 1.021420097351074219e+01 1.520811471547589555e-13 1.566795331713402573e-13 9.262820274257704822e-14 -1.225415778506773468e-14
2.552000000000000000e+03 1.512516498565673828e+01 9.299170494079589844e+00 1.890152531019984039e-13 3.555122233926677477e-13 1.633582456589052767e-13 5.038858395746588503e-14
2.553000000000000000e+03 4.414125823974609375e+01 1.880292892456054688e+01 3.585241776854139473e-14 1.536532165879404138e-14 1.536532165879404138e-14 -8.140301719370204858e-14
2.554000000000000000e+03 4.375798797607421875e+01 1.798631286621093750e+01 -1.021193085605151540e-13 1.849893258324894485e-13 2.486100653684500394e-14 -4.338627439086362170e-14
2.555000000000000000e+03 4.449752807617187500e+01 2.441345787048339844e+01 -3.160220972712665666e-14 5.812185043148343500e-13 1.648848971854549594e-13 5.235482694891571004e-15
2.556000000000000000e+03 4.413289642333984375e+01 1.796153450012207031e+01 1.316292723690243305e-13 1.021634965753075164e-13 7.013783136092591186e-14 4.399093394245878752e-14
2.557000000000000000e+03 4.379755020141601562e+01 2.242433166503906250e+01 1.507494351788221665e-13 3.391125813316520077e-13 1.469586035978895366e-13 9.932536021960147732e-14
2.558000000000000000e+03 4.424876022338867188e+01 2.315452575683593750e+01 1.125958592855524909e-13 5.972667564517475380e-13 2.129587874316954399e-13 3.321841228736549523e-13
2.559000000000000000e+03 4.331388092041015625e+01 1.090787887573242188e+01 1.719466447480319515e-13 1.651933120459456172e-13 1.011419883934459862e-13 2.121647313130942125e-13
2.560000000000000000e+03 4.383204650878906250e+01 1.177699375152587891e+01 2.744255831691605474e-13 2.091128648278733904e-13 1.450615343991101813e-13 -9.233486506854751696e-14
2.561000000000000000e+03 4.444979095458984375e+01 2.533338546752929688e+01 1.337106694896533776e-13 7.893197272006158283e-13 2.769091108755644681e-13 1.149929354212278487e-13
2.562000000000000000e+03 4.400454711914062500e+01 2.530648803710937500e+01 1.285888306641960743e-13 6.956227586139840380e-13 2.472634727176958869e-13 -3.831879136369752137e-14
2.563000000000000000e+03 1.311251068115234375e+01 1.908472633361816406e+01 -9.573715247217923219e-14 7.824868682691776822e-13 2.060249215153631130e-13 -1.516590536964831926e-13
2.564000000000000000e+03 4.413114547729492188e+01 2.002719879150390625e+01 1.196736665928094245e-13 7.833038688162541341e-13 2.708932795962570861e-13 -1.743287859987813215e-13
2.565000000000000000e+03 4.376487731933593750e+01 2.004354858398437500e+01 -1.065366057092370644e-13 1.830962004191125092e-13 2.296787773533627564e-14 -1.686873568346874963e-13
2.566000000000000000e+03 4.414302444458007812e+01 2.160778427124023438e+01 -1.278923358004595973e-14 6.350321744147402470e-13 1.866728885184520959e-13 1.435140797433759330e-13
2.567000000000000000e+03 4.439568328857421875e+01 2.577667045593261719e+01 6.784527909094173470e-14 2.907654721379451801e-14 2.907654721379451801e-14 -1.270897856354633038e-13
2.568000000000000000e+03 4.444695281982421875e+01 2.397127342224121094e+01 -9.462682102733682710e-14 4.627060995639198371e-13 1.104237822057221874e-13 -3.028440603218378324e-14
2.569000000000000000e+03 4.378429794311523438e+01 2.203137969970703125e+01 4.495434582853403971e-14 1.025786985735244183e-12 3.212224052289575082e-13 -1.539054934928188456e-13
2.570000000000000000e+03 4.376607894897460938e+01 1.963604545593261719e+01 -1.563641794169456922e-13 3.447453097733116367e-13 5.651434317266793017e-14 -7.025531821884187234e-14
2.571000000000000000e+03 4.377193450927734375e+01 2.123812866210937500e+01 1.769058803526707413e-13 3.503224999586856958e-13 1.581685086723960687e-13 -1.622618326594521543e-13
2.572000000000000000e+03 4.412947463989257812e+01 2.082119178771972656e+01 1.368837497777580792e-13 6.076758562491291205e-13 2.233678736765498662e-13 -1.740678320883912167e-13
2.573000000000000000e+03 1.655544471740722656e+01 6.891499042510986328e+00 -1.203113265480296179e-13 -3.260676776327409154e-13 -1.339136998989784444e-13 -3.493476599040860886e-14
2.574000000000000000e+03 1.519065570831298828e+01 5.213795185089111328e+00 1.056405464949956852e-13 9.102546732857319522e-14 5.899980211419159071e-14 3.944573143056968878e-15
2.575000000000000000e+03 4.448160171508789062e+01 2.079819679260253906e+01 1.677119543502109122e-13 6.208879439230374775e-13 2.365799613504582233e-13 5.301740830751001943e-14
2.576000000000000000e+03 1.332686614990234375e+01 1.454906654357910156e+01 9.837830962193538920e-14 3.166678345326717769e-13 1.245138432463821498e-13 -4.004187999511084339e-14
2.577000000000000000e+03 1.420536327362060547e+01 2.978473091125488281e+01 2.313222076182844950e-14 5.131742470201872131e-13 1.608919432145167194e-13 -4.775704232572695884e-14
2.578000000000000000e+03 4.379764938354492188e+01 1.292478179931640625e+01 -7.280132773411648016e-16 4.114465387318466671e-13 1.232155518024122265e-13 1.448806488191581310e-13
2.579000000000000000e+03 4.414004135131835938e+01 1.921488952636718750e+01 -6.783939729415600084e-14 4.741863911077170979e-13 1.219041008545737603e-13 3.088434591619684810e-14
2.580000000000000000e+03 4.406718826293945312e+01 1.269226837158203125e+01 4.611097609427336486e-14 2.027656471545458139e-13 7.466298629701939582e-14 3.752105234584163229e-13
2.581000000000000000e+03 1.475452518463134766e+01 1.331142234802246094e+01 7.218546913640919160e-14 1.224385312104461776e-13 5.838720078168296856e-14 -6.385472391731011887e-14
2.582000000000000000e+03 3.953793716430664062e+01 -4.855292439460754395e-01 -1.227693755033801293e-13 5.878978402186485486e-13 1.395385407698332414e-13 -7.640697970157095398e-14
2.583000000000000000e+03 1.229335021972656250e+01 1.779794502258300781e+01 -3.633046961144456577e-14 9.108864921017478800e-13 2.623668155562336457e-13 -9.227649433408632862e-14
2.584000000000000000e+03 1.392604064941406250e+01 1.724459648132324219e+01 1.502239084097748128e-15 3.666513978279467567e-13 1.104460964416846547e-13 -1.132181032411326560e-13
2.585000000000000000e+03 1.506888866424560547e+01 1.191658973693847656e+01 1.226573638664352206e-13 1.440693403334872280e-13 8.001800990472401898e-14 -5.914007077025690284e-14
2.586000000000000000e+03 4.439757537841796875e+01 2.622412109375000000e+01 1.658350648643669434e-13 2.083250157667096425e-13 1.122480268998284070e-13 -5.352386963546409970e-14
2.587000000000000000e+03 4.353277969360351562e+01 1.418236064910888672e+01 -1.185996288156909717e-13 1.321753850033052791e-13 4.072723298745913739e-15 6.088051341269357097e-14
2.588000000000000000e+03 4.397748565673828125e+01 1.498208236694335938e+01 -4.604211570379337926e-14 4.377771474321778822e-13 1.175205088408889931e-13 2.334167744071774520e-13
2.589000000000000000e+03 4.374515151977539062e+01 1.258713150024414062e+01 1.332041166821409939e-13 1.133653226495631369e-14 4.336219493823907645e-14 1.173095773082319382e-13
2.590000000000000000e+03 1.280079174041748047e+01 2.032478332519531250e+01 -1.099469568665266406e-13 1.005151691046979323e-12 2.685614317737838874e-13 -1.584051086914867179e-13
2.591000000000000000e+03 1.506211757659912109e+01 1.060055255889892578e+01 1.795081417494889808e-13 3.118111237959686477e-14 6.320677759397846929e-14 -1.362038059378109511e-13
2.592000000000000000e+03 1.364724349975585938e+01 1.505257892608642578e+01 -4.109141480313112382e-14 2.111441311505521390e-13 5.101581524303948345e-14 -1.381124083372001210e-13
2.593000000000000000e+03 1.530626583099365234e+01 1.114717102050781250e+01 3.609743051886417364e-14 1.069722245896145840e-13 4.292089754898316400e-14 -9.870424790003884397e-14
2.594000000000000000e+03 4.412295150756835938e+01 1.753431701660156250e+01 -8.822626738338654184e-14 1.451925331266007424e-13 1.708988073940379687e-14 4.548252169312393123e-14
2.595000000000000000e+03 1.584034538269042969e+01 7.296739101409912109e+00 -6.550467633592571559e-14 -2.110772223239826273e-13 -8.297456824271978726e-14 -7.664715758783080535e-14
2.596000000000000000e+03 1.663893127441406250e+01 6.310383319854736328e+00 1.758261098565652714e-13 -1.991516489479455698e-13 -6.997662320337152617e-15 -2.304964521386652226e-14
2.597000000000000000e+03 1.385169887542724609e+01 1.594796657562255859e+01 -2.182799802258493711e-16 9.140834654952287308e-14 2.735702120295734757e-14 -2.302784766800188010e-14
2.598000000000000000e+03 7.763659477233886719e+00 2.328847885131835938e+01 -3.529672010942931648e-14 1.221256846735754853e-13 2.604868733636477723e-14 1.177447032154341558e-14
2.599000000000000000e+03 1.156879425048828125e+01 2.360128974914550781e+01 4.568280771569989407e-14 5.685897174097231943e-13 1.842817619421982522e-13 5.684912870990545611e-15
2.600000000000000000e+03 1.292406177520751953e+01 2.257957267761230469e+01 -2.631757963953654939e-14 5.377324020089391254e-13 1.534244465414141834e-13 -2.586848954716589738e-14
2.601000000000000000e+03 4.437101364135742188e+01 2.664696502685546875e+01 1.154963033848585563e-13 5.985097942425021689e-13 2.142018252224500707e-13 -3.071015528465989575e-14
2.602000000000000000e+03 1.567251777648925781e+01 8.220375061035156250e+00 -4.353431203312115028e-14 7.284433202036505461e-14 8.793006673799529105e-15 6.520360016889006904e-14
2.603000000000000000e+03 1.494019126892089844e+01 1.099479866027832031e+01 -7.457155417256097762e-14 2.425464614309175149e-13 5.039247014462788776e-14 2.637170809418470929e-13
2.604000000000000000e+03 1.477916431427001953e+01 9.120361328125000000e+00 6.567181287707793413e-14 -2.234851572465584857e-13 -4.734400195559144986e-14 9.321435631834060209e-14
2.605000000000000000e+03 1.470301151275634766e+01 1.176628684997558594e+01 -5.455795795065825071e-14 6.628822382497012722e-13 1.824972871390315166e-13 1.711339132470096613e-13
2.606000000000000000e+03 1.496105861663818359e+01 9.661841392517089844e+00 7.156010132331955265e-14 1.221705164334077609e-13 5.811918600464455187e-14 8.716135723330770135e-14
2.607000000000000000e+03 4.406902694702148438e+01 1.624878883361816406e+01 3.960997111904229762e-14 -7.452619386416961533e-14 -1.047486767057114257e-14 1.368604800886311090e-13
2.608000000000000000e+03 1.292333221435546875e+01 2.999506950378417969e+01 -3.403324510772333389e-14 4.429238009348579475e-13 1.226671758960962144e-13 -8.062249327346615591e-14
2.609000000000000000e+03 1.482057476043701172e+01 1.138512516021728516e+01 -4.572788680915276793e-14 7.190423386913002979e-14 7.852902593333873499e-15 1.168890559431062792e-13
2.610000000000000000e+03 1.447539043426513672e+01 5.303042888641357422e+00 4.110679692145326192e-15 3.677693186879965603e-13 1.115639969729437242e-13 -5.148628444699883400e-14
2.611000000000000000e+03 1.632428741455078125e+01 6.571583747863769531e+00 -7.505332618416848955e-14 -2.151695027664476956e-13 -8.706684868518485554e-14 -1.140353680624886512e-13
2.612000000000000000e+03 4.371297454833984375e+01 1.040997600555419922e+01 1.899810603972484913e-13 3.566950947391130111e-14 6.769517130016111661e-14 2.661888179496252338e-13
2.613000000000000000e+03 4.021011352539062500e+01 7.504688501358032227e-01 -1.992063266187567294e-14 3.117192376618505012e-13 8.753958116117926958e-14 -2.167255090668174233e-13
2.614000000000000000e+03 1.351776313781738281e+01 1.710847091674804688e+01 1.058394433835381510e-13 3.198654448949289630e-13 1.277114671611664920e-13 -1.025266704217722702e-13
2.615000000000000000e+03 1.548175525665283203e+01 6.464609622955322266e+00 -7.092657488888196027e-14 -3.039710545988186241e-14 -3.039710545988186241e-14 -1.853506362064702429e-13
2.616000000000000000e+03 4.285323333740234375e+01 6.265437602996826172e+00 2.920848784192242586e-13 1.366169682806908647e-13 1.286105553652272526e-13 2.695450741947713613e-13
2.617000000000000000e+03 7.926670551300048828e+00 2.222459793090820312e+01 4.616167948649600727e-14 8.840999899404136664e-14 4.037150456060074888e-14 1.043543320467877136e-15
2.618000000000000000e+03 4.329302597045898438e+01 7.949987888336181641e+00 3.088465084805785965e-13 8.661184291471057950e-14 1.186375081290921840e-13 2.298724361901594015e-13
2.619000000000000000e+03 4.363601684570312500e+01 9.967679023742675781e+00 2.356758993689311854e-13 3.297587084036962546e-13 1.696303823317882320e-13 2.034857471324563738e-13
2.620000000000000000e+03 1.341225337982177734e+01 1.583444213867187500e+01 -1.471615560801834560e-14 3.597006590153051242e-13 1.034953508527794441e-13 -1.763728188020410870e-13
2.621000000000000000e+03 4.274280166625976562e+01 7.213846206665039062e+00 5.816428068350365521e-13 4.322792937407754499e-13 3.041766328832490318e-13 2.937271194498880522e-13
2.622000000000000000e+03 4.355265045166015625e+01 9.541317939758300781e+00 3.547418977491167968e-13 1.062812896501438842e-13 1.383069548645254887e-13 4.938592395274665758e-13
2.623000000000000000e+03 1.285966300964355469e+01 2.147344970703125000e+01 -1.333787952046555647e-13 4.918490202794612021e-13 1.075410783644634161e-13 -1.618111264282181411e-14
2.624000000000000000e+03 1.343983745574951172e+01 2.499861717224121094e+01 1.600631384162873316e-13 5.261079657863099168e-13 2.058513271950210277e-13 1.413220008275291664e-14
2.625000000000000000e+03 1.242841815948486328e+01 2.469511222839355469e+01 2.021855447821574447e-13 6.356623127173888221e-13 2.513543572498638801e-13 1.388663489754193847e-13
2.626000000000000000e+03 4.471414184570312500e+01 2.683506584167480469e+01 1.130000769605093991e-13 4.144361991174211335e-13 1.582308774023682973e-13 -5.030135989268942620e-14
2.627000000000000000e+03 4.400444030761718750e+01 2.747472381591796875e+01 1.546269758284993245e-13 7.067819636843997166e-13 2.584226777881115655e-13 2.760057028034727106e-14
2.628000000000000000e+03 9.104324340820312500e+00 2.962701797485351562e+01 8.838095084614822766e-15 -8.771414448721301382e-14 -2.366281405844980479e-14 -6.101607934183572723e-14
2.629000000000000000e+03 4.409616851806640625e+01 2.890393257141113281e+01 7.434615531716481929e-14 8.096287854551798002e-13 2.651924632581653674e-13 -2.593717341597967518e-13
2.630000000000000000e+03 4.409141540527343750e+01 1.667642402648925781e+01 7.337735291341324073e-14 4.432059645502473000e-13 1.549750047258671715e-13 1.209119474465322752e-13
2.631000000000000000e+03 1.404066848754882812e+01 3.091941642761230469e+01 -6.914170028616412056e-14 4.621905614309029797e-13 1.179146569881689421e-13 -4.553845297269702719e-14
2.632000000000000000e+03 4.389655685424804688e+01 1.373763465881347656e+01 6.599515584623100173e-14 3.027893419934452046e-13 1.106353439308919995e-13 2.673787061170055518e-14
2.633000000000000000e+03 7.342671871185302734e+00 1.988369560241699219e+01 5.699309974698321679e-14 1.388029909109647630e-13 5.873882787501075176e-14 6.352686795661408037e-14
2.634000000000000000e+03 1.247159290313720703e+01 1.996222877502441406e+01 -1.903778783923781859e-13 6.504246468676255777e-13 1.380140305425742175e-13 -4.306974834287005671e-14
2.635000000000000000e+03 9.220012664794921875e+00 1.925942993164062500e+01 3.564349200990343802e-14 3.355324102328333113e-13 1.113527740609528138e-13 2.336091457538942706e-14
2.636000000000000000e+03 1.534109020233154297e+01 3.255895614624023438e+01 -1.328683392693222332e-13 2.175621201206887068e-13 2.540813391659676318e-14 -3.286370944799964222e-14
2.637000000000000000e+03 1.344847488403320312e+01 3.132375144958496094e+01 -1.027461535990648045e-13 2.647848303463651298e-13 4.861160370181645540e-14 -1.056321100468410323e-13
2.638000000000000000e+03 4.401103210449218750e+01 1.540030479431152344e+01 2.865933605342672885e-14 1.228257235231632744e-14 1.228257235231632744e-14 1.014854297603715039e-13
2.639000000000000000e+03 1.320236015319824219e+01 2.580384445190429688e+01 3.028468589186955606e-13 7.703047726591305544e-13 3.219454867628424033e-13 -1.992410549695941557e-13
2.640000000000000000e+03 4.330916976928710938e+01 7.081369400024414062e+00 2.766655990676242238e-13 2.100728716415006803e-13 1.460215412127374712e-13 2.762063852374679884e-13
2.641000000000000000e+03 4.347293090820312500e+01 9.140183448791503906e+00 2.606824261661144781e-13 2.489738829599547065e-13 1.528968873168098930e-13 8.125279420644060391e-14
2.642000000000000000e+03 1.319869518280029297e+01 1.661127662658691406e+01 -1.084709443576956089e-13 1.365162458988669614e-13 8.413592664637068591e-15 -3.533788252253408646e-14
2.643000000000000000e+03 9.628779411315917969e+00 3.205485916137695312e+01 -3.185249779864493536e-14 1.693527317079418504e-13 4.125006746228364329e-14 -8.491922714060767818e-14
2.644000000000000000e+03 4.450856018066406250e+01 2.785861015319824219e+01 2.806280462999341530e-14 3.780345177520350042e-13 1.218291960369821680e-13 -1.489788381634632453e-13
2.645000000000000000e+03 4.236081695556640625e+01 7.918764114379882812e+00 4.473973275187503873e-13 4.204964555807461091e-13 2.603681159563109304e-13 3.647710388951508342e-13
2.646000000000000000e+03 1.323087406158447266e+01 2.843417358398437500e+01 6.012207333545849242e-14 1.287062362069490984e-13 5.664849286272227724e-14 -8.228729926184480403e-14
2.647000000000000000e+03 1.282025814056396484e+01 2.563905334472656250e+01 1.863145698648410037e-14 5.569962893692270711e-13 1.726883203491749730e-13 1.586883836141028681e-13
2.648000000000000000e+03 7.727502822875976562e+00 2.439361572265625000e+01 1.826634174050423970e-14 9.933032722080417654e-14 3.527900018017275652e-14 -5.074518482825994548e-14
2.649000000000000000e+03 1.300499916076660156e+01 2.507265853881835938e+01 1.974524601981719751e-13 9.996414503457562439e-13 3.591281731631784657e-13 6.194651454120847500e-14
2.650000000000000000e+03 1.276577091217041016e+01 3.173328018188476562e+01 4.269020981986434982e-14 3.728656652098732982e-13 1.246667564102840742e-13 -5.056450253621523616e-14
2.651000000000000000e+03 1.267325115203857422e+01 2.803529357910156250e+01 -1.167377673883971886e-14 2.237516947981368909e-13 6.362337550249244633e-14 2.892715770695317157e-14
2.652000000000000000e+03 1.267302227020263672e+01 2.655661201477050781e+01 8.742590256339416444e-14 5.407287031328200655e-13 1.884463722220952597e-13 1.098805291546711693e-13
2.653000000000000000e+03 4.457981491088867188e+01 2.888049697875976562e+01 8.320523903117965636e-14 4.016669809259187929e-13 1.454616592108659567e-13 1.181354005504869908e-13
2.654000000000000000e+03 4.549502182006835938e+01 3.188869667053222656e+01 8.020809087435146201e-14 4.232579727241753131e-13 1.510398116256680967e-13 4.960733158889535366e-14
2.655000000000000000e+03 1.640338516235351562e+01 5.950157642364501953e+00 -5.028943451582503291e-15 8.934663447458801588e-14 2.529530743395659587e-14 2.657975158330480592e-14
2.656000000000000000e+03 4.494590759277343750e+01 3.117651557922363281e+01 5.456226765429388059e-14 7.096480521273651476e-13 2.292630874641682359e-13 -9.485449670729520499e-14
2.657000000000000000e+03 1.548833847045898438e+01 3.370263671875000000e+01 -6.232017804369202607e-14 3.950579013228816549e-13 9.982132172714139329e-14 4.897767778909260794e-14
2.658000000000000000e+03 1.500440883636474609e+01 8.360441207885742188e+00 9.023210916512050539e-14 -1.672083695461457076e-13 -2.309287777549438175e-14 -1.327971613966985598e-13
2.659000000000000000e+03 1.383415889739990234e+01 6.001581668853759766e+00 -1.951163975397532391e-13 5.363153429932369931e-14 -4.244545795568932522e-14 1.945566578394168633e-14
2.660000000000000000e+03 1.486196994781494141e+01 3.313554000854492188e+01 -1.443977180664787752e-13 3.098417247597573532e-13 4.963319997510449999e-14 -5.170918624926648666e-14
2.661000000000000000e+03 4.512523269653320312e+01 3.326956939697265625e+01 -7.281291726241728712e-15 3.400115746680226758e-13 9.981907878389706390e-14 3.003526992547377039e-14
2.662000000000000000e+03 1.030042362213134766e+01 6.315911769866943359e+00 -1.307318375732766103e-13 2.184777559604070274e-13 2.632377483851276734e-14 6.753615949903896132e-14
2.663000000000000000e+03 9.326472282409667969e+00 7.670845031738281250e+00 2.991659383329986488e-14 7.102529234371971270e-15 1.110573696265319821e-14 6.643367496741992007e-14
2.664000000000000000e+03 1.317980575561523438e+01 6.153304576873779297e+00 2.970355149453825228e-14 -1.702737072433596621e-13 -4.217104299770145504e-14 -2.886795010394009597e-14
2.665000000000000000e+03 4.424643325805664062e+01 3.462817001342773438e+01 -2.071249327107761717e-14 4.028817481450258642e-13 1.146507747681185796e-13 -1.560810332433375247e-14
2.666000000000000000e+03 4.647123718261718750e+01 3.757310485839843750e+01 -4.100246279114226622e-14 4.284992770765133629e-13 1.162490378481609299e-13 -2.369921614639100560e-14
2.667000000000000000e+03 9.409092903137207031e+00 9.760355949401855469e+00 6.512038765215180658e-14 8.509742254391924887e-14 4.506534102594224322e-14 -2.916609892511003166e-14
2.668000000000000000e+03 3.930131530761718750e+01 7.915413379669189453e-02 -7.237433715485616648e-14 9.068768956274619875e-13 2.503507655089026729e-13 -6.693948238593872002e-14
2.669000000000000000e+03 1.252410411834716797e+01 6.292510032653808594e+00 -1.872784967469481865e-13 -3.451126306930861476e-14 -6.653692489555843026e-14 5.908010083759129838e-14
2.670000000000000000e+03 4.397018432617187500e+01 3.007799911499023438e+01 -8.693068644484783225e-14 8.548875041029802002e-13 2.303870527513296462e-13 -1.462998423578873441e-13
2.671000000000000000e+03 4.499448013305664062e+01 3.009817123413085938e+01 5.299671359854270236e-14 6.632261471788136742e-13 2.148668612825255231e-13 -1.501150684877008978e-13
2.672000000000000000e+03 1.563975524902343750e+01 3.503239059448242188e+01 -8.693653436031567594e-14 5.424338346657515963e-14 -9.807944421089207637e-15 3.827981429559666748e-14
2.673000000000000000e+03 1.382377243041992188e+01 1.184517574310302734e+01 1.345451934543426264e-13 5.766222189399622389e-14 5.766222189399622389e-14 1.485514206795975154e-15
2.674000000000000000e+03 9.027403831481933594e+00 1.041778945922851562e+01 -1.923409619509347523e-13 9.070055904253360168e-15 -5.498127113637805985e-14 1.370035134602362592e-13
2.675000000000000000e+03 4.485986709594726562e+01 5.488218784332275391e+00 3.432163407646182662e-13 -2.646658120528805336e-13 2.356515285369727847e-14 3.238633861958606364e-14
2.676000000000000000e+03 1.186104583740234375e+01 6.431676387786865234e+00 4.582745722616840545e-14 6.539128911747446593e-14 3.336562390309286141e-14 -9.016333686606703424e-14
2.677000000000000000e+03 6.918909454345703125e+01 4.098990440368652344e+00 6.665586187388009010e-14 -1.315615232857711425e-13 -1.947169842356731573e-14 -7.586775852734886638e-14
2.678000000000000000e+03 8.082535743713378906e+00 1.515684795379638672e+01 -1.050089868710616173e-14 6.412603873471103832e-14 1.608754260720452606e-14 3.876526581832705209e-14
2.679000000000000000e+03 6.835285186767578125e+00 8.590687751770019531e+00 1.188059795941692753e-13 -5.488221910352614197e-14 1.917712916363247672e-14 -2.291304590452871576e-15
2.680000000000000000e+03 8.134893417358398438e+00 2.117173194885253906e+01 3.624261535415534974e-14 2.442872835441145529e-13 8.415897102473368641e-14 2.333894084667175600e-14
2.681000000000000000e+03 9.158760070800781250e+00 2.152761459350585938e+01 9.406146380449426081e-14 1.318139526565800801e-13 6.776262222781687106e-14 -3.122658788446905365e-14
2.682000000000000000e+03 4.623259353637695312e+01 5.648631095886230469e+00 1.949953328146680764e-13 -3.968155285697522183e-13 -6.054605737127252696e-14 -4.390510239984761476e-14
2.683000000000000000e+03 1.651156616210937500e+01 3.508547973632812500e+01 -4.272732002734945522e-14 2.743924099708142800e-14 -4.586423793783702893e-15 9.238746242644022000e-14
2.684000000000000000e+03 7.362576484680175781e+00 8.974049568176269531e+00 -1.201084587690304240e-13 -9.722599922422706098e-14 -6.520034078610903450e-14 -1.334704013943846437e-15
2.685000000000000000e+03 5.562449645996093750e+01 7.663225173950195312e+00 3.847765747515274892e-14 1.766187429598151115e-13 6.452892148574307374e-14 -1.748467500341591152e-13
2.686000000000000000e+03 7.046186828613281250e+01 1.705296134948730469e+01 2.450239819796595081e-14 -1.610650360913540302e-13 -4.096878814929122425e-14 -6.548074257296809808e-14
2.687000000000000000e+03 7.170705413818359375e+01 1.853199386596679688e+01 7.212886023047829220e-14 -1.520914335228704117e-13 -2.398877097127809915e-14 -4.601685718130625602e-14
2.688000000000000000e+03 5.152105331420898438e+01 7.397482872009277344e+00 8.410818970547989659e-14 -7.833100487686373015e-14 1.733155512112320978e-15 8.532141871275475409e-14
2.689000000000000000e+03 7.227062225341796875e+01 1.399301409721374512e+00 1.466565584251622312e-13 1.086037591238250832e-13 7.657809390944347872e-14 -5.188760526927613248e-14
2.690000000000000000e+03 7.107578277587890625e+01 4.148008346557617188e+00 1.495055977889653276e-13 -1.761186547077561726e-13 -7.983914873351590641e-15 1.804683145815739326e-14
2.691000000000000000e+03 1.279982662200927734e+01 1.479286861419677734e+01 2.344756773995943649e-14 1.015508545852174260e-13 3.749952754458600601e-14 3.796905918895186445e-16
2.692000000000000000e+03 6.118618011474609375e+01 5.265889167785644531e+00 -5.354664126921808431e-14 -2.294856030194119406e-14 -2.294856030194119406e-14 2.474623696062383527e-14
2.693000000000000000e+03 7.034605407714843750e+01 -1.765140414237976074e+00 6.470778773914886983e-14 -1.095209399516391957e-13 -1.344394600256027666e-14 1.905750100642585737e-14
2.694000000000000000e+03 4.665850067138671875e+01 6.601551532745361328e+00 1.583964079690525217e-13 -2.523724772999363930e-13 -2.819281571706747785e-14 -3.876279925838464757e-14
2.695000000000000000e+03 9.070766448974609375e+00 2.606132507324218750e+01 9.939368528525879820e-14 3.171029790745988342e-13 1.249490013408363631e-13 -9.664721144697283051e-14
2.696000000000000000e+03 5.302655029296875000e+01 5.961254596710205078e+00 -1.516936939558941044e-13 2.649031506847011885e-14 -3.756101536029309018e-14 -3.771323056904647697e-14
2.697000000000000000e+03 4.417876434326171875e+01 3.597727203369140625e+01 -2.006846193402817696e-14 3.688445490875047472e-13 1.046328280095154550e-13 -6.575204383784186146e-14
2.698000000000000000e+03 7.060816955566406250e+01 1.103675460815429688e+01 -7.081772099076441562e-14 -1.447278169704191431e-13 -6.466366071072870980e-14 -1.020394164129301284e-13
2.699000000000000000e+03 5.564059829711914062e+01 5.846591472625732422e+00 -8.115891076863283177e-15 9.946139371093051795e-14 2.740365206076959131e-14 -2.040250563981049758e-13
2.700000000000000000e+03 5.128752517700195312e+01 6.561847209930419922e+00 1.358736900932116382e-14 -1.314296843015969052e-13 -3.535269543471566966e-14 -1.039639159266733670e-13
2.701000000000000000e+03 4.847576522827148438e+01 7.033611774444580078e+00 1.776102051889716371e-13 -2.441379889049632990e-13 -1.995833071022617283e-14 -4.086140131223832406e-14
2.702000000000000000e+03 6.338411331176757812e+01 4.768202781677246094e+00 8.844385998314080455e-14 6.077998754251343061e-14 4.476715154719083933e-14 -9.620985106685575605e-14
2.703000000000000000e+03 6.013377761840820312e+01 5.105671882629394531e+00 4.148339115793431287e-14 -5.084782828080822159e-14 -2.809330670994051628e-15 -1.747681995867625404e-13
2.704000000000000000e+03 4.885911941528320312e+01 6.250117301940917969e+00 3.854926225238183846e-14 -2.236713689696828711e-13 -5.553662998231123638e-14 -3.153669003459064202e-14
2.705000000000000000e+03 5.796849441528320312e+01 5.023491859436035156e+00 8.061720101161171104e-14 -1.255780960988939210e-13 -1.348826615449241068e-14 -6.681688622528492161e-14
2.706000000000000000e+03 7.108916473388671875e+01 -5.628026276826858521e-02 5.616755771966665256e-14 -1.131810370793608078e-13 -1.710404313028188877e-14 2.678398308534907929e-14
2.707000000000000000e+03 7.104533386230468750e+01 -2.473154544830322266e+00 1.621738225481006435e-13 -1.592516808528177119e-13 8.766407192277783905e-16 6.795313010204973025e-14
2.708000000000000000e+03 7.164426422119140625e+01 6.636343479156494141e+00 -1.607577731956716383e-14 3.886132951894105680e-14 6.835665998625346795e-15 -1.080001227880302006e-13
2.709000000000000000e+03 7.090490722656250000e+01 5.955097675323486328e+00 1.842006094095877122e-13 -1.040606741943041202e-13 2.404198158102461430e-14 4.062462849842643497e-14
2.710000000000000000e+03 7.183086395263671875e+01 1.985834312438964844e+01 3.087480832521076468e-14 -1.125830521473900059e-13 -2.451247280784059346e-14 -2.926850182030128755e-14
2.711000000000000000e+03 6.633572387695312500e+01 3.721048593521118164e+00 1.390845853202135607e-13 -5.476968908241751366e-14 2.529447056540470862e-14 -6.060593243624803894e-14
2.712000000000000000e+03 7.717724800109863281e+00 1.302354145050048828e+01 -4.146225599183442356e-14 -1.321469111437503785e-13 -5.208275149592815623e-14 9.400323537156821119e-14
2.713000000000000000e+03 1.309317970275878906e+01 1.531444740295410156e+01 -4.083216512303089463e-14 3.485080876230312041e-13 9.230277946050552407e-14 -9.669712540448863192e-14
2.714000000000000000e+03 7.083585357666015625e+01 1.337293624877929688e+01 -3.405754140078237624e-14 -3.747156190479945803e-14 -2.145873099167455028e-14 -3.140450546097392492e-14
2.715000000000000000e+03 5.730485534667968750e+01 5.945495605468750000e+00 -1.679115085363204474e-14 1.000325785204501938e-13 2.497242863885862363e-14 -1.540907971966237744e-13
2.716000000000000000e+03 6.955094146728515625e+01 -2.439363002777099609e+00 1.571442493275218566e-13 -3.845153497905942630e-14 3.560781498216508689e-14 3.911357593063338745e-14
2.717000000000000000e+03 7.299088287353515625e+01 2.118149185180664062e+01 2.376596403670053897e-14 -1.728183839522917653e-13 -4.471572648289713625e-14 -1.586631623610654240e-14
2.718000000000000000e+03 1.266731357574462891e+01 2.604469299316406250e+01 9.000287494453917958e-14 4.503312057025504744e-13 1.621002187731160338e-13 5.184994957257299530e-14
2.719000000000000000e+03 8.427758216857910156e+00 2.571665191650390625e+01 1.051352540725088158e-13 2.051862911349455754e-13 9.309646288460995955e-14 -1.077280473350426468e-14
2.720000000000000000e+03 6.805049896240234375e+01 1.423895645141601562e+01 1.440064430549559127e-14 5.192265210450172641e-14 1.989699027825191091e-14 -5.544849451008353192e-14
2.721000000000000000e+03 7.116667938232421875e+01 7.616301059722900391e+00 1.790089886218038107e-13 -1.520365999979969573e-13 8.091715909515698191e-15 -1.963717816827470486e-14
2.722000000000000000e+03 6.516098785400390625e+01 5.863576412200927734e+00 3.859864088507497515e-14 -6.333199701566991427e-15 9.679632482107337205e-15 -4.064698678010215949e-14
2.723000000000000000e+03 6.428862762451171875e+01 5.247332572937011719e+00 -2.319545515947277203e-14 -1.243182802795200770e-13 -4.425412063169785470e-14 -3.948857435704181129e-14
2.724000000000000000e+03 9.044484138488769531e+00 3.393439483642578125e+01 -5.310141703521870093e-14 1.259328334972040220e-13 2.184942493859559631e-14 -7.820696537206781040e-14
2.725000000000000000e+03 1.372750282287597656e+01 3.044813919067382812e+01 8.276831233193157611e-14 7.217363642494922793e-13 2.413513995862953676e-13 -9.577043070261095914e-14
2.726000000000000000e+03 6.852758789062500000e+01 2.643900108337402344e+01 -4.150597305630811251e-14 -2.236675471570248597e-13 -7.955205369230763934e-14 -6.309924506725864135e-14
2.727000000000000000e+03 6.670470428466796875e+01 5.540596485137939453e+00 1.203260310399939526e-13 -1.705812378014533864e-14 3.098037234736117362e-14 -6.209878396007048607e-14
2.728000000000000000e+03 1.748904418945312500e+01 4.157873153686523438e+01 2.835696689059709862e-15 5.840398558656575978e-14 1.837190406858875413e-14 3.625703863118119596e-14
2.729000000000000000e+03 4.275985336303710938e+01 4.158222961425781250e+01 -3.792611366561400577e-14 2.010629618527659535e-13 4.894105208445333199e-14 -4.001424978037140812e-14
2.730000000000000000e+03 7.048478698730468750e+01 1.570491218566894531e+01 -7.104558640610297848e-14 -1.677009496981601844e-13 -7.162396083127894886e-14 6.082901380950050951e-14
2.731000000000000000e+03 1.489146900177001953e+01 8.780357360839843750e+00 2.426804959244910354e-13 3.785116209180372504e-13 1.863576296317476233e-13 -6.842847143952168754e-14
2.732000000000000000e+03 1.459437751770019531e+01 1.214316844940185547e+01 1.201050164271327825e-13 6.004849395502276366e-13 2.161769976352298506e-13 -3.573224412211674361e-14
2.733000000000000000e+03 4.394456863403320312e+01 1.456839656829833984e+01 -1.220997451365987696e-13 2.221772299557805974e-13 3.002324544575454834e-14 -6.575399031955465184e-15
2.734000000000000000e+03 4.439936065673828125e+01 1.536039733886718750e+01 2.127147275934383221e-15 3.669192228696049884e-13 1.107139147070793084e-13 5.750575119171583149e-14
2.735000000000000000e+03 4.489073944091796875e+01 2.379374504089355469e+01 1.251673867634292558e-13 3.281488579129354655e-13 1.359948666266458384e-13 1.050473456051109755e-13
2.736000000000000000e+03 4.382886123657226562e+01 1.132621097564697266e+01 1.646717159332899971e-13 2.078264318451650272e-13 1.117494429782837917e-13 3.366188621248267232e-13
2.737000000000000000e+03 4.420333099365234375e+01 1.228199768066406250e+01 1.184350875834891403e-13 4.167654719597346791e-13 1.605601637972089990e-13 1.321546496367564938e-13
2.738000000000000000e+03 1.605341148376464844e+01 6.260785579681396484e+00 -9.799614190866140495e-14 7.237902632925216628e-14 -7.685134165603003248e-15 4.693169003379057957e-14
2.739000000000000000e+03 1.352381515502929688e+01 2.924850463867187500e+01 1.845876221513199911e-15 3.667986866930789125e-13 1.105933649780260764e-13 1.142016575706936155e-14
2.740000000000000000e+03 4.419424057006835938e+01 2.276342391967773438e+01 2.584777281534195170e-13 6.597875457786672726e-13 2.754795903111423305e-13 -1.111620798394715587e-14
2.741000000000000000e+03 4.472885894775390625e+01 2.342095375061035156e+01 8.445969482606327516e-14 4.022046096782000424e-13 1.459992879631472062e-13 1.547188890676717832e-13
2.742000000000000000e+03 4.499019622802734375e+01 2.446296310424804688e+01 -2.795302407783157445e-14 2.167748809232469820e-13 5.664655485133895940e-14 9.986275180265749563e-14
2.743000000000000000e+03 4.448642349243164062e+01 2.487481498718261719e+01 -7.840464253316623000e-14 4.696584375747658857e-13 1.173761337690953921e-13 -1.550430384121906369e-13
2.744000000000000000e+03 4.451399612426757812e+01 1.793576812744140625e+01 -9.187120600948409099e-14 3.266342274779732158e-13 7.042890576292037963e-14 1.909345348927865560e-13
2.745000000000000000e+03 4.452146148681640625e+01 1.878639984130859375e+01 -3.879573189937389477e-14 1.663770575303924470e-13 3.827439667286602898e-14 1.691272447611191776e-13
2.746000000000000000e+03 4.391648483276367188e+01 1.415586948394775391e+01 7.689900419997203196e-14 3.074624159871836016e-13 1.153084247008939744e-13 1.548782803395543084e-13
2.747000000000000000e+03 4.388080215454101562e+01 1.330564212799072266e+01 6.243267757161455322e-14 3.012625684941511173e-13 1.091085704315979121e-13 3.335063345280553371e-13
2.748000000000000000e+03 1.544776725769042969e+01 7.371705532073974609e+00 -1.379947995065397559e-13 -1.506425328446150957e-13 -8.659119563958830867e-14 -3.039223332636925567e-13
2.749000000000000000e+03 1.322019577026367188e+01 1.492643833160400391e+01 1.913838960357003294e-13 2.650254690185482875e-13 1.369228081610218695e-13 -2.667497756833397612e-15
2.750000000000000000e+03 1.329711437225341797e+01 1.622800254821777344e+01 1.375411828700989769e-13 5.164556933154318408e-13 1.961990682766701077e-13 -1.210625566808176679e-13
2.751000000000000000e+03 4.462041091918945312e+01 2.305499458312988281e+01 1.847945895697838958e-13 8.112128590392897465e-13 2.988022427142383863e-13 -4.503837827316524434e-14
2.752000000000000000e+03 4.415262603759765625e+01 2.199664688110351562e+01 1.786906533114349105e-13 5.340912174328638073e-13 2.138345517365206061e-13 5.499979744100040591e-14
2.753000000000000000e+03 4.413461303710937500e+01 2.121451568603515625e+01 2.414474056886689590e-13 4.694850736473854536e-13 2.132797383798054613e-13 1.182845325593123720e-13
2.754000000000000000e+03 4.452478408813476562e+01 2.195795249938964844e+01 1.787172772510330077e-14 6.481725963250473121e-13 1.998132968762320050e-13 7.385031578236930794e-14
2.755000000000000000e+03 4.450795364379882812e+01 2.157622146606445312e+01 1.815142681342932218e-13 5.353012954775748788e-13 2.150446704388131458e-13 -1.324326932838904014e-13
2.756000000000000000e+03 4.412847518920898438e+01 2.042667770385742188e+01 -4.761472723806108032e-14 3.456012873884889425e-13 8.939596567343610634e-14 6.743001610635263043e-14
2.757000000000000000e+03 4.448886108398437500e+01 2.118652725219726562e+01 2.633430345804713829e-14 9.263051480370987356e-13 2.857918166444123331e-13 -9.756998269223882136e-14
2.758000000000000000e+03 4.482858657836914062e+01 2.543739700317382812e+01 1.075700197862052010e-13 4.610143511515549242e-14 4.610143511515549242e-14 -1.307330708532478125e-13
2.759000000000000000e+03 4.488055801391601562e+01 2.261321067810058594e+01 1.996880715253099292e-13 8.175957740691464082e-13 3.051851577440950480e-13 -9.605058854398121349e-14
2.760000000000000000e+03 4.413596343994140625e+01 1.962283515930175781e+01 2.999746515097191646e-14 1.285605600925485148e-14 1.285605600925485148e-14 -1.316942702892648365e-13
2.761000000000000000e+03 4.451863098144531250e+01 1.920347213745117188e+01 1.196904717264829499e-13 5.544965663928716482e-15 3.757063087831032100e-14 -1.433496198263370380e-13
2.762000000000000000e+03 4.378089141845703125e+01 1.086514759063720703e+01 2.511693110440749166e-13 3.363987419787578537e-13 1.762704159068498311e-13 2.090105568003722269e-13
2.763000000000000000e+03 4.432134628295898438e+01 1.181818771362304688e+01 5.097826796655359483e-14 1.591006785952447933e-13 6.302368295209997973e-14 4.466363260138828117e-13
2.764000000000000000e+03 1.480193138122558594e+01 1.003693675994873047e+01 -1.004201062582144033e-13 2.314685173133296248e-13 3.931451925077641962e-14 1.702677034738295236e-13
2.765000000000000000e+03 1.458163738250732422e+01 9.448590278625488281e+00 2.874663126897075704e-13 3.748300769160911594e-13 1.986889114607287565e-13 -1.789790646418432107e-13
2.766000000000000000e+03 4.449974822998046875e+01 2.001565170288085938e+01 9.655195073359282287e-14 2.243832019060282290e-13 9.628054782476538898e-14 -1.962352670767039675e-13
2.767000000000000000e+03 4.477008819580078125e+01 2.581841468811035156e+01 -2.254180830440610100e-14 2.648449222517751389e-13 7.269093096548551181e-14 1.125404362257477475e-13
2.768000000000000000e+03 4.410923385620117188e+01 1.710524559020996094e+01 -9.369412255592901584e-14 9.709821922193606625e-14 1.021228978626291441e-15 1.420458396088689068e-13
2.769000000000000000e+03 4.491231155395507812e+01 1.877287101745605469e+01 1.638911445792090582e-13 2.448811044621166527e-14 5.651377396652737528e-14 8.544488223514654091e-14
2.770000000000000000e+03 1.262151908874511719e+01 2.199744415283203125e+01 -1.214218883858336762e-13 4.283470008813877739e-13 9.207753645917166052e-14 3.696712329152342102e-14
2.771000000000000000e+03 4.444970321655273438e+01 1.621364784240722656e+01 1.383348713764010959e-14 3.261852864634012805e-13 1.020056299627300489e-13 2.952961836101726523e-14
2.772000000000000000e+03 1.341279029846191406e+01 1.418091869354248047e+01 1.464864471042992555e-13 -2.872198938646923494e-14 3.532933765416218508e-14 -7.410311107141145937e-14
2.773000000000000000e+03 1.605234909057617188e+01 6.815773010253906250e+00 6.995999509958397700e-14 -2.445228264660870288e-13 -5.236885212045634674e-14 -5.068762385729633224e-14
2.774000000000000000e+03 1.541678619384765625e+01 6.924539089202880859e+00 -9.128697689257669889e-14 6.627958273365541775e-15 -2.539770524695016823e-14 -1.002109636591419495e-13
2.775000000000000000e+03 1.278699111938476562e+01 1.958091163635253906e+01 -1.192834740893931531e-14 9.556577534527987972e-13 2.831188246083665705e-13 -1.199453947622886041e-13
2.776000000000000000e+03 8.483951568603515625e+00 1.617798614501953125e+01 -2.124728785111735380e-14 3.111506549375447905e-13 8.697101198940071498e-14 -1.003747764430091421e-14
2.777000000000000000e+03 4.494198989868164062e+01 2.651993942260742188e+01 1.633350166273597748e-13 3.445064058246044558e-13 1.523524280908419848e-13 2.315115703039726663e-14
2.778000000000000000e+03 4.439763641357421875e+01 2.703531646728515625e+01 2.327065135639821980e-13 9.232484568522103530e-13 3.467864829933414716e-13 -1.162828785084696337e-13
2.779000000000000000e+03 1.249661350250244141e+01 2.278927803039550781e+01 1.033730189664051891e-13 8.678198134062786728e-13 2.913578395474097915e-13 1.150736271679150824e-13
2.780000000000000000e+03 1.281346321105957031e+01 1.612041282653808594e+01 -1.040113633242467639e-13 4.129331967507587908e-13 9.267655138320632369e-14 -1.185436585726023020e-14
2.781000000000000000e+03 1.268321037292480469e+01 1.752762603759765625e+01 1.290799331672340660e-15 3.322475758057996664e-13 1.000615131659284007e-13 -4.108931077329014414e-14
2.782000000000000000e+03 1.189321422576904297e+01 2.193855857849121094e+01 1.542052889460382437e-13 3.749068926400117574e-13 1.587336490548041379e-13 5.062397780163964411e-14
2.783000000000000000e+03 1.467200565338134766e+01 1.043456935882568359e+01 2.220968499172179533e-14 1.925222270016471726e-13 6.441957292038433258e-14 1.671027004919098391e-13
2.784000000000000000e+03 1.312178993225097656e+01 2.801454544067382812e+01 6.036761802247214703e-14 1.173737349717887679e-13 5.332240793115734789e-14 -3.283032957361424475e-14
2.785000000000000000e+03 1.221525859832763672e+01 2.791193962097167969e+01 8.652520160860183163e-14 3.115879136737081945e-13 1.194339359399457234e-13 -1.368464803280788900e-13
2.786000000000000000e+03 1.207661724090576172e+01 2.260585975646972656e+01 1.429271604498280612e-13 7.932696925554150180e-13 2.808590491253093457e-13 1.907484044848251070e-13
2.787000000000000000e+03 1.229037094116210938e+01 2.225872611999511719e+01 6.691548424847711118e-15 7.234452295036553071e-13 2.190410396465947152e-13 1.027443714417437814e-13
2.788000000000000000e+03 1.395019149780273438e+01 1.354533386230468750e+01 2.799973523436721790e-13 2.115007659026640896e-13 1.474494354739008806e-13 2.905898652673204186e-14
2.789000000000000000e+03 1.405554294586181641e+01 1.278632259368896484e+01 2.433428079266081179e-13 1.042897796658774634e-13 1.042897796658774634e-13 1.332952303222112445e-13
2.790000000000000000e+03 1.514242935180664062e+01 5.827583312988281250e+00 -6.445777749443729054e-14 1.553790326654438947e-13 2.727637689011516015e-14 -3.660420016681105448e-14
2.791000000000000000e+03 1.445112895965576172e+01 1.122585296630859375e+01 -3.994463807166720795e-15 -9.321380744099078131e-14 -2.916248378849115030e-14 -2.616616233581947615e-14
2.792000000000000000e+03 4.425262069702148438e+01 1.080448532104492188e+01 2.116797812338686025e-13 2.737236977877477440e-13 1.456210369302213259e-13 1.376258319547157827e-13
2.793000000000000000e+03 1.448810005187988281e+01 5.879402160644531250e+00 3.459625774336790027e-14 -1.681768331367183844e-13 -4.007417227919196634e-14 -7.168963637787725829e-14
2.794000000000000000e+03 4.450376892089843750e+01 1.750628471374511719e+01 4.124700459114637174e-14 6.342823944023578964e-14 3.140257422585418512e-14 8.922565784092936769e-14
2.795000000000000000e+03 1.456828212738037109e+01 1.084072685241699219e+01 8.735202773786643338e-14 1.289384858648226495e-13 6.488714865979586244e-14 -1.019302237016336821e-13
2.796000000000000000e+03 4.444121551513671875e+01 2.744362068176269531e+01 2.374324695186835754e-13 6.965191227600864288e-13 2.801854885256527261e-13 -1.615816448740162170e-13
2.797000000000000000e+03 4.436574935913085938e+01 1.494403076171875000e+01 2.698458420418142073e-14 1.156482204380145096e-14 1.156482204380145096e-14 5.972794551696927745e-14
2.798000000000000000e+03 8.557132720947265625e+00 1.298067855834960938e+01 -3.540814559957472518e-14 9.920245235082308932e-14 1.913829100893497254e-14 5.571010232990891708e-14
2.799000000000000000e+03 1.399875831604003906e+01 1.316987895965576172e+01 8.188036430519310405e-14 2.180953849592257021e-13 8.999272410169928404e-14 -9.037472240838381743e-14
2.800000000000000000e+03 4.441722869873046875e+01 1.285731315612792969e+01 1.600942279135833535e-13 4.117439353877594410e-13 1.715514530561609852e-13 2.508051512512595588e-14
2.801000000000000000e+03 1.130316352844238281e+01 2.932246780395507812e+01 -3.442110827053465605e-14 9.962546738094546495e-14 1.956130942718913718e-14 -1.442003924240534661e-15
2.802000000000000000e+03 1.272025680541992188e+01 2.751901435852050781e+01 1.132834060932341735e-13 4.603085490897940169e-13 1.720775892654138883e-13 8.981999714309518712e-14
2.803000000000000000e+03 4.351659393310546875e+01 8.741157531738281250e+00 3.648003936689708793e-13 6.138525018156704149e-13 2.935958767769086819e-13 2.321290403818621062e-13
2.804000000000000000e+03 4.417353820800781250e+01 1.032906913757324219e+01 2.279805305042265084e-13 1.892078480654132977e-13 1.251565176366500887e-13 3.020571328325206972e-14
2.805000000000000000e+03 1.005853271484375000e+01 2.381590843200683594e+01 8.294722601918241844e-14 3.329299726531620429e-13 1.247631690884723477e-13 5.107809926971698666e-14
2.806000000000000000e+03 4.447086334228515625e+01 1.664450073242187500e+01 4.512464010851362228e-14 2.480938631616025347e-13 8.796555741848524623e-14 1.164758139791293237e-14
2.807000000000000000e+03 9.261219978332519531e+00 3.078329086303710938e+01 7.340234377348903161e-14 1.229600460079388613e-13 5.890871557917565227e-14 -6.708374226125149442e-14
2.808000000000000000e+03 1.227640438079833984e+01 1.940134620666503906e+01 -4.751788765526739067e-15 6.384767931369439431e-13 1.901175072406557920e-13 5.223245271089409225e-14
2.809000000000000000e+03 4.408823394775390625e+01 9.867608070373535156e+00 3.147941163381823282e-13 8.916081577475115649e-14 1.211864809891327610e-13 8.924466526026575419e-14
2.810000000000000000e+03 4.280320739746093750e+01 7.775387287139892578e+00 4.639426863517481792e-13 1.530816218144742669e-13 1.851072870288558714e-13 7.638452485813924248e-15
2.811000000000000000e+03 1.275809288024902344e+01 2.070753669738769531e+01 -1.393812365871327508e-13 5.350275344290222890e-13 1.186938866420614302e-13 5.719310794275248022e-14
2.812000000000000000e+03 1.139401721954345703e+01 2.164318466186523438e+01 -1.985581431261998486e-14 5.405017254080102251e-13 1.561937834930124391e-13 3.301477269194476316e-14
2.813000000000000000e+03 4.448920822143554688e+01 1.707561874389648438e+01 7.772839345093502522e-15 1.863350104639241445e-13 5.823235638266130443e-14 7.222391087968738077e-14
2.814000000000000000e+03 4.398096084594726562e+01 9.419915199279785156e+00 3.473918201712944409e-13 3.318859943812757507e-13 2.037833470762764887e-13 -9.020582403870130994e-14
2.815000000000000000e+03 1.222877597808837891e+01 2.703293228149414062e+01 2.001385846330319684e-13 4.517812718981412123e-13 1.955759501830883762e-13 1.188962800826101618e-13
2.816000000000000000e+03 8.921480178833007812e+00 1.481451892852783203e+01 -1.827904689589987530e-13 2.419178681163647315e-13 1.773821839195707795e-14 2.255507961662368138e-14
2.817000000000000000e+03 1.244141387939453125e+01 1.967912864685058594e+01 -1.066076599150504386e-14 4.529405821761256501e-13 1.326839435848367610e-13 -2.727170973857578895e-13
2.818000000000000000e+03 4.442631530761718750e+01 1.578469657897949219e+01 7.672583000797178476e-14 1.701353494936233557e-13 7.405835385047854214e-14 -2.983057255530850715e-14
2.819000000000000000e+03 4.430398941040039062e+01 1.329597663879394531e+01 -4.948885709056289467e-15 -2.120951018166981200e-15 -2.120951018166981200e-15 1.694181090989427263e-13
2.820000000000000000e+03 4.429731369018554688e+01 1.413444423675537109e+01 -1.463011569530214828e-13 2.118051963201708632e-13 1.965121350421070862e-14 2.037164246971798209e-13
2.821000000000000000e+03 4.484710693359375000e+01 2.757691764831542969e+01 1.258321788780158990e-13 4.656866255461911130e-13 1.774556386167566724e-13 -1.288254442358138796e-13
2.822000000000000000e+03 1.139669132232666016e+01 2.407833862304687500e+01 1.197475956284457799e-13 5.088299031251464211e-13 1.885732374288032198e-13 8.632239481597483999e-14
2.823000000000000000e+03 1.272987937927246094e+01 2.862844467163085938e+01 1.163616457963007056e-13 3.930013866421111501e-13 1.528089178630398504e-13 -4.650073661088653665e-14
2.824000000000000000e+03 4.466289520263671875e+01 2.948180198669433594e+01 8.257088589258554379e-14 9.046555280063650617e-13 2.961679295906960441e-13 8.209696079420139569e-14
2.825000000000000000e+03 4.546108627319335938e+01 2.969868278503417969e+01 1.650291231794498437e-13 5.282362546508989620e-13 2.079796160596100729e-13 9.093530914166744750e-14
2.826000000000000000e+03 1.261738109588623047e+01 2.249179458618164062e+01 6.053269457949664312e-14 7.122068234645395624e-13 2.318218588013426507e-13 6.127636981366989515e-16
2.827000000000000000e+03 1.171334362030029297e+01 2.052788925170898438e+01 -5.818853428610215595e-14 4.554470407584776392e-13 1.191775492312072138e-13 -5.223143627135738709e-14
2.828000000000000000e+03 1.435245418548583984e+01 3.252661132812500000e+01 -1.185225420412272523e-13 3.066339228970788033e-13 5.643341086862367628e-14 -5.550985018865084442e-14
2.829000000000000000e+03 1.200355720520019531e+01 3.220452499389648438e+01 -4.327451686380288931e-14 2.559594788724417480e-13 6.380548758615212090e-14 1.580867394997999276e-14
2.830000000000000000e+03 4.294052124023437500e+01 8.241472244262695312e+00 2.212903119211059866e-13 3.336807521644221536e-15 6.738813879744037783e-14 1.760512715427361985e-13
2.831000000000000000e+03 1.142401027679443359e+01 2.533620452880859375e+01 7.494062336833862137e-14 3.066231079804082604e-13 1.144691166941186333e-13 -3.901110866093814022e-14
2.832000000000000000e+03 4.245289611816406250e+01 5.943072795867919922e+00 3.908742903999118390e-13 -4.979945560199157406e-14 1.023224473900574694e-13 1.086802699158846697e-13
2.833000000000000000e+03 1.325461387634277344e+01 3.243251800537109375e+01 5.123311307532810166e-14 3.422136977005579839e-13 1.180340411998867522e-13 -3.079465190334619573e-14
2.834000000000000000e+03 1.275748538970947266e+01 2.109535980224609375e+01 1.446776827843370555e-14 7.382156409600770797e-13 2.258050246350257195e-13 4.988982046493645184e-14
2.835000000000000000e+03 1.214783191680908203e+01 2.652769088745117188e+01 1.100042433988153434e-13 3.674013133656006680e-13 1.432216704174565924e-13 4.566664632706628202e-14
2.836000000000000000e+03 1.193297958374023438e+01 2.472927665710449219e+01 1.492088787594103572e-13 6.587089814574786928e-13 2.423753472230449901e-13 8.946056379412550830e-14
2.837000000000000000e+03 1.255419063568115234e+01 2.522115325927734375e+01 2.145272349519944388e-13 5.494497543577503418e-13 2.291931022139342966e-13 3.368824181204307933e-14
2.838000000000000000e+03 4.511501312255859375e+01 2.836645507812500000e+01 1.821534324200277388e-13 6.499526394518340133e-13 2.496318039432732228e-13 -4.803337157817562375e-14
2.839000000000000000e+03 1.231195068359375000e+01 1.598880672454833984e+01 2.196947830634173732e-14 1.009173891371520360e-13 3.686605870838882693e-14 -1.684818056553114007e-13
2.840000000000000000e+03 7.734696388244628906e+00 1.194983196258544922e+01 1.560943486012683623e-14 1.896935570861596476e-13 6.159089622863322955e-14 -9.666576316258359419e-15
2.841000000000000000e+03 1.260165786743164062e+01 3.304621505737304688e+01 -2.691276766871551762e-14 2.629716377381546843e-13 7.081766678065579135e-14 5.284852857255235153e-15
2.842000000000000000e+03 4.632631301879882812e+01 2.950962066650390625e+01 1.778118261354724727e-13 6.023409852493055716e-13 2.340458556127078538e-13 4.386240855117420900e-14
2.843000000000000000e+03 4.458581924438476562e+01 2.833075904846191406e+01 1.398270469679316341e-13 5.631863248325985616e-13 2.109040074744009119e-13 -2.830141211716905719e-14
2.844000000000000000e+03 4.758757019042968750e+01 6.630398750305175781e+00 1.202734065770469374e-13 -2.000844693920977857e-13 -2.394331748926253889e-14 -4.185258571458815025e-14
2.845000000000000000e+03 1.449887561798095703e+01 6.445262432098388672e+00 -1.391552888543867716e-13 3.186391580277392332e-14 -3.218741462598928571e-14 3.169845977498905731e-14
2.846000000000000000e+03 1.379376316070556641e+01 3.303724670410156250e+01 -1.423214302485875660e-13 2.592617418493980974e-13 3.508209551312223284e-14 4.992758204075799580e-15
2.847000000000000000e+03 1.390917110443115234e+01 6.581638813018798828e+00 5.093374791484590880e-14 -2.392220095788748918e-14 8.103464256494115336e-15 -1.445937960293727786e-13
2.848000000000000000e+03 4.243008041381835938e+01 6.742464542388916016e+00 3.874201306985902704e-13 2.132178575408108512e-13 1.801913924060621897e-13 2.036315452196013620e-13
2.849000000000000000e+03 4.364661026000976562e+01 3.047220993041992188e+01 9.202802907747054117e-14 4.969500830807882519e-13 1.766934309369722067e-13 9.147209763726502074e-14
2.850000000000000000e+03 1.328146553039550781e+01 6.795138359069824219e+00 -7.907310738261216776e-14 1.948662720985608332e-13 3.473794941478459963e-14 6.822251368433090990e-14
2.851000000000000000e+03 9.927124977111816406e+00 7.241230964660644531e+00 -4.394915150123662739e-14 9.554202318618615353e-14 1.547786184429803674e-14 1.124283703786942146e-13
2.852000000000000000e+03 1.055466842651367188e+01 6.896207332611083984e+00 -1.259556152953533736e-13 -2.141093021195555890e-13 -1.020194738692199732e-13 6.671934868734269442e-14
2.853000000000000000e+03 4.612712860107421875e+01 3.274042510986328125e+01 -1.578101663018624534e-14 3.535254229115880609e-13 1.013233212067941869e-13 9.695552466350981780e-15
2.854000000000000000e+03 1.119948959350585938e+01 6.626487731933593750e+00 1.093186735660325523e-14 -1.325677577695277831e-13 -3.649076890264654760e-14 1.027722286613130809e-13
2.855000000000000000e+03 8.841204643249511719e+00 9.331651687622070312e+00 -9.713609853533727856e-14 -1.331316513194374940e-13 -6.908032766693786297e-14 9.904440277912901491e-14
2.856000000000000000e+03 8.901081085205078125e+00 2.251055717468261719e+01 1.091581997860434361e-13 3.670387290540672032e-13 1.428590725533959715e-13 -1.304639108876647080e-14
2.857000000000000000e+03 4.390705490112304688e+01 3.095780372619628906e+01 1.854525444344203022e-14 6.027103187193627587e-13 1.863766709324019000e-13 -2.438771298622632866e-13
2.858000000000000000e+03 4.554944610595703125e+01 3.067320823669433594e+01 1.722307192697503098e-13 7.057481227028261639e-13 2.633936634337946670e-13 1.194564195824976416e-13
2.859000000000000000e+03 4.556969451904296875e+01 3.440242004394531250e+01 -2.292309002121725725e-14 3.561833987475448993e-13 9.997809736128279723e-14 -4.765202718092637069e-14
2.860000000000000000e+03 1.084161758422851562e+01 7.429335117340087891e+00 2.671691501658548379e-14 -1.142536738639845020e-14 4.587464373759404801e-15 1.629516732323550016e-14
2.861000000000000000e+03 1.475488281250000000e+01 3.448405838012695312e+01 -1.570790616719011656e-13 1.871700629771724800e-13 9.027300222174804850e-15 1.549868360820744195e-14
2.862000000000000000e+03 4.601184463500976562e+01 3.583065032958984375e+01 -2.342021365796080612e-14 3.102194065865426786e-13 8.603975686213502505e-14 3.080181780207996711e-14
2.863000000000000000e+03 1.262524032592773438e+01 6.927823066711425781e+00 5.088855701304399737e-14 2.180938230304709652e-14 2.180938230304709652e-14 -5.981159849084011215e-14
2.864000000000000000e+03 1.116641330718994141e+01 7.906097412109375000e+00 7.258554820838581528e-15 -8.267221813813147024e-14 -2.262409924929775079e-14 5.255725935298001528e-14
2.865000000000000000e+03 4.410975265502929688e+01 4.949364662170410156e+00 2.732234740104172444e-13 -2.587594174303584071e-14 7.420426035784077889e-14 4.281529286925128686e-14
2.866000000000000000e+03 4.546512222290039062e+01 6.131473541259765625e+00 2.074393445645333900e-13 -1.284144231922246249e-13 2.370747641169262954e-14 -1.002043906834712561e-13
2.867000000000000000e+03 6.008672714233398438e+01 6.321858406066894531e+00 -2.941159279014685102e-14 3.314598148360624330e-14 1.120316163345520376e-15 -9.316030206377862166e-14
2.868000000000000000e+03 1.408280086517333984e+01 1.104727172851562500e+01 1.731688794096020168e-13 2.572190236412724706e-13 1.291163763362732086e-13 2.648747623754739607e-15
2.869000000000000000e+03 8.732003211975097656e+00 1.118466663360595703e+01 -3.795912762176618938e-14 2.948275033397979028e-14 -2.542913398094156542e-15 -2.808378563609690431e-14
2.870000000000000000e+03 4.466032409667968750e+01 7.349288940429687500e+00 3.248078889184213836e-13 1.392033867732636598e-13 1.392033867732636598e-13 1.510275872461733226e-13
2.871000000000000000e+03 8.901710510253906250e+00 2.704978179931640625e+01 8.623567219470315570e-14 -5.454375490219869060e-14 9.507574679531571177e-15 -9.764883807149640771e-14
2.872000000000000000e+03 1.075813102722167969e+01 2.462888336181640625e+01 9.434387136537242258e-14 6.330856384918412405e-14 4.729573124199332179e-14 1.441458985593918607e-14
2.873000000000000000e+03 7.779277324676513672e+00 8.365054130554199219e+00 3.328471192783934163e-14 -1.229879642138803630e-13 -2.691097704106502203e-14 2.938237438863131393e-15
2.874000000000000000e+03 8.575367927551269531e+00 1.860825538635253906e+01 -3.302506583631979742e-14 7.734829758025002500e-14 1.329696969258565772e-14 3.129172471811290934e-14
2.875000000000000000e+03 1.168880081176757812e+01 1.945990753173828125e+01 2.070036443689929340e-13 5.004743906626696326e-13 2.122434172857623480e-13 1.075159452028524865e-13
2.876000000000000000e+03 7.052747344970703125e+01 -5.131559967994689941e-01 1.315903088534506327e-13 -3.510604960487058446e-14 2.894527743576083556e-14 4.914590192054910101e-14
2.877000000000000000e+03 8.311895370483398438e+00 8.837771415710449219e+00 6.270431764966721833e-14 1.641261318475681352e-13 6.804913620442332167e-14 2.569522387560734672e-14
2.878000000000000000e+03 9.310110092163085938e+00 8.732221603393554688e+00 1.208206576236089957e-13 9.753122924083604262e-14 6.550557080271801613e-14 -2.089567600438262118e-14
2.879000000000000000e+03 6.929382324218750000e+01 6.113528251647949219e+00 7.677784460719677684e-14 -7.861314816346234857e-14 -5.505914268686741032e-16 -5.955262324941479335e-14
2.880000000000000000e+03 5.065500640869140625e+01 6.859991550445556641e+00 1.368975462504029572e-13 -3.283151880787218979e-14 3.121980823275923023e-14 1.679848107675758345e-14
2.881000000000000000e+03 5.727317810058593750e+01 7.690907955169677734e+00 2.434621887501941390e-14 5.118103410159911826e-14 2.265817538476579129e-14 -1.447748577921778579e-13
2.882000000000000000e+03 8.760647773742675781e+00 2.499698066711425781e+01 -4.611464544100087048e-14 2.089913257643377653e-13 4.886300308056153174e-14 -6.013053011240387935e-14
2.883000000000000000e+03 8.612380027770996094e+00 2.343471527099609375e+01 9.327854786321532199e-14 1.543538924063045381e-13 7.428972937035052682e-14 -5.380755791015850997e-14
2.884000000000000000e+03 7.983454227447509766e+00 1.766927719116210938e+01 -5.207243463463059885e-14 1.378115693393897057e-13 2.572173939498819534e-14 3.807051923059370790e-14
2.885000000000000000e+03 1.182031631469726562e+01 2.327359390258789062e+01 -6.955171166648024816e-14 4.734525488672702842e-13 1.211702586141269467e-13 1.571967789227787793e-13
2.886000000000000000e+03 5.214791488647460938e+01 7.250738143920898438e+00 1.200652804175111887e-13 5.145654681428663002e-14 5.145654681428663002e-14 -5.203292224170708025e-14
2.887000000000000000e+03 5.239477920532226562e+01 7.828597545623779297e+00 5.358882012185955945e-14 -8.569186349003873882e-14 -9.630914535113058866e-15 -1.558607030330977361e-14
2.888000000000000000e+03 6.977269744873046875e+01 1.192767906188964844e+01 3.208378861522219461e-14 -3.200075228133696104e-14 2.491065168051406032e-17 7.179710114196130588e-14
2.889000000000000000e+03 6.953119659423828125e+01 8.025053024291992188e+00 7.035342496292465442e-14 7.275992688123705809e-15 2.328882529531450807e-14 -3.579814667354491720e-14
2.890000000000000000e+03 1.205415534973144531e+01 1.539449882507324219e+01 7.332283109666437593e-14 3.288052339081581898e-13 1.206384167909413385e-13 -1.035937286474053476e-13
2.891000000000000000e+03 6.379102325439453125e+01 6.173427104949951172e+00 6.171099194802673327e-14 -1.393996273664835361e-13 -2.330658757621843075e-14 -1.598239634170370294e-13
2.892000000000000000e+03 1.745527076721191406e+01 3.964668655395507812e+01 7.546859425095527735e-15 4.898531802627684173e-14 1.695965281189523721e-14 1.314439957702737138e-14
2.893000000000000000e+03 1.534597682952880859e+01 3.615359497070312500e+01 -8.944393484330501187e-14 -6.120859299008768462e-14 -4.519575699476509334e-14 -2.948445117613787692e-14
2.894000000000000000e+03 5.887676620483398438e+01 7.938593864440917969e+00 -2.477234590419000182e-14 -2.348417311580797834e-14 -1.447695519777962569e-14 -1.340514748900470399e-13
2.895000000000000000e+03 6.738069915771484375e+01 4.429925441741943359e+00 -3.600576800144410228e-14 -6.118198937928032155e-14 -2.915632755303050605e-14 -2.543067346332320011e-14
2.896000000000000000e+03 6.806499481201171875e+01 3.245878219604492188e+00 1.601140417082855261e-13 -6.863254539343777161e-14 2.744444855564114744e-14 3.800613964440469755e-15
2.897000000000000000e+03 7.010261535644531250e+01 5.085733890533447266e+00 6.379678686371792473e-14 1.188433710165928692e-13 5.479204736409323817e-14 -8.412223012361358387e-14
2.898000000000000000e+03 6.601794433593750000e+01 6.596073627471923828e+00 -2.204195891563828780e-14 1.049308209766230959e-13 2.486665794066908464e-14 -3.661214872398808884e-14
2.899000000000000000e+03 6.575715637207031250e+01 4.823730468750000000e+00 1.212362238459932171e-14 -1.949645685780238002e-13 -5.485228157103838598e-14 -6.407384117636943932e-14
2.900000000000000000e+03 9.288511276245117188e+00 1.806552505493164062e+01 4.207919413303298772e-14 6.596202584656504428e-15 1.460261931176837918e-14 4.642812555851610901e-14
2.901000000000000000e+03 1.217514228820800781e+01 1.847843170166015625e+01 3.518609421838611584e-14 9.987251910897887441e-13 3.101733822043206690e-13 -4.815561537312336438e-14
2.902000000000000000e+03 6.939411926269531250e+01 1.758052635192871094e+01 1.546188680291282064e-14 -1.763772775834754336e-13 -4.827461672594901554e-14 -9.616753330081093121e-14
2.903000000000000000e+03 1.092105388641357422e+01 3.460876464843750000e+01 -1.215293870312356139e-13 7.087165327258199143e-14 -1.519731944996972894e-14 -2.691242885553661590e-14
2.904000000000000000e+03 5.910875701904296875e+01 6.356630325317382812e+00 3.209634841976408137e-14 4.806878771976622056e-14 2.404954050304591168e-14 -1.488035904348081195e-13
2.905000000000000000e+03 5.814747619628906250e+01 6.918878555297851562e+00 5.397592095501835274e-14 2.570634615935862453e-16 1.626989524822122085e-14 1.854365016303993058e-14
2.906000000000000000e+03 5.371048736572265625e+01 6.878122329711914062e+00 2.156888593239907753e-14 1.693721253743021848e-13 5.728230390023014706e-14 -7.675977908849773712e-14
2.907000000000000000e+03 5.293044662475585938e+01 8.317890167236328125e+00 9.542623717042827969e-14 -1.392474053814665713e-13 -1.314635029390489804e-14 -1.728791534840595778e-13
2.908000000000000000e+03 7.063311767578125000e+01 8.827610969543457031e+00 -1.915148947631908904e-14 -8.207781446146165949e-15 -8.207781446146165949e-15 -1.071919449361323495e-13
2.909000000000000000e+03 5.640312194824218750e+01 6.773503303527832031e+00 7.390491891428110915e-14 -1.602659926427593695e-13 -2.590832042447758360e-14 -1.093069929816899155e-13
2.910000000000000000e+03 1.150425815582275391e+01 2.785440444946289062e+01 1.646907843389985859e-13 2.535855640056761118e-13 1.254829031481496937e-13 1.427329459594180172e-14
2.911000000000000000e+03 6.697898101806640625e+01 2.532003211975097656e+01 1.087797386889466367e-13 -1.135084322541335400e-13 -1.418607391929713191e-15 -1.183279955139018846e-14
2.912000000000000000e+03 6.776049041748046875e+01 2.383823394775390625e+01 -2.908185980443969698e-14 -1.497165022165680703e-13 -5.363950996155504580e-14 -6.091123699175637896e-14
2.913000000000000000e+03 6.759131622314453125e+01 2.810014724731445312e+01 4.359711444396237312e-14 -9.569289669475108950e-14 -1.562873535286297272e-14 -7.178152124144598391e-16
2.914000000000000000e+03 6.989368438720703125e+01 1.395322895050048828e+01 2.016089355736435523e-14 8.227081261255944633e-14 3.072951168157055102e-14 5.982145795434615221e-14
2.915000000000000000e+03 7.081637573242187500e+01 1.446132564544677734e+01 8.987020925620842204e-14 8.426675427320590162e-14 5.224108905882429710e-14 -3.574946938413210706e-14
2.916000000000000000e+03 7.022302246093750000e+01 3.107832908630371094e+00 1.183908250297974196e-13 -6.077901176055819366e-14 1.728354296433223108e-14 -1.883657914367241164e-15
2.917000000000000000e+03 6.653825378417968750e+01 1.229752063751220703e+01 -1.198743812140566981e-14 4.061347476857699035e-14 8.587811248261280339e-15 9.161439747833784869e-15
2.918000000000000000e+03 6.825155639648437500e+01 3.550220489501953125e+01 -9.981857225819460583e-15 -1.529685259753568727e-13 -4.888511402861665800e-14 -3.298584101108187165e-15
2.919000000000000000e+03 1.298659896850585938e+01 1.405749511718750000e+01 6.561977117279862992e-14 -6.337913863434935235e-14 6.721898356501661547e-16 9.613053490167486337e-14
2.920000000000000000e+03 9.344624519348144531e+00 1.213718414306640625e+01 -1.987421356230024277e-14 8.298438027238078107e-14 1.893304984361757204e-14 4.797538031447480533e-14
2.921000000000000000e+03 4.469391250610351562e+01 1.336146831512451172e+01 2.822047981312480330e-14 4.696039564155984891e-13 1.493473313768367561e-13 2.313358922825803354e-13
2.922000000000000000e+03 4.459594345092773438e+01 1.242790603637695312e+01 2.090927765944963074e-14 1.919649199799353112e-13 6.386225912240889313e-14 2.088804118820924982e-13
2.923000000000000000e+03 4.481957626342773438e+01 1.575014209747314453e+01 9.375086698713147593e-14 1.774317861689619913e-13 8.135479730208075577e-14 1.615953735840253147e-13
2.924000000000000000e+03 1.470393276214599609e+01 7.856630802154541016e+00 -6.646353118474473964e-14 2.460213293937335566e-13 5.386733810744392947e-14 1.003797908780568876e-14
2.925000000000000000e+03 4.493332672119140625e+01 2.485180282592773438e+01 1.134864974889314426e-13 8.264031819971151549e-13 2.819669140102093463e-13 7.394952705741530963e-14
2.926000000000000000e+03 1.437838268280029297e+01 9.836529731750488281e+00 9.700966700949831267e-14 -2.558056034791117428e-13 -4.763877958563131343e-14 -1.472636845366998015e-13
2.927000000000000000e+03 1.450777149200439453e+01 8.843997001647949219e+00 1.602090042660681002e-13 -2.058446864567145540e-13 -1.369070702888618846e-14 -1.598264706345609021e-13
2.928000000000000000e+03 4.490872955322265625e+01 1.919831275939941406e+01 -8.531407324303616480e-14 -1.280650661471954832e-13 -6.401374249469585220e-14 9.840838267969470587e-14
2.929000000000000000e+03 4.451999664306640625e+01 1.836307716369628906e+01 5.026248785667403185e-14 -2.420988383996115073e-14 7.815781374420453786e-15 -3.963901418473775307e-14
2.930000000000000000e+03 4.455144500732421875e+01 2.269214630126953125e+01 8.682938130435621793e-14 9.522315661675273546e-13 3.117182889849495764e-13 3.372004823802565721e-13
2.931000000000000000e+03 4.509368133544921875e+01 2.324525260925292969e+01 -1.297900182510927647e-13 6.763909094278930390e-13 1.639802659977873667e-13 -1.137753712993289437e-14
2.932000000000000000e+03 4.433621597290039062e+01 1.130898571014404297e+01 1.589516821116909728e-13 3.426278358253931344e-13 1.504738580916306634e-13 6.148751755148673670e-14
2.933000000000000000e+03 4.478725051879882812e+01 1.198433589935302734e+01 1.801008073145510258e-13 -1.431583767275059621e-14 4.973549106194671832e-14 -1.585999059405644729e-14
2.934000000000000000e+03 4.484494400024414062e+01 2.041066741943359375e+01 2.835892057208994066e-13 6.705496075933015110e-13 2.862416521257765689e-13 2.675471301482375969e-14
2.935000000000000000e+03 4.451124191284179688e+01 1.961303710937500000e+01 -2.074315383088914944e-13 2.771083601298129917e-13 2.090304519102373360e-14 2.150257341702443287e-14
2.936000000000000000e+03 4.452872467041015625e+01 2.232808685302734375e+01 2.312569894694777028e-13 5.566196375345056069e-13 2.363629853906895617e-13 2.271476735003774561e-13
2.937000000000000000e+03 4.526384353637695312e+01 2.354778480529785156e+01 1.021775166646504696e-13 7.300545801572355664e-13 2.496696425990929669e-13 -4.290449560299253173e-14
2.938000000000000000e+03 4.448778152465820312e+01 2.041063690185546875e+01 2.730813622106587069e-13 7.575481583178833578e-13 3.091888453165408945e-13 -3.456510251631517150e-13
2.939000000000000000e+03 4.492148971557617188e+01 2.192874717712402344e+01 1.995845708754190317e-13 9.090533230685093891e-13 3.325913763146948199e-13 -1.639652091401169742e-13
2.940000000000000000e+03 4.538407135009765625e+01 2.097340965270996094e+01 2.633707867679552228e-13 2.958769839377095590e-13 1.677743366327102970e-13 -2.024792009405751436e-13
2.941000000000000000e+03 4.482625579833984375e+01 2.115423393249511719e+01 2.526853238368070853e-13 7.488069951426534754e-13 3.004477092463653243e-13 -1.123694575431467835e-13
2.942000000000000000e+03 4.489608001708984375e+01 1.961320114135742188e+01 1.890567102825688184e-13 3.527335555261225386e-14 6.729901737886206936e-14 -1.319176701469054747e-13
2.943000000000000000e+03 4.476806259155273438e+01 2.620843887329101562e+01 1.478621099258031757e-13 1.548713821032318694e-13 9.082004489820508231e-14 -5.881564359893134974e-14
2.944000000000000000e+03 4.491052627563476562e+01 1.834204864501953125e+01 -2.879366870259768285e-14 1.249127076731124109e-13 2.883571202996759730e-14 1.594394646690922013e-13
2.945000000000000000e+03 4.482708740234375000e+01 1.119428443908691406e+01 1.668118903641949147e-13 -2.001108561624706517e-14 4.404024142438435485e-14 3.396918434473567006e-13
2.946000000000000000e+03 4.515496444702148438e+01 2.551675224304199219e+01 -2.233284188818667609e-14 8.193067806226000949e-14 1.787935102162858947e-14 2.096403698423690565e-13
2.947000000000000000e+03 1.462297153472900391e+01 8.208024024963378906e+00 1.736708582391992273e-14 1.904468336505482640e-13 6.234417279302184589e-14 5.141698021125448714e-14
2.948000000000000000e+03 1.216164684295654297e+01 3.014844703674316406e+01 -2.094206969296963372e-14 1.282776781932198906e-13 3.220068255007507707e-14 -4.408588633584599459e-14
2.949000000000000000e+03 1.269478702545166016e+01 1.654475402832031250e+01 7.414670277500895468e-14 3.062828582336279970e-13 1.141288669473383699e-13 -1.877382933357721329e-13
2.950000000000000000e+03 9.795388221740722656e+00 8.219430923461914062e+00 -1.530367222920062109e-13 1.431515360894239364e-13 -2.965556580752687528e-15 1.505300468692197247e-13
2.951000000000000000e+03 1.412777614593505859e+01 1.239183807373046875e+01 3.060423000295748285e-15 6.418249178657964293e-13 1.934655913119268100e-13 1.941261414855136036e-13
2.952000000000000000e+03 4.518024826049804688e+01 1.223875331878662109e+01 -6.275665750954395605e-14 4.306137694684575301e-13 1.103571376534322190e-13 2.774457096357818564e-13
2.953000000000000000e+03 1.202847194671630859e+01 1.911407279968261719e+01 2.138024491878196681e-14 5.810498024567956055e-13 1.807290211583434392e-13 2.832188998570187716e-14
2.954000000000000000e+03 4.513360977172851562e+01 2.586757659912109375e+01 1.025909703868642386e-13 4.396755922124635785e-14 4.396755922124635785e-14 -9.560220995928625509e-14
2.955000000000000000e+03 1.424688816070556641e+01 1.027939319610595703e+01 8.690625123838544019e-14 1.287474358895035476e-13 6.469610546074033852e-14 -3.011996034529840216e-13
2.956000000000000000e+03 1.348365974426269531e+01 1.381013584136962891e+01 1.968094605472522907e-13 2.673507032077693246e-13 1.392480559027700626e-13 -8.974985603879895302e-14
2.957000000000000000e+03 1.290357112884521484e+01 1.442025184631347656e+01 1.325587588914961534e-13 1.483127992163782438e-13 8.426146878761503478e-14 1.024023327613789169e-13
2.958000000000000000e+03 4.480103683471679688e+01 1.531894969940185547e+01 -3.530033185791640882e-14 -1.066306128138551357e-13 -4.257928238509192664e-14 7.942808195014749995e-14
2.959000000000000000e+03 4.432867050170898438e+01 1.453657722473144531e+01 1.822419304223568681e-13 5.356131662324903342e-13 2.153565276412014451e-13 4.805975496041670070e-13
2.960000000000000000e+03 4.428401947021484375e+01 1.372658920288085938e+01 1.004402656423590556e-13 2.260496206451384493e-13 9.794696656387560929e-14 3.595733736802553260e-13
2.961000000000000000e+03 1.196996593475341797e+01 2.296478652954101562e+01 1.015972042280911813e-13 7.755568648230848350e-13 2.631462213929791627e-13 9.397894924290453589e-14
2.962000000000000000e+03 4.490426254272460938e+01 1.791000366210937500e+01 1.399706495456773392e-13 1.514893218463805868e-13 8.743799141761737781e-14 8.145797946758348562e-14
2.963000000000000000e+03 1.392273139953613281e+01 1.141208457946777344e+01 7.372958478826536349e-15 1.861636387580356544e-13 5.806097790050923635e-14 1.345209869467759931e-15
2.964000000000000000e+03 1.421617794036865234e+01 1.199384117126464844e+01 6.679571717786714213e-14 5.776381434806354687e-13 1.933301473555290584e-13 -8.658481239929780027e-14
2.965000000000000000e+03 9.700383186340332031e+00 1.072269725799560547e+01 6.264403600887702428e-14 1.641002871782815120e-13 6.802329831140027649e-14 -1.542255736910590896e-14
2.966000000000000000e+03 4.529188919067382812e+01 2.672254562377929688e+01 2.116689798697252156e-13 2.737190628234603684e-13 1.456164155184611064e-13 -8.574431177013272509e-14
2.967000000000000000e+03 4.507095336914062500e+01 2.712733459472656250e+01 7.529903350150801700e-14 4.897805251646847324e-13 1.695238594683415312e-13 8.285490620419527774e-14
2.968000000000000000e+03 1.503583717346191406e+01 6.404045581817626953e+00 6.244097764746469811e-15 -4.307490846758472991e-14 -1.104924240617017814e-14 -5.149078727414643786e-14
2.969000000000000000e+03 1.432437419891357422e+01 8.475351333618164062e+00 -1.717140766057702328e-14 1.756446144128911979e-13 4.754196371976014690e-14 -4.048848997501193481e-14
2.970000000000000000e+03 4.485737991333007812e+01 1.661357879638671875e+01 -9.695482670836128025e-14 2.787045767782547756e-13 5.452492366571533300e-14 6.776594259697010791e-14
2.971000000000000000e+03 4.382555007934570312e+01 9.011507987976074219e+00 3.961914889043238741e-13 -1.962112384460562575e-13 5.999407649273300058e-14 3.586403092906143009e-13
2.972000000000000000e+03 4.509154510498046875e+01 1.160309219360351562e+01 1.108830231409327349e-13 1.819147046541735868e-13 8.783931562802646531e-14 1.749180363270000371e-13
2.973000000000000000e+03 1.501180744171142578e+01 6.922308921813964844e+00 -3.196750115595954622e-14 1.693034411666752281e-13 4.120078030914881007e-14 -5.646489338920722412e-14
2.974000000000000000e+03 1.311013317108154297e+01 1.120945167541503906e+01 5.241204402450273803e-14 6.821325053201973687e-14 3.618758870576992137e-14 -8.639355913607135729e-14
2.975000000000000000e+03 1.359754180908203125e+01 1.305127525329589844e+01 2.421056790376935330e-13 3.782652630793942317e-13 1.861112853456317606e-13 3.988858058418497110e-14
2.976000000000000000e+03 1.366245937347412109e+01 1.266148376464843750e+01 8.464771581156299574e-14 2.192813801631804393e-13 9.117873285818117735e-14 -2.212552515333532366e-13
2.977000000000000000e+03 1.432398891448974609e+01 1.160189819335937500e+01 5.498520136925331980e-14 2.065688792978262467e-13 7.846622521656340665e-14 -3.156578392226293273e-14
2.978000000000000000e+03 1.504685306549072266e+01 7.404342651367187500e+00 -1.488080898738239344e-13 7.347795332249273947e-14 -2.259904062658617957e-14 -1.791386863066873891e-13
2.979000000000000000e+03 1.131015682220458984e+01 1.841953277587890625e+01 -4.200323899458680010e-14 2.908175273947516404e-13 7.464428380954402087e-14 -2.103815202830847803e-14
2.980000000000000000e+03 1.191412639617919922e+01 2.422993087768554688e+01 -4.494911455305179715e-14 3.467436841125826064e-13 9.053836917379334825e-14 1.790508252731345951e-13
2.981000000000000000e+03 1.075556087493896484e+01 2.385663223266601562e+01 9.320662460159806484e-14 8.177118379117109814e-13 2.732755428197508607e-13 -1.205094780475784999e-13
2.982000000000000000e+03 4.422037887573242188e+01 8.730848312377929688e+00 4.241138148140810582e-13 1.817630518752971769e-13 1.817630518752971769e-13 -2.374939166768091914e-13
2.983000000000000000e+03 4.471371841430664062e+01 1.070929813385009766e+01 2.586288659362639963e-13 2.938447282805484173e-13 1.657420809755491553e-13 2.204395113713022991e-13
2.984000000000000000e+03 1.237883663177490234e+01 2.029167556762695312e+01 1.426911160843508108e-13 9.304213215849399532e-13 3.219337502743252477e-13 -2.731451539559823227e-14
2.985000000000000000e+03 4.356750106811523438e+01 7.548332214355468750e+00 2.386435504504041960e-13 -6.638229500763065827e-16 7.139392023533183695e-14 2.871638473886384268e-13
2.986000000000000000e+03 4.463485717773437500e+01 1.023140239715576172e+01 2.714467648053109361e-13 -2.091851709483828065e-14 7.515847346610884938e-14 2.300803319567334970e-13
2.987000000000000000e+03 4.487688446044921875e+01 1.704556083679199219e+01 -5.710545019710702719e-14 6.702812946606656608e-14 2.976803907742803755e-15 1.452993948032263449e-13
2.988000000000000000e+03 1.234537506103515625e+01 2.161571693420410156e+01 8.433140660400392785e-14 7.910327124230343010e-13 2.626092160569470924e-13 1.234088108396577677e-13
2.989000000000000000e+03 1.229630184173583984e+01 2.748495674133300781e+01 1.141663938950335244e-13 3.234341505557736252e-13 1.312801592694839981e-13 -6.020303613268884746e-14
2.990000000000000000e+03 4.550080108642578125e+01 2.733276176452636719e+01 5.867456179123667348e-14 5.741576376665225023e-13 1.898496550939432481e-13 9.064474973570491034e-14
2.991000000000000000e+03 1.295454406738281250e+01 1.571126461029052734e+01 2.337937989363957081e-14 3.760273342701125898e-13 1.198220125550597537e-13 1.862406492995341209e-15
2.992000000000000000e+03 1.272458648681640625e+01 1.695073509216308594e+01 -1.194790794079025886e-13 4.063041678277479196e-13 8.604752246019545248e-14 -1.223769485270490009e-13
2.993000000000000000e+03 4.483744430541992188e+01 1.618200111389160156e+01 2.435120789907874173e-13 5.618717839085685117e-13 2.416151588698067787e-13 4.000582688474391135e-14
2.994000000000000000e+03 4.454953765869140625e+01 9.745623588562011719e+00 2.844605247968173822e-13 1.219116631647268467e-13 1.219116631647268467e-13 9.790735930326199821e-14
2.995000000000000000e+03 4.481216430664062500e+01 1.298696899414062500e+01 -2.147534672878106954e-13 1.824684880188248703e-13 -9.685494797135284217e-15 2.548258370808909046e-13
2.996000000000000000e+03 4.467496109008789062e+01 1.411055088043212891e+01 8.477119966274551666e-14 3.108362092024696821e-13 1.186822179161800550e-13 2.701613076045578099e-13
2.997000000000000000e+03 1.181633090972900391e+01 1.808111763000488281e+01 -1.544324021961196447e-13 3.226977604402214705e-13 5.047960611797783215e-14 3.398445939809327521e-14
2.998000000000000000e+03 1.202618122100830078e+01 2.532731246948242188e+01 1.135886699911610453e-13 3.918129655357954766e-13 1.516204967567241768e-13 7.770064295751707983e-14
2.999000000000000000e+03 1.136956787109375000e+01 2.468453025817871094e+01 4.061830624450812888e-14 4.291663866732436938e-13 1.409354132963364092e-13 -5.448082713048127412e-14
3.000000000000000000e+03 9.741855621337890625e+00 1.976719856262207031e+01 2.707323975463873933e-14 2.861085120989953490e-13 9.395452758896929990e-14 -1.124529919324050026e-14
3.001000000000000000e+03 1.197803497314453125e+01 1.964103126525878906e+01 2.947048868503533703e-14 2.871359020776426130e-13 9.498191756761656390e-14 2.647600868199099372e-14
3.002000000000000000e+03 1.104465103149414062e+01 2.211829757690429688e+01 1.250985670305307385e-13 3.281193676138438597e-13 1.359653763275542326e-13 -6.776239861111879592e-14
3.003000000000000000e+03 1.156774044036865234e+01 2.242401504516601562e+01 -2.223215846987834643e-14 4.251059411170682312e-13 1.208621419092337224e-13 1.213304922602755163e-15
3.004000000000000000e+03 1.610825347900390625e+01 5.550345897674560547e+00 4.957002825789827427e-14 2.042480903375124002e-13 7.614543625624956014e-14 -4.203491463868232192e-14
3.005000000000000000e+03 4.471899032592773438e+01 1.449402523040771484e+01 -1.293658919137435914e-13 -5.544252462187128361e-14 -5.544252462187128361e-14 -1.438216882285008047e-14
3.006000000000000000e+03 1.145454883575439453e+01 1.762925529479980469e+01 -1.568271506852559477e-14 4.393505958349974705e-13 1.271003566066450374e-13 -3.593233670354337725e-16
3.007000000000000000e+03 4.379935073852539062e+01 8.314216613769531250e+00 4.521700939022488264e-13 -3.209109952599653592e-13 3.937773501369590257e-14 1.956745312656216207e-13
3.008000000000000000e+03 1.210109138488769531e+01 2.595211410522460938e+01 1.454695196766164766e-13 4.283516629507294615e-13 1.721463547882037814e-13 -1.027150437729780486e-14
3.009000000000000000e+03 9.592896461486816406e+00 2.486170005798339844e+01 3.315924601956024564e-14 1.514639515155444260e-13 5.538695926053140151e-14 4.233160995131476922e-14
3.010000000000000000e+03 1.247595310211181641e+01 1.429690837860107422e+01 6.910823909661578668e-14 2.961781820774896101e-14 2.961781820774896101e-14 -6.990730202696823423e-15
3.011000000000000000e+03 4.530120849609375000e+01 2.783342933654785156e+01 1.225003713918593196e-13 4.185077577458645726e-13 1.623024360308117364e-13 6.195962661123197157e-14
3.012000000000000000e+03 4.535330963134765625e+01 2.899094963073730469e+01 1.121303909641137297e-13 4.140634775155749292e-13 1.578581558005220931e-13 3.840941372465836445e-14
3.013000000000000000e+03 1.155350303649902344e+01 3.127268028259277344e+01 4.052250681817366751e-14 1.889328401843623495e-13 6.883660579482669961e-14 -4.231310058735136825e-14
3.014000000000000000e+03 9.732756614685058594e+00 2.545265388488769531e+01 1.097433911323789091e-13 3.672895321216174125e-13 1.431098756209461809e-13 9.303669623985169612e-14
3.015000000000000000e+03 1.191139984130859375e+01 2.758129119873046875e+01 8.775007901296733026e-14 4.036147772338433137e-13 1.474094555187904776e-13 9.654371079708193304e-14
3.016000000000000000e+03 1.082352924346923828e+01 2.535370063781738281e+01 1.639741673605671357e-13 3.905312759375917375e-13 1.663516329894476620e-13 -6.931360731687527532e-14
3.017000000000000000e+03 4.553282928466796875e+01 2.860127449035644531e+01 2.628630277855259489e-13 5.701650631663446323e-13 2.499084381275828992e-13 1.069369338089001809e-13
3.018000000000000000e+03 1.419368076324462891e+01 3.371983337402343750e+01 -7.702642506029339087e-14 3.329962716160095315e-13 7.679094990095669537e-14 -2.334376004062515934e-15
3.019000000000000000e+03 1.185627746582031250e+01 3.379126739501953125e+01 -6.664067626720171500e-14 1.086925552817516460e-13 1.261556556783746327e-14 1.253922672346616946e-14
3.020000000000000000e+03 4.446596908569335938e+01 3.053762054443359375e+01 1.093393970741200760e-13 5.501201707711067534e-13 1.978378669654362598e-13 1.174293680957644304e-13
3.021000000000000000e+03 4.299274063110351562e+01 5.647556781768798828e+00 3.230027736163959551e-13 1.841807007471954472e-13 1.521550355328138426e-13 2.181112685210526148e-13
3.022000000000000000e+03 1.284245395660400391e+01 2.929730987548828125e+01 -6.041750487493363631e-14 -7.164416764926864745e-14 -3.961850243488704293e-14 -1.204300195808624685e-13
3.023000000000000000e+03 1.404073429107666016e+01 7.116048812866210938e+00 9.760498717581705258e-15 1.414359216767371863e-13 4.535892603359237274e-14 -1.956083678280456928e-13
3.024000000000000000e+03 1.226261138916015625e+01 2.068393707275390625e+01 9.550240914930896441e-14 6.814429120809151197e-13 2.330835990795726564e-13 7.015822706726284816e-15
3.025000000000000000e+03 1.220332241058349609e+01 2.114924240112304688e+01 -2.553884973508294132e-14 5.380661736477387880e-13 1.537581910751595338e-13 1.154183763537111607e-13
3.026000000000000000e+03 1.114897346496582031e+01 3.275061035156250000e+01 1.567976400573736079e-14 1.554104880809731304e-13 5.132707274610112669e-14 -4.813800386408405296e-14
3.027000000000000000e+03 1.350691699981689453e+01 7.381217002868652344e+00 -5.943648486795086172e-14 2.147197079426649280e-13 4.658496556716150427e-14 -1.120766348651491828e-13
3.028000000000000000e+03 8.496965408325195312e+00 2.434527206420898438e+01 8.319508818833976083e-14 1.957833580586848532e-13 8.369353658461281542e-14 -9.682147322927735222e-15
3.029000000000000000e+03 4.342340469360351562e+01 6.442235469818115234e+00 3.320409539767782414e-13 1.423032563096712777e-13 1.423032563096712777e-13 1.853739736582329933e-13
3.030000000000000000e+03 4.399033737182617188e+01 6.639935016632080078e+00 3.201311015322422238e-13 -6.868022996023639970e-14 7.543526350448082063e-14 6.877165530843123986e-14
3.031000000000000000e+03 1.159353542327880859e+01 2.658717918395996094e+01 1.202909435471868904e-13 3.260589498052524071e-13 1.339049720714899361e-13 -8.290499634456410805e-14
3.032000000000000000e+03 4.368339157104492188e+01 5.716403007507324219e+00 3.218049470562339698e-13 6.635536465386389186e-16 9.674054770149667637e-14 5.999253828090078677e-14
3.033000000000000000e+03 9.988634109497070312e+00 1.772943878173828125e+01 -5.879290245836346629e-14 2.950596852350356736e-13 7.088003551062801999e-14 7.641561943763294784e-14
3.034000000000000000e+03 1.126902770996093750e+01 3.025241279602050781e+01 5.229772506980950864e-14 1.367906845737773547e-13 5.672652153782334339e-14 -5.002115800560591463e-14
3.035000000000000000e+03 1.307565593719482422e+01 7.845580577850341797e+00 -1.961588346881315613e-17 1.829953831695985134e-13 5.489273247646746234e-14 6.312985344984062275e-14
3.036000000000000000e+03 4.751688385009765625e+01 7.551964759826660156e+00 2.888910898696250840e-13 -2.879480779250515043e-13 2.829013016770722195e-16 -1.224617060318830553e-13
3.037000000000000000e+03 1.030960750579833984e+01 7.788515567779541016e+00 6.541297993718775405e-14 -1.092187118197952833e-13 -1.314171871774931152e-14 5.178907500871972325e-14
3.038000000000000000e+03 9.820471763610839844e+00 9.190173149108886719e+00 -9.584113423678417010e-14 -4.107477229978347133e-14 -4.107477229978347133e-14 1.084735871004910424e-13
3.039000000000000000e+03 1.373876380920410156e+01 1.225988674163818359e+01 2.826169745277773426e-13 3.956272429887081055e-13 2.034732652549456344e-13 -6.938837660919530692e-14
3.040000000000000000e+03 1.070235252380371094e+01 9.111686706542968750e+00 -2.002183548078725894e-13 4.572610803996353390e-14 -4.634767436918589556e-14 1.225738125365180564e-13
3.041000000000000000e+03 1.139542675018310547e+01 7.149986743927001953e+00 -2.216172937438004586e-14 8.200401078670149779e-14 1.795268544013597228e-14 -1.957053700411652553e-14
3.042000000000000000e+03 1.188268852233886719e+01 7.908421993255615234e+00 4.836913543846722841e-14 -3.109647413700178387e-13 -7.877868550641015100e-14 -1.197230791068204514e-13
3.043000000000000000e+03 9.736806869506835938e+00 2.303329467773437500e+01 1.035646313716012679e-13 3.732197927444613761e-13 1.430353231690606464e-13 5.593431195104713038e-14
3.044000000000000000e+03 1.008122158050537109e+01 2.171704483032226562e+01 1.115941174645480871e-14 4.622920969643562472e-13 1.420354448205402020e-13 5.985812961052281670e-16
3.045000000000000000e+03 4.584873580932617188e+01 6.869781494140625000e+00 1.238218241047389645e-13 -2.671901328660242214e-13 -4.301049330601193488e-14 3.321213475678680416e-14
3.046000000000000000e+03 4.685763168334960938e+01 3.379718017578125000e+01 2.922491689296737027e-14 2.870306531517485826e-13 9.487667541798611159e-14 2.595107695358908617e-14
3.047000000000000000e+03 4.676229858398437500e+01 7.569335937500000000e+00 1.284185025028986016e-13 -1.050918182229736153e-13 6.998004521647843354e-15 -7.097687594045465689e-15
3.048000000000000000e+03 4.601246643066406250e+01 7.625055313110351562e+00 1.403406606420923297e-13 -7.710685253270108119e-14 1.897014311044373236e-14 4.301599224390550980e-14
3.049000000000000000e+03 1.173353576660156250e+01 2.712407875061035156e+01 1.504578390045321901e-13 4.762404663335995103e-13 1.880094929566922257e-13 -6.316672309996870793e-14
3.050000000000000000e+03 9.686816215515136719e+00 2.618247222900390625e+01 1.269025032626935889e-13 8.635839710436493677e-15 4.066150492481809819e-14 2.335755185458882749e-14
3.051000000000000000e+03 5.362343597412109375e+01 8.823138236999511719e+00 1.282670530119295327e-13 -8.228125483473319735e-14 1.379573911434572170e-14 -7.190988527295411048e-14
3.052000000000000000e+03 9.060001373291015625e+00 2.001991462707519531e+01 1.085738893539731076e-13 3.210373590231685448e-13 1.288833812894060737e-13 7.682532588608806390e-14
3.053000000000000000e+03 9.779069900512695312e+00 1.874547386169433594e+01 2.201308525653228321e-14 3.983172569988618905e-13 1.260990959003546741e-13 2.163284708431214426e-14
3.054000000000000000e+03 8.673186302185058594e+00 1.391248321533203125e+01 2.358114144760965064e-14 -3.564474561866537439e-14 -3.619081251316717124e-15 1.723385702808583053e-13
3.055000000000000000e+03 8.892379760742187500e+00 1.717506790161132812e+01 1.446073790497149486e-14 2.349521944187971112e-13 7.482388189941624468e-14 1.574617579337342366e-13
3.056000000000000000e+03 1.236222076416015625e+01 1.715510559082031250e+01 -8.847538993756939862e-14 7.855990706052973227e-13 2.091370967464284414e-13 -2.233457152946496937e-14
3.057000000000000000e+03 8.575640678405761719e+00 1.205578613281250000e+01 -7.213546708746687575e-14 -3.091520163239942776e-14 -3.091520163239942776e-14 9.340349538733069834e-14
3.058000000000000000e+03 9.977682113647460938e+00 2.803957939147949219e+01 1.742430256069377181e-13 6.323784676248375702e-14 7.124425967794736914e-14 -4.401139825846445142e-14
3.059000000000000000e+03 5.298186111450195312e+01 1.065817832946777344e+01 7.615082338579409749e-14 -3.599035538993586303e-14 1.204814158460359649e-14 -5.422976656491509950e-14
3.060000000000000000e+03 5.275516510009765625e+01 7.332896232604980469e+00 1.705299584268266111e-14 1.445612699641982135e-13 4.848428109731697799e-14 -4.734151506685831123e-14
3.061000000000000000e+03 4.925062942504882812e+01 7.539596080780029297e+00 8.772228955603381118e-14 -5.390663027180116196e-14 1.014469761586320531e-14 -2.254801197371179150e-14
3.062000000000000000e+03 6.195812225341796875e+01 7.308897972106933594e+00 7.235148759407103447e-14 -1.291205369621101218e-13 -1.703071548803808399e-14 5.672176798892335225e-14
3.063000000000000000e+03 6.269850540161132812e+01 6.542410373687744141e+00 3.650983730835513641e-14 -1.216057690742872177e-13 -2.552878190147187670e-14 -1.018877839628444526e-13
3.064000000000000000e+03 7.020270538330078125e+01 6.944071769714355469e+00 3.489851975652970284e-14 6.070745441717415036e-14 2.868179259092433486e-14 -1.119632544229615112e-13
3.065000000000000000e+03 1.029412460327148438e+01 3.047452545166015625e+01 7.465127521949065786e-15 1.061389745624780057e-13 3.408123121825118451e-14 -1.151222383887580067e-14
3.066000000000000000e+03 9.933173179626464844e+00 2.942569541931152344e+01 2.640170186966016297e-14 1.131501508699721270e-14 1.131501508699721270e-14 -6.814945878669612100e-14
3.067000000000000000e+03 6.452672576904296875e+01 6.812420368194580078e+00 -1.407693711217520433e-14 5.258543166880569331e-14 1.155254768936278889e-14 -1.505013053472534917e-14
3.068000000000000000e+03 1.500313568115234375e+01 3.761539840698242188e+01 -6.845593563580346097e-14 -2.933825667757357369e-14 -2.933825667757357369e-14 3.863102126058261254e-14
3.069000000000000000e+03 1.402592468261718750e+01 3.552711486816406250e+01 -9.020554621189461053e-14 2.996690420223498130e-14 -1.807159361933742547e-14 6.698539157167990310e-14
3.070000000000000000e+03 6.982228851318359375e+01 1.001412296295166016e+01 -3.678943271984841390e-14 -1.322888467606558871e-13 -5.072348384415129030e-14 -1.368721725314350074e-14
3.071000000000000000e+03 6.104092788696289062e+01 6.422966480255126953e+00 4.539313938839786844e-14 4.232967532806324040e-14 2.631684441493833265e-14 -5.864935409072638550e-14
3.072000000000000000e+03 1.194237041473388672e+01 3.580336380004882812e+01 -8.971363690997435913e-14 8.307725574098132060e-14 -1.990915578895685080e-15 -4.746961101243863182e-15
3.073000000000000000e+03 1.017033958435058594e+01 3.334164428710937500e+01 1.776447471925606675e-14 6.480203201299217231e-14 2.476995218908106117e-14 -5.363635222272768177e-14
3.074000000000000000e+03 6.834248352050781250e+01 1.653531265258789062e+01 -3.312811247655096658e-14 -1.419776297396924125e-14 -1.419776297396924125e-14 -5.415568845148002741e-14
3.075000000000000000e+03 6.983061981201171875e+01 1.965042114257812500e+01 6.400996133961930901e-14 -1.555709500025009850e-13 -2.746829930936993402e-14 -1.075321133677496765e-13
3.076000000000000000e+03 1.324030303955078125e+01 4.139005279541015625e+01 -1.732884885085673229e-15 4.500828488661519355e-14 1.298261967223358904e-14 -2.327891670389752726e-14
3.077000000000000000e+03 6.763076782226562500e+01 6.335278034210205078e+00 1.858592388337149820e-14 -3.778555363021483815e-14 -5.759888839349707260e-15 -2.881632175173905186e-14
3.078000000000000000e+03 5.805522918701171875e+01 8.645545005798339844e+00 1.140045360632085947e-13 -3.763880347803713611e-14 2.290971875911190087e-14 -1.295566793088490445e-14
3.079000000000000000e+03 5.649101257324218750e+01 8.471351623535156250e+00 1.546793292409032183e-13 6.629114303931954444e-14 6.629114303931954444e-14 -1.383132432371259046e-13
3.080000000000000000e+03 6.911244201660156250e+01 2.098927879333496094e+01 -1.573647624968782521e-14 -1.211215779365823475e-13 -4.105741490062833621e-14 -8.087070780832955608e-14
3.081000000000000000e+03 6.862081146240234375e+01 1.879518127441406250e+01 -2.729937552869900891e-14 -1.032016269317259649e-13 -3.915029989109454489e-14 -2.961987819187668347e-14
3.082000000000000000e+03 6.890587615966796875e+01 1.108793640136718750e+01 4.097231858261538018e-14 -7.394233066549543709e-14 -9.891004471896964328e-15 -1.172009266980217346e-13
3.083000000000000000e+03 6.725628662109375000e+01 1.316015243530273438e+01 5.836998907219476118e-14 7.076666184470392640e-14 3.874099663032232188e-14 -5.325710169092404134e-14
3.084000000000000000e+03 1.264716434478759766e+01 1.358104228973388672e+01 2.327985352233719052e-13 -3.748204139642288824e-14 5.859495424672192532e-14 5.839493842765613660e-15
3.085000000000000000e+03 4.465367889404296875e+01 1.373627376556396484e+01 -1.716882116076928755e-13 1.792123341273852560e-14 -4.613009532195878892e-14 1.234733750790292794e-13
3.086000000000000000e+03 1.421106338500976562e+01 9.167812347412109375e+00 1.148958722217360839e-13 -4.226080816131967677e-14 2.179052057337763776e-14 -1.384723228008838403e-13
3.087000000000000000e+03 4.523136138916015625e+01 1.615384483337402344e+01 1.652907208348798618e-14 5.560952631537829927e-13 1.717873076862580506e-13 1.660083745816387513e-13
3.088000000000000000e+03 4.497316741943359375e+01 2.292258453369140625e+01 -1.082064091920045129e-14 6.358758463352598422e-13 1.875165739914988472e-13 1.763436673161283830e-13
3.089000000000000000e+03 4.519066619873046875e+01 2.409857177734375000e+01 1.254112644896027140e-13 5.112571607387983441e-13 1.910005357000366111e-13 2.927710428691360223e-14
3.090000000000000000e+03 4.506310653686523438e+01 2.519900894165039062e+01 -2.229611792772551865e-14 5.394559039924307076e-13 1.551479349723786094e-13 8.708294908744626528e-14
3.091000000000000000e+03 1.350568580627441406e+01 8.211311340332031250e+00 -5.346212432174105023e-14 2.283861034318990235e-14 -9.187054024158754911e-15 -1.562329231914391658e-13
3.092000000000000000e+03 1.508939647674560547e+01 7.885492324829101562e+00 -6.987904585488077802e-14 -2.129519569580087812e-13 -8.484930287674594118e-14 -7.714189936792667512e-14
3.093000000000000000e+03 4.521471405029296875e+01 1.572428321838378906e+01 -4.664938750499787734e-14 -1.114944928374238253e-13 -4.744316240866061629e-14 3.835191441769331133e-13
3.094000000000000000e+03 4.531623458862304688e+01 1.920149803161621094e+01 7.823279648882727755e-14 -1.952264034026790496e-13 -3.509808071890281600e-14 -9.751259282193055350e-15
3.095000000000000000e+03 4.513245773315429688e+01 2.111114311218261719e+01 -1.972592689235622143e-13 4.644717228018124811e-13 8.016373345296964881e-14 2.056857220894374449e-14
3.096000000000000000e+03 4.541818618774414062e+01 2.306317710876464844e+01 -5.861222694258233501e-14 1.578842715203518376e-13 2.978161066282541958e-14 3.239653350813921640e-14
3.097000000000000000e+03 4.489311218261718750e+01 1.747771072387695312e+01 -2.758633436700935748e-13 1.105275945637376744e-13 -4.960072812003855913e-14 1.510244972699817390e-13
3.098000000000000000e+03 4.531377410888671875e+01 1.876082229614257812e+01 -3.799584819409555780e-14 -6.203488379452962165e-14 -3.000921858014801713e-14 1.632658580812823557e-13
3.099000000000000000e+03 4.489207839965820312e+01 2.229791450500488281e+01 -4.800978340466048599e-14 1.031696212835941928e-12 2.951059264576921803e-13 -1.127984492377449854e-13
3.100000000000000000e+03 4.548176574707031250e+01 2.382364082336425781e+01 1.136280807401308934e-13 6.205845841551760333e-13 2.202638028567238671e-13 -1.675948537393188997e-14
3.101000000000000000e+03 4.487128067016601562e+01 2.153448867797851562e+01 -9.277854770258289752e-14 6.922529498416818416e-13 1.798423199641033254e-13 -9.143916499627577354e-14
3.102000000000000000e+03 4.549824523925781250e+01 2.222670173645019531e+01 1.619188046446048967e-13 1.007288219848079258e-12 3.507621168345742557e-13 4.418067271077553981e-14
3.103000000000000000e+03 4.481962585449218750e+01 2.078431129455566406e+01 -3.256552674551181636e-14 6.265566407717693131e-13 1.781973277704268499e-13 -1.109048562621811618e-13
3.104000000000000000e+03 4.516140747070312500e+01 2.244537162780761719e+01 -1.528476035518068488e-14 6.339626631816919211e-13 1.856033772854037700e-13 8.671339877695458109e-14
3.105000000000000000e+03 4.572940826416015625e+01 1.967789840698242188e+01 2.016110124984302199e-13 1.321556660762931990e-13 1.001300008619115944e-13 1.021985163054787982e-13
3.106000000000000000e+03 4.513978958129882812e+01 2.079997825622558594e+01 1.453852771678143529e-13 2.910627197160592372e-13 1.309343936441512146e-13 1.703771265780876232e-13
3.107000000000000000e+03 4.530721282958984375e+01 2.471979331970214844e+01 1.803585492760051423e-13 6.263079247934011384e-13 2.419999422208218842e-13 -7.219374973050154964e-14
3.108000000000000000e+03 4.525123214721679688e+01 2.004231452941894531e+01 2.183285697414730220e-13 1.850712779642021966e-13 1.210199610879661436e-13 2.561309047884388623e-14
3.109000000000000000e+03 1.377562236785888672e+01 8.910961151123046875e+00 -7.174112920480674171e-14 1.522576010583309714e-13 2.415493850673865878e-14 -2.424759340795973328e-13
3.110000000000000000e+03 4.487316894531250000e+01 2.001808357238769531e+01 -7.510191877028657426e-14 1.508172520247111348e-13 2.271460133158008377e-14 -9.852230522296862025e-14
3.111000000000000000e+03 4.529788589477539062e+01 1.963101005554199219e+01 7.700013993387419542e-14 3.300005803558506146e-14 3.300005803558506146e-14 1.663422817457099745e-13
3.112000000000000000e+03 4.544797515869140625e+01 2.510232162475585938e+01 5.504609626189732596e-14 1.150930750443840411e-13 5.104175139188441013e-14 -8.040821426660155202e-14
3.113000000000000000e+03 4.509062957763671875e+01 2.622072601318359375e+01 2.971925548538034700e-14 5.617481848609051642e-13 1.774402429459073782e-13 -2.181526240576693587e-14
3.114000000000000000e+03 4.552096557617187500e+01 2.550893402099609375e+01 4.052300487354665304e-14 3.833745929222864834e-13 1.271692847597608034e-13 -2.717852256185065984e-13
3.115000000000000000e+03 4.543984985351562500e+01 2.632883644104003906e+01 1.338518868226196146e-13 5.148746012872962297e-13 1.946179355909530284e-13 7.876608843241858504e-14
3.116000000000000000e+03 4.531097030639648438e+01 1.832107353210449219e+01 1.439226613320770953e-13 2.446849417959279238e-13 1.165822809384015057e-13 5.955439185420866033e-14
3.117000000000000000e+03 1.454877090454101562e+01 6.971951484680175781e+00 1.350749346358190439e-13 1.036402070392870856e-13 7.161454182490548104e-14 6.613583277217689044e-15
3.118000000000000000e+03 4.517061996459960938e+01 1.060296154022216797e+01 2.419768487145479430e-13 1.037043647028439153e-13 1.037043647028439153e-13 1.671745966484727841e-13
3.119000000000000000e+03 4.551436614990234375e+01 2.592374992370605469e+01 -4.264984361772999888e-14 2.562271954938827312e-13 6.407320420759310409e-14 4.445072036688736683e-14
3.120000000000000000e+03 1.420499706268310547e+01 1.070973110198974609e+01 1.453627664202081227e-13 1.538002310143976592e-13 8.974890058563445017e-14 -7.844902028333877730e-14
3.121000000000000000e+03 1.348154735565185547e+01 1.080360984802246094e+01 4.540441509099171769e-14 -1.177938091035182766e-13 -2.171681854257114658e-14 2.166503264224191316e-14
3.122000000000000000e+03 4.545633316040039062e+01 1.190318202972412109e+01 -6.048182516881633886e-14 1.713801897704897437e-13 3.326950938050202145e-14 1.728994280646850568e-13
3.123000000000000000e+03 1.363428878784179688e+01 9.356813430786132812e+00 1.886633752869182334e-13 8.085573226582210005e-14 8.085573226582210005e-14 -4.549759887958505777e-14
3.124000000000000000e+03 1.050752639770507812e+01 1.701233291625976562e+01 -1.250223476178050075e-13 4.039284911324519944e-13 8.367183898863594926e-14 9.151171845040578789e-14
3.125000000000000000e+03 1.195945262908935547e+01 1.737617683410644531e+01 -2.620827545870424435e-13 3.223128415639348043e-13 1.806902033324366691e-14 -9.265887211153123193e-14
3.126000000000000000e+03 1.386044692993164062e+01 1.072296810150146484e+01 1.322758634396403732e-13 2.396934647291848464e-13 1.115907970953948503e-13 -3.042780599964850508e-13
3.127000000000000000e+03 1.333452796936035156e+01 1.212694072723388672e+01 1.121814297813834849e-13 2.310815384529152361e-13 1.029788911479159741e-13 -3.234582672778478496e-14
3.128000000000000000e+03 4.442767715454101562e+01 9.246825218200683594e+00 2.197041512478140057e-13 -4.309392605131648346e-14 5.298306620369654107e-14 2.128765778019667265e-13
3.129000000000000000e+03 5.171231842041015625e+01 9.539356231689453125e+00 -5.639936692040763144e-14 -1.271107920525552104e-13 -5.505304870832838926e-14 -8.125252484996337704e-15
3.130000000000000000e+03 4.530516433715820312e+01 1.788373947143554688e+01 -2.318687505453026487e-13 -5.362136990395664771e-14 -8.564703173020646321e-14 5.043605846009359406e-14
3.131000000000000000e+03 4.476674270629882812e+01 1.489727210998535156e+01 1.129144046600923101e-13 3.228975789006105490e-13 1.307436011668480780e-13 1.351744779477803693e-13
3.132000000000000000e+03 1.092899036407470703e+01 1.798078536987304688e+01 -1.460964324778019074e-13 3.491457882358328657e-13 6.091480130639842505e-14 -1.369751615734257633e-13
3.133000000000000000e+03 9.329222679138183594e+00 1.292976570129394531e+01 -7.901664755447998512e-14 1.188666999980261471e-14 -2.013899436754604255e-14 1.332762974417742163e-13
3.134000000000000000e+03 1.324674320220947266e+01 1.253260326385498047e+01 2.452704380741244083e-13 2.881197071289559597e-13 1.600170462714295416e-13 1.474631336907238771e-14
3.135000000000000000e+03 4.525379562377929688e+01 1.658268356323242188e+01 -2.467261455091438599e-14 1.266788730120912976e-13 3.060187736894648403e-14 2.771950691985575199e-13
3.136000000000000000e+03 4.527593994140625000e+01 1.701411628723144531e+01 -1.794948467203488773e-13 1.518283789707711162e-13 -8.299940324873328334e-15 2.585259480450408098e-13
3.137000000000000000e+03 4.568810272216796875e+01 2.688506889343261719e+01 2.460506570624992895e-13 6.544616736568753534e-13 2.701536910842960992e-13 -1.265168474677428115e-14
3.138000000000000000e+03 4.524128723144531250e+01 1.101451969146728516e+01 2.551253208259857130e-13 1.783752792282496114e-14 8.188885496345638115e-14 -6.220244724028725636e-14
3.139000000000000000e+03 1.249573516845703125e+01 1.557046031951904297e+01 8.463153409413864958e-15 4.153856078548123776e-13 1.271546209253779369e-13 -2.156345848408625088e-13
3.140000000000000000e+03 1.157977962493896484e+01 1.424111938476562500e+01 2.789012849336615363e-14 -7.954898404490678976e-14 -1.549765700427536974e-14 -5.428287891883973315e-14
3.141000000000000000e+03 1.061355018615722656e+01 1.223078536987304688e+01 -6.104649798903752367e-14 1.110900650982959981e-13 1.501306945515118452e-14 1.688827029611150721e-13
3.142000000000000000e+03 1.198249912261962891e+01 2.014567756652832031e+01 -6.520357306383575691e-14 2.923122627198487811e-13 6.813260621917754944e-14 -9.056757486981467653e-14
3.143000000000000000e+03 1.102424716949462891e+01 2.320054817199707031e+01 1.000466053860567250e-13 7.748923031014598450e-13 2.624816596713541728e-13 -3.505832438049048816e-14
3.144000000000000000e+03 4.511037445068359375e+01 1.013532066345214844e+01 3.010786335955889514e-13 3.577884516436924400e-13 1.976601255717844174e-13 1.178275548961368879e-13
3.145000000000000000e+03 1.167383098602294922e+01 1.984640693664550781e+01 -3.053023193413592629e-14 7.418062475048059490e-13 2.133828053488273646e-13 2.260636068531635123e-14
3.146000000000000000e+03 1.169516372680664062e+01 1.879922676086425781e+01 1.219463440817192268e-13 6.127118669201070400e-13 2.203974578795370176e-13 8.384555528172243921e-14
3.147000000000000000e+03 1.206120204925537109e+01 2.386393547058105469e+01 2.013028144783740592e-13 4.065292753038102225e-13 1.823496323556661469e-13 2.490650643626607375e-13
3.148000000000000000e+03 1.193195819854736328e+01 1.692103767395019531e+01 8.996385044259327946e-14 4.274390086669854760e-13 1.552208611210054157e-13 -1.658345363158078567e-13
3.149000000000000000e+03 4.521838378906250000e+01 1.527820682525634766e+01 6.941791434213195888e-14 1.670033740203830108e-13 7.092638515350177530e-14 1.682975861536789575e-13
3.150000000000000000e+03 1.225812053680419922e+01 1.502573013305664062e+01 -2.581518406972928975e-14 1.719401395349970385e-13 4.383748884186598749e-14 -1.582948859881264103e-13
3.151000000000000000e+03 4.505827331542968750e+01 1.405959987640380859e+01 1.681819661563787455e-14 9.870969601595558363e-14 3.465836897532416361e-14 -1.425015433344917204e-13
3.152000000000000000e+03 1.120944690704345703e+01 2.733424186706542969e+01 1.611555669727565698e-13 2.520704727847905557e-13 1.239678119272641377e-13 1.853987070202928189e-14
3.153000000000000000e+03 1.081733131408691406e+01 2.097218894958496094e+01 -2.164334690472630857e-14 3.567318695215510038e-13 1.005265545827617457e-13 -9.204948950422217613e-14
3.154000000000000000e+03 1.128725433349609375e+01 2.013086891174316406e+01 2.168689219091829434e-13 2.759476132839500107e-13 1.478449659789507487e-13 2.667804594518540483e-15
3.155000000000000000e+03 1.029368209838867188e+01 1.931482887268066406e+01 1.627323357447293950e-13 2.527462288938464585e-13 1.246435680363200404e-13 8.960620602720820171e-14
3.156000000000000000e+03 1.213439655303955078e+01 1.644763946533203125e+01 -1.241378283804370208e-13 4.043075553170072389e-13 8.405092350198192785e-14 -1.146611424513929722e-13
3.157000000000000000e+03 4.594853210449218750e+01 2.747885894775390625e+01 1.683682761353250124e-13 4.381654273351992535e-13 1.819601056201464173e-13 5.631469750700009158e-15
3.158000000000000000e+03 4.435031890869140625e+01 6.081829547882080078e+00 2.446935069930905593e-13 -2.094646748803177805e-14 6.712410846338584536e-14 1.072338900076803825e-13
3.159000000000000000e+03 1.132578086853027344e+01 1.483648967742919922e+01 1.433168417688606647e-15 9.211611372772141038e-14 2.806478499302409585e-14 -1.324126355436994196e-13
3.160000000000000000e+03 1.155462169647216797e+01 2.866156959533691406e+01 7.647080532821246002e-14 3.301543608814905273e-13 1.219875573168008320e-13 -3.541561981830129713e-14
3.161000000000000000e+03 1.189179229736328125e+01 2.826232337951660156e+01 8.608055674513837019e-14 3.006744701307406675e-13 1.160265053522582801e-13 -3.276116425127324761e-14
3.162000000000000000e+03 4.575476837158203125e+01 2.925859832763671875e+01 -5.549851985243189727e-16 5.716490106798255422e-13 1.713282022763190637e-13 1.008669872886586161e-13
3.163000000000000000e+03 4.509958267211914062e+01 2.928566360473632812e+01 2.430708629166944412e-13 5.273694892241054255e-13 2.311321164842616849e-13 -1.247983921065509705e-13
3.164000000000000000e+03 4.583229064941406250e+01 2.794777107238769531e+01 6.646811871518706893e-14 2.572410871554825507e-13 9.711276108357452808e-14 1.135409888124942063e-14
3.165000000000000000e+03 1.210670566558837891e+01 2.938609123229980469e+01 -1.959399473455778612e-14 1.288554224258831038e-13 3.277842678273829025e-14 -6.121969928609208300e-14
3.166000000000000000e+03 1.149857044219970703e+01 2.598250961303710938e+01 1.614839447057481170e-13 4.352149879632144502e-13 1.790096798006887702e-13 4.025105647550118737e-14
3.167000000000000000e+03 1.089762210845947266e+01 2.605648422241210938e+01 1.610845652829859254e-13 2.977909802429068442e-13 1.376626677235259777e-13 -1.400171296316249717e-14
3.168000000000000000e+03 1.101109409332275391e+01 2.672587966918945312e+01 4.168839684809237667e-14 3.381230842189331121e-13 1.139434548233161926e-13 -7.061343697267741248e-14
3.169000000000000000e+03 1.311568737030029297e+01 3.068419456481933594e+01 -9.071891424650060237e-15 2.706177296141198951e-13 7.846375188035742410e-14 -2.496810707676173219e-14
3.170000000000000000e+03 1.337016391754150391e+01 3.372532272338867188e+01 -6.869056376219290216e-14 1.993159326821314359e-13 3.918760999835520231e-14 -8.585037215359022506e-15
3.171000000000000000e+03 1.421667194366455078e+01 7.570606708526611328e+00 5.663867744492949441e-14 -6.722817831941729771e-14 -3.176849796478220002e-15 -1.162754246185337959e-13
3.172000000000000000e+03 4.443487167358398438e+01 6.939038753509521484e+00 1.876787570839755226e-13 -3.251390178144256127e-14 4.654945794601260400e-14 5.493804873914556741e-14
3.173000000000000000e+03 1.284196949005126953e+01 3.470058441162109375e+01 -8.311371881529472372e-14 -2.418242641994295533e-14 -3.218884441760425097e-14 2.828596731840882228e-14
3.174000000000000000e+03 1.219453048706054688e+01 1.986124038696289062e+01 4.092024299701818579e-14 5.665486526099106079e-13 1.822406564848041977e-13 1.762736278557858194e-13
3.175000000000000000e+03 1.025125122070312500e+01 2.539560127258300781e+01 1.237894471173631161e-13 1.445545208056744912e-13 8.050319037691128221e-14 3.470295678966762998e-14
3.176000000000000000e+03 4.602830505371093750e+01 3.010980224609375000e+01 3.073118541867432552e-14 4.706799728616817280e-13 1.504233613754471510e-13 8.574887219552074225e-14
3.177000000000000000e+03 4.562811660766601562e+01 1.098426055908203125e+01 3.334249651550103000e-13 9.714547010786570014e-14 1.291711285459837266e-13 2.956502501583885278e-13
3.178000000000000000e+03 4.608593368530273438e+01 1.111480331420898438e+01 1.707374611701131806e-13 4.391807826697319284e-13 1.829754745072062483e-13 4.511789433812168904e-14
3.179000000000000000e+03 5.002552413940429688e+01 7.990944385528564453e+00 1.160543557955640015e-13 -8.751526115119770410e-14 8.561728562716478669e-15 -4.169227964712259038e-14
3.180000000000000000e+03 1.014594554901123047e+01 1.156055164337158203e+01 -4.951976871093999311e-14 -2.122275777696486926e-14 -2.122275777696486926e-14 -3.385998960056015028e-14
3.181000000000000000e+03 1.203478527069091797e+01 7.487803936004638672e+00 -7.904325963561682072e-15 -3.236442147266926916e-13 -9.946455822602146002e-14 1.804263356287080095e-14
3.182000000000000000e+03 1.315680694580078125e+01 9.291623115539550781e+00 7.876640014054317462e-14 2.625117733866949576e-13 1.023834540910505131e-13 -1.187821000413202821e-13
3.183000000000000000e+03 1.056751346588134766e+01 2.884359550476074219e+01 2.747658837379176461e-14 5.752662885979975549e-14 2.550096533948404548e-14 4.657665786801483410e-14
3.184000000000000000e+03 1.063675498962402344e+01 2.764331626892089844e+01 1.137972908179379905e-13 2.317740725905903520e-13 1.036714049568003559e-13 2.313502274681796672e-14
3.185000000000000000e+03 1.151364517211914062e+01 2.291236686706542969e+01 8.574164192228297954e-14 6.543842074116512642e-13 2.220377608988174933e-13 1.761262881686768283e-14
3.186000000000000000e+03 1.025633335113525391e+01 8.697541236877441406e+00 9.952487374812954424e-14 -1.167599410168904117e-13 -5.170521197067796948e-15 -5.429597066007249562e-14
3.187000000000000000e+03 9.477575302124023438e+00 2.074789047241210938e+01 2.871715791053809641e-14 3.783149466439483799e-13 1.221096249288955438e-13 -5.860696856204578031e-14
3.188000000000000000e+03 9.777076721191406250e+00 1.697032356262207031e+01 5.028282003553992408e-14 2.274290510691917566e-13 8.331355760447453629e-14 3.742216971957916527e-15
3.189000000000000000e+03 9.993487358093261719e+00 1.012057971954345703e+01 -7.020974784627959098e-14 -1.215917964187893108e-13 -5.754045921376252370e-14 1.068386373294372138e-13
3.190000000000000000e+03 1.071447658538818359e+01 8.275395393371582031e+00 -1.251771445829816254e-13 -2.219356764880144051e-14 -4.421121333072174087e-14 4.367365572920806072e-14
3.191000000000000000e+03 5.499230957031250000e+01 8.578656196594238281e+00 7.535722805311617645e-14 3.229595342785045176e-14 3.229595342785045176e-14 -5.041139963693312687e-14
3.192000000000000000e+03 5.508588027954101562e+01 9.999624252319335938e+00 1.621504715438107369e-13 3.232041573936715595e-14 5.834127126715105138e-14 -6.649078531685559401e-14
3.193000000000000000e+03 4.477483749389648438e+01 8.502790451049804688e+00 1.587630986963142754e-13 2.967960621193255211e-13 1.366677495999446545e-13 6.999807770089253034e-14
3.194000000000000000e+03 1.012852382659912109e+01 2.464088058471679688e+01 9.411098473872253622e-15 1.870371262382986011e-13 5.893446538077218300e-14 1.138135809555795852e-13
3.195000000000000000e+03 9.677186012268066406e+00 2.710779571533203125e+01 5.166110188291675454e-14 2.280197515178161716e-13 8.390425127683537321e-14 -2.668937458733845747e-14
3.196000000000000000e+03 1.029590797424316406e+01 2.614404869079589844e+01 7.710047606867415082e-14 2.617977991510589408e-13 1.016694866316780743e-13 2.421191841310045556e-14
3.197000000000000000e+03 1.342363834381103516e+01 1.171246719360351562e+01 8.298665032067942260e-14 1.270676001485088191e-13 6.301627649600918812e-14 2.039132929418136127e-15
3.198000000000000000e+03 9.474041938781738281e+00 1.139169311523437500e+01 -1.405048495085881033e-13 -1.059673114772556601e-13 -7.394164626287405562e-14 1.767753017535220184e-13
3.199000000000000000e+03 1.032961940765380859e+01 9.582151412963867188e+00 9.067306774119751611e-14 1.646749956448617658e-13 7.660441969344414237e-14 -9.829575440276419607e-14
3.200000000000000000e+03 1.239683914184570312e+01 1.466381931304931641e+01 5.368136355354477529e-14 -6.849559710652569633e-14 -4.444270489410749939e-15 -1.453468693058540540e-13
3.201000000000000000e+03 8.322617530822753906e+00 1.002064800262451172e+01 -2.392061531221022913e-14 8.125020567375379477e-14 1.719887693905648024e-14 1.399182554756919772e-14
3.202000000000000000e+03 4.622497177124023438e+01 3.127507019042968750e+01 6.316496127143841899e-14 4.960179402629938394e-13 1.677548616511870261e-13 -1.074862956615667969e-14
3.203000000000000000e+03 9.657862663269042969e+00 1.446782875061035156e+01 -1.328140071879535533e-13 -1.026712352289460561e-13 -7.064557679082802966e-14 2.622216815429193049e-14
3.204000000000000000e+03 9.434892654418945312e+00 1.372064113616943359e+01 -2.029794247179056432e-13 3.247673668622247378e-13 3.653637993279029716e-14 4.236731408410743249e-14
3.205000000000000000e+03 9.327889442443847656e+00 1.565096855163574219e+01 1.096902923309814315e-14 9.620291217295184882e-14 3.215158174418863979e-14 5.768425152688841373e-14
3.206000000000000000e+03 4.820493316650390625e+01 7.754544734954833984e+00 1.429641859540184412e-13 -2.589862731824238429e-13 -3.480662345801618929e-14 1.119177264020465926e-14
3.207000000000000000e+03 9.991822242736816406e+00 1.511469745635986328e+01 -1.707169561965260485e-13 2.470922229845518014e-13 2.291258511860540942e-14 2.590189483253971248e-14
3.208000000000000000e+03 1.064068698883056641e+01 3.164120292663574219e+01 4.834142729669664573e-14 1.808460743353904054e-13 6.875625286131836766e-14 -3.995977200933580054e-14
3.209000000000000000e+03 1.238494110107421875e+01 3.096149635314941406e+01 -3.915238359214479047e-14 1.890996717936535565e-13 4.498418849333170322e-14 -2.522210854072077374e-15
3.210000000000000000e+03 5.090710830688476562e+01 8.267119407653808594e+00 -3.477231862365239012e-14 -1.064043194916666768e-13 -4.235299245103525678e-14 -2.080528403638343127e-14
3.211000000000000000e+03 4.911338043212890625e+01 3.406245040893554688e+01 4.674834467015970274e-14 2.745246521426714104e-13 9.638190039910204954e-14 1.179927906953554678e-14
3.212000000000000000e+03 6.526978302001953125e+01 7.596161842346191406e+00 8.824998430590966225e-14 -7.655594908007046229e-14 3.508209085444102295e-15 -2.801261792786859800e-14
3.213000000000000000e+03 6.328673171997070312e+01 6.912240028381347656e+00 -5.527902015799689150e-14 -2.369100839713211143e-14 -2.369100839713211143e-14 3.907326393860766078e-14
3.214000000000000000e+03 6.837151336669921875e+01 5.239061832427978516e+00 9.198264844028844478e-14 3.942113698191321292e-14 3.942113698191321292e-14 -6.780245310512855728e-14
3.215000000000000000e+03 5.121350860595703125e+01 3.205579757690429688e+01 -2.493341260724219605e-14 1.380048419291624029e-13 3.392142659429039919e-14 2.413701528957475778e-14
3.216000000000000000e+03 4.775952148437500000e+01 3.511608123779296875e+01 -5.916014883923861878e-14 3.692475741400719214e-13 9.302623368888721100e-14 2.301702766913365367e-14
3.217000000000000000e+03 6.625433349609375000e+01 1.341133975982666016e+01 1.977055367021526150e-14 1.457259470429364545e-13 4.964894801165985194e-14 -4.915288824829805447e-14
3.218000000000000000e+03 6.811254882812500000e+01 1.216719436645507812e+01 -2.195782313298751814e-14 5.921592426474941995e-14 1.117743067834174944e-14 -3.079119600892139819e-14
3.219000000000000000e+03 5.370376586914062500e+01 1.009904575347900391e+01 5.953471358477804842e-14 5.017749657074653535e-14 3.291366406309691184e-14 -4.198125001927607847e-14
3.220000000000000000e+03 1.074870300292968750e+01 3.694764709472656250e+01 -1.051261603267870937e-13 2.357235602188072904e-14 -2.446614010562578323e-14 -2.600918849596841470e-15
3.221000000000000000e+03 6.745962524414062500e+01 1.785793495178222656e+01 -5.224143464826677685e-15 -7.086534457119084141e-14 -2.282684505555254012e-14 -9.030608563460190696e-14
3.222000000000000000e+03 6.795592498779296875e+01 1.020971298217773438e+01 -7.189649537612391450e-14 -1.079674273162661846e-14 -2.480797041588562318e-14 -2.692741964463712251e-14
3.223000000000000000e+03 4.321883010864257812e+01 3.962273788452148438e+01 -3.469062737808739638e-14 3.168269683065383369e-13 8.464090566666707116e-14 -1.137277934586816697e-14
3.224000000000000000e+03 4.896960830688476562e+01 3.671416854858398438e+01 1.553799610135540854e-14 2.582893480259501606e-13 8.214820967564206988e-14 2.257351274762182947e-14
3.225000000000000000e+03 6.902739715576171875e+01 1.307453823089599609e+01 4.503971658522190613e-14 -1.858476853043144333e-14 7.936484416437138839e-15 -1.258308100727731360e-13
3.226000000000000000e+03 7.032123565673828125e+01 2.175555992126464844e+01 3.960385215303133255e-14 -5.165334306111990514e-14 -3.614847780646340131e-15 -9.732250677010542694e-14
3.227000000000000000e+03 6.122631835937500000e+01 7.476433753967285156e+00 -5.879508441523559337e-14 -2.519789356282466780e-14 -2.519789356282466780e-14 -8.718792018653359621e-14
3.228000000000000000e+03 6.379067230224609375e+01 7.612260341644287109e+00 5.209838772413447061e-15 -1.492381759349899889e-14 -2.914193773380607637e-15 -9.753345863155321593e-14
3.229000000000000000e+03 6.855512237548828125e+01 7.178686618804931641e+00 5.776506524632005202e-14 7.050740877647190819e-14 3.848174356209030367e-14 -8.887500652955682146e-14
3.230000000000000000e+03 6.708965301513671875e+01 1.554305362701416016e+01 3.227406948462518965e-14 -7.767015654767950306e-14 -1.361882527188334677e-14 -9.756149881023912229e-14
3.231000000000000000e+03 6.499535369873046875e+01 1.610585784912109375e+01 1.184742188115863945e-14 -1.321753850033052791e-13 -3.609838597202867649e-14 -9.244723584746206146e-14
3.232000000000000000e+03 1.217651462554931641e+01 3.835131072998046875e+01 -2.352928100838105885e-14 2.422923346060822797e-14 2.099861115390210800e-16 -3.467717310675320908e-14
3.233000000000000000e+03 1.326385116577148438e+01 3.685446548461914062e+01 -6.861088167877879562e-14 -6.943674557861531649e-14 -4.141428682196551803e-14 3.777013763057480988e-14
3.234000000000000000e+03 1.439268398284912109e+01 7.940723419189453125e+00 -6.239775948539694195e-14 1.562618984944988410e-13 2.815924271917010641e-14 -1.039758963606793318e-13
3.235000000000000000e+03 4.709254837036132812e+01 2.499599075317382812e+01 -1.127362431380986296e-13 1.346882674835292448e-13 6.585604931936932249e-15 1.265742881600279146e-13
3.236000000000000000e+03 1.463341426849365234e+01 7.443728923797607422e+00 3.905100052462202875e-14 -2.120185944127703226e-13 -5.189028189338945607e-14 -2.415805050578687108e-14
3.237000000000000000e+03 4.560531616210937500e+01 1.570681476593017578e+01 1.046797959864407060e-14 5.077467309447247779e-13 1.554644135865271282e-13 2.751916262141301805e-13
3.238000000000000000e+03 4.530760574340820312e+01 2.275663757324218750e+01 7.278996605767848460e-14 1.312222249263972351e-12 4.155036774713960490e-13 -3.407684019945261822e-14
3.239000000000000000e+03 4.560476303100585938e+01 2.330369186401367188e+01 1.192097635882571893e-13 7.487918705223473026e-13 2.604004793911596227e-13 5.868196147106388705e-14
3.240000000000000000e+03 4.614880752563476562e+01 1.829047393798828125e+01 6.349271558818078698e-14 -2.930454815440464156e-13 -6.886583181963876199e-14 1.404279660220317250e-13
3.241000000000000000e+03 4.574697875976562500e+01 1.920842552185058594e+01 -1.089240798794223475e-13 -1.839346004065683937e-13 -8.785760476342358016e-14 1.632870948913359155e-13
3.242000000000000000e+03 4.554848098754882812e+01 2.047289466857910156e+01 1.565703946701524352e-13 1.128525441498884341e-13 8.082687893550682956e-14 2.309475852745046520e-13
3.243000000000000000e+03 4.533975601196289062e+01 2.183769035339355469e+01 -8.144971242601828365e-14 9.716138484050507174e-13 2.670492407937097301e-13 4.835625037327359599e-14
3.244000000000000000e+03 4.565978622436523438e+01 2.259878158569335938e+01 -1.152098029607792617e-13 4.996357602822520949e-13 1.153277912621999968e-13 1.080705281666059780e-13
3.245000000000000000e+03 4.593237304687500000e+01 2.203948020935058594e+01 -5.232422026039962315e-14 8.010924280703324296e-13 2.246304542114635483e-13 1.903506649178487997e-13
3.246000000000000000e+03 4.556203079223632812e+01 2.129830932617187500e+01 1.334005105883243232e-15 7.325868969614013348e-13 2.201762670838228186e-13 1.229533510595237633e-13
3.247000000000000000e+03 4.522837448120117188e+01 2.145158767700195312e+01 5.278561520039503838e-15 5.512736534624140816e-13 1.669656573373076713e-13 -1.976663461817490530e-13
3.248000000000000000e+03 4.520642089843750000e+01 2.044527053833007812e+01 7.609303541000062010e-14 7.188755341870634030e-13 2.384905695238664913e-13 -1.043262969502994908e-13
3.249000000000000000e+03 4.572960662841796875e+01 2.456015014648437500e+01 -1.614769634601968470e-15 3.653155523312273667e-13 1.091102306161745306e-13 -1.782743061246733207e-13
3.250000000000000000e+03 4.571824264526367188e+01 1.785686492919921875e+01 1.286549127866090658e-13 5.513781637755781062e-14 5.513781637755781062e-14 1.731957134133710330e-13
3.251000000000000000e+03 4.586327743530273438e+01 2.502497100830078125e+01 6.919355225506323981e-14 1.211562724061018836e-13 5.710494875360225264e-14 -1.888705663220802133e-13
3.252000000000000000e+03 4.552064514160156250e+01 1.246256256103515625e+01 -2.070851763723638439e-13 7.347663059584230716e-13 1.583043320995541903e-13 6.182040827602125477e-14
3.253000000000000000e+03 1.379786109924316406e+01 1.024654102325439453e+01 4.774759960243096790e-14 -3.912952861034879604e-13 -1.030643059503170977e-13 -5.284607387107120857e-14
3.254000000000000000e+03 1.207608699798583984e+01 9.577454566955566406e+00 -1.832760932764503775e-14 2.666510133357558043e-13 7.449701527320259919e-14 -8.924383177984565596e-15
3.255000000000000000e+03 4.593394470214843750e+01 2.551086425781250000e+01 7.657329631483023036e-14 4.903266377989656810e-13 1.700699721026224798e-13 4.365817196693225211e-14
3.256000000000000000e+03 4.583872222900390625e+01 2.644574356079101562e+01 6.226177342791294755e-14 3.926911964005630473e-13 1.364859017905645233e-13 -3.510756748791206416e-14
3.257000000000000000e+03 1.181322479248046875e+01 1.579716300964355469e+01 -8.310146055448205948e-14 2.846417220848940222e-13 6.046207913674994661e-14 -1.373534126063516436e-13
3.258000000000000000e+03 1.156346321105957031e+01 1.624604606628417969e+01 1.278247626883012014e-16 2.288095385903632373e-13 6.868120574219163665e-14 -1.520411265420670843e-13
3.259000000000000000e+03 4.616708755493164062e+01 1.056496429443359375e+01 1.503852652216114416e-13 -1.185529674646926268e-13 9.549688310636107735e-15 1.328232906690554604e-13
3.260000000000000000e+03 4.529373931884765625e+01 1.744783592224121094e+01 1.764657213756959386e-13 -1.587373116252680655e-14 4.817759757217050798e-14 1.447987508975540072e-13
3.261000000000000000e+03 4.614396286010742188e+01 1.782973098754882812e+01 2.203501155140490803e-14 1.924473763941642046e-13 6.434471553663778653e-14 8.041717926331529154e-14
3.262000000000000000e+03 4.563354873657226562e+01 1.612210655212402344e+01 -1.604691179197745288e-13 -2.975272209593954331e-13 -1.373989084400145666e-13 3.594232387844203958e-13
3.263000000000000000e+03 1.350576686859130859e+01 1.127549743652343750e+01 2.255107721654131536e-13 2.796512750102148059e-13 1.515486141526883879e-13 3.025969977517826981e-14
3.264000000000000000e+03 1.335932350158691406e+01 1.032438373565673828e+01 1.240468773706926431e-13 9.891389871887965035e-14 6.688823350449804583e-14 -1.919266883008280411e-13
3.265000000000000000e+03 1.146388339996337891e+01 9.153563499450683594e+00 -1.154807450836833893e-13 4.201015078343639519e-14 -2.204117795126091933e-14 -7.432552837083328257e-14
3.266000000000000000e+03 4.592792510986328125e+01 2.599069404602050781e+01 -4.939631535294357334e-14 5.278415508500056141e-13 1.435335682774263599e-13 -1.598070905207277237e-13
3.267000000000000000e+03 1.137970352172851562e+01 1.013856792449951172e+01 3.729162161361654348e-14 1.598212427472104485e-14 1.598212427472104485e-14 -1.146726756520027868e-13
3.268000000000000000e+03 4.503538131713867188e+01 9.628795623779296875e+00 1.849125507661503187e-13 -5.800461294006714619e-14 3.807237931494587835e-14 1.774427908210127192e-13
3.269000000000000000e+03 4.564694213867187500e+01 1.055294418334960938e+01 2.595677308075278189e-13 -2.600953916760857798e-14 7.006745308740444655e-14 8.908250588471160192e-15
3.270000000000000000e+03 1.281176471710205078e+01 1.239338111877441406e+01 1.479895443386516907e-13 1.549259852351436706e-13 9.087466158264403959e-14 -2.174129745593361696e-13
3.271000000000000000e+03 4.497908782958984375e+01 1.261023712158203125e+01 -4.225730483304983298e-14 1.648935165927262192e-13 3.679086589959516818e-14 1.492610860586308496e-15
3.272000000000000000e+03 1.292057895660400391e+01 1.198933887481689453e+01 2.299728604163858714e-13 9.855979828934588460e-14 9.855979828934588460e-14 -3.581669817739744407e-16
3.273000000000000000e+03 1.368297863006591797e+01 9.784624099731445312e+00 8.431916867198199772e-14 -9.614161917482263314e-15 2.241150244986639395e-14 -4.675426373639511579e-14
3.274000000000000000e+03 1.036196613311767578e+01 1.833394432067871094e+01 -5.994334938358783504e-14 1.115628382318718803e-13 1.548584597685885578e-14 4.049999268243564821e-14
3.275000000000000000e+03 4.492922210693359375e+01 9.086313247680664062e+00 3.096253180061292465e-13 4.119466811940142303e-14 1.052459985481646321e-13 -4.664543101410125250e-15
3.276000000000000000e+03 4.669983291625976562e+01 8.357662200927734375e+00 2.337060124417422724e-13 -3.709312791275697074e-14 5.898386434225605379e-14 2.432133474109497706e-14
3.277000000000000000e+03 4.566338729858398438e+01 1.654728126525878906e+01 1.251275287810632575e-13 4.196336745969364568e-13 1.634283528818836206e-13 5.735444400228190132e-14
3.278000000000000000e+03 4.547736740112304688e+01 8.976950645446777344e+00 1.895599427209279653e-13 2.184928263706045759e-13 1.224158307274597624e-13 4.582775538176583896e-14
3.279000000000000000e+03 4.554706192016601562e+01 9.541916847229003906e+00 3.889748766139344838e-13 3.039563772119086016e-13 2.078793680162366320e-13 1.567276243139535674e-14
3.280000000000000000e+03 1.104735851287841797e+01 1.721242523193359375e+01 3.777798708489701549e-16 4.576713899355489001e-13 1.374147513442600110e-13 -1.700163176476116034e-13
3.281000000000000000e+03 4.518376922607421875e+01 1.483398818969726562e+01 -1.425596430184097874e-13 3.049106106489674062e-13 4.870528554578278102e-14 2.109401249592718353e-13
3.282000000000000000e+03 4.560121536254882812e+01 1.530172729492187500e+01 -1.665053050948703262e-13 1.116443770115063683e-13 -1.645828045788826077e-14 3.377385719184611279e-13
3.283000000000000000e+03 4.469184112548828125e+01 7.896847724914550781e+00 3.848239543864651058e-13 -1.553321002639024284e-13 6.884755623676880321e-14 -1.920009900309611883e-14
3.284000000000000000e+03 4.604139328002929688e+01 8.312117576599121094e+00 1.648784360181333036e-14 -1.759375793924239373e-13 -4.783491853489751922e-14 1.074030255465881212e-13
3.285000000000000000e+03 4.558082962036132812e+01 1.469881057739257812e+01 -3.768690139691402430e-15 1.813886362075564640e-13 5.328598551442541298e-14 3.226207007708120633e-13
3.286000000000000000e+03 4.518857192993164062e+01 1.314465236663818359e+01 1.130482494182856457e-13 7.347135053126230275e-13 2.543285135443718037e-13 6.688545523643105173e-14
3.287000000000000000e+03 1.079818058013916016e+01 1.882766914367675781e+01 1.113369514854981035e-13 6.882290961088277648e-13 2.398698102125396137e-13 -9.581314826820688801e-14
3.288000000000000000e+03 4.612384796142578125e+01 2.703701019287109375e+01 1.153340118721646324e-13 4.154364569367019477e-13 1.592311352216491116e-13 -1.619492707256517394e-13
3.289000000000000000e+03 1.211363983154296875e+01 2.873290634155273438e+01 7.478134729293692273e-14 2.150529510329055038e-13 8.695029017537908578e-14 -2.875020235987638118e-14
3.290000000000000000e+03 1.151467418670654297e+01 1.376239109039306641e+01 -1.037574160703963466e-13 1.385363313866419532e-13 1.043367307021437693e-14 -1.714671563372502372e-13
3.291000000000000000e+03 4.578292846679687500e+01 1.498994827270507812e+01 1.717432653611326160e-14 2.818661103132225065e-13 8.971213257946003550e-14 2.730618194664996556e-13
3.292000000000000000e+03 1.041691970825195312e+01 2.254172134399414062e+01 -6.295630656334358366e-14 3.447451742480400760e-13 8.453666640404616794e-14 -1.722283882350794659e-13
3.293000000000000000e+03 1.126310348510742188e+01 1.922748374938964844e+01 6.818340786722207336e-14 6.697347212404614059e-13 2.213754488967004108e-13 -8.622488438308692493e-14
3.294000000000000000e+03 1.132990837097167969e+01 1.674314117431640625e+01 -1.392430279151951611e-13 4.435848389994223595e-13 9.130254874627902195e-14 2.352585391307646795e-14
3.295000000000000000e+03 1.069126319885253906e+01 1.648064613342285156e+01 1.438982667831961715e-13 2.217990060279090292e-13 1.097091777775734134e-13 -2.070007712332358474e-13
3.296000000000000000e+03 4.421232223510742188e+01 7.340587615966796875e+00 3.686305817887647329e-13 -2.501925600831463037e-14 1.030834014610799987e-13 2.571630144346682273e-14
3.297000000000000000e+03 4.588459396362304688e+01 2.840682792663574219e+01 1.871626090872366421e-13 7.207258336146271649e-13 2.723665206132847016e-13 -3.698454845331433649e-14
3.298000000000000000e+03 4.591407775878906250e+01 2.882467079162597656e+01 3.900864887725931374e-14 5.657293752382719365e-13 1.814214062182198384e-13 2.478766957723877937e-15
3.299000000000000000e+03 1.153498840332031250e+01 2.106597709655761719e+01 1.051600890785223119e-13 3.195743095065622930e-13 1.274203182202726659e-13 -7.970775867680371385e-14
3.300000000000000000e+03 1.254731941223144531e+01 1.392809104919433594e+01 2.722589677577741396e-13 4.826900055869554063e-13 2.264846838719025701e-13 -1.200830054289654322e-14
3.301000000000000000e+03 1.038684940338134766e+01 2.691357421875000000e+01 1.445467416550869078e-13 1.619765350221579608e-14 4.822331702253150609e-14 -3.899540805822783451e-14
3.302000000000000000e+03 4.486851119995117188e+01 6.562162876129150391e+00 2.828934189767068341e-13 -1.761411383503080907e-13 3.202568215504054960e-14 1.153529854101831287e-13
3.303000000000000000e+03 1.165303516387939453e+01 1.515928363800048828e+01 -7.640219565948486169e-14 1.159467893875262834e-13 1.186337659375312145e-14 -1.173017032899542622e-13
3.304000000000000000e+03 1.191000843048095703e+01 1.486060619354248047e+01 1.032662928150511472e-13 2.730117293261308253e-13 1.128834032542228027e-13 -4.406862041624916293e-14
3.305000000000000000e+03 4.574937057495117188e+01 1.219697189331054688e+01 1.722360047553411766e-13 4.398230098266037169e-13 1.836177016640780368e-13 2.498113207179825102e-13
3.306000000000000000e+03 1.382383251190185547e+01 7.823264122009277344e+00 -1.086346097578299794e-14 -4.655769110625991580e-15 -4.655769110625991580e-15 -9.937985493129602999e-14
3.307000000000000000e+03 1.230942344665527344e+01 8.125244140625000000e+00 -2.411472985273249714e-13 -1.033488412579587623e-13 -1.033488412579587623e-13 1.953734076647409279e-13
3.308000000000000000e+03 4.709944152832031250e+01 2.970779228210449219e+01 9.179235063022650465e-14 3.824716964580948675e-13 1.422792141264964116e-13 -7.238494539548757933e-15
3.309000000000000000e+03 4.779589462280273438e+01 8.241733551025390625e+00 2.804439623235732704e-13 -3.959376229656363932e-13 -3.464809615973986345e-14 3.211033801592093340e-14
3.310000000000000000e+03 5.076797866821289062e+01 9.108497619628906250e+00 2.542776373574279214e-13 1.547270747940740487e-13 1.227014095796924442e-13 -4.599620990618398519e-14
3.311000000000000000e+03 4.643532562255859375e+01 2.892502784729003906e+01 6.646048186613462416e-14 4.402415931803460580e-13 1.520106198034387734e-13 3.920736280668517260e-14
3.312000000000000000e+03 1.074388980865478516e+01 1.173851490020751953e+01 -1.440099938170708027e-13 1.212852247019918783e-13 -6.817430226303908963e-15 1.839517172483665086e-13
3.313000000000000000e+03 1.308473110198974609e+01 1.084941387176513672e+01 -3.949051914468870716e-14 -1.692450772084776178e-14 -1.692450772084776178e-14 -1.759664327227392078e-13
3.314000000000000000e+03 4.533720779418945312e+01 7.764181137084960938e+00 1.955831601275354048e-13 3.807040403411288132e-14 7.009606924849448584e-14 1.737449702339521895e-13
3.315000000000000000e+03 1.073448467254638672e+01 2.031304740905761719e+01 1.437794517776189163e-13 3.590009420382372918e-13 1.508341113684932844e-13 -1.754681605093191821e-13
3.316000000000000000e+03 1.034189796447753906e+01 1.097679138183593750e+01 -1.071422342665238892e-13 4.558379634042944439e-14 -1.846753239426787013e-14 1.000143571476888593e-13
3.317000000000000000e+03 1.113763999938964844e+01 8.714159011840820312e+00 -4.547432580232629862e-14 1.263421469223716120e-13 2.426034667482677293e-14 -1.931222244839006508e-14
3.318000000000000000e+03 1.155603599548339844e+01 8.315646171569824219e+00 -6.395596129516595285e-14 -1.189115944382965195e-13 -5.486026739766509952e-14 -4.993545860013451354e-14
3.319000000000000000e+03 1.240593528747558594e+01 8.870408058166503906e+00 3.448377854423610722e-14 7.196744963204951273e-14 3.193536811407250708e-14 6.909346006575209365e-14
3.320000000000000000e+03 5.228083801269531250e+01 8.886334419250488281e+00 2.210451738099070140e-13 3.754495900374493766e-14 7.757703713359015429e-14 -9.182244571084244994e-15
3.321000000000000000e+03 5.110391235351562500e+01 1.109733867645263672e+01 -7.573106435032096739e-15 8.825627945477365621e-14 2.420495241414223619e-14 8.279852091496245348e-14
3.322000000000000000e+03 1.105007457733154297e+01 2.825528335571289062e+01 6.072879287118138070e-14 2.547813576867646868e-13 9.465304516738382024e-14 -4.154975449528579279e-14
3.323000000000000000e+03 6.512889862060546875e+01 9.539826393127441406e+00 3.183302281712166448e-14 -1.121723834695068089e-13 -2.410180751808918553e-14 -4.317424171537513622e-14
3.324000000000000000e+03 4.890727615356445312e+01 8.285498619079589844e+00 1.285995642657036808e-13 -1.278896964457959529e-13 2.129575428226585681e-16 4.166738026660510297e-14
3.325000000000000000e+03 4.581859588623046875e+01 1.157029247283935547e+01 1.944832776811303288e-13 2.005867802586103199e-13 1.185210106056586166e-13 3.182801515833749706e-13
3.326000000000000000e+03 4.731187057495117188e+01 8.693009376525878906e+00 1.687229999811079573e-13 2.655891118467056111e-14 5.858457301092037661e-14 -1.949942892700770591e-13
3.327000000000000000e+03 5.651591491699218750e+01 1.004548740386962891e+01 9.509604339879781931e-14 8.650639747717278616e-14 5.448073226279118164e-14 -1.144669889473551305e-13
3.328000000000000000e+03 5.580171585083007812e+01 1.070703029632568359e+01 6.868715530161315086e-14 -7.895307942585444438e-14 -3.079776220832851352e-15 -1.482960618453404988e-13
3.329000000000000000e+03 1.226556110382080078e+01 1.337006759643554688e+01 1.962813050114531332e-13 6.267480024552130047e-14 7.768683293234504572e-14 -1.638489013520635917e-13
3.330000000000000000e+03 1.091962814331054688e+01 1.392794418334960938e+01 2.552906481047625964e-14 -8.056086993248751105e-14 -1.650954119779019652e-14 9.626997685358365531e-14
3.331000000000000000e+03 4.704273605346679688e+01 3.199031448364257812e+01 8.762719824924325440e-14 2.952610215784662318e-13 1.148664632378074146e-13 1.263061564924427768e-14
3.332000000000000000e+03 6.610704803466796875e+01 1.048216533660888672e+01 -4.222161764091611480e-14 -3.239214926560422814e-14 -2.238412973314292398e-14 -3.486074208708216104e-14
3.333000000000000000e+03 5.964350128173828125e+01 8.888648033142089844e+00 7.807704407048615680e-14 3.346158934788498462e-14 3.346158934788498462e-14 -6.754172281143652756e-14
3.334000000000000000e+03 5.726642227172851562e+01 9.353246688842773438e+00 9.338697485672745047e-15 4.975324826065295747e-14 1.772758304627135295e-14 -1.683573527984372209e-13
3.335000000000000000e+03 4.733052062988281250e+01 1.583079433441162109e+01 8.273055499127476842e-14 -5.604594750536345815e-14 8.005382076366803629e-15 -4.797837288187745478e-15
3.336000000000000000e+03 6.718017578125000000e+01 1.128406715393066406e+01 7.490229682154125879e-14 -3.080657135097995825e-14 1.322871662472885346e-14 -6.070103729556575178e-14
3.337000000000000000e+03 6.669573211669921875e+01 1.918615913391113281e+01 -3.790142434926743742e-14 -2.196233612453048906e-14 -1.795912797273278849e-14 -6.099957744595731896e-15
3.338000000000000000e+03 6.190345382690429688e+01 8.144450187683105469e+00 -9.454993076451687073e-14 -6.339687211613306839e-14 -4.738404289707405515e-14 -7.724317062710039927e-14
3.339000000000000000e+03 6.046376800537109375e+01 8.090590476989746094e+00 5.967161189674623570e-15 2.557354886328368736e-15 2.557354886328368736e-15 -1.368681643715286000e-13
3.340000000000000000e+03 6.256391906738281250e+01 1.432220363616943359e+01 1.142017253333293958e-13 4.894359995955867293e-14 4.894359995955867293e-14 1.629160300859345406e-14
3.341000000000000000e+03 1.040242385864257812e+01 4.012422943115234375e+01 -8.224720411025357447e-14 5.625309449481218083e-14 -7.798233392852186446e-15 5.819876983223677691e-15
3.342000000000000000e+03 5.577337646484375000e+01 9.254164695739746094e+00 1.726503529443472462e-14 7.399300356453197836e-15 7.399300356453197836e-15 -1.820925138104612095e-13
3.343000000000000000e+03 6.697869110107421875e+01 9.345877647399902344e+00 4.225220569470736209e-14 -3.765088216786498243e-14 1.380397100404361262e-15 -3.499760905883129991e-14
3.344000000000000000e+03 6.845402526855468750e+01 2.238434410095214844e+01 3.930206109018820337e-14 -1.204091080314606543e-13 -2.433211408238173529e-14 -8.314747816044049111e-14
3.345000000000000000e+03 6.625537109375000000e+01 1.694301033020019531e+01 -3.298286665488758818e-14 -8.416646218411920344e-15 -1.241985437020962091e-14 -7.527120169292713520e-15
3.346000000000000000e+03 6.462352752685546875e+01 2.554962730407714844e+01 3.982429078348836970e-14 7.711567522787968199e-14 3.508199048103677331e-14 1.013199381572028532e-14
3.347000000000000000e+03 6.344793701171875000e+01 2.423949050903320312e+01 4.066241972040113284e-14 -7.407514543162491139e-14 -1.002381754396054411e-14 -6.718260794685501636e-14
3.348000000000000000e+03 5.070924377441406250e+01 3.867415618896484375e+01 -6.426339359743779567e-14 2.326670757099580378e-13 5.052110395612971483e-14 2.245881771030001917e-14
3.349000000000000000e+03 4.783677673339843750e+01 3.099092483520507812e+01 2.724417777965823517e-14 3.834025382332822973e-13 1.231940168367612332e-13 3.672869029313491351e-14
3.350000000000000000e+03 4.609321212768554688e+01 2.397396659851074219e+01 -3.006594607069153213e-14 5.361259938600759778e-13 1.518180112874967236e-13 -1.103164258618553883e-13
3.351000000000000000e+03 4.574207687377929688e+01 2.297934532165527344e+01 -7.419444155191620704e-14 7.459684996449778005e-13 2.015322181055448358e-13 -7.311474559471009549e-14
3.352000000000000000e+03 4.624762725830078125e+01 2.444289588928222656e+01 1.851129790902614203e-13 3.995907608706633640e-13 1.754111179225192885e-13 -1.008484609840362700e-13
3.353000000000000000e+03 4.570775604248046875e+01 1.741590881347656250e+01 -1.554767734912934629e-13 -1.123838503269865285e-13 -8.035818511260492403e-14 1.652025277644117440e-13
3.354000000000000000e+03 4.585245895385742188e+01 2.358299255371093750e+01 -9.229294032579021811e-14 7.839629553169080722e-13 2.075010085630935031e-13 -1.749830613522948553e-13
3.355000000000000000e+03 4.680369949340820312e+01 2.677490615844726562e+01 -9.603742904011267068e-14 3.934751287813786913e-13 8.923130924475344838e-14 5.972390686387676895e-14
3.356000000000000000e+03 4.574431610107421875e+01 2.165464591979980469e+01 3.260465966767496504e-14 7.459886115952774066e-13 2.335779681651717343e-13 9.346949619458075342e-14
3.357000000000000000e+03 4.612483978271484375e+01 2.081162452697753906e+01 6.469538717680106688e-14 4.852360917587117406e-13 1.649794396148956954e-13 2.730099403925462243e-13
3.358000000000000000e+03 1.316896057128906250e+01 1.292823314666748047e+01 2.664509848111958068e-14 3.774269308545741275e-13 1.212216091395212914e-13 -1.668996700825847723e-13
3.359000000000000000e+03 1.266801929473876953e+01 1.322561264038085938e+01 1.014009771873984611e-13 3.179632663934117698e-13 1.258092751071221427e-13 -3.326679548693901867e-14
3.360000000000000000e+03 4.594123840332031250e+01 1.528415870666503906e+01 4.527127675827639225e-15 4.594496983388596245e-13 1.391930461950435793e-13 1.801099823754356843e-13
3.361000000000000000e+03 4.562994003295898438e+01 2.078960037231445312e+01 4.402354132279628907e-14 5.678786434148985762e-13 1.835706472897921659e-13 2.288759459734279744e-13
3.362000000000000000e+03 4.634585952758789062e+01 2.047392654418945312e+01 1.668479570270890028e-14 1.901544243246289234e-13 6.205176346710250534e-14 8.305507025402683596e-14
3.363000000000000000e+03 4.607778167724609375e+01 2.246029281616210938e+01 2.707091278572604232e-13 7.565315019407437003e-13 3.081721889394012370e-13 8.323654536891017530e-14
3.364000000000000000e+03 4.655547714233398438e+01 2.010746002197265625e+01 4.066246037798260105e-15 4.749362524352623849e-14 1.546796172321052848e-14 7.811463878081709167e-14
3.365000000000000000e+03 4.611698913574218750e+01 2.142093658447265625e+01 -3.154049829472149735e-14 6.269959052819518153e-13 1.786366329381908202e-13 9.671994108395587375e-14
3.366000000000000000e+03 4.568918991088867188e+01 1.697933197021484375e+01 2.130989747725978156e-13 -1.737674062309008246e-16 6.387755992556809481e-14 2.354883866031998174e-13
3.367000000000000000e+03 4.584228515625000000e+01 2.057238197326660156e+01 4.554784148588439385e-14 2.025243037509505406e-13 7.442164289342412253e-14 1.376343293892426378e-13
3.368000000000000000e+03 4.630417251586914062e+01 2.497356796264648438e+01 5.313428191357216779e-14 2.057756363308543834e-13 7.767297547332796537e-14 1.526828251503797862e-13
3.369000000000000000e+03 4.588037490844726562e+01 1.256892967224121094e+01 7.485594040240392544e-14 -5.942078426524055601e-14 4.630546587039126652e-15 1.018637892135146328e-13
3.370000000000000000e+03 4.528521347045898438e+01 1.362882232666015625e+01 1.092606433388161602e-13 1.840788399530904340e-13 8.800184430994562046e-14 1.358948405059045780e-14
3.371000000000000000e+03 4.600074386596679688e+01 1.566032505035400391e+01 -9.319467804890999019e-14 2.345651071381654740e-13 4.241112940440300294e-14 3.206636684156306816e-14
3.372000000000000000e+03 1.202876472473144531e+01 1.456706333160400391e+01 -3.109851989097599245e-14 -1.332793721713727494e-14 -1.332793721713727494e-14 5.803705769007877491e-14
3.373000000000000000e+03 4.586275863647460938e+01 1.368671989440917969e+01 9.143045072131442130e-14 7.711996731323000898e-13 2.587890297021944175e-13 -3.684090521798716322e-14
3.374000000000000000e+03 4.613632202148437500e+01 1.738213539123535156e+01 4.603905960891968574e-14 -1.632727698701319508e-13 -3.517011240073732170e-14 1.448754446487302006e-13
3.375000000000000000e+03 1.262098598480224609e+01 9.380602836608886719e+00 9.633367373121717869e-14 -5.021603656984660602e-14 1.383529047078481400e-14 4.296299508646170273e-14
3.376000000000000000e+03 4.638869476318359375e+01 2.552483749389648438e+01 -6.195985022793004671e-14 2.479514803113008758e-13 5.579748563687945973e-14 -8.178162736859756476e-14
3.377000000000000000e+03 4.628908920288085938e+01 2.658070945739746094e+01 1.025829405145242679e-14 5.991587434528433675e-13 1.828251092184096649e-13 -1.415749333359087730e-14
3.378000000000000000e+03 1.084387302398681641e+01 9.903039932250976562e+00 -1.316262094978870589e-13 -1.066028572382395068e-14 -4.268595093820555519e-14 1.394598819022194180e-13
3.379000000000000000e+03 1.201025772094726562e+01 8.581478118896484375e+00 1.220091193875061375e-13 2.581688931645870211e-13 1.140534064761333788e-13 -5.166366669868104056e-14
3.380000000000000000e+03 1.301341819763183594e+01 1.158368968963623047e+01 2.073821800049890918e-13 -2.623821349941176870e-15 6.142750696123966403e-14 -2.081960499182924917e-13
3.381000000000000000e+03 1.225908756256103516e+01 1.012475013732910156e+01 5.722220437152361269e-15 -2.042309430025281841e-14 -4.410262116578489780e-15 -7.923889883544414647e-15
3.382000000000000000e+03 1.292673110961914062e+01 1.043388938903808594e+01 7.223925572855983968e-15 -8.840592645963096796e-14 -2.435460111306544245e-14 -5.563939201947212809e-14
3.383000000000000000e+03 4.561113357543945312e+01 1.006724834442138672e+01 1.957276436195462543e-13 3.813232891882074871e-14 7.015799074507056421e-14 1.451493141175000390e-13
3.384000000000000000e+03 4.614079666137695312e+01 1.002351474761962891e+01 4.608977045503226400e-13 2.432785418428340396e-13 2.112528766284524351e-13 6.294843932132948572e-14
3.385000000000000000e+03 4.613805389404296875e+01 1.912553215026855469e+01 3.584594304869258286e-15 2.760419388729562495e-13 8.388796113919377850e-14 7.131900186521308860e-14
3.386000000000000000e+03 4.604925537109375000e+01 1.607323265075683594e+01 -1.136532681118504473e-13 -2.957594682806733918e-15 -3.498326032070481206e-14 1.084790606273961996e-14
3.387000000000000000e+03 4.608792114257812500e+01 1.650293159484863281e+01 1.884379832077856531e-13 3.500819019440840063e-14 6.703385540879000515e-14 1.090606622481012089e-13
3.388000000000000000e+03 1.211985874176025391e+01 1.185647487640380859e+01 1.117945593411863447e-13 -4.358994176896502371e-14 2.046138527166639631e-14 4.802185870635654330e-14
3.389000000000000000e+03 1.251667022705078125e+01 1.185217475891113281e+01 8.960730378190784329e-14 4.044107171537192347e-13 1.482054089911935546e-13 8.601113477181435499e-16
3.390000000000000000e+03 1.237711811065673828e+01 1.221156501770019531e+01 1.668331813843570988e-13 1.172508813131190042e-13 8.522521609873739967e-14 8.212491965772436564e-14
3.391000000000000000e+03 4.602830505371093750e+01 8.922318458557128906e+00 4.137828859933356807e-13 4.008267987811418853e-14 1.361596789093907911e-13 1.189502597982727838e-13
3.392000000000000000e+03 4.611746215820312500e+01 1.694040489196777344e+01 2.907395529297591985e-14 1.954640605188878721e-13 6.736140643762503211e-14 8.513521376589394674e-14
3.393000000000000000e+03 4.640262985229492188e+01 2.607673454284667969e+01 1.827449731253358300e-13 6.730815991368155338e-13 2.567479649023818311e-13 9.633675693114518435e-14
3.394000000000000000e+03 4.659084320068359375e+01 2.722834014892578125e+01 1.460294152310151472e-13 7.259727758182621393e-13 2.616006640910467640e-13 1.167558210486349668e-13
3.395000000000000000e+03 1.060253715515136719e+01 1.751298904418945312e+01 1.878853247028883233e-14 1.910560197462135568e-13 6.295336566495071673e-14 8.385457448854480300e-14
3.396000000000000000e+03 4.541036987304687500e+01 8.381738662719726562e+00 2.612962201210128343e-13 -2.526875295106017355e-14 7.080824099801874549e-14 -2.469600621278576075e-14
3.397000000000000000e+03 4.606439971923828125e+01 9.484133720397949219e+00 1.894702520962091019e-13 2.184543914035899648e-13 1.223773957604451512e-13 8.459559956838433314e-14
3.398000000000000000e+03 4.552910614013671875e+01 1.433029365539550781e+01 1.138567728596259765e-13 1.860486049075349424e-13 8.997160926439012885e-14 2.233731727146678891e-13
3.399000000000000000e+03 4.613583755493164062e+01 1.475567722320556641e+01 2.954215106050483985e-14 2.414156656700694459e-13 8.128734637442500133e-14 1.532191799651083652e-13
3.400000000000000000e+03 9.969247817993164062e+00 1.620450401306152344e+01 -1.584848382087458707e-13 5.039647627165522170e-13 1.036439814181000507e-13 6.955415789763191858e-14
3.401000000000000000e+03 4.631112289428710938e+01 2.797465515136718750e+01 -4.460071634931894735e-14 3.468930058567881725e-13 9.068768414173533632e-14 5.084569714591292977e-14
3.402000000000000000e+03 4.637836837768554688e+01 2.760935783386230469e+01 4.478241169276857281e-14 2.936981441468283771e-13 1.015441664130659061e-13 -5.221253727223824914e-14
3.403000000000000000e+03 4.612485122680664062e+01 1.195505428314208984e+01 1.539114159471860477e-13 1.574639263380792076e-13 9.341260268557957658e-14 9.563035178192583197e-14
3.404000000000000000e+03 1.099585819244384766e+01 1.597272682189941406e+01 -2.139724148190157160e-14 3.225241254622979170e-13 9.033806959869022934e-14 -8.740178584131994000e-14
3.405000000000000000e+03 4.710854721069335938e+01 2.893293571472167969e+01 1.939420439566255649e-13 4.948765464259097246e-13 2.066455866015295961e-13 -2.254083082838496954e-14
3.406000000000000000e+03 1.091037845611572266e+01 1.516881275177001953e+01 -9.085450219849938724e-14 3.540764754420173965e-14 -1.663405673510247318e-14 1.723450145075210160e-14
3.407000000000000000e+03 1.109173774719238281e+01 1.442141151428222656e+01 -1.445292046849469547e-13 3.955683979157964547e-13 7.531175932450756560e-14 -3.723289851344929735e-14
3.408000000000000000e+03 4.519144439697265625e+01 7.139610290527343750e+00 2.510367131183799394e-13 -4.185487676930388368e-13 -5.025361772765038482e-14 -5.979912338959295082e-14
3.409000000000000000e+03 4.639205932617187500e+01 2.840452194213867188e+01 1.611384365784312989e-13 6.180706987879425185e-13 2.337627433204175764e-13 1.037901386472146747e-13
3.410000000000000000e+03 4.838843917846679688e+01 8.853095054626464844e+00 1.470299576533662389e-13 -1.228503925107191086e-13 7.253869034574370739e-15 1.233496303416990042e-14
3.411000000000000000e+03 1.323571205139160156e+01 9.838543891906738281e+00 4.058568531164347126e-14 -1.656099302832503284e-13 -3.750727281385569933e-14 -1.922174035608528730e-13
3.412000000000000000e+03 4.703724670410156250e+01 1.229354381561279297e+01 1.213068951929144323e-13 5.198866985241072658e-14 5.198866985241072658e-14 6.601175769199718601e-14
3.413000000000000000e+03 1.044984054565429688e+01 1.561128616333007812e+01 2.043536441952674421e-15 1.781607223945783081e-13 5.406127815917906310e-14 -8.361495225589835045e-14
3.414000000000000000e+03 1.203958225250244141e+01 1.421064376831054688e+01 1.125948563985429418e-13 5.057644299026609058e-13 1.855077913113720167e-13 -5.439512094874629500e-14
3.415000000000000000e+03 4.694910049438476562e+01 9.179463386535644531e+00 2.634411243838952199e-13 1.129033390216693800e-13 1.129033390216693800e-13 2.266931556208807985e-14
3.416000000000000000e+03 1.080462741851806641e+01 2.159516525268554688e+01 8.567010490768967035e-14 1.739686004845544809e-13 7.789161161767324537e-14 -2.353680672671082386e-13
3.417000000000000000e+03 1.256213855743408203e+01 7.570220470428466797e+00 -5.659762345204197298e-14 3.417514752093731012e-13 8.554615349432026505e-14 2.279100370342242166e-14
3.418000000000000000e+03 1.276692485809326172e+01 8.429033279418945312e+00 5.922453689575710167e-14 -6.611995429254766132e-14 -2.068625557850346797e-15 -8.153915232898475973e-14
3.419000000000000000e+03 1.057720851898193359e+01 1.041822910308837891e+01 -1.011757883961732218e-13 2.389897107930903999e-15 -2.963576852996717415e-14 -4.705580068935406868e-14
3.420000000000000000e+03 1.031406402587890625e+01 1.416686820983886719e+01 -1.923961749465685767e-13 3.293030453356549092e-13 4.107205840622046855e-14 9.791271932775222342e-14
3.421000000000000000e+03 1.013049888610839844e+01 1.353967857360839844e+01 -1.271128655892100889e-13 -8.725996203276346896e-15 -4.075165972359205691e-14 9.073339681583275640e-14
3.422000000000000000e+03 1.002961635589599609e+01 1.287094497680664062e+01 -3.985252408568625004e-14 2.574260520461085777e-13 6.527205398355537258e-14 7.613029130715265325e-14
3.423000000000000000e+03 1.154977798461914062e+01 9.636868476867675781e+00 -5.559726398880748821e-14 6.767449691998453365e-14 3.623171149902534513e-15 2.683259600025789809e-14
3.424000000000000000e+03 1.057132816314697266e+01 1.471540451049804688e+01 -5.279364930789974542e-14 -2.971315413765468483e-13 -1.049775568665207992e-13 -1.615114271132382564e-15
3.425000000000000000e+03 4.976438903808593750e+01 8.774286270141601562e+00 7.685119766042899925e-14 1.006075410969146239e-14 2.607358671688226465e-14 -3.189151891245904646e-14
3.426000000000000000e+03 4.813583755493164062e+01 2.980801963806152344e+01 1.348060389445154827e-13 3.322797224002138616e-13 1.401257311139242345e-13 -5.800138574453810730e-15
3.427000000000000000e+03 1.194325733184814453e+01 9.040392875671386719e+00 -4.545288909249718678e-14 -1.947980961107022291e-14 -1.947980961107022291e-14 4.581708615476222379e-14
3.428000000000000000e+03 1.276052761077880859e+01 1.103322696685791016e+01 4.327964649533146135e-14 -2.720252916964174122e-14 4.823135197706916039e-15 -7.283064566200331963e-15
3.429000000000000000e+03 4.676702117919921875e+01 1.057840633392333984e+01 1.824649101516556682e-13 1.239501936419612482e-13 9.192452842757964371e-14 8.937659911213008401e-14
3.430000000000000000e+03 1.174265480041503906e+01 1.252739429473876953e+01 3.915557521229004467e-14 -2.896998708089813801e-14 3.055676015901098372e-15 1.309143359039602328e-13
3.431000000000000000e+03 5.799269104003906250e+01 1.030678844451904297e+01 1.071226508647833697e-13 2.303423260235828302e-14 3.904706351548319077e-14 -7.491790933282505005e-14
3.432000000000000000e+03 5.443140792846679688e+01 1.070774078369140625e+01 1.431015814743266668e-13 -1.388311530623950740e-13 1.281131403491498483e-15 -2.230772736130058609e-14
3.433000000000000000e+03 6.528960418701171875e+01 1.297834968566894531e+01 4.144424807137579714e-14 8.638824654542617831e-14 3.834974872385377154e-14 -5.955203625558234612e-15
3.434000000000000000e+03 5.329331970214843750e+01 1.138692760467529297e+01 2.008608665678146554e-13 8.608322659298811574e-14 8.608322659298811574e-14 2.327603679187686264e-14
3.435000000000000000e+03 6.438574218750000000e+01 8.500337600708007812e+00 -5.005330121188832082e-14 1.844278581849406740e-13 4.031236472022345363e-14 -9.446147341976920964e-14
3.436000000000000000e+03 6.607561492919921875e+01 8.470390319824218750e+00 -2.532377790537970741e-14 -3.088834020593874416e-16 -7.689797929010585426e-15 -7.383010896437960935e-14
3.437000000000000000e+03 5.968673324584960938e+01 7.244657516479492188e+00 8.227272351888845203e-14 5.098662987580888928e-14 3.997780703484873910e-14 -9.000099114326448602e-14
3.438000000000000000e+03 8.301355361938476562e+00 3.617462158203125000e+01 -5.791169681388513846e-14 -1.943824993951319066e-15 -1.795665633059270044e-14 -5.347652388184437333e-14
3.439000000000000000e+03 6.717784118652343750e+01 2.146025657653808594e+01 3.240606178176288002e-15 -1.644583584982720059e-13 -4.836532717833637307e-14 -7.447270203948461176e-14
3.440000000000000000e+03 6.309578323364257812e+01 1.663477516174316406e+01 6.175398056416578352e-14 4.076316243101577030e-14 3.075514289855446615e-14 -6.081319123404579918e-14
3.441000000000000000e+03 6.789598083496093750e+01 2.010826492309570312e+01 3.529689968041413439e-14 -7.748232190942817843e-15 8.264599569215037161e-15 -9.921266418003518717e-14
3.442000000000000000e+03 5.880704879760742188e+01 9.624002456665039062e+00 2.435885660659244806e-14 -1.039378611932158247e-13 -2.387370154539360245e-14 -1.301108336739312255e-13
3.443000000000000000e+03 4.897315597534179688e+01 3.178672599792480469e+01 8.540685384394661184e-14 3.111086421033609772e-13 1.189546508170713501e-13 3.203161138567132971e-14
3.444000000000000000e+03 6.216689300537109375e+01 9.923921585083007812e+00 8.123481339103628962e-15 1.464532027551854187e-13 4.637300743057237717e-14 -6.386045663629713598e-14
3.445000000000000000e+03 6.441653442382812500e+01 2.306030654907226562e+01 8.324563911463189747e-14 3.567670247769938463e-14 3.567670247769938463e-14 -9.991192375931150227e-15
3.446000000000000000e+03 4.661692047119140625e+01 2.329663467407226562e+01 1.334072826167376213e-13 3.316802399139923141e-13 1.395262621802298431e-13 4.832834233172746130e-14
3.447000000000000000e+03 4.647348403930664062e+01 2.368935012817382812e+01 3.474524745065814268e-14 6.554041163953083782e-13 2.070448033939659149e-13 1.033563408876737519e-14
3.448000000000000000e+03 4.647350692749023438e+01 1.600326347351074219e+01 6.781215671457230254e-14 2.120661502305609680e-13 8.396348937303454996e-14 6.831534171908640318e-14
3.449000000000000000e+03 4.614542388916015625e+01 2.292121887207031250e+01 -3.155668340027763252e-14 4.439852077566669442e-13 1.237285556128508990e-13 6.061894286231786499e-14
3.450000000000000000e+03 4.657543182373046875e+01 2.231566810607910156e+01 -1.959904982718699978e-14 6.778646654409525851e-13 1.974796736727013613e-13 2.768212938877249313e-14
3.451000000000000000e+03 4.643520736694335938e+01 2.111487197875976562e+01 1.030451291243912604e-13 2.271659965170924611e-13 9.906333565956604303e-14 -4.033771133413709131e-14
3.452000000000000000e+03 4.616036605834960938e+01 1.984196090698242188e+01 4.518739169737800987e-14 5.912529038414049420e-13 1.909320818853713075e-13 3.053322026637383946e-14
3.453000000000000000e+03 4.610662841796875000e+01 1.872660446166992188e+01 -4.153741491931019214e-14 -6.355269907337354751e-14 -3.152703385899194299e-14 2.631162160978556264e-13
3.454000000000000000e+03 4.666919708251953125e+01 1.863549804687500000e+01 -5.230210253608091886e-14 -2.241518704318695016e-14 -2.241518704318695016e-14 5.345089266486045820e-14
3.455000000000000000e+03 4.639813995361328125e+01 2.181893157958984375e+01 3.565545211511866874e-13 6.103185448344539132e-13 2.900619197956921802e-13 7.932862503554679451e-15
3.456000000000000000e+03 4.586352539062500000e+01 2.108572387695312500e+01 7.829866854706934998e-14 2.165603715234207249e-13 8.845771066589430687e-14 7.390277083872687225e-14
3.457000000000000000e+03 4.669485473632812500e+01 2.075209236145019531e+01 -1.241120955194994352e-14 3.606885027197109794e-13 1.044831877809217213e-13 1.629159182775855030e-13
3.458000000000000000e+03 4.713724899291992188e+01 2.539450645446777344e+01 2.324203011311049699e-14 2.844665692239289889e-13 9.231257793763936181e-14 9.826690784871250361e-14
3.459000000000000000e+03 4.688932037353515625e+01 1.888358116149902344e+01 -6.730945960103582038e-14 -2.884691319366208817e-14 -2.884691319366208817e-14 9.829281350437132914e-14
3.460000000000000000e+03 4.708965301513671875e+01 2.578438758850097656e+01 9.286381342718530441e-14 3.143044635320335622e-13 1.221504857982710912e-13 4.700863789485094923e-14
3.461000000000000000e+03 4.640642166137695312e+01 1.556683444976806641e+01 -4.139933160824879610e-14 7.375932411504346198e-14 9.707997921444989214e-15 5.156295786938429326e-14
3.462000000000000000e+03 1.077586078643798828e+01 1.337505054473876953e+01 -1.506255921856700097e-13 3.472047139813777550e-13 5.897374060447047039e-14 -6.806764895651851166e-14
3.463000000000000000e+03 1.192763996124267578e+01 1.299938869476318359e+01 -3.749861952526654940e-14 7.543106222106243930e-14 1.137973179229923026e-14 -8.525780484435006162e-15
3.464000000000000000e+03 1.206824016571044922e+01 1.378062057495117188e+01 -8.330932243973826479e-14 1.004695340188184807e-14 -2.197871096546680919e-14 1.339169931630773691e-13
3.465000000000000000e+03 4.678921127319335938e+01 2.545529365539550781e+01 1.512797184613848267e-13 2.478379643438416435e-13 1.197353034863152255e-13 -7.172140350153108357e-14
3.466000000000000000e+03 4.787800216674804688e+01 1.152372455596923828e+01 9.336866539253960151e-14 3.145208431806073568e-13 1.223668518943177297e-13 7.327601389160373624e-14
3.467000000000000000e+03 4.658549499511718750e+01 1.779913902282714844e+01 5.324317816333707515e-15 -2.264728931732767903e-13 -6.634457387763234570e-14 -3.304498127497564053e-14
3.468000000000000000e+03 4.658640670776367188e+01 1.824954032897949219e+01 1.387801904780905718e-14 1.889515155667834123e-13 6.084886148552057228e-14 6.374614106973569561e-14
3.469000000000000000e+03 4.671931457519531250e+01 9.949390411376953125e+00 1.878405607056918281e-13 5.762762229216678023e-14 7.364045489935758249e-14 1.706736152146809404e-13
3.470000000000000000e+03 4.695357513427734375e+01 2.625087165832519531e+01 5.386851378917471844e-14 6.635997632474521790e-13 2.152404909036911840e-13 -6.000546739180767641e-14
3.471000000000000000e+03 1.257902526855468750e+01 1.141679668426513672e+01 7.216557402654408260e-14 -6.057379261809742177e-14 3.477533787259287808e-15 1.650627198942697382e-13
3.472000000000000000e+03 1.249671840667724609e+01 1.063661766052246094e+01 -5.398677314113857484e-14 6.836470679925238381e-14 4.313381029170384670e-15 1.939955628863648807e-13
3.473000000000000000e+03 1.209556579589843750e+01 1.134346961975097656e+01 7.635591208518099221e-15 3.692799917850292379e-13 1.130746700699764018e-13 3.277364612878398697e-14
3.474000000000000000e+03 1.162184715270996094e+01 1.195614051818847656e+01 8.010167643112200975e-14 4.003368817007135760e-13 1.441315735381878960e-13 2.789314731879016795e-14
3.475000000000000000e+03 4.656271362304687500e+01 1.689754486083984375e+01 1.444850098938910143e-13 1.617119896920714978e-14 4.819686248952285978e-14 1.544840508771114229e-13
3.476000000000000000e+03 4.546754837036132812e+01 1.394740104675292969e+01 6.121907586984290384e-14 2.092405431862107146e-13 8.113788232868429651e-14 3.882259368582358094e-13
3.477000000000000000e+03 4.536398315429687500e+01 1.280441188812255859e+01 -2.285868976742433389e-13 -6.463918908184958581e-15 -7.051524891343169399e-14 3.837825510947384666e-13
3.478000000000000000e+03 1.183234786987304688e+01 1.041025257110595703e+01 -2.403225730397695603e-13 -5.152557322322427746e-14 -8.755444828346947705e-14 8.477727119491143548e-14
3.479000000000000000e+03 4.652411270141601562e+01 1.644874382019042969e+01 -1.614593875265413203e-13 2.510597524145452564e-13 2.688010946640118082e-14 6.400258876484640758e-14
3.480000000000000000e+03 4.765536880493164062e+01 1.012707042694091797e+01 1.610615259868206084e-13 1.262150513227019988e-13 8.618297319285678215e-14 1.307753479617111692e-14
3.481000000000000000e+03 5.136964797973632812e+01 1.031501960754394531e+01 1.840962007403773582e-13 1.027195076366100787e-14 5.831044604413457288e-14 5.287144081377558036e-14
3.482000000000000000e+03 4.690271759033203125e+01 1.320980930328369141e+01 -7.695347858287585052e-14 -3.074857534389463520e-13 -1.153317757051838810e-13 1.949921615233135563e-13
3.483000000000000000e+03 4.588548278808593750e+01 1.442556476593017578e+01 -2.021580670333485152e-14 4.488455776757022120e-13 1.285889255318861668e-13 6.937027720917837703e-14
3.484000000000000000e+03 4.630437850952148438e+01 1.514417552947998047e+01 -6.556989787286429672e-14 3.379062166793816990e-13 8.170089496432886289e-14 7.339371758995419381e-14
3.485000000000000000e+03 4.661463165283203125e+01 1.180236434936523438e+01 2.362136365414296835e-13 4.214910484436756866e-13 1.973114054955316110e-13 4.741833079077890922e-14
3.486000000000000000e+03 4.653992080688476562e+01 8.940761566162109375e+00 1.100375216292470704e-13 -4.434296083533767474e-14 1.970836789935963979e-14 7.485162392250471752e-14
3.487000000000000000e+03 4.655244827270507812e+01 9.419836044311523438e+00 4.773595256059304237e-13 2.157886228645183868e-14 1.496815231439782568e-13 1.313320112383831173e-13
3.488000000000000000e+03 1.133508872985839844e+01 1.552840328216552734e+01 4.081036588310035795e-14 -2.826079180515052997e-14 3.764872562198127298e-15 -1.902097050828985281e-13
3.489000000000000000e+03 4.809870147705078125e+01 2.746245956420898438e+01 1.115795484978553131e-13 4.138273924925162106e-13 1.576220843299905305e-13 -5.032747900065095981e-15
3.490000000000000000e+03 4.670591354370117188e+01 2.786106491088867188e+01 2.050866665078213136e-14 4.662989287231023017e-13 1.460422765792862565e-13 3.617518136715854038e-14
3.491000000000000000e+03 4.706702804565429688e+01 2.753525733947753906e+01 -8.195401551402275997e-14 1.821938596085342921e-13 3.007194984022167061e-14 -5.995182648932395608e-14
3.492000000000000000e+03 1.123822116851806641e+01 1.266832542419433594e+01 -1.446272707714482686e-13 3.040244651083406913e-13 4.781916372207858923e-14 -7.152343496109880849e-14
3.493000000000000000e+03 4.694281005859375000e+01 2.830866241455078125e+01 5.787208277700794934e-14 6.195646751715189193e-13 2.032310273845580606e-13 -1.447347558643230503e-14
3.494000000000000000e+03 4.752870178222656250e+01 2.801730346679687500e+01 9.793973629063784658e-14 4.766081735003979691e-13 1.723643742925634603e-13 -4.046078522137314115e-14
3.495000000000000000e+03 4.499501419067382812e+01 1.373683547973632812e+01 1.098588654400121933e-13 3.215880524116282446e-13 1.294340746778657736e-13 1.187960726968181890e-13
3.496000000000000000e+03 4.778464889526367188e+01 9.244891166687011719e+00 9.665867688494686472e-14 3.159308481059247553e-13 1.237768568196351282e-13 5.647062780226013573e-15
3.497000000000000000e+03 1.276112842559814453e+01 9.942678451538085938e+00 -1.180608159113494607e-14 1.321930981562982610e-13 3.611610590128523646e-14 5.442131798373897600e-14
3.498000000000000000e+03 1.110904026031494141e+01 9.457316398620605469e+00 -7.498868232369993586e-15 8.828809401227252773e-14 2.423676866570700222e-14 -4.605947649108030340e-14
3.499000000000000000e+03 5.050400543212890625e+01 9.939160346984863281e+00 -8.992282694289185918e-14 -2.672931049673560322e-13 -1.071647788954480096e-13 -2.328947920474978839e-14
3.500000000000000000e+03 4.715278244018554688e+01 1.187175750732421875e+01 1.776970904405691942e-13 3.964125306222393563e-13 1.722328876740952808e-13 2.323480221156498660e-13
3.501000000000000000e+03 1.139401054382324219e+01 1.322101020812988281e+01 1.764621706135810486e-14 7.562664212858345725e-15 7.562664212858345725e-15 -8.911969740735964374e-14
3.502000000000000000e+03 1.113468170166015625e+01 1.065619182586669922e+01 -9.646387963586910974e-14 -1.785945116837897584e-13 -8.251751604064494483e-14 1.188669253087901168e-13
3.503000000000000000e+03 5.643673324584960938e+01 1.151189804077148438e+01 7.403775400920131755e-14 -1.402048151920775795e-14 1.800518284814089931e-14 -7.024136589213469950e-14
3.504000000000000000e+03 5.515510559082031250e+01 1.131662750244140625e+01 1.804200641967665386e-13 3.157193676959178796e-14 6.359759859584160346e-14 -3.128477227168184605e-14
3.505000000000000000e+03 1.110274600982666016e+01 1.211403465270996094e+01 9.537933187394112555e-14 8.662780779170042855e-14 5.460214257731882403e-14 -1.079965245920702643e-13
3.506000000000000000e+03 1.096059513092041016e+01 1.121954154968261719e+01 -3.032103936011958448e-15 1.817043287751299308e-13 5.360166452947172366e-14 -9.056324483738831255e-14
3.507000000000000000e+03 6.436454010009765625e+01 1.163873291015625000e+01 7.617309018791151853e-14 3.264561201660881595e-14 3.264561201660881595e-14 -5.034786200149368729e-14
3.508000000000000000e+03 6.552046966552734375e+01 1.174722480773925781e+01 6.096275014747659649e-14 7.187784032249358579e-14 3.985217510811198127e-14 -7.343227452971320957e-14
3.509000000000000000e+03 6.132287979125976562e+01 8.998379707336425781e+00 6.512330822175393941e-14 1.036849981415378930e-13 5.064249055373483410e-14 -9.589301331073760148e-14
3.510000000000000000e+03 6.329704284667968750e+01 9.212931632995605469e+00 -1.274628943313664033e-15 -1.034859047413516642e-13 -3.142816139712484302e-14 4.644885414880131624e-14
3.511000000000000000e+03 5.954128265380859375e+01 1.062517547607421875e+01 7.154968620620011377e-14 -1.508679689694609333e-14 1.693886662336961668e-14 -4.103417570468746722e-14
3.512000000000000000e+03 5.401902389526367188e+01 1.138736343383789062e+01 2.378373648199982870e-13 7.905481824721505291e-14 9.506765085440585517e-14 -2.871844540061792295e-14
3.513000000000000000e+03 4.670952224731445312e+01 1.498621654510498047e+01 -2.698713546741855068e-14 2.629397892993379227e-13 7.078579123678471752e-14 5.920002037413177320e-14
3.514000000000000000e+03 5.218506622314453125e+01 1.069690227508544922e+01 1.110164206657299202e-13 4.757846745165501823e-14 4.757846745165501823e-14 -6.415346227341134355e-14
3.515000000000000000e+03 4.932334518432617188e+01 2.944558525085449219e+01 1.224746893528985692e-13 3.727458066597050257e-13 1.485661501590337941e-13 5.796336582366765078e-14
3.516000000000000000e+03 6.549724578857421875e+01 1.828303146362304688e+01 2.061016491478571966e-14 2.598953394346032592e-14 1.397990948806722422e-14 -3.584541788826528519e-15
3.517000000000000000e+03 6.374904251098632812e+01 1.430303096771240234e+01 1.778527954250652687e-14 1.105618960099696846e-13 3.850415266574286344e-14 -1.176003196733110823e-13
3.518000000000000000e+03 5.252671432495117188e+01 3.107096481323242188e+01 4.002678247985898274e-14 2.230336005942454292e-13 7.891811390579178687e-14 4.328561299541192064e-14
3.519000000000000000e+03 6.478416442871093750e+01 1.390310955047607422e+01 1.112611793061685228e-13 1.932413130811198691e-15 3.395807601585219826e-14 -5.701192420720299636e-14
3.520000000000000000e+03 6.327654647827148438e+01 1.199391651153564453e+01 2.911812636710933710e-14 1.497320469652160813e-13 5.365505132207126771e-14 -7.862751384224778151e-14
3.521000000000000000e+03 6.642912292480468750e+01 2.282480430603027344e+01 5.666612470055232276e-14 -2.146546659767111648e-14 1.056019776967754079e-14 2.967232308383888073e-14
3.522000000000000000e+03 6.443476867675781250e+01 1.287344837188720703e+01 6.730272399503925418e-14 1.203459261498590616e-13 5.629459572109585253e-14 -7.732350323181799712e-14
3.523000000000000000e+03 7.348540782928466797e+00 4.119184875488281250e+01 -1.665942198374095046e-14 -4.145296234633714938e-14 -1.743371512961684050e-14 -1.007309262687587897e-15
3.524000000000000000e+03 6.596360778808593750e+01 2.050816535949707031e+01 2.822742548329228857e-14 1.781633685255055305e-14 1.381312870075285248e-14 1.303661103459923584e-15
3.525000000000000000e+03 6.387134552001953125e+01 2.886248588562011719e+01 3.944593260089466168e-16 -2.270642068737550173e-14 -6.693588503701173101e-15 -1.681919442044974011e-14
3.526000000000000000e+03 4.712218093872070312e+01 2.229849243164062500e+01 1.421949851702214440e-13 2.896954594613920797e-13 1.295671333894840571e-13 3.108103035468108566e-14
3.527000000000000000e+03 4.710345840454101562e+01 2.285169410705566406e+01 7.109879362771770461e-14 5.794823171659246874e-13 1.951743345933454332e-13 1.156582514256923686e-15
3.528000000000000000e+03 4.761437225341796875e+01 2.345177650451660156e+01 9.807912403243801425e-14 3.165396005207210539e-13 1.243856227869585829e-13 1.810755694421194856e-14
3.529000000000000000e+03 4.694050598144531250e+01 2.390009307861328125e+01 1.590958538955772328e-13 4.570670014344968557e-13 1.848488538885167953e-13 1.374430490209618827e-13
3.530000000000000000e+03 4.682273864746093750e+01 1.545443439483642578e+01 -1.534521987288980233e-14 3.594310721451166035e-13 1.032257572063273454e-13 2.719115351716011597e-13
3.531000000000000000e+03 4.667405700683593750e+01 1.916290473937988281e+01 6.705672529836587126e-14 3.032443003300744344e-13 1.110903022675212293e-13 2.045786906849575426e-13
3.532000000000000000e+03 4.758580780029296875e+01 1.925909233093261719e+01 -4.299881441573519258e-14 3.247040494553515844e-13 8.451157390001670655e-14 1.390197500302989275e-13
3.533000000000000000e+03 4.679636764526367188e+01 2.146964073181152344e+01 1.188536302796500133e-13 3.597561701665363820e-13 1.435829401338559186e-13 6.847444838789865096e-14
3.534000000000000000e+03 4.640216827392578125e+01 1.947130584716796875e+01 -6.549948571802494124e-14 -2.110749997095290320e-13 -8.297234562826619197e-14 1.348274925950035397e-13
3.535000000000000000e+03 4.677942657470703125e+01 1.974984550476074219e+01 6.087419115877526488e-14 4.835984043771723861e-13 1.633417793384106531e-13 1.321158216464543567e-13
3.536000000000000000e+03 4.693074417114257812e+01 2.037617683410644531e+01 2.569832571026019197e-14 -1.186190614455668799e-14 4.150925615601167018e-15 1.253353161274201044e-13
3.537000000000000000e+03 4.716121673583984375e+01 2.000608825683593750e+01 -1.041313099658415509e-13 -4.462770620715025838e-14 -4.462770620715025838e-14 1.196373686899207360e-15
3.538000000000000000e+03 4.658418273925781250e+01 1.734773826599121094e+01 -3.421205037475692767e-14 -1.466230633542960071e-14 -1.466230633542960071e-14 9.643550572620198519e-15
3.539000000000000000e+03 4.702124404907226562e+01 1.821880722045898438e+01 -3.781138474697430529e-14 -2.449596244163271264e-13 -8.483130512068268181e-14 1.211542530795556294e-13
3.540000000000000000e+03 4.739628601074218750e+01 2.706056594848632812e+01 3.510164503354486210e-14 3.810511476666500474e-13 1.248458395041243674e-13 -1.645603920870982589e-14
3.541000000000000000e+03 4.754289627075195312e+01 2.537788772583007812e+01 -8.951509408120384564e-15 4.079221769398566622e-13 1.196912035629493776e-13 -1.245836658662902163e-13
3.542000000000000000e+03 4.690063095092773438e+01 1.591938591003417969e+01 -1.513193596033163280e-13 -6.485115314766934369e-14 -6.485115314766934369e-14 1.506399443119282866e-13
3.543000000000000000e+03 1.325696754455566406e+01 8.718170166015625000e+00 7.736602005060542672e-16 3.315686649225317150e-16 3.315686649225317150e-16 1.971853568285848041e-14
3.544000000000000000e+03 4.667000198364257812e+01 1.227044391632080078e+01 9.384658848643478990e-14 4.062275689442618187e-13 1.500222472292089826e-13 6.841336714800624885e-14
3.545000000000000000e+03 4.665669250488281250e+01 1.122212696075439453e+01 1.916599881189237631e-13 8.213999006792191415e-14 8.213999006792191415e-14 1.574077646655444584e-13
3.546000000000000000e+03 4.704874420166015625e+01 1.778270530700683594e+01 -2.925832048427529086e-14 3.321166719459991978e-14 1.186003991921564995e-15 1.709072201252700984e-13
3.547000000000000000e+03 4.696759796142578125e+01 1.638387489318847656e+01 1.752972495893539984e-13 1.208783371791852246e-13 8.885267874106719810e-14 1.970087673997412275e-15
3.548000000000000000e+03 4.622729873657226562e+01 1.406513023376464844e+01 1.650717797586735702e-14 4.188330455026645360e-13 1.306020721257572514e-13 1.292609682485013067e-13
3.549000000000000000e+03 4.660379028320312500e+01 1.364235305786132812e+01 3.075235378846574719e-13 7.265581365711870632e-13 3.102245023367533605e-13 1.420777236230694532e-14
3.550000000000000000e+03 4.727064132690429688e+01 9.669471740722656250e+00 1.437594346950094026e-13 6.161118436178586455e-14 6.161118436178586455e-14 -8.971918666984476931e-14
3.551000000000000000e+03 4.706119918823242188e+01 1.731723403930664062e+01 1.175776598479061352e-13 1.876432765678809345e-13 9.156628092473612091e-14 7.545999686654064620e-14
3.552000000000000000e+03 1.162055873870849609e+01 1.082844734191894531e+01 -1.324269436242444392e-14 1.773283532817068742e-13 4.922569920044403413e-14 -4.965353893023397025e-14
3.553000000000000000e+03 1.155106639862060547e+01 1.135588645935058594e+01 3.889397755686002656e-14 -2.120858962626273603e-13 -5.195757357885112671e-14 1.751441737951262012e-13
3.554000000000000000e+03 4.628359222412109375e+01 1.245082759857177734e+01 2.420345011650698597e-13 1.952309706043306448e-13 1.311796401755674357e-13 1.052623090145969609e-13
3.555000000000000000e+03 4.706292724609375000e+01 2.103710174560546875e+01 1.815861778433833229e-13 4.438302481611644534e-13 1.876249264461116173e-13 8.530821855130474307e-14
3.556000000000000000e+03 4.874993515014648438e+01 9.594728469848632812e+00 1.302181154788986661e-13 7.868323505764995840e-14 6.267040245045915614e-14 1.306172238511177364e-13
3.557000000000000000e+03 5.028955459594726562e+01 1.075449657440185547e+01 1.551645368181447937e-13 1.122500394501110832e-13 8.022437423572947868e-14 -3.149751306671423612e-14
3.558000000000000000e+03 4.653854370117187500e+01 1.450227355957031250e+01 4.198010483073139065e-14 3.611235930515294124e-13 1.209311107199309565e-13 5.610628505032817098e-15
3.559000000000000000e+03 4.678356933593750000e+01 2.443869590759277344e+01 4.215664682572992095e-14 7.043313415139307310e-13 2.239464039557881314e-13 3.787140888974853403e-14
3.560000000000000000e+03 4.706649398803710938e+01 2.337244033813476562e+01 -5.029870698549862573e-14 6.647076552374064917e-13 1.843226770216824240e-13 1.346358463084895707e-13
3.561000000000000000e+03 4.791284942626953125e+01 2.875204467773437500e+01 1.016567946899964159e-13 5.010766649694853303e-13 1.808200399307235973e-13 2.365576674432864901e-14
3.562000000000000000e+03 4.554058074951171875e+01 1.336530303955078125e+01 1.347608006088685251e-13 5.775462302414630100e-14 5.775462302414630100e-14 3.367482887591671803e-13
3.563000000000000000e+03 4.577877044677734375e+01 1.299449253082275391e+01 6.548475412100629445e-14 3.025705771000919420e-13 1.104165993663294709e-13 -1.257865737771027802e-15
3.564000000000000000e+03 1.066769313812255859e+01 1.279298114776611328e+01 -2.987307666860172795e-14 -5.855369357779527384e-14 -2.652803175154545834e-14 1.285112153411732683e-13
3.565000000000000000e+03 5.270167160034179688e+01 1.194930744171142578e+01 6.103753976858736219e-14 9.002339855285115128e-15 2.101196346364526957e-14 1.136368560014644480e-14
3.566000000000000000e+03 4.799647903442382812e+01 2.455523109436035156e+01 -3.588006153580798607e-14 2.133775740733451221e-13 5.324925477770067750e-14 -7.583248129916161928e-14
3.567000000000000000e+03 4.672567367553710938e+01 2.495907211303710938e+01 -2.624992711803934842e-14 1.260028729575465856e-13 2.992588409066535005e-14 -1.537061764759345417e-13
3.568000000000000000e+03 4.958724594116210938e+01 9.639802932739257812e+00 2.897616771090766319e-13 3.268168545576648210e-14 9.673301249639790211e-14 6.759368997681647340e-14
3.569000000000000000e+03 4.761770629882812500e+01 2.588211441040039062e+01 2.762941175220127998e-14 5.151016332222146943e-13 1.628193023114898885e-13 -6.924435390310776373e-14
3.570000000000000000e+03 4.816577529907226562e+01 1.032255458831787109e+01 7.740639726416809197e-14 -1.257677738808384710e-14 1.944888613223186291e-14 1.398053764770090801e-13
3.571000000000000000e+03 5.869097518920898438e+01 1.134132766723632812e+01 -1.928909675486412817e-14 6.035966946529511268e-14 1.232117164372270590e-14 -7.547869257775244312e-14
3.572000000000000000e+03 5.611288070678710938e+01 1.285712432861328125e+01 2.165516301434050606e-13 2.986871004435204258e-13 1.545716273075939395e-13 4.238133078531859665e-14
3.573000000000000000e+03 6.397924041748046875e+01 1.035703468322753906e+01 2.068141393817696239e-14 3.173893778547244582e-14 1.572610517828164356e-14 -7.979006317422251970e-14
3.574000000000000000e+03 6.239014053344726562e+01 1.242296791076660156e+01 7.142475901087547152e-14 7.636155840680738938e-14 4.433589658055757388e-14 2.541274346989572108e-14
3.575000000000000000e+03 6.281557083129882812e+01 1.094828224182128906e+01 2.214693509692330226e-14 5.524249270917949706e-14 2.321682749479789254e-14 -1.701282445812617866e-14
3.576000000000000000e+03 5.463153839111328125e+01 1.183648014068603516e+01 1.110356855830822720e-13 1.390886239733060692e-13 7.503729354454286016e-14 3.281431726277934946e-14
3.577000000000000000e+03 5.372535324096679688e+01 1.195116329193115234e+01 -6.408716394583856540e-16 -2.746592740535938517e-16 -2.746592740535938517e-16 3.538071189647905290e-14
3.578000000000000000e+03 6.042369842529296875e+01 9.834134101867675781e+00 -2.817029480506588052e-14 9.086665203909480293e-14 1.880890700080208727e-14 -1.165134205479215201e-13
3.579000000000000000e+03 6.477323913574218750e+01 1.957422256469726562e+01 -2.523809205243546239e-15 -6.398918531548905553e-14 -1.995389903384613833e-14 -4.875569755867156796e-14
3.580000000000000000e+03 5.007721328735351562e+01 3.290021896362304688e+01 -2.718130082991765395e-14 2.599971290779407029e-13 6.984475118491234591e-14 1.732218291332007776e-14
3.581000000000000000e+03 6.428993988037109375e+01 1.744275093078613281e+01 -7.925466211859254900e-15 -4.342870735338927313e-14 -1.540625198487126368e-14 -9.532234349724985623e-14
3.582000000000000000e+03 6.251735687255859375e+01 1.556137084960937500e+01 6.269847651046295267e-14 1.641236246300442625e-13 6.804662898689944894e-14 -1.047829493528232292e-13
3.583000000000000000e+03 5.784288787841796875e+01 1.192660903930664062e+01 7.517756897687175033e-14 1.506235322015422873e-14 2.707197598148143591e-14 -6.100529153021949647e-14
3.584000000000000000e+03 5.134666824340820312e+01 2.976682662963867188e+01 3.247681867901176800e-14 1.969224344136252802e-13 6.881977355609886216e-14 2.163553217875494039e-14
3.585000000000000000e+03 5.012619400024414062e+01 3.072776985168457031e+01 4.186983808165782583e-14 2.867310338813822135e-13 9.858026260535154850e-14 6.801511089093211643e-15
3.586000000000000000e+03 6.522074127197265625e+01 2.180803489685058594e+01 1.681304178487912169e-15 -1.136568120977017593e-13 -3.359265244987953702e-14 -5.428607392711677637e-14
3.587000000000000000e+03 4.763012313842773438e+01 2.241169166564941406e+01 3.501481399205592926e-14 6.075729383579059339e-14 2.873163200954077789e-14 8.174483903363241599e-14
3.588000000000000000e+03 4.700684738159179688e+01 1.940714263916015625e+01 1.085815431436844974e-14 1.876572898809603096e-13 5.955463579969746957e-14 7.848418231504519782e-14
3.589000000000000000e+03 4.729104614257812500e+01 2.175200462341308594e+01 5.754053375266188208e-14 1.390375987085634701e-13 5.897344244887303688e-14 5.105064184969879126e-14
3.590000000000000000e+03 4.738301467895507812e+01 1.963871574401855469e+01 1.301814016828328757e-13 3.302977195137474231e-13 1.381437417799849521e-13 -5.653665402049860844e-14
3.591000000000000000e+03 4.720739364624023438e+01 1.906187057495117188e+01 1.442520826096596598e-13 1.533242120505678985e-13 8.927288839806826748e-14 8.363035470301122265e-14
3.592000000000000000e+03 4.735506439208984375e+01 1.869263839721679688e+01 -6.936249128232721550e-14 1.532770085984833108e-13 2.517435621128636530e-14 2.172724890628363603e-13
3.593000000000000000e+03 4.703034210205078125e+01 1.684894371032714844e+01 -6.585486008511137745e-14 2.462821884364335689e-13 5.412819715014394184e-14 -4.776672560637997000e-14
3.594000000000000000e+03 4.788581848144531250e+01 1.840847587585449219e+01 -3.026598137151510770e-14 1.700326619953618223e-13 4.193000452596719330e-14 2.036799955041843080e-13
3.595000000000000000e+03 4.715856170654296875e+01 1.484469413757324219e+01 7.979646674330376221e-14 5.832098584450384759e-13 1.989019029775135339e-13 6.369006071236388289e-14
3.596000000000000000e+03 4.745262145996093750e+01 1.827865028381347656e+01 9.123538919795712299e-14 3.910088398895172901e-14 3.910088398895172901e-14 6.358786872837649332e-15
3.597000000000000000e+03 4.699718093872070312e+01 1.859094047546386719e+01 1.073511058150532216e-13 3.205133099030976762e-13 1.283593186168080491e-13 1.031546606488666085e-13
3.598000000000000000e+03 4.740814208984375000e+01 1.630239677429199219e+01 -1.159841943624770333e-13 -3.956561200359458991e-15 -3.598222387364222175e-14 1.887046427321084630e-14
3.599000000000000000e+03 4.758215713500976562e+01 1.729553985595703125e+01 -4.698627283691164669e-14 2.543687103399167038e-13 6.221473260615423273e-14 -3.753068311045191369e-15
3.600000000000000000e+03 4.727224349975585938e+01 1.132699871063232422e+01 2.184314469751147403e-13 1.851153778875680445e-13 1.210640474588048354e-13 2.024769410566718691e-14
3.601000000000000000e+03 4.810501861572265625e+01 9.782586097717285156e+00 1.454235901620845595e-13 1.309508193070643700e-13 8.291232148549196324e-14 1.144904890294437538e-13
3.602000000000000000e+03 4.803388214111328125e+01 1.090976142883300781e+01 5.928853192898805857e-14 1.626622149692238950e-13 6.658522610234265948e-14 7.677599468723997345e-14
3.603000000000000000e+03 4.705807495117187500e+01 1.389733791351318359e+01 -9.575101670745989058e-14 4.164733336843584599e-13 9.621669509306957080e-14 8.179709080208263927e-14
3.604000000000000000e+03 5.311125564575195312e+01 1.307976818084716797e+01 -4.378673801579829883e-14 -1.876574389587590264e-14 -1.876574389587590264e-14 3.779940092483655145e-14
3.605000000000000000e+03 4.817366409301757812e+01 2.410357284545898438e+01 3.888103150529419183e-14 4.284218379363435858e-13 1.401908645594363012e-13 4.213289263375712135e-14
3.606000000000000000e+03 4.779164505004882812e+01 1.988861083984375000e+01 3.968863930401854076e-15 -6.692548262538650095e-14 -1.888698480381409417e-14 -7.662109268997789602e-15
3.607000000000000000e+03 4.766000366210937500e+01 2.089272880554199219e+01 1.297229467941973802e-13 5.131050207114740136e-13 1.928483956727122806e-13 2.972110540533715040e-14
3.608000000000000000e+03 4.799183654785156250e+01 2.524121093750000000e+01 1.337694061423477798e-14 2.573631954251587306e-13 8.122203674605990575e-14 3.205516567786857729e-14
3.609000000000000000e+03 4.619300079345703125e+01 1.327442359924316406e+01 1.377658837703465977e-13 2.420463189687499517e-13 1.139436581112235336e-13 2.681279135351155585e-13
3.610000000000000000e+03 4.877264404296875000e+01 2.823862838745117188e+01 1.235053861481719140e-13 4.189384570588844392e-13 1.627331488963587591e-13 -1.418878273066245116e-14
3.611000000000000000e+03 4.763075256347656250e+01 2.291209220886230469e+01 1.206126534368176517e-13 6.464534853603542963e-13 2.301198240208662815e-13 1.592677948076062777e-13
3.612000000000000000e+03 4.652380371093750000e+01 1.288504791259765625e+01 1.478704040724226898e-13 6.337302644460196532e-14 6.337302644460196532e-14 2.143583298060483533e-13
3.613000000000000000e+03 4.773608779907226562e+01 2.482024574279785156e+01 -1.120680628917229693e-13 1.578500920468642321e-13 1.373460959357532610e-14 -1.152826071366616634e-13
3.614000000000000000e+03 4.754121780395507812e+01 2.398894882202148438e+01 1.550569568575799195e-13 9.357210102242663474e-13 3.272333847035430177e-13 9.138069261786091468e-15
3.615000000000000000e+03 4.844374465942382812e+01 2.492973709106445312e+01 -9.737149237951103764e-14 5.573208452895606069e-13 1.379848112940257332e-13 9.004969214959981927e-14
3.616000000000000000e+03 4.866785430908203125e+01 1.107713603973388672e+01 1.625997242665072617e-13 1.611874967267362679e-13 9.713616629797305890e-14 1.403607725923919358e-13
3.617000000000000000e+03 5.697438049316406250e+01 1.240955448150634766e+01 5.064290051768130518e-14 2.170409949583517600e-14 2.170409949583517600e-14 -1.190222914801072895e-13
3.618000000000000000e+03 5.569377517700195312e+01 1.204049301147460938e+01 1.044842787593577849e-13 -1.839757729840685307e-13 -2.384744691216050816e-14 -1.099813464041851652e-13
3.619000000000000000e+03 5.942114639282226562e+01 1.249631500244140625e+01 1.158804362145701705e-13 1.182894656791971810e-13 7.025096785762477425e-14 -1.160315790796123334e-14
3.620000000000000000e+03 5.385413360595703125e+01 1.299279499053955078e+01 -8.467721966318175753e-14 -3.629023554644998650e-14 -3.629023554644998650e-14 -1.096192262667067957e-14
3.621000000000000000e+03 5.007069015502929688e+01 1.153438854217529297e+01 -4.789538991106789823e-14 2.522435317803099764e-14 -6.801311189317659628e-15 1.091931043197338913e-13
3.622000000000000000e+03 5.194578170776367188e+01 1.147536563873291016e+01 2.402036089563935883e-13 2.288024709474513474e-14 7.892516121991294265e-14 3.386281869060397964e-15
3.623000000000000000e+03 6.116980361938476562e+01 1.076034927368164062e+01 9.858446388876992983e-14 -8.928349325056789132e-14 2.790291487922143092e-15 -8.103915216835233526e-14
3.624000000000000000e+03 6.034636306762695312e+01 1.350486469268798828e+01 2.882137006810468749e-14 1.496048564978563755e-13 5.352787101910692902e-14 -6.118588573083769133e-14
3.625000000000000000e+03 6.095470428466796875e+01 1.704446029663085938e+01 5.874403204543868218e-14 1.166779075700147272e-13 5.262658391751509623e-14 -5.928477110270224948e-14
3.626000000000000000e+03 6.357205200195312500e+01 1.867235565185546875e+01 6.447549064743027247e-14 -4.099407038870087061e-14 7.044425315289168030e-15 -1.887045580288137375e-14
3.627000000000000000e+03 6.352524566650390625e+01 1.310558414459228516e+01 6.680614584751373708e-14 -1.711974203892629998e-14 1.490592148138941003e-14 -5.637922447692192418e-14
3.628000000000000000e+03 4.970775222778320312e+01 2.753817939758300781e+01 9.163405033678004297e-14 3.595283792900971775e-13 1.353487227894259459e-13 -9.019221221923893334e-15
3.629000000000000000e+03 6.406306457519531250e+01 2.082540130615234375e+01 6.878493000878060926e-14 2.947925378197352453e-14 2.947925378197352453e-14 -5.487874288031061032e-14
3.630000000000000000e+03 6.180212020874023438e+01 1.308658885955810547e+01 4.853560451765701056e-14 2.038047736217102335e-13 7.570211276418381541e-14 5.423687147727666857e-14
3.631000000000000000e+03 6.103680419921875000e+01 1.247514057159423828e+01 8.922712829012580116e-14 1.536472195946738534e-14 3.137755626072408210e-14 -1.334321650565961637e-13
3.632000000000000000e+03 6.221015548706054688e+01 2.679325103759765625e+01 2.230573175167685496e-14 9.559599443151930304e-15 9.559599443151930304e-15 -5.440821946624263550e-14
3.633000000000000000e+03 6.216287612915039062e+01 2.487868690490722656e+01 2.589258424638349321e-14 3.397229600497070345e-14 1.795946339777990119e-14 -6.974086428799750048e-14
3.634000000000000000e+03 4.725882720947265625e+01 1.534476470947265625e+01 1.061023962916837760e-13 3.657290941448676502e-13 1.415494511967235747e-13 8.072908389954863706e-14
3.635000000000000000e+03 4.820820236206054688e+01 2.291826438903808594e+01 1.155542133333964383e-13 1.410251310261095847e-13 7.697380059734637570e-14 3.453850703702410208e-14
3.636000000000000000e+03 4.794298553466796875e+01 2.055869865417480469e+01 1.409068716741457283e-13 4.721472236617063611e-13 1.839162231797447644e-13 5.148839525310339171e-14
3.637000000000000000e+03 4.752824783325195312e+01 1.781407165527343750e+01 -5.461454144560073248e-15 -1.853444155965056073e-13 -5.724176151524276723e-14 6.746836298194072712e-14
3.638000000000000000e+03 4.802012634277343750e+01 1.791501998901367188e+01 -9.603861996843651022e-15 1.788878561340828677e-13 5.078519866468823862e-14 4.927276035099348306e-14
3.639000000000000000e+03 4.700521469116210938e+01 1.435210418701171875e+01 -1.015603549067538303e-13 1.394779338683913017e-13 1.137527301086488363e-14 4.134997330434639351e-14
3.640000000000000000e+03 4.806228637695312500e+01 1.309320354461669922e+01 1.911095793335343407e-13 5.165381468906493634e-13 2.122943070252333864e-13 -1.433228705258627472e-14
3.641000000000000000e+03 4.782086944580078125e+01 1.619845962524414062e+01 -6.461331307234391419e-14 6.381047491614555423e-14 -2.408514892111553521e-16 1.708817549267438451e-13
3.642000000000000000e+03 4.798021316528320312e+01 1.658617019653320312e+01 -8.747478652884610462e-14 1.798278052075191757e-13 2.770590729766781585e-14 4.711015987577706066e-14
3.643000000000000000e+03 4.768610382080078125e+01 1.212067699432373047e+01 1.570655904599080332e-13 2.045666695933701096e-13 1.084896807264888741e-13 -1.577611400348753745e-14
3.644000000000000000e+03 4.849385452270507812e+01 1.174907112121582031e+01 9.966681614129863087e-14 -2.591207447449981466e-14 2.212642334707259212e-14 -5.208927703775380336e-14
3.645000000000000000e+03 4.684120559692382812e+01 1.259522628784179688e+01 2.412816311764959254e-13 3.779121113267613907e-13 1.857581200404717636e-13 5.554120734835819861e-14
3.646000000000000000e+03 4.714782333374023438e+01 1.283823776245117188e+01 1.017838699608752950e-13 5.011311461286527269e-13 1.808745075373638378e-13 1.568977830686615893e-13
3.647000000000000000e+03 4.753697967529296875e+01 1.296013545989990234e+01 9.065225783574937246e-14 1.761038146905202773e-13 8.002681904737546370e-14 1.465984858462984763e-13
3.648000000000000000e+03 4.792354965209960938e+01 2.123221588134765625e+01 3.399136102254750325e-14 -7.693417300794203051e-14 -1.288284342621176873e-14 2.903100055815475977e-14
3.649000000000000000e+03 4.754965209960937500e+01 2.026532363891601562e+01 7.909746127391162340e-14 3.999065076483454551e-13 1.437011859332926189e-13 -7.669498784429636118e-15
3.650000000000000000e+03 4.825614929199218750e+01 2.352277946472167969e+01 1.288960257972426859e-13 6.042525420996147645e-13 2.199445730795626663e-13 5.074680774338688471e-14
3.651000000000000000e+03 4.877768325805664062e+01 1.037115669250488281e+01 8.068129091253276042e-14 8.032864737966827207e-14 4.830298216528666755e-14 6.729192263089586734e-14
3.652000000000000000e+03 4.949654006958007812e+01 1.049910831451416016e+01 7.125430210057001612e-14 7.628851028543617852e-14 4.426284507105457400e-14 1.705572803215732458e-13
3.653000000000000000e+03 4.887686920166015625e+01 2.437273216247558594e+01 6.817567445641364160e-15 3.803671516210832548e-13 1.161554169905668066e-13 6.196234389292676337e-14
3.654000000000000000e+03 4.831696701049804688e+01 2.092015075683593750e+01 -1.920267398325577191e-14 4.592877727443989144e-13 1.320255347105406263e-13 -8.066779937174889392e-14
3.655000000000000000e+03 4.822032546997070312e+01 2.582976341247558594e+01 7.716832001961743126e-14 5.363325885840430907e-13 1.840502712258454410e-13 -1.754140012226717421e-14
3.656000000000000000e+03 4.938773727416992188e+01 1.524203491210937500e+01 4.396444891626404006e-14 7.404169948866962808e-15 1.541058540542941668e-14 8.373206641931751903e-14
3.657000000000000000e+03 4.771392440795898438e+01 1.526101779937744141e+01 1.484084394005186214e-13 1.093545623520077170e-13 7.732889713762611250e-14 2.026451279186786830e-14
3.658000000000000000e+03 5.159859085083007812e+01 1.225054836273193359e+01 3.326266535428820670e-14 6.000637541112713302e-14 2.798071189081142301e-14 3.085885361261628268e-14
3.659000000000000000e+03 4.934298706054687500e+01 1.127092933654785156e+01 8.236783515446974291e-14 -3.332592177478915785e-14 1.471257265865145991e-14 8.952489086427178888e-14
3.660000000000000000e+03 4.807960128784179688e+01 2.238899230957031250e+01 -4.542026138336895114e-14 4.609191175432292287e-13 1.246496666735402714e-13 -6.552739037143928691e-14
3.661000000000000000e+03 4.775413513183593750e+01 1.885266494750976562e+01 1.676760672583016420e-13 -1.964072384819191136e-14 4.441060488650540317e-14 2.417805742400101765e-14
3.662000000000000000e+03 5.234566116333007812e+01 1.267907810211181641e+01 2.256908852513173080e-13 -4.052818193892027132e-14 5.554881031609275321e-14 2.720123320923244215e-14
3.663000000000000000e+03 4.817045593261718750e+01 1.525258541107177734e+01 5.610743532107054232e-14 4.358045771046120676e-13 1.475736037277047830e-13 1.051759997454035367e-13
3.664000000000000000e+03 4.758705139160156250e+01 2.647199821472167969e+01 3.668305893420042985e-14 3.817289095497250484e-13 1.255235878346722123e-13 5.953430700896336636e-14
3.665000000000000000e+03 6.027611923217773438e+01 1.161653041839599609e+01 1.000268237786065481e-14 1.186642337126439517e-13 3.860007406482172942e-14 -7.156662008888162174e-14
3.666000000000000000e+03 6.183806991577148438e+01 1.163385105133056641e+01 -2.199076932650392141e-14 -9.424615425644537747e-15 -9.424615425644537747e-15 8.050829523272614707e-16
3.667000000000000000e+03 5.430228424072265625e+01 1.239858722686767578e+01 1.473311490168827120e-13 6.314192197527310202e-14 6.314192197527310202e-14 -1.081612962172337489e-14
3.668000000000000000e+03 5.844065856933593750e+01 1.308832073211669922e+01 -1.805380931557687418e-14 1.981419179121826635e-13 5.402643461186081020e-14 -8.065070963500509116e-14
3.669000000000000000e+03 5.647274398803710938e+01 1.373602294921875000e+01 7.709745385511834748e-14 -5.846013370657335284e-14 5.591197992739277076e-15 -1.469397926901969131e-13
3.670000000000000000e+03 5.523623657226562500e+01 1.326255798339843750e+01 2.256631432282288352e-13 -5.197781089002692645e-14 5.210559766858149922e-14 -5.498071209463287201e-14
3.671000000000000000e+03 5.496446228027343750e+01 1.246105670928955078e+01 1.864985081515349585e-13 7.992793303298120766e-14 7.992793303298120766e-14 -2.918648192595275914e-14
3.672000000000000000e+03 5.983511352539062500e+01 1.481556606292724609e+01 3.967669698649520238e-14 1.085061944808285439e-13 4.445486744019712388e-14 -8.777607276005267023e-14
3.673000000000000000e+03 5.236840057373046875e+01 2.864326858520507812e+01 1.275671869570629835e-13 1.919244927914287580e-13 9.584750392454752244e-14 3.729157079163970823e-14
3.674000000000000000e+03 5.042922210693359375e+01 2.863724136352539062e+01 4.702719469265939645e-14 3.404111573786922085e-13 1.162315008780209769e-13 2.072290500006526703e-14
3.675000000000000000e+03 6.117640304565429688e+01 1.548049545288085938e+01 4.156327652925576044e-14 1.779411579021228373e-13 6.585132965178722153e-14 -4.580545469833052774e-14
3.676000000000000000e+03 4.886700820922851562e+01 2.555077934265136719e+01 2.961970539715544359e-14 2.414488964666561266e-13 8.132058394727526007e-14 5.859649415262003364e-15
3.677000000000000000e+03 5.720632934570312500e+01 1.093287563323974609e+01 -5.414746206749629365e-15 5.772751796983416339e-14 1.569382983485946570e-14 -1.475723975527878928e-13
3.678000000000000000e+03 6.266241455078125000e+01 2.297217750549316406e+01 1.650797249277188156e-14 7.927556180953310161e-14 2.873506079891126330e-14 -5.729582932233190373e-14
3.679000000000000000e+03 6.170991134643554688e+01 1.905830001831054688e+01 8.310978858241946376e-14 1.271203736892545511e-13 6.306905003675492005e-14 -3.748412848560492283e-14
3.680000000000000000e+03 6.070676803588867188e+01 2.477649497985839844e+01 4.449825246775548915e-14 1.563235218354774858e-13 6.024653296859625029e-14 -6.262550292799110019e-14
3.681000000000000000e+03 6.184688949584960938e+01 2.344317245483398438e+01 5.243496812418722841e-14 3.390986628862627250e-14 2.590344998503087137e-14 -1.206180066850442989e-13
3.682000000000000000e+03 4.821655273437500000e+01 1.571602821350097656e+01 4.612641263446236404e-16 9.169958358184321368e-14 2.764825315308000464e-14 9.139665749485076374e-14
3.683000000000000000e+03 4.810774993896484375e+01 1.737328338623046875e+01 6.539241397722841964e-14 2.802532003394562349e-14 2.802532003394562349e-14 1.031363579609423375e-13
3.684000000000000000e+03 4.860573577880859375e+01 1.734058952331542969e+01 -1.343985280054596498e-13 1.254044204633888993e-13 -2.698230865016862205e-15 1.061513412435079184e-13
3.685000000000000000e+03 4.875849533081054688e+01 1.783371162414550781e+01 1.563940220817433557e-13 3.415317074290102894e-13 1.493777161427206623e-13 -1.866714417861781855e-14
3.686000000000000000e+03 4.819946670532226562e+01 1.905464744567871094e+01 -1.109011022121589307e-13 -4.752904138511683529e-14 -4.752904138511683529e-14 1.270600920484643570e-13
3.687000000000000000e+03 4.823938751220703125e+01 1.618775177001953125e+01 -1.011533267764779323e-14 4.141580470500699773e-14 9.390142031724234978e-15 -8.061111592691863614e-14
3.688000000000000000e+03 4.834965515136718750e+01 1.690937423706054688e+01 1.983381178478210716e-13 2.680058594755480028e-13 1.399031850654944287e-13 -3.391099114838022621e-14
3.689000000000000000e+03 4.855462646484375000e+01 2.218814659118652344e+01 1.881071931249603257e-13 1.263683168523099809e-13 9.434265163792837638e-14 -3.503202231341234762e-14
3.690000000000000000e+03 4.882764053344726562e+01 1.491522121429443359e+01 8.571484857609543151e-14 1.282368308763714992e-13 6.418550722387186824e-14 8.468006569388453197e-14
3.691000000000000000e+03 4.746739196777343750e+01 1.418274688720703125e+01 -8.946538849379306879e-14 1.560992275110445471e-13 1.999015204398862239e-14 9.667977139346528581e-14
3.692000000000000000e+03 4.766863250732421875e+01 1.469546985626220703e+01 7.591338988628335005e-14 4.442928501231097060e-13 1.560618767462024215e-13 2.846700875242316742e-14
3.693000000000000000e+03 4.882867050170898438e+01 2.281422615051269531e+01 9.327918483199165722e-14 3.373579627458100916e-13 1.291911456285932402e-13 1.559605851582379632e-13
3.694000000000000000e+03 4.867308807373046875e+01 2.053675079345703125e+01 8.387079008728703933e-14 1.160087786467381421e-13 5.996387468596570125e-14 1.072820692417202071e-13
3.695000000000000000e+03 4.801430511474609375e+01 1.948886871337890625e+01 7.959738689564468950e-14 1.713660138270844957e-13 7.528901818393968215e-14 -3.850095088120224218e-14
3.696000000000000000e+03 4.820503997802734375e+01 2.167686271667480469e+01 8.178960303082891126e-14 3.438715783475598808e-13 1.276983618674065735e-13 7.871693341642352348e-14
3.697000000000000000e+03 5.064247131347656250e+01 2.683076477050781250e+01 9.801810377891781445e-14 2.936379709262554316e-13 1.174968190234201848e-13 3.597520366457537810e-14
3.698000000000000000e+03 4.822790908813476562e+01 2.018275833129882812e+01 1.252335637535323398e-13 4.654300491020724184e-13 1.771990892776922899e-13 -6.174494780481626366e-14
3.699000000000000000e+03 4.958415603637695312e+01 2.148100090026855469e+01 -4.138803727093010726e-15 8.972812456150419669e-14 2.567679582680688216e-14 -1.800499480682660886e-14
3.700000000000000000e+03 4.733599090576171875e+01 1.345401668548583984e+01 -4.950278739441343889e-14 2.990411737679998794e-13 7.486151049106506972e-14 7.610219691835812261e-14
3.701000000000000000e+03 4.914285659790039062e+01 1.199001979827880859e+01 1.179924349415176210e-13 1.420700850799511139e-13 7.801875465118790487e-14 1.394069457311478133e-13
3.702000000000000000e+03 4.921847915649414062e+01 2.646068572998046875e+01 7.137664753947142726e-14 2.593447375257018628e-13 9.921641145379384019e-14 2.576681848844106920e-14
3.703000000000000000e+03 4.834674072265625000e+01 2.663945007324218750e+01 7.522469111379340156e-14 2.838693635622696609e-13 1.077282184356979922e-13 -3.458557835196891805e-14
3.704000000000000000e+03 4.741288757324218750e+01 1.253639888763427734e+01 1.989442885061941391e-14 2.658752666813424259e-13 8.573090832077537304e-14 9.554566881599113604e-14
3.705000000000000000e+03 4.889169692993164062e+01 1.827829933166503906e+01 -4.931258106390980223e-14 2.461698481507051256e-14 -7.408678705245197449e-15 5.758949225701318064e-14
3.706000000000000000e+03 4.833680725097656250e+01 1.859198188781738281e+01 5.248088747432377854e-14 2.054956004622285337e-13 7.739294638096569368e-14 -9.670639533306338298e-14
3.707000000000000000e+03 5.287414169311523438e+01 1.386050128936767578e+01 2.370789654003446767e-13 1.931071676262302583e-13 1.290558371974670493e-13 -2.897802711763347583e-14
3.708000000000000000e+03 5.027104949951171875e+01 1.331624889373779297e+01 2.303162543494663428e-13 1.673333916091604423e-13 1.192948870113244575e-13 1.498920345482934735e-13
3.709000000000000000e+03 5.083051300048828125e+01 1.186587715148925781e+01 1.799835508495967185e-13 1.686377003751876602e-13 1.045863767226880292e-13 -6.887753442683802740e-15
3.710000000000000000e+03 5.097613906860351562e+01 1.370167827606201172e+01 1.269639910784006731e-13 -3.708876061088092757e-14 2.696256812381638696e-14 -4.768174512012255100e-16
3.711000000000000000e+03 5.138143157958984375e+01 2.774372291564941406e+01 6.400085404137043077e-14 1.646817854609669562e-13 6.860478981782214269e-14 -9.430738626820239084e-15
3.712000000000000000e+03 6.066006088256835938e+01 1.840002441406250000e+01 -4.038408469393336975e-14 2.844348495341202099e-14 -3.582180684486057157e-15 -9.510347695994292305e-14
3.713000000000000000e+03 6.232293319702148438e+01 1.774202728271484375e+01 -3.863885123314703129e-14 -6.231045410545754670e-14 -3.028479227920773120e-14 -9.955118597960305182e-14
3.714000000000000000e+03 5.740288925170898438e+01 1.339495086669921875e+01 1.664214827144100406e-13 2.200140704388189872e-13 1.159306618802105615e-13 -1.061424101281120691e-14
3.715000000000000000e+03 6.219396591186523438e+01 2.112605476379394531e+01 7.202056876223772441e-14 -1.488499129726275627e-14 1.714067391711884825e-14 -9.397273540920347834e-14
3.716000000000000000e+03 5.961575698852539062e+01 1.702773475646972656e+01 8.684243238800751219e-14 2.659729261920290577e-13 1.058446068963846132e-13 -3.857999260770822447e-14
3.717000000000000000e+03 5.359025573730468750e+01 2.959802055358886719e+01 2.353762258884561920e-14 1.244649186233487415e-13 4.440076575179009721e-14 8.483652284363776830e-14
3.718000000000000000e+03 6.383538055419921875e+01 2.709697914123535156e+01 -7.456929090052591413e-15 -6.038451124757218680e-14 -2.035243311772697017e-14 -1.891491656228275198e-14
3.719000000000000000e+03 4.872420120239257812e+01 1.641703987121582031e+01 -1.213643443555290080e-13 1.309905011065773395e-13 2.887848084105683506e-15 1.121386783344696658e-13
3.720000000000000000e+03 4.928442382812500000e+01 1.674589538574218750e+01 9.581233511657752389e-14 2.240662218483749357e-13 9.596356776711209569e-14 5.304987338631238225e-14
3.721000000000000000e+03 4.848886871337890625e+01 1.975898361206054688e+01 -1.069090156029586791e-13 -1.830709927186022212e-13 -8.699400385172098571e-14 1.249878293311385002e-13
3.722000000000000000e+03 4.846545791625976562e+01 1.812558174133300781e+01 1.109022524829013021e-14 -8.674894705568494957e-14 -2.269761493285584603e-14 5.371340172774172195e-14
3.723000000000000000e+03 4.901667404174804688e+01 2.359095573425292969e+01 6.122769527711416360e-14 3.236216091113963689e-13 1.154547919941795175e-13 1.196618352366021765e-13
3.724000000000000000e+03 4.907226562500000000e+01 2.189459800720214844e+01 7.328455875997563762e-14 2.601624156991361181e-13 1.000340896272280955e-13 7.457747662692817969e-14
3.725000000000000000e+03 4.891548156738281250e+01 1.268106842041015625e+01 7.052510837693773404e-14 2.589797950744432420e-13 9.885146900253521940e-14 9.746375120812597603e-14
3.726000000000000000e+03 4.827243041992187500e+01 1.241643714904785156e+01 1.594199015961424160e-14 1.440851290276240482e-13 4.800813677261102363e-14 3.417517394836526445e-14
3.727000000000000000e+03 4.912130737304687500e+01 2.096315383911132812e+01 1.175190045103746694e-13 6.466246131207539771e-14 5.465444177961409356e-14 7.465400266558081671e-15
3.728000000000000000e+03 4.868499374389648438e+01 2.136017608642578125e+01 5.866140906363170870e-14 2.195821378458279183e-13 8.347306407283788809e-14 8.803200715319734609e-15
3.729000000000000000e+03 4.870431900024414062e+01 1.928359603881835938e+01 1.176095353917772091e-13 3.706607232516895278e-13 1.464810803035454523e-13 -6.539099096187703242e-14
3.730000000000000000e+03 4.910343170166015625e+01 1.726967620849609375e+01 4.124818704914073875e-14 1.549306473044853583e-13 5.885365166134054471e-14 1.237279050915474077e-13
3.731000000000000000e+03 4.940997695922851562e+01 1.826680564880371094e+01 1.128505248233421798e-13 2.313683099275376520e-13 1.032656490700112339e-13 1.350105194742462489e-13
3.732000000000000000e+03 5.213070297241210938e+01 2.678767585754394531e+01 7.474564316014425946e-14 2.607885966638551212e-13 1.006602705919470986e-13 6.641133447343608789e-15
3.733000000000000000e+03 4.984241104125976562e+01 2.338500213623046875e+01 -3.207156084759563153e-14 2.150097862339134247e-13 5.488146693826898015e-14 6.637403707166963929e-14
3.734000000000000000e+03 4.884617996215820312e+01 1.877401542663574219e+01 7.979416281368723052e-14 2.172012976376855309e-13 8.909863678015911281e-14 1.361048724895716489e-13
3.735000000000000000e+03 5.128765487670898438e+01 1.298984050750732422e+01 2.257605452408995017e-13 2.340073664355846184e-13 1.379303707924398048e-13 1.401012315329578511e-14
3.736000000000000000e+03 4.783037948608398438e+01 1.373364543914794922e+01 3.749073534259350637e-14 1.075693557123745536e-13 4.351802528361134459e-14 -1.490679392532508196e-14
3.737000000000000000e+03 5.204397964477539062e+01 1.341486358642578125e+01 4.271840924074433998e-14 1.098097849629164902e-13 4.575845792228507014e-14 -1.053238798395328760e-14
3.738000000000000000e+03 5.133204650878906250e+01 1.482586956024169922e+01 1.481958815646028382e-13 1.664521520833642243e-13 9.439440873913740315e-14 -2.613519650533375344e-14
3.739000000000000000e+03 5.055107879638671875e+01 1.260690593719482422e+01 9.331509225269166152e-14 2.229959787788601822e-13 9.489331792133376409e-14 7.177173081112514508e-14
3.740000000000000000e+03 5.841456985473632812e+01 1.733529281616210938e+01 5.973833352903440419e-14 1.628549861154918177e-13 6.677799724861058217e-14 -7.334627019238079693e-14
3.741000000000000000e+03 5.487280654907226562e+01 1.451375961303710938e+01 5.158576677258795706e-14 -2.364276309452240099e-14 8.382901272826256273e-15 -1.529028910863400315e-13
3.742000000000000000e+03 4.906260299682617188e+01 1.430258178710937500e+01 7.685836017103098161e-14 2.616940410031520781e-13 1.015657217075076335e-13 4.912240522659226671e-14
3.743000000000000000e+03 4.932223892211914062e+01 1.365358066558837891e+01 2.410914079053333436e-13 3.092041596722272523e-13 1.650886729837736100e-13 -5.465288239195819839e-15
3.744000000000000000e+03 5.008638763427734375e+01 2.588297843933105469e+01 4.781475915075286687e-14 2.949977230808781270e-13 1.028437453471156560e-13 -1.057768137674181680e-14
3.745000000000000000e+03 4.954814910888671875e+01 2.497860717773437500e+01 2.250854701463331914e-14 3.756540976722344549e-13 1.194488030622359309e-13 3.210274182444995683e-14
3.746000000000000000e+03 5.867458724975585938e+01 1.434356784820556641e+01 1.048190600614305745e-13 2.050507794159120434e-13 9.296095116557642757e-14 -3.763054998899909021e-14
3.747000000000000000e+03 5.763772964477539062e+01 1.438724899291992188e+01 3.659450333363088725e-14 -3.006758931460920548e-14 1.958073570431794093e-15 -9.983879093464556598e-14
3.748000000000000000e+03 5.316247940063476562e+01 2.735366249084472656e+01 5.574292993881270475e-14 2.068936249535399674e-13 7.879096409601354933e-14 7.274268129043096054e-14
3.749000000000000000e+03 6.003756713867187500e+01 1.933890533447265625e+01 7.735828579276404771e-14 1.475309268196903223e-13 6.746676378373631100e-14 -2.727632945627011390e-14
3.750000000000000000e+03 5.846368789672851562e+01 1.538712787628173828e+01 9.697174703851563216e-14 -4.191628513332051539e-15 2.783403627753307935e-14 -1.302793729016440971e-13
3.751000000000000000e+03 5.922438049316406250e+01 1.590635681152343750e+01 9.789138595594267661e-15 -7.300938147233523856e-14 -1.896607227009922819e-14 -9.176576057194629765e-14
3.752000000000000000e+03 5.932680892944335938e+01 3.061852264404296875e+01 4.111905179413413713e-14 4.049792592204434771e-14 2.448509331485354545e-14 -2.534527221344923253e-14
3.753000000000000000e+03 5.554761123657226562e+01 3.351387405395507812e+01 3.873713754821463129e-14 3.947710553093598806e-14 2.346427292374518581e-14 6.537864460963785374e-14
3.754000000000000000e+03 6.177749633789062500e+01 2.228822517395019531e+01 -6.168137120586125038e-15 1.117338846771086247e-13 3.166972502928640243e-14 -6.689708330473095876e-14
3.755000000000000000e+03 6.004465484619140625e+01 2.304614830017089844e+01 1.836936127568109672e-14 7.078013983296063683e-14 2.674485016318593061e-14 -7.521082010224916514e-14
3.756000000000000000e+03 6.511891937255859375e+01 2.807639884948730469e+01 5.153904528225035711e-15 -2.066665862423579247e-14 -4.653826017044990215e-15 7.275607288132705103e-15
3.757000000000000000e+03 5.871300506591796875e+01 2.582397842407226562e+01 4.326857746877674216e-14 -4.331798490059008550e-15 1.168103327009884645e-14 1.661561174564306353e-14
3.758000000000000000e+03 5.933514022827148438e+01 2.416765785217285156e+01 1.072427313375838229e-14 1.647244352639271048e-13 5.263461378985506700e-14 -6.663650208883764581e-14
3.759000000000000000e+03 4.858653259277343750e+01 1.545946216583251953e+01 1.814594617144740796e-14 2.822825252626198766e-13 9.012854075259382758e-14 -4.330585369471950941e-14
3.760000000000000000e+03 4.945005416870117188e+01 1.891347312927246094e+01 3.329836271081729193e-14 8.289714943134074421e-14 3.485865499790012645e-14 -1.973441924468539305e-14
3.761000000000000000e+03 4.953556442260742188e+01 1.752148437500000000e+01 -3.919851215941931241e-15 2.728257615484952492e-13 8.067177026220562208e-14 8.251939984191963839e-14
3.762000000000000000e+03 4.983578872680664062e+01 1.710932159423828125e+01 1.540476798314767415e-14 6.602043300344296456e-15 6.602043300344296456e-15 9.155037703411847416e-14
3.763000000000000000e+03 4.919049835205078125e+01 1.773516464233398438e+01 5.546678364548064677e-15 1.625054664401368032e-13 5.041564496606476542e-14 -3.411195140918220348e-14
3.764000000000000000e+03 4.899436569213867188e+01 2.007824707031250000e+01 6.643864874488619732e-14 3.372926124598635278e-13 1.211193824271830644e-13 -6.929214011386006233e-14
3.765000000000000000e+03 5.007238769531250000e+01 2.210445404052734375e+01 -5.769506644355895664e-14 2.955301747677857582e-13 7.135053859590526071e-14 6.260829799476647084e-14
3.766000000000000000e+03 4.926353073120117188e+01 1.953806877136230469e+01 4.152357948314974040e-15 1.161569484261354424e-13 3.609279216644500909e-14 3.993678014701552981e-14
3.767000000000000000e+03 4.824679183959960938e+01 1.468865680694580078e+01 1.437196309227520286e-13 1.530960281508411680e-13 8.904469772207795897e-14 8.487886771473690528e-15
3.768000000000000000e+03 4.946117401123046875e+01 2.255439758300781250e+01 5.105317956040876515e-14 3.878875302551487714e-13 1.316822085400959352e-13 -4.897335114479803297e-14
3.769000000000000000e+03 5.170338439941406250e+01 1.413515090942382812e+01 1.497972617258910843e-13 -2.730307028641493217e-14 3.674825675421648785e-14 -3.123655238006055324e-14
3.770000000000000000e+03 4.958137512207031250e+01 1.297657489776611328e+01 8.654405317387592333e-14 -1.001625404796133156e-13 -4.085545683501449338e-15 1.198987740688717274e-13
3.771000000000000000e+03 4.983216476440429688e+01 1.227268028259277344e+01 2.214635403232148581e-13 2.321657948355093648e-13 1.360887991923645512e-13 5.150037229897756752e-14
3.772000000000000000e+03 4.842102050781250000e+01 1.402974128723144531e+01 1.408562665377449674e-13 1.518688739219134498e-13 8.781754349315024077e-14 2.002327018519331828e-15
3.773000000000000000e+03 5.096770858764648438e+01 2.522790527343750000e+01 1.210559159425111941e-13 2.348848925689400735e-13 1.067822452639408115e-13 2.687619956231665497e-14
3.774000000000000000e+03 5.244377899169921875e+01 1.462054920196533203e+01 8.594585817773420233e-14 5.970941243608335336e-14 4.369657982889255110e-14 2.148619349389042921e-14
3.775000000000000000e+03 4.998299789428710938e+01 1.399388980865478516e+01 1.628484944549840607e-13 1.841695876749274707e-13 1.041054246389734594e-13 1.800632532618015591e-13
3.776000000000000000e+03 5.366915130615234375e+01 1.444567871093750000e+01 9.878147358790591304e-15 4.998444082140833522e-14 1.795877560702673070e-14 2.053323738251608410e-14
3.777000000000000000e+03 5.435639572143554688e+01 1.374677848815917969e+01 1.583803346718454241e-13 -7.491390201995158996e-16 4.728935816609818044e-14 4.595162886810409686e-14
3.778000000000000000e+03 5.699408721923828125e+01 1.543392467498779297e+01 6.728204283859909318e-14 1.660880092312078116e-13 7.001101358806299801e-14 -1.329221699071861384e-13
3.779000000000000000e+03 5.036114501953125000e+01 2.431058120727539062e+01 1.384433881554056334e-13 3.338385882838135199e-13 1.416845834449967367e-13 9.519578830460059121e-15
3.780000000000000000e+03 5.713460159301757812e+01 2.336019706726074219e+01 3.272589718748136756e-14 3.690085820999382260e-14 2.088802729686891485e-14 -2.609084586021551827e-14
3.781000000000000000e+03 5.732434844970703125e+01 1.765943145751953125e+01 5.774271035277611652e-14 9.337330035682697704e-14 4.533480253525457027e-14 -4.626767380138362140e-14
3.782000000000000000e+03 5.768149185180664062e+01 1.527149105072021484e+01 1.195824851901033936e-13 2.571288993356846131e-13 1.130134194234945488e-13 2.028743858561825320e-14
3.783000000000000000e+03 5.864738464355468750e+01 1.855745124816894531e+01 6.140473871561746844e-14 1.635691636390351755e-13 6.749216799589036198e-14 -6.842857985973893609e-14
3.784000000000000000e+03 5.365010452270507812e+01 2.589615821838378906e+01 8.907463525456571496e-14 2.440541258669215452e-13 9.993862562594074683e-14 1.302047018651459470e-14
3.785000000000000000e+03 5.018895339965820312e+01 1.661713027954101562e+01 1.100124291252176090e-13 9.289913131295401971e-14 6.087347287483599323e-14 -5.756493507780638397e-14
3.786000000000000000e+03 4.990352249145507812e+01 1.802106285095214844e+01 -9.918447492355056405e-14 6.043199930272705189e-14 -1.162574234743387475e-14 -1.849229963764558587e-14
3.787000000000000000e+03 4.867815017700195312e+01 1.335832500457763672e+01 -1.362025167536652301e-14 2.686684425282082067e-13 7.651445801818215764e-14 -1.070101022089499018e-14
3.788000000000000000e+03 5.063034820556640625e+01 2.149548149108886719e+01 3.036561616303473654e-14 3.103949931283767061e-13 1.022281827874234328e-13 -1.385081721998269576e-15
3.789000000000000000e+03 5.065126419067382812e+01 1.438327789306640625e+01 2.139378897560856307e-13 1.717518271701634625e-13 1.157069096568638655e-13 5.734680037696587851e-14
3.790000000000000000e+03 5.289245223999023438e+01 1.860700225830078125e+01 6.897300520438895410e-14 2.583146099365690729e-13 9.818628386466105029e-14 6.622078509458881324e-14
3.791000000000000000e+03 4.985982513427734375e+01 1.985950851440429688e+01 9.605222839976709781e-14 1.784180848852720547e-13 8.234109601839081916e-14 -1.103357585418435205e-13
3.792000000000000000e+03 4.951788330078125000e+01 2.046452903747558594e+01 2.514911124132639814e-14 2.395329214924940553e-13 7.940461574937676681e-14 -7.217510145313479897e-15
3.793000000000000000e+03 5.037440490722656250e+01 1.851079750061035156e+01 6.554779370107274850e-14 2.809191207019286207e-14 2.809191207019286207e-14 -3.750955641468149693e-14
3.794000000000000000e+03 5.012358093261718750e+01 1.915922355651855469e+01 -4.821785874221939938e-14 2.080899471831876291e-13 4.796162788754318451e-14 -9.373699597558723950e-14
3.795000000000000000e+03 5.315912246704101562e+01 1.519224166870117188e+01 1.475160868024544270e-13 2.004740232326718274e-13 1.043970343657905919e-13 4.264378563809123612e-14
3.796000000000000000e+03 4.905236053466796875e+01 1.582180118560791016e+01 2.315897853263221284e-13 3.280075050546976678e-13 1.678791925353168013e-13 7.003622128857328599e-14
3.797000000000000000e+03 5.060864257812500000e+01 2.283447265625000000e+01 1.987699962307035162e-13 3.596928256546089164e-13 1.675388479208464454e-13 2.043863566076904031e-14
3.798000000000000000e+03 5.094996643066406250e+01 1.547584438323974609e+01 1.952115091753345300e-13 -7.839821863529425339e-15 5.621150517710199468e-14 -2.703553196540934601e-15
3.799000000000000000e+03 5.705502319335937500e+01 2.522807312011718750e+01 5.988697764688216685e-14 1.972319063712341114e-13 7.713566520543488347e-14 -9.655469173221013779e-15
3.800000000000000000e+03 5.781782913208007812e+01 2.010558128356933594e+01 6.635524649276774989e-14 2.457549680250081803e-13 9.363306164482734784e-14 -1.024025970356584603e-13
3.801000000000000000e+03 5.031511306762695312e+01 1.502687358856201172e+01 7.430353261925898289e-14 -1.390657761065868317e-14 1.811908675668997409e-14 1.455637232928783109e-13
3.802000000000000000e+03 4.961750030517578125e+01 1.619379806518554688e+01 5.039269037319417388e-14 1.817251861144231206e-13 6.963536464035108287e-14 1.345376853542981643e-13
3.803000000000000000e+03 5.048332214355468750e+01 2.026593589782714844e+01 -8.628060559848910183e-14 2.489660224942041866e-13 4.880562506871452544e-14 -1.382024208344389410e-14
3.804000000000000000e+03 5.099636077880859375e+01 1.870097923278808594e+01 5.997545532042056204e-14 2.315830361677984062e-13 8.746754947934476387e-14 3.469025129545881547e-14
3.805000000000000000e+03 5.158007812500000000e+01 1.598228359222412109e+01 9.739941058545253938e-14 4.174260356858486287e-14 4.174260356858486287e-14 -1.279598527966852375e-14
3.806000000000000000e+03 4.968815231323242188e+01 1.463641548156738281e+01 2.200452276987507894e-13 4.145617497289949549e-13 1.903820932283237233e-13 -2.070844275952384711e-14
3.807000000000000000e+03 5.005977630615234375e+01 2.093436622619628906e+01 1.010050672115882231e-13 1.347897894644553562e-13 7.073845903569214721e-14 -6.424935995556768642e-14
3.808000000000000000e+03 5.125859069824218750e+01 2.214715766906738281e+01 -1.176492764835964863e-14 2.036965973499504923e-13 5.757949726823557990e-14 3.345840450400330846e-14
3.809000000000000000e+03 5.085929870605468750e+01 1.948808288574218750e+01 6.482417006610161070e-14 2.908497553043287720e-13 1.067021769335027570e-13 -6.541302059476922226e-14
3.810000000000000000e+03 5.031474685668945312e+01 1.757668495178222656e+01 1.239404629274631908e-13 9.886829446499947882e-14 6.684262925061787430e-14 -1.726893842225567244e-14
3.811000000000000000e+03 5.215447235107421875e+01 1.919714355468750000e+01 4.827051031022072669e-15 3.537791533250039810e-13 1.075818646949396051e-13 4.459735193445245327e-14
3.812000000000000000e+03 5.124716567993164062e+01 2.365728187561035156e+01 1.013966539312356752e-13 2.264595032764465943e-13 9.835684919518375424e-14 6.248410009480941454e-15
3.813000000000000000e+03 5.200942993164062500e+01 1.532012653350830078e+01 1.692296069987289653e-13 7.252697249195139140e-14 7.252697249195139140e-14 -8.582496963550206859e-15
3.814000000000000000e+03 5.436444854736328125e+01 1.514416122436523438e+01 2.148566833346313154e-13 9.208143281072903030e-14 9.208143281072903030e-14 -6.199660468157730531e-14
3.815000000000000000e+03 4.996941757202148438e+01 1.562837600708007812e+01 1.120669786895504838e-13 4.140362911460998552e-13 1.578309829835741751e-13 3.439441868588314667e-15
3.816000000000000000e+03 5.241174697875976562e+01 2.570018577575683594e+01 1.183711467603668077e-13 2.566097562304442414e-13 1.124942695419905991e-13 3.531832283771609016e-14
3.817000000000000000e+03 5.551385879516601562e+01 2.485860443115234375e+01 3.328002275344334182e-14 1.400779720082262481e-13 5.200739944494041367e-14 -1.821239421209361331e-15
3.818000000000000000e+03 5.112123107910156250e+01 2.076877212524414062e+01 -3.801189099811655425e-14 2.868092319630727305e-13 7.463920161186049507e-14 8.943312670289804700e-14
3.819000000000000000e+03 5.830320358276367188e+01 1.627157592773437500e+01 8.593637140872495417e-14 1.283317663290997612e-13 6.428044267660013023e-14 -1.524384527569651315e-14
3.820000000000000000e+03 5.386872100830078125e+01 1.588846969604492188e+01 5.222180381268121119e-14 2.053845646072388620e-13 7.728191052597602195e-14 -1.364183661596140434e-14
3.821000000000000000e+03 5.747122192382812500e+01 1.605337142944335938e+01 1.258460431132965573e-13 5.393401992918357701e-14 5.393401992918357701e-14 -7.215259070552856868e-14
3.822000000000000000e+03 5.627509689331054688e+01 1.586326503753662109e+01 2.204589863528255700e-13 4.033013343857777544e-13 1.871280908005701349e-13 2.466912308110580376e-14
3.823000000000000000e+03 5.759420776367187500e+01 1.884707450866699219e+01 1.488337346433350056e-14 7.500501142485710426e-14 2.696651529735059200e-14 -3.024266424854309132e-14
3.824000000000000000e+03 5.914291000366210938e+01 2.109129524230957031e+01 2.336700304821429097e-14 1.701427491734505693e-13 5.805292769937853148e-14 -1.810616103391487347e-14
3.825000000000000000e+03 5.327426528930664062e+01 2.022326469421386719e+01 6.556066860187101386e-14 2.809743133687717109e-14 2.809743133687717109e-14 9.760314064399203821e-15
3.826000000000000000e+03 6.011735534667968750e+01 2.867622756958007812e+01 2.903219656867628284e-14 -5.618405453334737731e-14 -8.145557558807917792e-15 -1.525020818719628746e-14
3.827000000000000000e+03 5.588816452026367188e+01 2.884085655212402344e+01 2.313996772516403733e-14 1.242944955943611762e-13 4.423033933467074297e-14 3.748518897085488522e-14
3.828000000000000000e+03 5.074831008911132812e+01 1.807835197448730469e+01 -3.643255063411586503e-14 2.131407978714014440e-13 5.301247179949342136e-14 -4.135842330502820241e-14
3.829000000000000000e+03 5.167349243164062500e+01 1.842177391052246094e+01 -1.145941929672419923e-13 8.814104909262918119e-14 -7.935943162383843341e-15 7.476981409232710818e-14
3.830000000000000000e+03 5.115676498413085938e+01 1.658658599853515625e+01 1.230608225998713889e-13 5.274035399485850484e-14 5.274035399485850484e-14 -2.729637194986804516e-14
3.831000000000000000e+03 5.376221847534179688e+01 1.823237419128417969e+01 9.954300702946436430e-14 3.400424473248842006e-13 1.318756437601945053e-13 7.115047957815916202e-15
3.832000000000000000e+03 5.173534774780273438e+01 1.717069625854492188e+01 3.099512766130234354e-14 1.962874172012005203e-13 6.818476311993768024e-14 6.948977661737701372e-14
3.833000000000000000e+03 5.158137893676757812e+01 1.994831275939941406e+01 9.348630132825427874e-14 3.603222050157367518e-13 1.361425485150655201e-13 4.017969225562911806e-14
3.834000000000000000e+03 5.056682968139648438e+01 1.607431983947753906e+01 1.106833063244973270e-13 1.389375946106788384e-13 7.488627095817920742e-14 8.207063501020073204e-14
3.835000000000000000e+03 5.325410079956054688e+01 1.645318412780761719e+01 1.385152301018599541e-13 5.364480222340949067e-14 5.764801206927308574e-14 6.713570265036786222e-14
3.836000000000000000e+03 5.641227722167968750e+01 1.801390647888183594e+01 1.281615194829652249e-13 -1.280774260519618180e-13 2.522433676676764458e-17 -1.014485346992550011e-14
3.837000000000000000e+03 5.199928283691406250e+01 2.288064765930175781e+01 1.381275329575062938e-13 2.422013056693067545e-13 1.140986448117803365e-13 2.268308154154685674e-14
3.838000000000000000e+03 5.443637466430664062e+01 2.806179237365722656e+01 5.677451442461477205e-14 1.615847755077892689e-13 6.550778664090803338e-14 4.581851594637718905e-14
3.839000000000000000e+03 5.506173324584960938e+01 2.646791267395019531e+01 6.385233867253065076e-14 2.332445488920781296e-13 8.912906897988806532e-14 8.258301032219254184e-15
3.840000000000000000e+03 5.660305023193359375e+01 1.908575248718261719e+01 9.272794934244571463e-14 2.913707686583166812e-13 1.152296167554814343e-13 -4.427154579348877017e-14
3.841000000000000000e+03 5.839941787719726562e+01 2.292772483825683594e+01 4.633969193069097103e-14 2.257391322479929130e-13 8.162365233580284873e-14 1.169242755730531130e-14
3.842000000000000000e+03 5.290827941894531250e+01 2.370908164978027344e+01 6.928236874178053673e-14 2.126962343231009189e-13 8.459358024183807889e-14 3.410981688615512264e-14
3.843000000000000000e+03 5.597487640380859375e+01 1.722116470336914062e+01 1.668237623779836309e-13 7.149589622591767668e-14 7.149589622591767668e-14 -1.714433479351688133e-14
3.844000000000000000e+03 5.656135177612304688e+01 2.708201789855957031e+01 1.062944186608263258e-14 1.246517131051408378e-13 4.058434699958680947e-14 1.945803027641394671e-15
3.845000000000000000e+03 5.676974105834960938e+01 2.032312965393066406e+01 1.555720511453324156e-14 9.816926866681660591e-14 3.411794162618518589e-14 5.938442283488082341e-14
3.846000000000000000e+03 5.751034927368164062e+01 2.968000221252441406e+01 3.083021034647193126e-14 3.608842147643717690e-14 2.007558886924637465e-14 -1.290892081780065006e-15
3.847000000000000000e+03 5.179618835449218750e+01 2.136407470703125000e+01 3.282282486170157165e-14 1.513197661791310100e-13 5.524278070038156352e-14 8.760695754993566564e-15
3.848000000000000000e+03 5.481177520751953125e+01 1.923505210876464844e+01 1.331263522813194711e-13 2.629334196115745703e-13 1.188179329231209280e-13 -7.554329747470542311e-14
3.849000000000000000e+03 5.123574829101562500e+01 1.769468307495117188e+01 9.405947835926589673e-14 8.177300118506272697e-14 5.274974250804587150e-14 -2.657246752347489256e-15
3.850000000000000000e+03 5.073233795166015625e+01 1.711226463317871094e+01 8.796206086647898048e-14 1.291999276661903728e-13 6.514859723742716380e-14 6.143018040897943541e-16
3.851000000000000000e+03 5.470881271362304688e+01 1.803585815429687500e+01 3.186852705013877574e-14 5.940889192266110563e-14 2.738322501421360661e-14 -5.156173814194024707e-14
3.852000000000000000e+03 5.219500350952148438e+01 1.653624153137207031e+01 1.257081868070650255e-13 2.368787403641409162e-13 1.087760795066144981e-13 4.399572476080845784e-14
3.853000000000000000e+03 5.444765853881835938e+01 1.684519386291503906e+01 1.004750888608865744e-13 3.404419216153364847e-13 1.322751044981196333e-13 -1.064340689828401423e-14
3.854000000000000000e+03 5.256988906860351562e+01 2.198102378845214844e+01 1.197900150384442752e-13 9.708952527576544811e-14 6.506386683764742163e-14 3.954010445342097391e-14
3.855000000000000000e+03 5.299019622802734375e+01 2.106414985656738281e+01 1.039421234630064084e-13 1.817994675157655338e-13 8.572247864888429825e-14 -5.680840251876852209e-14
3.856000000000000000e+03 5.559175491333007812e+01 1.805026626586914062e+01 5.108885320001532726e-14 2.735254514205087695e-13 9.738428596514636659e-14 -8.714094035114708370e-14
3.857000000000000000e+03 5.348397827148437500e+01 2.255128097534179688e+01 7.990705536489728367e-14 1.714987337255238775e-13 7.542173808237906396e-14 -5.529881277687538274e-15
3.858000000000000000e+03 6.080253219604492188e+01 2.234948921203613281e+01 -3.584169941362683881e-15 -2.441154713810934906e-14 -8.398715377951494060e-15 -9.734731467106461089e-14
3.859000000000000000e+03 5.802299499511718750e+01 2.143760490417480469e+01 2.331964713019919755e-14 7.862055461955314017e-14 3.058206018611252242e-14 -5.409700262076246047e-14
3.860000000000000000e+03 5.478696060180664062e+01 2.166649436950683594e+01 8.038478194714870906e-14 1.488279985362161995e-13 6.876383550026218816e-14 -4.841174458384590873e-14
3.861000000000000000e+03 5.503884506225585938e+01 3.056405639648437500e+01 4.200680330922884620e-14 6.375386601021465482e-14 3.172820079583305031e-14 4.354724453215982893e-14
3.862000000000000000e+03 5.582983398437500000e+01 2.177406501770019531e+01 3.406053989741565646e-14 1.060992724341743021e-13 4.204794200541109306e-14 1.161013322428187250e-14
3.863000000000000000e+03 5.268851089477539062e+01 1.985366249084472656e+01 6.399089971017429823e-14 2.561794092831304326e-13 9.605108998748598803e-14 -4.914591886120804609e-15
3.864000000000000000e+03 5.235170745849609375e+01 1.782055282592773438e+01 2.801580954801385220e-14 1.492596194210826788e-13 5.318263055420144325e-14 2.552634244658378432e-14
3.865000000000000000e+03 5.283082962036132812e+01 1.709679031372070312e+01 6.632757223231505739e-14 2.571808597248009809e-13 9.705252687662938027e-14 4.369836537434536317e-14
3.866000000000000000e+03 5.455003738403320312e+01 2.299454116821289062e+01 5.809541487201280718e-14 1.964640879452070332e-13 7.636785355567138334e-14 -2.614704310813405208e-15
3.867000000000000000e+03 5.568223571777343750e+01 1.919836997985839844e+01 8.226172564310130220e-14 1.237955000148041954e-14 2.839238176163827454e-14 -8.403928865741844279e-14
3.868000000000000000e+03 5.486507415771484375e+01 2.042222976684570312e+01 9.885424727060221350e-14 6.524158112624495187e-14 4.922874851905414961e-14 1.377188836061693511e-14
3.869000000000000000e+03 5.692561721801757812e+01 2.171236038208007812e+01 8.057261319726824467e-14 2.632858666327952957e-13 1.031575405608872731e-13 1.185337652277783718e-14
3.870000000000000000e+03 5.577132034301757812e+01 2.326910972595214844e+01 1.107375435381759143e-13 2.990891768191866751e-13 1.229480113638242722e-13 1.026284431244507689e-14
3.871000000000000000e+03 5.512385559082031250e+01 1.533323192596435547e+01 1.515151936207215222e-13 4.080671889804265984e-13 1.678747202013552986e-13 -5.963410781894065704e-14
3.872000000000000000e+03 5.539115524291992188e+01 1.635633850097656250e+01 4.861614718654552747e-14 2.724656980070128132e-13 9.632455965670472242e-14 -6.167617550576279251e-14
3.873000000000000000e+03 5.383879089355468750e+01 2.142767333984375000e+01 8.784578695974348816e-14 1.062746150305195203e-13 5.823612398521069156e-14 2.325148977706543302e-14
3.874000000000000000e+03 5.578672027587890625e+01 2.042570495605468750e+01 7.001500480731046028e-14 3.045121121404703590e-13 1.123581411829714660e-13 -7.755125345067573339e-14
3.875000000000000000e+03 5.409799575805664062e+01 2.440311050415039062e+01 5.996600920899278209e-14 2.544544707317603072e-13 9.432614465985228458e-14 1.748714427386374726e-14
3.876000000000000000e+03 5.398059463500976562e+01 1.929681968688964844e+01 1.087644446620510130e-13 9.236428082873976431e-14 6.033862239062173782e-14 4.731772360543583245e-14
3.877000000000000000e+03 6.088635253906250000e+01 2.345591735839843750e+01 3.031171437440326188e-14 1.273681003331403327e-13 4.730394407344989949e-14 -3.617047525210359549e-14
3.878000000000000000e+03 6.633997344970703125e+01 2.961981391906738281e+01 2.825671588260834227e-14 -1.131689414488740164e-13 -2.547366885572582840e-14 -3.575437539896260397e-14
3.879000000000000000e+03 6.389776611328125000e+01 3.429280090332031250e+01 -1.208243794863792311e-14 -1.023989514058534778e-13 -3.434441790749025170e-14 -4.364369871496251788e-15
3.880000000000000000e+03 5.316666412353515625e+01 3.666879272460937500e+01 -4.075041627922548759e-14 2.227280182119303897e-13 5.459327922455875504e-14 -5.281421526785907983e-15
3.881000000000000000e+03 5.403499603271484375e+01 3.222034072875976562e+01 5.507296753511602139e-14 1.208234629967303020e-13 5.276892949836707591e-14 6.262341583880906559e-14
3.882000000000000000e+03 6.787186431884765625e+01 3.136588096618652344e+01 -8.151651960863412483e-15 -1.185857916854646255e-13 -3.802123546559066369e-14 -6.052458254496078868e-15
3.883000000000000000e+03 5.069342422485351562e+01 3.532027435302734375e+01 -4.706649024514841795e-14 2.772098143481033228e-13 6.904299723088647145e-14 6.809473368203991517e-14
3.884000000000000000e+03 5.152317810058593750e+01 3.365256500244140625e+01 -1.221741773098057940e-14 2.692696597379057311e-13 7.711566845161610395e-14 3.698150591096779904e-14
3.885000000000000000e+03 6.102669906616210938e+01 3.495724105834960938e+01 -1.377792939959675278e-14 1.125177899528699565e-14 -7.578451954083100222e-16 -3.177154855394173638e-14
3.886000000000000000e+03 5.783285522460937500e+01 3.475934219360351562e+01 2.891800297485924709e-14 9.245758997820929803e-14 3.641267924117327914e-14 1.386864726352239879e-15
3.887000000000000000e+03 6.151945495605468750e+01 3.786594009399414062e+01 -3.626154823459237786e-14 -2.697840086366646434e-14 -1.897198456007106321e-14 -9.982527228880738734e-15
3.888000000000000000e+03 6.550258636474609375e+01 3.726829147338867188e+01 -2.289563598933085087e-14 -8.987657216770819635e-14 -3.383166481880396648e-14 -1.805128685145995088e-14
3.889000000000000000e+03 5.851487350463867188e+01 3.242330169677734375e+01 -2.927832062622585940e-14 -5.829879764704393175e-14 -2.627313751486001075e-14 -3.612890287505235443e-14
3.890000000000000000e+03 6.272071838378906250e+01 3.161831283569335938e+01 3.529635524998728669e-16 -1.128646668854295376e-14 -3.280051020222263074e-15 -3.534054559412025398e-14
3.891000000000000000e+03 2.723486518859863281e+01 -1.690059065818786621e+00 2.087637571493439204e-12 -2.490718677312930840e-13 5.515697490757198729e-13 -8.054524386867656371e-14
3.892000000000000000e+03 6.748747253417968750e+01 -1.233550930023193359e+01 1.621579796438551990e-13 2.589337977972755445e-13 1.263275372980973699e-13 -7.846621166403625058e-14
3.893000000000000000e+03 2.245847892761230469e+01 3.525626754760742188e+01 -8.739370175887134495e-14 8.296505606272212147e-15 -2.372915876107644512e-14 1.114507452797640352e-13
3.894000000000000000e+03 2.342847061157226562e+01 3.674866485595703125e+01 2.528858199235539672e-14 5.658891256521240976e-14 2.456324904489669975e-14 1.283676229278229303e-14
3.895000000000000000e+03 2.492034721374511719e+01 3.678421020507812500e+01 7.312343276461713559e-14 -3.728780996535389913e-14 1.075068700918556039e-14 -4.932598451326715427e-14
3.896000000000000000e+03 2.674264526367187500e+01 3.667260742187500000e+01 1.498811078232738930e-14 -3.932747207860583238e-14 -7.301808558290122375e-15 -5.558436537108669973e-14
3.897000000000000000e+03 2.999880027770996094e+01 3.759996795654296875e+01 7.829560567593207843e-14 2.165590569282865863e-13 8.845639607076016819e-14 -2.764519875227220563e-14
3.898000000000000000e+03 4.216565704345703125e+01 -5.366923332214355469e+00 -4.796875990495906572e-14 -6.630899171758408706e-14 -3.428332311507069352e-14 -7.394845640776998019e-14
3.899000000000000000e+03 4.697738647460937500e+01 3.953762054443359375e+01 -4.996429498979083894e-14 1.844659949963578516e-13 4.035051169603599830e-14 -1.756066842775131503e-14
3.900000000000000000e+03 2.440831184387207031e+01 4.055195617675781250e+01 -2.523562930414132051e-15 5.610715749426384291e-14 1.607507936441862628e-14 -3.439538218586064844e-15
3.901000000000000000e+03 2.978157043457031250e+01 -2.331819534301757812e+00 7.833496763580416467e-13 -3.028631355038099993e-14 2.259190013884082582e-13 1.498401012642314178e-13
3.902000000000000000e+03 6.766952514648437500e+01 -1.153124523162841797e+01 4.137520895694394088e-15 4.752417263973601758e-14 1.549850742535441306e-14 -5.177858196456913698e-14
3.903000000000000000e+03 2.928242683410644531e+01 4.089429855346679688e+01 4.171297774422169646e-14 -1.193758498085548125e-13 -2.329886432980536604e-14 4.301151313368042906e-14
3.904000000000000000e+03 7.762535095214843750e+01 -1.090422821044921875e+01 6.766921863417371848e-16 4.604096035085332439e-14 1.401529598350466713e-14 1.859538693545822324e-14
3.905000000000000000e+03 6.653630828857421875e+01 -6.313709259033203125e+00 2.068176460981712567e-14 5.461456346845736110e-14 2.258889825407575658e-14 -1.063909888871427886e-14
3.906000000000000000e+03 2.485435247421264648e+00 3.718556213378906250e+01 -5.798933924196225664e-14 -1.163544765094351452e-13 -5.230314269254014714e-14 -1.759469035311073126e-14
3.907000000000000000e+03 2.058611297607421875e+01 3.532892227172851562e+00 8.826628121981483499e-14 -9.942444274563949635e-14 -3.347447314252919616e-15 -1.018827627515331291e-13
3.908000000000000000e+03 3.261243438720703125e+01 3.774796295166015625e+01 1.046247778083847502e-13 -4.666270625106050396e-14 1.738862078957091606e-14 -3.461747083649893697e-14
3.909000000000000000e+03 3.450639724731445312e+01 -9.566503763198852539e-01 9.226454236038739154e-13 6.699251613520584847e-13 4.777711971708231697e-13 3.463002996341446593e-13
3.910000000000000000e+03 5.363590240478515625e+01 3.416637420654296875e+01 1.595124314753004757e-14 1.326513497570264155e-13 4.458078058187237014e-14 4.622002142183698897e-15
3.911000000000000000e+03 4.074564743041992188e+01 3.403694152832031250e+01 3.976989771574748755e-14 4.849801997172144274e-14 2.648037598386703689e-14 -2.755605531083726856e-13
3.912000000000000000e+03 4.117139434814453125e+01 1.339084386825561523e+00 -1.063834485998463308e-13 2.289127817422381694e-13 3.675880062034390938e-14 6.682587155078939523e-14
3.913000000000000000e+03 3.978659057617187500e+01 3.667742908000946045e-01 1.524988271478630499e-15 6.754800711827879667e-13 2.031015194350546671e-13 6.529870502820778189e-14
3.914000000000000000e+03 6.056310272216796875e+01 3.233996582031250000e+01 -1.075826456593169736e-14 6.827052520584717815e-15 -1.179363571252446501e-15 -8.696277205288982515e-15
3.915000000000000000e+03 5.857743072509765625e+01 1.756764411926269531e+00 2.390309867086101020e-14 7.887060552184618767e-14 3.083211108840556991e-14 -1.979388197402218164e-13
3.916000000000000000e+03 7.014448547363281250e+01 -5.907268524169921875e+00 1.289040912449664414e-14 2.839993560146188839e-14 1.238710384130403339e-14 4.406991468259256750e-14
3.917000000000000000e+03 1.460772514343261719e+01 2.445145416259765625e+01 -8.432031386052668553e-14 8.788817113317137775e-13 2.383684070440816871e-13 -1.195796933695092434e-13
3.918000000000000000e+03 4.109804534912109375e+01 3.437673187255859375e+01 -1.107107095344068981e-13 1.584318207225113295e-13 1.431633233999179272e-14 3.341796715110138816e-14
3.919000000000000000e+03 2.003886795043945312e+01 3.620316696166992188e+01 1.080673094414064117e-14 -8.687043868537552838e-14 -2.281911333881000287e-14 -2.340175172784245139e-14
3.920000000000000000e+03 3.416469955444335938e+01 -1.671261668205261230e+00 6.068313711769801611e-13 5.088413414580661431e-13 3.347018300535464785e-13 3.762793841701611575e-13
3.921000000000000000e+03 4.033724975585937500e+01 3.894806861877441406e+00 4.948272152270616342e-13 8.983330572476244669e-13 4.179480925844275552e-13 4.376614359553193667e-13
3.922000000000000000e+03 3.770486450195312500e+01 -6.170583963394165039e-01 2.003695332482985370e-13 8.636388045685228221e-13 3.192024823715083892e-13 8.959028180779982087e-14
3.923000000000000000e+03 1.967148780822753906e+01 3.493807983398437500e+01 -8.476568378419299665e-14 -3.632814874116908899e-14 -3.632814874116908899e-14 1.112690533244461988e-13
3.924000000000000000e+03 6.222594451904296875e+01 1.836186647415161133e+00 1.010956658556265431e-13 4.332671442214448831e-14 4.332671442214448831e-14 -8.617379135570854554e-14
3.925000000000000000e+03 4.060346984863281250e+01 3.024223804473876953e+00 3.175194211290505164e-13 5.020873582346763175e-13 2.458820365196234814e-13 2.451128492883536403e-13
3.926000000000000000e+03 4.102538681030273438e+01 3.559354400634765625e+01 2.723974271514641166e-14 3.776817725752168453e-13 1.214764508601640092e-13 -9.677692946064714308e-14
3.927000000000000000e+03 3.554709434509277344e+00 5.324620246887207031e+00 -7.497497224841567776e-14 8.224523899381594449e-14 2.181079981268432659e-15 4.329052917463778460e-14
3.928000000000000000e+03 3.450268936157226562e+01 -2.215829133987426758e+00 3.354141508808694550e-13 2.352508379072082434e-13 1.711994939259178783e-13 1.224851383513358982e-13
3.929000000000000000e+03 3.699428558349609375e+01 -4.941802006214857101e-03 4.909763459508276195e-13 3.019203268471437607e-13 2.378689964183805516e-13 4.506915402945760318e-13
3.930000000000000000e+03 5.012804031372070312e+01 6.211658954620361328e+00 7.244302644468080671e-15 -1.341481450662512787e-13 -3.807115281123825412e-14 -9.436710039691792451e-14
3.931000000000000000e+03 3.616076278686523438e+01 -1.942965030670166016e+00 2.779887051888169092e-13 3.021418293509825492e-13 1.740391549409289751e-13 -1.404315405010691381e-14
3.932000000000000000e+03 7.311846160888671875e+01 1.584681797027587891e+01 -5.886633682675862511e-14 -3.454850609155984964e-13 -1.213054179674544208e-13 6.999265669003010282e-14
3.933000000000000000e+03 7.291857910156250000e+01 -6.543608665466308594e+00 1.285272750858532098e-13 5.508311837795591692e-14 5.508311837795591692e-14 1.215206998613285738e-13
3.934000000000000000e+03 7.282315826416015625e+01 -4.735839366912841797e+00 3.407883580907634935e-14 8.323163935407967839e-14 3.519314153250727162e-14 4.781347166067304033e-14
3.935000000000000000e+03 7.187680053710937500e+01 -6.117787361145019531e+00 4.866701320909404271e-14 1.809856111549892899e-13 6.889578968091725208e-14 -8.666194830167246038e-15
3.936000000000000000e+03 4.298869323730468750e+01 1.260001182556152344e+01 2.387334037054489322e-13 1.023143226500274061e-13 1.023143226500274061e-13 1.704920384558439306e-13
3.937000000000000000e+03 4.287818527221679688e+01 3.012350082397460938e+01 6.218314844161701438e-14 5.299103712254338294e-13 1.776280538672361797e-13 2.448904387651953951e-14
3.938000000000000000e+03 5.087870025634765625e+01 7.504579067230224609e+00 1.566107405434960520e-13 -1.158849085485316732e-13 1.221774807383000858e-14 -2.401905172151608259e-13
3.939000000000000000e+03 5.025755691528320312e+01 7.317258358001708984e+00 -2.959980689915854557e-14 3.306531684197332177e-14 1.039652474624664508e-15 4.323548558559341115e-14
3.940000000000000000e+03 6.299729156494140625e+01 5.724647521972656250e+00 -1.224235827729930337e-13 -1.897200929343312303e-13 -9.364310406744999482e-14 8.128277239650982811e-14
3.941000000000000000e+03 5.146671295166015625e+01 2.611786460876464844e+01 8.851533601136191143e-14 4.039427483910201788e-13 1.477374266759673427e-13 6.225064087388718428e-15
3.942000000000000000e+03 5.464189529418945312e+01 7.126467704772949219e+00 7.468576809516874748e-14 -8.236918363092177175e-14 -2.305023983099549478e-15 -6.904347834560051189e-14
3.943000000000000000e+03 6.779907989501953125e+01 8.255429267883300781e+00 -6.843906951575773334e-14 -7.794141037870822020e-14 -4.391414532359250167e-14 -8.180684015130553627e-15
3.944000000000000000e+03 6.688793945312500000e+01 7.406937122344970703e+00 6.475064760627993743e-14 -6.375161629070674740e-14 2.997096117241497418e-16 -7.682864625524130076e-14
3.945000000000000000e+03 9.354222297668457031e+00 2.867660140991210938e+01 5.238844568659223322e-14 -6.904970573182872551e-14 -4.998377844164358236e-15 -1.692970680907800868e-14
3.946000000000000000e+03 4.411412429809570312e+01 2.950767517089843750e+01 2.077051231745910553e-13 6.380278792274263200e-13 2.537198966548470658e-13 -1.285968131026909989e-13
3.947000000000000000e+03 5.341551971435546875e+01 7.649302005767822266e+00 6.979592142956903000e-14 -1.874044674868638460e-13 -3.528256449481480261e-14 -9.857694223619831164e-14
3.948000000000000000e+03 6.193578338623046875e+01 6.424848556518554688e+00 -3.951248101494511666e-14 -8.556034299025266909e-14 -3.752184516868026232e-14 3.100010143876862079e-14
3.949000000000000000e+03 1.852464675903320312e+01 4.578957080841064453e+00 1.209929102437626303e-13 4.636126552104435916e-13 1.753816682810091510e-13 -2.556020445212275893e-13
3.950000000000000000e+03 7.367858123779296875e+01 9.349993467330932617e-01 2.341254089471139777e-13 -2.600171343020889550e-15 6.945757581285419424e-14 8.681132933818433428e-14
3.951000000000000000e+03 5.939360809326171875e+01 2.218638992309570312e+01 -2.449271152918115063e-14 1.667880514689273896e-13 4.268860045726456665e-14 -1.010404460837291407e-13
3.952000000000000000e+03 6.877603149414062500e+01 9.123430252075195312e+00 7.236340026544121895e-14 -1.748663876460082589e-13 -3.075089756942282759e-14 -5.158892789954711011e-14
3.953000000000000000e+03 4.325618362426757812e+01 3.060392951965332031e+01 9.779485299907589302e-14 6.366744154454040405e-13 2.203407812109703379e-13 -5.781495209878154129e-14
3.954000000000000000e+03 6.415473937988281250e+00 2.615165519714355469e+01 8.726227612677536771e-14 -8.352829909132834102e-15 2.367283445821582316e-14 -3.441011378287929523e-14
3.955000000000000000e+03 7.733775615692138672e+00 2.542339515686035156e+01 7.533548979955784208e-14 3.228663945356244347e-14 3.228663945356244347e-14 -5.753302565261741996e-14
3.956000000000000000e+03 5.302223587036132812e+01 9.478139877319335938e+00 1.182746121094341296e-13 -7.512598805851575245e-14 1.294458619883597644e-14 -1.014874152055998680e-13
3.957000000000000000e+03 6.335497665405273438e+01 2.199838256835937500e+01 -3.518485755028312456e-14 -6.083017255057235340e-14 -2.880450733619074888e-14 -8.983978383274304758e-14
3.958000000000000000e+03 4.740686798095703125e+01 1.070013523101806641e+01 2.065999281375408003e-13 1.571692537401248035e-13 1.091307491422888187e-13 -2.001455506319901878e-14
3.959000000000000000e+03 6.267954635620117188e+01 7.279858112335205078e+00 -8.653294010160794691e-14 -8.283649509605375827e-14 -5.081083326980394277e-14 -2.895676659065739289e-14
3.960000000000000000e+03 6.578726196289062500e+01 1.471190834045410156e+01 1.583365295159452207e-14 1.554764346781145612e-13 5.139302611950613553e-14 -4.123403397562506664e-15
3.961000000000000000e+03 7.023289680480957031e+00 2.554570007324218750e+01 4.546091557670536853e-14 1.109851482093172914e-13 4.693381778055408238e-14 8.126122387833167870e-15
3.962000000000000000e+03 4.378541183471679688e+01 7.145224571228027344e+00 1.064236182903369188e-13 5.488705735572085853e-13 1.965882561990109356e-13 5.172999954284641932e-14
3.963000000000000000e+03 4.500226593017578125e+01 2.885461235046386719e+01 1.034213947120887767e-13 5.475838966290114129e-13 1.953015928233409193e-13 -1.285713072465832774e-13
3.964000000000000000e+03 5.199210739135742188e+01 2.459571647644042969e+01 1.169093576287860703e-13 2.731398820229186120e-13 1.170147691850059735e-13 1.519415006443934017e-15
3.965000000000000000e+03 1.377931404113769531e+01 1.765806007385253906e+01 2.168564129266178919e-13 9.164554965607196735e-13 3.399935769119594164e-13 -3.117870680602666256e-14
3.966000000000000000e+03 6.918055725097656250e+01 1.518637752532958984e+01 -1.499302357342146425e-14 -2.930105499053016482e-14 -1.328822407740525707e-14 -1.159339822493637984e-13
3.967000000000000000e+03 6.390702247619628906e+00 1.932119178771972656e+01 -5.736996503400738912e-16 2.262960326938900923e-14 6.616771085714680603e-15 4.108551606568644488e-14
3.968000000000000000e+03 5.897362518310546875e+01 1.983261108398437500e+01 2.555367450572578608e-14 -4.861620774940125615e-16 7.520254120222270161e-15 -4.437729616288757506e-14
3.969000000000000000e+03 5.401604461669921875e+01 2.035064125061035156e+01 1.191754350369708670e-13 1.197016119038052384e-13 7.166311408223283164e-14 -5.931485771298872223e-14
3.970000000000000000e+03 6.096387100219726562e+01 2.028831481933593750e+01 -2.953186130426159461e-14 1.021896207654667335e-14 -5.793869683611181653e-15 -1.096642985838960915e-13
3.971000000000000000e+03 6.018408203125000000e+01 2.137640190124511719e+01 7.979364781765529990e-14 5.707275472534301120e-14 4.105992211815220894e-14 -2.425479691495636275e-14
3.972000000000000000e+03 6.288273239135742188e+01 1.990846633911132812e+01 1.057445036956451527e-15 4.531907376869876835e-16 4.531907376869876835e-16 -1.036064070365598500e-13
3.973000000000000000e+03 1.414147758483886719e+01 2.830393791198730469e+01 4.815447696084225460e-14 2.493923849985341112e-13 8.926405892662608865e-14 -1.762504123767674735e-14
3.974000000000000000e+03 4.741439437866210938e+01 2.496414375305175781e+01 -1.276212174947024408e-14 8.603241816868001379e-14 2.198108943398269927e-14 -5.658281731612396781e-14
3.975000000000000000e+03 5.225366210937500000e+01 2.055775833129882812e+01 6.630695036818120419e-15 2.773474267088460454e-13 8.519343542255641832e-14 7.351552092776936220e-14
3.976000000000000000e+03 5.247892379760742188e+01 1.004926681518554688e+01 2.466031935946522147e-13 -1.916940862772484322e-13 1.647272914590252463e-14 -6.007280312298260427e-14
3.977000000000000000e+03 1.198683834075927734e+01 6.984752178192138672e+00 -1.660454441315423885e-14 1.758875570146908873e-13 4.778490632155983631e-14 1.173348256663236944e-13
3.978000000000000000e+03 1.477702236175537109e+01 1.368405818939208984e+01 5.558008954876896002e-14 -2.193091120218735451e-14 1.009475316516130275e-14 -1.227378099735677505e-14
3.979000000000000000e+03 5.968420028686523438e+01 1.828245162963867188e+01 -4.557670159246324237e-14 4.909355189627699623e-14 1.055054921737536705e-15 -1.803168312092869735e-14
3.980000000000000000e+03 1.297144126892089844e+01 1.725998115539550781e+01 2.786789218443483374e-14 8.354604443157331861e-13 2.589984975619186169e-13 -7.259833332369167169e-14
3.981000000000000000e+03 5.562359237670898438e+01 1.411457824707031250e+01 5.498728168217177636e-14 -2.218497026438680936e-14 9.840693255928900651e-15 1.093698631551669187e-13
3.982000000000000000e+03 4.754904174804687500e+01 2.444869232177734375e+01 -5.738359548819460532e-14 2.041617742920553980e-13 4.403345499641095340e-14 -6.953355805635469400e-14
3.983000000000000000e+03 9.263976097106933594e+00 2.534353256225585938e+01 1.782771521553760952e-13 2.594082988780638255e-13 1.313056380205374074e-13 5.117155749698523715e-14
3.984000000000000000e+03 1.159038543701171875e+01 7.601450920104980469e+00 -4.530034523496026533e-14 -1.109163284764187740e-13 -4.686500482391914302e-14 7.473146044047543346e-14
3.985000000000000000e+03 1.576369667053222656e+01 6.926848411560058594e+00 -1.922337479086030920e-13 1.006178986157936495e-13 -2.748475546546919057e-14 -1.635801140809772791e-13
3.986000000000000000e+03 1.282752895355224609e+01 1.994998550415039062e+01 2.294860604172034579e-14 9.248540518494441365e-13 2.843408017719206704e-13 -1.494452619380665093e-13
3.987000000000000000e+03 4.720160293579101562e+01 2.463841819763183594e+01 1.128942520522112358e-13 2.313870395200673391e-13 1.032843922150680771e-13 1.046119435651679530e-13
3.988000000000000000e+03 9.134928703308105469e+00 2.443638038635253906e+01 1.368463041452258611e-14 5.864841303712198597e-15 5.864841303712198597e-15 4.595013809011692929e-14
3.989000000000000000e+03 6.261298751831054688e+01 1.327238559722900391e+01 6.947207701691118786e-14 5.264922002599752016e-14 3.663638741880671790e-14 -3.248118259275602215e-14
3.990000000000000000e+03 5.333039093017578125e+01 1.244255256652832031e+01 3.301616250360461802e-13 2.712046522957995559e-14 1.071846265714680724e-13 -3.007946132839792175e-14
3.991000000000000000e+03 1.578812313079833984e+01 8.751013755798339844e+00 -4.607150774706310348e-14 1.632588649772698242e-13 3.515620750787519511e-14 -5.297408765445564549e-14
3.992000000000000000e+03 6.144147109985351562e+01 1.410649108886718750e+01 1.198853333500646962e-14 1.423907920825723261e-13 4.631379643942751256e-14 -9.623951754880039067e-14
3.993000000000000000e+03 1.266253852844238281e+01 1.517624855041503906e+01 7.696270107760555534e-14 3.989916036450935621e-13 1.427862954825678821e-13 1.149303684855459626e-14
3.994000000000000000e+03 1.233850669860839844e+01 2.421072196960449219e+01 8.165770983654604964e-14 2.637509080496286407e-13 1.036225887539841961e-13 1.527323054270265934e-13
3.995000000000000000e+03 1.410942840576171875e+01 8.153396606445312500e+00 -5.661072874580189151e-14 1.587420516216409005e-13 3.063939754037806051e-14 -1.727698388000187268e-13
3.996000000000000000e+03 1.392026138305664062e+01 8.475545883178710938e+00 1.990240790098254942e-14 8.529603144125964820e-15 8.529603144125964820e-15 -1.825407771986753414e-13
3.997000000000000000e+03 5.682726287841796875e+01 1.669175148010253906e+01 5.683603950977153541e-14 2.016432268554801954e-13 7.754377923194916145e-14 -6.575332455165810996e-14
3.998000000000000000e+03 4.544596099853515625e+01 1.131683444976806641e+01 1.635206455918164492e-13 4.313289126095607579e-15 5.035018287176916407e-14 1.121136942506574530e-13
3.999000000000000000e+03 5.265953445434570312e+01 1.586673259735107422e+01 5.158310370100178954e-14 6.785799136141412724e-14 3.583232953516431174e-14 5.274186848976819553e-14
4.000000000000000000e+03 5.324276733398437500e+01 1.944297218322753906e+01 5.998539101689185499e-15 2.770764845859419179e-13 8.492251362844302487e-14 -1.893085941641597242e-14
4.001000000000000000e+03 4.511702346801757812e+01 1.442623329162597656e+01 -2.679281425085715262e-14 2.630230560261848094e-13 7.086907151615876033e-14 1.844194556181039113e-13
4.002000000000000000e+03 4.562187194824218750e+01 2.414653968811035156e+01 2.204555880566411857e-14 -8.205380277147289458e-14 -1.800247234270968555e-14 -3.115952659196903618e-14
4.003000000000000000e+03 1.084891891479492188e+01 1.972859001159667969e+01 1.102990582983048862e-13 3.217767306946950345e-13 1.296227394084054074e-13 -4.164894205340927136e-14
4.004000000000000000e+03 5.357679367065429688e+01 1.722249794006347656e+01 7.588503122320927607e-14 1.240240549149618232e-13 5.997272448619861418e-14 7.359042574536095449e-14
4.005000000000000000e+03 1.442232227325439453e+01 1.289762210845947266e+01 -1.836117385521293666e-14 3.788187482884480817e-14 5.856209614463203650e-15 1.778912676615295591e-14
4.006000000000000000e+03 4.623096847534179688e+01 2.335489273071289062e+01 -2.030017796114495787e-14 2.658056066917602323e-13 7.365162895799776122e-14 3.743855811304264147e-14
4.007000000000000000e+03 4.661278915405273438e+01 2.283954620361328125e+01 -2.899272822146602147e-14 3.078311802511002337e-13 8.365153730295615819e-14 6.302297144442428611e-14
4.008000000000000000e+03 1.002884292602539062e+01 1.219490909576416016e+01 -1.019390192917579707e-13 -4.368815015700147630e-14 -4.368815015700147630e-14 1.087710786240939087e-13
4.009000000000000000e+03 1.012219905853271484e+01 2.099658584594726562e+01 1.125872331020176531e-13 1.855045115998002481e-13 8.942752273291901255e-14 -8.114002828665616528e-16
4.010000000000000000e+03 1.005590820312500000e+01 2.038792037963867188e+01 1.546155239430524464e-13 4.551468793870250273e-13 1.829287182885178109e-13 9.404317466909714596e-14
4.011000000000000000e+03 4.779284286499023438e+01 2.199743843078613281e+01 1.957501272620981725e-13 1.525193410152961282e-13 1.044808364174601434e-13 -3.276328310419080424e-15
4.012000000000000000e+03 1.306381702423095703e+01 1.369300079345703125e+01 4.286967916072859097e-14 1.098746202528311233e-13 4.582328982406791429e-14 2.464725269040769773e-14
4.013000000000000000e+03 1.311859035491943359e+01 1.331613445281982422e+01 1.883509624309165353e-13 2.637256461390097284e-13 1.356229852814833103e-13 -9.823776313906337765e-15
4.014000000000000000e+03 1.268857002258300781e+01 1.281233692169189453e+01 2.349605427755252496e-13 2.379502302661540281e-13 1.418732346230092145e-13 9.846093260374236267e-14
4.015000000000000000e+03 1.400094699859619141e+01 9.564205169677734375e+00 2.988633104016036324e-14 1.958122249415272798e-13 6.770956408400086168e-14 -4.047505332196305039e-13
4.016000000000000000e+03 1.551853942871093750e+01 7.829780101776123047e+00 5.941988979844825547e-14 -2.028528203973454375e-14 1.174038148058116626e-14 -2.356062664844033039e-13
4.017000000000000000e+03 4.748472595214843750e+01 2.127306747436523438e+01 -2.255286547249955864e-14 2.648401788672705148e-13 7.268619435724446576e-14 4.631176017222231323e-14
4.018000000000000000e+03 4.503362655639648438e+01 1.344748210906982422e+01 -2.478429787788893890e-13 3.103442660192315405e-14 -6.504256226495808146e-14 2.383520626963314681e-13
4.019000000000000000e+03 1.220622634887695312e+01 1.261132240295410156e+01 9.439299250004959396e-14 1.777069837853931245e-13 8.162999491851188893e-14 -1.655511665255016140e-13
4.020000000000000000e+03 4.730031585693359375e+01 2.064010238647460938e+01 3.696527337156661763e-14 2.102837896216305791e-13 7.417472262490412693e-14 1.228257946739308437e-13
4.021000000000000000e+03 1.206267547607421875e+01 1.083295059204101562e+01 1.699832156000329053e-14 -1.757188009465435186e-13 -4.761614347714888951e-14 5.187809817147615021e-14
4.022000000000000000e+03 1.168840980529785156e+01 1.461370754241943359e+01 -9.096599883941236531e-14 4.185240478835061673e-13 9.826741606848085619e-14 -8.513873064669094659e-14
4.023000000000000000e+03 4.562866210937500000e+01 2.010101890563964844e+01 6.662971227273245534e-14 2.115593805826140872e-13 8.345672650135124715e-14 2.679040359508926689e-14
4.024000000000000000e+03 4.599508285522460938e+01 2.024160766601562500e+01 2.843403884198424103e-14 -7.931588057782240631e-14 -1.526455353719098629e-14 1.940393375490789829e-13
4.025000000000000000e+03 4.752690124511718750e+01 1.677953910827636719e+01 1.861055661791718996e-13 2.170123754091299317e-13 1.209353797659851182e-13 1.974000661281866131e-13
4.026000000000000000e+03 4.776318359375000000e+01 1.575559043884277344e+01 -4.362731625072967245e-14 3.473101797477062824e-13 9.110485803265344629e-14 8.006303817620005758e-14
4.027000000000000000e+03 4.640869522094726562e+01 1.887668418884277344e+01 -7.875207511933920990e-14 -3.082565940785292335e-13 -1.161026027922396064e-13 1.119147499282699409e-13
4.028000000000000000e+03 7.711834716796875000e+01 -1.299776554107666016e+01 3.154433365990666482e-14 3.639447480907088972e-14 2.038164220188008746e-14 2.810471243209176906e-14
4.029000000000000000e+03 7.789198303222656250e+01 -1.297994422912597656e+01 -1.887428439180296319e-14 -8.088979146063119546e-15 -8.088979146063119546e-15 7.182764006784161243e-15
4.030000000000000000e+03 7.903719329833984375e+01 -1.217878055572509766e+01 -6.642792869590574689e-14 -1.885974286897768026e-13 -7.650760721570476486e-14 -9.040143359237548179e-16
4.031000000000000000e+03 7.634127044677734375e+01 -1.300821304321289062e+01 -4.869803324968838970e-15 -4.783800851108910290e-14 -1.581234329670749839e-14 -8.363240113461178904e-14
4.032000000000000000e+03 7.865165710449218750e+01 -1.295684051513671875e+01 -4.292084672700632875e-14 -8.702107502471523315e-14 -3.898257381501103735e-14 -2.320400849817414596e-14
4.033000000000000000e+03 7.934807586669921875e+01 -1.291915225982666016e+01 5.487863446009336177e-14 -2.223153335956327276e-14 9.794131007785384507e-15 -1.083738930166651057e-14
4.034000000000000000e+03 7.966441345214843750e+01 -1.234435749053955078e+01 3.928834423864036723e-15 -1.126935865588749031e-13 -3.262942691105268078e-14 2.159355915511964805e-15
4.035000000000000000e+03 7.627622985839843750e+01 -1.226877021789550781e+01 -2.077587166432297294e-14 -7.753036900632823136e-14 -2.949187118475582459e-14 -8.829943070123857929e-14
4.036000000000000000e+03 7.770402526855468750e+01 -1.224003696441650391e+01 -8.819998225696734639e-14 7.950957668406873069e-15 -2.407470754597473145e-14 5.913756355273303011e-14
4.037000000000000000e+03 7.840223693847656250e+01 -1.221670055389404297e+01 3.794292218741932010e-14 -2.124934885168461296e-13 -5.236516922120168505e-14 -1.857814981498159823e-14
4.038000000000000000e+03 7.699185180664062500e+01 -1.225809097290039062e+01 -4.047973504246911436e-14 1.656553312492231589e-13 3.755268055609210787e-14 1.963820646627267158e-14
4.039000000000000000e+03 7.406774902343750000e+01 -1.312981986999511719e+01 -1.748508090160423578e-14 -9.899550526114991866e-14 -3.494417483238670963e-14 -2.965449134623328320e-14
4.040000000000000000e+03 7.400872802734375000e+01 -1.239208412170410156e+01 1.399438612816874747e-14 9.749948922223652947e-14 3.344816218160510946e-14 -2.628896009031472109e-14
4.041000000000000000e+03 7.557528686523437500e+01 -1.303425216674804688e+01 -1.643382831076692363e-14 3.870788103021646775e-14 6.682215392318389610e-15 2.299572987270789154e-14
4.042000000000000000e+03 7.331423187255859375e+01 -1.317915630340576172e+01 -5.985823273678414491e-14 -9.427995087104082406e-14 -4.624145643760020630e-14 -7.006583356040929633e-14
4.043000000000000000e+03 7.482145690917968750e+01 -1.308151912689208984e+01 -3.581824168318557822e-14 -1.535067476507012002e-14 -1.535067476507012002e-14 -1.974986573751152247e-14
4.044000000000000000e+03 7.553604125976562500e+01 -1.229524612426757812e+01 2.961121135076037747e-14 -2.160642270567642020e-13 -5.593590437298796847e-14 5.693541341514340992e-14
4.045000000000000000e+03 7.324532318115234375e+01 -1.244205474853515625e+01 7.819478673235218807e-15 -4.239974528159190514e-14 -1.037407922017735337e-14 -5.214181340927430408e-14
4.046000000000000000e+03 7.477232360839843750e+01 -1.234315013885498047e+01 -2.095986585519144657e-14 -8.982799652224905673e-15 -8.982799652224905673e-15 -9.235583929838742795e-15
4.047000000000000000e+03 7.096827697753906250e+01 -1.272444248199462891e+01 6.504937240985400604e-14 -1.093745455532993405e-13 -1.329755075718747417e-14 1.237461603456266324e-13
4.048000000000000000e+03 7.106666564941406250e+01 -1.345787525177001953e+01 4.753838585259094474e-14 -1.168792574659724415e-13 -2.080226012876173342e-14 4.529088895913711832e-14
4.049000000000000000e+03 7.031845092773437500e+01 -1.356116008758544922e+01 1.203496801998812926e-13 9.732937790137355383e-14 6.530371946325552734e-14 6.227498714189011464e-14
4.050000000000000000e+03 7.181496429443359375e+01 -1.335562419891357422e+01 -1.782452723763402851e-15 4.498704130029805570e-14 1.296137608591645118e-14 -3.872798281612070681e-14
4.051000000000000000e+03 7.172639465332031250e+01 -1.262085151672363281e+01 3.348305993903198663e-14 -1.686539091976663185e-13 -4.055125511640347846e-14 2.605197721233191294e-14
4.052000000000000000e+03 7.256328582763671875e+01 -1.325442695617675781e+01 -9.145286660123055911e-14 6.556863833487172957e-15 -2.546880011034501068e-14 4.079320499558898583e-14
4.053000000000000000e+03 7.248452758789062500e+01 -1.251831245422363281e+01 2.748486600326880726e-15 1.177922874088285343e-15 1.177922874088285343e-15 2.945762691324775411e-15
4.054000000000000000e+03 7.021024322509765625e+01 -1.282906818389892578e+01 2.778465425670815364e-14 -3.384323867699524924e-14 -1.817575791954249669e-15 3.866727765885688561e-14
4.055000000000000000e+03 6.946450042724609375e+01 -1.368148803710937500e+01 1.308863363828557946e-13 -5.828323256960518672e-14 2.178093046634882457e-14 -4.761033283113072501e-14
4.056000000000000000e+03 6.942981719970703125e+01 -1.293651866912841797e+01 6.989324890334033813e-14 2.129580420427018561e-13 8.485538796143901608e-14 -4.773971541975792487e-14
4.057000000000000000e+03 6.844756317138671875e+01 -1.325969314575195312e+01 7.453002245309120477e-14 1.234433426788514310e-13 5.939200547382464390e-14 -3.330011437495221382e-14
4.058000000000000000e+03 6.787104797363281250e+01 -1.338530731201171875e+01 -1.127403563300904965e-13 -2.566346564579946761e-15 -3.459200902610447270e-14 1.549177626628081995e-15
4.059000000000000000e+03 6.822621154785156250e+01 -1.295994949340820312e+01 9.173696822800322948e-14 8.506679383254653337e-14 5.304112861816492885e-14 9.462913850948051486e-14
4.060000000000000000e+03 6.794889068603515625e+01 -1.309183692932128906e+01 9.149770513732641275e-14 4.052208872271090279e-13 1.490155790645833478e-13 1.314621697091900021e-13
4.061000000000000000e+03 6.875301361083984375e+01 -1.294659233093261719e+01 1.440386845170602004e-13 1.989837060314275652e-13 1.029067171645463297e-13 -1.764278996605351396e-14
4.062000000000000000e+03 6.854268646240234375e+01 -1.381786727905273438e+01 2.209442244232532465e-14 9.469038068563289529e-15 9.469038068563289529e-15 1.337910224231617096e-14
4.063000000000000000e+03 2.089543914794921875e+01 -3.752456903457641602e-01 -3.384683687295518550e-14 2.142489609118988780e-13 5.412063483999085545e-14 4.892623578413995977e-14
4.064000000000000000e+03 2.090250968933105469e+01 1.645061671733856201e-01 -1.684298994763036572e-13 -3.466899347898816375e-13 -1.545359435035920104e-13 1.191927399200832724e-14
4.065000000000000000e+03 2.101823997497558594e+01 4.997985661029815674e-01 -1.200204757627332253e-13 -5.686399413812976908e-15 -3.771206505171105505e-14 5.734171140301877467e-14
4.066000000000000000e+03 2.130464744567871094e+01 4.313346743583679199e-01 -2.214647464981317482e-13 8.809033553601117172e-14 -4.001232193338345733e-14 -1.853269328364742785e-13
4.067000000000000000e+03 2.139006233215332031e+01 6.827931404113769531e-01 -3.095591003584446943e-13 -2.241700884164990470e-13 -1.601187579877358380e-13 3.698033351148968069e-16
4.068000000000000000e+03 1.707793617248535156e+01 -5.109162330627441406e-01 -1.474640586507022788e-13 -2.462026893121360693e-13 -1.181000149020824952e-13 -5.414373851066016374e-14
4.069000000000000000e+03 1.633993148803710938e+01 -4.782602787017822266e-01 -2.285195619430684111e-14 1.732101061972107781e-13 4.510744195155257097e-14 4.691270294324492718e-14
4.070000000000000000e+03 1.781616592407226562e+01 -5.415064096450805664e-01 -1.396711386955282186e-13 3.164283681540876192e-14 -3.240849022522265810e-14 8.980394078654703460e-15
4.071000000000000000e+03 1.854128074645996094e+01 1.711868941783905029e-01 -1.294050993748060985e-13 8.179351293491343711e-14 -1.428347593196779841e-14 -8.786034237390910606e-14
4.072000000000000000e+03 1.855440711975097656e+01 -5.699911117553710938e-01 -5.746026213431648655e-14 1.126270165454842931e-13 1.655002598453716306e-14 -3.105282754566930647e-14
4.073000000000000000e+03 1.639075088500976562e+01 2.602692842483520508e-01 -1.284325429210322889e-13 -1.922953712495817369e-13 -9.621837560643692333e-14 4.638594670587463387e-14
4.074000000000000000e+03 1.710744285583496094e+01 2.284961640834808350e-01 -7.580324849808597887e-14 -1.239890080797362293e-13 -5.993767765097302025e-14 3.627033027218951045e-14
4.075000000000000000e+03 1.782435607910156250e+01 1.987887471914291382e-01 -1.972079217862996586e-14 -1.457046153651928022e-13 -4.962762311017977768e-14 4.597305880166963066e-14
4.076000000000000000e+03 1.421318435668945312e+01 5.040000677108764648e-01 -1.069678437352113848e-14 -5.033528525629285544e-14 -1.830962004191125092e-14 5.412924747099853717e-14
4.077000000000000000e+03 1.412459087371826172e+01 -2.306861728429794312e-01 -2.347955170404775888e-14 -1.473155094005446086e-13 -5.123852053366337311e-14 -4.812507475317716332e-14
4.078000000000000000e+03 1.338628387451171875e+01 -1.375386416912078857e-01 1.770404061253536693e-14 3.046291991988352155e-14 1.445008900675861380e-14 5.801399806512272384e-14
4.079000000000000000e+03 1.486306858062744141e+01 -3.233485221862792969e-01 2.192084167451039539e-14 9.394646552937733347e-15 9.394646552937733347e-15 2.547591518710194680e-14
4.080000000000000000e+03 1.566856193542480469e+01 3.219058215618133545e-01 -3.886799736230184266e-14 -6.240866249349399930e-14 -3.038299727911239478e-14 6.279267335046120890e-14
4.081000000000000000e+03 1.560165977478027344e+01 -4.155019819736480713e-01 -1.646898526027566062e-14 -7.058136661122847016e-15 -7.058136661122847016e-15 2.897620091459919556e-14
4.082000000000000000e+03 1.348572158813476562e+01 5.957868695259094238e-01 3.291309485695635695e-14 1.056075122100527675e-13 4.155618178128955842e-14 -4.331079359086789649e-14
4.083000000000000000e+03 1.494081592559814453e+01 4.126985073089599609e-01 -9.684111422925828494e-14 -6.437880691869887761e-14 -4.836597769963986437e-14 -4.234083244604447405e-14
4.084000000000000000e+03 1.115022563934326172e+01 2.165033817291259766e-01 -1.985497405593630860e-13 1.436619920247572679e-13 -1.646632218868949310e-14 -4.297136038384878620e-14
4.085000000000000000e+03 1.122651290893554688e+01 9.537453055381774902e-01 -6.941916117463031721e-14 -5.262654325993362803e-14 -3.661371065274282577e-14 -7.311472526591936139e-14
4.086000000000000000e+03 1.040434932708740234e+01 3.321511745452880859e-01 -2.888417857758313056e-13 -2.152912315653635056e-13 -1.512399146891274526e-13 8.442084311883861492e-15
4.087000000000000000e+03 1.189680099487304688e+01 9.631319344043731689e-02 -6.388917444134084578e-14 -2.738107355052758068e-14 -2.738107355052758068e-14 4.280872666984417152e-14
4.088000000000000000e+03 1.274307727813720703e+01 7.053368687629699707e-01 -5.256398818271300344e-14 4.609899904839918905e-14 -1.939497290865560032e-15 7.816876757427843048e-14
4.089000000000000000e+03 1.264393043518066406e+01 -2.822761237621307373e-02 -4.425948404431986893e-14 7.253354546762208477e-14 8.482218426990664750e-15 -4.484247988125605877e-14
4.090000000000000000e+03 1.046920776367187500e+01 1.071231842041015625e+00 -1.515902204110575191e-13 2.653465893732477598e-14 -3.751667149143843305e-14 -1.076869323557829231e-14
4.091000000000000000e+03 1.198451900482177734e+01 8.317164182662963867e-01 -1.453647450891729087e-13 3.037084201750611667e-13 4.750309846000833058e-14 -1.456562735008271048e-13
4.092000000000000000e+03 9.722556114196777344e+00 1.127092480659484863e+00 -1.550310173206032038e-13 7.081097860850427139e-14 -2.526601195244285863e-14 7.909266367929837505e-14
4.093000000000000000e+03 8.893199920654296875e+00 3.828711509704589844e-01 -1.221999660749178984e-13 -9.812236337032945177e-14 -6.609669815594784725e-14 5.260276535103830531e-14
4.094000000000000000e+03 8.134614944458007812e+00 3.804794847965240479e-01 -1.259340261195937560e-13 8.328111963072648560e-14 -1.279587177725359168e-14 7.073262551978440685e-15
4.095000000000000000e+03 7.376657485961914062e+00 3.794998824596405029e-01 -1.079483860156119079e-13 -9.201454431295025271e-14 -5.998887909856864820e-14 -4.057349142533479835e-14
4.096000000000000000e+03 5.861315727233886719e+00 3.756705820560455322e-01 -1.221850955644959019e-14 -1.424893460600512585e-13 -4.641235719317002295e-14 -3.333282001111159687e-14
4.097000000000000000e+03 5.314155578613281250e+00 1.111996769905090332e+00 -1.256954745365926329e-13 -2.139978054786426109e-13 -1.019079840045705732e-13 2.201728145775298101e-14
4.098000000000000000e+03 4.345917224884033203e+00 3.706551194190979004e-01 -4.440887355116121538e-14 3.843099866525324579e-15 -1.216973231714900405e-14 -4.080346087051434090e-14
4.099000000000000000e+03 2.830904960632324219e+00 3.606805205345153809e-01 -3.553555290736892802e-14 -8.385594329378756595e-14 -3.581744886034694819e-14 3.288705706415775976e-14
4.100000000000000000e+03 2.075619697570800781e+00 3.579981029033660889e-01 -8.235935974279951638e-15 -3.529686876371155961e-15 -3.529686876371155961e-15 -3.292248337014372361e-14
4.101000000000000000e+03 2.378913402557373047e+00 1.097998142242431641e+00 -8.972518366311132976e-14 3.017277047786745547e-14 -1.786572395557316228e-14 -6.494277500750794685e-14
4.102000000000000000e+03 1.332661628723144531e+00 3.664357960224151611e-01 -6.329297166669106689e-14 1.862538884244997056e-14 -1.340027552489868670e-14 -3.411523450888576114e-14
4.103000000000000000e+03 1.659207582473754883e+00 1.106435775756835938e+00 1.005259108377218324e-13 -1.170457909196662150e-13 -4.955961822297651892e-15 -3.104129434505949192e-14
4.104000000000000000e+03 6.544207930564880371e-01 3.946581482887268066e-01 -1.536584715803451795e-13 -1.573555332258849693e-13 -9.330420279712176024e-14 -1.379924820243960681e-13
4.105000000000000000e+03 3.110946178436279297e+00 1.100680470466613770e+00 8.326430094452580422e-14 1.271865913369391032e-13 6.313526768443947224e-14 6.017749639526323580e-14
4.106000000000000000e+03 3.587856292724609375e+00 3.676122725009918213e-01 -8.625676670322157680e-14 -1.409171021380826658e-14 -3.010454366803201609e-14 1.012693482673951428e-13
4.107000000000000000e+03 5.103871345520019531e+00 3.719967305660247803e-01 -6.504128832740541100e-14 8.650253500693330655e-14 6.438373241528716137e-15 -3.631962081345613269e-14
4.108000000000000000e+03 6.048347473144531250e+00 1.115670561790466309e+00 -4.416010675081620540e-14 4.970066445528741050e-14 1.662167057231477355e-15 5.202975772661613818e-14
4.109000000000000000e+03 6.618996143341064453e+00 3.784884214401245117e-01 -1.100783486173047276e-13 1.129518841739424184e-13 8.620611116836045425e-16 1.094137665668890036e-13
4.110000000000000000e+03 8.251890182495117188e+00 1.120479464530944824e+00 -9.077249585667801490e-14 -2.905327074840396984e-13 -1.143915691337316076e-13 -2.151895672829022554e-14
4.111000000000000000e+03 8.987222671508789062e+00 1.122871160507202148e+00 -1.273292316852567274e-13 1.405675147000918709e-14 -3.398174550453027243e-14 1.018445649537437492e-13
4.112000000000000000e+03 9.651785850524902344e+00 3.870925009250640869e-01 -2.240950887312173623e-13 2.013404091887049940e-13 -6.826403269830647394e-15 7.778017596313246962e-14
4.113000000000000000e+03 7.517184734344482422e+00 1.119499921798706055e+00 -1.040028997710377989e-13 6.980470346716616259e-14 -1.025945872175490145e-14 4.685009365591567831e-14
4.114000000000000000e+03 6.782775878906250000e+00 1.118488430976867676e+00 -1.039672159670358698e-13 -1.131838017949006459e-13 -6.514530397332823908e-14 1.094904874231195091e-13
4.115000000000000000e+03 4.579453945159912109e+00 1.110655069351196289e+00 -1.176282107741982719e-13 4.108980544053134065e-14 -2.296152329416597387e-14 -1.501281026306932470e-14
4.116000000000000000e+03 3.844645261764526367e+00 1.107612252235412598e+00 -5.631015063413923050e-14 6.736897552404169653e-14 3.317648059893802889e-15 2.620702151112912909e-14
4.117000000000000000e+03 1.004219174385070801e+00 1.134658098220825195e+00 3.837024692117732561e-14 1.308217585909571268e-13 5.075760233126669352e-14 -1.083623682863847637e-13
4.118000000000000000e+03 3.516347110271453857e-01 9.575126171112060547e-01 2.986138422579782958e-14 3.567321270195669691e-14 1.966037840070000015e-14 1.050003996510423532e-13
4.119000000000000000e+03 2.715037727355957031e+01 -4.229583740234375000e+00 2.697161341925352618e-13 1.155926347478838934e-13 1.155926347478838934e-13 -1.881507780522942430e-13
4.120000000000000000e+03 2.674854278564453125e+01 -4.853118896484375000e+00 2.301844695754007297e-13 1.901523778930283570e-13 1.261010474642651480e-13 4.103288143834406265e-14
4.121000000000000000e+03 2.247070312500000000e+01 -2.328685522079467773e+00 1.841475648182988589e-13 -1.040834085586084257e-13 2.401924891078620339e-14 -9.607699564314481355e-14
4.122000000000000000e+03 2.779019546508789062e+01 -4.653773307800292969e+00 3.467778906911245240e-13 1.486190998826325549e-13 1.486190998826325549e-13 -1.481186999224490264e-13
4.123000000000000000e+03 2.651255607604980469e+01 -3.801715135574340820e+00 3.117498121631145924e-13 1.336070739720723877e-13 1.336070739720723877e-13 1.601283260719080226e-14
4.124000000000000000e+03 2.525659561157226562e+01 -2.950694561004638672e+00 1.601283260719080226e-14 -1.601283260719080226e-14 0.000000000000000000e+00 2.301844560228735737e-14
4.125000000000000000e+03 2.540595245361328125e+01 -3.952662467956542969e+00 2.261812563414053456e-13 -8.606896933441993136e-14 4.203368474684290867e-14 1.160930347080674219e-13
4.126000000000000000e+03 2.469292068481445312e+01 -2.552681207656860352e+00 1.040834085586084257e-13 1.361090737729900302e-13 7.205774334422682115e-14 -1.115894215138885093e-13
4.127000000000000000e+03 2.394120597839355469e+01 -2.534210920333862305e+00 1.351082687704252897e-14 5.154130431912068433e-14 1.951563910473907981e-14 -4.003208151797700565e-15
4.128000000000000000e+03 2.312206268310546875e+01 -2.609632015228271484e+00 1.521218996039172544e-13 2.481988952470620680e-13 1.200962343895356499e-13 -1.601283260719080226e-14
4.129000000000000000e+03 2.742325210571289062e+01 -5.299548149108886719e+00 1.501202997631831404e-13 1.100882216333379238e-13 7.806255641895631925e-14 -1.210970478624298630e-13
4.130000000000000000e+03 2.607582664489746094e+01 -4.403010845184326172e+00 2.341876692568689577e-13 6.605293026949732305e-14 9.007218256841531545e-14 -4.003208151797700565e-15
4.131000000000000000e+03 2.587757492065429688e+01 -3.373606443405151367e+00 2.001604075898850282e-14 2.001604075898850282e-14 1.200962445539310169e-14 -8.006416303595401129e-14
4.132000000000000000e+03 2.475008201599121094e+01 -3.507510900497436523e+00 1.341074739322559162e-13 2.061652172764827373e-13 1.020818019416107336e-13 -1.581267126786467525e-13
4.133000000000000000e+03 2.415151405334472656e+01 -3.087258338928222656e+00 1.292911090688964038e-13 -3.609142336120224615e-14 2.795990537349506838e-14 1.401122768425900472e-14
4.134000000000000000e+03 2.289425086975097656e+01 -2.189522743225097656e+00 3.402726844324750755e-14 -2.141716301919463494e-13 -5.404330750817011586e-14 -1.000802021008766196e-13
4.135000000000000000e+03 2.376216888427734375e+01 -1.961230158805847168e+00 1.721379386688398627e-13 1.881507780522942430e-13 1.080866150163402317e-13 -4.003208151797700565e-14
4.136000000000000000e+03 2.960598945617675781e+01 -6.277146816253662109e+00 1.431146867680865853e-13 1.070858150959731747e-13 7.506014988159157020e-14 -8.807057595141762341e-14
4.137000000000000000e+03 2.846446037292480469e+01 -5.011332035064697266e+00 1.861491782115601290e-13 3.402726844324750755e-14 6.605293026949732305e-14 -9.407538902614712151e-14
4.138000000000000000e+03 3.059418106079101562e+01 -5.879262447357177734e+00 1.821459649775647449e-13 7.806255641895631925e-14 7.806255641895631925e-14 -3.202566521438160452e-14
4.139000000000000000e+03 2.917277908325195312e+01 -5.301533222198486328e+00 2.682149478645118323e-13 9.207378240914942946e-14 1.080866150163402317e-13 -6.805453688649501509e-14
4.140000000000000000e+03 2.812951660156250000e+01 -5.674041748046875000e+00 2.246800564608547601e-13 5.054050101062183831e-14 8.256616283687165381e-14 -1.080866150163402317e-13
4.141000000000000000e+03 3.034630203247070312e+01 -6.577332496643066406e+00 2.041636038832214672e-13 -4.003208151797700565e-15 6.004811719476782494e-14 -3.202566521438160452e-14
4.142000000000000000e+03 2.886688995361328125e+01 -5.975967407226562500e+00 2.191756433463087905e-13 -8.907137587178468041e-14 3.903127820947815962e-14 -1.321058605389946461e-13
4.143000000000000000e+03 2.988287162780761719e+01 -5.590894699096679688e+00 1.721379386688398627e-13 2.802245536851800944e-14 6.004811719476782494e-14 -8.406736949368581735e-14
4.144000000000000000e+03 3.205244064331054688e+01 -6.311577796936035156e+00 9.807859548387892756e-14 4.203368474684290867e-14 4.203368474684290867e-14 -8.406736949368581735e-14
4.145000000000000000e+03 3.278821182250976562e+01 -6.502042770385742188e+00 1.581267126786467525e-13 -2.982389996856321668e-13 -4.203368474684290867e-14 -5.204170427930421283e-14
4.146000000000000000e+03 3.352441787719726562e+01 -6.690139293670654297e+00 1.501202997631831404e-13 1.100882216333379238e-13 7.806255641895631925e-14 -9.207378240914942946e-14
4.147000000000000000e+03 3.260030364990234375e+01 -7.217791557312011719e+00 1.461170865291877563e-13 -6.004812227696550847e-15 4.203368474684290867e-14 -5.004010105043830980e-14
4.148000000000000000e+03 3.184634399414062500e+01 -7.022618293762207031e+00 9.007218256841531545e-14 1.301042606982605321e-13 6.605293026949732305e-14 -5.404330750817011586e-14
4.149000000000000000e+03 3.131734657287597656e+01 -6.118781089782714844e+00 1.941555911270237411e-13 1.060850151756061177e-13 9.007218256841531545e-14 -4.203368474684290867e-14
4.150000000000000000e+03 3.109306526184082031e+01 -6.825113773345947266e+00 1.060850151756061177e-13 2.742197473867141744e-13 1.140914348673333079e-13 -1.601283260719080226e-14
4.151000000000000000e+03 3.335469436645507812e+01 -7.410596370697021484e+00 1.120898214740720378e-13 -1.120898214740720378e-13 0.000000000000000000e+00 -1.441154866884536423e-13
4.152000000000000000e+03 3.561322402954101562e+01 -7.858486175537109375e+00 8.807057595141762341e-14 -8.006416303595401129e-15 2.401924891078620339e-14 -1.381106736137241442e-13
4.153000000000000000e+03 3.574878311157226562e+01 -7.131008148193359375e+00 2.111692168783180223e-13 -1.000802037949425141e-15 6.305052373213257400e-14 -6.405133042876320904e-14
4.154000000000000000e+03 3.649168395996093750e+01 -7.268243312835693359e+00 2.461972954063279539e-13 1.401122768425900472e-14 7.806255641895631925e-14 -3.602887167211341057e-14
4.155000000000000000e+03 3.500612640380859375e+01 -6.992774963378906250e+00 2.141716301919463494e-13 -1.140914348673333079e-13 3.002405859738391247e-14 0.000000000000000000e+00
4.156000000000000000e+03 3.426378631591796875e+01 -6.853548526763916016e+00 1.741395520621011328e-13 6.004812227696550847e-15 5.404330750817011586e-14 -5.404330750817011586e-14
4.157000000000000000e+03 3.410816955566406250e+01 -7.577292442321777344e+00 1.531227130768114675e-13 -1.631307258330091936e-13 -3.002406113848275424e-15 -2.001604075898850282e-14
4.158000000000000000e+03 3.636615753173828125e+01 -7.997588634490966797e+00 1.381106736137241442e-13 -7.806255641895631925e-14 1.801443583605670529e-14 -4.203368474684290867e-14
4.159000000000000000e+03 3.486053848266601562e+01 -7.718385696411132812e+00 2.291836696550336727e-13 -3.903127820947815962e-14 5.704571743366665393e-14 2.001604075898850282e-14
4.160000000000000000e+03 3.873265075683593750e+01 -7.607871532440185547e+00 1.801443651368306309e-13 -6.004811719476782494e-14 3.602887167211341057e-14 4.403528797570881170e-14
4.161000000000000000e+03 3.863831329345703125e+01 -8.341920852661132812e+00 2.451964954859608969e-13 1.050842084789754827e-13 1.050842084789754827e-13 2.001604075898850282e-14
4.162000000000000000e+03 3.948057556152343750e+01 -7.714472770690917969e+00 2.922341730583755126e-13 -1.200962445539310169e-14 8.406736949368581735e-14 -3.202566521438160452e-14
4.163000000000000000e+03 3.798476028442382812e+01 -7.500135421752929688e+00 2.522020949285302960e-13 1.080866150163402317e-13 1.080866150163402317e-13 2.401924891078620339e-14
4.164000000000000000e+03 3.723697280883789062e+01 -7.391283512115478516e+00 2.181748434259417335e-13 -1.581267126786467525e-13 1.801443583605670529e-14 -9.007218256841531545e-14
4.165000000000000000e+03 3.712169647216796875e+01 -8.122316360473632812e+00 2.061652172764827373e-13 1.341074739322559162e-13 1.020818019416107336e-13 -2.001604075898850282e-14
4.166000000000000000e+03 3.939670562744140625e+01 -8.450029373168945312e+00 1.681347389873716347e-13 7.205774334422682115e-14 7.205774334422682115e-14 5.004010105043830980e-14
4.167000000000000000e+03 3.787995529174804688e+01 -8.232675552368164062e+00 1.351082738526229732e-13 -1.251002475438980910e-13 3.002406113848275424e-15 -8.406736949368581735e-14
4.168000000000000000e+03 9.537813186645507812e+00 -1.531448554992675781e+01 1.180946345488015359e-13 -1.801443583605670529e-14 3.002405859738391247e-14 4.203368474684290867e-14
4.169000000000000000e+03 1.080709171295166016e+01 -1.505155277252197266e+01 1.811451650571976879e-13 -7.105694342385976414e-14 3.302646513474866152e-14 -8.606896933441993136e-14
4.170000000000000000e+03 5.333549976348876953e+00 -1.909840822219848633e+00 2.401924891078620339e-14 5.604491073703601889e-14 2.401924891078620339e-14 6.805453688649501509e-14
4.171000000000000000e+03 6.492480635643005371e-01 -1.073427295684814453e+01 6.605293026949732305e-14 -8.606896933441993136e-14 -6.004812227696550847e-15 1.801443583605670529e-14
4.172000000000000000e+03 1.947426319122314453e+00 -1.370420646667480469e+01 -5.304250758780305885e-14 -1.371098736933570872e-13 -5.704571743366665393e-14 4.203368474684290867e-14
4.173000000000000000e+03 5.959933400154113770e-01 -1.778627204895019531e+01 1.701363422162375377e-14 -1.070858150959731747e-13 -2.702165375408505793e-14 -5.404330750817011586e-14
4.174000000000000000e+03 1.122061443328857422e+01 -1.613829994201660156e+01 2.411932958044926689e-13 -1.100882199392720293e-14 6.905533680686207210e-14 1.301042606982605321e-14
4.175000000000000000e+03 9.897480964660644531e+00 -1.645319938659667969e+01 2.001604042017532392e-13 1.200962343895356499e-13 9.607699564314481355e-14 3.202566521438160452e-14
4.176000000000000000e+03 1.687025070190429688e+01 -1.749993324279785156e+01 4.003208151797700565e-14 1.200962343895356499e-13 4.803849782157240678e-14 1.020818019416107336e-13
4.177000000000000000e+03 1.571061611175537109e+01 -1.691822624206542969e+01 -1.262177448353618889e-29 -1.200962343895356499e-13 -3.602887167211341057e-14 -5.254210423948774134e-14
4.178000000000000000e+03 2.191120719909667969e+01 -1.867985153198242188e+01 -1.271018609371593611e-13 3.702967498061225660e-14 -2.702165375408505793e-14 5.004010105043830980e-14
4.179000000000000000e+03 2.457725334167480469e+01 -1.734751129150390625e+01 -2.051644173561156803e-13 -6.505213034913026604e-14 -8.106496295632106830e-14 2.201764398785440585e-14
4.180000000000000000e+03 2.989216804504394531e+01 -1.779949188232421875e+01 -3.027426128798110794e-13 7.506014649345978118e-15 -8.857097591160115191e-14 -6.004812227696550847e-15
4.181000000000000000e+03 3.123959159851074219e+01 -1.773988723754882812e+01 -3.132510255961923340e-13 3.002406113848275424e-15 -9.307458910578006450e-14 -8.006416303595401129e-15
4.182000000000000000e+03 3.389084625244140625e+01 -1.778789901733398438e+01 -1.015814019814272051e-13 1.165934346682509504e-13 4.503608959014176322e-15 6.004811719476782494e-14
4.183000000000000000e+03 3.253308105468750000e+01 -1.792064094543457031e+01 -1.351082738526229732e-13 -3.502807175174635357e-14 -5.104090097080536681e-14 1.200962445539310169e-14
4.184000000000000000e+03 3.561975860595703125e+01 -2.208319091796875000e+01 -1.326062689695076471e-14 8.581876935432816711e-14 2.176744400776264160e-14 -3.002406113848275424e-15
4.185000000000000000e+03 3.616820144653320312e+01 -2.099958038330078125e+01 -4.503609128420765773e-14 1.501202929869195624e-14 -9.007217918028352643e-15 -5.004010189747125706e-16
4.186000000000000000e+03 3.545826721191406250e+01 -2.336663055419921875e+01 4.153328478665938017e-14 2.236792429879605471e-13 7.956375629950690476e-14 -4.003208151797700565e-15
4.187000000000000000e+03 3.522335815429687500e+01 -2.471004867553710938e+01 -2.001604075898850282e-15 1.821459649775647449e-13 5.404330750817011586e-14 8.006416303595401129e-14
4.188000000000000000e+03 4.470320892333984375e+01 -3.025759315490722656e+01 -3.853087824929463112e-14 -9.657739560332834206e-14 -4.053248147816053415e-14 -1.000802037949425141e-15
4.189000000000000000e+03 4.614228820800781250e+01 -3.788740158081054688e+01 -4.003208151797700565e-15 -3.602887167211341057e-14 -1.200962445539310169e-14 -2.502005052521915490e-14
4.190000000000000000e+03 5.131608963012695312e+01 -4.076378250122070312e+01 1.025822035958601566e-14 -1.276022524270134170e-14 -7.506015284620688559e-16 1.951563910473907981e-14
4.191000000000000000e+03 4.951752471923828125e+01 -3.769367218017578125e+01 1.751403587587317678e-14 -3.252606517456513302e-14 -4.503608959014176322e-15 -2.952365863720038397e-14
4.192000000000000000e+03 5.849668502807617188e+01 -3.797334289550781250e+01 1.200962445539310169e-14 2.802245536851800944e-14 1.200962445539310169e-14 1.000802037949425141e-14
4.193000000000000000e+03 5.876305007934570312e+01 -3.308372497558593750e+01 -6.004812227696550847e-15 -1.401122768425900472e-14 -6.004812227696550847e-15 4.603689120457471473e-14
4.194000000000000000e+03 5.718434906005859375e+01 -3.266669082641601562e+01 -1.901523745048965680e-14 -3.102486190588275849e-14 -1.501202929869195624e-14 -1.801443583605670529e-14
4.195000000000000000e+03 5.580838012695312500e+01 -3.183001708984375000e+01 1.851483749030612830e-14 1.651323256737433076e-14 1.050842118671072717e-14 1.651323256737433076e-14
4.196000000000000000e+03 5.165806961059570312e+01 -2.751231765747070312e+01 -5.779631737394194668e-14 -1.476182931860019198e-14 -2.176744400776264160e-14 5.879711814134195094e-15
4.197000000000000000e+03 4.875569534301757812e+01 -2.444257164001464844e+01 1.854611164078465158e-14 -5.013392519593977414e-14 -9.476343727733357869e-15 5.957508656317597739e-14
4.198000000000000000e+03 4.475276184082031250e+01 -2.045600318908691406e+01 -1.150922280114367868e-14 -1.351082687704252897e-14 -7.506014649345978118e-15 6.749158523722265102e-14
4.199000000000000000e+03 4.288153839111328125e+01 -1.825279808044433594e+01 -2.151724233360498284e-14 -1.035830085984248972e-13 -3.753007494079578510e-14 9.420048562806121462e-14
4.200000000000000000e+03 4.377252578735351562e+01 -1.940366554260253906e+01 -8.669447267278113101e-14 -4.215878473688879080e-14 -3.865597823934051325e-14 3.840577825924874900e-14
4.201000000000000000e+03 3.506374359130859375e+01 -1.994442176818847656e+01 -1.701363422162375377e-14 1.070858150959731747e-13 2.702165375408505793e-14 8.807057595141762341e-14
4.202000000000000000e+03 3.474457168579101562e+01 -2.602716255187988281e+01 4.928949772203122803e-14 1.583769194350020948e-13 6.229992379185728124e-14 4.003208151797700565e-15
4.203000000000000000e+03 3.225408172607421875e+01 -2.941548538208007812e+01 -1.094627199890426186e-14 -4.691259367599473137e-15 -4.691259367599473137e-15 4.403528797570881170e-14
4.204000000000000000e+03 3.117260932922363281e+01 -3.034355163574218750e+01 -3.727987496070402085e-14 2.977385861729214822e-14 -2.251804479507088161e-15 -4.003208151797700565e-15
4.205000000000000000e+03 2.810737991333007812e+01 -3.565933609008789062e+01 -5.504410996963601463e-15 5.004010189747125706e-16 -1.501203056924137712e-15 7.506014649345978118e-15
4.206000000000000000e+03 2.991606521606445312e+01 -3.104825210571289062e+01 -6.605293026949732305e-14 -7.405934996122451319e-14 -4.203368474684290867e-14 -2.001604075898850282e-15
4.207000000000000000e+03 2.416893196105957031e+01 -3.190021324157714844e+01 -4.503609128420765773e-14 1.501202929869195624e-14 -9.007217918028352643e-15 -1.000802037949425141e-15
4.208000000000000000e+03 2.297842025756835938e+01 -4.112697219848632812e+01 -6.780433690640325084e-14 5.254210593355363584e-15 -1.876503747039789255e-14 1.501202929869195624e-14
4.209000000000000000e+03 2.322341156005859375e+01 -3.847378921508789062e+01 -2.552045048540268340e-14 5.004010189747125706e-16 -7.506014649345978118e-15 2.101684237342145434e-14
4.210000000000000000e+03 2.780236816406250000e+01 -4.122843933105468750e+01 2.552045048540268340e-14 -5.004010189747125706e-16 7.506014649345978118e-15 -1.801443583605670529e-14
4.211000000000000000e+03 2.991945648193359375e+01 -3.667632293701171875e+01 -2.151724233360498284e-14 -4.353488801552528320e-14 -1.951563910473907981e-14 -3.903127820947815962e-14
4.212000000000000000e+03 4.201580429077148438e+01 -4.106833267211914062e+01 -1.651323256737433076e-14 2.151724233360498284e-14 1.501203056924137712e-15 2.401924891078620339e-14
4.213000000000000000e+03 4.306875991821289062e+01 -3.685324859619140625e+01 -9.570169567300716718e-15 3.021171027651863017e-14 6.192462212765374036e-15 2.752205498481800731e-15
4.214000000000000000e+03 3.728546142578125000e+01 -4.134265899658203125e+01 -1.225982443548486595e-14 -5.254210593355363584e-15 -5.254210593355363584e-15 -3.903127820947815962e-14
4.215000000000000000e+03 3.528087997436523438e+01 -3.045473098754882812e+01 2.464474886101561402e-14 7.918845971750104740e-14 3.114996189592864062e-14 -2.401924891078620339e-14
4.216000000000000000e+03 3.405487060546875000e+01 -2.725099182128906250e+01 -6.204972381176551699e-14 4.203368474684290867e-14 -6.004812227696550847e-15 7.005614350349270714e-14
4.217000000000000000e+03 1.853236961364746094e+01 -3.199698829650878906e+01 4.003208151797700565e-15 3.602887167211341057e-14 1.200962445539310169e-14 -4.003208151797700565e-15
4.218000000000000000e+03 1.717672920227050781e+01 -3.194543457031250000e+01 -2.902325867701685547e-14 -8.106496295632106830e-14 -3.302646513474866152e-14 1.501202929869195624e-14
4.219000000000000000e+03 1.746989250183105469e+01 -3.751345825195312500e+01 -1.301042606982605321e-14 4.303448466720996568e-14 9.007217918028352643e-15 2.439454888092384977e-14
4.220000000000000000e+03 1.587911415100097656e+01 -3.608142852783203125e+01 -1.801443583605670529e-14 -8.206576287668812530e-14 -3.002405859738391247e-14 -1.939053911469319769e-14
4.221000000000000000e+03 1.582923603057861328e+01 -3.183363342285156250e+01 -3.602887167211341057e-14 -4.003208151797700565e-15 -1.200962445539310169e-14 -1.801443583605670529e-14
4.222000000000000000e+03 9.903920173645019531e+00 -3.209511184692382812e+01 2.627105211974387067e-14 -1.488692930864607411e-13 -3.677947500052049234e-14 6.004811719476782494e-14
4.223000000000000000e+03 4.793970584869384766e+00 -4.057831192016601562e+01 -3.502807175174635357e-14 -1.501202929869195624e-14 -1.501202929869195624e-14 2.001604075898850282e-15
4.224000000000000000e+03 1.133412265777587891e+01 -3.852705383300781250e+01 -4.153328478665938017e-14 -2.351884725653678038e-14 -1.951563910473907981e-14 2.502005094873562853e-15
4.225000000000000000e+03 9.105995178222656250e+00 -3.011837387084960938e+01 -1.501203056924137712e-15 -2.351884725653678038e-14 -7.506014649345978118e-15 1.601283260719080226e-14
4.226000000000000000e+03 1.015848922729492188e+01 -3.430149078369140625e+01 -1.476182931860019198e-14 -9.782839550378716331e-14 -3.377706846315574329e-14 6.004812227696550847e-15
4.227000000000000000e+03 6.148351192474365234e+00 -2.656200790405273438e+01 -4.603689120457471473e-14 -2.141716301919463494e-13 -7.806255641895631925e-14 6.104892389139845998e-14
4.228000000000000000e+03 5.934388041496276855e-01 -2.753873443603515625e+01 9.007217918028352643e-15 1.411130869273524713e-13 4.503609128420765773e-14 2.602085213965210642e-14
4.229000000000000000e+03 6.070960044860839844e+00 -2.232928466796875000e+01 -3.002406113848275424e-15 3.302646513474866152e-14 9.007217918028352643e-15 2.101684237342145434e-14
4.230000000000000000e+03 5.600454807281494141e-01 -2.476467132568359375e+01 -1.401122768425900472e-14 -6.004812227696550847e-15 -6.004812227696550847e-15 0.000000000000000000e+00
4.231000000000000000e+03 5.643137931823730469e+00 -1.822807884216308594e+01 7.255814330441034965e-14 -3.753007494079578510e-14 1.050842118671072717e-14 8.807057595141762341e-14
4.232000000000000000e+03 6.730328559875488281e+00 -1.964729690551757812e+01 -2.502005052521915490e-14 3.502807175174635357e-14 3.002406113848275424e-15 5.004010189747125706e-15
4.233000000000000000e+03 8.027059555053710938e+00 -2.919447517395019531e+01 7.881315466516571749e-15 3.377706719260632241e-15 3.377706719260632241e-15 2.301844560228735737e-14
4.234000000000000000e+03 7.190186977386474609e+00 -2.819529724121093750e+01 -1.326062689695076471e-14 -7.430954994131627744e-14 -2.627105211974387067e-14 4.203368474684290867e-14
4.235000000000000000e+03 5.920939922332763672e+00 -2.519290542602539062e+01 -3.803047490097931360e-14 -6.204972381176551699e-14 -3.002405859738391247e-14 8.006416303595401129e-15
4.236000000000000000e+03 4.175234985351562500e+01 -1.548396587371826172e+01 3.903127820947815962e-14 -2.902325867701685547e-14 3.002406113848275424e-15 7.005613842129502361e-15
4.237000000000000000e+03 4.213851547241210938e+01 -1.694411277770996094e+01 -4.403528797570881170e-14 4.003208151797700565e-15 -1.200962445539310169e-14 -1.050842118671072717e-14
4.238000000000000000e+03 3.925399017333984375e+01 -9.183947563171386719e+00 3.602887167211341057e-14 -7.606094980195862720e-14 -1.200962445539310169e-14 1.601283260719080226e-14
4.239000000000000000e+03 4.156846237182617188e+01 -1.265438556671142578e+01 -7.305854326459387815e-14 -2.371900690179701288e-13 -9.307458910578006450e-14 2.602085213965210642e-14
4.240000000000000000e+03 3.848844528198242188e+01 -9.092024803161621094e+00 1.441154866884536423e-13 1.601283260719080226e-14 4.803849782157240678e-14 8.006416303595401129e-15
4.241000000000000000e+03 3.617686080932617188e+01 -8.745324134826660156e+00 1.381106736137241442e-13 2.421940957248597259e-13 1.140914348673333079e-13 -8.406736949368581735e-14
4.242000000000000000e+03 3.159389305114746094e+01 -7.704379081726074219e+00 5.004010105043830980e-14 -7.005614350349270714e-14 -6.004812227696550847e-15 -4.803849782157240678e-14
4.243000000000000000e+03 3.083227157592773438e+01 -7.489069461822509766e+00 8.306656957331876034e-14 1.271018609371593611e-13 6.305052373213257400e-14 -4.403528797570881170e-14
4.244000000000000000e+03 2.567352104187011719e+01 -4.991016387939453125e+00 2.389414892074032126e-13 -1.263512542206204903e-13 3.377706846315574329e-14 1.501202997631831404e-13
4.245000000000000000e+03 2.084431457519531250e+01 -2.665426969528198242e+00 6.805453688649501509e-14 -1.080866150163402317e-13 -1.200962445539310169e-14 -7.606094980195862720e-14
4.246000000000000000e+03 1.932473182678222656e+01 -2.762904167175292969e+00 -1.601283260719080226e-14 -1.441154866884536423e-13 -4.803849782157240678e-14 6.405133042876320904e-14
4.247000000000000000e+03 1.616059875488281250e+01 -2.688467264175415039e+00 -1.621299259126421366e-13 2.201764398785440585e-14 -4.203368474684290867e-14 7.606094980195862720e-14
4.248000000000000000e+03 1.370967769622802734e+01 -1.541314411163330078e+01 1.927794810721236707e-13 1.512462030617278685e-13 1.032077052401554618e-13 9.407538902614712151e-14
4.249000000000000000e+03 1.250214672088623047e+01 -1.594910240173339844e+01 2.712173476256130034e-13 5.904731727440076794e-14 9.907939540424598457e-14 -5.404330750817011586e-14
4.250000000000000000e+03 3.006879615783691406e+01 -7.229429244995117188e+00 1.060850151756061177e-13 2.742197473867141744e-13 1.140914348673333079e-13 -6.405133042876320904e-14
4.251000000000000000e+03 2.707037544250488281e+01 -5.896603584289550781e+00 1.230986477031639770e-13 3.272622515863854442e-13 1.351082738526229732e-13 -2.201764398785440585e-14
4.252000000000000000e+03 1.460560798645019531e+01 -2.531675815582275391e+00 -1.481186999224490264e-13 2.802245536851800944e-14 -3.602887167211341057e-14 -6.004811719476782494e-14
4.253000000000000000e+03 1.384103584289550781e+01 -2.435137748718261719e+00 -2.161732300326804634e-13 -1.841475648182988589e-13 -1.200962343895356499e-13 2.401924891078620339e-14
4.254000000000000000e+03 1.089386081695556641e+01 -2.032164812088012695e+00 -1.711371387484728057e-13 -1.190954344691685929e-13 -8.706977603105056640e-14 -6.805453688649501509e-14
4.255000000000000000e+03 1.161515045166015625e+01 -2.131500482559204102e+00 -1.741395520621011328e-13 1.541235129971785245e-13 -6.004812227696550847e-15 -5.604491073703601889e-14
4.256000000000000000e+03 1.039996051788330078e+01 -1.399894618988037109e+01 1.045838085187919542e-13 9.057258252859884395e-14 5.854691731421723944e-14 1.200962445539310169e-14
4.257000000000000000e+03 6.512966752052307129e-01 -3.033688926696777344e+01 4.003208151797700565e-15 1.160930347080674219e-13 3.602887167211341057e-14 4.003208151797700565e-15
4.258000000000000000e+03 7.009044289588928223e-01 -3.173832702636718750e+01 2.051644071917203133e-14 5.454371085648543338e-14 2.251804564210382886e-14 -1.000802037949425141e-14
4.259000000000000000e+03 8.888186216354370117e-01 -3.737695312500000000e+01 -3.402726844324750755e-14 -1.060850151756061177e-13 -4.203368474684290867e-14 0.000000000000000000e+00
4.260000000000000000e+03 6.504559326171875000e+01 -3.999533462524414062e+01 -5.892222067248667483e-14 2.627105296677681792e-15 -1.688853423157787165e-14 2.017241489951290823e-14
4.261000000000000000e+03 6.352030944824218750e+01 -3.806926727294921875e+01 -3.102486190588275849e-14 1.010810020212436766e-13 2.101684237342145434e-14 4.078268145825229840e-14
4.262000000000000000e+03 6.182916641235351562e+01 -3.254941558837890625e+01 8.757017599123409490e-14 3.753007494079578510e-14 3.753007494079578510e-14 6.405133042876320904e-14
4.263000000000000000e+03 6.319834518432617188e+01 -3.188652420043945312e+01 1.253504543002534333e-13 1.223480409866251062e-13 7.430954994131627744e-14 7.606094980195862720e-14
4.264000000000000000e+03 6.034393310546875000e+01 -3.301333236694335938e+01 5.954771723458429644e-14 2.552045048540268340e-14 2.552045048540268340e-14 2.401924891078620339e-14
4.265000000000000000e+03 7.927270507812500000e+01 -3.339319610595703125e+01 2.952365863720038397e-14 -2.847281601030954290e-13 -7.656135653840573374e-14 6.004812227696550847e-15
4.266000000000000000e+03 7.794666290283203125e+01 -3.036186408996582031e+01 4.403528797570881170e-14 -1.641315257533762506e-13 -3.602887167211341057e-14 -2.201764398785440585e-14
4.267000000000000000e+03 7.938345336914062500e+01 -2.645938682556152344e+01 -2.201764398785440585e-14 -2.381908689383371858e-13 -7.806255641895631925e-14 3.002405859738391247e-14
4.268000000000000000e+03 7.820352172851562500e+01 -2.489384078979492188e+01 1.601283260719080226e-14 -1.761411519028352468e-13 -4.803849782157240678e-14 7.005614350349270714e-14
4.269000000000000000e+03 7.948400115966796875e+01 -1.962629699707031250e+01 -3.302646513474866152e-14 -1.971579908881249121e-13 -6.905533680686207210e-14 3.803047490097931360e-14
4.270000000000000000e+03 7.495481109619140625e+01 -1.533335781097412109e+01 5.604491073703601889e-14 2.401924891078620339e-14 2.401924891078620339e-14 8.406736949368581735e-14
4.271000000000000000e+03 7.210829925537109375e+01 -1.554826068878173828e+01 3.202566521438160452e-14 -3.202566521438160452e-14 0.000000000000000000e+00 7.606094980195862720e-14
4.272000000000000000e+03 7.122157287597656250e+01 -1.719150924682617188e+01 6.104892389139845998e-14 2.091676170375839083e-13 8.106496295632106830e-14 -8.006416303595401129e-15
4.273000000000000000e+03 6.878963470458984375e+01 -2.371219825744628906e+01 1.561251128379126385e-13 2.041636038832214672e-13 1.080866150163402317e-13 -3.202566521438160452e-14
4.274000000000000000e+03 6.969384002685546875e+01 -2.546091461181640625e+01 7.405934996122451319e-14 2.261812563414053456e-13 9.007218256841531545e-14 2.201764398785440585e-14
4.275000000000000000e+03 6.814572143554687500e+01 -2.652704811096191406e+01 1.476182999622654979e-13 3.377706643027666988e-13 1.456166865690042278e-13 4.603689120457471473e-14
4.276000000000000000e+03 6.892910003662109375e+01 -3.119412231445312500e+01 5.892222067248667483e-14 1.625052224946479940e-13 6.642823362776675844e-14 -3.202566521438160452e-14
4.277000000000000000e+03 6.780313110351562500e+01 -3.004379653930664062e+01 3.452766840343103605e-14 8.056456299613753980e-14 3.452766840343103605e-14 1.169374655701077570e-13
4.278000000000000000e+03 7.844098663330078125e+01 -4.026660537719726562e+01 -7.355895000104098469e-14 -1.916535777735789425e-13 -7.956375629950690476e-14 -6.004812227696550847e-15
4.279000000000000000e+03 7.747212982177734375e+01 -3.688137054443359375e+01 2.702165375408505793e-14 -5.704571743366665393e-14 -9.007217918028352643e-15 -9.007218256841531545e-14
4.280000000000000000e+03 7.957329559326171875e+01 -1.679457664489746094e+01 -4.703769451307356075e-14 -2.031628039628544102e-13 -7.506014988159157020e-14 -1.601283260719080226e-14
4.281000000000000000e+03 6.860466766357421875e+01 -1.635270500183105469e+01 -3.002405859738391247e-14 1.701363388281057487e-13 4.203368474684290867e-14 2.401924891078620339e-14
4.282000000000000000e+03 6.916059112548828125e+01 -1.715161323547363281e+01 1.251002526260957745e-14 1.426142868079030568e-13 4.653729455289003225e-14 8.406736949368581735e-14
4.283000000000000000e+03 6.753867340087890625e+01 -2.789165687561035156e+01 6.104892389139845998e-14 2.091676170375839083e-13 8.106496295632106830e-14 1.921539912862896271e-13
4.284000000000000000e+03 4.973897552490234375e+01 -2.543847274780273438e+01 -1.538733096289549712e-14 4.128308141843582690e-15 -3.377706719260632241e-15 1.457417933353136880e-14
4.285000000000000000e+03 5.235946655273437500e+01 -3.085558509826660156e+01 -2.408179890580914445e-14 -1.032077035460895673e-14 -1.032077035460895673e-14 6.004811719476782494e-14
4.286000000000000000e+03 5.346480178833007812e+01 -3.218954467773437500e+01 1.786978971371998293e-14 7.658480579851752179e-15 7.658480579851752179e-15 3.418364427783780746e-14
4.287000000000000000e+03 4.612319183349609375e+01 -3.528467941284179688e+01 -6.505213034913026604e-15 -4.853889778175593528e-14 -1.651323256737433076e-14 -7.005614350349270714e-14
4.288000000000000000e+03 4.578447723388671875e+01 -2.338126182556152344e+01 -3.440256841338515392e-14 8.131516293641283255e-15 -7.881315466516571749e-15 -1.000802037949425141e-15
4.289000000000000000e+03 4.575495529174804688e+01 -2.147253990173339844e+01 -2.702165375408505793e-14 -2.301844560228735737e-14 -1.501202929869195624e-14 3.427746842333927180e-14
4.290000000000000000e+03 3.437770843505859375e+01 -1.892550849914550781e+01 -1.030826086382413687e-13 -2.702165375408505793e-14 -3.903127820947815962e-14 6.004811719476782494e-14
4.291000000000000000e+03 2.337502098083496094e+01 -1.622775459289550781e+01 -1.711371387484728057e-13 -1.190954344691685929e-13 -8.706977603105056640e-14 6.605293026949732305e-14
4.292000000000000000e+03 2.225686836242675781e+01 -1.509554576873779297e+01 -1.381106736137241442e-13 -8.206576287668812530e-14 -6.605293026949732305e-14 9.607699564314481355e-14
4.293000000000000000e+03 1.558290004730224609e+01 -1.527148437500000000e+01 9.957980214069309111e-14 -3.452766840343103605e-14 1.951563910473907981e-14 6.079872391130669573e-14
4.294000000000000000e+03 3.052559852600097656e+01 -8.128140449523925781e+00 4.603689120457471473e-14 1.341074739322559162e-13 5.404330750817011586e-14 -1.361090737729900302e-13
4.295000000000000000e+03 2.226634407043457031e+01 -1.401249694824218750e+01 -6.204972381176551699e-14 4.203368474684290867e-14 -6.004812227696550847e-15 6.204972381176551699e-14
4.296000000000000000e+03 1.459563350677490234e+01 -1.633245086669921875e+01 1.992846941070366973e-13 2.464474886101561402e-14 6.717883356804205119e-14 4.240898471698055505e-14
4.297000000000000000e+03 1.807335662841796875e+01 -1.798236465454101562e+01 -1.681347389873716347e-13 8.006416303595401129e-15 -4.803849782157240678e-14 8.106496295632106830e-14
4.298000000000000000e+03 2.060621070861816406e+01 -1.858046913146972656e+01 -1.000802021008766196e-13 -2.001604075898850282e-14 -3.602887167211341057e-14 -2.001604075898850282e-14
4.299000000000000000e+03 2.331533622741699219e+01 -1.741825485229492188e+01 -1.791435652164635739e-13 -3.102486190588275849e-14 -6.305052373213257400e-14 3.202566521438160452e-14
4.300000000000000000e+03 2.587674331665039062e+01 -1.836687088012695312e+01 -3.497802904522256950e-13 -3.552847171192988207e-14 -1.155926347478838934e-13 2.602085213965210642e-14
4.301000000000000000e+03 2.720564842224121094e+01 -1.815710830688476562e+01 -2.862293735361731706e-13 -5.404330750817011586e-14 -1.020818019416107336e-13 -5.804651735403371093e-14
4.302000000000000000e+03 2.854529190063476562e+01 -1.797780799865722656e+01 -2.522020949285302960e-13 5.204170427930421283e-14 -6.004811719476782494e-14 -4.603689120457471473e-14
4.303000000000000000e+03 2.703166007995605469e+01 -3.169889640808105469e+01 -1.651323256737433076e-14 -9.857899544406245607e-14 -3.452766840343103605e-14 -2.902325867701685547e-14
4.304000000000000000e+03 2.273132705688476562e+01 -3.204486465454101562e+01 -4.103288143834406265e-14 -2.902325867701685547e-14 -2.101684237342145434e-14 0.000000000000000000e+00
4.305000000000000000e+03 2.427497482299804688e+01 -3.378584289550781250e+01 -1.951563910473907981e-14 1.451162933850842773e-14 -1.501203056924137712e-15 -2.301844560228735737e-14
4.306000000000000000e+03 2.129286766052246094e+01 -3.210905456542968750e+01 -2.101684237342145434e-14 7.105694342385976414e-14 1.501202929869195624e-14 3.002406113848275424e-15
4.307000000000000000e+03 1.947295188903808594e+01 -3.386142730712890625e+01 1.000802037949425141e-14 1.301042606982605321e-13 4.203368474684290867e-14 -1.200962445539310169e-14
4.308000000000000000e+03 1.690667915344238281e+01 -3.345560455322265625e+01 4.003208151797700565e-15 3.602887167211341057e-14 1.200962445539310169e-14 -9.007217918028352643e-15
4.309000000000000000e+03 1.172691822052001953e+01 -3.119766807556152344e+01 -8.006416303595401129e-15 -7.205774334422682115e-14 -2.401924891078620339e-14 -3.002405859738391247e-14
4.310000000000000000e+03 7.169336795806884766e+00 -1.842481231689453125e+01 1.010810020212436766e-13 8.907137587178468041e-14 5.704571743366665393e-14 4.603689120457471473e-14
4.311000000000000000e+03 5.504757761955261230e-01 -2.197882843017578125e+01 -5.404330750817011586e-14 -4.603689120457471473e-14 -3.002405859738391247e-14 2.201764398785440585e-14
4.312000000000000000e+03 7.232181549072265625e+00 -1.710163116455078125e+01 4.053248147816053415e-14 -5.504410996963601463e-15 1.050842118671072717e-14 7.005613842129502361e-15
4.313000000000000000e+03 3.982049179077148438e+01 -9.983178138732910156e+00 -3.602887167211341057e-14 7.606094980195862720e-14 1.200962445539310169e-14 -1.180946345488015359e-13
4.314000000000000000e+03 4.164620590209960938e+01 -1.402550697326660156e+01 -6.805453688649501509e-14 -2.121700303512122354e-13 -8.406736949368581735e-14 -3.402726844324750755e-14
4.315000000000000000e+03 3.771799850463867188e+01 -8.988156318664550781e+00 1.611291259922750796e-13 6.905533680686207210e-14 6.905533680686207210e-14 -2.401924891078620339e-14
4.316000000000000000e+03 3.694683837890625000e+01 -8.874566078186035156e+00 1.010810020212436766e-13 8.907137587178468041e-14 5.704571743366665393e-14 -6.805453688649501509e-14
4.317000000000000000e+03 3.358657836914062500e+01 -9.012478828430175781e+00 8.206576287668812530e-14 5.804651735403371093e-14 4.203368474684290867e-14 -9.607699564314481355e-14
4.318000000000000000e+03 3.388493728637695312e+01 -8.295042037963867188e+00 1.621299259126421366e-13 -2.201764398785440585e-14 4.203368474684290867e-14 -9.607699564314481355e-14
4.319000000000000000e+03 3.235502243041992188e+01 -7.911768913269042969e+00 4.503609128420765773e-14 6.505213034913026604e-14 3.302646513474866152e-14 -9.607699564314481355e-14
4.320000000000000000e+03 2.930921173095703125e+01 -6.926838397979736328e+00 2.131708302715792924e-13 1.371098736933570872e-13 1.050842084789754827e-13 -1.000802021008766196e-13
4.321000000000000000e+03 2.855502128601074219e+01 -6.614851951599121094e+00 1.135910281308862013e-13 2.316856559034241592e-13 1.035830085984248972e-13 -1.361090737729900302e-13
4.322000000000000000e+03 2.780238342285156250e+01 -6.288068771362304688e+00 2.216776431472264330e-13 3.502806921064751181e-15 6.755413692631148659e-14 -1.160930347080674219e-13
4.323000000000000000e+03 2.636641883850097656e+01 -5.446269989013671875e+00 2.439454888092384977e-13 5.879711729430900369e-14 9.082278250869060821e-14 -5.004010105043830980e-14
4.324000000000000000e+03 2.461258125305175781e+01 -5.149855613708496094e+00 2.061652172764827373e-13 -2.602085213965210642e-14 5.404330750817011586e-14 1.501202929869195624e-14
4.325000000000000000e+03 2.430068206787109375e+01 -4.082005023956298828e+00 8.982198258832355120e-14 -7.255814669254213867e-15 2.476984885106149614e-14 -3.002405859738391247e-14
4.326000000000000000e+03 2.293967628479003906e+01 -3.213105916976928711e+00 1.050842084789754827e-13 4.503609128420765773e-14 4.503609128420765773e-14 -1.601283260719080226e-14
4.327000000000000000e+03 1.997281646728515625e+01 -3.421909093856811523e+00 -2.001604075898850282e-14 -2.602085213965210642e-13 -8.406736949368581735e-14 1.801443583605670529e-14
4.328000000000000000e+03 1.854206275939941406e+01 -2.781330108642578125e+00 -1.711371387484728057e-13 -1.190954344691685929e-13 -8.706977603105056640e-14 2.682149478645118323e-13
4.329000000000000000e+03 2.008971023559570312e+01 -2.708564043045043945e+00 -2.802245536851800944e-14 3.082470259943570490e-13 8.406736949368581735e-14 2.802245536851800944e-14
4.330000000000000000e+03 1.695443344116210938e+01 -2.726980447769165039e+00 -1.741395520621011328e-13 -1.661331391466375207e-13 -1.020818019416107336e-13 1.401122870069854143e-13
4.331000000000000000e+03 1.537631511688232422e+01 -2.623305797576904297e+00 -2.512012950081632390e-13 -1.991596042813861822e-13 -1.351082738526229732e-13 1.481186999224490264e-13
4.332000000000000000e+03 1.233817195892333984e+01 -2.235913753509521484e+00 -1.351082738526229732e-13 -1.951563910473907981e-13 -9.907939540424598457e-14 -8.006416303595401129e-14
4.333000000000000000e+03 1.308029556274414062e+01 -2.337659358978271484e+00 -1.861491782115601290e-13 -3.402726844324750755e-14 -6.605293026949732305e-14 -4.403528797570881170e-14
4.334000000000000000e+03 1.078734874725341797e+01 -2.741543054580688477e+00 -1.681347389873716347e-13 2.481988952470620680e-13 2.401924891078620339e-14 -2.802245536851800944e-14
4.335000000000000000e+03 9.409707069396972656e+00 -1.891554594039916992e+00 -6.405133042876320904e-14 6.405133042876320904e-14 0.000000000000000000e+00 -9.207378240914942946e-14
4.336000000000000000e+03 1.017134571075439453e+01 -1.940336942672729492e+00 -1.871499781319271860e-13 5.704571743366665393e-14 -3.903127820947815962e-14 8.006416303595401129e-15
4.337000000000000000e+03 7.788202285766601562e+00 -1.891143679618835449e+00 -7.005614350349270714e-14 -3.002405859738391247e-14 -3.002405859738391247e-14 -1.561251128379126385e-13
4.338000000000000000e+03 6.150344848632812500e+00 -1.903419375419616699e+00 -4.003208151797700565e-14 1.200962343895356499e-13 2.401924891078620339e-14 -8.006416303595401129e-15
4.339000000000000000e+03 4.519979476928710938e+00 -1.920797348022460938e+00 -1.080866150163402317e-13 6.805453688649501509e-14 -1.200962445539310169e-14 -8.807057595141762341e-14
4.340000000000000000e+03 4.520556926727294922e+00 -2.761925458908081055e+00 -1.040834085586084257e-13 2.401924891078620339e-14 -2.401924891078620339e-14 -2.401924891078620339e-14
4.341000000000000000e+03 3.704240798950195312e+00 -1.945956468582153320e+00 -1.140914348673333079e-13 -2.602085213965210642e-14 -4.203368474684290867e-14 -1.401122768425900472e-14
4.342000000000000000e+03 2.071049451828002930e+00 -2.068603038787841797e+00 -6.004811719476782494e-14 2.001604075898850282e-14 -1.200962445539310169e-14 5.204170427930421283e-14
4.343000000000000000e+03 1.249502778053283691e+00 -2.138077259063720703e+00 -1.801443583605670529e-14 3.803047490097931360e-14 6.004812227696550847e-15 1.801443583605670529e-14
4.344000000000000000e+03 4.181477129459381104e-01 -2.187900066375732422e+00 2.502005052521915490e-14 -3.502807175174635357e-14 -3.002406113848275424e-15 1.801443583605670529e-14
4.345000000000000000e+03 1.997925281524658203e+00 -4.166671371459960938e+01 -9.507618725244828400e-15 -1.551243095294137925e-14 -7.506014649345978118e-15 1.200962445539310169e-14
4.346000000000000000e+03 5.899730682373046875e+00 -3.860628128051757812e+01 9.007217918028352643e-15 -9.907939540424598457e-14 -2.702165375408505793e-14 -3.302646513474866152e-14
4.347000000000000000e+03 9.917218685150146484e-01 -3.876471328735351562e+01 6.555253030931379454e-14 -4.053248147816053415e-14 7.506014649345978118e-15 3.402726844324750755e-14
4.348000000000000000e+03 7.898342609405517578e-01 -3.457259368896484375e+01 1.351082687704252897e-14 -1.085870149765237602e-13 -2.852285871683332696e-14 1.401122768425900472e-14
4.349000000000000000e+03 7.463555932044982910e-01 -3.315356445312500000e+01 -3.102486190588275849e-14 -5.904731727440076794e-14 -2.702165375408505793e-14 -2.201764398785440585e-14
4.350000000000000000e+03 4.307945728302001953e+00 -2.881117630004882812e+01 4.866399777180181740e-14 -2.489495053517327278e-14 7.130714679208331741e-15 4.703769451307356075e-14
4.351000000000000000e+03 6.096179485321044922e-01 -2.893529510498046875e+01 1.000802037949425141e-14 5.004010105043830980e-14 1.801443583605670529e-14 -1.601283260719080226e-14
4.352000000000000000e+03 5.840502381324768066e-01 -2.615107536315917969e+01 1.200962445539310169e-14 2.802245536851800944e-14 1.200962445539310169e-14 -6.004812227696550847e-15
4.353000000000000000e+03 5.912693977355957031e+00 -2.374919700622558594e+01 -2.802245536851800944e-14 -1.721379386688398627e-13 -6.004811719476782494e-14 3.202566521438160452e-14
4.354000000000000000e+03 1.660083770751953125e+00 -2.194876289367675781e+01 1.100882199392720293e-14 -4.103288143834406265e-14 -9.007217918028352643e-15 5.604491073703601889e-14
4.355000000000000000e+03 6.352611064910888672e+00 -2.095803642272949219e+01 6.505213034913026604e-14 -7.506014988159157020e-14 -3.002406113848275424e-15 1.601283260719080226e-14
4.356000000000000000e+03 5.799383521080017090e-01 -1.918468666076660156e+01 3.102486190588275849e-14 -1.010810020212436766e-13 -2.101684237342145434e-14 -4.003208151797700565e-15
4.357000000000000000e+03 6.143816709518432617e-01 -1.638585853576660156e+01 -2.802245536851800944e-14 -1.721379386688398627e-13 -6.004811719476782494e-14 -4.403528797570881170e-14
4.358000000000000000e+03 6.330321431159973145e-01 -1.498309326171875000e+01 -9.007218256841531545e-14 -1.301042606982605321e-13 -6.605293026949732305e-14 2.802245536851800944e-14
4.359000000000000000e+03 6.449972987174987793e-01 -1.357574272155761719e+01 1.401122870069854143e-13 -1.000802021008766196e-13 1.200962445539310169e-14 -1.401122768425900472e-14
4.360000000000000000e+03 6.414520144462585449e-01 -9.309111595153808594e+00 -4.003208151797700565e-14 -2.001604042017532392e-13 -7.205774334422682115e-14 -8.006416303595401129e-15
4.361000000000000000e+03 6.269110441207885742e-01 -7.873628139495849609e+00 -3.402726844324750755e-14 -1.060850151756061177e-13 -4.203368474684290867e-14 3.402726844324750755e-14
4.362000000000000000e+03 5.376229763031005859e+00 -5.398819923400878906e+00 -3.803047490097931360e-14 -6.204972381176551699e-14 -3.002405859738391247e-14 -3.002405859738391247e-14
4.363000000000000000e+03 7.227742004394531250e+01 -4.140772247314453125e+01 -3.352686848306397904e-14 8.857097591160115191e-14 1.651323256737433076e-14 2.602085213965210642e-14
4.364000000000000000e+03 1.206933784484863281e+01 -4.113669204711914062e+01 -2.977385861729214822e-14 -1.276022524270134170e-14 -1.276022524270134170e-14 1.851483749030612830e-14
4.365000000000000000e+03 7.966044616699218750e+01 -1.545377731323242188e+01 1.801443583605670529e-14 -1.981587908084919691e-13 -5.404330750817011586e-14 -1.200962445539310169e-14
4.366000000000000000e+03 7.832705688476562500e+01 -1.533154487609863281e+01 -3.803047490097931360e-14 -6.204972381176551699e-14 -3.002405859738391247e-14 -7.005614350349270714e-14
4.367000000000000000e+03 7.696608734130859375e+01 -1.614542579650878906e+01 4.603689120457471473e-14 -2.602085213965210642e-14 6.004812227696550847e-15 4.803849782157240678e-14
4.368000000000000000e+03 7.945481109619140625e+01 -2.236400413513183594e+01 -2.201764398785440585e-14 -2.381908689383371858e-13 -7.806255641895631925e-14 -3.002405859738391247e-14
4.369000000000000000e+03 7.943497467041015625e+01 -2.372870063781738281e+01 4.803849782157240678e-14 -2.081668171172168513e-13 -4.803849782157240678e-14 -5.004010105043830980e-14
4.370000000000000000e+03 7.940992736816406250e+01 -2.509197425842285156e+01 -2.201764398785440585e-14 -2.381908689383371858e-13 -7.806255641895631925e-14 -2.401924891078620339e-14
4.371000000000000000e+03 7.933437347412109375e+01 -2.921248626708984375e+01 -5.004010105043830980e-14 -2.502004950877961820e-13 -9.007218256841531545e-14 6.004812227696550847e-15
4.372000000000000000e+03 7.931021881103515625e+01 -3.060367965698242188e+01 3.402726844324750755e-14 -2.141716301919463494e-13 -5.404330750817011586e-14 0.000000000000000000e+00
4.373000000000000000e+03 7.787812042236328125e+01 -3.178741645812988281e+01 -1.251002526260957745e-14 -1.426142868079030568e-13 -4.653729455289003225e-14 1.801443583605670529e-14
4.374000000000000000e+03 7.928824615478515625e+01 -3.200149536132812500e+01 -1.701363422162375377e-14 -2.131708302715792924e-13 -6.905533680686207210e-14 -6.004812227696550847e-15
4.375000000000000000e+03 7.922281646728515625e+01 -3.611668014526367188e+01 -2.051644071917203133e-14 -2.146720301521298779e-13 -7.055654346367623564e-14 4.003208151797700565e-14
4.376000000000000000e+03 7.905627441406250000e+01 -3.744481277465820312e+01 3.853087824929463112e-14 -1.436150867282701138e-13 -3.152526186606628700e-14 8.006416303595401129e-15
4.377000000000000000e+03 7.864510345458984375e+01 -3.881918716430664062e+01 4.953969770212299228e-14 -1.045838085187919542e-13 -1.651323256737433076e-14 -3.602887167211341057e-14
4.378000000000000000e+03 7.800685119628906250e+01 -4.174810409545898438e+01 8.256616283687165381e-15 -1.108388215736132165e-13 -3.077466192579099424e-14 6.004812227696550847e-15
4.379000000000000000e+03 7.898976135253906250e+01 -1.538699913024902344e+01 1.401122768425900472e-14 -1.541235129971785245e-13 -4.203368474684290867e-14 -8.206576287668812530e-14
4.380000000000000000e+03 7.824052429199218750e+01 -1.627596092224121094e+01 -6.805453688649501509e-14 -2.121700303512122354e-13 -8.406736949368581735e-14 -7.005614350349270714e-14
4.381000000000000000e+03 7.766982269287109375e+01 -1.531078720092773438e+01 3.402726844324750755e-14 -5.404330750817011586e-14 -6.004812227696550847e-15 -4.003208151797700565e-15
4.382000000000000000e+03 7.701689147949218750e+01 -1.529581356048583984e+01 4.603689120457471473e-14 1.341074739322559162e-13 5.404330750817011586e-14 8.406736949368581735e-14
4.383000000000000000e+03 7.635704803466796875e+01 -1.528815269470214844e+01 -2.001604075898850282e-14 -1.000802021008766196e-13 -3.602887167211341057e-14 1.321058605389946461e-13
4.384000000000000000e+03 7.352829742431640625e+01 -1.540048789978027344e+01 -1.200962445539310169e-14 -1.881507780522942430e-13 -6.004811719476782494e-14 -4.003208151797700565e-15
4.385000000000000000e+03 7.424113464355468750e+01 -1.536820697784423828e+01 5.804651735403371093e-14 1.621299259126421366e-13 6.605293026949732305e-14 4.003208151797700565e-14
4.386000000000000000e+03 7.189483642578125000e+01 -1.703297042846679688e+01 5.504411081666896188e-14 1.150922347877003649e-13 5.104090097080536681e-14 7.606094980195862720e-14
4.387000000000000000e+03 7.072360229492187500e+01 -1.582345390319824219e+01 7.005613842129502361e-15 3.002406113848275424e-15 3.002406113848275424e-15 -4.803849782157240678e-14
4.388000000000000000e+03 7.004422760009765625e+01 -1.606157684326171875e+01 -2.401924891078620339e-14 2.642117210779892922e-13 7.205774334422682115e-14 1.601283260719080226e-14
4.389000000000000000e+03 7.290497589111328125e+01 -1.607999610900878906e+01 3.803047490097931360e-14 6.204972381176551699e-14 3.002405859738391247e-14 4.403528797570881170e-14
4.390000000000000000e+03 6.881465148925781250e+01 -2.090234756469726562e+01 1.541235129971785245e-13 2.261812563414053456e-13 1.140914348673333079e-13 1.000802037949425141e-14
4.391000000000000000e+03 6.881662750244140625e+01 -2.229667472839355469e+01 -1.561251128379126385e-13 2.762213472274482884e-13 3.602887167211341057e-14 6.605293026949732305e-14
4.392000000000000000e+03 6.858972167968750000e+01 -2.513198089599609375e+01 -5.204170427930421283e-14 2.522020949285302960e-13 6.004811719476782494e-14 7.205774334422682115e-14
4.393000000000000000e+03 6.670535278320312500e+01 -2.914465904235839844e+01 1.611291259922750796e-13 2.291836696550336727e-13 1.170938346284344789e-13 1.261010474642651480e-13
4.394000000000000000e+03 6.446107482910156250e+01 -3.109622192382812500e+01 1.890264745944836289e-13 1.725132488033728762e-13 1.084619183746096671e-13 1.721379386688398627e-13
4.395000000000000000e+03 5.361639785766601562e+01 -2.965524864196777344e+01 2.351884725653678038e-14 -7.856295637913984775e-14 -1.651323256737433076e-14 6.004812227696550847e-15
4.396000000000000000e+03 5.070036697387695312e+01 -2.646738815307617188e+01 -1.701363422162375377e-14 -1.301042606982605321e-14 -9.007217918028352643e-15 6.142422047340431734e-14
4.397000000000000000e+03 4.675666046142578125e+01 -2.247363471984863281e+01 5.629511410525957216e-15 5.316760757784894098e-14 1.763913586591905891e-14 5.122855264994008451e-14
4.398000000000000000e+03 4.379383468627929688e+01 -2.127827072143554688e+01 -6.630313448475382357e-15 -1.172189380066121500e-13 -3.715477497065813872e-14 2.001604075898850282e-14
4.399000000000000000e+03 3.998173904418945312e+01 -9.241984367370605469e+00 5.604491073703601889e-14 2.401924891078620339e-14 2.401924891078620339e-14 -1.200962445539310169e-14
4.400000000000000000e+03 4.162817001342773438e+01 -9.357650756835937500e+00 1.521218996039172544e-13 -3.923143819355157103e-13 -7.205774334422682115e-14 -2.481988952470620680e-13
4.401000000000000000e+03 4.131364059448242188e+01 -1.037396621704101562e+01 -5.204170427930421283e-14 -2.281828697346666157e-13 -8.406736949368581735e-14 -3.602887167211341057e-14
4.402000000000000000e+03 7.566828918457031250e+01 -1.530158805847167969e+01 6.004812227696550847e-15 9.407538902614712151e-14 3.002405859738391247e-14 2.001604075898850282e-14
4.403000000000000000e+03 7.949327087402343750e+01 -1.820653152465820312e+01 -3.002405859738391247e-14 -3.102486258350911630e-13 -1.020818019416107336e-13 3.002405859738391247e-14
4.404000000000000000e+03 7.565071868896484375e+01 -1.605957603454589844e+01 6.004811719476782494e-14 -2.001604075898850282e-14 1.200962445539310169e-14 6.004811719476782494e-14
4.405000000000000000e+03 7.760523223876953125e+01 -1.623423767089843750e+01 5.804651735403371093e-14 2.001604075898850282e-15 1.801443583605670529e-14 -1.200962445539310169e-14
4.406000000000000000e+03 6.933766174316406250e+01 -1.619389724731445312e+01 2.602085213965210642e-14 3.402726844324750755e-14 1.801443583605670529e-14 4.603689120457471473e-14
4.407000000000000000e+03 6.885149383544921875e+01 -1.821180152893066406e+01 9.157338244896590096e-14 1.536231130369949960e-13 7.355895000104098469e-14 2.802245536851800944e-14
4.408000000000000000e+03 4.066246414184570312e+01 -9.264427185058593750e+00 4.803849782157240678e-14 -4.803849782157240678e-14 0.000000000000000000e+00 -6.405133042876320904e-14
4.409000000000000000e+03 8.603495597839355469e+00 -1.887420654296875000e+00 -1.911531778133954140e-13 1.010810020212436766e-13 -2.702165375408505793e-14 -5.604491073703601889e-14
4.410000000000000000e+03 1.071223068237304688e+01 -3.431552886962890625e+00 -1.641315257533762506e-13 -4.363496868518834670e-13 -1.801443651368306309e-13 -1.761411519028352468e-13
4.411000000000000000e+03 9.311118125915527344e+00 -2.663232088088989258e+00 -2.922341730583755126e-13 1.200962445539310169e-14 -8.406736949368581735e-14 -1.601283260719080226e-14
4.412000000000000000e+03 7.281587982177734375e+01 -1.545429420471191406e+01 -1.000802037949425141e-14 -5.004010105043830980e-14 -1.801443583605670529e-14 4.003208151797700565e-14
4.413000000000000000e+03 7.356809997558593750e+01 -1.679244041442871094e+01 7.506014988159157020e-14 -1.050842084789754827e-13 -9.007217918028352643e-15 1.200962445539310169e-14
4.414000000000000000e+03 7.845440673828125000e+01 -1.825958633422851562e+01 -3.302646513474866152e-14 -1.971579908881249121e-13 -6.905533680686207210e-14 2.401924891078620339e-14
4.415000000000000000e+03 7.358502960205078125e+01 -1.608486557006835938e+01 6.004811719476782494e-14 3.002405995263662808e-13 1.080866150163402317e-13 3.602887167211341057e-14
4.416000000000000000e+03 7.141281890869140625e+01 -1.567092037200927734e+01 8.606896933441993136e-14 1.741395520621011328e-13 7.806255641895631925e-14 -5.604491073703601889e-14
4.417000000000000000e+03 6.994503021240234375e+01 -1.986201477050781250e+01 1.501202997631831404e-13 2.702165477052459464e-13 1.261010474642651480e-13 4.003208151797700565e-14
4.418000000000000000e+03 7.838754272460937500e+01 -2.094580459594726562e+01 2.502005052521915490e-14 -1.951563910473907981e-13 -5.104090097080536681e-14 5.004010105043830980e-14
4.419000000000000000e+03 7.017018127441406250e+01 -1.762683486938476562e+01 8.406736949368581735e-14 3.602887167211341057e-14 3.602887167211341057e-14 -6.004812227696550847e-15
4.420000000000000000e+03 3.435863494873046875e+01 -9.197395324707031250e+00 9.407538902614712151e-14 -7.405934996122451319e-14 6.004812227696550847e-15 -4.203368474684290867e-14
4.421000000000000000e+03 3.541033935546875000e+01 -8.601886749267578125e+00 1.301042606982605321e-13 1.000802037949425141e-14 4.203368474684290867e-14 -6.004811719476782494e-14
4.422000000000000000e+03 3.592247009277343750e+01 -9.514479637145996094e+00 4.403528797570881170e-14 -1.641315257533762506e-13 -3.602887167211341057e-14 -7.405934996122451319e-14
4.423000000000000000e+03 3.464701080322265625e+01 -8.452201843261718750e+00 1.691355389077386917e-13 -1.901523745048965680e-14 4.503609128420765773e-14 -4.003208151797700565e-14
4.424000000000000000e+03 3.513645172119140625e+01 -9.364703178405761719e+00 8.807057595141762341e-14 1.521218996039172544e-13 7.205774334422682115e-14 -8.606896933441993136e-14
4.425000000000000000e+03 3.749811172485351562e+01 -9.780442237854003906e+00 -2.001604075898850282e-15 2.201764398785440585e-14 6.004812227696550847e-15 -3.202566521438160452e-14
4.426000000000000000e+03 3.671039199829101562e+01 -9.653584480285644531e+00 -1.401122768425900472e-14 -6.004812227696550847e-15 -6.004812227696550847e-15 -1.120898214740720378e-13
4.427000000000000000e+03 4.059272384643554688e+01 -1.411321926116943359e+01 4.903929774193946378e-14 -1.391114735340912012e-13 -2.702165375408505793e-14 -5.004010105043830980e-14
4.428000000000000000e+03 1.448681831359863281e+01 -3.199997425079345703e+00 -1.381106736137241442e-13 -8.206576287668812530e-14 -6.605293026949732305e-14 2.201764398785440585e-14
4.429000000000000000e+03 1.297358131408691406e+01 -3.000324726104736328e+00 -1.501202997631831404e-13 -1.100882216333379238e-13 -7.806255641895631925e-14 -2.602085213965210642e-14
4.430000000000000000e+03 1.151041603088378906e+01 -2.813596963882446289e+00 -9.807859548387892756e-14 -3.622903301143953758e-13 -1.381106736137241442e-13 -2.001604075898850282e-14
4.431000000000000000e+03 1.223589897155761719e+01 -2.902016401290893555e+00 -2.141716301919463494e-13 -4.603689120457471473e-14 -7.806255641895631925e-14 -1.721379386688398627e-13
4.432000000000000000e+03 1.685709381103515625e+01 -3.400216579437255859e+00 -1.621299259126421366e-13 2.201764398785440585e-14 -4.203368474684290867e-14 1.361090737729900302e-13
4.433000000000000000e+03 2.174826622009277344e+01 -4.365330219268798828e+00 2.802245536851800944e-14 1.200962445539310169e-14 1.200962445539310169e-14 -1.080866150163402317e-13
4.434000000000000000e+03 2.157762527465820312e+01 -2.651555299758911133e+00 7.205774334422682115e-14 -1.521218996039172544e-13 -2.401924891078620339e-14 -8.006416303595401129e-15
4.435000000000000000e+03 2.135845947265625000e+01 -3.490859746932983398e+00 4.803849782157240678e-14 -4.803849782157240678e-14 0.000000000000000000e+00 -1.801443583605670529e-14
4.436000000000000000e+03 1.774785804748535156e+01 -2.758085966110229492e+00 -1.050842084789754827e-13 -4.503609128420765773e-14 -4.503609128420765773e-14 1.120898214740720378e-13
4.437000000000000000e+03 1.844863510131835938e+01 -3.445868730545043945e+00 2.201764398785440585e-14 -8.206576287668812530e-14 -1.801443583605670529e-14 3.002405995263662808e-13
4.438000000000000000e+03 2.913125419616699219e+01 -9.174702644348144531e+00 3.402726844324750755e-14 1.060850151756061177e-13 4.203368474684290867e-14 -1.661331391466375207e-13
4.439000000000000000e+03 3.213081741333007812e+01 -1.449415683746337891e+01 -3.602887167211341057e-14 3.963175816169839383e-13 1.080866150163402317e-13 -1.361090737729900302e-13
4.440000000000000000e+03 3.204384613037109375e+01 -8.597068786621093750e+00 4.203368474684290867e-14 1.801443583605670529e-14 1.801443583605670529e-14 -1.301042606982605321e-13
4.441000000000000000e+03 3.312017059326171875e+01 -8.114463806152343750e+00 1.431146867680865853e-13 1.070858150959731747e-13 7.506014988159157020e-14 -1.521218996039172544e-13
4.442000000000000000e+03 2.975629615783691406e+01 -7.854883670806884766e+00 1.801443651368306309e-13 1.000802021008766196e-13 8.406736949368581735e-14 -7.205774334422682115e-14
4.443000000000000000e+03 2.068793296813964844e+01 -3.426476955413818359e+00 -2.401924891078620339e-14 -5.604491073703601889e-14 -2.401924891078620339e-14 -5.604491073703601889e-14
4.444000000000000000e+03 1.526476001739501953e+01 -3.286981105804443359e+00 -1.701363388281057487e-13 -5.004010105043830980e-14 -6.605293026949732305e-14 8.006416303595401129e-15
4.445000000000000000e+03 1.765412902832031250e+01 -3.430978298187255859e+00 -9.207378240914942946e-14 5.204170427930421283e-14 -1.200962445539310169e-14 1.160930347080674219e-13
4.446000000000000000e+03 3.128431892395019531e+01 -8.371679306030273438e+00 1.601283260719080226e-14 -1.601283260719080226e-14 0.000000000000000000e+00 -6.004812227696550847e-15
4.447000000000000000e+03 2.822686958312988281e+01 -7.232738971710205078e+00 1.361090737729900302e-13 -5.604491073703601889e-14 2.401924891078620339e-14 -1.080866150163402317e-13
4.448000000000000000e+03 2.747193527221679688e+01 -6.875491619110107422e+00 4.803849782157240678e-14 -4.803849782157240678e-14 0.000000000000000000e+00 -3.202566521438160452e-14
4.449000000000000000e+03 8.531689643859863281e+00 -2.663669109344482422e+00 -4.603689120457471473e-14 2.602085213965210642e-14 -6.004812227696550847e-15 -1.621299259126421366e-13
4.450000000000000000e+03 7.731819152832031250e+00 -2.678363800048828125e+00 -8.706977603105056640e-14 7.706175649858926224e-14 -3.002406113848275424e-15 -9.007218256841531545e-14
4.451000000000000000e+03 6.969760417938232422e+00 -1.897292613983154297e+00 3.002405859738391247e-14 1.501202997631831404e-13 5.404330750817011586e-14 -4.003208151797700565e-15
4.452000000000000000e+03 6.110917091369628906e+00 -2.718994617462158203e+00 2.702165375408505793e-14 1.030826086382413687e-13 3.903127820947815962e-14 4.403528797570881170e-14
4.453000000000000000e+03 3.738467454910278320e+00 -2.817776679992675781e+00 -6.505213034913026604e-14 1.551243129175455815e-13 2.702165375408505793e-14 -7.205774334422682115e-14
4.454000000000000000e+03 2.887282848358154297e+00 -1.996857523918151855e+00 -4.403528797570881170e-14 4.003208151797700565e-15 -1.200962445539310169e-14 -6.605293026949732305e-14
4.455000000000000000e+03 1.816852569580078125e+00 -6.350030899047851562e+00 -5.104090097080536681e-14 -1.591275125990138095e-13 -6.305052373213257400e-14 1.801443583605670529e-14
4.456000000000000000e+03 6.033915281295776367e-01 -6.426029205322265625e+00 -3.803047490097931360e-14 -6.204972381176551699e-14 -3.002405859738391247e-14 4.603689120457471473e-14
4.457000000000000000e+03 3.823632240295410156e+00 -3.617128849029541016e+00 -8.606896933441993136e-14 -1.401122768425900472e-14 -3.002405859738391247e-14 2.001604075898850282e-15
4.458000000000000000e+03 4.562602639198303223e-01 -3.574034690856933594e+00 -1.301042606982605321e-14 -9.707779556351187056e-14 -3.302646513474866152e-14 3.402726844324750755e-14
4.459000000000000000e+03 2.672490882873535156e+01 -6.471752643585205078e+00 2.121700303512122354e-13 -9.207378240914942946e-14 3.602887167211341057e-14 -1.060850151756061177e-13
4.460000000000000000e+03 2.327591133117675781e+01 -4.305984497070312500e+00 1.160930347080674219e-13 4.003208151797700565e-15 3.602887167211341057e-14 -4.403528797570881170e-14
4.461000000000000000e+03 2.498529052734375000e+01 -4.535051345825195312e+00 1.851483647386659159e-13 1.251002475438980910e-13 9.307458910578006450e-14 2.001604075898850282e-14
4.462000000000000000e+03 2.599934959411621094e+01 -6.036139965057373047e+00 2.081668171172168513e-13 1.120898214740720378e-13 9.607699564314481355e-14 1.140914348673333079e-13
4.463000000000000000e+03 2.529899024963378906e+01 -5.592600345611572266e+00 1.701363388281057487e-13 5.004010105043830980e-14 6.605293026949732305e-14 9.907939540424598457e-14
4.464000000000000000e+03 2.361952590942382812e+01 -3.637688636779785156e+00 8.356696953350228885e-14 8.156536291650459680e-14 4.953969770212299228e-14 -4.803849782157240678e-14
4.465000000000000000e+03 2.199193382263183594e+01 -3.658236265182495117e+00 -4.003208151797700565e-15 4.403528797570881170e-14 1.200962445539310169e-14 -7.806255641895631925e-14
4.466000000000000000e+03 2.981401824951171875e+01 -1.680878829956054688e+01 -2.031628039628544102e-13 7.305854326459387815e-14 -3.903127820947815962e-14 -1.601283260719080226e-14
4.467000000000000000e+03 3.820909881591796875e+01 -2.080551338195800781e+01 -4.003208151797700565e-14 -4.003208151797700565e-14 -2.401924891078620339e-14 6.605293026949732305e-14
4.468000000000000000e+03 3.564563369750976562e+01 -1.837578392028808594e+01 -8.506816941405287436e-14 5.504411081666896188e-14 -9.007217918028352643e-15 -6.004812227696550847e-15
4.469000000000000000e+03 6.867732048034667969e+00 -1.565944766998291016e+01 3.502807175174635357e-14 1.501202929869195624e-14 1.501202929869195624e-14 -2.001604075898850282e-15
4.470000000000000000e+03 8.640429496765136719e+00 -1.687122917175292969e+01 1.090874217129708668e-13 1.000802037949425141e-15 3.302646513474866152e-14 4.603689120457471473e-14
4.471000000000000000e+03 3.646213531494140625e+01 -2.554536628723144531e+01 6.780433690640325084e-14 2.349382624208806725e-13 9.082278250869060821e-14 2.602085213965210642e-14
4.472000000000000000e+03 6.934230804443359375e+00 -3.032710647583007812e+01 1.601283260719080226e-14 -1.761411519028352468e-13 -4.803849782157240678e-14 -2.902325867701685547e-14
4.473000000000000000e+03 3.024833679199218750e+00 -1.796140670776367188e+01 4.603689120457471473e-14 -2.602085213965210642e-14 6.004812227696550847e-15 6.805453688649501509e-14
4.474000000000000000e+03 2.850051498413085938e+01 -3.148030090332031250e+01 -4.103288143834406265e-14 5.104090097080536681e-14 3.002406113848275424e-15 -6.004812227696550847e-15
4.475000000000000000e+03 3.082877731323242188e+01 -3.261034774780273438e+01 -3.602887167211341057e-14 -4.003208151797700565e-15 -1.200962445539310169e-14 -2.552045048540268340e-14
4.476000000000000000e+03 1.308926773071289062e+01 -3.149915695190429688e+01 -4.903929774193946378e-14 -2.101684237342145434e-14 -2.101684237342145434e-14 -1.401122768425900472e-14
4.477000000000000000e+03 1.039006805419921875e+01 -3.074797439575195312e+01 2.502005052521915490e-14 -3.502807175174635357e-14 -3.002406113848275424e-15 1.801443583605670529e-14
4.478000000000000000e+03 3.423359298706054688e+01 -2.938287925720214844e+01 -8.131516293641283255e-14 -1.626303258728256651e-14 -2.927345865710861972e-14 2.151724233360498284e-14
4.479000000000000000e+03 2.084675979614257812e+01 -1.733832931518554688e+01 -1.501202997631831404e-13 5.004010105043830980e-14 -3.002405859738391247e-14 -1.801443583605670529e-14
4.480000000000000000e+03 2.323263549804687500e+01 -1.865517234802246094e+01 -1.991596042813861822e-13 2.902325867701685547e-14 -5.104090097080536681e-14 1.401122768425900472e-14
4.481000000000000000e+03 3.590135955810546875e+01 -2.696501159667968750e+01 -2.001604075898850282e-14 6.004811719476782494e-14 1.200962445539310169e-14 3.402726844324750755e-14
4.482000000000000000e+03 1.304456138610839844e+01 -1.423053359985351562e+01 8.006416303595401129e-14 8.006416303595401129e-14 4.803849782157240678e-14 6.455173038894673754e-14
4.483000000000000000e+03 1.715458679199218750e+01 -1.516322612762451172e+01 1.701363422162375377e-14 1.301042606982605321e-14 9.007217918028352643e-15 1.979085976046637829e-13
4.484000000000000000e+03 1.643868446350097656e+01 -1.596101093292236328e+01 7.806255641895631925e-14 1.421138868477195283e-13 6.605293026949732305e-14 1.135910281308862013e-13
4.485000000000000000e+03 3.322099685668945312e+01 -2.837293624877929688e+01 3.096231360492571194e-14 1.047714568097948828e-13 4.072013315729525185e-14 -9.007217918028352643e-15
4.486000000000000000e+03 3.515225982666015625e+01 -2.825069618225097656e+01 3.402726844324750755e-14 1.060850151756061177e-13 4.203368474684290867e-14 -2.702165375408505793e-14
4.487000000000000000e+03 8.206730842590332031e+00 -1.546366310119628906e+01 1.030826086382413687e-13 -1.301042606982605321e-14 2.702165375408505793e-14 1.401122768425900472e-14
4.488000000000000000e+03 5.648488402366638184e-01 -2.058242797851562500e+01 6.605293026949732305e-14 -8.606896933441993136e-14 -6.004812227696550847e-15 6.805453688649501509e-14
4.489000000000000000e+03 1.742389297485351562e+01 -1.650917434692382812e+01 -6.905533680686207210e-14 3.903127820947815962e-14 -9.007217918028352643e-15 1.230986477031639770e-13
4.490000000000000000e+03 3.325571823120117188e+01 -3.052604484558105469e+01 -2.401924891078620339e-14 6.405133042876320904e-14 1.200962445539310169e-14 -1.313552605987193533e-14
4.491000000000000000e+03 3.770237731933593750e+01 -2.184336471557617188e+01 -4.303448466720996568e-14 -7.005613842129502361e-15 -1.501202929869195624e-14 3.302646513474866152e-14
4.492000000000000000e+03 1.850696563720703125e+01 -1.689179039001464844e+01 -3.102486190588275849e-14 1.010810020212436766e-13 2.101684237342145434e-14 9.007218256841531545e-14
4.493000000000000000e+03 1.989342689514160156e+01 -3.206513977050781250e+01 -2.602085213965210642e-14 -3.402726844324750755e-14 -1.801443583605670529e-14 -2.101684237342145434e-14
4.494000000000000000e+03 2.270055007934570312e+01 -3.406906509399414062e+01 -4.003208151797700565e-14 4.003208151797700565e-14 0.000000000000000000e+00 6.004812227696550847e-15
4.495000000000000000e+03 1.932328605651855469e+01 -1.833884429931640625e+01 -1.871499781319271860e-13 -2.301844560228735737e-14 -6.305052373213257400e-14 5.604491073703601889e-14
4.496000000000000000e+03 1.965644645690917969e+01 -1.716113662719726562e+01 -8.406736949368581735e-14 -1.160930347080674219e-13 -6.004811719476782494e-14 3.102486190588275849e-14
4.497000000000000000e+03 2.455558204650878906e+01 -1.854827117919921875e+01 -2.251804564210382886e-13 -5.004010189747125706e-15 -6.905533680686207210e-14 -4.403528797570881170e-14
4.498000000000000000e+03 2.103473472595214844e+01 -1.616312026977539062e+01 -1.361090737729900302e-13 -1.040834085586084257e-13 -7.205774334422682115e-14 9.207378240914942946e-14
4.499000000000000000e+03 2.715659713745117188e+01 -1.707496833801269531e+01 -2.812253739343378856e-13 1.311050606186275891e-13 -4.503609128420765773e-14 -6.805453688649501509e-14
4.500000000000000000e+03 2.915532684326171875e+01 -3.324071884155273438e+01 -2.051644071917203133e-14 -5.454371085648543338e-14 -2.251804564210382886e-14 -8.006416303595401129e-15
4.501000000000000000e+03 2.737612533569335938e+01 -3.376585388183593750e+01 -3.302646513474866152e-14 1.230986477031639770e-13 2.702165375408505793e-14 -5.704571743366665393e-14
4.502000000000000000e+03 2.559214782714843750e+01 -3.179644584655761719e+01 -3.402726844324750755e-14 5.404330750817011586e-14 6.004812227696550847e-15 -4.003208151797700565e-15
4.503000000000000000e+03 3.115751075744628906e+01 -1.672697639465332031e+01 -1.771419518232023038e-13 -5.304250758780305885e-14 -6.905533680686207210e-14 -5.604491073703601889e-14
4.504000000000000000e+03 2.847688293457031250e+01 -1.693307876586914062e+01 -2.061652172764827373e-13 2.602085213965210642e-14 -5.404330750817011586e-14 -2.001604075898850282e-14
4.505000000000000000e+03 6.334812164306640625e+00 -2.913794517517089844e+01 6.855493684667854359e-14 6.505213034913026604e-15 2.251804564210382886e-14 0.000000000000000000e+00
4.506000000000000000e+03 3.367839050292968750e+01 -1.651468658447265625e+01 -2.141716301919463494e-13 1.140914348673333079e-13 -3.002405859738391247e-14 3.803047490097931360e-14
4.507000000000000000e+03 1.753603816032409668e+00 -1.922198295593261719e+01 4.903929774193946378e-14 -1.391114735340912012e-13 -2.702165375408505793e-14 2.201764398785440585e-14
4.508000000000000000e+03 1.708738803863525391e+00 -2.058813095092773438e+01 -2.001604075898850282e-14 -1.000802021008766196e-13 -3.602887167211341057e-14 0.000000000000000000e+00
4.509000000000000000e+03 1.447076129913330078e+01 -3.167485618591308594e+01 -2.201764398785440585e-14 -7.806255641895631925e-14 -3.002405859738391247e-14 1.200962445539310169e-14
4.510000000000000000e+03 1.559581184387207031e+01 -3.336045074462890625e+01 1.251002526260957745e-14 -1.751403587587317678e-14 -1.501203056924137712e-15 -1.601283260719080226e-14
4.511000000000000000e+03 1.121782875061035156e+01 -3.291174697875976562e+01 -1.751403587587317678e-14 -7.506014649345978118e-15 -7.506014649345978118e-15 -2.602085213965210642e-14
4.512000000000000000e+03 1.275313663482666016e+01 -3.334830856323242188e+01 4.503608959014176322e-15 -9.507618725244828400e-15 -1.501203056924137712e-15 1.301042606982605321e-14
4.513000000000000000e+03 3.727672576904296875e+01 -2.296284484863281250e+01 1.050842084789754827e-13 4.503609128420765773e-14 4.503609128420765773e-14 4.003208151797700565e-15
4.514000000000000000e+03 3.689979934692382812e+01 -2.418941116333007812e+01 1.376102770416724047e-14 2.877305869692509122e-14 1.276022524270134170e-14 2.602085213965210642e-14
4.515000000000000000e+03 1.791294574737548828e+00 -2.730369758605957031e+01 5.204170427930421283e-14 6.805453688649501509e-14 3.602887167211341057e-14 1.200962445539310169e-14
4.516000000000000000e+03 2.101289176940917969e+01 -3.410070419311523438e+01 -4.203368474684290867e-14 -1.801443583605670529e-14 -1.801443583605670529e-14 -3.803047490097931360e-14
4.517000000000000000e+03 2.489380264282226562e+01 -3.539642715454101562e+01 -7.706175649858926224e-14 -3.302646513474866152e-14 -3.302646513474866152e-14 7.005613842129502361e-15
4.518000000000000000e+03 7.657396697998046875e+01 -3.795372772216796875e+01 -2.983641030638098379e-14 -4.474210444412735077e-13 -1.431772316809118428e-13 -1.676343424153198952e-14
4.519000000000000000e+03 7.926099395751953125e+01 -3.476551818847656250e+01 4.053248147816053415e-14 -1.656327256339268361e-13 -3.753007494079578510e-14 4.803849782157240678e-14
4.520000000000000000e+03 7.935834503173828125e+01 -2.783262443542480469e+01 3.602887167211341057e-14 -2.361892690976030718e-13 -6.004811719476782494e-14 -6.004812227696550847e-15
4.521000000000000000e+03 7.947007751464843750e+01 -2.099849128723144531e+01 4.103288143834406265e-14 -2.111692168783180223e-13 -5.104090097080536681e-14 -2.001604075898850282e-15
4.522000000000000000e+03 7.749848937988281250e+01 -1.720718765258789062e+01 -2.101684237342145434e-14 -1.691355389077386917e-13 -5.704571743366665393e-14 1.080866150163402317e-13
4.523000000000000000e+03 7.800646209716796875e+01 -2.895723342895507812e+01 -3.002406113848275424e-15 -2.071660171968497943e-13 -6.305052373213257400e-14 -3.803047490097931360e-14
4.524000000000000000e+03 7.812916564941406250e+01 -2.622792625427246094e+01 -3.002405859738391247e-14 -1.501202997631831404e-13 -5.404330750817011586e-14 -2.001604075898850282e-15
4.525000000000000000e+03 7.781543731689453125e+01 -3.320057296752929688e+01 -9.007217918028352643e-15 -1.411130869273524713e-13 -4.503609128420765773e-14 0.000000000000000000e+00
4.526000000000000000e+03 7.406655120849609375e+01 -3.726002120971679688e+01 -8.706977603105056640e-14 -8.306656957331876034e-14 -5.104090097080536681e-14 -2.802245536851800944e-14
4.527000000000000000e+03 7.563848876953125000e+01 -4.074374389648437500e+01 -7.055654346367623564e-14 -2.647121345906999768e-13 -1.005806020610601481e-13 -4.003208151797700565e-14
4.528000000000000000e+03 7.884963989257812500e+01 -1.650416755676269531e+01 1.801443583605670529e-14 -1.981587908084919691e-13 -5.404330750817011586e-14 4.003208151797700565e-14
4.529000000000000000e+03 6.255545425415039062e+01 -3.406091690063476562e+01 1.200962445539310169e-14 6.805453688649501509e-14 2.401924891078620339e-14 4.903929774193946378e-14
4.530000000000000000e+03 5.661552047729492188e+01 -3.467930221557617188e+01 2.326864727644501613e-14 -3.577867169202164632e-14 -3.753007324672989059e-15 1.601283260719080226e-14
4.531000000000000000e+03 3.700651550292968750e+01 -2.009481048583984375e+01 -3.202566521438160452e-14 1.521218996039172544e-13 3.602887167211341057e-14 2.702165375408505793e-14
4.532000000000000000e+03 7.037844848632812500e+01 -2.734875679016113281e+01 4.503609128420765773e-14 1.050842084789754827e-13 4.503609128420765773e-14 5.004010189747125706e-15
4.533000000000000000e+03 6.923371887207031250e+01 -2.694544982910156250e+01 3.402726844324750755e-14 1.060850151756061177e-13 4.203368474684290867e-14 1.150922347877003649e-13
4.534000000000000000e+03 5.466160583496093750e+01 -3.075410270690917969e+01 -4.541139125434530410e-14 -6.592783366758322994e-14 -3.340176849301809692e-14 -5.942261809157136157e-15
4.535000000000000000e+03 5.483944702148437500e+01 -3.353140640258789062e+01 -6.154932385158198849e-14 -3.502806921064751181e-15 -1.951563910473907981e-14 -8.006416303595401129e-15
4.536000000000000000e+03 6.563970184326171875e+01 -3.020013427734375000e+01 1.180946345488015359e-13 1.421138868477195283e-13 7.806255641895631925e-14 1.416134868875359998e-13
4.537000000000000000e+03 6.764267730712890625e+01 -3.265841293334960938e+01 -8.194066288664224318e-15 6.511468203821910161e-14 1.707618421664669484e-14 7.931355631941514051e-14
4.538000000000000000e+03 4.057537078857421875e+01 -1.284149456024169922e+01 -4.703769451307356075e-14 -4.303448466720996568e-14 -2.702165375408505793e-14 -7.405934996122451319e-14
4.539000000000000000e+03 4.148660278320312500e+01 -1.134731578826904297e+01 0.000000000000000000e+00 -3.202566521438160452e-13 -9.607699564314481355e-14 -5.804651735403371093e-14
4.540000000000000000e+03 4.106739425659179688e+01 -1.766033744812011719e+01 -1.701363422162375377e-14 -5.304250758780305885e-14 -2.101684237342145434e-14 1.000802037949425141e-14
4.541000000000000000e+03 4.281192016601562500e+01 -2.015315818786621094e+01 -9.507618725244828400e-15 -3.552847171192988207e-14 -1.351082687704252897e-14 3.490296837356868243e-14
4.542000000000000000e+03 6.661306762695312500e+01 -3.130261230468750000e+01 9.607699564314481355e-14 1.841475648182988589e-13 8.406736949368581735e-14 7.656135653840573374e-14
4.543000000000000000e+03 3.809450149536132812e+01 -1.071763229370117188e+01 -5.404330750817011586e-14 -4.603689120457471473e-14 -3.002405859738391247e-14 1.401122768425900472e-14
4.544000000000000000e+03 6.086893463134765625e+01 -3.500411224365234375e+01 2.301844560228735737e-14 6.705373696612795809e-14 2.702165375408505793e-14 6.204972381176551699e-14
4.545000000000000000e+03 6.363471603393554688e+01 -3.544884490966796875e+01 -2.132959234853615965e-14 5.948517232175903890e-14 1.144667280612073762e-14 3.953167816966168813e-14
4.546000000000000000e+03 6.999355316162109375e+01 -2.253184700012207031e+01 1.281026608575264181e-13 1.921539912862896271e-13 9.607699564314481355e-14 4.803849782157240678e-14
4.547000000000000000e+03 5.262544631958007812e+01 -2.857176208496093750e+01 -1.451162933850842773e-14 1.951563910473907981e-14 1.501203056924137712e-15 3.027426196560746574e-14
4.548000000000000000e+03 4.873044586181640625e+01 -2.628700256347656250e+01 -7.093184004568209300e-14 -3.039936195565334787e-14 -3.039936195565334787e-14 3.803047490097931360e-14
4.549000000000000000e+03 5.052466583251953125e+01 -2.841859436035156250e+01 -2.827265704267566820e-14 1.075862116680249142e-14 -5.254210593355363584e-15 2.401924891078620339e-14
4.550000000000000000e+03 6.533049774169921875e+01 -3.227381134033203125e+01 2.201764398785440585e-14 1.180946345488015359e-13 4.203368474684290867e-14 1.055846084391590112e-13
4.551000000000000000e+03 4.479091644287109375e+01 -2.235180282592773438e+01 -3.652927163229693908e-14 -3.853087824929463112e-14 -2.251804564210382886e-14 3.803047490097931360e-14
4.552000000000000000e+03 5.011891174316406250e+01 -3.047940254211425781e+01 -5.204170427930421283e-14 1.200962445539310169e-14 -1.200962445539310169e-14 2.301844560228735737e-14
4.553000000000000000e+03 4.009559631347656250e+01 -1.668516731262207031e+01 1.050842084789754827e-13 5.004010189747125706e-15 3.302646513474866152e-14 2.326864727644501613e-14
4.554000000000000000e+03 6.881547546386718750e+01 -1.953238677978515625e+01 -1.401122870069854143e-13 2.602085213965210642e-13 3.602887167211341057e-14 5.204170427930421283e-14
4.555000000000000000e+03 4.964907836914062500e+01 -2.731760597229003906e+01 -3.114996189592864062e-14 3.240096518451925089e-14 3.753007642310344279e-16 -1.901523745048965680e-14
4.556000000000000000e+03 5.101947021484375000e+01 -3.189317893981933594e+01 -2.852285871683332696e-14 -6.655333022968085155e-14 -2.852285871683332696e-14 -8.757017937936588392e-15
4.557000000000000000e+03 7.242163085937500000e+01 -1.672622680664062500e+01 5.504411081666896188e-14 1.150922347877003649e-13 5.104090097080536681e-14 0.000000000000000000e+00
4.558000000000000000e+03 4.775812149047851562e+01 -2.346104431152343750e+01 -2.514515051526503703e-14 -1.863993748035201042e-14 -1.313552605987193533e-14 -6.067362222719491910e-15
4.559000000000000000e+03 4.776676940917968750e+01 -2.532014465332031250e+01 -5.329270756789482311e-14 4.578669122448295048e-14 -2.251804479507088161e-15 5.004010189747125706e-15
4.560000000000000000e+03 6.996573638916015625e+01 -2.115881347656250000e+01 -6.405133042876320904e-14 2.241796429481440756e-13 4.803849782157240678e-14 6.605293026949732305e-14
4.561000000000000000e+03 4.677895736694335938e+01 -2.436594390869140625e+01 1.376102749240900366e-15 -4.516119127425353985e-14 -1.313552605987193533e-14 7.005613842129502361e-15
4.562000000000000000e+03 1.280375123023986816e+00 -4.014541625976562500e+01 -4.978990107034654555e-14 -1.128404281906109086e-13 -4.878909776184769953e-14 4.003208151797700565e-15
4.563000000000000000e+03 8.353558778762817383e-01 -3.598095321655273438e+01 5.504410996963601463e-15 -2.051644071917203133e-14 -4.503608959014176322e-15 1.601283260719080226e-14
4.564000000000000000e+03 2.212849378585815430e+00 -3.280598449707031250e+01 1.301042606982605321e-14 -6.305052373213257400e-14 -1.501202929869195624e-14 -4.003208151797700565e-15
4.565000000000000000e+03 3.820041418075561523e+00 -2.769432258605957031e+01 -4.203368474684290867e-14 1.421138868477195283e-13 3.002405859738391247e-14 5.904731727440076794e-14
4.566000000000000000e+03 4.577586174011230469e+00 -2.542618942260742188e+01 -3.352686848306397904e-14 -7.155734338404329264e-14 -3.152526186606628700e-14 1.100882216333379238e-13
4.567000000000000000e+03 1.859563589096069336e+00 -7.890145301818847656e+00 -3.803047490097931360e-14 -6.204972381176551699e-14 -3.002405859738391247e-14 5.804651735403371093e-14
4.568000000000000000e+03 1.854731798171997070e+00 -1.648861694335937500e+01 -3.702967498061225660e-14 7.005613842129502361e-15 -9.007217918028352643e-15 1.281026608575264181e-13
4.569000000000000000e+03 5.444790124893188477e-01 -2.337483406066894531e+01 -3.002406113848275424e-15 -4.703769451307356075e-14 -1.501202929869195624e-14 1.401122768425900472e-14
4.570000000000000000e+03 2.612182855606079102e+00 -3.701831436157226562e+01 2.502005094873562853e-15 -6.755413692631148659e-14 -1.951563910473907981e-14 1.000802037949425141e-14
4.571000000000000000e+03 3.285525798797607422e+00 -3.942102432250976562e+01 4.791534939543699856e-14 -4.809127136231813870e-14 -5.277666748844737877e-17 -2.689655376403917580e-14
4.572000000000000000e+03 2.722990036010742188e+00 -3.831450271606445312e+01 1.050842118671072717e-14 -1.556247128777291100e-13 -4.353488801552528320e-14 -3.202566521438160452e-14
4.573000000000000000e+03 4.165479660034179688e+00 -3.526987457275390625e+01 4.103288143834406265e-14 -5.104090097080536681e-14 -3.002406113848275424e-15 1.200962445539310169e-14
4.574000000000000000e+03 2.093106985092163086e+00 -3.137850570678710938e+01 1.901523745048965680e-14 3.102486190588275849e-14 1.501202929869195624e-14 -5.004010105043830980e-14
4.575000000000000000e+03 4.850213527679443359e+00 -2.695120620727539062e+01 -2.001604075898850282e-15 -1.381106736137241442e-13 -4.203368474684290867e-14 1.200962445539310169e-14
4.576000000000000000e+03 1.796589732170104980e+00 -2.594701194763183594e+01 8.006416303595401129e-15 7.205774334422682115e-14 2.401924891078620339e-14 8.206576287668812530e-14
4.577000000000000000e+03 3.890931844711303711e+00 -2.207621002197265625e+01 -4.103288143834406265e-14 -1.090874217129708668e-13 -4.503609128420765773e-14 5.804651735403371093e-14
4.578000000000000000e+03 4.288808345794677734e+00 -1.809049606323242188e+01 5.304250758780305885e-14 -2.301844560228735737e-14 9.007217918028352643e-15 -6.004812227696550847e-15
4.579000000000000000e+03 3.107877731323242188e+00 -1.664254379272460938e+01 4.703769451307356075e-14 -1.170938346284344789e-13 -2.101684237342145434e-14 -1.801443583605670529e-14
4.580000000000000000e+03 3.264590263366699219e+00 -1.091401195526123047e+01 1.401122768425900472e-14 6.004812227696550847e-15 6.004812227696550847e-15 1.040834085586084257e-13
4.581000000000000000e+03 6.491259932518005371e-01 -1.215797328948974609e+01 -1.100882216333379238e-13 -7.005614350349270714e-14 -5.404330750817011586e-14 2.001604075898850282e-15
4.582000000000000000e+03 1.919463396072387695e+00 -9.367478370666503906e+00 -4.103288143834406265e-14 -1.090874217129708668e-13 -4.503609128420765773e-14 8.606896933441993136e-14
4.583000000000000000e+03 1.943937420845031738e+00 -1.227030277252197266e+01 2.902325867701685547e-14 -7.906335633932337625e-14 -1.501202929869195624e-14 2.401924891078620339e-14
4.584000000000000000e+03 3.202094316482543945e+00 -3.832699537277221680e+00 -1.271018609371593611e-13 3.702967498061225660e-14 -2.702165375408505793e-14 3.202566521438160452e-14
4.585000000000000000e+03 2.964222431182861328e+00 -2.968797683715820312e+00 -3.702967498061225660e-14 1.671339390670045777e-13 3.903127820947815962e-14 -4.003208151797700565e-15
4.586000000000000000e+03 1.346101641654968262e+00 -3.438396215438842773e+00 -4.703769451307356075e-14 -4.303448466720996568e-14 -2.702165375408505793e-14 1.000802037949425141e-14
4.587000000000000000e+03 5.377797484397888184e-01 -4.986278057098388672e+00 -5.204170427930421283e-14 -6.805453688649501509e-14 -3.602887167211341057e-14 -5.204170427930421283e-14
4.588000000000000000e+03 6.248234748840332031e+00 -2.788539314270019531e+01 1.501202929869195624e-14 -8.506816941405287436e-14 -2.101684237342145434e-14 7.205774334422682115e-14
4.589000000000000000e+03 2.985068798065185547e+00 -2.715892982482910156e+01 1.301042606982605321e-14 1.701363422162375377e-14 9.007217918028352643e-15 7.305854326459387815e-14
4.590000000000000000e+03 7.632059478759765625e+01 -1.607342338562011719e+01 4.203368474684290867e-14 1.801443583605670529e-14 1.801443583605670529e-14 1.441154866884536423e-13
4.591000000000000000e+03 7.842976379394531250e+01 -1.962205696105957031e+01 -3.002405859738391247e-14 -1.501202997631831404e-13 -5.404330750817011586e-14 7.005614350349270714e-14
4.592000000000000000e+03 7.831642150878906250e+01 -1.714246749877929688e+01 -2.902325867701685547e-14 -2.411932958044926689e-13 -8.106496295632106830e-14 -1.200962445539310169e-14
4.593000000000000000e+03 7.626275634765625000e+01 -1.680620193481445312e+01 2.802245536851800944e-14 -3.082470259943570490e-13 -8.406736949368581735e-14 6.805453688649501509e-14
4.594000000000000000e+03 9.991260528564453125e+00 -3.408634901046752930e+00 -1.501202997631831404e-13 2.101684169579509653e-13 1.801443583605670529e-14 -7.205774334422682115e-14
4.595000000000000000e+03 1.005975246429443359e+01 -2.689274311065673828e+00 -6.004811719476782494e-14 -1.401122870069854143e-13 -6.004811719476782494e-14 -1.240994476235310340e-13
4.596000000000000000e+03 7.427483367919921875e+01 -1.609648132324218750e+01 8.606896933441993136e-14 -1.461170865291877563e-13 -1.801443583605670529e-14 4.003208151797700565e-14
4.597000000000000000e+03 7.636455535888671875e+01 -1.748191261291503906e+01 9.807859548387892756e-14 4.203368474684290867e-14 4.203368474684290867e-14 3.803047490097931360e-14
4.598000000000000000e+03 7.051103210449218750e+01 -1.687519073486328125e+01 -6.805453688649501509e-14 2.682149478645118323e-13 6.004811719476782494e-14 3.602887167211341057e-14
4.599000000000000000e+03 3.907011032104492188e+01 -9.957758903503417969e+00 3.402726844324750755e-14 -2.141716301919463494e-13 -5.404330750817011586e-14 8.807057595141762341e-14
4.600000000000000000e+03 4.056595993041992188e+01 -1.167049217224121094e+01 -2.602085213965210642e-14 -1.941555911270237411e-13 -6.605293026949732305e-14 -1.401122768425900472e-14
4.601000000000000000e+03 1.142360782623291016e+01 -3.487353086471557617e+00 -9.007218256841531545e-14 1.901523778930283570e-13 3.002405859738391247e-14 -1.200962445539310169e-14
4.602000000000000000e+03 9.252963066101074219e+00 -3.415185451507568359e+00 -1.801443583605670529e-14 3.803047490097931360e-14 6.004812227696550847e-15 -1.561251128379126385e-13
4.603000000000000000e+03 7.496527862548828125e+01 -1.607778930664062500e+01 6.004812227696550847e-15 9.407538902614712151e-14 3.002405859738391247e-14 4.003208151797700565e-14
4.604000000000000000e+03 7.332369995117187500e+01 -1.736537551879882812e+01 7.606094980195862720e-14 4.403528797570881170e-14 3.602887167211341057e-14 1.321058605389946461e-13
4.605000000000000000e+03 7.162945556640625000e+01 -1.633989524841308594e+01 2.702165375408505793e-14 1.030826086382413687e-13 3.903127820947815962e-14 5.204170427930421283e-14
4.606000000000000000e+03 7.238821411132812500e+01 -1.758018875122070312e+01 -1.321058605389946461e-13 9.207378240914942946e-14 -1.200962445539310169e-14 4.003208151797700565e-15
4.607000000000000000e+03 7.225109100341796875e+01 -1.616656684875488281e+01 7.405934996122451319e-14 -1.401122768425900472e-14 1.801443583605670529e-14 1.000802021008766196e-13
4.608000000000000000e+03 6.999340057373046875e+01 -1.867378044128417969e+01 -1.020818019416107336e-13 1.621299259126421366e-13 1.801443583605670529e-14 3.602887167211341057e-14
4.609000000000000000e+03 7.212004089355468750e+01 -1.828503990173339844e+01 9.807859548387892756e-14 4.203368474684290867e-14 4.203368474684290867e-14 5.604491073703601889e-14
4.610000000000000000e+03 7.741378021240234375e+01 -1.834680175781250000e+01 6.004811719476782494e-14 -2.001604075898850282e-14 1.200962445539310169e-14 8.206576287668812530e-14
4.611000000000000000e+03 3.544335556030273438e+01 -1.106146526336669922e+01 8.706977603105056640e-14 8.306656957331876034e-14 5.104090097080536681e-14 -1.120898214740720378e-13
4.612000000000000000e+03 3.281372833251953125e+01 -8.811513900756835938e+00 7.405934996122451319e-14 -1.401122768425900472e-14 1.801443583605670529e-14 -8.406736949368581735e-14
4.613000000000000000e+03 3.485636520385742188e+01 -1.013697910308837891e+01 -3.002405859738391247e-14 -1.501202997631831404e-13 -5.404330750817011586e-14 -3.202566521438160452e-14
4.614000000000000000e+03 3.327546310424804688e+01 -9.738706588745117188e+00 -8.006416303595401129e-15 -7.205774334422682115e-14 -2.401924891078620339e-14 -3.803047490097931360e-14
4.615000000000000000e+03 3.620102691650390625e+01 -1.123180580139160156e+01 -4.403528797570881170e-14 2.441956955655938399e-13 6.004811719476782494e-14 -7.205774334422682115e-14
4.616000000000000000e+03 4.052717208862304688e+01 -1.070889282226562500e+01 -1.120898214740720378e-13 -3.682951296365977178e-13 -1.441154866884536423e-13 -1.401122870069854143e-13
4.617000000000000000e+03 3.828903579711914062e+01 -9.884601593017578125e+00 4.003208151797700565e-15 -4.403528797570881170e-14 -1.200962445539310169e-14 -4.803849782157240678e-14
4.618000000000000000e+03 3.971803665161132812e+01 -1.082492446899414062e+01 -6.705373696612795809e-14 -1.431146867680865853e-13 -6.305052373213257400e-14 3.803047490097931360e-14
4.619000000000000000e+03 1.372457790374755859e+01 -3.101782321929931641e+00 -8.206576287668812530e-14 1.020818019416107336e-13 6.004812227696550847e-15 -2.001604075898850282e-15
4.620000000000000000e+03 1.436377716064453125e+01 -3.890447139739990234e+00 -8.006416303595401129e-15 8.807057595141762341e-14 2.401924891078620339e-14 5.204170427930421283e-14
4.621000000000000000e+03 1.595099830627441406e+01 -4.043675422668457031e+00 -9.207378240914942946e-14 -1.080866150163402317e-13 -6.004811719476782494e-14 1.961571909677578551e-13
4.622000000000000000e+03 1.213509559631347656e+01 -3.572035551071166992e+00 -9.007218256841531545e-14 3.002405859738391247e-14 -1.801443583605670529e-14 -1.861491782115601290e-13
4.623000000000000000e+03 1.285924530029296875e+01 -3.675903320312500000e+00 -9.407538902614712151e-14 7.405934996122451319e-14 -6.004812227696550847e-15 5.004010105043830980e-14
4.624000000000000000e+03 2.425250434875488281e+01 -5.774987697601318359e+00 -3.002405859738391247e-14 1.701363388281057487e-13 4.203368474684290867e-14 -1.901523745048965680e-14
4.625000000000000000e+03 1.985447311401367188e+01 -4.149061679840087891e+00 -3.803047490097931360e-14 -6.204972381176551699e-14 -3.002405859738391247e-14 -3.402726844324750755e-14
4.626000000000000000e+03 3.172019958496093750e+01 -9.298248291015625000e+00 9.007218256841531545e-14 -3.002405859738391247e-14 1.801443583605670529e-14 -2.001604075898850282e-14
4.627000000000000000e+03 3.249817276000976562e+01 -9.520676612854003906e+00 -1.200962445539310169e-14 -2.802245536851800944e-14 -1.200962445539310169e-14 -1.341074739322559162e-13
4.628000000000000000e+03 2.898645210266113281e+01 -7.555087566375732422e+00 9.007218256841531545e-14 1.301042606982605321e-13 6.605293026949732305e-14 -1.040834085586084257e-13
4.629000000000000000e+03 2.944016838073730469e+01 -8.506843566894531250e+00 5.804651735403371093e-14 2.001604075898850282e-15 1.801443583605670529e-14 -9.207378240914942946e-14
4.630000000000000000e+03 1.756122016906738281e+01 -4.134292125701904297e+00 -8.006416303595401129e-14 -8.006416303595401129e-14 -4.803849782157240678e-14 1.801443651368306309e-13
4.631000000000000000e+03 1.605812644958496094e+01 -3.353844165802001953e+00 -1.401122870069854143e-13 -6.004811719476782494e-14 -6.004811719476782494e-14 2.481988952470620680e-13
4.632000000000000000e+03 1.835447692871093750e+01 -4.156382560729980469e+00 -2.401924891078620339e-14 -5.604491073703601889e-14 -2.401924891078620339e-14 2.502004950877961820e-13
4.633000000000000000e+03 1.746553802490234375e+01 -4.871416568756103516e+00 8.807057595141762341e-14 -8.006416303595401129e-15 2.401924891078620339e-14 2.141716301919463494e-13
4.634000000000000000e+03 3.646739959716796875e+01 -1.043955802917480469e+01 4.603689120457471473e-14 -2.602085213965210642e-14 6.004812227696550847e-15 -9.207378240914942946e-14
4.635000000000000000e+03 2.789194679260253906e+01 -7.874507904052734375e+00 3.803047490097931360e-14 6.204972381176551699e-14 3.002405859738391247e-14 2.602085213965210642e-14
4.636000000000000000e+03 2.755002784729003906e+01 -8.552042007446289062e+00 1.020818019416107336e-13 1.581267126786467525e-13 7.806255641895631925e-14 -1.160930347080674219e-13
4.637000000000000000e+03 8.490243911743164062e+00 -3.441562414169311523e+00 -1.751403519824681898e-13 -7.506014988159157020e-14 -7.506014988159157020e-14 -1.621299259126421366e-13
4.638000000000000000e+03 5.308144092559814453e+00 -2.738655567169189453e+00 -1.050842084789754827e-13 1.150922347877003649e-13 3.002406113848275424e-15 -2.602085213965210642e-14
4.639000000000000000e+03 6.922769546508789062e+00 -2.698467493057250977e+00 -5.204170427930421283e-14 9.207378240914942946e-14 1.200962445539310169e-14 2.602085213965210642e-14
4.640000000000000000e+03 6.094934463500976562e+00 -3.553766250610351562e+00 -7.906335633932337625e-14 1.491194998428160834e-13 2.101684237342145434e-14 -4.003208151797700565e-14
4.641000000000000000e+03 7.703112602233886719e+00 -3.474213600158691406e+00 -8.006416303595401129e-14 -8.006416303595401129e-14 -4.803849782157240678e-14 -1.060850151756061177e-13
4.642000000000000000e+03 6.901431083679199219e+00 -3.511946678161621094e+00 -6.805453688649501509e-14 1.080866150163402317e-13 1.200962445539310169e-14 4.003208151797700565e-14
4.643000000000000000e+03 2.180356979370117188e+00 -3.213346004486083984e+00 -2.401924891078620339e-14 1.040834085586084257e-13 2.401924891078620339e-14 2.201764398785440585e-14
4.644000000000000000e+03 3.725139856338500977e+00 -4.346351623535156250e+00 -1.120898214740720378e-13 1.120898214740720378e-13 0.000000000000000000e+00 -2.001604075898850282e-15
4.645000000000000000e+03 1.614820718765258789e+00 -4.828842163085937500e+00 -1.070858150959731747e-13 -2.301844560228735737e-14 -3.903127820947815962e-14 -1.000802037949425141e-15
4.646000000000000000e+03 2.493665885925292969e+01 -6.205526351928710938e+00 2.461972954063279539e-13 -6.605293026949732305e-14 5.404330750817011586e-14 9.007218256841531545e-14
4.647000000000000000e+03 2.393772888183593750e+01 -4.716599941253662109e+00 1.200962445539310169e-14 1.080866150163402317e-13 3.602887167211341057e-14 3.602887167211341057e-14
4.648000000000000000e+03 2.564198112487792969e+01 -6.641803264617919922e+00 5.004010105043830980e-14 9.007218256841531545e-14 4.203368474684290867e-14 4.803849782157240678e-14
4.649000000000000000e+03 2.262543487548828125e+01 -3.941030740737915039e+00 1.421138868477195283e-13 -1.220978477827969200e-13 6.004812227696550847e-15 -1.571259127582796955e-13
4.650000000000000000e+03 2.151476860046386719e+01 -4.973313331604003906e+00 1.321058605389946461e-13 -1.200962445539310169e-14 3.602887167211341057e-14 1.240994476235310340e-13
4.651000000000000000e+03 2.358618354797363281e+01 -5.359782695770263672e+00 1.741395520621011328e-13 -1.541235129971785245e-13 6.004812227696550847e-15 5.604491073703601889e-14
4.652000000000000000e+03 2.637498092651367188e+01 -7.077209472656250000e+00 8.006416303595401129e-14 -2.401924687790712998e-13 -4.803849782157240678e-14 9.407538902614712151e-14
4.653000000000000000e+03 1.514737701416015625e+01 -3.976656675338745117e+00 -1.521218996039172544e-13 7.205774334422682115e-14 -2.401924891078620339e-14 1.281026608575264181e-13
4.654000000000000000e+03 1.912325668334960938e+01 -4.158239364624023438e+00 -2.201764398785440585e-14 -7.806255641895631925e-14 -3.002405859738391247e-14 7.405934996122451319e-14
4.655000000000000000e+03 2.841448974609375000e+01 -1.583728408813476562e+01 -2.211772431870429045e-13 1.110890215537049808e-13 -3.302646513474866152e-14 -1.401122870069854143e-13
4.656000000000000000e+03 2.712826347351074219e+01 -7.495624065399169922e+00 8.006416303595401129e-14 -8.006416303595401129e-14 0.000000000000000000e+00 -1.881507780522942430e-13
4.657000000000000000e+03 4.177285003662109375e+01 -9.578519821166992188e+00 1.240994476235310340e-13 -7.245806602287907516e-13 -1.801443651368306309e-13 9.607699564314481355e-14
4.658000000000000000e+03 1.884107208251953125e+01 -1.583121204376220703e+01 -1.100882199392720293e-14 -1.190954344691685929e-13 -3.903127820947815962e-14 6.805453688649501509e-14
4.659000000000000000e+03 2.206687927246093750e+01 -1.742141342163085938e+01 -1.651323256737433076e-13 -2.502005052521915490e-14 -5.704571743366665393e-14 1.040834085586084257e-13
4.660000000000000000e+03 1.788046646118164062e+01 -1.560600090026855469e+01 5.404330750817011586e-14 -3.402726844324750755e-14 6.004812227696550847e-15 1.040834085586084257e-13
4.661000000000000000e+03 2.866264724731445312e+01 -8.205804824829101562e+00 6.204972381176551699e-14 -4.203368474684290867e-14 6.004812227696550847e-15 -1.821459649775647449e-13
4.662000000000000000e+03 2.711508560180664062e+01 -1.594805908203125000e+01 -1.561251128379126385e-13 -4.403528797570881170e-14 -6.004811719476782494e-14 4.003208151797700565e-14
4.663000000000000000e+03 7.264425754547119141e+00 -3.380637359619140625e+01 8.882117927982470518e-15 -7.268324668258802079e-14 -1.914033913460143344e-14 1.032077035460895673e-14
4.664000000000000000e+03 4.839229583740234375e+00 -3.074831008911132812e+01 2.702165375408505793e-14 -5.704571743366665393e-14 -9.007217918028352643e-15 -2.001604075898850282e-15
4.665000000000000000e+03 1.655470466613769531e+01 -1.442971038818359375e+01 -1.401122768425900472e-14 -6.004812227696550847e-15 -6.004812227696550847e-15 2.441956955655938399e-13
4.666000000000000000e+03 2.494085311889648438e+01 -7.866834640502929688e+00 6.004812227696550847e-15 -2.261812563414053456e-13 -6.605293026949732305e-14 5.304250758780305885e-14
4.667000000000000000e+03 1.991705513000488281e+01 -1.602540588378906250e+01 -1.220978477827969200e-13 6.204972381176551699e-14 -1.801443583605670529e-14 3.202566521438160452e-14
4.668000000000000000e+03 2.573456192016601562e+01 -3.382234191894531250e+01 -2.001604075898850282e-14 -2.001604075898850282e-14 -1.200962445539310169e-14 8.006416303595401129e-15
4.669000000000000000e+03 2.585414123535156250e+01 -1.722381782531738281e+01 -9.807859548387892756e-14 -4.203368474684290867e-14 -4.203368474684290867e-14 -2.201764398785440585e-14
4.670000000000000000e+03 2.458813095092773438e+01 -1.617165374755859375e+01 -9.307458910578006450e-14 -1.701363422162375377e-14 -3.302646513474866152e-14 2.401924891078620339e-14
4.671000000000000000e+03 1.817842102050781250e+01 -3.349770355224609375e+01 -2.051644071917203133e-14 -5.454371085648543338e-14 -2.251804564210382886e-14 2.602085213965210642e-14
4.672000000000000000e+03 1.871907997131347656e+01 -3.563333892822265625e+01 -4.503609128420765773e-14 -6.505213034913026604e-14 -3.302646513474866152e-14 -1.601283260719080226e-14
4.673000000000000000e+03 1.408237743377685547e+01 -1.353489398956298828e+01 1.240994476235310340e-13 1.961571909677578551e-13 9.607699564314481355e-14 1.326062604991781746e-13
4.674000000000000000e+03 1.196967315673828125e+01 -1.471487426757812500e+01 1.851483647386659159e-13 4.503609128420765773e-14 6.905533680686207210e-14 -1.501202929869195624e-14
4.675000000000000000e+03 3.923330307006835938e+01 -1.759250259399414062e+01 -7.781235643886455500e-14 -3.477786838352280030e-14 -3.377706846315574329e-14 2.389414722667442675e-14
4.676000000000000000e+03 3.608647918701171875e+01 -1.928694915771484375e+01 -1.448660934049925131e-13 -1.078364150362484675e-13 -7.581074982186686295e-14 4.003208151797700565e-15
4.677000000000000000e+03 2.284673500061035156e+01 -3.614109802246093750e+01 -4.403528797570881170e-14 4.003208151797700565e-15 -1.200962445539310169e-14 -1.401122768425900472e-14
4.678000000000000000e+03 2.059570121765136719e+01 -3.615908050537109375e+01 -5.354290754798658736e-14 -1.150922280114367868e-14 -1.951563910473907981e-14 -4.003208151797700565e-15
4.679000000000000000e+03 1.473174476623535156e+01 -3.462782287597656250e+01 -4.203368474684290867e-14 -1.801443583605670529e-14 -1.801443583605670529e-14 7.005614350349270714e-14
4.680000000000000000e+03 1.428909969329833984e+01 -3.322075271606445312e+01 -4.903929774193946378e-14 5.904731727440076794e-14 3.002406113848275424e-15 2.502005052521915490e-14
4.681000000000000000e+03 4.776070022583007812e+01 -2.712100791931152344e+01 -5.723336572466958261e-14 -5.348035585889775179e-14 -3.321411681388337922e-14 -1.598155676264638447e-14
4.682000000000000000e+03 7.461030578613281250e+01 -3.430936431884765625e+01 -2.902325867701685547e-14 -8.106496295632106830e-14 -3.302646513474866152e-14 -8.807057595141762341e-14
4.683000000000000000e+03 7.652519226074218750e+01 -3.588307189941406250e+01 3.702967498061225660e-14 -3.272622515863854442e-13 -8.706977603105056640e-14 -6.805453688649501509e-14
4.684000000000000000e+03 7.828263854980468750e+01 -2.358074378967285156e+01 1.100882199392720293e-14 -2.011612041221202962e-13 -5.704571743366665393e-14 5.804651735403371093e-14
4.685000000000000000e+03 7.427745056152343750e+01 -2.547819709777832031e+01 -4.803849782157240678e-14 4.803849782157240678e-14 0.000000000000000000e+00 4.603689120457471473e-14
4.686000000000000000e+03 7.201522064208984375e+01 -3.927580261230468750e+01 -6.054852393121493148e-14 -1.451162933850842773e-14 -2.251804564210382886e-14 -2.902325867701685547e-14
4.687000000000000000e+03 7.834517669677734375e+01 -2.226494789123535156e+01 2.702165375408505793e-14 -2.171740299530475204e-13 -5.704571743366665393e-14 6.204972381176551699e-14
4.688000000000000000e+03 7.708960723876953125e+01 -2.338550376892089844e+01 5.204170427930421283e-14 -9.207378240914942946e-14 -1.200962445539310169e-14 4.003208151797700565e-14
4.689000000000000000e+03 7.662645721435546875e+01 -3.012183570861816406e+01 -2.401924891078620339e-14 -5.604491073703601889e-14 -2.401924891078620339e-14 8.006416303595401129e-15
4.690000000000000000e+03 7.616921234130859375e+01 -1.953024482727050781e+01 1.601283260719080226e-14 -1.601283260719080226e-14 0.000000000000000000e+00 1.160930347080674219e-13
4.691000000000000000e+03 7.720497131347656250e+01 -2.214307022094726562e+01 -2.001604075898850282e-14 -2.602085213965210642e-13 -8.406736949368581735e-14 2.602085213965210642e-14
4.692000000000000000e+03 7.778432464599609375e+01 -3.456152343750000000e+01 2.351884725653678038e-14 -2.186752433861252620e-13 -5.854691731421723944e-14 -2.602085213965210642e-14
4.693000000000000000e+03 7.542826843261718750e+01 -3.662391281127929688e+01 -2.251804564210382886e-14 1.276022608973428896e-13 3.152526186606628700e-14 -6.004812227696550847e-15
4.694000000000000000e+03 7.806399536132812500e+01 -2.758411216735839844e+01 -3.202566521438160452e-14 -1.281026608575264181e-13 -4.803849782157240678e-14 3.402726844324750755e-14
4.695000000000000000e+03 7.668415832519531250e+01 -2.869865036010742188e+01 2.401924891078620339e-14 -1.040834085586084257e-13 -2.401924891078620339e-14 -7.005614350349270714e-14
4.696000000000000000e+03 7.674429321289062500e+01 -2.731757164001464844e+01 -1.601283260719080226e-14 -1.441154866884536423e-13 -4.803849782157240678e-14 -1.801443583605670529e-14
4.697000000000000000e+03 7.625060272216796875e+01 -3.449679946899414062e+01 2.702165375408505793e-14 -5.704571743366665393e-14 -9.007217918028352643e-15 4.803849782157240678e-14
4.698000000000000000e+03 7.650871276855468750e+01 -3.157145500183105469e+01 4.303448466720996568e-14 -1.531227130768114675e-13 -3.302646513474866152e-14 -1.901523745048965680e-14
4.699000000000000000e+03 7.341614532470703125e+01 -2.938572120666503906e+01 5.304250758780305885e-14 9.707779556351187056e-14 4.503609128420765773e-14 3.302646513474866152e-14
4.700000000000000000e+03 7.476234436035156250e+01 -3.891445922851562500e+01 1.701363422162375377e-14 1.301042606982605321e-14 9.007217918028352643e-15 3.502806921064751181e-15
4.701000000000000000e+03 4.281584548950195312e+01 -2.410374832153320312e+01 6.104892389139845998e-14 4.903929774193946378e-14 3.302646513474866152e-14 1.401122768425900472e-14
4.702000000000000000e+03 4.517061996459960938e+01 -2.856229591369628906e+01 9.957980214069309111e-14 6.555253030931379454e-14 4.953969770212299228e-14 -5.004010105043830980e-14
4.703000000000000000e+03 6.994454193115234375e+01 -2.397803688049316406e+01 -3.302646513474866152e-14 1.230986477031639770e-13 2.702165375408505793e-14 1.621299259126421366e-13
4.704000000000000000e+03 4.956049728393554688e+01 -3.273279190063476562e+01 -1.851483749030612830e-14 -7.656135653840573374e-14 -2.852285871683332696e-14 2.001604075898850282e-14
4.705000000000000000e+03 5.212139511108398438e+01 -3.348486709594726562e+01 -1.976583908483084406e-14 -7.280834328450211390e-14 -2.777225538842624519e-14 5.679551406544310066e-14
4.706000000000000000e+03 5.140536499023437500e+01 -2.959495925903320312e+01 -2.401924891078620339e-14 -5.604491073703601889e-14 -2.401924891078620339e-14 -1.501202929869195624e-14
4.707000000000000000e+03 4.056671524047851562e+01 -1.546834945678710938e+01 -6.605293026949732305e-14 -7.405934996122451319e-14 -4.203368474684290867e-14 -2.201764398785440585e-14
4.708000000000000000e+03 4.579058837890625000e+01 -2.532846069335937500e+01 -1.100882199392720293e-14 -3.903127820947815962e-14 -1.501202929869195624e-14 1.935926327014877990e-14
4.709000000000000000e+03 1.810073018074035645e+00 -2.865278434753417969e+01 1.000802037949425141e-15 6.905533680686207210e-14 2.101684237342145434e-14 -3.402726844324750755e-14
4.710000000000000000e+03 2.351900815963745117e+00 -3.423836517333984375e+01 -5.004010189747125706e-16 -1.145918348275168364e-13 -3.452766840343103605e-14 -8.006416303595401129e-15
4.711000000000000000e+03 3.864443063735961914e+00 -3.383688354492187500e+01 -4.503608959014176322e-15 -7.055654346367623564e-14 -2.251804564210382886e-14 -1.200962445539310169e-14
4.712000000000000000e+03 1.948353767395019531e+00 -3.000446701049804688e+01 1.401122768425900472e-14 6.004812227696550847e-15 6.004812227696550847e-15 -1.401122768425900472e-14
4.713000000000000000e+03 1.917958140373229980e+00 -1.510695648193359375e+01 5.104090097080536681e-14 -1.000802037949425141e-15 1.501202929869195624e-14 -7.405934996122451319e-14
4.714000000000000000e+03 1.633477687835693359e+00 -2.329658699035644531e+01 2.702165375408505793e-14 -5.704571743366665393e-14 -9.007217918028352643e-15 6.405133042876320904e-14
4.715000000000000000e+03 3.285672187805175781e+00 -1.384205245971679688e+01 1.200962445539310169e-14 -5.204170427930421283e-14 -1.200962445539310169e-14 -6.004811719476782494e-14
4.716000000000000000e+03 6.916381359100341797e+00 -4.332874298095703125e+00 -7.405934996122451319e-14 1.401122768425900472e-14 -1.801443583605670529e-14 -2.802245536851800944e-14
4.717000000000000000e+03 4.228838443756103516e+00 -7.924632072448730469e+00 -4.203368474684290867e-14 -1.801443583605670529e-14 -1.801443583605670529e-14 1.401122768425900472e-14
4.718000000000000000e+03 2.534374713897705078e+00 -4.382158279418945312e+00 -7.455974992140804170e-14 5.954771723458429644e-14 -4.503608959014176322e-15 8.006416303595401129e-15
4.719000000000000000e+03 3.333931446075439453e+00 -5.201452255249023438e+00 -9.007218256841531545e-14 -1.301042606982605321e-13 -6.605293026949732305e-14 -3.402726844324750755e-14
4.720000000000000000e+03 5.631179332733154297e+00 -1.586950969696044922e+01 3.402726844324750755e-14 -5.404330750817011586e-14 -6.004812227696550847e-15 3.803047490097931360e-14
4.721000000000000000e+03 1.799426078796386719e+00 -1.785777091979980469e+01 1.501202929869195624e-14 -2.451964954859608969e-13 -6.905533680686207210e-14 -2.602085213965210642e-14
4.722000000000000000e+03 2.782801866531372070e+00 -2.196435546875000000e+01 -2.502005052521915490e-14 -1.251002475438980910e-13 -4.503609128420765773e-14 4.603689120457471473e-14
4.723000000000000000e+03 4.185152530670166016e+00 -1.936646270751953125e+01 -3.903127820947815962e-14 -1.311050606186275891e-13 -5.104090097080536681e-14 6.605293026949732305e-14
4.724000000000000000e+03 1.701301455497741699e+00 -2.461254882812500000e+01 -6.905533680686207210e-14 -1.210970478624298630e-13 -5.704571743366665393e-14 3.202566521438160452e-14
4.725000000000000000e+03 3.626625061035156250e+00 -2.346405410766601562e+01 -1.301042606982605321e-14 -9.707779556351187056e-14 -3.302646513474866152e-14 3.803047490097931360e-14
4.726000000000000000e+03 2.867930889129638672e+00 -2.434105110168457031e+01 -5.004010189747125706e-15 -2.502005052521915490e-14 -9.007217918028352643e-15 4.603689120457471473e-14
4.727000000000000000e+03 1.947900056838989258e+00 -1.082139968872070312e+01 -1.901523745048965680e-14 -3.102486190588275849e-14 -1.501202929869195624e-14 -3.002405859738391247e-14
4.728000000000000000e+03 3.063201665878295898e+00 -7.913381099700927734e+00 -2.001604075898850282e-14 -1.000802021008766196e-13 -3.602887167211341057e-14 6.004811719476782494e-14
4.729000000000000000e+03 3.255589962005615234e+00 -1.527822494506835938e+01 -2.201764398785440585e-14 2.001604075898850282e-15 -6.004812227696550847e-15 1.020818019416107336e-13
4.730000000000000000e+03 4.323946475982666016e+00 -3.675685501098632812e+01 4.553649124439118623e-14 -1.406126869671689428e-13 -2.852285871683332696e-14 -4.203368474684290867e-14
4.731000000000000000e+03 2.497042655944824219e+00 -3.564364624023437500e+01 3.052446194569922999e-14 -5.554451077685249039e-14 -7.506014649345978118e-15 -3.602887167211341057e-14
4.732000000000000000e+03 5.164051532745361328e+00 -2.939884567260742188e+01 9.007217918028352643e-15 -9.907939540424598457e-14 -2.702165375408505793e-14 1.301042606982605321e-14
4.733000000000000000e+03 3.208302497863769531e+00 -1.238359546661376953e+01 -2.201764398785440585e-14 -7.806255641895631925e-14 -3.002405859738391247e-14 1.601283260719080226e-14
4.734000000000000000e+03 3.726850509643554688e+01 -1.059587860107421875e+01 -2.802245536851800944e-14 -1.200962445539310169e-14 -1.200962445539310169e-14 -6.004811719476782494e-14
4.735000000000000000e+03 7.124381256103515625e+01 -2.273007965087890625e+01 -4.103288143834406265e-14 5.104090097080536681e-14 3.002406113848275424e-15 7.005614350349270714e-14
4.736000000000000000e+03 7.114977264404296875e+01 -2.135738563537597656e+01 1.000802021008766196e-13 1.801443651368306309e-13 8.406736949368581735e-14 4.403528797570881170e-14
4.737000000000000000e+03 4.381451416015625000e+01 -2.323466110229492188e+01 9.194868750130123086e-15 -5.860946900330607501e-14 -1.482437931362313305e-14 1.857738748532906936e-14
4.738000000000000000e+03 4.478973007202148438e+01 -2.432343292236328125e+01 2.877305869692509122e-14 1.038332085785166614e-13 3.978187814975345238e-14 -1.751403587587317678e-14
4.739000000000000000e+03 5.360401916503906250e+01 -3.522090530395507812e+01 -7.506015284620688559e-16 -1.751403460532375590e-15 -7.506015284620688559e-16 1.376102749240900366e-15
4.740000000000000000e+03 3.443736648559570312e+01 -3.154243087768554688e+01 -2.627105211974387067e-14 -1.125902282105191443e-14 -1.125902282105191443e-14 2.802245536851800944e-14
4.741000000000000000e+03 3.751780319213867188e+01 -3.123602676391601562e+01 -1.876503747039789255e-14 2.627105211974387067e-14 2.251804479507088161e-15 -1.000802037949425141e-15
4.742000000000000000e+03 2.987203025817871094e+01 -3.495428466796875000e+01 -2.151724233360498284e-14 3.652927163229693908e-14 4.503608959014176322e-15 -3.202566521438160452e-14
4.743000000000000000e+03 4.696216583251953125e+00 -2.375292015075683594e+01 2.001604075898850282e-15 -2.201764398785440585e-14 -6.004812227696550847e-15 1.801443583605670529e-14
4.744000000000000000e+03 2.583503532409667969e+01 -1.607037544250488281e+01 -1.751403519824681898e-13 -7.506014988159157020e-14 -7.506014988159157020e-14 4.003208151797700565e-15
4.745000000000000000e+03 1.482477188110351562e+01 -1.445179653167724609e+01 9.929832292792512005e-14 -4.894547359643799944e-14 1.510585513825931508e-14 1.195958344293521214e-13
4.746000000000000000e+03 4.860108184814453125e+01 -2.810364532470703125e+01 -3.102486190588275849e-14 -1.901523745048965680e-14 -1.501202929869195624e-14 -9.007217918028352643e-15
4.747000000000000000e+03 4.756652832031250000e+01 -2.876705551147460938e+01 -4.003208151797700565e-14 -1.200962343895356499e-13 -4.803849782157240678e-14 -3.702967498061225660e-14
4.748000000000000000e+03 1.295625305175781250e+01 -3.540439605712890625e+01 -5.604491073703601889e-14 -1.040834085586084257e-13 -4.803849782157240678e-14 -1.150922280114367868e-14
4.749000000000000000e+03 6.787887573242187500e+01 -3.588871002197265625e+01 -5.004010105043830980e-14 1.501202997631831404e-13 3.002405859738391247e-14 4.953969770212299228e-14
4.750000000000000000e+03 1.734788703918457031e+01 -3.476222991943359375e+01 -4.178348476675114442e-14 4.928949772203122803e-14 2.251804479507088161e-15 3.327666511484042577e-14
4.751000000000000000e+03 5.222215652465820312e+00 -2.081279945373535156e+01 -6.905533680686207210e-14 -1.210970478624298630e-13 -5.704571743366665393e-14 1.060850151756061177e-13
4.752000000000000000e+03 5.452620983123779297e+00 -1.947329902648925781e+01 6.905533680686207210e-14 -3.903127820947815962e-14 9.007217918028352643e-15 6.204972381176551699e-14
4.753000000000000000e+03 5.711444377899169922e+00 -1.702603721618652344e+01 4.103288143834406265e-14 -5.104090097080536681e-14 -3.002406113848275424e-15 -6.004812227696550847e-15
4.754000000000000000e+03 6.867011260986328125e+01 -2.851443672180175781e+01 8.006416303595401129e-14 1.601283260719080226e-13 7.205774334422682115e-14 -8.506817110811876886e-15
4.755000000000000000e+03 4.982375144958496094e+00 -2.222625350952148438e+01 1.100882199392720293e-14 -4.103288143834406265e-14 -9.007217918028352643e-15 6.204972381176551699e-14
4.756000000000000000e+03 3.774491882324218750e+01 -2.640475654602050781e+01 -3.177546523428984027e-14 9.257418745153064149e-15 -6.755413438521264483e-15 3.202566521438160452e-14
4.757000000000000000e+03 3.874783706665039062e+01 -2.371215438842773438e+01 -5.004010105043830980e-14 7.005614350349270714e-14 6.004812227696550847e-15 6.004812227696550847e-15
4.758000000000000000e+03 6.616179656982421875e+01 -3.514149856567382812e+01 -7.205774334422682115e-14 3.202566521438160452e-14 -1.200962445539310169e-14 2.502005052521915490e-14
4.759000000000000000e+03 3.219729995727539062e+01 -3.167184257507324219e+01 -6.658460946235705835e-14 1.810826167562406414e-14 -1.454290348898695101e-14 4.797594613248357120e-14
4.760000000000000000e+03 3.366605758666992188e+01 -3.312404251098632812e+01 -2.376904681311207100e-15 -2.389414722667442675e-14 -7.881315466516571749e-15 -2.752205540833448094e-14
4.761000000000000000e+03 7.552301025390625000e+01 -2.568434143066406250e+01 -4.503608959014176322e-15 -2.306848559830571022e-13 -7.055654346367623564e-14 2.001604075898850282e-15
4.762000000000000000e+03 7.006533813476562500e+01 -3.009681892395019531e+01 -7.405934996122451319e-14 5.404330750817011586e-14 -6.004812227696550847e-15 1.055846084391590112e-13
4.763000000000000000e+03 4.191305923461914062e+01 -1.894089508056640625e+01 -2.502005052521915490e-14 -5.004010189747125706e-15 -9.007217918028352643e-15 5.679551406544310066e-14
4.764000000000000000e+03 4.086653518676757812e+01 -1.970371437072753906e+01 -5.854691731421723944e-14 4.353488801552528320e-14 -4.503608959014176322e-15 1.200962445539310169e-14
4.765000000000000000e+03 6.136050415039062500e+01 -3.847290039062500000e+01 -5.304250758780305885e-14 2.301844560228735737e-14 -9.007217918028352643e-15 5.204170427930421283e-14
4.766000000000000000e+03 3.673330307006835938e+01 -1.850386619567871094e+01 -5.254210423948774134e-14 1.376102736535406157e-13 2.552045048540268340e-14 -3.402726844324750755e-14
4.767000000000000000e+03 3.533913803100585938e+01 -1.729370117187500000e+01 -9.907939540424598457e-14 4.903929774193946378e-14 -1.501202929869195624e-14 -1.401122768425900472e-14
4.768000000000000000e+03 3.243560409545898438e+01 -1.667620277404785156e+01 -9.907939540424598457e-14 2.091676170375839083e-13 3.302646513474866152e-14 -4.403528797570881170e-14
4.769000000000000000e+03 6.503215789794921875e+01 -3.671190261840820312e+01 -2.921090696801978415e-14 5.610746242612485446e-14 8.068966298618342192e-15 5.254210423948774134e-14
4.770000000000000000e+03 6.399052429199218750e+01 -3.314902877807617188e+01 7.706175649858926224e-14 1.531227130768114675e-13 6.905533680686207210e-14 8.606896933441993136e-14
4.771000000000000000e+03 5.571209335327148438e+01 -3.689719009399414062e+01 -4.703769451307356075e-14 -4.303448466720996568e-14 -2.702165375408505793e-14 4.003208151797700565e-15
4.772000000000000000e+03 5.877890777587890625e+01 -3.533250427246093750e+01 1.100882199392720293e-14 -4.103288143834406265e-14 -9.007217918028352643e-15 7.105694342385976414e-14
4.773000000000000000e+03 6.985640716552734375e+01 -2.881874656677246094e+01 8.306656957331876034e-14 2.071660171968497943e-13 8.706977603105056640e-14 1.321058605389946461e-13
4.774000000000000000e+03 8.119361877441406250e+00 -1.422454547882080078e+01 6.405133042876320904e-14 9.607699564314481355e-14 4.803849782157240678e-14 2.802245536851800944e-14
4.775000000000000000e+03 3.103278541564941406e+01 -1.565845394134521484e+01 -1.170938346284344789e-13 8.706977603105056640e-14 -9.007217918028352643e-15 -1.040834085586084257e-13
4.776000000000000000e+03 3.864873504638671875e+01 -1.986202621459960938e+01 -6.755413438521264483e-15 1.343576671360841024e-13 3.828067826920286687e-14 2.001604075898850282e-15
4.777000000000000000e+03 3.726593399047851562e+01 -2.803561401367187500e+01 -6.505213034913026604e-15 1.115894215138885093e-13 3.152526186606628700e-14 1.100882199392720293e-14
4.778000000000000000e+03 4.127546691894531250e+01 -2.691188049316406250e+01 6.004812227696550847e-15 -6.605293026949732305e-14 -1.801443583605670529e-14 5.304250758780305885e-14
4.779000000000000000e+03 1.142191123962402344e+01 -1.363838672637939453e+01 1.491194998428160834e-13 -3.903127820947815962e-14 3.302646513474866152e-14 -7.205774334422682115e-14
4.780000000000000000e+03 4.498644828796386719e+00 -1.565211009979248047e+01 4.703769451307356075e-14 4.303448466720996568e-14 2.702165375408505793e-14 -7.405934996122451319e-14
4.781000000000000000e+03 7.552343845367431641e+00 -3.159919548034667969e+01 -2.451964887096973189e-14 -1.050842118671072717e-14 -1.050842118671072717e-14 4.203368474684290867e-14
4.782000000000000000e+03 9.199129104614257812e+00 -3.331478500366210938e+01 3.002406113848275424e-15 -1.130906281707026728e-13 -3.302646513474866152e-14 -2.977385861729214822e-14
4.783000000000000000e+03 5.192440509796142578e+00 -2.817402648925781250e+01 7.205774334422682115e-14 8.006416303595401129e-15 2.401924891078620339e-14 6.805453688649501509e-14
4.784000000000000000e+03 9.963423728942871094e+00 -4.096296787261962891e+00 -4.403528797570881170e-14 -1.561251128379126385e-13 -6.004811719476782494e-14 -2.401924891078620339e-14
4.785000000000000000e+03 1.065997219085693359e+01 -4.094839572906494141e+00 -8.006416303595401129e-14 2.401924687790712998e-13 4.803849782157240678e-14 -3.602887167211341057e-14
4.786000000000000000e+03 7.564443206787109375e+01 -1.681194114685058594e+01 7.005614350349270714e-14 3.002405859738391247e-14 3.002405859738391247e-14 1.321058605389946461e-13
4.787000000000000000e+03 7.498377227783203125e+01 -1.685203361511230469e+01 1.200962445539310169e-14 -1.321058605389946461e-13 -3.602887167211341057e-14 5.604491073703601889e-14
4.788000000000000000e+03 7.368134307861328125e+01 -1.847785758972167969e+01 2.401924891078620339e-14 5.604491073703601889e-14 2.401924891078620339e-14 3.202566521438160452e-14
4.789000000000000000e+03 7.294190979003906250e+01 -1.664636039733886719e+01 -1.000802037949425141e-14 2.702165477052459464e-13 7.806255641895631925e-14 -2.401924891078620339e-14
4.790000000000000000e+03 7.725016784667968750e+01 -2.087709045410156250e+01 2.602085213965210642e-14 3.402726844324750755e-14 1.801443583605670529e-14 3.803047490097931360e-14
4.791000000000000000e+03 7.428136444091796875e+01 -1.689135360717773438e+01 -5.404330750817011586e-14 1.140914348673333079e-13 1.801443583605670529e-14 -4.003208151797700565e-15
4.792000000000000000e+03 7.116458892822265625e+01 -1.801111602783203125e+01 -8.306656957331876034e-14 3.302646513474866152e-14 -1.501202929869195624e-14 1.200962445539310169e-14
4.793000000000000000e+03 1.134196949005126953e+01 -4.149931907653808594e+00 -8.006416303595401129e-14 -8.006416303595401129e-14 -4.803849782157240678e-14 -8.006416303595401129e-14
4.794000000000000000e+03 9.243812561035156250e+00 -4.150349617004394531e+00 -9.907939540424598457e-14 4.903929774193946378e-14 -1.501202929869195624e-14 -1.080866150163402317e-13
4.795000000000000000e+03 7.555594635009765625e+01 -1.822020149230957031e+01 -8.006416303595401129e-15 -7.205774334422682115e-14 -2.401924891078620339e-14 1.601283260719080226e-13
4.796000000000000000e+03 7.106922149658203125e+01 -2.011524963378906250e+01 -3.102486190588275849e-14 2.612093213168881212e-13 6.905533680686207210e-14 3.002405859738391247e-14
4.797000000000000000e+03 7.106220245361328125e+01 -1.899827957153320312e+01 1.521218996039172544e-13 8.807057595141762341e-14 7.205774334422682115e-14 3.402726844324750755e-14
4.798000000000000000e+03 7.207814788818359375e+01 -1.920039558410644531e+01 -1.901523745048965680e-14 1.291034607778934751e-13 3.302646513474866152e-14 1.000802037949425141e-14
4.799000000000000000e+03 7.642498779296875000e+01 -1.836089134216308594e+01 -3.803047490097931360e-14 -2.221780431074099615e-13 -7.806255641895631925e-14 -3.602887167211341057e-14
4.800000000000000000e+03 3.457995605468750000e+01 -1.095356273651123047e+01 -1.801443583605670529e-14 3.803047490097931360e-14 6.004812227696550847e-15 -7.405934996122451319e-14
4.801000000000000000e+03 3.405615234375000000e+01 -9.949069023132324219e+00 2.401924891078620339e-14 5.604491073703601889e-14 2.401924891078620339e-14 -4.403528797570881170e-14
4.802000000000000000e+03 1.360205078125000000e+01 -3.786514997482299805e+00 -1.441154866884536423e-13 -1.601283260719080226e-14 -4.803849782157240678e-14 -5.804651735403371093e-14
4.803000000000000000e+03 3.566902923583984375e+01 -1.028615093231201172e+01 6.805453688649501509e-14 5.204170427930421283e-14 3.602887167211341057e-14 6.004812227696550847e-15
4.804000000000000000e+03 3.789145278930664062e+01 -1.157135009765625000e+01 -6.605293026949732305e-14 8.606896933441993136e-14 6.004812227696550847e-15 3.402726844324750755e-14
4.805000000000000000e+03 2.324420356750488281e+01 -5.997050285339355469e+00 2.201764398785440585e-14 -8.206576287668812530e-14 -1.801443583605670529e-14 8.006416303595401129e-15
4.806000000000000000e+03 2.053607940673828125e+01 -4.152913570404052734e+00 6.204972381176551699e-14 1.180946345488015359e-13 5.404330750817011586e-14 -2.401924891078620339e-14
4.807000000000000000e+03 3.891244125366210938e+01 -1.080807590484619141e+01 -1.000802021008766196e-13 1.401122870069854143e-13 1.200962445539310169e-14 -6.204972381176551699e-14
4.808000000000000000e+03 2.116153907775878906e+01 -4.207251071929931641e+00 -2.001604075898850282e-15 2.201764398785440585e-14 6.004812227696550847e-15 5.004010105043830980e-14
4.809000000000000000e+03 1.346384143829345703e+01 -4.491487503051757812e+00 -1.200962445539310169e-14 1.321058605389946461e-13 3.602887167211341057e-14 6.204972381176551699e-14
4.810000000000000000e+03 3.095826339721679688e+01 -9.059947967529296875e+00 0.000000000000000000e+00 0.000000000000000000e+00 0.000000000000000000e+00 -3.202566521438160452e-14
4.811000000000000000e+03 3.020634841918945312e+01 -8.794333457946777344e+00 1.220978477827969200e-13 -6.204972381176551699e-14 1.801443583605670529e-14 -7.405934996122451319e-14
4.812000000000000000e+03 1.202510356903076172e+01 -4.245191574096679688e+00 -1.541235129971785245e-13 9.407538902614712151e-14 -1.801443583605670529e-14 -9.807859548387892756e-14
4.813000000000000000e+03 1.272850513458251953e+01 -4.362944602966308594e+00 -6.204972381176551699e-14 4.203368474684290867e-14 -6.004812227696550847e-15 -1.801443583605670529e-14
4.814000000000000000e+03 1.675914001464843750e+01 -4.096028804779052734e+00 -1.160930347080674219e-13 1.561251128379126385e-13 1.200962445539310169e-14 1.381106736137241442e-13
4.815000000000000000e+03 1.665966224670410156e+01 -4.812712669372558594e+00 -1.361090737729900302e-13 -1.040834085586084257e-13 -7.205774334422682115e-14 9.607699564314481355e-14
4.816000000000000000e+03 3.560507965087890625e+01 -1.178923988342285156e+01 -8.006416303595401129e-14 -8.006416303595401129e-14 -4.803849782157240678e-14 -1.110890215537049808e-13
4.817000000000000000e+03 2.694274139404296875e+01 -1.360668277740478516e+01 -5.704571743366665393e-14 2.271820562617724026e-13 5.104090097080536681e-14 -1.801443583605670529e-14
4.818000000000000000e+03 3.295022583007812500e+01 -1.047574234008789062e+01 6.004812227696550847e-15 9.407538902614712151e-14 3.002405859738391247e-14 -8.006416303595401129e-14
4.819000000000000000e+03 5.299031734466552734e+00 -3.591870546340942383e+00 -1.501202929869195624e-14 8.506816941405287436e-14 2.101684237342145434e-14 6.004812227696550847e-15
4.820000000000000000e+03 6.984688758850097656e+00 -5.163442134857177734e+00 -9.407538902614712151e-14 7.405934996122451319e-14 -6.004812227696550847e-15 4.003208151797700565e-15
4.821000000000000000e+03 4.532291412353515625e+00 -3.611603975296020508e+00 -5.604491073703601889e-14 1.361090737729900302e-13 2.401924891078620339e-14 2.001604075898850282e-15
4.822000000000000000e+03 5.301709651947021484e+00 -4.475049018859863281e+00 -1.090874217129708668e-13 -1.000802037949425141e-15 -3.302646513474866152e-14 -9.007218256841531545e-14
4.823000000000000000e+03 3.059049606323242188e+00 -6.443207740783691406e+00 -2.502005052521915490e-14 3.502807175174635357e-14 3.002406113848275424e-15 6.004812227696550847e-15
4.824000000000000000e+03 6.111492633819580078e+00 -4.402996063232421875e+00 -5.104090097080536681e-14 1.000802037949425141e-15 -1.501202929869195624e-14 3.803047490097931360e-14
4.825000000000000000e+03 2.529111862182617188e+01 -7.254425525665283203e+00 2.029126107590262240e-13 -5.029030103053007406e-14 4.578669122448295048e-14 9.007218256841531545e-14
4.826000000000000000e+03 2.458762359619140625e+01 -6.823287010192871094e+00 1.110890215537049808e-13 1.391114735340912012e-13 7.506014988159157020e-14 4.003208151797700565e-15
4.827000000000000000e+03 2.294494819641113281e+01 -4.973402500152587891e+00 -1.401122768425900472e-14 1.541235129971785245e-13 4.203368474684290867e-14 -1.611291259922750796e-13
4.828000000000000000e+03 2.390688514709472656e+01 -6.400456905364990234e+00 1.946559910872072696e-13 -9.957980214069309111e-14 2.852285871683332696e-14 8.006416303595401129e-15
4.829000000000000000e+03 2.260847091674804688e+01 -5.623569488525390625e+00 9.007218256841531545e-14 1.301042606982605321e-13 6.605293026949732305e-14 -5.004010189747125706e-15
4.830000000000000000e+03 2.103346443176269531e+01 -4.845021247863769531e+00 -1.601283260719080226e-14 1.761411519028352468e-13 4.803849782157240678e-14 3.602887167211341057e-14
4.831000000000000000e+03 1.502641391754150391e+01 -4.694632530212402344e+00 6.004812227696550847e-15 9.407538902614712151e-14 3.002405859738391247e-14 9.207378240914942946e-14
4.832000000000000000e+03 3.218661117553710938e+01 -1.023931694030761719e+01 2.001604075898850282e-15 -2.201764398785440585e-14 -6.004812227696550847e-15 -1.080866150163402317e-13
4.833000000000000000e+03 1.584455204010009766e+01 -4.749705314636230469e+00 -1.481186999224490264e-13 2.802245536851800944e-14 -3.602887167211341057e-14 1.861491782115601290e-13
4.834000000000000000e+03 1.904031372070312500e+01 -4.919510364532470703e+00 -6.405133042876320904e-14 -9.607699564314481355e-14 -4.803849782157240678e-14 7.205774334422682115e-14
4.835000000000000000e+03 1.977727127075195312e+01 -4.904294013977050781e+00 -6.004812227696550847e-15 6.605293026949732305e-14 1.801443583605670529e-14 -1.601283260719080226e-14
4.836000000000000000e+03 2.987469291687011719e+01 -9.485750198364257812e+00 5.404330750817011586e-14 4.603689120457471473e-14 3.002405859738391247e-14 0.000000000000000000e+00
4.837000000000000000e+03 4.053275680541992188e+01 -9.940694808959960938e+00 -8.006416303595401129e-14 -8.006416303595401129e-14 -4.803849782157240678e-14 -7.606094980195862720e-14
4.838000000000000000e+03 1.826543617248535156e+01 -4.910671234130859375e+00 -1.180946345488015359e-13 -1.421138868477195283e-13 -7.806255641895631925e-14 1.321058605389946461e-13
4.839000000000000000e+03 2.948772430419921875e+01 -1.018501091003417969e+01 1.063352151556978820e-13 9.132318246887413671e-14 5.929751725449253219e-14 -8.406736949368581735e-14
4.840000000000000000e+03 2.677021598815917969e+01 -8.140347480773925781e+00 -4.003208151797700565e-15 2.842277736954390566e-13 8.406736949368581735e-14 -6.805453688649501509e-14
4.841000000000000000e+03 2.389857482910156250e+01 -8.076615333557128906e+00 -1.312301639968052602e-13 -1.477433897879160130e-13 -8.369206613541638196e-14 5.004010105043830980e-14
4.842000000000000000e+03 3.837035369873046875e+01 -1.682384300231933594e+01 -2.502005094873562853e-15 8.757017599123409490e-14 2.552045048540268340e-14 -2.864795870687920909e-14
4.843000000000000000e+03 2.911941051483154297e+00 -2.835174751281738281e+01 4.603689120457471473e-14 5.404330750817011586e-14 3.002405859738391247e-14 1.401122768425900472e-14
4.844000000000000000e+03 1.798619651794433594e+01 -1.474223232269287109e+01 -3.402726844324750755e-14 -1.060850151756061177e-13 -4.203368474684290867e-14 1.601283260719080226e-13
4.845000000000000000e+03 1.706508255004882812e+01 -1.289319801330566406e+01 -2.802245536851800944e-14 -1.200962445539310169e-14 -1.200962445539310169e-14 2.031628039628544102e-13
4.846000000000000000e+03 2.014110565185546875e+01 -1.209844875335693359e+01 6.305052373213257400e-14 1.871499781319271860e-13 7.506014988159157020e-14 2.061652172764827373e-13
4.847000000000000000e+03 2.218601036071777344e+01 -1.623027420043945312e+01 -1.491194998428160834e-13 -4.103288143834406265e-14 -5.704571743366665393e-14 7.806255641895631925e-14
4.848000000000000000e+03 1.686201667785644531e+01 -1.185768508911132812e+01 5.904731727440076794e-14 7.105694342385976414e-14 3.903127820947815962e-14 3.362694779747432694e-13
4.849000000000000000e+03 1.760536384582519531e+01 -1.384400177001953125e+01 1.090874217129708668e-13 1.000802037949425141e-15 3.302646513474866152e-14 1.000802021008766196e-13
4.850000000000000000e+03 1.845587921142578125e+01 -4.103876113891601562e+01 -4.278428468711820143e-14 5.029030103053007406e-14 2.251804479507088161e-15 -7.506014649345978118e-15
4.851000000000000000e+03 2.620680427551269531e+01 -3.725910949707031250e+01 -1.122774782354044390e-14 4.093905729284259831e-14 8.913392925493941049e-15 -6.229992379185728124e-14
4.852000000000000000e+03 3.688469696044921875e+01 -1.228254604339599609e+01 -2.221780431074099615e-13 -1.180946345488015359e-13 -1.020818019416107336e-13 -5.604491073703601889e-14
4.853000000000000000e+03 3.874210739135742188e+01 -1.173497009277343750e+01 -6.605293026949732305e-14 -7.405934996122451319e-14 -4.203368474684290867e-14 1.801443583605670529e-14
4.854000000000000000e+03 3.227307891845703125e+01 -1.555199623107910156e+01 -1.471179000020819694e-13 9.707779556351187056e-14 -1.501202929869195624e-14 1.401122768425900472e-14
4.855000000000000000e+03 4.679950714111328125e+01 -2.623728561401367188e+01 -1.088372200388132080e-14 -2.539535049535680128e-14 -1.088372200388132080e-14 -4.459823962498117578e-14
4.856000000000000000e+03 4.689988708496093750e+01 -2.795281410217285156e+01 5.304250758780305885e-14 9.707779556351187056e-14 4.503609128420765773e-14 -4.678749453298179650e-14
4.857000000000000000e+03 7.558136749267578125e+01 -2.429668807983398438e+01 -4.703769451307356075e-14 -4.303448466720996568e-14 -2.702165375408505793e-14 7.806255641895631925e-14
4.858000000000000000e+03 7.538761901855468750e+01 -2.992406463623046875e+01 1.060850151756061177e-13 -4.603689120457471473e-14 1.801443583605670529e-14 -4.203368474684290867e-14
4.859000000000000000e+03 7.683263397216796875e+01 -2.595958518981933594e+01 4.403528797570881170e-14 -4.003208151797700565e-15 1.200962445539310169e-14 2.401924891078620339e-14
4.860000000000000000e+03 7.693756866455078125e+01 -2.463946533203125000e+01 -6.004812227696550847e-15 -2.542037218743187221e-13 -7.806255641895631925e-14 -1.200962445539310169e-14
4.861000000000000000e+03 7.587311553955078125e+01 -2.309306907653808594e+01 8.506817110811876886e-15 -1.336070739720723877e-13 -3.753007494079578510e-14 -2.201764398785440585e-14
4.862000000000000000e+03 7.534963226318359375e+01 -2.849603462219238281e+01 -1.070858150959731747e-13 -1.030826086382413687e-13 -6.305052373213257400e-14 3.803047490097931360e-14
4.863000000000000000e+03 7.416887664794921875e+01 -3.579887390136718750e+01 4.003208151797700565e-14 -4.003208151797700565e-14 0.000000000000000000e+00 -2.502005052521915490e-14
4.864000000000000000e+03 7.491239929199218750e+01 -3.277475357055664062e+01 2.001604075898850282e-14 -6.004811719476782494e-14 -1.200962445539310169e-14 -3.803047490097931360e-14
4.865000000000000000e+03 7.635827636718750000e+01 -3.302357864379882812e+01 -2.001604075898850282e-15 -5.804651735403371093e-14 -1.801443583605670529e-14 -6.004812227696550847e-15
4.866000000000000000e+03 7.520354461669921875e+01 -3.133236503601074219e+01 -4.303448466720996568e-14 -8.706977603105056640e-14 -3.903127820947815962e-14 -6.004812227696550847e-15
4.867000000000000000e+03 7.609023284912109375e+01 -2.203062248229980469e+01 -2.802245536851800944e-14 -1.200962445539310169e-14 -1.200962445539310169e-14 2.201764398785440585e-14
4.868000000000000000e+03 7.733062744140625000e+01 -1.961103630065917969e+01 8.006416303595401129e-15 -2.481988952470620680e-13 -7.205774334422682115e-14 0.000000000000000000e+00
4.869000000000000000e+03 7.508331298828125000e+01 -1.765109252929687500e+01 -1.050842084789754827e-13 -4.503609128420765773e-14 -4.503609128420765773e-14 7.606094980195862720e-14
4.870000000000000000e+03 4.282744216918945312e+01 -2.211009788513183594e+01 -4.753809447325708926e-14 -1.751403587587317678e-14 -1.951563910473907981e-14 2.426944889087796764e-14
4.871000000000000000e+03 7.127770233154296875e+01 -2.428143501281738281e+01 6.204972381176551699e-14 3.803047490097931360e-14 3.002405859738391247e-14 -1.301042606982605321e-14
4.872000000000000000e+03 4.934252548217773438e+01 -2.922469520568847656e+01 9.007217918028352643e-15 -5.904731727440076794e-14 -1.501202929869195624e-14 -7.606094980195862720e-14
4.873000000000000000e+03 5.054399490356445312e+01 -3.455755615234375000e+01 -2.727185542824271669e-14 -8.031436301604577555e-14 -3.227586519447336877e-14 -2.602085213965210642e-14
4.874000000000000000e+03 4.479089355468750000e+01 -2.641137313842773438e+01 2.170489401273970054e-14 -1.357337687206547003e-14 2.439454888092384977e-15 -3.753007494079578510e-14
4.875000000000000000e+03 2.877155542373657227e+00 -2.062545204162597656e+01 5.104090097080536681e-14 -1.000802037949425141e-15 1.501202929869195624e-14 5.004010105043830980e-14
4.876000000000000000e+03 4.054715156555175781e+00 -2.070217132568359375e+01 1.301042606982605321e-14 -6.305052373213257400e-14 -1.501202929869195624e-14 4.803849782157240678e-14
4.877000000000000000e+03 4.370680809020996094e+00 -1.685596656799316406e+01 3.102486190588275849e-14 -1.010810020212436766e-13 -2.101684237342145434e-14 4.603689120457471473e-14
4.878000000000000000e+03 2.954515218734741211e+00 -1.928351593017578125e+01 5.004010189747125706e-15 -1.351082738526229732e-13 -3.903127820947815962e-14 -2.001604075898850282e-15
4.879000000000000000e+03 3.149501562118530273e+00 -2.569304084777832031e+01 -4.003208151797700565e-15 -3.602887167211341057e-14 -1.200962445539310169e-14 -2.702165375408505793e-14
4.880000000000000000e+03 4.403141975402832031e+00 -9.213258743286132812e+00 -5.404330750817011586e-14 -4.603689120457471473e-14 -3.002405859738391247e-14 1.240994476235310340e-13
4.881000000000000000e+03 3.213683366775512695e+00 -9.404417991638183594e+00 -6.505213034913026604e-14 -8.506816941405287436e-14 -4.503609128420765773e-14 -3.102486190588275849e-14
4.882000000000000000e+03 5.141179561614990234e+00 -1.487157440185546875e+01 -1.200962445539310169e-14 1.200962445539310169e-14 0.000000000000000000e+00 1.551243095294137925e-14
4.883000000000000000e+03 4.387495517730712891e+00 -1.249471187591552734e+01 -4.003208151797700565e-15 4.403528797570881170e-14 1.200962445539310169e-14 -1.000802037949425141e-14
4.884000000000000000e+03 4.552364826202392578e+00 -1.377529907226562500e+01 -4.703769451307356075e-14 -4.303448466720996568e-14 -2.702165375408505793e-14 2.802245536851800944e-14
4.885000000000000000e+03 5.646321773529052734e+00 -1.174505043029785156e+01 5.204170427930421283e-14 1.481186999224490264e-13 6.004811719476782494e-14 6.104892389139845998e-14
4.886000000000000000e+03 3.253772974014282227e+00 -2.955998420715332031e+01 -2.251804564210382886e-14 -3.252606517456513302e-14 -1.651323256737433076e-14 -3.202566521438160452e-14
4.887000000000000000e+03 3.484124183654785156e+00 -3.094994354248046875e+01 5.154130431912068433e-14 -4.653729455289003225e-14 1.501203056924137712e-15 -2.001604075898850282e-14
4.888000000000000000e+03 4.839333057403564453e+00 -3.203307342529296875e+01 6.204972381176551699e-14 -4.203368474684290867e-14 6.004812227696550847e-15 -9.007217918028352643e-15
4.889000000000000000e+03 5.829823493957519531e+00 -3.131925964355468750e+01 -2.461347471053709074e-14 5.807778981044633970e-14 1.003929537700572194e-14 -2.001604075898850282e-15
4.890000000000000000e+03 3.604465484619140625e+00 -3.241375732421875000e+01 3.502807175174635357e-14 -6.505213034913026604e-14 -9.007217918028352643e-15 -3.903127820947815962e-14
4.891000000000000000e+03 7.216975402832031250e+01 -2.023961639404296875e+01 8.006416303595401129e-15 -8.807057595141762341e-14 -2.401924891078620339e-14 3.002405859738391247e-14
4.892000000000000000e+03 4.374557495117187500e+01 -2.531262397766113281e+01 -5.041540102057595618e-14 2.414434890083208551e-14 -7.881315466516571749e-15 6.004812227696550847e-15
4.893000000000000000e+03 4.174114227294921875e+00 -3.822311019897460938e+01 -6.405133042876320904e-14 -9.607699564314481355e-14 -4.803849782157240678e-14 0.000000000000000000e+00
4.894000000000000000e+03 6.221962928771972656e+00 -3.658787155151367188e+01 -2.051644071917203133e-14 -5.454371085648543338e-14 -2.251804564210382886e-14 3.002406113848275424e-15
4.895000000000000000e+03 7.324755859375000000e+01 -2.018946456909179688e+01 6.004812227696550847e-15 -6.605293026949732305e-14 -1.801443583605670529e-14 6.204972381176551699e-14
4.896000000000000000e+03 4.804284667968750000e+01 -2.990493774414062500e+01 -3.702967498061225660e-14 7.005613842129502361e-15 -9.007217918028352643e-15 -1.000802037949425141e-14
4.897000000000000000e+03 2.338879776000976562e+01 -1.508730983734130859e+01 -1.291034607778934751e-13 -1.010810020212436766e-13 -6.905533680686207210e-14 1.200962445539310169e-14
4.898000000000000000e+03 4.006145477294921875e+01 -2.404224395751953125e+01 -1.801443583605670529e-14 3.803047490097931360e-14 6.004812227696550847e-15 -2.201764398785440585e-14
4.899000000000000000e+03 4.872075271606445312e+01 -3.121565055847167969e+01 4.503609128420765773e-14 -5.504411081666896188e-14 -3.002406113848275424e-15 -4.853889778175593528e-14
4.900000000000000000e+03 1.333979701995849609e+01 -1.262182521820068359e+01 7.756215645877279075e-14 7.506014649345978118e-15 2.552045048540268340e-14 7.180754336413505690e-14
4.901000000000000000e+03 7.682490539550781250e+01 -1.699167823791503906e+01 2.602085213965210642e-14 -1.261010474642651480e-13 -3.002405859738391247e-14 3.903127820947815962e-14
4.902000000000000000e+03 1.176989650726318359e+01 -1.220828056335449219e+01 8.807057595141762341e-14 -8.006416303595401129e-15 2.401924891078620339e-14 -5.654531408535133641e-14
4.903000000000000000e+03 3.950870513916015625e+01 -1.524091434478759766e+01 -2.201764398785440585e-14 8.206576287668812530e-14 1.801443583605670529e-14 -1.601283260719080226e-14
4.904000000000000000e+03 1.590340709686279297e+01 -1.354185390472412109e+01 1.251628060092505046e-13 2.595204595928074509e-13 1.154049864568809647e-13 1.170938346284344789e-13
4.905000000000000000e+03 3.908045196533203125e+01 -2.245275688171386719e+01 -1.301042606982605321e-14 -1.701363422162375377e-14 -9.007217918028352643e-15 -4.003208151797700565e-15
4.906000000000000000e+03 3.830636596679687500e+01 -2.502502441406250000e+01 8.506816941405287436e-14 1.050842084789754827e-13 5.704571743366665393e-14 -3.302646513474866152e-14
4.907000000000000000e+03 8.687452316284179688e+00 -3.145916366577148438e+01 1.000802037949425141e-15 -9.107298248878237246e-14 -2.702165375408505793e-14 -1.000802021008766196e-13
4.908000000000000000e+03 2.972880744934082031e+01 -1.574624633789062500e+01 -1.291034607778934751e-13 -1.010810020212436766e-13 -6.905533680686207210e-14 1.200962445539310169e-14
4.909000000000000000e+03 6.619783782958984375e+01 -3.359578704833984375e+01 7.005614350349270714e-14 2.301844695754007297e-13 9.007218256841531545e-14 5.004010105043830980e-14
4.910000000000000000e+03 4.086360168457031250e+01 -2.193052291870117188e+01 -7.130714679208331741e-15 -7.168244676222096379e-14 -2.364394724658266250e-14 -1.200962445539310169e-14
4.911000000000000000e+03 4.176506805419921875e+01 -2.096243858337402344e+01 -6.229992379185728124e-14 -2.527025050531091915e-14 -2.627105211974387067e-14 5.466881084653131551e-14
4.912000000000000000e+03 3.876383209228515625e+01 -2.860787391662597656e+01 -1.301042606982605321e-14 -1.701363422162375377e-14 -9.007217918028352643e-15 -4.403528797570881170e-14
4.913000000000000000e+03 3.642609405517578125e+01 -2.948406982421875000e+01 -6.129912217742432973e-15 -2.627105296677681792e-15 -2.627105296677681792e-15 5.004010189747125706e-15
4.914000000000000000e+03 6.896823883056640625e+01 -3.396446990966796875e+01 8.006416303595401129e-15 7.205774334422682115e-14 2.401924891078620339e-14 -3.803047490097931360e-14
4.915000000000000000e+03 3.587777709960937500e+01 -3.184290885925292969e+01 -8.006416303595401129e-15 -7.205774334422682115e-14 -2.401924891078620339e-14 -3.602887167211341057e-14
4.916000000000000000e+03 7.096923828125000000e+01 -2.586945533752441406e+01 1.801443583605670529e-14 4.203368474684290867e-14 1.801443583605670529e-14 1.220978477827969200e-13
4.917000000000000000e+03 7.183062744140625000e+01 -2.982412910461425781e+01 2.502005052521915490e-14 4.503609128420765773e-14 2.101684237342145434e-14 7.105694342385976414e-14
4.918000000000000000e+03 7.254561614990234375e+01 -2.278088188171386719e+01 6.104892389139845998e-14 4.903929774193946378e-14 3.302646513474866152e-14 3.402726844324750755e-14
4.919000000000000000e+03 3.956449508666992188e+01 -2.128518486022949219e+01 -4.903929774193946378e-14 -2.101684237342145434e-14 -2.101684237342145434e-14 2.001604075898850282e-15
4.920000000000000000e+03 2.885640525817871094e+01 -3.876232910156250000e+01 -9.757819552369539906e-15 7.255814669254213867e-15 -7.506015284620688559e-16 2.101684237342145434e-14
4.921000000000000000e+03 3.202067184448242188e+01 -3.442163085937500000e+01 4.003208151797700565e-15 -4.403528797570881170e-14 -1.200962445539310169e-14 1.601283260719080226e-14
4.922000000000000000e+03 2.677444696426391602e+00 -2.322694396972656250e+01 -2.401924891078620339e-14 -5.604491073703601889e-14 -2.401924891078620339e-14 2.001604075898850282e-14
4.923000000000000000e+03 4.001517486572265625e+01 -2.713304710388183594e+01 -1.200962445539310169e-14 -2.802245536851800944e-14 -1.200962445539310169e-14 1.901523745048965680e-14
4.924000000000000000e+03 7.220525360107421875e+01 -3.178038978576660156e+01 7.005613842129502361e-15 4.303448466720996568e-14 1.501202929869195624e-14 -9.007217918028352643e-15
4.925000000000000000e+03 3.839458084106445312e+01 -1.837976646423339844e+01 2.067281655376233124e-14 1.003616745373810126e-13 3.631034749674959261e-14 -1.626303258728256651e-14
4.926000000000000000e+03 4.010729598999023438e+01 -1.850329399108886719e+01 -4.378508799561704745e-14 1.113392215337967450e-13 2.026624073908026707e-14 5.266720422953362346e-14
4.927000000000000000e+03 7.466393947601318359e+00 -1.284059619903564453e+01 2.802245536851800944e-14 1.721379386688398627e-13 6.004811719476782494e-14 -3.002406113848275424e-15
4.928000000000000000e+03 9.303254127502441406e+00 -1.423355007171630859e+01 1.881507780522942430e-13 1.200962445539310169e-14 6.004811719476782494e-14 -2.401924891078620339e-14
4.929000000000000000e+03 7.297587585449218750e+01 -3.383761596679687500e+01 -4.003208151797700565e-15 -3.602887167211341057e-14 -1.200962445539310169e-14 0.000000000000000000e+00
4.930000000000000000e+03 4.259688186645507812e+01 -2.632089042663574219e+01 9.282438912568830025e-14 3.978187814975345238e-14 3.978187814975345238e-14 -6.004812227696550847e-15
4.931000000000000000e+03 9.981858253479003906e+00 -4.732758045196533203e+00 -8.206576287668812530e-14 1.020818019416107336e-13 6.004812227696550847e-15 7.205774334422682115e-14
4.932000000000000000e+03 1.061819744110107422e+01 -4.715423107147216797e+00 -3.202566521438160452e-14 3.202566521438160452e-14 0.000000000000000000e+00 -1.281026608575264181e-13
4.933000000000000000e+03 7.434055328369140625e+01 -1.859114074707031250e+01 5.404330750817011586e-14 -1.140914348673333079e-13 -1.801443583605670529e-14 8.807057595141762341e-14
4.934000000000000000e+03 7.366499328613281250e+01 -1.783355331420898438e+01 -4.403528797570881170e-14 1.641315257533762506e-13 3.602887167211341057e-14 3.602887167211341057e-14
4.935000000000000000e+03 1.124576187133789062e+01 -4.795294284820556641e+00 -1.180946345488015359e-13 1.781427517435693608e-13 1.801443583605670529e-14 4.003208151797700565e-14
4.936000000000000000e+03 7.437712097167968750e+01 -1.776575469970703125e+01 8.807057595141762341e-14 -1.681347389873716347e-13 -2.401924891078620339e-14 -1.200962445539310169e-14
4.937000000000000000e+03 7.383771514892578125e+01 -1.909982299804687500e+01 9.207378240914942946e-14 -5.204170427930421283e-14 1.200962445539310169e-14 6.204972381176551699e-14
4.938000000000000000e+03 3.372747421264648438e+01 -1.072087287902832031e+01 -3.803047490097931360e-14 -6.204972381176551699e-14 -3.002405859738391247e-14 0.000000000000000000e+00
4.939000000000000000e+03 1.423045349121093750e+01 -4.613301277160644531e+00 -6.605293026949732305e-14 8.606896933441993136e-14 6.004812227696550847e-15 2.602085213965210642e-14
4.940000000000000000e+03 1.170639991760253906e+01 -5.596555709838867188e+00 4.603689120457471473e-14 2.942358000041639388e-13 1.020818019416107336e-13 -8.006416303595401129e-15
4.941000000000000000e+03 8.493183135986328125e+00 -4.226435661315917969e+00 -7.005614350349270714e-14 1.301042606982605321e-13 1.801443583605670529e-14 -1.541235129971785245e-13
4.942000000000000000e+03 8.551286697387695312e+00 -5.047849655151367188e+00 -9.807859548387892756e-14 1.180946345488015359e-13 6.004812227696550847e-15 -9.407538902614712151e-14
4.943000000000000000e+03 2.051600456237792969e+01 -5.622326850891113281e+00 3.202566521438160452e-14 1.281026608575264181e-13 4.803849782157240678e-14 2.201764398785440585e-14
4.944000000000000000e+03 3.571257400512695312e+01 -1.473461055755615234e+01 -1.140914348673333079e-13 -2.602085213965210642e-14 -4.203368474684290867e-14 -1.050842084789754827e-13
4.945000000000000000e+03 3.139239120483398438e+01 -1.003172397613525391e+01 1.641315257533762506e-13 -4.403528797570881170e-14 3.602887167211341057e-14 5.604491073703601889e-14
4.946000000000000000e+03 3.061145782470703125e+01 -9.790968894958496094e+00 5.004010105043830980e-14 1.000802037949425141e-14 1.801443583605670529e-14 -8.006416303595401129e-14
4.947000000000000000e+03 3.766179656982421875e+01 -1.237967491149902344e+01 -1.261010474642651480e-13 -5.404330750817011586e-14 -5.404330750817011586e-14 -4.003208151797700565e-15
4.948000000000000000e+03 3.700152587890625000e+01 -1.145072364807128906e+01 -3.402726844324750755e-14 5.404330750817011586e-14 6.004812227696550847e-15 2.001604075898850282e-14
4.949000000000000000e+03 1.735807609558105469e+01 -5.640291213989257812e+00 -3.202566521438160452e-14 3.202566521438160452e-14 0.000000000000000000e+00 4.003208151797700565e-14
4.950000000000000000e+03 1.329392814636230469e+01 -5.207364082336425781e+00 -8.807057595141762341e-14 8.006416303595401129e-15 -2.401924891078620339e-14 7.606094980195862720e-14
4.951000000000000000e+03 3.333039093017578125e+01 -1.153805255889892578e+01 4.403528797570881170e-14 7.606094980195862720e-14 3.602887167211341057e-14 -8.006416303595401129e-14
4.952000000000000000e+03 3.509220504760742188e+01 -1.296378421783447266e+01 -7.305854326459387815e-14 2.431948956452267829e-13 5.104090097080536681e-14 -1.281026608575264181e-13
4.953000000000000000e+03 2.834511375427246094e+01 -8.889168739318847656e+00 1.220978477827969200e-13 2.582069215557869502e-13 1.140914348673333079e-13 -3.803047490097931360e-14
4.954000000000000000e+03 2.523153305053710938e+01 -8.914749145507812500e+00 1.190954344691685929e-13 -3.092478259147241060e-13 -5.704571743366665393e-14 1.956567910075743266e-13
4.955000000000000000e+03 1.408162307739257812e+01 -5.385519027709960938e+00 -3.903127820947815962e-14 2.902325867701685547e-14 -3.002406113848275424e-15 1.601283260719080226e-14
4.956000000000000000e+03 7.444180011749267578e+00 -5.793275833129882812e+00 -4.903929774193946378e-14 -6.104892389139845998e-14 -3.302646513474866152e-14 -1.386110735739076727e-13
4.957000000000000000e+03 7.711839199066162109e+00 -4.277497768402099609e+00 4.003208151797700565e-15 2.762213472274482884e-13 8.406736949368581735e-14 -1.681347389873716347e-13
4.958000000000000000e+03 3.962902450561523438e+01 -1.179797458648681641e+01 -7.405934996122451319e-14 1.401122768425900472e-14 -1.801443583605670529e-14 -2.602085213965210642e-14
4.959000000000000000e+03 4.490110397338867188e+00 -4.495319366455078125e+00 1.200962445539310169e-14 -1.321058605389946461e-13 -3.602887167211341057e-14 -2.001604075898850282e-14
4.960000000000000000e+03 4.429039001464843750e+00 -5.499484539031982422e+00 -1.391114735340912012e-13 9.007217918028352643e-15 -3.903127820947815962e-14 -1.601283260719080226e-14
4.961000000000000000e+03 2.201736640930175781e+01 -5.279550552368164062e+00 8.606896933441993136e-14 9.407538902614712151e-14 5.404330750817011586e-14 -6.805453688649501509e-14
4.962000000000000000e+03 2.233299255371093750e+01 -4.633313655853271484e+00 1.441154866884536423e-13 1.601283260719080226e-14 4.803849782157240678e-14 2.401924891078620339e-14
4.963000000000000000e+03 3.257787704467773438e+01 -1.122551441192626953e+01 4.303448466720996568e-14 -1.931547912066566841e-13 -4.503609128420765773e-14 -1.616295259524586081e-13
4.964000000000000000e+03 2.357464981079101562e+01 -7.013357639312744141e+00 4.003208151797700565e-15 1.160930347080674219e-13 3.602887167211341057e-14 8.006416303595401129e-15
4.965000000000000000e+03 2.291531944274902344e+01 -6.614950180053710938e+00 9.607699564314481355e-14 6.405133042876320904e-14 4.803849782157240678e-14 -5.004010105043830980e-14
4.966000000000000000e+03 2.122788238525390625e+01 -1.399933719635009766e+01 -9.107298248878237246e-14 -3.903127820947815962e-14 -3.903127820947815962e-14 1.361090737729900302e-13
4.967000000000000000e+03 2.601867103576660156e+01 -7.696719646453857422e+00 8.281636281696341806e-14 -1.025822035958601566e-14 2.176744400776264160e-14 6.805453688649501509e-14
4.968000000000000000e+03 1.654966926574707031e+01 -5.542001724243164062e+00 5.604491073703601889e-14 2.401924891078620339e-14 2.401924891078620339e-14 2.441956955655938399e-13
4.969000000000000000e+03 2.114395332336425781e+01 -5.421062946319580078e+00 -1.956567910075743266e-13 -1.296038607380770036e-13 -9.757819552369539906e-14 1.401122870069854143e-13
4.970000000000000000e+03 2.045459556579589844e+01 -4.875778675079345703e+00 -6.405133042876320904e-14 6.405133042876320904e-14 0.000000000000000000e+00 -5.204170427930421283e-14
4.971000000000000000e+03 3.087141227722167969e+01 -1.356313991546630859e+01 -9.707779556351187056e-14 1.871499781319271860e-13 2.702165375408505793e-14 -1.060850151756061177e-13
4.972000000000000000e+03 1.492188930511474609e+01 -5.448961257934570312e+00 -4.603689120457471473e-14 2.602085213965210642e-14 -6.004812227696550847e-15 1.401122870069854143e-13
4.973000000000000000e+03 1.575302124023437500e+01 -5.448143959045410156e+00 -6.004812227696550847e-15 2.261812563414053456e-13 6.605293026949732305e-14 6.805453688649501509e-14
4.974000000000000000e+03 1.818613815307617188e+01 -5.708128929138183594e+00 1.451162866088206993e-13 2.451964954859608969e-13 1.170938346284344789e-13 3.402726776562114974e-13
4.975000000000000000e+03 2.882275199890136719e+01 -1.135998725891113281e+01 -1.401122768425900472e-14 1.541235129971785245e-13 4.203368474684290867e-14 -1.020818019416107336e-13
4.976000000000000000e+03 2.705458259582519531e+01 -1.479072570800781250e+01 -1.861491782115601290e-13 -3.402726844324750755e-14 -6.605293026949732305e-14 -5.604491073703601889e-14
4.977000000000000000e+03 2.116570472717285156e+01 -1.505028438568115234e+01 -6.805453688649501509e-14 1.080866150163402317e-13 1.200962445539310169e-14 8.206576287668812530e-14
4.978000000000000000e+03 1.853334808349609375e+01 -1.335756492614746094e+01 -7.806255641895631925e-14 5.804651735403371093e-14 -6.004812227696550847e-15 1.881507780522942430e-13
4.979000000000000000e+03 1.899332618713378906e+01 -5.723178386688232422e+00 -7.706175649858926224e-14 2.872301734565402276e-13 6.305052373213257400e-14 6.805453688649501509e-14
4.980000000000000000e+03 1.976482200622558594e+01 -5.682209968566894531e+00 2.201764398785440585e-14 2.381908689383371858e-13 7.806255641895631925e-14 1.200962343895356499e-13
4.981000000000000000e+03 2.578155517578125000e+01 -1.492669773101806641e+01 -1.060850151756061177e-13 4.603689120457471473e-14 -1.801443583605670529e-14 -4.003208151797700565e-15
4.982000000000000000e+03 3.345488357543945312e+01 -1.538667488098144531e+01 -1.170938346284344789e-13 2.471980953266950110e-13 3.903127820947815962e-14 -1.120898214740720378e-13
4.983000000000000000e+03 3.493241882324218750e+01 -1.617431068420410156e+01 -1.070858150959731747e-13 1.371098736933570872e-13 9.007217918028352643e-15 -7.205774334422682115e-14
4.984000000000000000e+03 3.415102386474609375e+01 -1.324068927764892578e+01 -1.401122768425900472e-14 -6.004812227696550847e-15 -6.004812227696550847e-15 2.001604075898850282e-14
4.985000000000000000e+03 1.240144348144531250e+01 -1.318962574005126953e+01 1.220978477827969200e-13 5.804651735403371093e-14 5.404330750817011586e-14 9.107298248878237246e-14
4.986000000000000000e+03 8.307299613952636719e+00 -1.327290344238281250e+01 7.005614350349270714e-14 -1.301042606982605321e-13 -1.801443583605670529e-14 -1.501202997631831404e-13
4.987000000000000000e+03 2.455685234069824219e+01 -1.503377246856689453e+01 -1.251002475438980910e-13 -1.451162866088206993e-13 -8.106496295632106830e-14 7.205774334422682115e-14
4.988000000000000000e+03 1.507561397552490234e+01 -1.268450927734375000e+01 -1.726383420171551802e-14 -1.203464411458909922e-13 -4.128308141843582690e-14 1.265858213606377292e-13
4.989000000000000000e+03 1.417246818542480469e+01 -1.193187522888183594e+01 4.828869780166417103e-14 2.194258365501369767e-13 8.031436301604577555e-14 9.845389884214836296e-14
4.990000000000000000e+03 2.432141113281250000e+01 -1.291115665435791016e+01 -2.101684237342145434e-14 1.511210996835501974e-13 3.903127820947815962e-14 1.301042606982605321e-13
4.991000000000000000e+03 1.901997947692871094e+01 -1.477821826934814453e+01 1.301042606982605321e-14 9.707779556351187056e-14 3.302646513474866152e-14 1.501202997631831404e-13
4.992000000000000000e+03 2.010154151916503906e+01 -1.494998550415039062e+01 -6.505213034913026604e-14 -5.004010189747125706e-15 -2.101684237342145434e-14 5.004010105043830980e-14
4.993000000000000000e+03 3.742807769775390625e+01 -1.760845184326171875e+01 -1.563753195942679808e-13 8.757017937936588392e-15 -4.428548795580057595e-14 3.846832656020579555e-14
4.994000000000000000e+03 3.720048141479492188e+01 -1.511020565032958984e+01 -3.027426196560746574e-14 -1.273520541409875473e-13 -4.728789449316532501e-14 -2.001604075898850282e-15
4.995000000000000000e+03 1.574495601654052734e+01 -1.169537067413330078e+01 1.070858150959731747e-13 1.831467648979318019e-13 8.706977603105056640e-14 1.401122768425900472e-14
4.996000000000000000e+03 3.861014938354492188e+01 -1.541982078552246094e+01 -5.204170427930421283e-14 -6.805453688649501509e-14 -3.602887167211341057e-14 -9.207378240914942946e-14
4.997000000000000000e+03 3.947242355346679688e+01 -1.294227790832519531e+01 -6.305052373213257400e-14 -1.871499781319271860e-13 -7.506014988159157020e-14 0.000000000000000000e+00
4.998000000000000000e+03 2.835234832763671875e+01 -1.469769668579101562e+01 -1.531227130768114675e-13 -1.571259127582796955e-13 -9.307458910578006450e-14 -3.602887167211341057e-14
4.999000000000000000e+03 2.638476943969726562e+01 -8.793999671936035156e+00 2.201764398785440585e-14 -8.206576287668812530e-14 -1.801443583605670529e-14 -4.003208151797700565e-15
5.000000000000000000e+03 7.537991333007812500e+01 -2.706646156311035156e+01 2.702165375408505793e-14 -5.704571743366665393e-14 -9.007217918028352643e-15 -8.006416303595401129e-15
5.001000000000000000e+03 7.285115051269531250e+01 -3.049471473693847656e+01 6.355093046857968053e-14 -1.851483749030612830e-14 1.351082687704252897e-14 -5.604491073703601889e-14
5.002000000000000000e+03 7.415505218505859375e+01 -2.413014602661132812e+01 5.104090097080536681e-14 -1.611291259922750796e-13 -3.302646513474866152e-14 -2.602085213965210642e-14
5.003000000000000000e+03 7.088850402832031250e+01 -2.914350318908691406e+01 5.054050101062183831e-14 4.453568793589234021e-14 2.852285871683332696e-14 -2.602085213965210642e-14
5.004000000000000000e+03 1.934154510498046875e+01 -1.305366325378417969e+01 4.303448466720996568e-14 -7.305854326459387815e-14 -9.007217918028352643e-15 4.003208151797700565e-14
5.005000000000000000e+03 7.601945495605468750e+01 -2.080675888061523438e+01 5.604491073703601889e-14 -1.361090737729900302e-13 -2.401924891078620339e-14 3.202566521438160452e-14
5.006000000000000000e+03 7.389785003662109375e+01 -2.266315269470214844e+01 3.602887167211341057e-14 1.641315257533762506e-13 6.004811719476782494e-14 5.604491073703601889e-14
5.007000000000000000e+03 5.355737686157226562e+00 -8.919228553771972656e+00 -2.101684237342145434e-14 -9.007217918028352643e-15 -9.007217918028352643e-15 8.006416303595401129e-14
5.008000000000000000e+03 4.535343647003173828e+00 -1.123512935638427734e+01 -7.806255641895631925e-14 5.804651735403371093e-14 -6.004812227696550847e-15 -4.203368474684290867e-14
5.009000000000000000e+03 6.187987327575683594e+00 -1.302321815490722656e+01 -2.502005094873562853e-16 1.828965716941036157e-13 5.479391083657719763e-14 7.105694342385976414e-14
5.010000000000000000e+03 5.083077430725097656e+00 -1.025529479980468750e+01 -5.004010105043830980e-14 -1.000802037949425141e-14 -1.801443583605670529e-14 4.403528797570881170e-14
5.011000000000000000e+03 4.293006896972656250e+01 -2.931907272338867188e+01 3.552847171192988207e-14 4.953969770212299228e-14 2.552045048540268340e-14 -7.305854326459387815e-14
5.012000000000000000e+03 4.376858520507812500e+01 -2.767685699462890625e+01 2.602085213965210642e-14 -6.004812227696550847e-15 6.004812227696550847e-15 8.256616283687165381e-15
5.013000000000000000e+03 5.881339550018310547e+00 -3.478130722045898438e+01 2.902325867701685547e-14 -7.906335633932337625e-14 -1.501202929869195624e-14 -3.602887167211341057e-14
5.014000000000000000e+03 6.471680164337158203e+00 -3.250391769409179688e+01 -7.506015284620688559e-16 -9.182358242905766521e-14 -2.777225538842624519e-14 -4.403528797570881170e-14
5.015000000000000000e+03 7.301900482177734375e+01 -1.925543785095214844e+01 -6.004812227696550847e-15 6.605293026949732305e-14 1.801443583605670529e-14 7.806255641895631925e-14
5.016000000000000000e+03 7.025076866149902344e+00 -1.374575233459472656e+01 3.878107822938639537e-14 -6.255012631304788726e-15 9.757819552369539906e-15 -4.203368474684290867e-14
5.017000000000000000e+03 5.389898777008056641e+00 -1.262413883209228516e+01 -3.602887167211341057e-14 -8.406736949368581735e-14 -3.602887167211341057e-14 -3.402726844324750755e-14
5.018000000000000000e+03 7.234490966796875000e+01 -2.142720985412597656e+01 -1.801443583605670529e-14 3.803047490097931360e-14 6.004812227696550847e-15 2.802245536851800944e-14
5.019000000000000000e+03 7.354324340820312500e+01 -2.131780815124511719e+01 2.001604075898850282e-15 -1.020818019416107336e-13 -3.002405859738391247e-14 3.803047490097931360e-14
5.020000000000000000e+03 4.315902709960937500e+00 -6.670395374298095703e+00 -1.050842084789754827e-13 -4.503609128420765773e-14 -4.503609128420765773e-14 1.801443583605670529e-14
5.021000000000000000e+03 6.190650939941406250e+00 -5.264767169952392578e+00 -1.261010474642651480e-13 -5.404330750817011586e-14 -5.404330750817011586e-14 2.802245536851800944e-14
5.022000000000000000e+03 4.191325759887695312e+01 -2.295039176940917969e+01 -5.742101401567251129e-14 2.114194236346733646e-14 -1.088372200388132080e-14 7.506014988159157020e-14
5.023000000000000000e+03 4.024829864501953125e+01 -2.294820404052734375e+01 -6.605293026949732305e-14 8.606896933441993136e-14 6.004812227696550847e-15 2.001604075898850282e-15
5.024000000000000000e+03 5.325976848602294922e+00 -7.979159355163574219e+00 -4.703769451307356075e-14 -4.303448466720996568e-14 -2.702165375408505793e-14 1.160930347080674219e-13
5.025000000000000000e+03 8.445268630981445312e+00 -3.651589965820312500e+01 -2.301844560228735737e-14 -6.705373696612795809e-14 -2.702165375408505793e-14 -2.101684237342145434e-14
5.026000000000000000e+03 8.187247276306152344e+00 -3.262753677368164062e+01 -1.175942362826839019e-14 -1.208468411060745207e-13 -3.978187814975345238e-14 -2.439454888092384977e-14
5.027000000000000000e+03 4.853593826293945312e+01 -3.524708557128906250e+01 1.150922280114367868e-14 -8.656937607086703790e-14 -2.251804564210382886e-14 4.503608959014176322e-15
5.028000000000000000e+03 4.649795913696289062e+01 -3.040997695922851562e+01 4.903929774193946378e-14 -5.904731727440076794e-14 -3.002406113848275424e-15 -6.104892389139845998e-14
5.029000000000000000e+03 4.796436309814453125e+01 -3.331673431396484375e+01 2.702165375408505793e-14 2.301844560228735737e-14 1.501202929869195624e-14 -7.405934996122451319e-14
5.030000000000000000e+03 1.084720325469970703e+01 -1.261633110046386719e+01 1.240994476235310340e-13 -4.003208151797700565e-15 3.602887167211341057e-14 -1.200962445539310169e-14
5.031000000000000000e+03 3.944211578369140625e+01 -1.415217113494873047e+01 -1.050842084789754827e-13 -4.503609128420765773e-14 -4.503609128420765773e-14 -7.606094980195862720e-14
5.032000000000000000e+03 2.965583229064941406e+01 -1.465358829498291016e+01 -5.404330750817011586e-14 1.140914348673333079e-13 1.801443583605670529e-14 -1.441154866884536423e-13
5.033000000000000000e+03 2.886081123352050781e+01 -9.824793815612792969e+00 5.404330750817011586e-14 2.061652172764827373e-13 7.806255641895631925e-14 -3.202566521438160452e-14
5.034000000000000000e+03 7.271474456787109375e+01 -2.430040550231933594e+01 -7.005613842129502361e-15 -3.002406113848275424e-15 -3.002406113848275424e-15 6.805453688649501509e-14
5.035000000000000000e+03 7.894395351409912109e+00 -4.127871704101562500e+01 -2.426944889087796764e-14 -3.327666511484042577e-14 -1.726383420171551802e-14 -2.902325867701685547e-14
5.036000000000000000e+03 4.202202606201171875e+01 -3.118089866638183594e+01 5.441861001940660400e-15 -5.485645913753424419e-14 -1.482437931362313305e-14 3.502806921064751181e-15
5.037000000000000000e+03 3.921576690673828125e+01 -3.051574516296386719e+01 1.100882199392720293e-14 3.903127820947815962e-14 1.501202929869195624e-14 -1.451162933850842773e-14
5.038000000000000000e+03 3.276485824584960938e+01 -3.665175247192382812e+01 -1.100882199392720293e-14 4.103288143834406265e-14 9.007217918028352643e-15 1.100882199392720293e-14
5.039000000000000000e+03 7.253718566894531250e+01 -2.864800834655761719e+01 8.006416303595401129e-14 4.003208151797700565e-14 3.602887167211341057e-14 -3.978187814975345238e-14
5.040000000000000000e+03 3.585976028442382812e+01 -3.382805252075195312e+01 -2.752205540833448094e-14 2.251804564210382886e-14 -1.501203056924137712e-15 -1.901523745048965680e-14
5.041000000000000000e+03 4.040957260131835938e+01 -3.256253814697265625e+01 4.003208151797700565e-15 -4.003208151797700565e-15 0.000000000000000000e+00 -1.476182931860019198e-14
5.042000000000000000e+03 9.517461776733398438e+00 -5.506289005279541016e+00 -7.005614350349270714e-14 2.902325732176413986e-13 6.605293026949732305e-14 -1.601283260719080226e-14
5.043000000000000000e+03 1.056027317047119141e+01 -5.263818740844726562e+00 -9.207378240914942946e-14 5.204170427930421283e-14 -1.200962445539310169e-14 4.003208151797700565e-15
5.044000000000000000e+03 1.188988876342773438e+01 -4.919935703277587891e+00 3.102486190588275849e-14 5.904731727440076794e-14 2.702165375408505793e-14 -1.040834085586084257e-13
5.045000000000000000e+03 1.256903839111328125e+01 -5.058021545410156250e+00 4.003208151797700565e-15 2.762213472274482884e-13 8.406736949368581735e-14 -7.205774334422682115e-14
5.046000000000000000e+03 3.422066116333007812e+01 -1.172379398345947266e+01 -4.003208151797700565e-14 -1.200962343895356499e-13 -4.803849782157240678e-14 -2.802245536851800944e-14
5.047000000000000000e+03 3.675376129150390625e+01 -1.424863433837890625e+01 -1.223480409866251062e-13 8.481796943396111010e-14 -1.125902282105191443e-14 4.003208151797700565e-15
5.048000000000000000e+03 3.600103759765625000e+01 -1.256367206573486328e+01 -9.657739560332834206e-14 1.416134868875359998e-13 1.351082687704252897e-14 3.202566521438160452e-14
5.049000000000000000e+03 2.056834030151367188e+01 -6.380313873291015625e+00 -7.606094980195862720e-14 1.961571909677578551e-13 3.602887167211341057e-14 1.040834085586084257e-13
5.050000000000000000e+03 1.379800415039062500e+01 -6.138683795928955078e+00 4.003208151797700565e-15 1.160930347080674219e-13 3.602887167211341057e-14 4.703769451307356075e-14
5.051000000000000000e+03 1.109635734558105469e+01 -5.417713642120361328e+00 -1.411130869273524713e-13 3.102486190588275849e-14 -3.302646513474866152e-14 -1.521218996039172544e-13
5.052000000000000000e+03 1.306958293914794922e+01 -5.911992549896240234e+00 -2.802245536851800944e-14 -1.200962445539310169e-14 -1.200962445539310169e-14 3.002405859738391247e-14
5.053000000000000000e+03 5.942264080047607422e+00 -6.064571857452392578e+00 -1.501202929869195624e-14 -1.551243129175455815e-13 -5.104090097080536681e-14 -3.702967498061225660e-14
5.054000000000000000e+03 5.498388767242431641e+00 -6.952526569366455078e+00 -6.755413692631148659e-14 -9.757819552369539906e-14 -4.953969770212299228e-14 -1.200962445539310169e-14
5.055000000000000000e+03 3.633155822753906250e+01 -1.341688728332519531e+01 -1.100882216333379238e-13 9.007218256841531545e-14 -6.004812227696550847e-15 -9.207378240914942946e-14
5.056000000000000000e+03 7.448850631713867188e+00 -8.527764320373535156e+00 -2.251804564210382886e-14 1.276022608973428896e-13 3.152526186606628700e-14 -9.207378240914942946e-14
5.057000000000000000e+03 7.750854015350341797e+00 -5.089721679687500000e+00 -1.821459649775647449e-13 -7.806255641895631925e-14 -7.806255641895631925e-14 -1.200962343895356499e-13
5.058000000000000000e+03 3.191219902038574219e+01 -1.094849491119384766e+01 -6.004812227696550847e-15 -9.407538902614712151e-14 -3.002405859738391247e-14 5.204170427930421283e-14
5.059000000000000000e+03 3.109498214721679688e+01 -1.081923770904541016e+01 3.602887167211341057e-14 -7.606094980195862720e-14 -1.200962445539310169e-14 0.000000000000000000e+00
5.060000000000000000e+03 7.696167469024658203e+00 -6.941708087921142578e+00 -9.607699564314481355e-14 -1.441154866884536423e-13 -7.205774334422682115e-14 -1.120898214740720378e-13
5.061000000000000000e+03 9.309069633483886719e+00 -4.856614589691162109e+00 -5.804651735403371093e-14 -2.001604075898850282e-15 -1.801443583605670529e-14 -8.406736949368581735e-14
5.062000000000000000e+03 3.776142120361328125e+01 -1.363539791107177734e+01 -7.606094980195862720e-14 -4.003208151797700565e-15 -2.401924891078620339e-14 2.001604075898850282e-15
5.063000000000000000e+03 7.432808685302734375e+01 -1.987764739990234375e+01 9.007217918028352643e-15 -9.907939540424598457e-14 -2.702165375408505793e-14 6.605293026949732305e-14
5.064000000000000000e+03 1.683558845520019531e+01 -8.588191032409667969e+00 1.200962343895356499e-13 -4.003208151797700565e-14 2.401924891078620339e-14 2.642117210779892922e-13
5.065000000000000000e+03 1.811714553833007812e+01 -6.551091670989990234e+00 -6.104892389139845998e-14 1.110890215537049808e-13 1.501202929869195624e-14 1.060850151756061177e-13
5.066000000000000000e+03 2.424732017517089844e+01 -7.442275047302246094e+00 2.261812563414053456e-13 -8.606896933441993136e-14 4.203368474684290867e-14 -2.401924891078620339e-14
5.067000000000000000e+03 2.227067375183105469e+01 -6.248013973236083984e+00 6.004811719476782494e-14 -1.000802021008766196e-13 -1.200962445539310169e-14 0.000000000000000000e+00
5.068000000000000000e+03 2.325011062622070312e+01 -7.593791484832763672e+00 4.903929774193946378e-14 2.101684237342145434e-14 2.101684237342145434e-14 -6.204972381176551699e-14
5.069000000000000000e+03 3.020566749572753906e+01 -1.059657573699951172e+01 8.006416303595401129e-15 1.521218996039172544e-13 4.803849782157240678e-14 -3.002405859738391247e-14
5.070000000000000000e+03 3.092242050170898438e+01 -1.166753673553466797e+01 4.003208151797700565e-14 2.001604042017532392e-13 7.205774334422682115e-14 -2.201764398785440585e-14
5.071000000000000000e+03 2.459056472778320312e+01 -8.484276771545410156e+00 4.403528797570881170e-14 -1.641315257533762506e-13 -3.602887167211341057e-14 1.240994476235310340e-13
5.072000000000000000e+03 3.200945281982421875e+01 -1.250157833099365234e+01 -1.701363422162375377e-14 2.672141479441447753e-13 7.506014988159157020e-14 -6.605293026949732305e-14
5.073000000000000000e+03 1.071017360687255859e+01 -1.037504386901855469e+01 8.006416303595401129e-15 -8.807057595141762341e-14 -2.401924891078620339e-14 -1.401122768425900472e-14
5.074000000000000000e+03 1.899316596984863281e+01 -6.579106807708740234e+00 -5.604491073703601889e-14 1.361090737729900302e-13 2.401924891078620339e-14 2.121700303512122354e-13
5.075000000000000000e+03 3.092722129821777344e+01 -1.459422588348388672e+01 -8.006416303595401129e-14 8.006416303595401129e-14 0.000000000000000000e+00 6.405133042876320904e-14
5.076000000000000000e+03 2.806016921997070312e+01 -9.630390167236328125e+00 1.401122870069854143e-13 2.201764432666758475e-13 1.080866150163402317e-13 3.602887167211341057e-14
5.077000000000000000e+03 1.441882705688476562e+01 -6.578292369842529297e+00 -1.052093118571531538e-13 4.641219456284415013e-14 -1.763913586591905891e-14 1.491194998428160834e-13
5.078000000000000000e+03 1.541407871246337891e+01 -6.605448722839355469e+00 -7.405934996122451319e-14 1.401122768425900472e-14 -1.801443583605670529e-14 2.066656172366662658e-13
5.079000000000000000e+03 7.296159362792968750e+01 -1.847758865356445312e+01 -7.105694342385976414e-14 6.104892389139845998e-14 -3.002406113848275424e-15 -8.006416303595401129e-15
5.080000000000000000e+03 2.056791114807128906e+01 -7.069653987884521484e+00 -1.060850151756061177e-13 4.603689120457471473e-14 -1.801443583605670529e-14 -4.403528797570881170e-14
5.081000000000000000e+03 2.971209526062011719e+01 -1.253718852996826172e+01 -4.003208151797700565e-15 2.041636038832214672e-13 6.004811719476782494e-14 -5.604491073703601889e-14
5.082000000000000000e+03 1.721904182434082031e+01 -6.437555789947509766e+00 6.305052373213257400e-14 2.702165375408505793e-14 2.702165375408505793e-14 2.622101212372551782e-13
5.083000000000000000e+03 2.604136276245117188e+01 -1.159111976623535156e+01 -7.756215645877279075e-14 3.327666647009314138e-13 7.656135653840573374e-14 -2.001604075898850282e-14
5.084000000000000000e+03 2.884395027160644531e+01 -1.050456905364990234e+01 -4.603689120457471473e-14 2.602085213965210642e-14 -6.004812227696550847e-15 4.403528797570881170e-14
5.085000000000000000e+03 2.564651107788085938e+01 -8.314472198486328125e+00 1.150922347877003649e-13 -2.251804564210382886e-13 -3.302646513474866152e-14 8.006416303595401129e-14
5.086000000000000000e+03 3.845442581176757812e+01 -1.275342082977294922e+01 -1.711371387484728057e-13 -1.190954344691685929e-13 -8.706977603105056640e-14 0.000000000000000000e+00
5.087000000000000000e+03 3.460886001586914062e+01 -1.511818599700927734e+01 -1.631307258330091936e-13 1.130906281707026728e-13 -1.501202929869195624e-14 -2.001604075898850282e-14
5.088000000000000000e+03 3.768790817260742188e+01 -1.921180725097656250e+01 -1.491194998428160834e-13 -1.210970478624298630e-13 -8.106496295632106830e-14 5.804651735403371093e-14
5.089000000000000000e+03 7.507017517089843750e+01 -2.227830696105957031e+01 3.602887167211341057e-14 -2.361892690976030718e-13 -6.004811719476782494e-14 2.802245536851800944e-14
5.090000000000000000e+03 3.662549209594726562e+01 -1.669825553894042969e+01 -8.306656957331876034e-14 3.302646513474866152e-14 -1.501202929869195624e-14 -4.203368474684290867e-14
5.091000000000000000e+03 2.334537315368652344e+01 -1.399846172332763672e+01 -5.004010105043830980e-14 7.005614350349270714e-14 6.004812227696550847e-15 1.200962343895356499e-13
5.092000000000000000e+03 2.446561050415039062e+01 -1.394925308227539062e+01 -3.903127820947815962e-14 1.891515779726613000e-13 4.503609128420765773e-14 2.602085213965210642e-14
5.093000000000000000e+03 3.972704315185546875e+01 -2.011769866943359375e+01 -4.903929774193946378e-14 -2.101684237342145434e-14 -2.101684237342145434e-14 6.004811719476782494e-14
5.094000000000000000e+03 1.340645027160644531e+01 -1.117161941528320312e+01 2.927345865710861972e-14 -2.619599144808998359e-13 -6.980593674713736485e-14 3.602887167211341057e-14
5.095000000000000000e+03 1.264435195922851562e+01 -1.173265266418457031e+01 9.507618894651417851e-14 1.951563910473907981e-13 8.706977603105056640e-14 1.441154866884536423e-13
5.096000000000000000e+03 2.565493202209472656e+01 -1.382691669464111328e+01 -6.705373696612795809e-14 1.701363422162375377e-14 -1.501202929869195624e-14 4.003208151797700565e-14
5.097000000000000000e+03 3.434954071044921875e+01 -1.414069366455078125e+01 -7.005614350349270714e-14 1.301042606982605321e-13 1.801443583605670529e-14 -1.321058605389946461e-13
5.098000000000000000e+03 3.326478958129882812e+01 -1.435240936279296875e+01 -1.511210996835501974e-13 1.411130869273524713e-13 -3.002406113848275424e-15 5.204170427930421283e-14
5.099000000000000000e+03 3.716378784179687500e+01 -1.297953891754150391e+01 -7.005614350349270714e-14 2.101684169579509653e-13 4.203368474684290867e-14 -1.000802037949425141e-14
5.100000000000000000e+03 7.350850677490234375e+01 -3.236343383789062500e+01 -1.000802037949425141e-14 -5.004010105043830980e-14 -1.801443583605670529e-14 -5.804651735403371093e-14
5.101000000000000000e+03 9.121960639953613281e+00 -1.331095314025878906e+01 5.304250758780305885e-14 -2.301844560228735737e-14 9.007217918028352643e-15 -1.200962445539310169e-14
5.102000000000000000e+03 1.631834602355957031e+01 -9.905907630920410156e+00 1.481186999224490264e-13 1.321058605389946461e-13 8.406736949368581735e-14 2.281828697346666157e-13
5.103000000000000000e+03 7.118944168090820312e+00 -9.418692588806152344e+00 -1.801443583605670529e-14 -1.220978477827969200e-13 -4.203368474684290867e-14 -4.303448466720996568e-14
5.104000000000000000e+03 7.314301300048828125e+01 -2.570297622680664062e+01 3.002405859738391247e-14 -1.701363388281057487e-13 -4.203368474684290867e-14 -2.802245536851800944e-14
5.105000000000000000e+03 7.145555114746093750e+01 -3.321695327758789062e+01 1.401122768425900472e-14 8.606896933441993136e-14 3.002405859738391247e-14 -6.505213034913026604e-15
5.106000000000000000e+03 7.150461578369140625e+01 -2.790652847290039062e+01 8.006416303595401129e-15 7.205774334422682115e-14 2.401924891078620339e-14 1.000802021008766196e-13
5.107000000000000000e+03 7.336537170410156250e+01 -2.762604331970214844e+01 -2.735786145964102384e-14 -5.747574589659229516e-14 -2.545008237627658515e-14 -1.451162933850842773e-14
5.108000000000000000e+03 4.589579010009765625e+01 -2.727779960632324219e+01 -4.378508799561704745e-14 -1.876503747039789255e-14 -1.876503747039789255e-14 2.602085213965210642e-14
5.109000000000000000e+03 6.197027206420898438e+00 -9.001322746276855469e+00 -1.100882216333379238e-13 9.007218256841531545e-14 -6.004812227696550847e-15 4.203368474684290867e-14
5.110000000000000000e+03 7.064820098876953125e+01 -3.486604690551757812e+01 -4.203368474684290867e-14 -1.801443583605670529e-14 -1.801443583605670529e-14 2.151724233360498284e-14
5.111000000000000000e+03 4.175349426269531250e+01 -2.486679077148437500e+01 -9.007217918028352643e-15 -6.104892389139845998e-14 -2.101684237342145434e-14 2.251804564210382886e-14
5.112000000000000000e+03 4.066013717651367188e+01 -2.978651809692382812e+01 3.853087824929463112e-14 -3.502806921064751181e-15 1.050842118671072717e-14 -2.652125379390152943e-14
5.113000000000000000e+03 6.366348266601562500e+00 -8.198714256286621094e+00 -1.501202929869195624e-14 8.506816941405287436e-14 2.101684237342145434e-14 -2.001604075898850282e-14
5.114000000000000000e+03 4.106416702270507812e+01 -2.370032691955566406e+01 2.001604075898850282e-15 -2.201764398785440585e-14 -6.004812227696550847e-15 4.503608959014176322e-15
5.115000000000000000e+03 6.238716602325439453e+00 -1.445284652709960938e+01 6.755413692631148659e-14 -6.255012377194904549e-14 1.501203056924137712e-15 2.802245536851800944e-14
5.116000000000000000e+03 5.562350273132324219e+00 -1.350740718841552734e+01 -4.203368474684290867e-14 6.204972381176551699e-14 6.004812227696550847e-15 -2.602085213965210642e-14
5.117000000000000000e+03 7.925415515899658203e+00 -1.204928398132324219e+01 -3.202566521438160452e-14 -4.803849782157240678e-14 -2.401924891078620339e-14 -1.361090737729900302e-13
5.118000000000000000e+03 1.818245124816894531e+01 -1.252108001708984375e+01 3.602887167211341057e-14 8.406736949368581735e-14 3.602887167211341057e-14 9.407538902614712151e-14
5.119000000000000000e+03 6.550262928009033203e+00 -7.339148044586181641e+00 3.502806921064751181e-15 1.501203056924137712e-15 1.501203056924137712e-15 4.003208151797700565e-15
5.120000000000000000e+03 3.087132835388183594e+01 -1.258243942260742188e+01 -1.401122768425900472e-14 -6.004812227696550847e-15 -6.004812227696550847e-15 8.006416303595401129e-15
5.121000000000000000e+03 4.621416473388671875e+01 -3.314258193969726562e+01 -1.826463581614846954e-14 -9.932960216060132685e-14 -3.527827173183811782e-14 -6.004812227696550847e-15
5.122000000000000000e+03 2.830604934692382812e+01 -1.351589870452880859e+01 2.201764398785440585e-14 7.806255641895631925e-14 3.002405859738391247e-14 -1.681347389873716347e-13
5.123000000000000000e+03 7.104654693603515625e+01 -3.103479003906250000e+01 7.556054984177509870e-14 6.955573676704560060e-14 4.353488801552528320e-14 1.451162933850842773e-14
5.124000000000000000e+03 7.009464263916015625e+01 -3.236376190185546875e+01 2.051644071917203133e-14 3.452766840343103605e-14 1.651323256737433076e-14 5.004010105043830980e-14
5.125000000000000000e+03 1.202982616424560547e+01 -1.087320423126220703e+01 -3.803047490097931360e-14 -6.204972381176551699e-14 -3.002405859738391247e-14 -2.051644071917203133e-14
5.126000000000000000e+03 9.913494110107421875e+00 -6.059983730316162109e+00 6.999359181440387156e-14 1.633183741240121223e-13 6.999359181440387156e-14 -8.678829681828259535e-14
5.127000000000000000e+03 4.012452697753906250e+01 -2.848008918762207031e+01 4.003208151797700565e-15 -4.403528797570881170e-14 -1.200962445539310169e-14 -4.203368474684290867e-14
5.128000000000000000e+03 1.034165763854980469e+01 -5.692759513854980469e+00 -9.007218256841531545e-14 4.303448602246268129e-13 1.020818019416107336e-13 -1.686351389475551632e-13
5.129000000000000000e+03 1.006649303436279297e+01 -5.285415172576904297e+00 -4.203368474684290867e-14 -1.801443583605670529e-14 -1.801443583605670529e-14 -1.681347389873716347e-13
5.130000000000000000e+03 1.083853530883789062e+01 -5.995384693145751953e+00 -1.100882216333379238e-13 4.103288347122313606e-13 9.007218256841531545e-14 -7.906335633932337625e-14
5.131000000000000000e+03 2.457070541381835938e+01 -9.202329635620117188e+00 6.405133042876320904e-14 9.607699564314481355e-14 4.803849782157240678e-14 6.204972381176551699e-14
5.132000000000000000e+03 3.480157470703125000e+01 -1.218801784515380859e+01 -6.505213034913026604e-14 1.551243129175455815e-13 2.702165375408505793e-14 -4.003208151797700565e-14
5.133000000000000000e+03 3.403165435791015625e+01 -1.243924045562744141e+01 8.006416303595401129e-14 2.401924687790712998e-13 9.607699564314481355e-14 -6.004811719476782494e-14
5.134000000000000000e+03 3.537700653076171875e+01 -1.382247829437255859e+01 -1.140914348673333079e-13 -2.602085213965210642e-14 -4.203368474684290867e-14 -1.801443583605670529e-14
5.135000000000000000e+03 1.215002250671386719e+01 -6.491815090179443359e+00 9.007218256841531545e-14 1.301042606982605321e-13 6.605293026949732305e-14 7.005614350349270714e-14
5.136000000000000000e+03 1.237001609802246094e+01 -5.760478019714355469e+00 -3.803047490097931360e-14 -6.204972381176551699e-14 -3.002405859738391247e-14 -5.604491073703601889e-14
5.137000000000000000e+03 6.886846065521240234e+00 -6.499798774719238281e+00 -1.886511780124777715e-13 -1.266014474244486765e-13 -9.457578898633065001e-14 -2.401924891078620339e-14
5.138000000000000000e+03 1.342407417297363281e+01 -6.765575885772705078e+00 -2.702165375408505793e-14 -1.030826086382413687e-13 -3.903127820947815962e-14 1.000802021008766196e-13
5.139000000000000000e+03 1.392412185668945312e+01 -7.181025981903076172e+00 1.150922347877003649e-13 9.507618894651417851e-14 6.305052373213257400e-14 -1.000802037949425141e-14
5.140000000000000000e+03 3.309522628784179688e+01 -1.243780994415283203e+01 7.806255641895631925e-14 -5.804651735403371093e-14 6.004812227696550847e-15 -7.806255641895631925e-14
5.141000000000000000e+03 3.313256835937500000e+01 -1.338428783416748047e+01 -7.606094980195862720e-14 1.961571909677578551e-13 3.602887167211341057e-14 -1.581267126786467525e-13
5.142000000000000000e+03 1.021949958801269531e+01 -1.160484313964843750e+01 7.606094980195862720e-14 -1.160930347080674219e-13 -1.200962445539310169e-14 -3.302646513474866152e-14
5.143000000000000000e+03 8.192618370056152344e+00 -6.322614669799804688e+00 -2.052269622689409379e-13 1.408003352581718715e-13 -1.932798911967025662e-14 -1.578765194748185663e-13
5.144000000000000000e+03 2.130161285400390625e+01 -6.525867462158203125e+00 3.602887167211341057e-14 2.441956955655938399e-13 8.406736949368581735e-14 9.607699564314481355e-14
5.145000000000000000e+03 2.162312698364257812e+01 -5.883308887481689453e+00 3.402726844324750755e-14 1.861491782115601290e-13 6.605293026949732305e-14 7.405934996122451319e-14
5.146000000000000000e+03 9.406330108642578125e+00 -8.989989280700683594e+00 5.604491073703601889e-14 2.401924891078620339e-14 2.401924891078620339e-14 -1.481186999224490264e-13
5.147000000000000000e+03 8.847371101379394531e+00 -5.825117588043212891e+00 3.602887167211341057e-14 -7.606094980195862720e-14 -1.200962445539310169e-14 -2.011612041221202962e-13
5.148000000000000000e+03 2.120561790466308594e+01 -1.298858070373535156e+01 1.200962445539310169e-14 1.881507780522942430e-13 6.004811719476782494e-14 1.401122768425900472e-14
5.149000000000000000e+03 2.168884468078613281e+01 -7.503035068511962891e+00 -7.506014649345978118e-15 4.253408470702643718e-14 1.050842118671072717e-14 1.321058605389946461e-13
5.150000000000000000e+03 2.719751358032226562e+01 -9.279742240905761719e+00 6.355093046857968053e-14 3.017418129594440224e-13 1.095878216731543953e-13 -1.240994476235310340e-13
5.151000000000000000e+03 3.189899635314941406e+01 -1.165396213531494141e+01 -1.130906281707026728e-13 -1.170938346284344789e-13 -6.905533680686207210e-14 2.602085213965210642e-14
5.152000000000000000e+03 1.718629837036132812e+01 -7.168240547180175781e+00 3.002406113848275424e-15 4.703769451307356075e-14 1.501202929869195624e-14 1.321058605389946461e-13
5.153000000000000000e+03 1.501060485839843750e+01 -6.134538173675537109e+00 3.602887167211341057e-14 -7.606094980195862720e-14 -1.200962445539310169e-14 4.003208151797700565e-14
5.154000000000000000e+03 1.742518234252929688e+01 -7.770690441131591797e+00 -1.240994476235310340e-13 -7.606094980195862720e-14 -6.004811719476782494e-14 2.812253739343378856e-13
5.155000000000000000e+03 1.638834762573242188e+01 -6.290366172790527344e+00 -7.305854326459387815e-14 -7.706175649858926224e-14 -4.503609128420765773e-14 2.081668171172168513e-13
5.156000000000000000e+03 1.600355148315429688e+01 -6.969335079193115234e+00 2.021620040424873532e-13 1.801443583605670529e-14 6.605293026949732305e-14 2.019118108386591670e-13
5.157000000000000000e+03 1.403994941711425781e+01 -1.054520130157470703e+01 3.402726844324750755e-14 1.060850151756061177e-13 4.203368474684290867e-14 5.304250758780305885e-14
5.158000000000000000e+03 2.745279312133789062e+01 -1.189591884613037109e+01 -3.953167816966168813e-14 7.455974992140804170e-14 1.050842118671072717e-14 -1.185950345089850644e-13
5.159000000000000000e+03 2.208929252624511719e+01 -1.195678997039794922e+01 -2.802245536851800944e-14 1.481186999224490264e-13 3.602887167211341057e-14 6.605293026949732305e-14
5.160000000000000000e+03 1.493556499481201172e+01 -7.104463577270507812e+00 4.478589130411589347e-14 7.781235643886455500e-14 3.677947500052049234e-14 5.792141397585603979e-14
5.161000000000000000e+03 1.849625205993652344e+01 -7.857991695404052734e+00 -2.009109973657649539e-13 1.884009712561224292e-13 -3.753007324672989059e-15 2.061652172764827373e-13
5.162000000000000000e+03 2.800941658020019531e+01 -1.040149116516113281e+01 5.204170427930421283e-14 6.805453688649501509e-14 3.602887167211341057e-14 -9.007218256841531545e-14
5.163000000000000000e+03 1.481070518493652344e+01 -1.115831947326660156e+01 3.127506188597452275e-14 -1.238492544197028478e-13 -2.777225538842624519e-14 1.781427517435693608e-13
5.164000000000000000e+03 1.994388389587402344e+01 -7.224061965942382812e+00 -1.601283260719080226e-14 3.362694779747432694e-13 9.607699564314481355e-14 2.802245536851800944e-14
5.165000000000000000e+03 1.980298805236816406e+01 -6.457488059997558594e+00 -4.003208151797700565e-14 1.200962343895356499e-13 2.401924891078620339e-14 -2.602085213965210642e-14
5.166000000000000000e+03 2.849444770812988281e+01 -1.238163375854492188e+01 1.501202929869195624e-14 7.506014988159157020e-14 2.702165375408505793e-14 -7.405934996122451319e-14
5.167000000000000000e+03 2.988193893432617188e+01 -1.152584266662597656e+01 9.007217918028352643e-15 -1.901523745048965680e-14 -3.002406113848275424e-15 -1.401122768425900472e-14
5.168000000000000000e+03 7.475814819335937500e+01 -2.099456024169921875e+01 2.552045048540268340e-14 7.956375629950690476e-14 3.152526186606628700e-14 5.604491073703601889e-14
5.169000000000000000e+03 2.324845886230468750e+01 -1.295503997802734375e+01 -3.702967498061225660e-14 1.671339390670045777e-13 3.903127820947815962e-14 6.004811719476782494e-14
5.170000000000000000e+03 3.204060363769531250e+01 -1.348567104339599609e+01 -4.903929774193946378e-14 -2.101684237342145434e-14 -2.101684237342145434e-14 6.004811719476782494e-14
5.171000000000000000e+03 3.611479949951171875e+01 -1.569129753112792969e+01 -1.245998475837145625e-13 -3.052446194569922999e-14 -4.653729455289003225e-14 -7.806255641895631925e-14
5.172000000000000000e+03 3.769208145141601562e+01 -1.600028800964355469e+01 -7.981396305586224704e-14 5.729591741375841818e-14 -6.755413438521264483e-15 3.803047490097931360e-14
5.173000000000000000e+03 9.346859931945800781e+00 -1.205668258666992188e+01 9.476343727733357869e-14 -1.907778744551259786e-14 2.270569562717265205e-14 -4.502045166786955432e-14
5.174000000000000000e+03 1.034860992431640625e+01 -9.568644523620605469e+00 8.606896933441993136e-14 1.741395520621011328e-13 7.806255641895631925e-14 -7.205774334422682115e-14
5.175000000000000000e+03 1.798130226135253906e+01 -1.165605926513671875e+01 -9.807859548387892756e-14 -4.203368474684290867e-14 -4.203368474684290867e-14 3.202566521438160452e-14
5.176000000000000000e+03 1.495322418212890625e+01 -8.143732070922851562e+00 4.328468803543351895e-14 6.430153040885497329e-14 3.227586519447336877e-14 8.006416303595401129e-14
5.177000000000000000e+03 3.892654037475585938e+01 -2.703755187988281250e+01 7.405934996122451319e-14 1.461170865291877563e-13 6.605293026949732305e-14 -6.805453688649501509e-14
5.178000000000000000e+03 4.054857635498046875e+01 -2.537054252624511719e+01 3.102486190588275849e-14 1.391114735340912012e-13 5.104090097080536681e-14 4.053248147816053415e-14
5.179000000000000000e+03 2.963311958312988281e+01 -1.357491302490234375e+01 -4.203368474684290867e-14 -1.801443583605670529e-14 -1.801443583605670529e-14 0.000000000000000000e+00
5.180000000000000000e+03 1.118247509002685547e+01 -1.126662349700927734e+01 1.030826086382413687e-13 -1.301042606982605321e-14 2.702165375408505793e-14 3.402726844324750755e-14
5.181000000000000000e+03 2.022641372680664062e+01 -1.395345973968505859e+01 -4.003208151797700565e-14 1.200962343895356499e-13 2.401924891078620339e-14 6.605293026949732305e-14
5.182000000000000000e+03 2.132014846801757812e+01 -9.541941642761230469e+00 8.556856937423640286e-14 2.196760433064923190e-13 9.157338244896590096e-14 1.200962343895356499e-13
5.183000000000000000e+03 7.222013092041015625e+01 -2.663232040405273438e+01 4.578669122448295048e-14 1.568757195544515093e-13 6.079872391130669573e-14 -1.501202929869195624e-14
5.184000000000000000e+03 2.220585632324218750e+01 -1.297149085998535156e+01 -1.401122768425900472e-14 -6.004812227696550847e-15 -6.004812227696550847e-15 1.541235129971785245e-13
5.185000000000000000e+03 1.060642719268798828e+01 -8.578025817871093750e+00 -7.906335633932337625e-14 -2.111692168783180223e-13 -8.706977603105056640e-14 -1.215974478226133915e-13
5.186000000000000000e+03 7.276943969726562500e+01 -1.710607528686523438e+01 9.207378240914942946e-14 2.802245536851800944e-14 3.602887167211341057e-14 -4.703769451307356075e-14
5.187000000000000000e+03 1.600343322753906250e+01 -8.944453239440917969e+00 9.607699564314481355e-14 -1.601283260719080226e-14 2.401924891078620339e-14 7.305854326459387815e-14
5.188000000000000000e+03 7.243344879150390625e+01 -3.544616699218750000e+01 -6.805453688649501509e-14 2.802245536851800944e-14 -1.200962445539310169e-14 -5.404330750817011586e-14
5.189000000000000000e+03 6.610257148742675781e+00 -1.018872642517089844e+01 2.001604075898850282e-15 5.804651735403371093e-14 1.801443583605670529e-14 3.002405859738391247e-14
5.190000000000000000e+03 6.086570739746093750e+00 -1.092962837219238281e+01 -5.804651735403371093e-14 -2.001604075898850282e-15 -1.801443583605670529e-14 -1.000802037949425141e-14
5.191000000000000000e+03 7.033381462097167969e+00 -1.149759197235107422e+01 1.751403460532375590e-15 7.506015284620688559e-16 7.506015284620688559e-16 2.602085213965210642e-14
5.192000000000000000e+03 6.594936370849609375e+00 -1.227482986450195312e+01 -1.165934346682509504e-13 4.153328478665938017e-14 -2.251804564210382886e-14 -5.404330750817011586e-14
5.193000000000000000e+03 2.656702232360839844e+01 -1.250885772705078125e+01 3.903127820947815962e-14 5.104090097080536681e-14 2.702165375408505793e-14 2.502005052521915490e-14
5.194000000000000000e+03 2.673980712890625000e+01 -9.957741737365722656e+00 9.326223739678299318e-14 3.996952982888817008e-14 3.996952982888817008e-14 -3.928147818956992388e-14
5.195000000000000000e+03 3.828186035156250000e+01 -1.449268817901611328e+01 -9.983000212078485536e-14 -4.278428468711820143e-14 -4.278428468711820143e-14 1.200962445539310169e-14
5.196000000000000000e+03 4.141625976562500000e+01 -2.853585243225097656e+01 5.004010189747125706e-15 2.502005052521915490e-14 9.007217918028352643e-15 3.803047490097931360e-14
5.197000000000000000e+03 3.947015762329101562e+01 -2.595470619201660156e+01 -8.031436301604577555e-14 -2.727185542824271669e-14 -3.227586519447336877e-14 -1.369847770914429941e-14
5.198000000000000000e+03 2.733444404602050781e+01 -1.060403251647949219e+01 -4.953969770212299228e-14 2.451964887096973189e-14 -7.506014649345978118e-15 -5.004010105043830980e-14
5.199000000000000000e+03 1.275443553924560547e+01 -1.041157436370849609e+01 -2.001604075898850282e-15 1.020818019416107336e-13 3.002405859738391247e-14 5.879711729430900369e-14
5.200000000000000000e+03 2.311641502380371094e+01 -1.195375347137451172e+01 2.602085213965210642e-14 3.402726844324750755e-14 1.801443583605670529e-14 1.180946345488015359e-13
5.201000000000000000e+03 4.366798400878906250e+01 -3.466060638427734375e+01 -3.677947500052049234e-14 -9.582678888678947127e-14 -3.978187814975345238e-14 3.502807175174635357e-14
5.202000000000000000e+03 4.645451736450195312e+01 -2.897497749328613281e+01 -6.505213034913026604e-14 -5.004010189747125706e-15 -2.101684237342145434e-14 -3.002405859738391247e-14
5.203000000000000000e+03 1.045966529846191406e+01 -6.518516540527343750e+00 -1.561251128379126385e-13 2.762213472274482884e-13 3.602887167211341057e-14 -4.203368474684290867e-14
5.204000000000000000e+03 2.231571388244628906e+01 -7.831855773925781250e+00 9.007218256841531545e-14 1.301042606982605321e-13 6.605293026949732305e-14 5.604491073703601889e-14
5.205000000000000000e+03 1.112200546264648438e+01 -6.939750671386718750e+00 -2.802245536851800944e-14 1.481186999224490264e-13 3.602887167211341057e-14 3.402726844324750755e-14
5.206000000000000000e+03 1.244370365142822266e+01 -7.559154510498046875e+00 -5.079070099071360256e-14 -2.176744400776264160e-14 -2.176744400776264160e-14 1.060850151756061177e-13
5.207000000000000000e+03 2.370938682556152344e+01 -9.278868675231933594e+00 -6.004811719476782494e-14 2.001604075898850282e-14 -1.200962445539310169e-14 1.361090737729900302e-13
5.208000000000000000e+03 2.293696212768554688e+01 -8.115297317504882812e+00 2.301844560228735737e-14 -1.731387521417340758e-13 -4.503609128420765773e-14 -2.802245536851800944e-14
5.209000000000000000e+03 8.794664382934570312e+00 -1.053748416900634766e+01 -4.003208151797700565e-15 -1.160930347080674219e-13 -3.602887167211341057e-14 -6.405133042876320904e-14
5.210000000000000000e+03 8.826873779296875000e+00 -6.940371513366699219e+00 -1.150922280114367868e-14 1.065854151357896462e-13 2.852285871683332696e-14 -1.481186999224490264e-13
5.211000000000000000e+03 1.546020507812500000e+01 -7.555547714233398438e+00 -6.305052373213257400e-14 -2.702165375408505793e-14 -2.702165375408505793e-14 2.221780431074099615e-13
5.212000000000000000e+03 2.260601806640625000e+01 -7.214863300323486328e+00 5.954771723458429644e-14 2.552045048540268340e-14 2.552045048540268340e-14 -3.602887167211341057e-14
5.213000000000000000e+03 2.196923446655273438e+01 -6.866131305694580078e+00 5.804651735403371093e-14 1.621299259126421366e-13 6.605293026949732305e-14 4.003208151797700565e-14
5.214000000000000000e+03 1.969034957885742188e+01 -1.031662845611572266e+01 8.206576287668812530e-14 2.181748434259417335e-13 9.007218256841531545e-14 1.401122870069854143e-13
5.215000000000000000e+03 1.920658683776855469e+01 -7.454713344573974609e+00 1.000802021008766196e-13 1.801443651368306309e-13 8.406736949368581735e-14 7.806255641895631925e-14
5.216000000000000000e+03 2.293340110778808594e+01 -1.014476585388183594e+01 -5.004010105043830980e-14 -9.007218256841531545e-14 -4.203368474684290867e-14 5.604491073703601889e-14
5.217000000000000000e+03 2.343058586120605469e+01 -8.557287216186523438e+00 1.981587908084919691e-13 6.204972381176551699e-14 7.806255641895631925e-14 4.003208151797700565e-15
5.218000000000000000e+03 9.383617401123046875e+00 -6.465007781982421875e+00 -3.366760470131617555e-14 3.484511127988670909e-13 9.443505276807845350e-14 -2.154851817814940063e-14
5.219000000000000000e+03 1.443339061737060547e+01 -7.666247367858886719e+00 -1.200962445539310169e-14 -1.881507780522942430e-13 -6.004811719476782494e-14 1.433648935244419276e-13
5.220000000000000000e+03 1.594014263153076172e+01 -7.983273029327392578e+00 4.453568793589234021e-14 1.105886215935214523e-13 4.653729455289003225e-14 1.641315257533762506e-13
5.221000000000000000e+03 8.532755851745605469e+00 -8.816357612609863281e+00 -1.531227130768114675e-13 3.002406113848275424e-15 -4.503609128420765773e-14 -6.605293026949732305e-14
5.222000000000000000e+03 1.606633949279785156e+01 -1.072335147857666016e+01 -5.604491073703601889e-14 1.361090737729900302e-13 2.401924891078620339e-14 1.921539912862896271e-13
5.223000000000000000e+03 1.649954414367675781e+01 -7.460725784301757812e+00 -8.681957605095880215e-14 5.429350748826188011e-14 -9.757819552369539906e-15 2.742197473867141744e-13
5.224000000000000000e+03 1.786208343505859375e+01 -8.344964981079101562e+00 1.621299259126421366e-13 5.804651735403371093e-14 6.605293026949732305e-14 9.307458910578006450e-14
5.225000000000000000e+03 1.790769958496093750e+01 -7.293824672698974609e+00 1.521218996039172544e-13 -7.205774334422682115e-14 2.401924891078620339e-14 1.681347389873716347e-13
5.226000000000000000e+03 1.150862693786621094e+01 -1.005137538909912109e+01 8.606896933441993136e-14 1.741395520621011328e-13 7.806255641895631925e-14 5.804651735403371093e-14
5.227000000000000000e+03 2.792205619812011719e+01 -1.112906360626220703e+01 1.015814019814272051e-13 4.353488801552528320e-14 4.353488801552528320e-14 -4.803849782157240678e-14
5.228000000000000000e+03 1.695014572143554688e+01 -1.086717605590820312e+01 -6.004812227696550847e-15 6.605293026949732305e-14 1.801443583605670529e-14 2.321860694161348437e-13
5.229000000000000000e+03 1.547254848480224609e+01 -8.578210830688476562e+00 -5.504410996963601463e-15 -1.396118734942747297e-13 -4.353488801552528320e-14 2.201764432666758475e-13
5.230000000000000000e+03 2.559984588623046875e+01 -1.011060905456542969e+01 1.000802021008766196e-13 1.801443651368306309e-13 8.406736949368581735e-14 7.205774334422682115e-14
5.231000000000000000e+03 2.567255020141601562e+01 -1.081581878662109375e+01 -5.304250758780305885e-14 2.301844560228735737e-14 -9.007217918028352643e-15 -1.120898214740720378e-13
5.232000000000000000e+03 2.475355720520019531e+01 -1.005112552642822266e+01 -3.502807175174635357e-14 -1.501202929869195624e-14 -1.501202929869195624e-14 2.321860694161348437e-13
5.233000000000000000e+03 2.513340187072753906e+01 -1.182554721832275391e+01 -7.005614350349270714e-14 1.301042606982605321e-13 1.801443583605670529e-14 1.220978477827969200e-13
5.234000000000000000e+03 1.917523574829101562e+01 -1.225187301635742188e+01 -1.301042606982605321e-14 -9.707779556351187056e-14 -3.302646513474866152e-14 9.207378240914942946e-14
5.235000000000000000e+03 2.024738311767578125e+01 -1.301132202148437500e+01 -1.020818019416107336e-13 -1.581267126786467525e-13 -7.806255641895631925e-14 2.201764432666758475e-13
5.236000000000000000e+03 1.934611892700195312e+01 -9.465569496154785156e+00 -1.240994476235310340e-13 8.406736949368581735e-14 -1.200962445539310169e-14 1.000802021008766196e-13
5.237000000000000000e+03 2.542412757873535156e+01 -1.278979206085205078e+01 -1.341074739322559162e-13 1.941555911270237411e-13 1.801443583605670529e-14 2.001604075898850282e-15
5.238000000000000000e+03 2.676753425598144531e+01 -1.115504360198974609e+01 1.626303258728256651e-14 -3.878107822938639537e-14 -6.755413438521264483e-15 -1.601283260719080226e-14
5.239000000000000000e+03 2.414416122436523438e+01 -1.192322349548339844e+01 3.002406113848275424e-15 2.071660171968497943e-13 6.305052373213257400e-14 6.004811719476782494e-14
5.240000000000000000e+03 2.488512420654296875e+01 -1.092914199829101562e+01 -6.305052373213257400e-14 1.331066604593617031e-13 2.101684237342145434e-14 1.200962343895356499e-13
5.241000000000000000e+03 1.456834125518798828e+01 -9.883471488952636719e+00 1.333568672157170454e-13 -1.258508542604369618e-13 2.251804479507088161e-15 2.421940957248597259e-13
5.242000000000000000e+03 8.265072822570800781e+00 -7.483079433441162109e+00 -1.511210996835501974e-13 1.010810020212436766e-13 -1.501202929869195624e-14 -1.160930347080674219e-13
5.243000000000000000e+03 7.499355792999267578e+00 -1.075379657745361328e+01 6.004812227696550847e-15 9.407538902614712151e-14 3.002405859738391247e-14 -1.301042606982605321e-13
5.244000000000000000e+03 4.408376693725585938e+01 -3.235522842407226562e+01 1.501202929869195624e-14 -5.004010189747125706e-15 3.002406113848275424e-15 -5.454371085648543338e-14
5.245000000000000000e+03 8.689859390258789062e+00 -1.260824203491210938e+01 1.446158866486371708e-13 -8.957178260823178695e-14 1.651323256737433076e-14 -4.478589130411589347e-14
5.246000000000000000e+03 1.105503749847412109e+01 -9.278767585754394531e+00 -5.804651735403371093e-14 -2.001604075898850282e-15 -1.801443583605670529e-14 6.905533680686207210e-14
5.247000000000000000e+03 2.384669303894042969e+01 -1.012338066101074219e+01 3.302646513474866152e-14 3.702967498061225660e-14 2.101684237342145434e-14 1.000802037949425141e-14
5.248000000000000000e+03 9.981491088867187500e+00 -7.004593849182128906e+00 -1.220978477827969200e-13 1.421138868477195283e-13 6.004812227696550847e-15 -7.756215645877279075e-14
5.249000000000000000e+03 1.121521091461181641e+01 -8.178150177001953125e+00 -1.070858150959731747e-13 9.707779556351187056e-14 -3.002406113848275424e-15 7.506014649345978118e-15
5.250000000000000000e+03 2.111863899230957031e+01 -7.167555332183837891e+00 -2.702165375408505793e-14 2.171740299530475204e-13 5.704571743366665393e-14 8.406736949368581735e-14
5.251000000000000000e+03 7.510822772979736328e+00 -7.644831657409667969e+00 -1.160930347080674219e-13 3.162534253572935050e-13 6.004811719476782494e-14 -8.606896933441993136e-14
5.252000000000000000e+03 1.186095619201660156e+01 -7.204955577850341797e+00 -1.261010474642651480e-13 -5.404330750817011586e-14 -5.404330750817011586e-14 5.204170427930421283e-14
5.253000000000000000e+03 1.342035388946533203e+01 -7.700163364410400391e+00 2.114194236346733646e-14 -8.244106623495756070e-14 -1.838973750026024617e-14 1.901523745048965680e-14
5.254000000000000000e+03 1.296461868286132812e+01 -7.179696083068847656e+00 1.361090737729900302e-13 1.040834085586084257e-13 7.205774334422682115e-14 -3.602887167211341057e-14
5.255000000000000000e+03 1.391999912261962891e+01 -8.224221229553222656e+00 6.147113254615504951e-14 9.992382457222042519e-15 2.143905611037572739e-14 2.452746867913878359e-14
5.256000000000000000e+03 2.286932945251464844e+01 -9.350862503051757812e+00 7.906335633932337625e-14 1.711371387484728057e-13 7.506014988159157020e-14 -1.801443583605670529e-14
5.257000000000000000e+03 2.080745124816894531e+01 -7.633605957031250000e+00 -2.016616040823038247e-13 1.165934346682509504e-13 -2.552045048540268340e-14 7.380914998113274894e-14
5.258000000000000000e+03 2.206060600280761719e+01 -8.522067070007324219e+00 -5.704571743366665393e-14 6.705373696612795809e-14 3.002406113848275424e-15 8.807057595141762341e-14
5.259000000000000000e+03 2.280200004577636719e+01 -8.663713455200195312e+00 1.531227130768114675e-13 1.571259127582796955e-13 9.307458910578006450e-14 3.202566521438160452e-14
5.260000000000000000e+03 9.443982124328613281e+00 -7.492619514465332031e+00 -1.511210996835501974e-13 1.010810020212436766e-13 -1.501202929869195624e-14 -4.078268145825229840e-14
5.261000000000000000e+03 1.445776748657226562e+01 -8.741862297058105469e+00 4.078268145825229840e-14 -2.827265704267566820e-14 3.753007324672989059e-15 1.421138868477195283e-13
5.262000000000000000e+03 1.963020324707031250e+01 -8.292601585388183594e+00 -1.140914348673333079e-13 5.404330750817011586e-14 -1.801443583605670529e-14 3.202566521438160452e-14
5.263000000000000000e+03 2.027639770507812500e+01 -7.969353675842285156e+00 9.307458910578006450e-14 2.972381997652651098e-13 1.170938346284344789e-13 6.955573676704560060e-14
5.264000000000000000e+03 1.683115577697753906e+01 -8.030689239501953125e+00 1.781427517435693608e-13 1.220978477827969200e-13 9.007218256841531545e-14 1.321058605389946461e-13
5.265000000000000000e+03 1.338268470764160156e+01 -8.745938301086425781e+00 1.251002547436781426e-16 5.366800753803246948e-14 1.613793259723668438e-14 4.115798142838994478e-14
5.266000000000000000e+03 1.503232288360595703e+01 -9.218962669372558594e+00 9.457578898633065001e-14 4.053248147816053415e-14 4.053248147816053415e-14 4.003208151797700565e-14
5.267000000000000000e+03 1.898961067199707031e+01 -1.142215156555175781e+01 9.207378240914942946e-14 2.682149478645118323e-13 1.080866150163402317e-13 1.601283260719080226e-13
5.268000000000000000e+03 1.827855491638183594e+01 -9.007696151733398438e+00 -1.080866150163402317e-13 -1.200962445539310169e-14 -3.602887167211341057e-14 1.160930347080674219e-13
5.269000000000000000e+03 1.527313804626464844e+01 -1.036669063568115234e+01 1.566255127980961670e-13 1.586271126388302810e-13 9.457578898633065001e-14 5.604491073703601889e-14
5.270000000000000000e+03 1.219398880004882812e+01 -9.662209510803222656e+00 -7.005613842129502361e-15 3.702967498061225660e-14 9.007217918028352643e-15 1.951563910473907981e-14
5.271000000000000000e+03 1.063762378692626953e+01 -7.525815486907958984e+00 -8.957178260823178695e-14 8.456776945386934585e-14 -1.501203056924137712e-15 -4.278428468711820143e-14
5.272000000000000000e+03 1.394332981109619141e+01 -9.331090927124023438e+00 2.268223959079728597e-14 1.927247559674674648e-13 6.462209510994104678e-14 1.632558258230550757e-14
5.273000000000000000e+03 8.880577087402343750e+00 -8.053491592407226562e+00 8.406736949368581735e-14 1.160930347080674219e-13 6.004811719476782494e-14 -1.296038607380770036e-13
5.274000000000000000e+03 9.781764030456542969e+00 -1.060296821594238281e+01 5.804651735403371093e-14 2.001604075898850282e-15 1.801443583605670529e-14 -5.804651735403371093e-14
5.275000000000000000e+03 2.397520446777343750e+01 -1.099711513519287109e+01 -3.302646513474866152e-14 -1.971579908881249121e-13 -6.905533680686207210e-14 8.006416303595401129e-14
5.276000000000000000e+03 1.788071441650390625e+01 -1.079159450531005859e+01 1.140914348673333079e-13 1.861491782115601290e-13 9.007218256841531545e-14 2.001604042017532392e-13
5.277000000000000000e+03 1.635997772216796875e+01 -8.374310493469238281e+00 2.001604075898850282e-15 5.804651735403371093e-14 1.801443583605670529e-14 2.004105974055814254e-13
5.278000000000000000e+03 2.299565887451171875e+01 -1.101084423065185547e+01 -2.802245536851800944e-14 1.481186999224490264e-13 3.602887167211341057e-14 1.060850151756061177e-13
5.279000000000000000e+03 2.092623329162597656e+01 -1.099123287200927734e+01 6.505213034913026604e-14 5.004010189747125706e-15 2.101684237342145434e-14 1.421138868477195283e-13
5.280000000000000000e+03 2.110021781921386719e+01 -1.199828529357910156e+01 8.006416303595401129e-15 -8.807057595141762341e-14 -2.401924891078620339e-14 3.803047490097931360e-14
5.281000000000000000e+03 6.988085937500000000e+01 -3.677673339843750000e+01 -3.202566521438160452e-14 3.202566521438160452e-14 0.000000000000000000e+00 -1.951563910473907981e-14
5.282000000000000000e+03 7.961386203765869141e+00 -1.002442359924316406e+01 -6.660806211060063542e-14 -2.854631475320869305e-14 -2.854631475320869305e-14 -8.450521776478051028e-14
5.283000000000000000e+03 1.007002449035644531e+01 -7.997571945190429688e+00 -4.253408470702643718e-14 1.676343390271881062e-13 3.753007494079578510e-14 -1.188452412653404067e-13
5.284000000000000000e+03 1.230411815643310547e+01 -8.557978630065917969e+00 -9.057258252859884395e-14 -8.456776945386934585e-14 -5.254210423948774134e-14 3.602887167211341057e-14
5.285000000000000000e+03 1.288251781463623047e+01 -8.153526306152343750e+00 7.430954994131627744e-14 1.233488409069921632e-13 5.929751725449253219e-14 -4.003208151797700565e-14
5.286000000000000000e+03 8.658574104309082031e+00 -9.691617965698242188e+00 -4.503609128420765773e-14 -6.505213034913026604e-14 -3.302646513474866152e-14 -9.607699564314481355e-14
5.287000000000000000e+03 9.594251632690429688e+00 -8.449147224426269531e+00 -9.007218256841531545e-14 3.002405859738391247e-14 -1.801443583605670529e-14 -7.305854326459387815e-14
5.288000000000000000e+03 1.004228401184082031e+01 -8.905584335327148438e+00 1.000802037949425141e-15 -9.107298248878237246e-14 -2.702165375408505793e-14 -4.003208151797700565e-15
5.289000000000000000e+03 2.200890159606933594e+01 -1.006440067291259766e+01 -5.304250758780305885e-14 2.301844560228735737e-14 -9.007217918028352643e-15 1.200962343895356499e-13
5.290000000000000000e+03 2.134108924865722656e+01 -8.157395362854003906e+00 6.004811719476782494e-14 2.201764432666758475e-13 8.406736949368581735e-14 1.561251128379126385e-13
5.291000000000000000e+03 2.057616424560546875e+01 -1.000651550292968750e+01 -3.202566521438160452e-14 -2.081668171172168513e-13 -7.205774334422682115e-14 6.004811719476782494e-14
5.292000000000000000e+03 1.894985389709472656e+01 -8.647662162780761719e+00 1.736391521019176043e-13 2.116696303910287069e-13 1.155926347478838934e-13 1.321058605389946461e-13
5.293000000000000000e+03 1.703547096252441406e+01 -1.004201602935791016e+01 -7.806255641895631925e-14 5.804651735403371093e-14 -6.004812227696550847e-15 2.001604042017532392e-13
5.294000000000000000e+03 1.735129356384277344e+01 -8.809523582458496094e+00 -2.622101212372551782e-13 1.621299259126421366e-13 -3.002405859738391247e-14 1.601283260719080226e-13
5.295000000000000000e+03 1.857234382629394531e+01 -9.769146919250488281e+00 4.003208151797700565e-14 2.001604042017532392e-13 7.205774334422682115e-14 1.381106736137241442e-13
5.296000000000000000e+03 1.281042957305908203e+01 -9.226115226745605469e+00 -5.504410996963601463e-15 1.806447650970141594e-13 5.254210423948774134e-14 4.003208151797700565e-14
5.297000000000000000e+03 2.079498100280761719e+01 -8.712317466735839844e+00 -7.656135653840573374e-14 6.154932385158198849e-14 -4.503608959014176322e-15 9.432558900623888576e-14
5.298000000000000000e+03 1.879669570922851562e+01 -1.058423805236816406e+01 -2.181748434259417335e-13 -2.001604075898850282e-15 -6.605293026949732305e-14 4.003208151797700565e-14
5.299000000000000000e+03 1.995709800720214844e+01 -1.120111846923828125e+01 -6.905533680686207210e-14 -1.210970478624298630e-13 -5.704571743366665393e-14 1.040834085586084257e-13
5.300000000000000000e+03 2.195528221130371094e+01 -1.094556427001953125e+01 -4.003208151797700565e-15 -1.160930347080674219e-13 -3.602887167211341057e-14 7.806255641895631925e-14
5.301000000000000000e+03 2.203669166564941406e+01 -9.292630195617675781e+00 1.110890215537049808e-13 1.391114735340912012e-13 7.506014988159157020e-14 1.981587908084919691e-13
5.302000000000000000e+03 9.548390388488769531e+00 -9.706661224365234375e+00 1.501202929869195624e-14 7.506014988159157020e-14 2.702165375408505793e-14 -5.604491073703601889e-14
5.303000000000000000e+03 3.827953338623046875e+01 -3.341009140014648438e+01 -2.927345865710861972e-14 -5.829671733412547519e-14 -2.627105211974387067e-14 -2.301844560228735737e-14
5.304000000000000000e+03 2.009096908569335938e+01 -9.119222640991210938e+00 6.004811719476782494e-14 1.401122870069854143e-13 6.004811719476782494e-14 6.405133042876320904e-14
5.305000000000000000e+03 1.338324451446533203e+01 -9.893045425415039062e+00 7.430954994131627744e-14 -1.969077976842967259e-13 -3.677947500052049234e-14 7.205774334422682115e-14
5.306000000000000000e+03 1.565234279632568359e+01 -9.619783401489257812e+00 -8.006416303595401129e-15 8.006416303595401129e-15 0.000000000000000000e+00 2.031628039628544102e-13
5.307000000000000000e+03 1.187382793426513672e+01 -7.882411003112792969e+00 9.207378240914942946e-14 1.080866150163402317e-13 6.004811719476782494e-14 -4.703769451307356075e-14
5.308000000000000000e+03 1.766904449462890625e+01 -9.301701545715332031e+00 -2.502005052521915490e-14 3.552847035667716646e-13 9.907939540424598457e-14 2.281828697346666157e-13
5.309000000000000000e+03 1.656022834777832031e+01 -9.203221321105957031e+00 -4.803849782157240678e-14 -1.120898214740720378e-13 -4.803849782157240678e-14 1.821459649775647449e-13
5.310000000000000000e+03 1.169153308868408203e+01 -8.925716400146484375e+00 2.001604075898850282e-14 -1.401122870069854143e-13 -3.602887167211341057e-14 1.451162933850842773e-14
5.311000000000000000e+03 4.148648452758789062e+01 -3.476672744750976562e+01 -3.002406113848275424e-15 -4.703769451307356075e-14 -1.501202929869195624e-14 -3.452766840343103605e-14
5.312000000000000000e+03 1.079407310485839844e+01 -3.612554168701171875e+01 -3.352686848306397904e-14 8.506817110811876886e-15 -7.506014649345978118e-15 1.100882199392720293e-14
5.313000000000000000e+03 1.391363716125488281e+01 -3.752721786499023438e+01 -2.802245536851800944e-14 -1.200962445539310169e-14 -1.200962445539310169e-14 3.302646513474866152e-14
5.314000000000000000e+03 4.058184051513671875e+01 -3.829716873168945312e+01 -2.552045048540268340e-14 -5.954771723458429644e-14 -2.552045048540268340e-14 -5.254210593355363584e-15
5.315000000000000000e+03 3.913459396362304688e+01 -3.574128341674804688e+01 -1.651323256737433076e-14 2.151724233360498284e-14 1.501203056924137712e-15 1.000802037949425141e-15
5.316000000000000000e+03 3.274058914184570312e+01 -3.910267639160156250e+01 -2.126704235351321859e-14 -6.630313024958908730e-14 -2.627105211974387067e-14 -1.200962445539310169e-14
5.317000000000000000e+03 5.784570693969726562e+01 -4.093967056274414062e+01 1.000802037949425141e-15 2.902325867701685547e-14 9.007217918028352643e-15 -8.006416303595401129e-15
5.318000000000000000e+03 6.197233200073242188e+01 -4.108565521240234375e+01 -1.726383420171551802e-14 1.298540539419051898e-13 3.377706846315574329e-14 1.501202929869195624e-14
5.319000000000000000e+03 5.428691482543945312e+01 -3.932376098632812500e+01 -1.344827688201958790e-14 -9.726544385451479924e-14 -3.321411681388337922e-14 1.125902282105191443e-14
5.320000000000000000e+03 1.987933921813964844e+01 -3.839131927490234375e+01 -5.954771723458429644e-14 1.451162933850842773e-14 -1.351082687704252897e-14 -1.401122768425900472e-14
5.321000000000000000e+03 3.257149505615234375e+01 -4.140556335449218750e+01 -1.000802037949425141e-15 1.100882199392720293e-14 3.002406113848275424e-15 4.703769451307356075e-14
5.322000000000000000e+03 7.207237243652343750e+01 -3.726192474365234375e+01 -2.251804564210382886e-14 4.753809447325708926e-14 7.506014649345978118e-15 -4.403528797570881170e-14
5.323000000000000000e+03 8.393682479858398438e+00 -3.884931564331054688e+01 -3.853087824929463112e-14 -1.651323256737433076e-14 -1.651323256737433076e-14 -1.100882199392720293e-14
5.324000000000000000e+03 6.674359130859375000e+01 -3.793899154663085938e+01 -4.716279450311944288e-14 1.284779574395322754e-13 2.439454888092384977e-14 -1.301042606982605321e-14
5.325000000000000000e+03 6.810129547119140625e+01 -4.126124572753906250e+01 -4.978990107034654555e-14 1.673841322708327639e-13 3.527827173183811782e-14 -2.902325867701685547e-14
5.326000000000000000e+03 4.679893112182617188e+01 -4.089779281616210938e+01 1.976583908483084406e-14 -3.727987496070402085e-14 -5.254210593355363584e-15 -3.152526186606628700e-14
5.327000000000000000e+03 3.672812271118164062e+01 -3.890886306762695312e+01 -4.878909776184769953e-14 -4.378508799561704745e-14 -2.777225538842624519e-14 2.001604075898850282e-15
5.328000000000000000e+03 6.911251831054687500e+01 -3.891201019287109375e+01 -6.305052373213257400e-14 1.331066604593617031e-13 2.101684237342145434e-14 2.201764398785440585e-14
5.329000000000000000e+03 5.196083450317382812e+01 -3.671828842163085938e+01 -3.252606517456513302e-15 -2.426944889087796764e-14 -8.256616283687165381e-15 2.702165375408505793e-14
5.330000000000000000e+03 1.542826557159423828e+01 -3.974202346801757812e+01 -4.628709118466647898e-14 -2.126704235351321859e-14 -2.026624073908026707e-14 -8.381717120765994761e-15
5.331000000000000000e+03 4.116385650634765625e+01 -9.799816131591796875e+00 -1.100882216333379238e-13 -5.504410946141624628e-13 -1.981587908084919691e-13 -7.205774334422682115e-14
5.332000000000000000e+03 2.226815795898437500e+01 -2.830978155136108398e+00 1.721379386688398627e-13 2.802245536851800944e-14 6.004811719476782494e-14 -1.361090737729900302e-13
5.333000000000000000e+03 4.128878402709960938e+01 -9.278579711914062500e+00 2.802245536851800944e-14 1.200962445539310169e-14 1.200962445539310169e-14 -1.601283260719080226e-13
5.334000000000000000e+03 1.922589302062988281e+01 -3.439419984817504883e+00 -1.481186999224490264e-13 2.802245536851800944e-14 -3.602887167211341057e-14 -3.402726844324750755e-14
5.335000000000000000e+03 7.102496337890625000e+01 -1.652415657043457031e+01 8.807057595141762341e-14 2.321860694161348437e-13 9.607699564314481355e-14 -9.807859548387892756e-14
5.336000000000000000e+03 7.779376220703125000e+01 -3.581570816040039062e+01 4.503608959014176322e-15 7.055654346367623564e-14 2.251804564210382886e-14 2.802245536851800944e-14
5.337000000000000000e+03 6.210244750976562500e+01 -3.664894485473632812e+01 -2.151724233360498284e-14 3.652927163229693908e-14 4.503608959014176322e-15 2.708420374910799899e-14
5.338000000000000000e+03 6.489173126220703125e+01 -3.434096908569335938e+01 3.133761357506335832e-14 1.506832581887190825e-13 5.460625915744247993e-14 1.008308020411519124e-13
5.339000000000000000e+03 9.955475807189941406e+00 -1.300022792816162109e+01 1.220978477827969200e-13 -2.221780431074099615e-13 -3.002405859738391247e-14 -8.006416303595401129e-14
5.340000000000000000e+03 3.915966415405273438e+01 -1.609815979003906250e+01 -1.261010474642651480e-13 -5.404330750817011586e-14 -5.404330750817011586e-14 -3.177546523428984027e-14
5.341000000000000000e+03 5.273080348968505859e+00 -3.330350112915039062e+01 -3.753007494079578510e-14 -1.075862150561567032e-13 -4.353488801552528320e-14 1.200962445539310169e-14
5.342000000000000000e+03 8.579017639160156250e+00 -3.462290573120117188e+01 -3.652927163229693908e-14 -3.853087824929463112e-14 -2.251804564210382886e-14 -2.001604075898850282e-15
5.343000000000000000e+03 4.717779541015625000e+01 -3.186962890625000000e+01 -4.503609128420765773e-14 -6.505213034913026604e-14 -3.302646513474866152e-14 -2.702165375408505793e-14
5.344000000000000000e+03 7.304895019531250000e+01 -1.784952926635742188e+01 1.020818019416107336e-13 -2.001604075898850282e-15 3.002405859738391247e-14 2.802245536851800944e-14
5.345000000000000000e+03 3.923801040649414062e+01 -1.914710998535156250e+01 -2.727185542824271669e-14 7.981396305586224704e-14 1.576263093303314350e-14 1.200962445539310169e-14
5.346000000000000000e+03 3.607223129272460938e+01 -3.630326080322265625e+01 -1.301042606982605321e-14 -5.704571743366665393e-14 -2.101684237342145434e-14 -2.201764398785440585e-14
5.347000000000000000e+03 5.794053554534912109e+00 -9.636789321899414062e+00 -1.070858150959731747e-13 1.701363422162375377e-14 -2.702165375408505793e-14 3.052446194569922999e-14
5.348000000000000000e+03 8.464016914367675781e+00 -1.132358837127685547e+01 7.506014988159157020e-14 5.504411081666896188e-14 3.903127820947815962e-14 -1.701363422162375377e-14
5.349000000000000000e+03 7.569508361816406250e+01 -1.752736282348632812e+01 2.602085213965210642e-14 -4.463576860555540371e-13 -1.261010474642651480e-13 3.602887167211341057e-14
5.350000000000000000e+03 1.923836326599121094e+01 -1.384734630584716797e+01 -3.602887167211341057e-14 -2.441956955655938399e-13 -8.406736949368581735e-14 2.261812563414053456e-13
5.351000000000000000e+03 1.779574584960937500e+01 -9.988880157470703125e+00 -1.351082738526229732e-13 -1.951563910473907981e-13 -9.907939540424598457e-14 2.121700303512122354e-13
5.352000000000000000e+03 7.397318267822265625e+01 -3.100724220275878906e+01 4.453568793589234021e-14 -4.953969770212299228e-14 -1.501203056924137712e-15 -3.002405859738391247e-14
5.353000000000000000e+03 7.512133026123046875e+01 -1.910592269897460938e+01 4.953969770212299228e-14 -2.451964887096973189e-14 7.506014649345978118e-15 3.202566521438160452e-14
5.354000000000000000e+03 7.418081665039062500e+01 -2.865445899963378906e+01 1.581267126786467525e-13 2.201764398785440585e-14 5.404330750817011586e-14 -3.602887167211341057e-14
5.355000000000000000e+03 1.711842918395996094e+01 -9.363860130310058594e+00 -1.401122768425900472e-14 -6.004812227696550847e-15 -6.004812227696550847e-15 1.521218996039172544e-13
5.356000000000000000e+03 2.624376296997070312e+01 -1.050282669067382812e+01 -8.757017937936588392e-15 3.165036321136488473e-13 9.232398238924119371e-14 -8.206576287668812530e-14
5.357000000000000000e+03 7.409254455566406250e+01 -2.662877655029296875e+01 2.401924891078620339e-14 -1.040834085586084257e-13 -2.401924891078620339e-14 2.001604075898850282e-14
5.358000000000000000e+03 7.430087280273437500e+01 -2.978932189941406250e+01 -5.904731727440076794e-14 8.907137587178468041e-14 9.007217918028352643e-15 -2.201764398785440585e-14
5.359000000000000000e+03 1.567821502685546875e+01 -6.085746288299560547e+00 2.001604075898850282e-15 -1.821459649775647449e-13 -5.404330750817011586e-14 1.681347389873716347e-13
5.360000000000000000e+03 1.284440517425537109e+01 -6.588350772857666016e+00 -4.403528797570881170e-14 -1.561251128379126385e-13 -6.004811719476782494e-14 -4.003208151797700565e-14
5.361000000000000000e+03 2.592854309082031250e+01 -9.440920829772949219e+00 8.606896933441993136e-14 1.741395520621011328e-13 7.806255641895631925e-14 -6.505213034913026604e-14
5.362000000000000000e+03 1.145376777648925781e+01 -6.268047332763671875e+00 -1.401122870069854143e-13 1.000802021008766196e-13 -1.200962445539310169e-14 -1.601283260719080226e-14
5.363000000000000000e+03 2.282382774353027344e+01 -1.254940986633300781e+00 -1.030826086382413687e-13 -1.070858150959731747e-13 -6.305052373213257400e-14 8.932157585187644466e-14
5.364000000000000000e+03 2.256977462768554688e+01 -1.718354582786560059e+00 1.561251128379126385e-13 -1.160930347080674219e-13 1.200962445539310169e-14 -4.803849782157240678e-14
5.365000000000000000e+03 2.334398841857910156e+01 -1.565956354141235352e+00 -4.603689120457471473e-14 -1.341074739322559162e-13 -5.404330750817011586e-14 -1.200962445539310169e-14
5.366000000000000000e+03 2.167020797729492188e+01 -8.735872507095336914e-01 -2.101684169579509653e-13 -9.007218256841531545e-14 -9.007218256841531545e-14 -2.001604075898850282e-14
5.367000000000000000e+03 2.059973526000976562e+01 -1.247233986854553223e+00 1.170938346284344789e-13 1.130906281707026728e-13 6.905533680686207210e-14 -6.430153040885497329e-14
5.368000000000000000e+03 1.934515953063964844e+01 -1.341112852096557617e+00 5.104090097080536681e-14 -1.000802037949425141e-15 1.501202929869195624e-14 -1.080866150163402317e-13
5.369000000000000000e+03 1.934861373901367188e+01 -2.084885120391845703e+00 -6.605293026949732305e-14 -7.405934996122451319e-14 -4.203368474684290867e-14 -4.803849782157240678e-14
5.370000000000000000e+03 2.073599433898925781e+01 -2.036439895629882812e+00 4.003208151797700565e-15 2.762213472274482884e-13 8.406736949368581735e-14 -2.081668171172168513e-13
5.371000000000000000e+03 2.133476257324218750e+01 -1.913531541824340820e+00 6.605293026949732305e-14 -8.606896933441993136e-14 -6.004812227696550847e-15 -5.804651735403371093e-14
5.372000000000000000e+03 2.008976745605468750e+01 -2.088399410247802734e+00 -5.204170427930421283e-14 -6.805453688649501509e-14 -3.602887167211341057e-14 2.041636038832214672e-13
5.373000000000000000e+03 2.014948654174804688e+01 -1.558596134185791016e+00 1.321058605389946461e-13 1.481186999224490264e-13 8.406736949368581735e-14 1.601283260719080226e-13
5.374000000000000000e+03 9.576753616333007812e+00 -3.928347527980804443e-01 -1.881507780522942430e-13 -1.200962445539310169e-14 -6.004811719476782494e-14 -5.404330750817011586e-14
5.375000000000000000e+03 9.504050254821777344e+00 -1.132834792137145996e+00 -2.331868693365019007e-13 8.306656957331876034e-14 -4.503609128420765773e-14 1.601283260719080226e-14
5.376000000000000000e+03 8.792594909667968750e+00 -3.964475393295288086e-01 -1.661331391466375207e-13 -9.407538902614712151e-14 -7.806255641895631925e-14 -7.405934996122451319e-14
5.377000000000000000e+03 8.008638381958007812e+00 -3.979170620441436768e-01 -1.481186999224490264e-13 -1.321058605389946461e-13 -8.406736949368581735e-14 -3.803047490097931360e-14
5.378000000000000000e+03 7.224994659423828125e+00 -3.992207646369934082e-01 -6.405133042876320904e-14 -9.607699564314481355e-14 -4.803849782157240678e-14 -3.202566521438160452e-14
5.379000000000000000e+03 6.441524982452392578e+00 -4.004793763160705566e-01 5.804651735403371093e-14 2.001604075898850282e-15 1.801443583605670529e-14 4.003208151797700565e-15
5.380000000000000000e+03 5.658351421356201172e+00 -4.034211039543151855e-01 3.402726844324750755e-14 1.060850151756061177e-13 4.203368474684290867e-14 1.020818019416107336e-13
5.381000000000000000e+03 4.875236511230468750e+00 -4.076028764247894287e-01 -6.605293026949732305e-14 8.606896933441993136e-14 6.004812227696550847e-15 -5.004010105043830980e-14
5.382000000000000000e+03 4.092308998107910156e+00 -4.107097685337066650e-01 -4.203368474684290867e-14 -1.801443583605670529e-14 -1.801443583605670529e-14 -2.401924891078620339e-14
5.383000000000000000e+03 2.531672000885009766e+00 -4.164903461933135986e-01 -6.004811719476782494e-14 -1.401122870069854143e-13 -6.004811719476782494e-14 -3.402726844324750755e-14
5.384000000000000000e+03 2.214911937713623047e+00 -1.156490325927734375e+00 1.200962445539310169e-14 1.881507780522942430e-13 6.004811719476782494e-14 -3.002405859738391247e-14
5.385000000000000000e+03 3.740455806255340576e-01 -5.643077492713928223e-01 -2.101684237342145434e-14 -9.007217918028352643e-15 -9.007217918028352643e-15 -1.000802037949425141e-14
5.386000000000000000e+03 1.421646475791931152e+00 -1.153123378753662109e+00 -3.803047490097931360e-14 9.807859548387892756e-14 1.801443583605670529e-14 1.341074739322559162e-13
5.387000000000000000e+03 8.692774772644042969e+00 -1.136447548866271973e+00 -1.000802037949425141e-15 9.107298248878237246e-14 2.702165375408505793e-14 -2.401924891078620339e-14
5.388000000000000000e+03 7.881700515747070312e+00 -1.137917041778564453e+00 -5.004010105043830980e-14 7.005614350349270714e-14 6.004812227696550847e-15 -4.803849782157240678e-14
5.389000000000000000e+03 7.070939540863037109e+00 -1.139220714569091797e+00 3.302646513474866152e-14 3.702967498061225660e-14 2.101684237342145434e-14 -8.206576287668812530e-14
5.390000000000000000e+03 6.260352134704589844e+00 -1.140479445457458496e+00 -7.005613842129502361e-15 1.571259127582796955e-13 4.503609128420765773e-14 4.803849782157240678e-14
5.391000000000000000e+03 5.450060844421386719e+00 -1.143421053886413574e+00 -4.303448466720996568e-14 7.305854326459387815e-14 9.007217918028352643e-15 5.804651735403371093e-14
5.392000000000000000e+03 4.639828681945800781e+00 -1.147602915763854980e+00 -4.003208151797700565e-15 4.403528797570881170e-14 1.200962445539310169e-14 -2.201764398785440585e-14
5.393000000000000000e+03 3.829783916473388672e+00 -1.150709748268127441e+00 -5.204170427930421283e-14 9.207378240914942946e-14 1.200962445539310169e-14 -4.203368474684290867e-14
5.394000000000000000e+03 3.020616531372070312e+00 -1.151894450187683105e+00 1.801443583605670529e-14 -3.803047490097931360e-14 -6.004812227696550847e-15 1.200962445539310169e-14
5.395000000000000000e+03 3.310259342193603516e+00 -4.118944704532623291e-01 -2.602085213965210642e-14 -3.402726844324750755e-14 -1.801443583605670529e-14 1.801443583605670529e-14
5.396000000000000000e+03 1.765524148941040039e+00 -4.131233394145965576e-01 1.601283260719080226e-14 -1.601283260719080226e-14 0.000000000000000000e+00 3.602887167211341057e-14
5.397000000000000000e+03 1.067645549774169922e+00 -3.868701159954071045e-01 -4.003208151797700565e-15 2.041636038832214672e-13 6.004811719476782494e-14 4.603689120457471473e-14
5.398000000000000000e+03 6.966503262519836426e-01 -1.126870155334472656e+00 -2.401924891078620339e-14 -5.604491073703601889e-14 -2.401924891078620339e-14 6.405133042876320904e-14
5.399000000000000000e+03 1.171745300292968750e+01 -1.416588187217712402e+00 -1.711371387484728057e-13 -1.190954344691685929e-13 -8.706977603105056640e-14 0.000000000000000000e+00
5.400000000000000000e+03 1.027132415771484375e+01 -1.186757922172546387e+00 -1.180946345488015359e-13 1.781427517435693608e-13 1.801443583605670529e-14 -4.803849782157240678e-14
5.401000000000000000e+03 1.244032764434814453e+01 -1.534988999366760254e+00 -2.642117210779892922e-13 2.401924891078620339e-14 -7.205774334422682115e-14 -1.361090737729900302e-13
5.402000000000000000e+03 1.253947448730468750e+01 -8.014244437217712402e-01 -3.382710778154773834e-13 -2.822261738547049426e-13 -1.861491782115601290e-13 3.803047490097931360e-14
5.403000000000000000e+03 1.180517101287841797e+01 -6.811850070953369141e-01 -2.401924687790712998e-13 8.006416303595401129e-14 -4.803849782157240678e-14 -3.402726844324750755e-14
5.404000000000000000e+03 1.107078933715820312e+01 -5.637502074241638184e-01 -2.081668171172168513e-13 -1.120898214740720378e-13 -9.607699564314481355e-14 8.606896933441993136e-14
5.405000000000000000e+03 1.099450206756591797e+01 -1.300992131233215332e+00 -2.431948956452267829e-13 3.302646513474866152e-14 -6.305052373213257400e-14 -5.204170427930421283e-14
5.406000000000000000e+03 1.033618259429931641e+01 -4.476772546768188477e-01 -2.722181475459800604e-13 -2.081668171172168513e-13 -1.441154866884536423e-13 -5.604491073703601889e-14
5.407000000000000000e+03 4.014806365966796875e+01 -8.524629592895507812e+00 1.100882216333379238e-13 -9.007218256841531545e-14 6.004812227696550847e-15 -7.405934996122451319e-14
5.408000000000000000e+03 4.030273818969726562e+01 -7.793628215789794922e+00 2.672141479441447753e-13 2.301844560228735737e-14 8.706977603105056640e-14 -8.006416303595401129e-14
5.409000000000000000e+03 4.084743499755859375e+01 -8.589353561401367188e+00 1.941555911270237411e-13 -5.404330750817011586e-14 4.203368474684290867e-14 -1.841475648182988589e-13
5.410000000000000000e+03 4.161405181884765625e+01 -8.166538238525390625e+00 7.205774334422682115e-14 8.006416303595401129e-15 2.401924891078620339e-14 -1.601283260719080226e-13
5.411000000000000000e+03 4.115419006347656250e+01 -7.868972301483154297e+00 4.403528797570881170e-14 -1.641315257533762506e-13 -3.602887167211341057e-14 -1.301042606982605321e-13
5.412000000000000000e+03 4.173940277099609375e+01 -8.715756416320800781e+00 7.205774334422682115e-14 -1.521218996039172544e-13 -2.401924891078620339e-14 -2.321860694161348437e-13
5.413000000000000000e+03 4.143057632446289062e+01 -8.687714576721191406e+00 -3.202566521438160452e-14 -2.882309733769072846e-13 -9.607699564314481355e-14 -1.000802021008766196e-13
5.414000000000000000e+03 4.183159637451171875e+01 -8.484095573425292969e+00 1.120898214740720378e-13 4.803849782157240678e-14 4.803849782157240678e-14 1.801443651368306309e-13
5.415000000000000000e+03 1.328147125244140625e+01 -9.107246994972229004e-01 -3.122502256758252770e-13 7.205774334422682115e-14 -7.205774334422682115e-14 3.202566521438160452e-14
5.416000000000000000e+03 1.470345211029052734e+01 -1.836183547973632812e+00 -2.191756433463087905e-13 -2.311852694957677867e-13 -1.351082738526229732e-13 1.601283260719080226e-14
5.417000000000000000e+03 1.318203258514404297e+01 -1.644050240516662598e+00 -2.351884691772360148e-13 -3.753007561842214290e-13 -1.831467648979318019e-13 8.006416303595401129e-15
5.418000000000000000e+03 1.478120040893554688e+01 -1.100136518478393555e+00 -2.702165477052459464e-13 2.502004950877961820e-13 -6.004812227696550847e-15 0.000000000000000000e+00
5.419000000000000000e+03 1.546425342559814453e+01 -1.930399060249328613e+00 -2.401924687790712998e-13 2.401924687790712998e-13 0.000000000000000000e+00 8.606896933441993136e-14
5.420000000000000000e+03 1.553115558624267578e+01 -1.192991256713867188e+00 -2.612093213168881212e-13 -2.491996951674291250e-13 -1.531227130768114675e-13 9.207378240914942946e-14
5.421000000000000000e+03 1.403127861022949219e+01 -1.006039500236511230e+00 -2.461972954063279539e-13 -1.741395520621011328e-13 -1.261010474642651480e-13 6.204972381176551699e-14
5.422000000000000000e+03 1.394268608093261719e+01 -1.740725755691528320e+00 -2.632109211576222352e-13 -6.705373696612795809e-14 -9.907939540424598457e-14 3.602887167211341057e-14
5.423000000000000000e+03 2.189504051208496094e+01 -1.802547931671142578e+00 1.776423517833858323e-13 6.755413692631148659e-14 7.355895000104098469e-14 -8.018925963786810440e-14
5.424000000000000000e+03 2.127283859252929688e+01 -1.124302029609680176e+00 -1.150922280114367868e-14 -5.354290754798658736e-14 -1.951563910473907981e-14 -2.502005094873562853e-15
5.425000000000000000e+03 1.628620338439941406e+01 -1.255944609642028809e+00 -1.961571909677578551e-13 2.361892690976030718e-13 1.200962445539310169e-14 8.807057595141762341e-14
5.426000000000000000e+03 1.779829025268554688e+01 -2.059187889099121094e+00 -4.103288143834406265e-14 -1.090874217129708668e-13 -4.503609128420765773e-14 1.841475648182988589e-13
5.427000000000000000e+03 1.623538208007812500e+01 -1.994474172592163086e+00 -2.201764432666758475e-13 -1.401122870069854143e-13 -1.080866150163402317e-13 1.080866150163402317e-13
5.428000000000000000e+03 1.858121871948242188e+01 -2.091711521148681641e+00 -1.601283260719080226e-14 1.761411519028352468e-13 4.803849782157240678e-14 2.401924687790712998e-13
5.429000000000000000e+03 1.856809425354003906e+01 -1.350533485412597656e+00 -4.803849782157240678e-14 -1.120898214740720378e-13 -4.803849782157240678e-14 6.405133042876320904e-14
5.430000000000000000e+03 1.704577255249023438e+01 -1.287305474281311035e+00 -2.101684169579509653e-13 -9.007218256841531545e-14 -9.007218256841531545e-14 -1.200962445539310169e-14
5.431000000000000000e+03 1.701626777648925781e+01 -2.026717901229858398e+00 -9.107298248878237246e-14 -3.903127820947815962e-14 -3.903127820947815962e-14 3.602887167211341057e-14
5.432000000000000000e+03 1.780648040771484375e+01 -1.318892598152160645e+00 -1.781427517435693608e-13 -1.220978477827969200e-13 -9.007218256841531545e-14 7.205774334422682115e-14
5.433000000000000000e+03 6.915425872802734375e+01 -1.528317165374755859e+01 2.401924891078620339e-14 3.763015561045884860e-13 1.200962343895356499e-13 5.404330750817011586e-14
5.434000000000000000e+03 6.981649780273437500e+01 -1.516665935516357422e+01 -7.606094980195862720e-14 3.602887167211341057e-14 -1.200962445539310169e-14 6.405133042876320904e-14
5.435000000000000000e+03 6.849820709228515625e+01 -1.521993160247802734e+01 4.503609128420765773e-14 -9.507618894651417851e-14 -1.501202929869195624e-14 -5.004010105043830980e-14
5.436000000000000000e+03 6.962475585937500000e+01 -1.444882297515869141e+01 1.541235129971785245e-13 2.261812563414053456e-13 1.140914348673333079e-13 -2.001604075898850282e-14
5.437000000000000000e+03 6.880525207519531250e+01 -1.459250164031982422e+01 -7.005614350349270714e-14 -3.002405859738391247e-14 -3.002405859738391247e-14 6.805453688649501509e-14
5.438000000000000000e+03 7.636968994140625000e+01 -1.377867794036865234e+01 -1.200962445539310169e-14 -1.881507780522942430e-13 -6.004811719476782494e-14 2.001604075898850282e-14
5.439000000000000000e+03 7.711952209472656250e+01 -1.377026462554931641e+01 7.005614350349270714e-14 1.901523778930283570e-13 7.806255641895631925e-14 3.803047490097931360e-14
5.440000000000000000e+03 7.880826568603515625e+01 -1.359098052978515625e+01 5.404330750817011586e-14 2.061652172764827373e-13 7.806255641895631925e-14 -4.003208151797700565e-14
5.441000000000000000e+03 7.957907104492187500e+01 -1.383945655822753906e+01 1.200962445539310169e-14 2.802245536851800944e-14 1.200962445539310169e-14 4.803849782157240678e-14
5.442000000000000000e+03 7.818760681152343750e+01 -1.360080337524414062e+01 2.341876692568689577e-13 -1.401122768425900472e-14 6.605293026949732305e-14 2.502005052521915490e-14
5.443000000000000000e+03 7.770421600341796875e+01 -1.456077384948730469e+01 6.004812227696550847e-15 9.407538902614712151e-14 3.002405859738391247e-14 -3.602887167211341057e-14
5.444000000000000000e+03 7.832720947265625000e+01 -1.463026809692382812e+01 1.000802037949425141e-14 5.004010105043830980e-14 1.801443583605670529e-14 -4.803849782157240678e-14
5.445000000000000000e+03 7.636756134033203125e+01 -1.452004623413085938e+01 4.403528797570881170e-14 1.561251128379126385e-13 6.004811719476782494e-14 5.604491073703601889e-14
5.446000000000000000e+03 7.868551635742187500e+01 -1.398741340637207031e+01 -6.680353698603619383e-14 1.543737062010067107e-13 2.627105211974387067e-14 -1.701363422162375377e-14
5.447000000000000000e+03 7.704452514648437500e+01 -1.451572895050048828e+01 -9.007218256841531545e-14 -4.503609128420765773e-13 -1.621299259126421366e-13 1.040834085586084257e-13
5.448000000000000000e+03 7.932569885253906250e+01 -1.446048069000244141e+01 2.001604075898850282e-14 2.001604075898850282e-14 1.200962445539310169e-14 6.004812227696550847e-15
5.449000000000000000e+03 7.842517852783203125e+01 -1.427305221557617188e+01 3.002405859738391247e-14 1.501202997631831404e-13 5.404330750817011586e-14 -7.606094980195862720e-14
5.450000000000000000e+03 7.781768798828125000e+01 -1.396652030944824219e+01 5.004010105043830980e-14 -2.301844695754007297e-13 -5.404330750817011586e-14 1.200962445539310169e-14
5.451000000000000000e+03 7.885647583007812500e+01 -1.460024929046630859e+01 -1.200962445539310169e-14 -2.802245536851800944e-14 -1.200962445539310169e-14 -8.006416303595401129e-14
5.452000000000000000e+03 7.413023376464843750e+01 -1.390827560424804688e+01 -1.601283260719080226e-14 1.601283260719080226e-14 0.000000000000000000e+00 -3.602887167211341057e-14
5.453000000000000000e+03 7.418925476074218750e+01 -1.464601135253906250e+01 -4.003208151797700565e-15 4.403528797570881170e-14 1.200962445539310169e-14 -2.401924891078620339e-14
5.454000000000000000e+03 7.345582580566406250e+01 -1.469340133666992188e+01 1.401122768425900472e-14 6.004812227696550847e-15 6.004812227696550847e-15 6.004811719476782494e-14
5.455000000000000000e+03 7.487351226806640625e+01 -1.386064338684082031e+01 2.001604075898850282e-14 1.000802021008766196e-13 3.602887167211341057e-14 -1.200962445539310169e-14
5.456000000000000000e+03 7.492264556884765625e+01 -1.459901237487792969e+01 7.606094980195862720e-14 1.240994476235310340e-13 6.004811719476782494e-14 -2.401924891078620339e-14
5.457000000000000000e+03 7.565595245361328125e+01 -1.455239677429199219e+01 -3.402726844324750755e-14 -1.060850151756061177e-13 -4.203368474684290867e-14 -3.602887167211341057e-14
5.458000000000000000e+03 7.561669921875000000e+01 -1.381339359283447266e+01 3.402726844324750755e-14 1.060850151756061177e-13 4.203368474684290867e-14 -2.401924891078620339e-14
5.459000000000000000e+03 7.338691711425781250e+01 -1.395629978179931641e+01 -2.201764398785440585e-14 -7.806255641895631925e-14 -3.002405859738391247e-14 3.803047490097931360e-14
5.460000000000000000e+03 7.190987396240234375e+01 -1.413351440429687500e+01 2.802245536851800944e-14 1.200962445539310169e-14 1.200962445539310169e-14 4.203368474684290867e-14
5.461000000000000000e+03 7.117191314697265625e+01 -1.423426437377929688e+01 3.002405859738391247e-14 -1.000802037949425141e-14 6.004812227696550847e-15 -2.602085213965210642e-14
5.462000000000000000e+03 7.054098510742187500e+01 -1.506571102142333984e+01 1.040834085586084257e-13 1.361090737729900302e-13 7.205774334422682115e-14 -4.803849782157240678e-14
5.463000000000000000e+03 7.272534942626953125e+01 -1.476733016967773438e+01 1.601283260719080226e-14 -1.761411519028352468e-13 -4.803849782157240678e-14 1.000802021008766196e-13
5.464000000000000000e+03 7.199845123291015625e+01 -1.486828804016113281e+01 2.702165375408505793e-14 1.030826086382413687e-13 3.903127820947815962e-14 -9.607699564314481355e-14
5.465000000000000000e+03 7.127030181884765625e+01 -1.496769714355468750e+01 4.203368474684290867e-14 1.801443583605670529e-14 1.801443583605670529e-14 2.401924891078620339e-14
5.466000000000000000e+03 7.264659118652343750e+01 -1.403121566772460938e+01 -2.401924891078620339e-14 1.040834085586084257e-13 2.401924891078620339e-14 -4.403528797570881170e-14
5.467000000000000000e+03 7.043277740478515625e+01 -1.433362007141113281e+01 4.003208151797700565e-14 -1.200962343895356499e-13 -2.401924891078620339e-14 8.006416303595401129e-15
5.468000000000000000e+03 2.231016159057617188e+01 -8.641431331634521484e-01 -1.721379386688398627e-13 1.321058605389946461e-13 -1.200962445539310169e-14 4.403528797570881170e-14
