# el_label, x, y, sXX, sYY, sZZ, sXY
1.000000000000000000e+00 2.858158302307128906e+01 -4.601920604705810547e+00 3.387634754180908203e+00 2.514530420303344727e-01 1.091726422309875488e+00 -2.530642032623291016e+00
2.000000000000000000e+00 2.877274513244628906e+01 -4.657369613647460938e+00 4.791110038757324219e+00 4.797727465629577637e-01 1.581264853477478027e+00 -9.806937575340270996e-01
3.000000000000000000e+00 2.896390724182128906e+01 -4.712818145751953125e+00 2.942171335220336914e+00 3.499179333448410034e-02 8.931489586830139160e-01 -8.177494406700134277e-01
4.000000000000000000e+00 2.915506744384765625e+01 -4.768266677856445312e+00 2.093645334243774414e+00 -2.676433511078357697e-02 6.200643181800842285e-01 -3.118662238121032715e-01
5.000000000000000000e+00 2.859228897094726562e+01 -4.544505119323730469e+00 1.025095462799072266e+01 -7.591122388839721680e-01 2.847552776336669922e+00 -2.801661968231201172e+00
6.000000000000000000e+00 2.879058837890625000e+01 -4.561676502227783203e+00 6.031680583953857422e+00 1.265579015016555786e-01 1.847471594810485840e+00 -7.184282541275024414e-01
7.000000000000000000e+00 2.898888778686523438e+01 -4.578847885131835938e+00 5.191461563110351562e+00 -3.535042107105255127e-01 1.451387286186218262e+00 -6.973602622747421265e-02
8.000000000000000000e+00 2.918718528747558594e+01 -4.596019268035888672e+00 3.684823989868164062e+00 -5.242484211921691895e-01 9.481726884841918945e-01 2.526038587093353271e-01
9.000000000000000000e+00 2.859161186218261719e+01 -4.486103534698486328e+00 1.427575683593750000e+01 -7.251604795455932617e-01 4.065178871154785156e+00 1.661164909601211548e-01
1.000000000000000000e+01 2.878945922851562500e+01 -4.464340686798095703e+00 8.995999336242675781e+00 -6.164939999580383301e-01 2.513851642608642578e+00 2.418537437915802002e-01
1.100000000000000000e+01 2.898730850219726562e+01 -4.442577362060546875e+00 6.484110832214355469e+00 -4.134369790554046631e-01 1.821202158927917480e+00 1.008691310882568359e+00
1.200000000000000000e+01 2.918515586853027344e+01 -4.420814514160156250e+00 5.286023139953613281e+00 -8.778492808341979980e-01 1.322452068328857422e+00 1.335425257682800293e+00
1.300000000000000000e+01 2.857957839965820312e+01 -4.428950786590576172e+00 1.634801292419433594e+01 2.645935714244842529e-01 4.983781814575195312e+00 3.169296264648437500e+00
1.400000000000000000e+01 2.876940345764160156e+01 -4.369086742401123047e+00 1.061900711059570312e+01 -1.314466446638107300e-01 3.146268129348754883e+00 2.426829814910888672e+00
1.500000000000000000e+01 2.895922851562500000e+01 -4.309221744537353516e+00 7.995849132537841797e+00 -4.961751103401184082e-01 2.249902248382568359e+00 2.453425168991088867e+00
1.600000000000000000e+01 2.914905357360839844e+01 -4.249357223510742188e+00 6.080912113189697266e+00 -5.554081201553344727e-01 1.657651305198669434e+00 2.718598604202270508e+00
1.700000000000000000e+01 2.855664825439453125e+01 -4.375235080718994141e+00 1.646429252624511719e+01 2.671607971191406250e+00 5.740770339965820312e+00 6.133263587951660156e+00
1.800000000000000000e+01 2.873118591308593750e+01 -4.279560089111328125e+00 1.135811614990234375e+01 1.007077932357788086e+00 3.709558248519897461e+00 4.487709999084472656e+00
1.900000000000000000e+01 2.890572357177734375e+01 -4.183884620666503906e+00 8.369494438171386719e+00 4.464739263057708740e-01 2.644790649414062500e+00 4.218121051788330078e+00
2.000000000000000000e+01 2.908026313781738281e+01 -4.088209629058837891e+00 6.607747554779052734e+00 -3.296161070466041565e-02 1.972435832023620605e+00 4.159605979919433594e+00
2.100000000000000000e+01 2.852369880676269531e+01 -4.327011108398437500e+00 1.557241153717041016e+01 5.822200775146484375e+00 6.418383598327636719e+00 8.120433807373046875e+00
2.200000000000000000e+01 2.867627143859863281e+01 -4.199186801910400391e+00 1.074456119537353516e+01 3.088923215866088867e+00 4.150045394897460938e+00 6.253241062164306641e+00
2.300000000000000000e+01 2.882884407043457031e+01 -4.071362495422363281e+00 8.218904495239257812e+00 1.858096837997436523e+00 3.023100376129150391e+00 5.553089618682861328e+00
2.400000000000000000e+01 2.898141479492187500e+01 -3.943537950515747070e+00 6.298575878143310547e+00 1.172853708267211914e+00 2.241428852081298828e+00 5.442899227142333984e+00
2.500000000000000000e+01 2.848199081420898438e+01 -4.286124706268310547e+00 1.347986507415771484e+01 9.256258010864257812e+00 6.820837020874023438e+00 9.109180450439453125e+00
2.600000000000000000e+01 2.860675811767578125e+01 -4.131042480468750000e+00 9.920308113098144531e+00 5.654481410980224609e+00 4.672436714172363281e+00 7.082006454467773438e+00
2.700000000000000000e+01 2.873152732849121094e+01 -3.975960493087768555e+00 6.999701499938964844e+00 3.805688858032226562e+00 3.241617202758789062e+00 6.498631477355957031e+00
2.800000000000000000e+01 2.885629463195800781e+01 -3.820878267288208008e+00 5.542222499847412109e+00 2.669275522232055664e+00 2.463449478149414062e+00 5.788628101348876953e+00
2.900000000000000000e+01 2.843312263488769531e+01 -4.254140377044677734e+00 1.209280395507812500e+01 1.274830532073974609e+01 7.452332973480224609e+00 8.714799880981445312e+00
3.000000000000000000e+01 2.852531051635742188e+01 -4.077735424041748047e+00 7.963619709014892578e+00 8.192198753356933594e+00 4.846745491027832031e+00 7.260956764221191406e+00
3.100000000000000000e+01 2.861749839782714844e+01 -3.901330232620239258e+00 6.312931060791015625e+00 5.913836956024169922e+00 3.668030500411987305e+00 6.332411289215087891e+00
3.200000000000000000e+01 2.870968627929687500e+01 -3.724925279617309570e+00 3.614054679870605469e+00 4.574553489685058594e+00 2.456582546234130859e+00 6.075166225433349609e+00
3.300000000000000000e+01 2.837896156311035156e+01 -4.232282161712646484e+00 9.855847358703613281e+00 1.539785099029541016e+01 7.576109409332275391e+00 7.388844013214111328e+00
3.400000000000000000e+01 2.843504142761230469e+01 -4.041304588317871094e+00 7.397800922393798828e+00 1.047146797180175781e+01 5.360780715942382812e+00 6.456612110137939453e+00
3.500000000000000000e+01 2.849112319946289062e+01 -3.850327491760253906e+00 4.310628414154052734e+00 7.984789371490478516e+00 3.688625335693359375e+00 5.665293216705322266e+00
3.600000000000000000e+01 2.854720306396484375e+01 -3.659350156784057617e+00 3.530935525894165039e+00 6.054203987121582031e+00 2.875541925430297852e+00 5.431804180145263672e+00
3.700000000000000000e+01 2.832158088684082031e+01 -4.221386432647705078e+00 9.634301185607910156e+00 1.729312133789062500e+01 8.078227043151855469e+00 5.659642696380615234e+00
3.800000000000000000e+01 2.833940887451171875e+01 -4.023145198822021484e+00 5.931669235229492188e+00 1.214046096801757812e+01 5.421638965606689453e+00 4.788811683654785156e+00
3.900000000000000000e+01 2.835723495483398438e+01 -3.824904203414916992e+00 4.213085174560546875e+00 9.361430168151855469e+00 4.072354793548583984e+00 4.685031414031982422e+00
4.000000000000000000e+01 2.837506294250488281e+01 -3.626662969589233398e+00 2.021971225738525391e+00 7.477530002593994141e+00 2.849850416183471680e+00 3.850890874862670898e+00
4.100000000000000000e+01 2.826317787170410156e+01 -4.221869945526123047e+00 9.296349525451660156e+00 1.792718887329101562e+01 8.167061805725097656e+00 3.198282957077026367e+00
4.200000000000000000e+01 2.824206924438476562e+01 -4.023951530456542969e+00 6.088699340820312500e+00 1.315934753417968750e+01 5.774414062500000000e+00 3.341358423233032227e+00
4.300000000000000000e+01 2.822096061706542969e+01 -3.826032876968383789e+00 3.756759643554687500e+00 1.002230739593505859e+01 4.133719921112060547e+00 2.695602655410766602e+00
4.400000000000000000e+01 2.819985198974609375e+01 -3.628114461898803711e+00 2.041674137115478516e+00 8.200718879699707031e+00 3.072717666625976562e+00 2.876347541809082031e+00
4.500000000000000000e+01 2.820598602294921875e+01 -4.233714580535888672e+00 1.009776687622070312e+01 1.796702957153320312e+01 8.419439315795898438e+00 1.539640188217163086e+00
4.600000000000000000e+01 2.814674949645996094e+01 -4.043693065643310547e+00 6.621915340423583984e+00 1.301994228363037109e+01 5.892557144165039062e+00 1.274817585945129395e+00
4.700000000000000000e+01 2.808751296997070312e+01 -3.853670835494995117e+00 4.222526550292968750e+00 1.032735443115234375e+01 4.364964485168457031e+00 1.357329726219177246e+00
4.800000000000000000e+01 2.802827644348144531e+01 -3.663648843765258789e+00 2.665006399154663086e+00 7.860819339752197266e+00 3.157747745513916016e+00 9.735666513442993164e-01
4.900000000000000000e+01 2.815219497680664062e+01 -4.256467342376708984e+00 1.163944435119628906e+01 1.688437652587890625e+01 8.557146072387695312e+00 -8.017555624246597290e-02
5.000000000000000000e+01 2.805709648132324219e+01 -4.081613540649414062e+00 7.551648139953613281e+00 1.263185882568359375e+01 6.055052280426025391e+00 -2.967409603297710419e-02
5.100000000000000000e+01 2.796199989318847656e+01 -3.906760215759277344e+00 5.569773674011230469e+00 9.481045722961425781e+00 4.515245914459228516e+00 -1.741829216480255127e-01
5.200000000000000000e+01 2.786690139770507812e+01 -3.731906414031982422e+00 3.427335023880004883e+00 7.712956905364990234e+00 3.342087745666503906e+00 -2.471814155578613281e-01
5.300000000000000000e+01 2.810386276245117188e+01 -4.289256572723388672e+00 1.303383827209472656e+01 1.573026275634765625e+01 8.629230499267578125e+00 -8.513888120651245117e-01
5.400000000000000000e+01 2.797654342651367188e+01 -4.136262893676757812e+00 9.361970901489257812e+00 1.131843757629394531e+01 6.204122543334960938e+00 -9.161631464958190918e-01
5.500000000000000000e+01 2.784922409057617188e+01 -3.983268976211547852e+00 6.713973045349121094e+00 8.728483200073242188e+00 4.632737159729003906e+00 -1.099672079086303711e+00
5.600000000000000000e+01 2.772190475463867188e+01 -3.830275297164916992e+00 5.300338268280029297e+00 6.649986267089843750e+00 3.585097312927246094e+00 -1.047920703887939453e+00
5.700000000000000000e+01 2.806283760070800781e+01 -4.330828666687011719e+00 1.485059928894042969e+01 1.418898868560791016e+01 8.711875915527343750e+00 -9.026435017585754395e-01
5.800000000000000000e+01 2.790816879272460938e+01 -4.205549240112304688e+00 1.083971691131591797e+01 1.011349487304687500e+01 6.285963535308837891e+00 -1.204721450805664062e+00
5.900000000000000000e+01 2.775349998474121094e+01 -4.080269813537597656e+00 8.498291015625000000e+00 7.439285278320312500e+00 4.781272888183593750e+00 -1.214487552642822266e+00
6.000000000000000000e+01 2.759883117675781250e+01 -3.954990625381469727e+00 6.601150035858154297e+00 5.684883117675781250e+00 3.685809850692749023e+00 -1.454079031944274902e+00
6.100000000000000000e+01 2.803069114685058594e+01 -4.379591941833496094e+00 1.623363685607910156e+01 1.300281620025634766e+01 8.770936012268066406e+00 -3.614716231822967529e-01
6.200000000000000000e+01 2.785459327697753906e+01 -4.286821365356445312e+00 1.231302547454833984e+01 8.740459442138671875e+00 6.316045284271240234e+00 -6.800702214241027832e-01
6.300000000000000000e+01 2.767849349975585938e+01 -4.194050788879394531e+00 9.883730888366699219e+00 6.500847339630126953e+00 4.915373325347900391e+00 -8.886597752571105957e-01
6.400000000000000000e+01 2.750239372253417969e+01 -4.101280212402343750e+00 8.115709304809570312e+00 4.541456222534179688e+00 3.797149896621704102e+00 -1.019910812377929688e+00
6.500000000000000000e+01 2.800865364074707031e+01 -4.433680534362792969e+00 1.712936973571777344e+01 1.177791976928710938e+01 8.672186851501464844e+00 7.506099939346313477e-01
6.600000000000000000e+01 2.781786346435546875e+01 -4.376968860626220703e+00 1.330312538146972656e+01 8.123794555664062500e+00 6.428075790405273438e+00 3.498721122741699219e-01
6.700000000000000000e+01 2.762707328796386719e+01 -4.320257186889648438e+00 1.081825447082519531e+01 5.488605022430419922e+00 4.892057895660400391e+00 6.301591545343399048e-02
6.800000000000000000e+01 2.743628120422363281e+01 -4.263545989990234375e+00 9.215778350830078125e+00 4.237933635711669922e+00 4.036113739013671875e+00 -3.182417750358581543e-01
6.900000000000000000e+01 2.799757003784179688e+01 -4.491024494171142578e+00 1.749551391601562500e+01 1.160250854492187500e+01 8.729406356811523438e+00 2.181119918823242188e+00
7.000000000000000000e+01 2.779938888549804688e+01 -4.472542285919189453e+00 1.351809406280517578e+01 7.511113166809082031e+00 6.308762073516845703e+00 1.783577680587768555e+00
7.100000000000000000e+01 2.760120773315429688e+01 -4.454060077667236328e+00 1.122156143188476562e+01 5.566246032714843750e+00 5.036342144012451172e+00 1.217304229736328125e+00
7.200000000000000000e+01 2.740302658081054688e+01 -4.435577869415283203e+00 9.418615341186523438e+00 3.786308288574218750e+00 3.961477279663085938e+00 9.590258002281188965e-01
7.300000000000000000e+01 2.799785995483398438e+01 -4.549429416656494141e+00 1.690814781188964844e+01 1.153463935852050781e+01 8.532836914062500000e+00 3.884051799774169922e+00
7.400000000000000000e+01 2.779987335205078125e+01 -4.569883823394775391e+00 1.309430027008056641e+01 8.054776191711425781e+00 6.344723224639892578e+00 3.114540100097656250e+00
7.500000000000000000e+01 2.760188674926757812e+01 -4.590338230133056641e+00 1.073390579223632812e+01 5.717709541320800781e+00 4.935484886169433594e+00 2.594268560409545898e+00
7.600000000000000000e+01 2.740389823913574219e+01 -4.610792636871337891e+00 9.353901863098144531e+00 4.255229473114013672e+00 4.082739353179931641e+00 2.073884725570678711e+00
7.700000000000000000e+01 2.800951576232910156e+01 -4.606660366058349609e+00 1.566388034820556641e+01 1.245876693725585938e+01 8.436794281005859375e+00 5.255187511444091797e+00
7.800000000000000000e+01 2.781929969787597656e+01 -4.665268421173095703e+00 1.174173355102539062e+01 8.882015228271484375e+00 6.187124729156494141e+00 4.348503112792968750e+00
7.900000000000000000e+01 2.762908172607421875e+01 -4.723876953125000000e+00 9.797269821166992188e+00 6.641852378845214844e+00 4.931736469268798828e+00 3.569340705871582031e+00
8.000000000000000000e+01 2.743886566162109375e+01 -4.782485485076904297e+00 8.397571563720703125e+00 5.046337604522705078e+00 4.033172607421875000e+00 3.036352157592773438e+00
8.100000000000000000e+01 2.803209114074707031e+01 -4.660526752471923828e+00 1.348134231567382812e+01 1.389147853851318359e+01 8.211846351623535156e+00 6.277911186218261719e+00
8.200000000000000000e+01 2.785692405700683594e+01 -4.755046367645263672e+00 9.978096008300781250e+00 1.018343353271484375e+01 6.048458576202392578e+00 4.934346199035644531e+00
8.300000000000000000e+01 2.768175697326660156e+01 -4.849565505981445312e+00 8.192581176757812500e+00 7.864631652832031250e+00 4.817163944244384766e+00 4.129363059997558594e+00
8.400000000000000000e+01 2.750658988952636719e+01 -4.944084644317626953e+00 7.085683822631835938e+00 6.202198505401611328e+00 3.986364603042602539e+00 3.564215898513793945e+00
8.500000000000000000e+01 2.806472015380859375e+01 -4.708967685699462891e+00 1.083549880981445312e+01 1.559029293060302734e+01 7.927737712860107422e+00 6.475748538970947266e+00
8.600000000000000000e+01 2.791130638122558594e+01 -4.835781097412109375e+00 7.808155059814453125e+00 1.169166088104248047e+01 5.849944591522216797e+00 4.825072288513183594e+00
8.700000000000000000e+01 2.775789260864257812e+01 -4.962594032287597656e+00 6.407946109771728516e+00 9.094817161560058594e+00 4.650828838348388672e+00 4.053902626037597656e+00
8.800000000000000000e+01 2.760448074340820312e+01 -5.089407444000244141e+00 5.550673961639404297e+00 7.467329025268554688e+00 3.905400991439819336e+00 3.513074636459350586e+00
8.900000000000000000e+01 2.810615730285644531e+01 -4.750129222869873047e+00 7.993445396423339844e+00 1.736832618713378906e+01 7.608531475067138672e+00 5.680306434631347656e+00
9.000000000000000000e+01 2.798036766052246094e+01 -4.904383182525634766e+00 5.674911022186279297e+00 1.287129783630371094e+01 5.563862800598144531e+00 4.007106781005859375e+00
9.100000000000000000e+01 2.785457801818847656e+01 -5.058637142181396484e+00 4.646656513214111328e+00 1.024240875244140625e+01 4.466719627380371094e+00 3.266339540481567383e+00
9.200000000000000000e+01 2.772878837585449219e+01 -5.212891578674316406e+00 3.989824771881103516e+00 8.369925498962402344e+00 3.707925081253051758e+00 2.867216825485229492e+00
9.300000000000000000e+01 2.815481376647949219e+01 -4.782435894012451172e+00 5.385887145996093750e+00 1.854988861083984375e+01 7.180732727050781250e+00 3.957337379455566406e+00
9.400000000000000000e+01 2.806146240234375000e+01 -4.958227634429931641e+00 3.913980245590209961e+00 1.358123302459716797e+01 5.248563766479492188e+00 2.495313167572021484e+00
9.500000000000000000e+01 2.796811103820800781e+01 -5.134019851684570312e+00 3.160912275314331055e+00 1.082293033599853516e+01 4.195152759552001953e+00 2.009654045104980469e+00
9.600000000000000000e+01 2.787475967407226562e+01 -5.309811592102050781e+00 2.710474252700805664e+00 9.000658988952636719e+00 3.513339996337890625e+00 1.683902502059936523e+00
9.700000000000000000e+01 2.820882987976074219e+01 -4.804651737213134766e+00 3.505137920379638672e+00 1.882229423522949219e+01 6.698229312896728516e+00 1.484133958816528320e+00
9.800000000000000000e+01 2.815148735046386719e+01 -4.995254039764404297e+00 2.716539382934570312e+00 1.344321060180664062e+01 4.847924709320068359e+00 6.159626841545104980e-01
9.900000000000000000e+01 2.809414672851562500e+01 -5.185856819152832031e+00 2.219974279403686523e+00 1.071401786804199219e+01 3.880197763442993164e+00 4.157198071479797363e-01
1.000000000000000000e+02 2.803680610656738281e+01 -5.376459121704101562e+00 1.924271106719970703e+00 9.014779090881347656e+00 3.281715154647827148e+00 3.701175749301910400e-01
1.010000000000000000e+02 2.826613616943359375e+01 -4.815926074981689453e+00 2.577201128005981445e+00 1.778816413879394531e+01 6.109609127044677734e+00 -1.230650186538696289e+00
1.020000000000000000e+02 2.824699974060058594e+01 -5.014045238494873047e+00 2.237298965454101562e+00 1.242576217651367188e+01 4.398918151855468750e+00 -1.341159582138061523e+00
1.030000000000000000e+02 2.822786331176757812e+01 -5.212163925170898438e+00 1.886279225349426270e+00 9.783864974975585938e+00 3.501043319702148438e+00 -1.159930109977722168e+00
1.040000000000000000e+02 2.820872688293457031e+01 -5.410283088684082031e+00 1.718459248542785645e+00 8.172916412353515625e+00 2.967412948608398438e+00 -9.678683280944824219e-01
1.050000000000000000e+02 2.832454109191894531e+01 -4.815828323364257812e+00 2.726526737213134766e+00 1.549145030975341797e+01 5.465393066406250000e+00 -3.713902473449707031e+00
1.060000000000000000e+02 2.834434318542480469e+01 -5.013881683349609375e+00 2.346966266632080078e+00 1.045683574676513672e+01 3.841140747070312500e+00 -2.923624277114868164e+00
1.070000000000000000e+02 2.836414337158203125e+01 -5.211935520172119141e+00 2.149309635162353516e+00 8.194376945495605469e+00 3.103105783462524414e+00 -2.448399543762207031e+00
1.080000000000000000e+02 2.838394355773925781e+01 -5.409988880157470703e+00 1.884869813919067383e+00 6.704405784606933594e+00 2.576782703399658203e+00 -2.097720623016357422e+00
1.090000000000000000e+02 2.838181114196777344e+01 -4.804361343383789062e+00 3.464116334915161133e+00 1.204024219512939453e+01 4.651307582855224609e+00 -5.307582378387451172e+00
1.100000000000000000e+02 2.843979072570800781e+01 -4.994770050048828125e+00 3.025013446807861328e+00 7.880399703979492188e+00 3.271623849868774414e+00 -3.905096292495727539e+00
1.110000000000000000e+02 2.849777221679687500e+01 -5.185179233551025391e+00 2.617077350616455078e+00 6.012358188629150391e+00 2.588830709457397461e+00 -3.099906682968139648e+00
1.120000000000000000e+02 2.855575180053710938e+01 -5.375588417053222656e+00 2.345398902893066406e+00 5.134653568267822266e+00 2.244015693664550781e+00 -2.675089836120605469e+00
1.130000000000000000e+02 2.843575096130371094e+01 -4.781964302062988281e+00 4.675209522247314453e+00 7.955208301544189453e+00 3.789125204086303711e+00 -5.774538993835449219e+00
1.140000000000000000e+02 2.852969169616699219e+01 -4.957442283630371094e+00 3.541646718978881836e+00 4.912802219390869141e+00 2.536334753036499023e+00 -3.894150018692016602e+00
1.150000000000000000e+02 2.862363243103027344e+01 -5.132919788360595703e+00 3.203014850616455078e+00 3.886662006378173828e+00 2.126903057098388672e+00 -3.100972175598144531e+00
1.160000000000000000e+02 2.871757507324218750e+01 -5.308397769927978516e+00 2.725462913513183594e+00 3.269876480102539062e+00 1.798601865768432617e+00 -2.526545286178588867e+00
1.170000000000000000e+02 2.848430061340332031e+01 -4.749494552612304688e+00 5.081805706024169922e+00 3.758159875869750977e+00 2.651989698410034180e+00 -4.784994602203369141e+00
1.180000000000000000e+02 2.861060714721679688e+01 -4.903326034545898438e+00 3.919610738754272461e+00 2.185842037200927734e+00 1.831635832786560059e+00 -3.051772594451904297e+00
1.190000000000000000e+02 2.873691177368164062e+01 -5.057157039642333984e+00 3.101726531982421875e+00 2.003687858581542969e+00 1.531624317169189453e+00 -2.238617658615112305e+00
1.200000000000000000e+02 2.886321830749511719e+01 -5.210988521575927734e+00 2.884245634078979492e+00 1.947845816612243652e+00 1.449627399444580078e+00 -2.128023862838745117e+00
1.210000000000000000e+02 2.852559852600097656e+01 -4.708194732666015625e+00 4.709139347076416016e+00 -2.562629282474517822e-01 1.335862874984741211e+00 -2.507652521133422852e+00
1.220000000000000000e+02 2.867943572998046875e+01 -4.834492206573486328e+00 2.680931568145751953e+00 5.033528804779052734e-01 9.552853107452392578e-01 -1.233291506767272949e+00
1.230000000000000000e+02 2.883327484130859375e+01 -4.960790157318115234e+00 2.647684574127197266e+00 1.118026494979858398e+00 1.129713296890258789e+00 -1.535047650337219238e+00
1.240000000000000000e+02 2.898711204528808594e+01 -5.087088108062744141e+00 2.419632434844970703e+00 6.621093153953552246e-01 9.245225191116333008e-01 -1.306671977043151855e+00
1.250000000000000000e+02 2.855806541442871094e+01 -4.659644126892089844e+00 -2.870543599128723145e-01 -2.214981317520141602e+00 -7.506107091903686523e-01 1.149512648582458496e+00
1.260000000000000000e+02 2.873354911804199219e+01 -4.753575325012207031e+00 1.411651134490966797e+00 7.256158590316772461e-01 6.411800980567932129e-01 -6.222622394561767578e-01
1.270000000000000000e+02 2.890903091430664062e+01 -4.847506523132324219e+00 1.422110080718994141e+00 1.971011981368064880e-02 4.325460791587829590e-01 -5.766024589538574219e-01
1.280000000000000000e+02 2.908451271057128906e+01 -4.941437721252441406e+00 1.499614357948303223e+00 3.325492441654205322e-01 5.496491193771362305e-01 -5.847536325454711914e-01
1.290000000000000000e+02 3.892633438110351562e+01 -6.099218368530273438e+00 -1.964020967483520508e+00 2.581773996353149414e-01 -5.117530822753906250e-01 -7.128964066505432129e-01
1.300000000000000000e+02 3.819995880126953125e+01 -5.994579792022705078e+00 -2.402637720108032227e+00 2.432363927364349365e-01 -6.478204131126403809e-01 -6.138083338737487793e-01
1.310000000000000000e+02 3.965283203125000000e+01 -6.203396797180175781e+00 -1.479827761650085449e+00 1.141558885574340820e-01 -4.097015559673309326e-01 -7.653971314430236816e-01
1.320000000000000000e+02 3.747375488281250000e+01 -5.889500617980957031e+00 -2.841972351074218750e+00 3.719989359378814697e-01 -7.409920096397399902e-01 -4.399769604206085205e-01
1.330000000000000000e+02 3.883199310302734375e+01 -6.833267211914062500e+00 -1.929089307785034180e+00 4.012732952833175659e-02 -5.666885972023010254e-01 -1.128995567560195923e-01
1.340000000000000000e+02 3.735847854614257812e+01 -6.620533466339111328e+00 -3.281567811965942383e+00 5.545518547296524048e-02 -9.678337574005126953e-01 1.583944112062454224e-01
1.350000000000000000e+02 3.956896591186523438e+01 -6.938953399658203125e+00 -1.208551406860351562e+00 7.032361626625061035e-02 -3.414683640003204346e-01 -1.795292943716049194e-01
1.360000000000000000e+02 3.809514999389648438e+01 -6.727120399475097656e+00 -2.651625633239746094e+00 8.163888007402420044e-02 -7.709960341453552246e-01 2.417290350422263145e-03
1.370000000000000000e+02 3.602727127075195312e+01 -5.635575294494628906e+00 -3.429192066192626953e+00 3.191959857940673828e-01 -9.329988360404968262e-01 5.929787829518318176e-02
1.380000000000000000e+02 3.589171600341796875e+01 -6.363053321838378906e+00 -4.368387699127197266e+00 -3.877954557538032532e-02 -1.322150230407714844e+00 5.370373129844665527e-01
1.390000000000000000e+02 3.674950027465820312e+01 -5.769296169281005859e+00 -3.230831384658813477e+00 3.663671314716339111e-01 -8.593392372131347656e-01 -2.232916057109832764e-01
1.400000000000000000e+02 3.530526733398437500e+01 -5.501914978027343750e+00 -3.533932924270629883e+00 2.490041404962539673e-01 -9.854786396026611328e-01 3.367868661880493164e-01
1.410000000000000000e+02 3.458345413208007812e+01 -5.366842746734619141e+00 -3.562320947647094727e+00 2.842285931110382080e-01 -9.834277033805847168e-01 7.055285573005676270e-01
1.420000000000000000e+02 3.442784118652343750e+01 -6.090587139129638672e+00 -4.693318843841552734e+00 -9.140761941671371460e-02 -1.435418009757995605e+00 8.798845410346984863e-01
1.430000000000000000e+02 3.662397384643554688e+01 -6.498641014099121094e+00 -3.847647190093994141e+00 6.376584619283676147e-02 -1.135164380073547363e+00 3.693079054355621338e-01
1.440000000000000000e+02 3.515968322753906250e+01 -6.227526187896728516e+00 -4.677029132843017578e+00 -1.142609957605600357e-02 -1.406536459922790527e+00 7.166581153869628906e-01
1.450000000000000000e+02 3.142779731750488281e+01 -5.153285980224609375e+00 -2.422058582305908203e+00 -3.208958506584167480e-01 -8.228863477706909180e-01 1.441448450088500977e+00
1.460000000000000000e+02 3.319610214233398438e+01 -5.036260128021240234e+00 -2.963737726211547852e+00 3.014016710221767426e-02 -8.800792694091796875e-01 1.215098619461059570e+00
1.470000000000000000e+02 3.388643646240234375e+01 -5.209627628326416016e+00 -3.440762519836425781e+00 8.243653923273086548e-02 -1.007497787475585938e+00 8.839598298072814941e-01
1.480000000000000000e+02 3.197310829162597656e+01 -4.662739753723144531e+00 -1.782935023307800293e+00 -2.057459056377410889e-01 -5.966042876243591309e-01 1.888451695442199707e+00
1.490000000000000000e+02 3.203663635253906250e+01 -5.669653892517089844e+00 -4.191753387451171875e+00 -3.708850741386413574e-01 -1.368791460990905762e+00 1.110477089881896973e+00
1.500000000000000000e+02 3.227642059326171875e+01 -5.315268993377685547e+00 -3.304501771926879883e+00 -3.260077238082885742e-01 -1.089152932167053223e+00 1.467266678810119629e+00
1.510000000000000000e+02 3.146176338195800781e+01 -4.949800014495849609e+00 -2.067133188247680664e+00 -4.620906114578247070e-01 -7.587671279907226562e-01 1.644709348678588867e+00
1.520000000000000000e+02 3.166867065429687500e+01 -5.492620468139648438e+00 -3.498981237411499023e+00 -2.194938212633132935e-01 -1.115542531013488770e+00 1.271760582923889160e+00
1.530000000000000000e+02 3.135879135131835938e+01 -5.362927436828613281e+00 -2.731039762496948242e+00 -3.250769674777984619e-01 -9.168350100517272949e-01 1.314288377761840820e+00
1.540000000000000000e+02 3.134354591369628906e+01 -5.585059642791748047e+00 -3.516861915588378906e+00 -2.167374491691589355e-01 -1.120079755783081055e+00 1.110931396484375000e+00
1.550000000000000000e+02 3.311702728271484375e+01 -5.780184745788574219e+00 -4.595091342926025391e+00 -3.287912011146545410e-01 -1.477164745330810547e+00 1.195002317428588867e+00
1.560000000000000000e+02 3.375299072265625000e+01 -5.939476013183593750e+00 -4.620341300964355469e+00 -8.097810298204421997e-02 -1.410395860671997070e+00 1.100419163703918457e+00
1.570000000000000000e+02 3.176928329467773438e+01 -4.397540092468261719e+00 -1.271866440773010254e+00 -3.208548426628112793e-01 -4.778163731098175049e-01 2.082761049270629883e+00
1.580000000000000000e+02 3.161235427856445312e+01 -4.581658840179443359e+00 -1.311774969100952148e+00 -4.828357100486755371e-01 -5.383831858634948730e-01 1.829395771026611328e+00
1.590000000000000000e+02 3.181435585021972656e+01 -5.181318759918212891e+00 -2.754325628280639648e+00 -3.442296683788299561e-01 -9.295665621757507324e-01 1.543985843658447266e+00
1.600000000000000000e+02 3.176560592651367188e+01 -4.913294315338134766e+00 -2.159507513046264648e+00 -3.032194972038269043e-01 -7.388181090354919434e-01 1.695017576217651367e+00
1.610000000000000000e+02 3.152247428894042969e+01 -4.768362045288085938e+00 -1.522568464279174805e+00 -4.111748337745666504e-01 -5.801230072975158691e-01 1.867982387542724609e+00
1.620000000000000000e+02 3.253208923339843750e+01 -5.726495265960693359e+00 -4.469366073608398438e+00 -2.410177439451217651e-01 -1.413115143775939941e+00 1.204188823699951172e+00
1.630000000000000000e+02 3.250480651855468750e+01 -4.819822788238525391e+00 -2.411227941513061523e+00 -1.600324958562850952e-01 -7.713780999183654785e-01 1.561280012130737305e+00
1.640000000000000000e+02 3.102033996582031250e+01 -5.493067741394042969e+00 -2.816872596740722656e+00 -5.165932774543762207e-01 -1.000039815902709961e+00 1.075879931449890137e+00
1.650000000000000000e+02 3.000744056701660156e+01 -4.892661571502685547e+00 -2.502295076847076416e-01 -6.201134920120239258e-01 -2.611028850078582764e-01 1.055148959159851074e+00
1.660000000000000000e+02 2.758699226379394531e+01 -3.667583703994750977e+00 3.419241428375244141e+00 5.086101531982421875e+00 2.551602840423583984e+00 -1.317816257476806641e+00
1.670000000000000000e+02 2.694279670715332031e+01 -4.256983280181884766e+00 6.664235591888427734e+00 1.492611408233642578e+00 2.447054147720336914e+00 -4.419843554496765137e-01
1.680000000000000000e+02 2.720758628845214844e+01 -4.680854797363281250e+00 7.967833995819091797e+00 3.255368709564208984e+00 3.366960763931274414e+00 1.920214176177978516e+00
1.690000000000000000e+02 2.766252708435058594e+01 -5.791648387908935547e+00 2.012017011642456055e+00 6.254743099212646484e+00 2.480027914047241211e+00 1.269167780876159668e+00
1.700000000000000000e+02 3.017823791503906250e+01 -5.439240455627441406e+00 1.493654012680053711e+00 2.770217657089233398e-01 5.312027335166931152e-01 -6.201021075248718262e-01
1.710000000000000000e+02 2.806151008605957031e+01 -3.304653406143188477e+00 -6.349072456359863281e-01 5.990917682647705078e+00 1.606803178787231445e+00 1.750912547111511230e+00
1.720000000000000000e+02 3.141403961181640625e+01 -4.286903381347656250e+00 -5.024315118789672852e-01 -3.845222890377044678e-01 -2.660861611366271973e-01 2.274993419647216797e+00
1.730000000000000000e+02 3.121868896484375000e+01 -4.211608409881591797e+00 -6.148702502250671387e-01 -3.972399532794952393e-01 -3.036330640316009521e-01 2.378617048263549805e+00
1.740000000000000000e+02 2.876200675964355469e+01 -3.513300657272338867e+00 2.817465782165527344e+00 3.753427505493164062e+00 1.971267938613891602e+00 5.597832202911376953e+00
1.750000000000000000e+02 2.913195419311523438e+01 -3.767585039138793945e+00 4.490243911743164062e+00 7.617421746253967285e-01 1.575595736503601074e+00 5.312944889068603516e+00
1.760000000000000000e+02 2.925750160217285156e+01 -3.581093549728393555e+00 3.248156309127807617e+00 5.372607707977294922e-01 1.135625123977661133e+00 5.443976402282714844e+00
1.770000000000000000e+02 2.997808074951171875e+01 -3.999147653579711914e+00 2.149834156036376953e+00 -9.843633174896240234e-01 3.496412038803100586e-01 3.261239290237426758e+00
1.780000000000000000e+02 2.984773635864257812e+01 -3.679891109466552734e+00 2.206560134887695312e+00 -6.013028621673583984e-01 4.815771579742431641e-01 4.285814285278320312e+00
1.790000000000000000e+02 3.083933448791503906e+01 -4.058462142944335938e+00 2.686096131801605225e-01 -5.787379741668701172e-01 -9.303850680589675903e-02 2.786653995513916016e+00
1.800000000000000000e+02 2.725062561035156250e+01 -4.891905784606933594e+00 7.213030815124511719e+00 4.104479789733886719e+00 3.395253181457519531e+00 2.736146211624145508e+00
1.810000000000000000e+02 2.728070640563964844e+01 -5.418590545654296875e+00 4.130443096160888672e+00 5.151228904724121094e+00 2.784501552581787109e+00 2.655492305755615234e+00
1.820000000000000000e+02 2.701098251342773438e+01 -4.545331001281738281e+00 7.381989002227783203e+00 2.076381683349609375e+00 2.837511062622070312e+00 8.892831206321716309e-01
1.830000000000000000e+02 2.703433418273925781e+01 -3.917823076248168945e+00 5.486985206604003906e+00 1.977249026298522949e+00 2.239270210266113281e+00 -1.595217704772949219e+00
1.840000000000000000e+02 2.816136550903320312e+01 -3.441654443740844727e+00 1.005045175552368164e+00 6.514808654785156250e+00 2.255956172943115234e+00 2.089288711547851562e+00
1.850000000000000000e+02 2.836894035339355469e+01 -3.415227651596069336e+00 1.038554072380065918e+00 5.966089248657226562e+00 2.101392984390258789e+00 4.041790485382080078e+00
1.860000000000000000e+02 3.054302406311035156e+01 -6.933513164520263672e+00 1.554234027862548828e+00 7.380824089050292969e-01 6.876949071884155273e-01 -9.402844309806823730e-01
1.870000000000000000e+02 3.061576271057128906e+01 -6.723209857940673828e+00 1.576058864593505859e+00 5.599305033683776855e-01 6.407968401908874512e-01 -8.428845405578613281e-01
1.880000000000000000e+02 3.036504554748535156e+01 -5.514081478118896484e+00 1.492568492889404297e+00 2.520460188388824463e-01 5.233843326568603516e-01 -6.237697601318359375e-01
1.890000000000000000e+02 3.054768562316894531e+01 -5.594846725463867188e+00 1.513443470001220703e+00 2.685467600822448730e-01 5.345970392227172852e-01 -6.103314161300659180e-01
1.900000000000000000e+02 2.912938690185546875e+01 -6.328114032745361328e+00 1.786124825477600098e+00 2.260520935058593750e+00 1.213993787765502930e+00 -1.605025887489318848e+00
1.910000000000000000e+02 2.894525146484375000e+01 -6.258393287658691406e+00 1.724987626075744629e+00 2.706381320953369141e+00 1.329410672187805176e+00 -1.599548339843750000e+00
1.920000000000000000e+02 2.821666717529296875e+01 -5.965922355651855469e+00 1.387310862541198730e+00 5.557442665100097656e+00 2.083425998687744141e+00 -8.283112645149230957e-01
1.930000000000000000e+02 3.062010002136230469e+01 -5.917684555053710938e+00 1.689197659492492676e+00 3.299642503261566162e-01 6.057485938072204590e-01 -6.452158093452453613e-01
1.940000000000000000e+02 3.075232315063476562e+01 -6.367754459381103516e+00 1.604463219642639160e+00 4.240587055683135986e-01 6.085565686225891113e-01 -7.270738482475280762e-01
1.950000000000000000e+02 2.980037307739257812e+01 -5.301106929779052734e+00 1.506322860717773438e+00 2.702578306198120117e-01 5.329741835594177246e-01 -6.218686699867248535e-01
1.960000000000000000e+02 2.930424308776855469e+01 -5.338972091674804688e+00 2.200384140014648438e+00 6.266878247261047363e-01 8.481215834617614746e-01 -1.171648979187011719e+00
1.970000000000000000e+02 2.719063377380371094e+01 -4.459944725036621094e+00 8.309007644653320312e+00 2.729621648788452148e+00 3.311589002609252930e+00 6.792808771133422852e-01
1.980000000000000000e+02 2.740642547607421875e+01 -5.575780391693115234e+00 3.175174713134765625e+00 5.655284881591796875e+00 2.649137973785400391e+00 2.265517473220825195e+00
1.990000000000000000e+02 2.765427780151367188e+01 -5.646329402923583984e+00 2.382193326950073242e+00 6.532015323638916016e+00 2.674262523651123047e+00 1.589710235595703125e+00
2.000000000000000000e+02 2.864546966552734375e+01 -5.763531684875488281e+00 1.991835117340087891e+00 4.182500839233398438e+00 1.852300882339477539e+00 -2.008718729019165039e+00
2.010000000000000000e+02 2.914203834533691406e+01 -5.214665412902832031e+00 2.299726963043212891e+00 7.541881203651428223e-01 9.161744713783264160e-01 -1.226652383804321289e+00
2.020000000000000000e+02 2.953401184082031250e+01 -4.888416290283203125e+00 5.151090025901794434e-01 -2.324484735727310181e-01 8.479816466569900513e-02 2.641411423683166504e-01
2.030000000000000000e+02 2.857332420349121094e+01 -3.448485612869262695e+00 9.529651999473571777e-01 4.999319553375244141e+00 1.785685420036315918e+00 4.802661418914794922e+00
2.040000000000000000e+02 2.768569374084472656e+01 -3.234121322631835938e+00 3.255843818187713623e-01 3.396402597427368164e+00 1.116596102714538574e+00 1.282505840063095093e-01
2.050000000000000000e+02 2.744115638732910156e+01 -3.807101249694824219e+00 5.258706092834472656e+00 4.056595325469970703e+00 2.794590473175048828e+00 -1.523232102394104004e+00
2.060000000000000000e+02 3.105575561523437500e+01 -4.646254062652587891e+00 -1.021384477615356445e+00 -4.892762601375579834e-01 -4.531982243061065674e-01 1.873652458190917969e+00
2.070000000000000000e+02 2.994442939758300781e+01 -4.536048412322998047e+00 1.443575263023376465e+00 -9.282816648483276367e-01 1.545880883932113647e-01 1.616903543472290039e+00
2.080000000000000000e+02 3.108917808532714844e+01 -5.292573451995849609e+00 -2.568172216415405273e+00 -4.072834253311157227e-01 -8.926367163658142090e-01 1.297889947891235352e+00
2.090000000000000000e+02 2.775403785705566406e+01 -5.446857929229736328e+00 2.528451919555664062e+00 7.884063243865966797e+00 3.123754501342773438e+00 1.716589212417602539e+00
2.100000000000000000e+02 2.839979362487792969e+01 -5.598896026611328125e+00 1.734353423118591309e+00 5.979455947875976562e+00 2.314142704010009766e+00 -1.848116278648376465e+00
2.110000000000000000e+02 2.923701095581054688e+01 -6.068593502044677734e+00 2.076131820678710938e+00 1.775875210762023926e+00 1.155602097511291504e+00 -1.633887529373168945e+00
2.120000000000000000e+02 3.036535644531250000e+01 -6.848426342010498047e+00 1.599378466606140137e+00 7.452929019927978516e-01 7.034013867378234863e-01 -9.805927872657775879e-01
2.130000000000000000e+02 3.084946823120117188e+01 -5.954213619232177734e+00 1.572340965270996094e+00 2.979642152786254883e-01 5.610915422439575195e-01 -5.882896780967712402e-01
2.140000000000000000e+02 3.027444648742675781e+01 -6.012524127960205078e+00 1.793022155761718750e+00 4.417931139469146729e-01 6.704446077346801758e-01 -8.010241389274597168e-01
2.150000000000000000e+02 2.802256011962890625e+01 -5.884736537933349609e+00 1.404463887214660645e+00 6.198282241821289062e+00 2.280823707580566406e+00 -2.296212911605834961e-01
2.160000000000000000e+02 3.026702690124511719e+01 -6.514901638031005859e+00 1.722277760505676270e+00 6.638866066932678223e-01 7.158492803573608398e-01 -9.608505368232727051e-01
2.170000000000000000e+02 2.982666587829589844e+01 -6.657729148864746094e+00 1.710392355918884277e+00 1.125177860260009766e+00 8.506710529327392578e-01 -1.159785747528076172e+00
2.180000000000000000e+02 2.777101135253906250e+01 -3.570891618728637695e+00 2.774309158325195312e+00 5.821127414703369141e+00 2.578630924224853516e+00 -4.634789228439331055e-01
2.190000000000000000e+02 2.959314537048339844e+01 -4.653822898864746094e+00 1.910365819931030273e+00 -6.919308900833129883e-01 3.655304610729217529e-01 8.680475354194641113e-01
2.200000000000000000e+02 2.934444808959960938e+01 -4.825798988342285156e+00 1.237027883529663086e+00 -1.979997754096984863e-01 3.117084503173828125e-01 -1.230016071349382401e-02
2.210000000000000000e+02 2.972440719604492188e+01 -4.963995933532714844e+00 -1.066059023141860962e-01 -2.198921293020248413e-01 -9.794940799474716187e-02 4.197404980659484863e-01
2.220000000000000000e+02 2.950974655151367188e+01 -3.902866125106811523e+00 3.749719142913818359e+00 -7.211826443672180176e-01 9.085609316825866699e-01 4.097349166870117188e+00
2.230000000000000000e+02 2.927124595642089844e+01 -3.976581573486328125e+00 4.966120719909667969e+00 -2.708796262741088867e-01 1.408572435379028320e+00 4.263927936553955078e+00
2.240000000000000000e+02 2.932456588745117188e+01 -3.415817975997924805e+00 1.936618208885192871e+00 4.317769706249237061e-01 7.105185389518737793e-01 5.160079956054687500e+00
2.250000000000000000e+02 2.894566726684570312e+01 -3.611559391021728516e+00 3.136532068252563477e+00 2.212721347808837891e+00 1.604776024818420410e+00 5.834427356719970703e+00
2.260000000000000000e+02 2.833079528808593750e+01 -5.764982223510742188e+00 1.587311983108520508e+00 5.832671642303466797e+00 2.225995063781738281e+00 -1.344065904617309570e+00
2.270000000000000000e+02 2.961610412597656250e+01 -5.218291282653808594e+00 1.500497221946716309e+00 2.372663468122482300e-01 5.213291049003601074e-01 -6.291370391845703125e-01
2.280000000000000000e+02 2.745697212219238281e+01 -5.238915920257568359e+00 4.753007411956787109e+00 6.248834609985351562e+00 3.300552606582641602e+00 3.057179450988769531e+00
2.290000000000000000e+02 2.942456054687500000e+01 -6.157125473022460938e+00 1.982842445373535156e+00 1.434555768966674805e+00 1.025219440460205078e+00 -1.412027359008789062e+00
2.300000000000000000e+02 2.821627998352050781e+01 -5.613764762878417969e+00 1.518812656402587891e+00 7.002160072326660156e+00 2.556291818618774414e+00 -9.571910500526428223e-01
2.310000000000000000e+02 2.733848571777343750e+01 -5.073634147644042969e+00 6.134278774261474609e+00 5.141737937927246094e+00 3.382805109024047852e+00 3.121329069137573242e+00
2.320000000000000000e+02 2.836898422241210938e+01 -3.163766860961914062e+00 -1.279235243797302246e+00 4.656377315521240234e+00 1.013142585754394531e+00 3.304203748703002930e+00
2.330000000000000000e+02 2.726230049133300781e+01 -3.630122900009155273e+00 3.396281719207763672e+00 3.186784982681274414e+00 1.974920034408569336e+00 -1.921495914459228516e+00
2.340000000000000000e+02 2.783388710021972656e+01 -3.150783061981201172e+00 -1.449901580810546875e+00 4.475434780120849609e+00 9.076598882675170898e-01 7.001050710678100586e-01
2.350000000000000000e+02 2.798851394653320312e+01 -3.115684747695922852e+00 -9.483255147933959961e-01 4.545167446136474609e+00 1.079052686691284180e+00 8.710861206054687500e-01
2.360000000000000000e+02 2.705688476562500000e+01 -5.080281257629394531e+00 5.954204082489013672e+00 3.576318264007568359e+00 2.859156847000122070e+00 2.532835960388183594e+00
2.370000000000000000e+02 2.704107093811035156e+01 -4.743000984191894531e+00 7.227632999420166016e+00 2.754212141036987305e+00 2.994553565979003906e+00 1.745976924896240234e+00
2.380000000000000000e+02 2.697077178955078125e+01 -4.072172641754150391e+00 6.120464801788330078e+00 1.607671856880187988e+00 2.318441152572631836e+00 -9.139143824577331543e-01
2.390000000000000000e+02 2.687324333190917969e+01 -4.611208915710449219e+00 6.739528656005859375e+00 1.575523376464843750e+00 2.494515657424926758e+00 9.797194004058837891e-01
2.400000000000000000e+02 2.696371269226074219e+01 -4.928518295288085938e+00 6.362296581268310547e+00 2.810443639755249023e+00 2.751821994781494141e+00 2.141831398010253906e+00
2.410000000000000000e+02 2.754998970031738281e+01 -3.352572917938232422e+00 8.036934137344360352e-01 3.678483486175537109e+00 1.344653010368347168e+00 -1.201907992362976074e+00
2.420000000000000000e+02 2.783339691162109375e+01 -5.835287570953369141e+00 1.589330315589904785e+00 6.471282005310058594e+00 2.418183565139770508e+00 5.294229388236999512e-01
2.430000000000000000e+02 3.083544158935546875e+01 -5.415316581726074219e+00 -2.644110679626464844e+00 -3.126573562622070312e-01 -8.870303630828857422e-01 1.176655650138854980e+00
2.440000000000000000e+02 3.090943527221679688e+01 -5.212767124176025391e+00 -2.200995683670043945e+00 -5.189561843872070312e-01 -8.159855604171752930e-01 1.227621316909790039e+00
2.450000000000000000e+02 3.007736587524414062e+01 -5.099715232849121094e+00 -1.206261634826660156e+00 -4.236741364002227783e-01 -4.889807403087615967e-01 7.625514864921569824e-01
2.460000000000000000e+02 3.007630157470703125e+01 -5.662610054016113281e+00 1.728789925575256348e+00 3.351778984069824219e-01 6.191903352737426758e-01 -7.589394450187683105e-01
2.470000000000000000e+02 3.025741386413574219e+01 -5.729554653167724609e+00 1.694050073623657227e+00 3.388345837593078613e-01 6.098653674125671387e-01 -7.113590240478515625e-01
2.480000000000000000e+02 2.943664360046386719e+01 -5.127468109130859375e+00 1.500286459922790527e+00 3.011378645896911621e-01 5.404273271560668945e-01 -6.111251711845397949e-01
2.490000000000000000e+02 2.899320983886718750e+01 -5.382051944732666016e+00 2.601782798767089844e+00 1.574653267860412598e+00 1.252930879592895508e+00 -1.878878355026245117e+00
2.500000000000000000e+02 2.966419029235839844e+01 -3.575896501541137695e+00 2.548742532730102539e+00 -6.542940735816955566e-01 5.683345198631286621e-01 4.841342926025390625e+00
2.510000000000000000e+02 2.950238037109375000e+01 -3.485316514968872070e+00 2.319483757019042969e+00 2.519523203372955322e-01 7.714307904243469238e-01 5.405769348144531250e+00
2.520000000000000000e+02 3.064887809753417969e+01 -3.990929126739501953e+00 8.286396861076354980e-01 -7.704771161079406738e-01 1.744878478348255157e-02 3.091063976287841797e+00
2.530000000000000000e+02 3.026002883911132812e+01 -3.845176219940185547e+00 1.418325662612915039e+00 -8.043735027313232422e-01 1.841856688261032104e-01 3.454672813415527344e+00
2.540000000000000000e+02 3.006035804748535156e+01 -3.761997222900390625e+00 1.899957776069641113e+00 -7.732713222503662109e-01 3.380059599876403809e-01 3.807617425918579102e+00
2.550000000000000000e+02 3.113789939880371094e+01 -4.424840927124023438e+00 -4.398041665554046631e-01 -6.257953047752380371e-01 -3.196798264980316162e-01 2.199579238891601562e+00
2.560000000000000000e+02 3.077161788940429688e+01 -4.267514228820800781e+00 2.167240679264068604e-01 -7.356909513473510742e-01 -1.556900590658187866e-01 2.526094436645507812e+00
2.570000000000000000e+02 3.134235572814941406e+01 -4.492125988006591797e+00 -1.098121762275695801e+00 -3.555879890918731689e-01 -4.361129105091094971e-01 2.090990543365478516e+00
2.580000000000000000e+02 3.056286811828613281e+01 -5.004385948181152344e+00 -1.312602043151855469e+00 -6.582874655723571777e-01 -5.912668704986572266e-01 1.260091781616210938e+00
2.590000000000000000e+02 2.896468734741210938e+01 -3.324238300323486328e+00 1.628368973731994629e+00 2.327579736709594727e+00 1.186784625053405762e+00 5.278305530548095703e+00
2.600000000000000000e+02 2.876798439025878906e+01 -3.244251966476440430e+00 -1.565722376108169556e-01 3.236999273300170898e+00 9.241281151771545410e-01 4.967150211334228516e+00
2.610000000000000000e+02 3.065201759338378906e+01 -5.333605289459228516e+00 -2.386446714401245117e+00 -5.666369199752807617e-01 -8.859251141548156738e-01 1.088061571121215820e+00
2.620000000000000000e+02 3.127523040771484375e+01 -4.697295188903808594e+00 -1.265818715095520020e+00 -5.806716084480285645e-01 -5.539470911026000977e-01 1.788305163383483887e+00
2.630000000000000000e+02 3.102232551574707031e+01 -4.853871822357177734e+00 -1.302465915679931641e+00 -6.281247735023498535e-01 -5.791772007942199707e-01 1.610026359558105469e+00
2.640000000000000000e+02 3.045255851745605469e+01 -6.602294921875000000e+00 1.667830944061279297e+00 6.494423747062683105e-01 6.951819658279418945e-01 -9.099876880645751953e-01
2.650000000000000000e+02 3.069859886169433594e+01 -6.538561344146728516e+00 1.663960933685302734e+00 5.153237581253051758e-01 6.537854075431823730e-01 -8.378755450248718262e-01
2.660000000000000000e+02 2.875992774963378906e+01 -6.196776866912841797e+00 1.641690015792846680e+00 3.263472318649291992e+00 1.471548676490783691e+00 -1.621576309204101562e+00
2.670000000000000000e+02 2.984161567687988281e+01 -6.470551013946533203e+00 1.813367605209350586e+00 1.047935843467712402e+00 8.583910465240478516e-01 -1.188932180404663086e+00
2.680000000000000000e+02 2.967446327209472656e+01 -6.573575496673583984e+00 1.751255989074707031e+00 1.243804812431335449e+00 8.985182046890258789e-01 -1.239890336990356445e+00
2.690000000000000000e+02 2.857709503173828125e+01 -6.134969711303710938e+00 1.556012868881225586e+00 3.949307680130004883e+00 1.651596188545227051e+00 -1.548952937126159668e+00
2.700000000000000000e+02 2.883072471618652344e+01 -5.966722965240478516e+00 1.916479825973510742e+00 3.134156227111816406e+00 1.515190839767456055e+00 -1.829741358757019043e+00
2.710000000000000000e+02 2.962784194946289062e+01 -6.207442283630371094e+00 1.945478916168212891e+00 1.120300054550170898e+00 9.197337031364440918e-01 -1.280311107635498047e+00
2.720000000000000000e+02 2.864652633666992188e+01 -5.941559791564941406e+00 1.737129569053649902e+00 3.834817409515380859e+00 1.671584129333496094e+00 -1.806463718414306641e+00
2.730000000000000000e+02 2.860021781921386719e+01 -5.573897361755371094e+00 2.098859548568725586e+00 4.583609580993652344e+00 2.004740715026855469e+00 -2.258257865905761719e+00
2.740000000000000000e+02 2.950891494750976562e+01 -6.476300716400146484e+00 1.773415565490722656e+00 1.496549725532531738e+00 9.809895753860473633e-01 -1.331780433654785156e+00
2.750000000000000000e+02 3.010207557678222656e+01 -6.059247016906738281e+00 1.881157279014587402e+00 5.800182819366455078e-01 7.383526563644409180e-01 -9.471949934959411621e-01
2.760000000000000000e+02 3.018788337707519531e+01 -6.773246288299560547e+00 1.645275235176086426e+00 8.737331628799438477e-01 7.557024955749511719e-01 -1.045857310295104980e+00
2.770000000000000000e+02 2.978430175781250000e+01 -4.355002880096435547e+00 2.567717790603637695e+00 -1.037517189979553223e+00 4.590601325035095215e-01 2.080318927764892578e+00
2.780000000000000000e+02 3.036460494995117188e+01 -4.876056194305419922e+00 -6.511641740798950195e-01 -6.608520150184631348e-01 -3.936048448085784912e-01 1.271476387977600098e+00
2.790000000000000000e+02 2.990264892578125000e+01 -5.052030086517333984e+00 -6.498795151710510254e-01 -3.144758939743041992e-01 -2.893066108226776123e-01 5.335158109664916992e-01
2.800000000000000000e+02 2.925970649719238281e+01 -5.034889698028564453e+00 1.488880991935729980e+00 1.956584751605987549e-01 5.053618550300598145e-01 -6.449780464172363281e-01
2.810000000000000000e+02 2.907379531860351562e+01 -5.738202571868896484e+00 2.286118984222412109e+00 1.996193528175354004e+00 1.284693717956542969e+00 -1.814064860343933105e+00
2.820000000000000000e+02 3.073347473144531250e+01 -5.670956134796142578e+00 1.555964827537536621e+00 2.502130866050720215e-01 5.418533682823181152e-01 -6.123127937316894531e-01
2.830000000000000000e+02 2.976041030883789062e+01 -3.922935009002685547e+00 2.931055068969726562e+00 -8.838070034980773926e-01 6.141744256019592285e-01 3.762397527694702148e+00
2.840000000000000000e+02 3.102798461914062500e+01 -4.134802341461181641e+00 1.048313360661268234e-02 -4.967320561408996582e-01 -1.458746790885925293e-01 2.700204372406005859e+00
2.850000000000000000e+02 2.954460716247558594e+01 -4.159810543060302734e+00 4.004036903381347656e+00 -1.013156294822692871e+00 8.972642421722412109e-01 2.947256565093994141e+00
2.860000000000000000e+02 2.934329414367675781e+01 -4.194428920745849609e+00 4.814583301544189453e+00 -9.675247669219970703e-01 1.154117584228515625e+00 2.847186565399169922e+00
2.870000000000000000e+02 2.938283157348632812e+01 -4.408000469207763672e+00 4.032878875732421875e+00 -9.092996716499328613e-01 9.370737075805664062e-01 1.563156127929687500e+00
2.880000000000000000e+02 2.880834197998046875e+01 -5.502708911895751953e+00 2.493218898773193359e+00 2.976345062255859375e+00 1.640869259834289551e+00 -2.255190372467041016e+00
2.890000000000000000e+02 2.928644371032714844e+01 -5.676579952239990234e+00 2.259938240051269531e+00 1.203000545501708984e+00 1.038881659507751465e+00 -1.509652614593505859e+00
2.900000000000000000e+02 2.885478210449218750e+01 -5.729583740234375000e+00 2.218116283416748047e+00 2.938377141952514648e+00 1.546948075294494629e+00 -2.086556196212768555e+00
2.910000000000000000e+02 2.938261032104492188e+01 -5.852746009826660156e+00 2.145959854125976562e+00 1.246960759162902832e+00 1.017876148223876953e+00 -1.421876668930053711e+00
2.920000000000000000e+02 3.058823776245117188e+01 -6.418822288513183594e+00 1.684949755668640137e+00 4.739157259464263916e-01 6.476596593856811523e-01 -8.206735849380493164e-01
2.930000000000000000e+02 3.027112007141113281e+01 -5.151467800140380859e+00 -1.565809130668640137e+00 -5.641351342201232910e-01 -6.389832496643066406e-01 9.436595439910888672e-01
2.940000000000000000e+02 3.059508895874023438e+01 -4.234519958496093750e+00 5.981686115264892578e-01 -7.947437763214111328e-01 -5.897255241870880127e-02 2.487987756729125977e+00
2.950000000000000000e+02 3.093120956420898438e+01 -5.738025188446044922e+00 1.692910194396972656e+00 2.689896821975708008e-01 5.885699391365051270e-01 -5.870518684387207031e-01
2.960000000000000000e+02 3.042624282836914062e+01 -5.834754467010498047e+00 1.692125916481018066e+00 3.075252771377563477e-01 5.998953580856323242e-01 -6.962465643882751465e-01
2.970000000000000000e+02 2.959099578857421875e+01 -4.406642436981201172e+00 2.969265460968017578e+00 -1.008746504783630371e+00 5.881556868553161621e-01 1.779694080352783203e+00
2.980000000000000000e+02 2.956651687622070312e+01 -5.801607131958007812e+00 2.143955230712890625e+00 8.629755377769470215e-01 9.020792245864868164e-01 -1.242757916450500488e+00
2.990000000000000000e+02 3.000977706909179688e+01 -5.856872558593750000e+00 1.858041644096374512e+00 4.599058032035827637e-01 6.953842043876647949e-01 -8.706336617469787598e-01
3.000000000000000000e+02 2.985084915161132812e+01 -6.236567020416259766e+00 1.903182864189147949e+00 9.025119543075561523e-01 8.417084217071533203e-01 -1.155550599098205566e+00
3.010000000000000000e+02 3.050620079040527344e+01 -4.623889923095703125e+00 6.480250507593154907e-02 -8.660420179367065430e-01 -2.403718680143356323e-01 1.815175056457519531e+00
3.020000000000000000e+02 3.073730087280273438e+01 -5.117411613464355469e+00 -1.768324255943298340e+00 -4.536025226116180420e-01 -6.665780544281005859e-01 1.302267074584960938e+00
3.030000000000000000e+02 3.005388641357421875e+01 -6.482604026794433594e+00 1.796257615089416504e+00 8.159695267677307129e-01 7.836681604385375977e-01 -1.068338036537170410e+00
3.040000000000000000e+02 3.000472450256347656e+01 -6.710088253021240234e+00 1.675645709037780762e+00 9.868657588958740234e-01 7.987534403800964355e-01 -1.128989100456237793e+00
3.050000000000000000e+02 3.078708839416503906e+01 -6.171225070953369141e+00 1.623940706253051758e+00 3.559900820255279541e-01 5.939792394638061523e-01 -6.773924231529235840e-01
3.060000000000000000e+02 3.055443382263183594e+01 -6.191592693328857422e+00 1.682152628898620605e+00 4.263207912445068359e-01 6.325420141220092773e-01 -7.518418431282043457e-01
3.070000000000000000e+02 3.015828132629394531e+01 -5.905734062194824219e+00 1.813435077667236328e+00 4.134010672569274902e-01 6.680508255958557129e-01 -8.197806477546691895e-01
3.080000000000000000e+02 2.998919486999511719e+01 -5.371608734130859375e+00 1.494442462921142578e+00 2.490357160568237305e-01 5.230434536933898926e-01 -6.363267898559570312e-01
3.090000000000000000e+02 2.988067054748535156e+01 -5.628991603851318359e+00 1.835094213485717773e+00 4.579659700393676758e-01 6.879180669784545898e-01 -8.469812870025634766e-01
3.100000000000000000e+02 2.966634368896484375e+01 -5.578237533569335938e+00 1.972562909126281738e+00 5.009337663650512695e-01 7.420489788055419922e-01 -9.875476360321044922e-01
3.110000000000000000e+02 3.115825653076171875e+01 -5.095463275909423828e+00 -2.060835838317871094e+00 -4.962818622589111328e-01 -7.671353220939636230e-01 1.356770396232604980e+00
3.120000000000000000e+02 3.121792030334472656e+01 -4.898386001586914062e+00 -1.684077382087707520e+00 -3.992191553115844727e-01 -6.249889731407165527e-01 1.653585553169250488e+00
3.130000000000000000e+02 3.046742630004882812e+01 -5.246205806732177734e+00 -1.991391181945800781e+00 -3.526206314563751221e-01 -7.032035589218139648e-01 1.093230962753295898e+00
3.140000000000000000e+02 2.938403892517089844e+01 -4.619698524475097656e+00 2.811268091201782227e+00 -6.538863778114318848e-01 6.472145318984985352e-01 6.194726824760437012e-01
3.150000000000000000e+02 3.094542884826660156e+01 -4.350101947784423828e+00 -3.377096951007843018e-01 -5.458564758300781250e-01 -2.650698423385620117e-01 2.311266899108886719e+00
3.160000000000000000e+02 3.045577430725097656e+01 -3.923809766769409180e+00 1.169141292572021484e+00 -7.726015448570251465e-01 1.189619302749633789e-01 3.116500139236450195e+00
3.170000000000000000e+02 3.039188957214355469e+01 -4.196213245391845703e+00 1.026877045631408691e+00 -9.406865835189819336e-01 2.585713565349578857e-02 2.735195398330688477e+00
3.180000000000000000e+02 2.931555175781250000e+01 -6.403066158294677734e+00 1.814331889152526855e+00 1.816485166549682617e+00 1.089245080947875977e+00 -1.502147912979125977e+00
3.190000000000000000e+02 2.903860092163085938e+01 -5.997576236724853516e+00 2.046477794647216797e+00 2.382672071456909180e+00 1.328745007514953613e+00 -1.809123635292053223e+00
3.200000000000000000e+02 2.849439620971679688e+01 -5.870471954345703125e+00 1.663960576057434082e+00 4.758028030395507812e+00 1.926596641540527344e+00 -1.682246565818786621e+00
3.210000000000000000e+02 2.839968299865722656e+01 -6.060703754425048828e+00 1.390866398811340332e+00 4.750652313232421875e+00 1.842455625534057617e+00 -1.338040828704833984e+00
3.220000000000000000e+02 2.752294349670410156e+01 -5.711851119995117188e+00 2.494941711425781250e+00 5.863528728485107422e+00 2.507541179656982422e+00 1.737214803695678711e+00
3.230000000000000000e+02 2.758917808532714844e+01 -5.498883724212646484e+00 3.009215593338012695e+00 6.689683437347412109e+00 2.909669637680053711e+00 2.136898279190063477e+00
3.240000000000000000e+02 2.715655899047851562e+01 -5.256725311279296875e+00 5.088878631591796875e+00 4.402173995971679688e+00 2.847315788269042969e+00 2.809665918350219727e+00
3.250000000000000000e+02 2.690020561218261719e+01 -4.782291889190673828e+00 6.492333412170410156e+00 1.927592277526855469e+00 2.525977611541748047e+00 1.376797914505004883e+00
3.260000000000000000e+02 2.689382934570312500e+01 -4.441564083099365234e+00 6.881805896759033203e+00 1.445440411567687988e+00 2.498173952102661133e+00 3.015288412570953369e-01
3.270000000000000000e+02 2.947098541259765625e+01 -5.467367649078369141e+00 2.101699352264404297e+00 6.492793560028076172e-01 8.252936005592346191e-01 -1.061937689781188965e+00
3.280000000000000000e+02 2.720067024230957031e+01 -4.256946563720703125e+00 7.751506328582763672e+00 2.611362934112548828e+00 3.108860731124877930e+00 -2.845274806022644043e-01
3.290000000000000000e+02 2.732563018798828125e+01 -3.956274747848510742e+00 6.402489662170410156e+00 3.571531057357788086e+00 2.992206096649169922e+00 -1.415659904479980469e+00
3.300000000000000000e+02 2.717083930969238281e+01 -4.065309047698974609e+00 6.732377052307128906e+00 2.493587255477905273e+00 2.767789363861083984e+00 -1.025612711906433105e+00
3.310000000000000000e+02 2.714120864868164062e+01 -3.776034116744995117e+00 4.363566398620605469e+00 2.113751649856567383e+00 1.943195462226867676e+00 -1.555805444717407227e+00
3.320000000000000000e+02 2.740858268737792969e+01 -3.490268945693969727e+00 2.582168579101562500e+00 3.415689468383789062e+00 1.799357414245605469e+00 -1.388636350631713867e+00
3.330000000000000000e+02 2.773791694641113281e+01 -3.430803060531616211e+00 1.315587043762207031e+00 5.187974929809570312e+00 1.951068520545959473e+00 1.336339116096496582e-01
3.340000000000000000e+02 2.796751976013183594e+01 -3.508525133132934570e+00 1.064392685890197754e+00 6.932974815368652344e+00 2.399210214614868164e+00 1.079299926757812500e+00
3.350000000000000000e+02 2.816542434692382812e+01 -3.136175394058227539e+00 -5.598000884056091309e-01 4.553640365600585938e+00 1.198152065277099609e+00 2.737784147262573242e+00
3.360000000000000000e+02 2.792593193054199219e+01 -3.226254940032958984e+00 -2.248531430959701538e-01 4.708437919616699219e+00 1.345075368881225586e+00 1.260511040687561035e+00
3.370000000000000000e+02 2.857486534118652344e+01 -3.191079616546630859e+00 -1.001442745327949524e-01 4.154462337493896484e+00 1.216295480728149414e+00 4.500495433807373047e+00
3.380000000000000000e+02 2.915156555175781250e+01 -3.372336864471435547e+00 1.667895197868347168e+00 1.047449350357055664e+00 8.146033883094787598e-01 5.406888008117675781e+00
3.390000000000000000e+02 3.018153762817382812e+01 -4.097211360931396484e+00 1.604355931282043457e+00 -9.633173942565917969e-01 1.923115551471710205e-01 2.903451681137084961e+00
3.400000000000000000e+02 2.790618133544921875e+01 -3.399117469787597656e+00 1.313987612724304199e+00 5.991504669189453125e+00 2.191647768020629883e+00 6.429453492164611816e-01
3.410000000000000000e+02 2.802760887145996094e+01 -5.611844539642333984e+00 1.668926835060119629e+00 7.522313594818115234e+00 2.757372140884399414e+00 2.847626060247421265e-02
3.420000000000000000e+02 2.761005783081054688e+01 -5.356714248657226562e+00 3.637382030487060547e+00 7.206955432891845703e+00 3.253301143646240234e+00 2.560325384140014648e+00
3.430000000000000000e+02 2.781115913391113281e+01 -3.318940877914428711e+00 -1.530242115259170532e-01 5.119575023651123047e+00 1.489965200424194336e+00 1.238918453454971313e-01
3.440000000000000000e+02 2.948241233825683594e+01 -3.667429208755493164e+00 3.285051345825195312e+00 -1.189107224345207214e-01 9.498421549797058105e-01 4.883113384246826172e+00
3.450000000000000000e+02 2.783037185668945312e+01 -5.612300872802734375e+00 2.056975364685058594e+00 7.338251113891601562e+00 2.818567991256713867e+00 1.004210591316223145e+00
3.460000000000000000e+02 3.098947525024414062e+01 -5.031815052032470703e+00 -1.819584131240844727e+00 -4.923099875450134277e-01 -6.935682296752929688e-01 1.455908656120300293e+00
3.470000000000000000e+02 3.085375976562500000e+01 -4.926313400268554688e+00 -1.373740553855895996e+00 -5.923736691474914551e-01 -5.898342728614807129e-01 1.463736295700073242e+00
3.480000000000000000e+02 3.070242691040039062e+01 -4.781878948211669922e+00 -8.636891245841979980e-01 -6.308043599128723145e-01 -4.483480453491210938e-01 1.595368623733520508e+00
3.490000000000000000e+02 3.015447044372558594e+01 -4.712560653686523438e+00 3.381980955600738525e-01 -8.242012858390808105e-01 -1.458009630441665649e-01 1.392023205757141113e+00
3.500000000000000000e+02 2.950396156311035156e+01 -5.957827091217041016e+00 2.070381402969360352e+00 1.244759202003479004e+00 9.945421814918518066e-01 -1.360245108604431152e+00
3.510000000000000000e+02 2.981163787841796875e+01 -4.741265773773193359e+00 9.606667757034301758e-01 -6.852039694786071777e-01 8.263884484767913818e-02 1.066269516944885254e+00
3.520000000000000000e+02 3.029490089416503906e+01 -4.466479301452636719e+00 7.240422964096069336e-01 -9.059397578239440918e-01 -5.456924438476562500e-02 2.014314174652099609e+00
3.530000000000000000e+02 3.031400871276855469e+01 -6.233979225158691406e+00 1.775262951850891113e+00 5.299432873725891113e-01 6.915618777275085449e-01 -8.718413114547729492e-01
3.540000000000000000e+02 3.008470726013183594e+01 -4.330981731414794922e+00 1.632102966308593750e+00 -1.047023773193359375e+00 1.755237430334091187e-01 2.390080451965332031e+00
3.550000000000000000e+02 2.993382453918457031e+01 -6.020800590515136719e+00 1.955448031425476074e+00 6.462008357048034668e-01 7.804946303367614746e-01 -1.038896322250366211e+00
3.560000000000000000e+02 2.990561103820800781e+01 -4.207340240478515625e+00 2.280295610427856445e+00 -1.062462449073791504e+00 3.653499782085418701e-01 2.678818464279174805e+00
3.570000000000000000e+02 2.973583412170410156e+01 -4.150372028350830078e+00 3.112939119338989258e+00 -1.084406852722167969e+00 6.085596680641174316e-01 2.881738185882568359e+00
3.580000000000000000e+02 3.008125495910644531e+01 -6.252873897552490234e+00 1.838423132896423340e+00 6.703895926475524902e-01 7.526438236236572266e-01 -9.931347370147705078e-01
3.590000000000000000e+02 3.084285926818847656e+01 -4.567084789276123047e+00 -3.537190258502960205e-01 -7.799671888351440430e-01 -3.401058614253997803e-01 1.945767760276794434e+00
3.600000000000000000e+02 3.066032218933105469e+01 -4.434459686279296875e+00 2.075001830235123634e-03 -7.286113500595092773e-01 -2.179609090089797974e-01 2.193995237350463867e+00
3.610000000000000000e+02 2.914824676513671875e+01 -5.527606964111328125e+00 2.451686382293701172e+00 1.454926013946533203e+00 1.171983718872070312e+00 -1.655868411064147949e+00
3.620000000000000000e+02 2.966463279724121094e+01 -5.949814796447753906e+00 2.064300537109375000e+00 8.365694880485534668e-01 8.702610135078430176e-01 -1.228860497474670410e+00
3.630000000000000000e+02 2.984184837341308594e+01 -5.876446247100830078e+00 1.966332435607910156e+00 6.165490150451660156e-01 7.748644351959228516e-01 -1.005545258522033691e+00
3.640000000000000000e+02 3.107252502441406250e+01 -5.880859851837158203e+00 1.618114113807678223e+00 2.099926918745040894e-01 5.484320521354675293e-01 -5.611977577209472656e-01
3.650000000000000000e+02 3.119376564025878906e+01 -6.893681526184082031e+00 1.442676305770874023e+00 4.374423027038574219e-01 5.640355944633483887e-01 -7.510504722595214844e-01
3.660000000000000000e+02 3.277909469604492188e+01 -7.257014274597167969e+00 1.081526517868041992e+00 2.236680537462234497e-01 3.915583789348602295e-01 -5.115614533424377441e-01
3.670000000000000000e+02 3.218040084838867188e+01 -6.361357212066650391e+00 1.290098786354064941e+00 1.538850367069244385e-01 4.331951439380645752e-01 -4.219458699226379395e-01
3.680000000000000000e+02 3.093797302246093750e+01 -6.555644989013671875e+00 1.570036888122558594e+00 4.253771901130676270e-01 5.986242294311523438e-01 -7.551897168159484863e-01
3.690000000000000000e+02 3.163782882690429688e+01 -6.386851787567138672e+00 1.421510934829711914e+00 1.847926825284957886e-01 4.818910956382751465e-01 -5.155969262123107910e-01
3.700000000000000000e+02 3.087994003295898438e+01 -6.791287422180175781e+00 1.558293938636779785e+00 5.004371404647827148e-01 6.176193356513977051e-01 -8.079388141632080078e-01
3.710000000000000000e+02 3.087297821044921875e+01 -7.029388427734375000e+00 1.440978050231933594e+00 5.645746588706970215e-01 6.016657948493957520e-01 -8.360350131988525391e-01
3.720000000000000000e+02 3.341353988647460938e+01 -7.419973850250244141e+00 9.349273443222045898e-01 1.907835602760314941e-01 3.377132713794708252e-01 -4.515735507011413574e-01
3.730000000000000000e+02 3.354512023925781250e+01 -6.689641475677490234e+00 1.025286912918090820e+00 1.118065491318702698e-01 3.411280512809753418e-01 -3.222942054271697998e-01
3.740000000000000000e+02 3.285256576538085938e+01 -6.511639118194580078e+00 1.144302129745483398e+00 1.109567806124687195e-01 3.765776753425598145e-01 -3.661794066429138184e-01
3.750000000000000000e+02 3.095800971984863281e+01 -6.330941200256347656e+00 1.597594380378723145e+00 3.551905453205108643e-01 5.858354568481445312e-01 -6.920234560966491699e-01
3.760000000000000000e+02 3.100228881835937500e+01 -6.002538681030273438e+00 1.601279735565185547e+00 2.945226430892944336e-01 5.687407255172729492e-01 -5.910921096801757812e-01
3.770000000000000000e+02 3.118048286437988281e+01 -6.202037811279296875e+00 1.478907346725463867e+00 3.061575591564178467e-01 5.355194807052612305e-01 -5.794168710708618164e-01
3.780000000000000000e+02 3.159730911254882812e+01 -7.021942138671875000e+00 1.313832998275756836e+00 3.728418350219726562e-01 5.060024857521057129e-01 -6.769466996192932129e-01
3.790000000000000000e+02 3.216503906250000000e+01 -7.121775150299072266e+00 1.206409931182861328e+00 2.724000215530395508e-01 4.436430037021636963e-01 -5.933021306991577148e-01
3.800000000000000000e+02 3.135424041748046875e+01 -5.939740180969238281e+00 1.518409371376037598e+00 1.615225672721862793e-01 5.039795637130737305e-01 -4.848247766494750977e-01
3.810000000000000000e+02 3.096531105041503906e+01 -6.154700756072998047e+00 1.498225569725036621e+00 3.262365758419036865e-01 5.473386645317077637e-01 -6.123149394989013672e-01
3.820000000000000000e+02 3.107102203369140625e+01 -6.064275264739990234e+00 1.528866052627563477e+00 2.337111383676528931e-01 5.287731289863586426e-01 -5.886524319648742676e-01
3.830000000000000000e+02 3.126581764221191406e+01 -6.507499694824218750e+00 1.494839310646057129e+00 3.531987965106964111e-01 5.544114112854003906e-01 -6.486455798149108887e-01
3.840000000000000000e+02 3.561322402954101562e+01 -7.858486175537109375e+00 5.312564373016357422e-01 1.189836934208869934e-01 1.950720399618148804e-01 -3.078045547008514404e-01
3.850000000000000000e+02 3.486053848266601562e+01 -7.718385696411132812e+00 6.628987193107604980e-01 1.383979916572570801e-01 2.403890192508697510e-01 -3.584866523742675781e-01
3.860000000000000000e+02 3.410816955566406250e+01 -7.577292442321777344e+00 7.916018366813659668e-01 1.764498502016067505e-01 2.904155254364013672e-01 -4.125322103500366211e-01
3.870000000000000000e+02 3.636615753173828125e+01 -7.997588634490966797e+00 4.126524627208709717e-01 1.045118942856788635e-01 1.551493108272552490e-01 -2.584443092346191406e-01
3.880000000000000000e+02 3.574878311157226562e+01 -7.131008148193359375e+00 5.557056069374084473e-01 5.105961114168167114e-02 1.820295602083206177e-01 -1.755789071321487427e-01
3.890000000000000000e+02 3.500612640380859375e+01 -6.992774963378906250e+00 7.037398219108581543e-01 6.181366369128227234e-02 2.296660542488098145e-01 -2.140638232231140137e-01
3.900000000000000000e+02 3.649168395996093750e+01 -7.268243312835693359e+00 4.266055226325988770e-01 4.299938306212425232e-02 1.408814787864685059e-01 -1.424993425607681274e-01
3.910000000000000000e+02 3.426378631591796875e+01 -6.853548526763916016e+00 8.786259293556213379e-01 8.361776918172836304e-02 2.886731028556823730e-01 -2.656076252460479736e-01
3.920000000000000000e+02 3.873265075683593750e+01 -7.607871532440185547e+00 1.143446341156959534e-01 2.316916361451148987e-02 4.125414043664932251e-02 -5.244864895939826965e-02
3.930000000000000000e+02 3.863831329345703125e+01 -8.341920852661132812e+00 1.494255363941192627e-01 5.945559591054916382e-02 6.266433745622634888e-02 -1.309637427330017090e-01
3.940000000000000000e+02 3.948057556152343750e+01 -7.714472770690917969e+00 5.272448807954788208e-02 8.512452244758605957e-03 1.837108284235000610e-02 -3.542199358344078064e-02
3.950000000000000000e+02 3.798476028442382812e+01 -7.500135421752929688e+00 1.974033117294311523e-01 2.125202864408493042e-02 6.559660285711288452e-02 -7.855096459388732910e-02
3.960000000000000000e+02 3.723697280883789062e+01 -7.391283512115478516e+00 3.059808313846588135e-01 3.561878949403762817e-02 1.024798825383186340e-01 -1.064488366246223450e-01
3.970000000000000000e+02 3.712169647216796875e+01 -8.122316360473632812e+00 3.090879321098327637e-01 8.957555890083312988e-02 1.195990443229675293e-01 -2.191319465637207031e-01
3.980000000000000000e+02 3.939670562744140625e+01 -8.450029373168945312e+00 9.384056180715560913e-02 5.108106881380081177e-02 4.347648844122886658e-02 -8.860342949628829956e-02
3.990000000000000000e+02 3.787995529174804688e+01 -8.232675552368164062e+00 2.227754443883895874e-01 7.570787519216537476e-02 8.954499661922454834e-02 -1.703440994024276733e-01
4.000000000000000000e+02 4.014806365966796875e+01 -8.524629592895507812e+00 5.450594797730445862e-02 3.787699341773986816e-02 2.771488204598426819e-02 -5.223029851913452148e-02
4.010000000000000000e+02 4.030273818969726562e+01 -7.793628215789794922e+00 9.997254237532615662e-03 1.430952362716197968e-02 7.292033638805150986e-03 -1.324870344251394272e-02
4.020000000000000000e+02 4.084743499755859375e+01 -8.589353561401367188e+00 2.242652140557765961e-02 3.202711045742034912e-02 1.633608900010585785e-02 -2.451361343264579773e-02
4.030000000000000000e+02 4.161405181884765625e+01 -8.166538238525390625e+00 1.130469841882586479e-03 -7.064705714583396912e-03 -1.780270831659436226e-03 4.660411737859249115e-03
4.040000000000000000e+02 4.115419006347656250e+01 -7.868972301483154297e+00 -3.054785309359431267e-03 -9.768689778866246343e-05 -9.457416599616408348e-04 -1.896594039862975478e-04
4.050000000000000000e+02 4.173940277099609375e+01 -8.715756416320800781e+00 -7.396146189421415329e-03 1.830384833738207817e-03 -1.669728429988026619e-03 9.882654994726181030e-03
4.060000000000000000e+02 4.143057632446289062e+01 -8.687714576721191406e+00 3.205719403922557831e-03 1.480297464877367020e-02 5.402608308941125870e-03 -7.148299366235733032e-03
4.070000000000000000e+02 4.183159637451171875e+01 -8.484095573425292969e+00 -6.221724324859678745e-04 -1.438884250819683075e-02 -4.503304604440927505e-03 7.512966636568307877e-03
4.080000000000000000e+02 4.136654663085937500e+01 -6.368330001831054688e+00 -4.070139527320861816e-01 -2.978495061397552490e-01 -2.114590406417846680e-01 -3.939955830574035645e-01
4.090000000000000000e+02 4.130027008056640625e+01 -7.105504035949707031e+00 -1.108914911746978760e-01 -1.524260547012090683e-02 -3.784022852778434753e-02 -1.041611433029174805e-01
4.100000000000000000e+02 4.048490142822265625e+01 -6.293570041656494141e+00 -8.862413167953491211e-01 -6.734348833560943604e-02 -2.860754430294036865e-01 -6.484388113021850586e-01
4.110000000000000000e+02 4.041038513183593750e+01 -7.030169010162353516e+00 -5.690026283264160156e-01 -2.608143538236618042e-02 -1.785252243280410767e-01 -1.871018707752227783e-01
4.120000000000000000e+02 4.190933990478515625e+01 -6.585752010345458984e+00 -2.615380659699440002e-02 -1.346848607063293457e-01 -4.825160279870033264e-02 -3.604150190949440002e-02
4.130000000000000000e+02 3.969403076171875000e+01 -5.448415756225585938e+00 -1.580303788185119629e+00 2.012094110250473022e-01 -4.137282967567443848e-01 -1.172073006629943848e+00
4.140000000000000000e+02 3.965750122070312500e+01 -4.106206417083740234e+00 -1.522907495498657227e+00 1.311108469963073730e-01 -4.175390005111694336e-01 -1.783474206924438477e+00
4.150000000000000000e+02 3.419946289062500000e+01 -1.460917145013809204e-01 4.680664539337158203e+00 2.764089584350585938e+00 2.233426094055175781e+00 3.322429418563842773e+00
4.160000000000000000e+02 3.341820526123046875e+01 -4.338346481323242188e+00 -1.940195679664611816e+00 3.599909245967864990e-01 -4.740613996982574463e-01 1.268739938735961914e+00
4.170000000000000000e+02 3.108183479309082031e+01 -2.562425613403320312e+00 4.533942043781280518e-01 5.219900012016296387e-01 2.926152646541595459e-01 3.641034126281738281e+00
4.180000000000000000e+02 3.210634613037109375e+01 -4.013236522674560547e+00 -9.339037537574768066e-01 -4.561859183013439178e-03 -2.815396785736083984e-01 2.169405221939086914e+00
4.190000000000000000e+02 4.317103576660156250e+01 -1.186307668685913086e+00 -2.791495084762573242e+00 -5.932383537292480469e+00 -2.617163658142089844e+00 -3.845487117767333984e+00
4.200000000000000000e+02 4.424670410156250000e+01 1.222896337509155273e+00 -4.935719013214111328e+00 -3.536496162414550781e+00 -2.541664600372314453e+00 -2.577019929885864258e+00
4.210000000000000000e+02 3.958572769165039062e+01 6.807344913482666016e+00 1.813062429428100586e+00 7.592512130737304688e+00 2.821672439575195312e+00 3.405739068984985352e+00
4.220000000000000000e+02 4.228070449829101562e+01 1.220008563995361328e+01 5.870321393013000488e-01 3.280887126922607422e+00 1.160375833511352539e+00 1.216169714927673340e+00
4.230000000000000000e+02 4.165443038940429688e+01 1.801104354858398438e+01 6.058233603835105896e-02 2.613831758499145508e+00 8.023242354393005371e-01 1.736183017492294312e-01
4.240000000000000000e+02 4.171679306030273438e+01 2.659907341003417969e+01 4.690429940819740295e-02 2.088645458221435547e+00 6.406648755073547363e-01 -8.114456385374069214e-02
4.250000000000000000e+02 4.156805801391601562e+01 2.805563926696777344e+01 1.725783944129943848e-01 2.229271888732910156e+00 7.205550670623779297e-01 -2.645816206932067871e-01
4.260000000000000000e+02 4.703694152832031250e+01 1.340494394302368164e+00 -6.726242065429687500e+00 -6.659386754035949707e-01 -2.217654228210449219e+00 -6.204375624656677246e-01
4.270000000000000000e+02 4.728547668457031250e+01 2.642581462860107422e+00 -3.191739320755004883e+00 -1.567814111709594727e+00 -1.427865982055664062e+00 -1.822442412376403809e+00
4.280000000000000000e+02 4.843791961669921875e+01 1.024502873420715332e+00 -3.836354970932006836e+00 -2.664826810359954834e-01 -1.230851292610168457e+00 4.601712524890899658e-01
4.290000000000000000e+02 5.017439270019531250e+01 1.806771755218505859e+00 -2.463870048522949219e+00 9.478323161602020264e-03 -7.363175153732299805e-01 -2.622985541820526123e-01
4.300000000000000000e+02 5.107934951782226562e+01 8.640692383050918579e-02 -1.619560360908508301e+00 -9.126159548759460449e-02 -5.132465958595275879e-01 3.451090157032012939e-01
4.310000000000000000e+02 5.508515548706054688e+01 -7.909201979637145996e-01 -1.189746379852294922e+00 1.470502559095621109e-02 -3.525124192237854004e-01 1.084765270352363586e-01
4.320000000000000000e+02 6.048231124877929688e+01 -2.141456604003906250e+00 -5.199506878852844238e-01 -2.820991910994052887e-02 -1.644481867551803589e-01 1.393548846244812012e-01
4.330000000000000000e+02 6.415338134765625000e+01 -4.300269126892089844e+00 -8.023254573345184326e-02 -6.077114492654800415e-03 -2.589289844036102295e-02 1.950941607356071472e-02
4.340000000000000000e+02 6.507041168212890625e+01 -5.469600200653076172e+00 -2.039074152708053589e-02 2.372119389474391937e-02 9.991358965635299683e-04 9.803927503526210785e-03
4.350000000000000000e+02 7.094147491455078125e+01 -1.192942905426025391e+01 7.575460709631443024e-03 -1.531308866105973721e-03 1.813245587982237339e-03 -2.123859943822026253e-03
4.360000000000000000e+02 7.487662506103515625e+01 -1.156713485717773438e+01 6.126266438513994217e-03 -8.833437459543347359e-04 1.572876819409430027e-03 3.984222654253244400e-03
4.370000000000000000e+02 7.618256378173828125e+01 -1.162101268768310547e+01 5.632279440760612488e-03 8.273786515928804874e-04 1.937897410243749619e-03 6.237053778022527695e-03
4.380000000000000000e+02 7.723770904541015625e+01 -4.229142189025878906e+00 -5.796816665679216385e-03 -1.381008536554872990e-03 -2.153347479179501534e-03 -2.653171541169285774e-03
4.390000000000000000e+02 7.559207916259765625e+01 2.494017839431762695e+00 -3.131463378667831421e-02 -7.101914286613464355e-02 -3.070013225078582764e-02 -8.175262063741683960e-02
4.400000000000000000e+02 7.803842926025390625e+01 1.112514972686767578e+01 -4.085798282176256180e-04 -3.124944567680358887e-01 -9.387090802192687988e-02 -7.982520014047622681e-02
4.410000000000000000e+02 7.803717803955078125e+01 1.804672050476074219e+01 4.994213115423917770e-03 -5.522907376289367676e-01 -1.641889661550521851e-01 -6.536406278610229492e-02
4.420000000000000000e+02 7.774123382568359375e+01 2.785818481445312500e+01 3.983011934906244278e-03 -7.435887455940246582e-01 -2.218817174434661865e-01 -3.023896552622318268e-02
4.430000000000000000e+02 7.761712646484375000e+01 3.739788818359375000e+01 9.135342203080654144e-03 -7.846934795379638672e-01 -2.326674461364746094e-01 1.358593907207250595e-02
4.440000000000000000e+02 7.943595123291015625e+01 3.740506744384765625e+01 9.102651849389076233e-03 -8.730646967887878418e-01 -2.591886222362518311e-01 8.427031338214874268e-03
4.450000000000000000e+02 7.482815551757812500e+01 3.990798187255859375e+01 -5.827539134770631790e-03 -6.307042241096496582e-01 -1.909595280885696411e-01 -1.863972283899784088e-02
4.460000000000000000e+02 7.067485809326171875e+01 3.755295562744140625e+01 1.581931672990322113e-02 -3.605700433254241943e-01 -1.034252122044563293e-01 -1.242663059383630753e-02
4.470000000000000000e+02 7.299369812011718750e+01 3.092126464843750000e+01 2.918377891182899475e-02 -4.825627207756042480e-01 -1.360136717557907104e-01 -4.192050173878669739e-02
4.480000000000000000e+02 7.233580017089843750e+01 2.171701622009277344e+01 5.613179132342338562e-02 -4.060495793819427490e-01 -1.049753352999687195e-01 -1.458276063203811646e-01
4.490000000000000000e+02 7.260990905761718750e+01 1.757221221923828125e+01 4.550012201070785522e-02 -3.562537431716918945e-01 -9.322608262300491333e-02 -1.945747435092926025e-01
4.500000000000000000e+02 7.275130462646484375e+01 9.785512924194335938e+00 -2.311677485704421997e-02 -1.982272118330001831e-01 -6.640319526195526123e-02 -2.224848717451095581e-01
4.510000000000000000e+02 7.282883453369140625e+01 3.222599506378173828e+00 -8.037714660167694092e-02 -6.604668498039245605e-02 -4.392714798450469971e-02 -1.398447901010513306e-01
4.520000000000000000e+02 6.622464752197265625e+01 -4.849756240844726562e+00 -6.769134849309921265e-02 1.359276007860898972e-02 -1.622957549989223480e-02 1.018085051327943802e-02
4.530000000000000000e+02 6.609958648681640625e+01 -3.303856134414672852e+00 -1.390809863805770874e-01 1.398648973554372787e-02 -3.752834722399711609e-02 2.586193382740020752e-03
4.540000000000000000e+02 7.943475341796875000e+01 -2.757737159729003906e+00 -2.198251197114586830e-03 2.196433395147323608e-02 5.929824896156787872e-03 -1.905168173834681511e-03
4.550000000000000000e+02 5.238358306884765625e+01 -3.174957931041717529e-01 -1.271104574203491211e+00 6.317563354969024658e-02 -3.623786866664886475e-01 2.311734855175018311e-01
4.560000000000000000e+02 5.372400665283203125e+01 -5.821994543075561523e-01 -1.232756733894348145e+00 -2.677163481712341309e-02 -3.778584897518157959e-01 1.086192652583122253e-01
4.570000000000000000e+02 6.563879394531250000e+01 -6.830435752868652344e+00 -7.363904267549514771e-03 2.459676936268806458e-02 5.169859621673822403e-03 -1.618752442300319672e-02
4.580000000000000000e+02 6.611902618408203125e+01 -8.112915992736816406e+00 1.280803419649600983e-02 2.728673256933689117e-02 1.202843058854341507e-02 -6.758306641131639481e-03
4.590000000000000000e+02 6.722516632080078125e+01 -1.039290714263916016e+01 9.906332008540630341e-03 1.656646467745304108e-02 7.941839285194873810e-03 -4.328106064349412918e-03
4.600000000000000000e+02 7.748409271240234375e+01 -1.144155883789062500e+01 3.295431379228830338e-03 2.359275240451097488e-03 1.696411985903978348e-03 5.633314605802297592e-03
4.610000000000000000e+02 7.891865539550781250e+01 -1.129015922546386719e+01 9.427142795175313950e-04 2.593962941318750381e-03 1.061003189533948898e-03 2.988877939060330391e-03
4.620000000000000000e+02 6.216199111938476562e+01 4.067369079589843750e+01 -6.063138134777545929e-04 1.505117565393447876e-01 4.497163370251655579e-02 8.774667978286743164e-03
4.630000000000000000e+02 6.354930877685546875e+01 3.027403450012207031e+01 1.188725978136062622e-01 3.370873164385557175e-03 3.667303919792175293e-02 -1.499473769217729568e-02
4.640000000000000000e+02 6.506920623779296875e+01 2.621390914916992188e+01 1.553630679845809937e-01 -1.115245521068572998e-01 1.315155532211065292e-02 -7.577032595872879028e-02
4.650000000000000000e+02 6.734712982177734375e+01 1.827690887451171875e+01 1.272076815366744995e-01 -2.260086834430694580e-01 -2.964030206203460693e-02 -2.360551357269287109e-01
4.660000000000000000e+02 6.634267425537109375e+01 1.335654926300048828e+01 7.023125886917114258e-02 -1.792064011096954346e-01 -3.269254043698310852e-02 -3.387856781482696533e-01
4.670000000000000000e+02 6.000387573242187500e+01 4.159657955169677734e-01 -6.469267010688781738e-01 1.265561394393444061e-02 -1.902813166379928589e-01 -1.238173767924308777e-01
4.680000000000000000e+02 6.177002334594726562e+01 1.102459073066711426e+00 -5.076351761817932129e-01 3.974984586238861084e-02 -1.403656005859375000e-01 -1.833126693964004517e-01
4.690000000000000000e+02 5.735966491699218750e+01 4.107515335083007812e+01 -3.933244571089744568e-02 4.670198261737823486e-01 1.283062100410461426e-01 1.616436056792736053e-02
4.700000000000000000e+02 6.081772994995117188e+01 3.717266082763671875e+01 2.189419046044349670e-02 2.157212644815444946e-01 7.128463685512542725e-02 3.086146153509616852e-02
4.710000000000000000e+02 5.428386688232421875e+01 3.047635269165039062e+01 1.551302075386047363e-01 5.669198036193847656e-01 2.166150063276290894e-01 1.240059286355972290e-01
4.720000000000000000e+02 5.695373153686523438e+01 2.292329788208007812e+01 3.512576520442962646e-01 2.411862760782241821e-01 1.777331680059432983e-01 2.591186948120594025e-02
4.730000000000000000e+02 5.433828353881835938e+01 1.605639076232910156e+01 5.570127964019775391e-01 1.017500907182693481e-01 1.976288706064224243e-01 -5.192175135016441345e-02
4.740000000000000000e+02 5.889430999755859375e+01 7.447751522064208984e+00 -2.195039242506027222e-01 -5.869399383664131165e-02 -8.345937728881835938e-02 -4.967261850833892822e-01
4.750000000000000000e+02 5.684543609619140625e+01 1.007948070764541626e-01 -9.523635506629943848e-01 1.465949323028326035e-02 -2.813112139701843262e-01 -1.342269871383905411e-02
4.760000000000000000e+02 5.863774108886718750e+01 8.543935418128967285e-01 -7.397151589393615723e-01 2.960243821144104004e-02 -2.130338251590728760e-01 -1.238920912146568298e-01
4.770000000000000000e+02 5.263084411621093750e+01 4.124014282226562500e+01 -1.092287078499794006e-01 7.439259290695190430e-01 1.904091686010360718e-01 1.997945457696914673e-02
4.780000000000000000e+02 5.284318161010742188e+01 3.862378311157226562e+01 -8.254729956388473511e-02 7.305876612663269043e-01 1.944121122360229492e-01 6.524541229009628296e-02
4.790000000000000000e+02 5.178248214721679688e+01 2.940369796752929688e+01 1.883385777473449707e-01 7.465838193893432617e-01 2.804767191410064697e-01 1.472763419151306152e-01
4.800000000000000000e+02 5.084746170043945312e+01 2.818650054931640625e+01 2.242682427167892456e-01 8.241840600967407227e-01 3.145357072353363037e-01 1.471760571002960205e-01
4.810000000000000000e+02 4.687771987915039062e+01 1.783905792236328125e+01 4.924576282501220703e-01 1.329888224601745605e+00 5.467037558555603027e-01 4.897226393222808838e-01
4.820000000000000000e+02 4.931367492675781250e+01 1.123467540740966797e+01 9.161533117294311523e-01 -2.379489317536354065e-02 2.677075266838073730e-01 8.796093612909317017e-02
4.830000000000000000e+02 4.788690185546875000e+01 1.087593650817871094e+01 1.119543790817260742e+00 1.016194894909858704e-01 3.663489818572998047e-01 3.516286909580230713e-01
4.840000000000000000e+02 4.369878768920898438e+01 3.839963150024414062e+01 -1.853276193141937256e-01 9.774392843246459961e-01 2.376335114240646362e-01 -1.926442980766296387e-02
4.850000000000000000e+02 4.314562225341796875e+01 4.110491180419921875e+01 -2.050780802965164185e-01 9.154483675956726074e-01 2.131110876798629761e-01 -5.057181697338819504e-03
4.860000000000000000e+02 3.898424530029296875e+01 3.327272415161132812e+01 3.132502436637878418e-01 6.376941204071044922e-01 2.852832973003387451e-01 -4.327057898044586182e-01
4.870000000000000000e+02 4.064448547363281250e+01 3.088906478881835938e+01 2.757089138031005859e-01 1.540848016738891602e+00 5.449670553207397461e-01 -5.623923540115356445e-01
4.880000000000000000e+02 4.119489669799804688e+01 2.949322509765625000e+01 2.166403532028198242e-01 1.943535327911376953e+00 6.480526924133300781e-01 -4.815903902053833008e-01
4.890000000000000000e+02 4.228940582275390625e+01 2.999553298950195312e+01 2.077801823616027832e-01 1.651320099830627441e+00 5.577300786972045898e-01 -1.976385116577148438e-01
4.900000000000000000e+02 3.784136581420898438e+01 3.812426376342773438e+01 -5.183839425444602966e-02 5.129076242446899414e-01 1.383207738399505615e-01 -1.406939029693603516e-01
4.910000000000000000e+02 3.549404907226562500e+01 3.589034652709960938e+01 -1.372909639030694962e-03 5.553107708692550659e-02 1.624744944274425507e-02 -4.545122757554054260e-02
4.920000000000000000e+02 2.050999402999877930e+00 4.163643646240234375e+01 7.102786184987053275e-05 2.302823995705693960e-04 9.039307769853621721e-05 2.237754051748197526e-05
4.930000000000000000e+02 1.256802654266357422e+01 4.159321594238281250e+01 -1.431360142305493355e-04 1.389263052260503173e-04 -1.262913087884953711e-06 7.501134678022935987e-05
4.940000000000000000e+02 1.018515491485595703e+01 3.690076446533203125e+01 -2.559700224082916975e-04 -2.879306848626583815e-04 -1.631702180020511150e-04 -3.603888326324522495e-04
4.950000000000000000e+02 8.260616302490234375e+00 3.141041183471679688e+01 9.079181472770869732e-05 -2.288910036440938711e-04 -4.142975740251131356e-05 -1.161461768788285553e-04
4.960000000000000000e+02 1.635774040222167969e+01 2.810453224182128906e+01 -3.215830292901955545e-05 6.238176138140261173e-05 9.067038263310678303e-06 8.020353561732918024e-05
4.970000000000000000e+02 1.693716812133789062e+01 2.945962333679199219e+01 1.420347398379817605e-04 1.164873247034847736e-04 7.755662227282300591e-05 4.611087206285446882e-05
4.980000000000000000e+02 1.559315109252929688e+01 3.421390151977539062e+01 -3.233754250686615705e-04 -7.536812336184084415e-05 -1.196230659843422472e-04 -1.080046058632433414e-04
4.990000000000000000e+02 2.013632392883300781e+01 3.389643478393554688e+01 -2.392592723481357098e-04 3.848141932394355536e-04 4.366647408460266888e-05 6.963113555684685707e-04
5.000000000000000000e+02 2.108829307556152344e+01 3.485292434692382812e+01 2.529343822970986366e-03 4.714956157840788364e-04 9.002518490888178349e-04 2.405479790468234569e-05
5.010000000000000000e+02 2.215295982360839844e+01 3.824692153930664062e+01 1.905609387904405594e-04 1.573838992044329643e-03 5.293199792504310608e-04 6.465809419751167297e-04
5.020000000000000000e+02 1.840580940246582031e+01 3.746747589111328125e+01 1.021348754875361919e-03 -1.808547094697132707e-04 2.521482238080352545e-04 -1.641631679376587272e-04
5.030000000000000000e+02 1.633459663391113281e+01 3.970126724243164062e+01 3.719654341693967581e-04 -1.944444520631805062e-04 5.325629172148182988e-05 3.035355766769498587e-04
5.040000000000000000e+02 1.578179073333740234e+01 3.773342132568359375e+01 -8.265380165539681911e-04 -3.545652143657207489e-04 -3.543309867382049561e-04 -3.309825842734426260e-04
5.050000000000000000e+02 7.655310630798339844e-01 3.457484436035156250e+01 -2.800021502480376512e-05 1.061406073858961463e-04 2.344211861782241613e-05 -6.497418070239291410e-08
5.060000000000000000e+02 1.961537480354309082e+00 3.002258300781250000e+01 -7.463659858331084251e-05 4.419947435962967575e-05 -9.131136721407528967e-06 -2.933602081611752510e-05
5.070000000000000000e+02 1.352783870697021484e+01 2.719276237487792969e+01 2.270974800921976566e-04 -4.114523471798747778e-05 5.578567288466729224e-05 1.657153552514500916e-05
5.080000000000000000e+02 1.525816726684570312e+01 2.253823280334472656e+01 -6.659131759079173207e-05 -2.010602202062727883e-06 -2.058057543763425201e-05 4.704691491497214884e-06
5.090000000000000000e+02 1.551536941528320312e+01 2.535443496704101562e+01 -6.520419265143573284e-05 1.906858051370363683e-05 -1.384068491461221129e-05 2.380541991442441940e-05
5.100000000000000000e+02 1.587875270843505859e+01 2.673854446411132812e+01 9.384296572534367442e-05 3.393421138753183186e-05 3.833315349766053259e-05 4.841127974941628054e-06
5.110000000000000000e+02 6.235136985778808594e-01 2.751739311218261719e+01 6.329390453174710274e-05 1.713486744847614318e-05 2.412863068457227200e-05 -1.226901986228767782e-05
5.120000000000000000e+02 1.850741982460021973e+00 2.586608695983886719e+01 7.426351658068597317e-05 1.384070310450624675e-05 2.643126572365872562e-05 -1.065320975612848997e-05
5.130000000000000000e+02 1.338916873931884766e+01 1.676004600524902344e+01 -7.933842425700277090e-05 -1.101393422686669510e-06 -2.413194670225493610e-05 -9.304269042331725359e-06
5.140000000000000000e+02 1.674270629882812500e+01 1.293537425994873047e+01 5.745995440520346165e-05 -7.222049589472590014e-07 1.702132431091740727e-05 4.373898264020681381e-06
5.150000000000000000e+02 1.562493705749511719e+01 1.694987106323242188e+01 -5.445035276352427900e-05 -2.845956259989179671e-06 -1.718889325275085866e-05 -3.224912461519124918e-06
5.160000000000000000e+02 1.634062767028808594e+01 1.426092433929443359e+01 -5.626678466796875000e-05 -1.418123019902850501e-06 -1.730547228362411261e-05 -3.855189788737334311e-06
5.170000000000000000e+02 6.167399883270263672e-01 2.048363494873046875e+01 -6.151545676402747631e-05 -7.381275281659327447e-06 -2.066902015940286219e-05 7.368190836132271215e-06
5.180000000000000000e+02 1.818959593772888184e+00 1.606568908691406250e+01 -6.252845196286216378e-05 -4.474235083762323484e-06 -2.010080606851261109e-05 2.228041466878494248e-06
5.190000000000000000e+02 7.116755962371826172e+00 8.160365104675292969e+00 -1.789780799299478531e-05 -1.832750058383680880e-05 -1.086759311874629930e-05 2.297508444826235063e-06
5.200000000000000000e+02 1.922863578796386719e+01 6.530770778656005859e+00 -4.907726543024182320e-05 2.190327279549819650e-07 -1.465746936446521431e-05 -5.154682639840757474e-06
5.210000000000000000e+02 1.718804740905761719e+01 1.162563610076904297e+01 -5.825716289109550416e-05 -6.059968882254906930e-07 -1.765894739946816117e-05 -4.570194960251683369e-06
5.220000000000000000e+02 5.982072353363037109e-01 1.483765029907226562e+01 -5.909914762014523149e-05 -4.070782779308501631e-06 -1.895097921078559011e-05 6.880916316731600091e-06
5.230000000000000000e+02 1.630447626113891602e+00 9.060028076171875000e+00 4.960115984431467950e-05 2.544688186389976181e-06 1.564375452289823443e-05 -5.401548150985036045e-06
5.240000000000000000e+02 8.274254798889160156e+00 2.538430929183959961e+00 1.500880080129718408e-05 9.774915270099882036e-06 7.435115094267530367e-06 3.389593075553420931e-06
5.250000000000000000e+02 9.766062736511230469e+00 1.831892013549804688e+00 -1.378510023641865700e-05 -4.468126462597865611e-06 -5.475968009704956785e-06 -1.226376184604305308e-06
5.260000000000000000e+02 1.431415081024169922e+01 1.253037214279174805e+00 -6.923963610461214557e-06 -8.233293556259013712e-06 -4.547177013591863215e-06 3.967194970755372196e-06
5.270000000000000000e+02 1.884893798828125000e+01 4.148157596588134766e+00 3.906686470145359635e-05 3.066474164370447397e-06 1.264000184164615348e-05 9.119994501816108823e-06
5.280000000000000000e+02 1.721651268005371094e+01 9.820830225944519043e-01 -1.235292984347324818e-05 -5.234036962065147236e-06 -5.276090178085723892e-06 -4.870723273597832303e-07
5.290000000000000000e+02 2.229476356506347656e+01 1.634967446327209473e+00 -9.896476512949448079e-06 -7.039925094431964681e-06 -5.080920345790218562e-06 -4.441904366103699431e-06
5.300000000000000000e+02 1.141633272171020508e+00 3.820288419723510742e+00 -2.054103060800116509e-05 8.717152923054527491e-06 -3.547163487382931635e-06 -2.476478766766376793e-05
5.310000000000000000e+02 4.925062358379364014e-01 6.405226707458496094e+00 -5.050499748904258013e-05 -4.425989573064725846e-06 -1.647929639148060232e-05 7.457585979864234105e-07
5.320000000000000000e+02 3.896577596664428711e+00 3.470427751541137695e+00 -1.941705522767733783e-05 -9.329365639132447541e-06 -8.623926987638697028e-06 7.519643077102955431e-07
5.330000000000000000e+02 2.370514869689941406e+01 3.668582534790039062e+01 1.474140444770455360e-04 1.760406070388853550e-03 5.723460344597697258e-04 -1.257440191693603992e-03
5.340000000000000000e+02 2.972752571105957031e+01 3.725193786621093750e+01 -6.439907848834991455e-02 -9.610302746295928955e-03 -2.220281399786472321e-02 1.932551339268684387e-02
5.350000000000000000e+02 3.031214523315429688e+01 3.845764923095703125e+01 -1.711602695286273956e-02 5.109221674501895905e-03 -3.602041397243738174e-03 1.958153769373893738e-02
5.360000000000000000e+02 3.403557968139648438e+01 3.656744384765625000e+01 -3.840499743819236755e-02 2.627245523035526276e-02 -3.639762289822101593e-03 -9.195794351398944855e-03
5.370000000000000000e+02 3.644229507446289062e+01 3.716516494750976562e+01 1.449872646480798721e-02 2.446822375059127808e-01 7.775428891181945801e-02 -1.188807338476181030e-01
5.380000000000000000e+02 4.173764801025390625e+01 2.227515411376953125e+01 9.820004925131797791e-03 2.042677402496337891e+00 6.157491803169250488e-01 3.743537515401840210e-02
5.390000000000000000e+02 4.146519088745117188e+01 1.516646385192871094e+01 1.474451720714569092e-01 3.295351743698120117e+00 1.032839059829711914e+00 4.938868880271911621e-01
5.400000000000000000e+02 4.006074142456054688e+01 8.170442581176757812e+00 1.136224985122680664e+00 6.731963157653808594e+00 2.360456466674804688e+00 2.523670673370361328e+00
5.410000000000000000e+02 4.384863662719726562e+01 -5.780981853604316711e-02 -5.270833015441894531e+00 -5.129098415374755859e+00 -3.119979381561279297e+00 -4.289462566375732422e+00
5.420000000000000000e+02 3.831421279907226562e+01 4.157216548919677734e+00 3.138024330139160156e+00 7.884655952453613281e+00 3.306804180145263672e+00 4.605825424194335938e+00
5.430000000000000000e+02 2.844268035888671875e+01 -2.877471446990966797e+00 -2.635762929916381836e+00 3.395660400390625000e+00 2.279692739248275757e-01 3.053486585617065430e+00
5.440000000000000000e+02 2.454805564880371094e+01 -1.835985779762268066e+00 -3.150226593017578125e+00 8.991327881813049316e-01 -6.753281354904174805e-01 -8.606277108192443848e-01
5.450000000000000000e+02 2.666138267517089844e+01 -4.216885566711425781e+00 5.443009853363037109e+00 7.719405889511108398e-01 1.864485144615173340e+00 -6.214359402656555176e-01
5.460000000000000000e+02 2.318589019775390625e+01 -1.327190303802490234e+01 -8.575229346752166748e-02 2.548896372318267822e-01 5.074120312929153442e-02 4.981600940227508545e-01
5.470000000000000000e+02 2.994552993774414062e+01 -7.533157825469970703e+00 1.262406945228576660e+00 1.277224659919738770e+00 7.618894577026367188e-01 -1.075945138931274414e+00
5.480000000000000000e+02 3.550257492065429688e+01 -8.573451995849609375e+00 4.823985695838928223e-01 1.880789101123809814e-01 2.011432498693466187e-01 -4.129172563552856445e-01
5.490000000000000000e+02 3.331950759887695312e+01 -8.096226692199707031e+00 8.381448984146118164e-01 2.880884408950805664e-01 3.378700017929077148e-01 -5.827120542526245117e-01
5.500000000000000000e+02 2.105467033386230469e+01 -2.563012599945068359e+00 -4.252518117427825928e-01 -2.007203549146652222e-01 -1.877916455268859863e-01 -5.126088261604309082e-01
5.510000000000000000e+02 1.943693161010742188e+01 -2.736425876617431641e+00 -2.406612038612365723e-01 -1.376906633377075195e-01 -1.135055571794509888e-01 -3.585662245750427246e-01
5.520000000000000000e+02 1.468490409851074219e+01 -2.552831172943115234e+00 -3.634003922343254089e-02 1.676484826020896435e-03 -1.039906684309244156e-02 -3.672211989760398865e-02
5.530000000000000000e+02 1.167951297760009766e+01 -2.166798114776611328e+00 -2.016254700720310211e-02 1.328665111213922501e-02 -2.062768675386905670e-03 9.512413293123245239e-03
5.540000000000000000e+02 1.169252490997314453e+01 -2.919261217117309570e+00 -9.558241814374923706e-03 -2.344200760126113892e-02 -9.900074452161788940e-03 -3.828140324912965298e-04
5.550000000000000000e+02 1.095513725280761719e+01 -2.062675714492797852e+00 -2.484545856714248657e-02 -1.496418938040733337e-02 -1.194289512932300568e-02 2.416512463241815567e-03
5.560000000000000000e+02 3.795498371124267578e+00 -1.924276947975158691e+00 -1.673737540841102600e-02 4.149151034653186798e-03 -3.776467405259609222e-03 -1.492720283567905426e-02
5.570000000000000000e+02 1.717574834823608398e+00 -1.085457420349121094e+01 -1.205086149275302887e-02 -1.161205843091011047e-01 -3.845143318176269531e-02 -6.582230329513549805e-02
5.580000000000000000e+02 5.385370731353759766e+00 -2.132496833801269531e+01 1.899379193782806396e-01 1.003461837768554688e+00 3.580199480056762695e-01 3.147663176059722900e-01
5.590000000000000000e+02 5.822504758834838867e-01 -2.482828330993652344e+01 -9.054183028638362885e-03 6.812553852796554565e-02 1.772140525281429291e-02 9.509928524494171143e-02
5.600000000000000000e+02 6.326798915863037109e+00 -2.055857658386230469e+01 2.206453233957290649e-01 1.300045371055603027e+00 4.562071859836578369e-01 4.113607704639434814e-01
5.610000000000000000e+02 6.560370326042175293e-01 -1.779413223266601562e+01 -4.525542259216308594e-03 -5.273118615150451660e-01 -1.595512181520462036e-01 -1.277657598257064819e-02
5.620000000000000000e+02 7.374623775482177734e+00 -1.824834823608398438e+01 5.386208891868591309e-01 1.132215023040771484e+00 5.012508034706115723e-01 6.072542667388916016e-01
5.630000000000000000e+02 5.848143100738525391e+00 -2.250565147399902344e+01 1.090605258941650391e-01 1.188991308212280273e+00 3.894155323505401611e-01 2.556888759136199951e-01
5.640000000000000000e+02 4.700327396392822266e+00 -2.531041526794433594e+01 -2.509127371013164520e-02 5.040256977081298828e-01 1.436803191900253296e-01 3.154510259628295898e-01
5.650000000000000000e+02 6.626848578453063965e-01 -2.903478431701660156e+01 -8.710997179150581360e-03 6.473026275634765625e-01 1.915774792432785034e-01 5.701585486531257629e-02
5.660000000000000000e+02 7.198846817016601562e+00 -2.811225318908691406e+01 -2.471419423818588257e-01 -1.138574928045272827e-01 -1.082998290657997131e-01 1.903517097234725952e-01
5.670000000000000000e+02 6.173975944519042969e+00 -2.648843002319335938e+01 -7.957837730646133423e-02 2.840918600559234619e-01 6.135404855012893677e-02 1.228966787457466125e-01
5.680000000000000000e+02 3.338775873184204102e+00 -2.911931610107421875e+01 -1.460043787956237793e-01 4.595962166786193848e-01 9.407754987478256226e-02 1.866016536951065063e-01
5.690000000000000000e+02 9.017678260803222656e+00 -3.021553421020507812e+01 -4.641136527061462402e-01 -2.401756942272186279e-01 -2.112867981195449829e-01 2.568263709545135498e-01
5.700000000000000000e+02 8.030367851257324219e+00 -2.909956741333007812e+01 -3.076149821281433105e-01 -2.000108063220977783e-01 -1.522877365350723267e-01 2.563120126724243164e-01
5.710000000000000000e+02 7.060878276824951172e+00 -3.008641433715820312e+01 -3.259235024452209473e-01 4.692064225673675537e-02 -8.370085805654525757e-02 1.430811136960983276e-01
5.720000000000000000e+02 7.519204616546630859e-01 -3.738883590698242188e+01 -1.267685927450656891e-02 6.969674825668334961e-01 2.052871733903884888e-01 -2.630377188324928284e-02
5.730000000000000000e+02 6.738219857215881348e-01 -3.185615158081054688e+01 -7.506872061640024185e-03 7.830584645271301270e-01 2.326654791831970215e-01 9.406035766005516052e-03
5.740000000000000000e+02 6.417980194091796875e+00 -3.827985763549804688e+01 2.170873805880546570e-02 1.830776184797286987e-01 6.143590807914733887e-02 -9.013784117996692657e-03
5.750000000000000000e+02 9.397827148437500000e+00 -3.644668960571289062e+01 -2.726112119853496552e-02 -1.304083410650491714e-02 -1.209058612585067749e-02 2.674998342990875244e-02
5.760000000000000000e+02 1.584932518005371094e+01 -3.182110214233398438e+01 -3.508181869983673096e-01 -1.902914233505725861e-02 -1.109542027115821838e-01 6.255450844764709473e-02
5.770000000000000000e+02 7.899640083312988281e+00 -3.147929382324218750e+01 -2.798241674900054932e-01 -2.069977298378944397e-02 -9.015718102455139160e-02 6.744926422834396362e-02
5.780000000000000000e+02 1.854706954956054688e+01 -3.207308578491210938e+01 -2.723793387413024902e-01 -1.056841295212507248e-02 -8.488432317972183228e-02 1.633656769990921021e-02
5.790000000000000000e+02 1.718423652648925781e+01 -3.195564270019531250e+01 -3.162409663200378418e-01 -1.612170413136482239e-02 -9.970880299806594849e-02 3.820196166634559631e-02
5.800000000000000000e+02 2.480654907226562500e+01 -3.809336090087890625e+01 -9.826554358005523682e-02 2.637306228280067444e-02 -2.156774327158927917e-02 3.043141029775142670e-02
5.810000000000000000e+02 2.980312919616699219e+01 -3.111122703552246094e+01 -1.000631600618362427e-01 5.198372527956962585e-02 -1.442382950335741043e-02 4.232737794518470764e-02
5.820000000000000000e+02 2.413916969299316406e+01 -3.173242187500000000e+01 -2.153608947992324829e-01 -1.206094399094581604e-03 -6.497009843587875366e-02 -1.501565147191286087e-02
5.830000000000000000e+02 2.777412796020507812e+01 -4.120996475219726562e+01 -1.145204380154609680e-01 1.332654654979705811e-01 5.623505450785160065e-03 1.166507415473461151e-02
5.840000000000000000e+02 3.107724761962890625e+01 -3.049435234069824219e+01 1.564975455403327942e-02 1.796689629554748535e-01 5.859561637043952942e-02 1.082947105169296265e-01
5.850000000000000000e+02 2.888743019104003906e+01 -3.581409072875976562e+01 -1.174917593598365784e-01 1.458727121353149414e-01 8.514286018908023834e-03 8.246216922998428345e-02
5.860000000000000000e+02 3.894457244873046875e+01 -3.451526260375976562e+01 -1.548097431659698486e-01 5.305480360984802246e-01 1.127214804291725159e-01 -7.704618573188781738e-02
5.870000000000000000e+02 4.878357315063476562e+01 -2.449253463745117188e+01 1.901370845735073090e-02 1.237611286342144012e-03 6.075395736843347549e-03 -1.007890701293945312e-02
5.880000000000000000e+02 4.313811111450195312e+01 -2.060287857055664062e+01 7.514456659555435181e-02 1.168968975543975830e-01 5.761243775486946106e-02 -6.342497467994689941e-02
5.890000000000000000e+02 4.493317413330078125e+01 -2.249589538574218750e+01 8.331097662448883057e-02 3.049010224640369415e-02 3.414032235741615295e-02 -5.346942692995071411e-02
5.900000000000000000e+02 4.385346603393554688e+01 -1.957251167297363281e+01 -3.988029435276985168e-02 -1.961841247975826263e-02 -1.784961298108100891e-02 4.631089791655540466e-02
5.910000000000000000e+02 4.167235565185546875e+01 -1.797643852233886719e+01 -2.455433085560798645e-02 3.217917978763580322e-01 8.917123824357986450e-02 2.974382601678371429e-03
5.920000000000000000e+02 3.696451950073242188e+01 -1.986334419250488281e+01 3.497925698757171631e-01 1.227810502052307129e+00 4.732809066772460938e-01 -1.443362236022949219e-01
5.930000000000000000e+02 4.180903244018554688e+01 -1.531844615936279297e+01 6.272390019148588181e-03 3.647183775901794434e-01 1.112972274422645569e-01 -5.571051314473152161e-02
5.940000000000000000e+02 4.162239837646484375e+01 -1.261499881744384766e+01 1.964249240700155497e-04 2.679215371608734131e-01 8.043539524078369141e-02 -5.134149268269538879e-02
5.950000000000000000e+02 4.170021057128906250e+01 -1.396431350708007812e+01 1.054874248802661896e-02 3.547314405441284180e-01 1.095840558409690857e-01 -5.372673645615577698e-02
5.960000000000000000e+02 3.853722000122070312e+01 -9.081274986267089844e+00 1.530770212411880493e-01 1.196065768599510193e-01 8.180508017539978027e-02 -1.935130357742309570e-01
5.970000000000000000e+02 3.929010009765625000e+01 -9.175122261047363281e+00 1.034892052412033081e-01 1.018989607691764832e-01 6.161645054817199707e-02 -1.424912959337234497e-01
5.980000000000000000e+02 3.408759689331054688e+01 -1.880447006225585938e+01 2.968627512454986572e-01 1.093261599540710449e+00 4.170373082160949707e-01 -6.983252167701721191e-01
5.990000000000000000e+02 3.551448822021484375e+01 -2.197138023376464844e+01 1.514665633440017700e-01 2.183900117874145508e+00 7.006100416183471680e-01 -1.697043776512145996e-01
6.000000000000000000e+02 3.498339080810546875e+01 -1.984724426269531250e+01 5.299140810966491699e-01 2.222333669662475586e+00 8.256743550300598145e-01 -6.361219286918640137e-01
6.010000000000000000e+02 3.608840560913085938e+01 -2.086539268493652344e+01 3.914550840854644775e-01 1.886889576911926270e+00 6.835033893585205078e-01 -3.278410434722900391e-01
6.020000000000000000e+02 3.533747863769531250e+01 -2.320558547973632812e+01 3.294019028544425964e-02 2.005152940750122070e+00 6.114279031753540039e-01 5.721955001354217529e-02
6.030000000000000000e+02 3.514398193359375000e+01 -2.449825859069824219e+01 2.036046981811523438e-01 1.987532138824462891e+00 6.573410630226135254e-01 2.494826912879943848e-01
6.040000000000000000e+02 3.481168746948242188e+01 -2.577700424194335938e+01 1.778163611888885498e-01 1.455238342285156250e+00 4.899164140224456787e-01 4.254155158996582031e-01
6.050000000000000000e+02 3.442974853515625000e+01 -2.700324249267578125e+01 1.730233132839202881e-01 9.935694336891174316e-01 3.499778211116790771e-01 3.563846647739410400e-01
6.060000000000000000e+02 3.224967575073242188e+01 -2.976763534545898438e+01 1.008250713348388672e-01 3.310928046703338623e-01 1.295753568410873413e-01 1.958459019660949707e-01
6.070000000000000000e+02 3.473410415649414062e+01 -2.866339302062988281e+01 8.679048717021942139e-02 8.241765499114990234e-01 2.732901275157928467e-01 1.879339367151260376e-01
6.080000000000000000e+02 3.646902465820312500e+01 -3.242930603027343750e+01 -1.396692246198654175e-01 6.209833025932312012e-01 1.443942189216613770e-01 -2.136477641761302948e-02
6.090000000000000000e+02 4.201849365234375000e+01 -4.079593658447265625e+01 -1.532137989997863770e-01 3.998018801212310791e-01 7.397642731666564941e-02 -2.122816257178783417e-02
6.100000000000000000e+02 5.170665359497070312e+01 -2.750973701477050781e+01 1.892864517867565155e-02 2.197413146495819092e-02 1.227083336561918259e-02 -2.568060345947742462e-02
6.110000000000000000e+02 5.260307312011718750e+01 -3.052696418762207031e+01 1.509963814169168472e-02 5.352785065770149231e-02 2.058824710547924042e-02 -3.523033112287521362e-02
6.120000000000000000e+02 4.698881149291992188e+01 -4.072129058837890625e+01 -8.324146270751953125e-02 2.811955511569976807e-01 5.938622727990150452e-02 -3.039547055959701538e-02
6.130000000000000000e+02 5.068097305297851562e+01 -3.760593032836914062e+01 -2.505533769726753235e-02 1.611382067203521729e-01 4.082486033439636230e-02 -4.760622978210449219e-02
6.140000000000000000e+02 5.468207550048828125e+01 -3.061254882812500000e+01 1.833616988733410835e-03 1.840360462665557861e-02 6.071166601032018661e-03 -7.926097139716148376e-03
6.150000000000000000e+02 5.168618774414062500e+01 -2.944788551330566406e+01 2.290966920554637909e-02 4.997155442833900452e-02 2.186436764895915985e-02 -4.469037055969238281e-02
6.160000000000000000e+02 5.770468902587890625e+01 -3.715995407104492188e+01 9.334792383015155792e-03 2.336580492556095123e-02 9.810179471969604492e-03 -1.015565358102321625e-02
6.170000000000000000e+02 5.539291000366210938e+01 -3.940437316894531250e+01 2.418202115222811699e-03 6.636048853397369385e-02 2.063360624015331268e-02 -1.356866955757141113e-02
6.180000000000000000e+02 5.843946456909179688e+01 -3.284382629394531250e+01 -3.199975192546844482e-02 -1.123100402764976025e-03 -9.936855174601078033e-03 3.684856696054339409e-03
6.190000000000000000e+02 5.700001525878906250e+01 -3.239996337890625000e+01 -2.479312941431999207e-02 4.537994973361492157e-03 -6.076540332287549973e-03 2.139730611816048622e-03
6.200000000000000000e+02 5.573361206054687500e+01 -3.165110588073730469e+01 -1.120403688400983810e-02 8.904587477445602417e-03 -6.898349383845925331e-04 -3.987807314842939377e-03
6.210000000000000000e+02 6.279772567749023438e+01 -4.121657562255859375e+01 1.294890698045492172e-02 2.385277068242430687e-03 4.600255284458398819e-03 1.984457718208432198e-03
6.220000000000000000e+02 6.157825088500976562e+01 -3.298511505126953125e+01 -2.305358089506626129e-02 -1.297261798754334450e-03 -7.305252831429243088e-03 -8.189368527382612228e-04
6.230000000000000000e+02 6.316760635375976562e+01 -3.226708221435546875e+01 -1.627940125763416290e-02 -2.624155022203922272e-03 -5.671066697686910629e-03 -1.863125595264136791e-03
6.240000000000000000e+02 5.992790985107421875e+01 -3.307342147827148438e+01 -2.976293675601482391e-02 -2.098454860970377922e-03 -9.558417834341526031e-03 1.123806228861212730e-03
6.250000000000000000e+02 7.802806091308593750e+01 -3.013059997558593750e+01 -2.580880827736109495e-04 -2.962579019367694855e-04 -1.663037983234971762e-04 3.433584060985594988e-04
6.260000000000000000e+02 7.943072509765625000e+01 -2.642881393432617188e+01 -1.146384311141446233e-04 1.548048894619569182e-04 1.204993895953521132e-05 7.499294042645487934e-06
6.270000000000000000e+02 7.827245330810546875e+01 -2.366627502441406250e+01 1.764855842338874936e-04 1.883404620457440615e-04 1.094478138838894665e-04 -9.676297850091941655e-06
6.280000000000000000e+02 7.947305297851562500e+01 -1.956397628784179688e+01 1.672521611908450723e-04 2.987428524647839367e-05 5.913793575018644333e-05 -3.686378477141261101e-05
6.290000000000000000e+02 7.951054382324218750e+01 -1.677039527893066406e+01 1.409465039614588022e-04 3.385104264452820644e-06 4.329948205850087106e-05 -2.401703022769652307e-05
6.300000000000000000e+02 7.798030853271484375e+01 -4.165076828002929688e+01 6.569518154719844460e-05 -3.029296640306711197e-03 -8.890804601833224297e-04 2.097260585287585855e-05
6.310000000000000000e+02 7.539511108398437500e+01 -3.780747222900390625e+01 7.242324063554406166e-04 -2.963993698358535767e-03 -6.719283992424607277e-04 9.907989297062158585e-04
6.320000000000000000e+02 7.744917297363281250e+01 -3.811077880859375000e+01 1.017079848679713905e-04 -2.540980000048875809e-03 -7.317815907299518585e-04 5.985420430079102516e-04
6.330000000000000000e+02 7.501125335693359375e+01 -1.545431327819824219e+01 3.243533865315839648e-05 2.860643689928110689e-05 1.831253212003502995e-05 -1.515197891421848908e-05
6.340000000000000000e+02 7.206864929199218750e+01 -1.564580249786376953e+01 9.615298768039792776e-05 -2.699070682865567505e-05 2.074868280033115298e-05 1.045890894602052867e-05
6.350000000000000000e+02 7.136430358886718750e+01 -1.660359573364257812e+01 1.524266263004392385e-04 -7.542273669969290495e-05 2.310116542503237724e-05 -2.864418092940468341e-05
6.360000000000000000e+02 6.934368133544921875e+01 -1.599881267547607422e+01 -3.181038846378214657e-05 1.955688057933002710e-04 4.912752774544060230e-05 8.339763007825240493e-05
6.370000000000000000e+02 6.875475311279296875e+01 -2.371419906616210938e+01 -2.811734739225357771e-04 2.332243020646274090e-04 -1.438475192117039114e-05 1.034841770888306201e-04
6.380000000000000000e+02 6.812068939208984375e+01 -2.651821517944335938e+01 -3.632803563959896564e-04 4.542764145298860967e-05 -9.535581921227276325e-05 3.892000313499011099e-05
6.390000000000000000e+02 6.752561187744140625e+01 -2.786841011047363281e+01 -6.055135745555162430e-04 -2.072411443805322051e-04 -2.438264200463891029e-04 -6.364708533510565758e-04
6.400000000000000000e+02 6.933647918701171875e+01 -3.228366851806640625e+01 -3.369639394804835320e-03 3.445408947300165892e-04 -9.075295529328286648e-04 1.727543771266937256e-03
6.410000000000000000e+02 6.790673828125000000e+01 -3.001388931274414062e+01 -4.163182340562343597e-03 6.238580681383609772e-04 -1.061797258444130421e-03 -5.507432506419718266e-04
6.420000000000000000e+02 3.052363777160644531e+01 -7.307095527648925781e+00 1.390460133552551270e+00 8.117668032646179199e-01 6.606680750846862793e-01 -9.706591367721557617e-01
6.430000000000000000e+02 2.967967987060546875e+01 -6.951066017150878906e+00 1.523719668388366699e+00 1.398884654045104980e+00 8.767812848091125488e-01 -1.222325801849365234e+00
6.440000000000000000e+02 2.667108726501464844e+01 -4.626361846923828125e+00 6.213987827301025391e+00 1.108188986778259277e+00 2.196653127670288086e+00 7.761365175247192383e-01
6.450000000000000000e+02 3.438076019287109375e+01 -3.730157613754272461e+00 -1.326914429664611816e+00 1.062020778656005859e+00 -7.946808636188507080e-02 8.272627592086791992e-01
6.460000000000000000e+02 3.756532287597656250e+01 -5.271732330322265625e+00 -2.540055990219116211e+00 4.950468242168426514e-01 -6.135027408599853516e-01 -8.181476593017578125e-01
6.470000000000000000e+02 1.006085300445556641e+01 -1.528436470031738281e+01 3.200354874134063721e-01 3.312784135341644287e-01 1.953941732645034790e-01 3.850119113922119141e-01
6.480000000000000000e+02 1.011918258666992188e+01 -1.412182521820068359e+01 9.468401968479156494e-02 3.078309297561645508e-01 1.207544878125190735e-01 3.141642808914184570e-01
6.490000000000000000e+02 5.677228569984436035e-01 -1.074858093261718750e+01 -1.754974015057086945e-03 -1.970199048519134521e-01 -5.963246524333953857e-02 -2.438297495245933533e-02
6.500000000000000000e+02 1.680822563171386719e+01 -1.748721122741699219e+01 -5.104016065597534180e-01 -1.071181595325469971e-01 -1.852559298276901245e-01 2.679602801799774170e-01
6.510000000000000000e+02 2.190044212341308594e+01 -1.767777824401855469e+01 -8.105758428573608398e-01 7.215281575918197632e-02 -2.215269058942794800e-01 1.909944266080856323e-01
6.520000000000000000e+02 2.654963874816894531e+01 -1.712012481689453125e+01 -1.215776085853576660e+00 7.889070361852645874e-02 -3.410656154155731201e-01 -2.449765801429748535e-02
6.530000000000000000e+02 3.045249938964843750e+01 -1.696238517761230469e+01 -1.357357263565063477e+00 -7.321616262197494507e-02 -4.291720390319824219e-01 -3.050394952297210693e-01
6.540000000000000000e+02 2.950536537170410156e+01 -1.761965942382812500e+01 -1.750828742980957031e+00 -4.866106435656547546e-02 -5.398469567298889160e-01 -2.744764983654022217e-01
6.550000000000000000e+02 3.155559921264648438e+01 -1.767641639709472656e+01 -1.404119849205017090e+00 -3.647717460989952087e-02 -4.321791231632232666e-01 -1.750671714544296265e-01
6.560000000000000000e+02 3.284991073608398438e+01 -1.808609390258789062e+01 -3.755474984645843506e-01 3.915408849716186523e-01 4.798016045242547989e-03 -2.459961473941802979e-01
6.570000000000000000e+02 8.865613937377929688e+00 -1.680068016052246094e+01 7.554569244384765625e-01 5.817856788635253906e-01 4.011727869510650635e-01 5.307154655456542969e-01
6.580000000000000000e+02 1.007223606109619141e+01 -1.644651985168457031e+01 6.295979619026184082e-01 1.404987573623657227e-01 2.310290187597274780e-01 2.993743717670440674e-01
6.590000000000000000e+02 7.935149383544921875e+01 4.202699661254882812e+00 4.940627841278910637e-04 -7.956139743328094482e-02 -2.372019924223423004e-02 -1.743774302303791046e-02
6.600000000000000000e+02 4.017443847656250000e+01 5.074123382568359375e+00 2.116144657135009766e+00 4.668620586395263672e+00 2.035429716110229492e+00 2.878191232681274414e+00
6.610000000000000000e+02 4.067845535278320312e+01 6.555158615112304688e+00 2.115203619003295898e+00 4.672698497772216797e+00 2.036370515823364258e+00 2.756433963775634766e+00
6.620000000000000000e+02 7.934677124023437500e+01 1.116281318664550781e+01 -1.152231474407017231e-03 -3.310196995735168457e-01 -9.965158253908157349e-02 -2.725060656666755676e-02
6.630000000000000000e+02 7.282194519042968750e+01 1.104167747497558594e+01 -1.129174325615167618e-02 -2.299464643001556396e-01 -7.237146049737930298e-02 -2.293252348899841309e-01
6.640000000000000000e+02 6.550069427490234375e+01 1.128395366668701172e+01 1.316244807094335556e-02 -1.348079442977905273e-01 -3.649364784359931946e-02 -3.644423186779022217e-01
6.650000000000000000e+02 5.440777587890625000e+01 8.241061210632324219e+00 -1.959130354225635529e-02 -2.011890709400177002e-01 -6.623411178588867188e-02 -6.114550232887268066e-01
6.660000000000000000e+02 7.934722900390625000e+01 1.811195182800292969e+01 3.806975146289914846e-04 -6.118150353431701660e-01 -1.834302991628646851e-01 -2.281481027603149414e-02
6.670000000000000000e+02 7.252433013916015625e+01 1.891993904113769531e+01 5.281317606568336487e-02 -3.765631318092346191e-01 -9.712498635053634644e-02 -1.842969506978988647e-01
6.680000000000000000e+02 6.534587860107421875e+01 1.897912406921386719e+01 1.791143268346786499e-01 -1.759612411260604858e-01 9.459271095693111420e-04 -2.217448949813842773e-01
6.690000000000000000e+02 5.544003677368164062e+01 1.513727569580078125e+01 4.840076565742492676e-01 5.321825854480266571e-03 1.467988491058349609e-01 -1.659362167119979858e-01
6.700000000000000000e+02 4.705152511596679688e+01 1.921431159973144531e+01 3.989216387271881104e-01 1.327462077140808105e+00 5.179151296615600586e-01 4.055600762367248535e-01
6.710000000000000000e+02 7.930453491210937500e+01 2.367638587951660156e+01 -3.724890993908047676e-04 -7.711465954780578613e-01 -2.314557284116744995e-01 -1.532339490950107574e-02
6.720000000000000000e+02 7.198683929443359375e+01 2.557277870178222656e+01 5.973524972796440125e-02 -4.174675643444061279e-01 -1.073196977376937866e-01 -9.398983418941497803e-02
6.730000000000000000e+02 6.111393737792968750e+01 2.464346885681152344e+01 2.454425692558288574e-01 5.241119489073753357e-02 8.935613185167312622e-02 -4.604314267635345459e-02
6.740000000000000000e+02 5.362223052978515625e+01 2.551065826416015625e+01 3.110776543617248535e-01 5.621758699417114258e-01 2.619760632514953613e-01 1.332485973834991455e-01
6.750000000000000000e+02 4.983684158325195312e+01 2.424584388732910156e+01 3.185881376266479492e-01 9.156657457351684570e-01 3.702761530876159668e-01 1.810828000307083130e-01
6.760000000000000000e+02 7.921472930908203125e+01 3.071282196044921875e+01 4.176065325736999512e-03 -8.736944794654846191e-01 -2.608555257320404053e-01 -6.184200756251811981e-03
6.770000000000000000e+02 7.283085632324218750e+01 3.485621261596679688e+01 1.941351965069770813e-02 -4.847797155380249023e-01 -1.396098583936691284e-01 -2.187020890414714813e-02
6.780000000000000000e+02 5.758932495117187500e+01 3.158057785034179688e+01 1.228172853589057922e-01 3.689169287681579590e-01 1.475202590227127075e-01 7.905806601047515869e-02
6.790000000000000000e+02 4.865217208862304688e+01 3.103610992431640625e+01 1.192493215203285217e-01 9.792634844779968262e-01 3.295538425445556641e-01 1.259381920099258423e-01
6.800000000000000000e+02 1.131748294830322266e+01 3.066532516479492188e+01 3.932586696464568377e-04 -8.695347059983760118e-05 9.189156116917729378e-05 6.711077730869874358e-05
6.810000000000000000e+02 1.422796726226806641e+01 2.404437446594238281e+01 -1.026192330755293369e-04 1.552089815959334373e-05 -2.612950083857867867e-05 1.633228384889662266e-05
6.820000000000000000e+02 1.453483390808105469e+01 1.685484123229980469e+01 7.009200635366141796e-05 -3.039648390767979436e-06 2.011570722970645875e-05 2.888946482926257886e-06
6.830000000000000000e+02 1.331178474426269531e+01 9.949804306030273438e+00 6.736913928762078285e-05 -9.224598329637956340e-07 1.993400292121805251e-05 1.717911254672799259e-05
6.840000000000000000e+02 1.624170875549316406e+01 -2.698438644409179688e+00 -7.467314600944519043e-02 -1.699356362223625183e-02 -2.750001288950443268e-02 -1.026109382510185242e-01
6.850000000000000000e+02 1.922988319396972656e+01 -1.490146732330322266e+01 -1.956894844770431519e-01 -4.645249992609024048e-02 -7.264259457588195801e-02 3.930450081825256348e-01
6.860000000000000000e+02 2.443976974487304688e+01 -1.863356399536132812e+01 -1.250376343727111816e+00 2.499860525131225586e-02 -3.676133155822753906e-01 -8.526114374399185181e-02
6.870000000000000000e+02 2.347788429260253906e+01 -1.506255245208740234e+01 -4.937484264373779297e-01 2.274711281061172485e-01 -7.988318800926208496e-02 3.697879016399383545e-01
6.880000000000000000e+02 1.392229270935058594e+01 -1.438773918151855469e+01 9.051015973091125488e-02 -1.273292452096939087e-01 -1.104572601616382599e-02 3.324922621250152588e-01
6.890000000000000000e+02 1.558082866668701172e+01 -1.691512489318847656e+01 -4.379161596298217773e-01 -1.411066949367523193e-01 -1.737068593502044678e-01 2.496014833450317383e-01
6.900000000000000000e+02 4.196127700805664062e+01 -1.662319564819335938e+01 -2.327360399067401886e-02 2.656477987766265869e-01 7.271225750446319580e-02 -1.686448417603969574e-02
6.910000000000000000e+02 4.630245208740234375e+01 -2.841090393066406250e+01 8.170564472675323486e-02 1.656337380409240723e-01 7.420181483030319214e-02 -1.437547951936721802e-01
6.920000000000000000e+02 6.958588409423828125e+01 -2.545528411865234375e+01 4.261061258148401976e-05 1.326307119597913697e-05 1.676210558798629791e-05 -1.232552313013002276e-05
6.930000000000000000e+02 4.262655258178710938e+01 -2.427055358886718750e+00 -1.588407754898071289e+00 -4.802686691284179688e+00 -1.917328357696533203e+00 -2.401591300964355469e+00
6.940000000000000000e+02 4.977980041503906250e+01 5.705971717834472656e-01 -2.390982389450073242e+00 -9.831498563289642334e-02 -7.467891573905944824e-01 5.117784142494201660e-01
6.950000000000000000e+02 5.781481170654296875e+01 -1.314210414886474609e+00 -9.107878804206848145e-01 -9.069235064089298248e-03 -2.759571373462677002e-01 1.360596120357513428e-01
6.960000000000000000e+02 5.645283508300781250e+01 -1.022137165069580078e+00 -1.089451313018798828e+00 -5.263684317469596863e-02 -3.426264524459838867e-01 1.004217267036437988e-01
6.970000000000000000e+02 5.916433334350585938e+01 -1.674181103706359863e+00 -7.384781241416931152e-01 -6.284708529710769653e-02 -2.403975725173950195e-01 1.276039928197860718e-01
6.980000000000000000e+02 6.176800537109375000e+01 -2.715564250946044922e+00 -3.420294523239135742e-01 -5.361729487776756287e-02 -1.186940222978591919e-01 9.685771167278289795e-02
6.990000000000000000e+02 6.299173736572265625e+01 -3.424491882324218750e+00 -1.817993074655532837e-01 -1.504673529416322708e-02 -5.905381217598915100e-02 7.477608323097229004e-02
7.000000000000000000e+02 7.017432403564453125e+01 -1.204476451873779297e+01 9.016739204525947571e-03 -3.765259403735399246e-03 1.575444126501679420e-03 -4.918945953249931335e-03
7.010000000000000000e+02 6.878775787353515625e+01 -1.232943153381347656e+01 5.548088345676660538e-03 2.418964431853964925e-04 1.736995414830744267e-03 -3.709525801241397858e-03
7.020000000000000000e+02 6.775181579589843750e+01 -1.246601390838623047e+01 4.862762056291103363e-03 5.649576894938945770e-03 3.153701545670628548e-03 -1.619813730940222740e-03
7.030000000000000000e+02 6.748844146728515625e+01 -1.236630249023437500e+01 5.354512832127511501e-04 8.231896907091140747e-03 2.630204427987337112e-03 -6.939945276826620102e-03
7.040000000000000000e+02 6.945204925537109375e+01 -1.218338775634765625e+01 6.023756694048643112e-03 -3.364141448400914669e-04 1.706202747300267220e-03 -4.637127276510000229e-03
7.050000000000000000e+02 7.171680450439453125e+01 -1.182701492309570312e+01 9.211602620780467987e-03 -3.473558230325579643e-03 1.721413456834852695e-03 -2.600582782179117203e-03
7.060000000000000000e+02 7.249701690673828125e+01 -1.172982215881347656e+01 8.222877979278564453e-03 -1.888211583718657494e-03 1.900399802252650261e-03 6.668632267974317074e-04
7.070000000000000000e+02 7.409758758544921875e+01 -1.157932567596435547e+01 7.150416262447834015e-03 -8.374915923923254013e-04 1.893877284601330757e-03 3.635686822235584259e-03
7.080000000000000000e+02 7.557166290283203125e+01 -1.163434886932373047e+01 6.450883112847805023e-03 -3.597345785237848759e-04 1.827344531193375587e-03 3.662768518552184105e-03
7.090000000000000000e+02 7.949085235595703125e+01 -6.893242359161376953e+00 -7.964894030010327697e-05 1.881927810609340668e-02 5.621888674795627594e-03 1.984350150451064110e-03
7.100000000000000000e+02 7.964306640625000000e+01 -1.122171020507812500e+01 -3.132336423732340336e-04 2.484793774783611298e-03 6.514680571854114532e-04 2.867932198569178581e-04
7.110000000000000000e+02 7.818640136718750000e+01 -1.130454635620117188e+01 7.361812167800962925e-04 1.967581920325756073e-03 8.111289935186505318e-04 3.239937126636505127e-03
7.120000000000000000e+02 7.793765258789062500e+01 4.156445312500000000e+01 -2.258170954883098602e-02 -8.193056583404541016e-01 -2.525662183761596680e-01 6.337062455713748932e-03
7.130000000000000000e+02 7.863840484619140625e+01 3.991661834716796875e+01 9.367367252707481384e-03 -8.270609378814697266e-01 -2.453080713748931885e-01 2.125080861151218414e-02
7.140000000000000000e+02 7.645559692382812500e+01 3.848337554931640625e+01 9.865685366094112396e-03 -7.548999190330505371e-01 -2.235102802515029907e-01 2.338899532333016396e-03
7.150000000000000000e+02 7.949658203125000000e+01 3.624625778198242188e+01 -5.881622433662414551e-03 -8.889731764793395996e-01 -2.684564292430877686e-01 9.146368247456848621e-04
7.160000000000000000e+02 7.935439300537109375e+01 3.494388580322265625e+01 4.142846446484327316e-03 -8.915534615516662598e-01 -2.662231922149658203e-01 1.291388762183487415e-03
7.170000000000000000e+02 7.779048919677734375e+01 3.380702209472656250e+01 6.293558515608310699e-03 -7.933076620101928711e-01 -2.361042201519012451e-01 -3.179779159836471081e-04
7.180000000000000000e+02 7.926327514648437500e+01 3.355111312866210938e+01 1.036319416016340256e-03 -8.884945511817932129e-01 -2.662374675273895264e-01 -3.209681948646903038e-03
7.190000000000000000e+02 7.922604370117187500e+01 2.929338836669921875e+01 -1.808593166060745716e-03 -8.605272769927978516e-01 -2.587007582187652588e-01 -8.196575567126274109e-03
7.200000000000000000e+02 7.924500274658203125e+01 2.788077545166015625e+01 3.286420600488781929e-03 -8.439829349517822266e-01 -2.522089779376983643e-01 -9.426266886293888092e-03
7.210000000000000000e+02 7.780143737792968750e+01 2.642315673828125000e+01 6.329162046313285828e-03 -7.282716035842895508e-01 -2.165827453136444092e-01 -3.398061916232109070e-02
7.220000000000000000e+02 7.926586914062500000e+01 2.647463417053222656e+01 -9.897929849103093147e-04 -8.237872719764709473e-01 -2.474331110715866089e-01 -1.179154403507709503e-02
7.230000000000000000e+02 7.932078552246093750e+01 2.228279113769531250e+01 2.040253253653645515e-03 -7.380100488662719727e-01 -2.207909375429153442e-01 -1.670175418257713318e-02
7.240000000000000000e+02 7.933235168457031250e+01 2.089145469665527344e+01 4.416016599861904979e-05 -7.005463242530822754e-01 -2.101506590843200684e-01 -1.913159154355525970e-02
7.250000000000000000e+02 7.799235534667968750e+01 2.081387901306152344e+01 5.634556058794260025e-03 -6.277155876159667969e-01 -1.866243183612823486e-01 -5.502808839082717896e-02
7.260000000000000000e+02 7.935121154785156250e+01 1.672247314453125000e+01 1.064464566297829151e-03 -5.608702898025512695e-01 -1.679417490959167480e-01 -2.410893142223358154e-02
7.270000000000000000e+02 7.935276794433593750e+01 1.533278465270996094e+01 5.887455190531909466e-04 -5.065976977348327637e-01 -1.518026739358901978e-01 -2.607658505439758301e-02
7.280000000000000000e+02 7.935269927978515625e+01 1.394342041015625000e+01 1.292113447561860085e-04 -4.492063820362091064e-01 -1.347231566905975342e-01 -2.663625776767730713e-02
7.290000000000000000e+02 7.805688476562500000e+01 1.389649391174316406e+01 1.841454301029443741e-03 -4.134401381015777588e-01 -1.234796047210693359e-01 -7.819581776857376099e-02
7.300000000000000000e+02 7.934124755859375000e+01 9.770691871643066406e+00 9.136133012361824512e-04 -2.731518447399139404e-01 -8.167146891355514526e-02 -2.709543146193027496e-02
7.310000000000000000e+02 7.933575439453125000e+01 8.377305030822753906e+00 -2.542262198403477669e-03 -2.175700962543487549e-01 -6.603370606899261475e-02 -2.527663484215736389e-02
7.320000000000000000e+02 7.933422851562500000e+01 6.985738277435302734e+00 8.163825259543955326e-04 -1.665393412113189697e-01 -4.971688613295555115e-02 -2.351068146526813507e-02
7.330000000000000000e+02 7.798633575439453125e+01 6.939414978027343750e+00 -6.979902740567922592e-03 -1.696722060441970825e-01 -5.299563333392143250e-02 -6.706127524375915527e-02
7.340000000000000000e+02 7.936841583251953125e+01 2.807360649108886719e+00 -3.756715217605233192e-03 -4.518345743417739868e-02 -1.468205172568559647e-02 -1.385371107608079910e-02
7.350000000000000000e+02 7.938648223876953125e+01 1.412442088127136230e+00 4.847623931709676981e-04 -1.833773963153362274e-02 -5.355893634259700775e-03 -1.016540639102458954e-02
7.360000000000000000e+02 7.940399932861328125e+01 2.021202445030212402e-02 -3.216950921341776848e-03 1.791002578102052212e-03 -4.277845146134495735e-04 -7.018403150141239166e-03
7.370000000000000000e+02 7.821539306640625000e+01 -4.464682936668395996e-02 -4.456665366888046265e-03 -1.824777945876121521e-02 -6.811333354562520981e-03 -1.993675157427787781e-02
7.380000000000000000e+02 7.944882965087890625e+01 -4.144833087921142578e+00 4.647202149499207735e-04 2.396559529006481171e-02 7.329094689339399338e-03 1.938540226547047496e-04
7.390000000000000000e+02 7.946607208251953125e+01 -5.527015209197998047e+00 -8.884056587703526020e-04 2.277702093124389648e-02 6.566584575921297073e-03 8.573405211791396141e-04
7.400000000000000000e+02 7.837629699707031250e+01 -5.552038669586181641e+00 -9.156800806522369385e-04 1.069914363324642181e-02 2.935038879513740540e-03 3.118792315945029259e-03
7.410000000000000000e+02 7.852720642089843750e+01 -8.116315841674804688e+00 4.725288454210385680e-05 9.357486851513385773e-03 2.821421949192881584e-03 5.399440415203571320e-03
7.420000000000000000e+02 6.810575008392333984e+00 3.829137802124023438e+01 3.420994107727892697e-05 -8.321308268932625651e-05 -1.470094230171525851e-05 7.097820343915373087e-06
7.430000000000000000e+02 2.448276901245117188e+01 4.011492156982421875e+01 -7.566963322460651398e-04 -9.675452485680580139e-03 -3.129644552245736122e-03 2.358724363148212433e-03
7.440000000000000000e+02 4.791817474365234375e+01 4.114673233032226562e+01 -1.896936148405075073e-01 9.446061253547668457e-01 2.264737486839294434e-01 1.962123997509479523e-02
7.450000000000000000e+02 6.705354309082031250e+01 4.060000610351562500e+01 1.253482047468423843e-02 -1.300670206546783447e-01 -3.525966033339500427e-02 3.148163668811321259e-03
7.460000000000000000e+02 1.132101535797119141e+00 1.938745021820068359e+00 8.444685022368503269e-07 -1.448782586521701887e-05 -4.093007191841024905e-06 -1.021944535750662908e-05
7.470000000000000000e+02 3.192718982696533203e+00 2.700209379196166992e+00 -1.890420571726281196e-05 -1.326234996668063104e-05 -9.649967068980913609e-06 1.223058825416956097e-05
7.480000000000000000e+02 5.360338211059570312e+00 2.593400716781616211e+00 1.333924956270493567e-05 1.247758700628764927e-05 7.745051334495656192e-06 -4.857190560869639739e-06
7.490000000000000000e+02 1.505949854850769043e+00 6.289598464965820312e+00 3.559751348802819848e-05 9.601880265108775347e-06 1.355981839878950268e-05 -2.044909024334629066e-06
7.500000000000000000e+02 5.400673151016235352e-01 9.204903602600097656e+00 -5.304774822434410453e-05 -2.442674940539291129e-06 -1.664712726778816432e-05 6.100854534452082589e-06
7.510000000000000000e+02 5.744118094444274902e-01 1.201842784881591797e+01 -5.745987436966970563e-05 -2.698405978662776761e-06 -1.804748353606555611e-05 6.643448614340741187e-06
7.520000000000000000e+02 1.733076214790344238e+00 1.184784126281738281e+01 5.695002982974983752e-05 1.080033939615532290e-06 1.740901825542096049e-05 -3.073065272474195808e-06
7.530000000000000000e+02 6.051283478736877441e-01 1.624880409240722656e+01 5.958567635389044881e-05 -4.627076179986033821e-07 1.773689109541010112e-05 -6.439107892219908535e-06
7.540000000000000000e+02 1.832846164703369141e+00 1.747413063049316406e+01 6.366062734741717577e-05 1.710614583316782955e-06 1.961137240868993104e-05 -1.633477921814119327e-07
7.550000000000000000e+02 6.103253364562988281e-01 1.766062927246093750e+01 -6.015119652147404850e-05 -5.651991614286089316e-06 -1.974095539480913430e-05 7.088053735060384497e-06
7.560000000000000000e+02 6.176766157150268555e-01 2.189147377014160156e+01 6.251918239286169410e-05 -6.465477326855761930e-07 1.856179005699232221e-05 -8.226316822401713580e-06
7.570000000000000000e+02 6.189152598381042480e-01 2.329794120788574219e+01 -6.318635860225185752e-05 -6.549990303028607741e-06 -2.092090653604827821e-05 7.912852197478059679e-06
7.580000000000000000e+02 1.852990508079528809e+00 2.308154296875000000e+01 6.977152952458709478e-05 7.285729225259274244e-06 2.311717798875179142e-05 -4.559808985504787415e-06
7.590000000000000000e+02 6.200984716415405273e-01 2.470386314392089844e+01 6.448332715081050992e-05 4.308752977522090077e-06 2.063762440229766071e-05 -1.101805082726059482e-05
7.600000000000000000e+02 6.361057162284851074e-01 2.892214775085449219e+01 -5.606516424450092018e-05 2.553890044509898871e-05 -9.157878594123758376e-06 -1.400378550897585228e-06
7.610000000000000000e+02 6.611317992210388184e-01 3.033357429504394531e+01 4.664694279199466109e-05 4.023838118882849813e-05 2.606559792184270918e-05 -6.595967988687334582e-06
7.620000000000000000e+02 3.206117630004882812e+00 2.968962669372558594e+01 1.115843188017606735e-04 2.000165841309353709e-05 3.947579534724354744e-05 -3.092822225880809128e-05
7.630000000000000000e+02 6.991382837295532227e-01 3.175100326538085938e+01 -2.590708936622831970e-05 6.681355444015935063e-05 1.227193843078566715e-05 -2.052924173767678440e-05
7.640000000000000000e+02 7.844542264938354492e-01 3.596932601928710938e+01 8.078998507698997855e-05 1.800236495910212398e-04 7.824409112799912691e-05 -6.289463635766878724e-05
7.650000000000000000e+02 2.345970153808593750e+00 3.694501495361328125e+01 9.731845784699544311e-05 1.688744669081643224e-04 7.985787669895216823e-05 -1.538255455670878291e-04
7.660000000000000000e+02 1.004070758819580078e+00 3.870375061035156250e+01 1.907959667732939124e-04 2.349771239096298814e-04 1.277319242944940925e-04 -7.500060019083321095e-05
7.670000000000000000e+02 1.370460033416748047e+00 4.007189941406250000e+01 -1.862295321188867092e-04 2.467354934196919203e-04 1.815178984543308616e-05 1.459483701182762161e-05
7.680000000000000000e+02 1.052173042297363281e+01 1.774784088134765625e+00 1.110150969907408580e-05 3.353906095071579330e-06 4.336624897405272350e-06 -3.703548543398937909e-07
7.690000000000000000e+02 9.029937744140625000e+00 1.842570304870605469e+00 1.238246932189213112e-05 6.568030130438273773e-06 5.685149972123326734e-06 1.338161268904514145e-06
7.700000000000000000e+02 8.299506187438964844e+00 1.846169948577880859e+00 -1.132077795773511752e-05 -8.390567018068395555e-06 -5.913403583690524101e-06 -1.234432943419960793e-06
7.710000000000000000e+02 7.571768283843994141e+00 1.848074793815612793e+00 1.005386548058595508e-05 1.009150855679763481e-05 6.043611847417196259e-06 3.914488218015321763e-07
7.720000000000000000e+02 5.398779392242431641e+00 1.861407399177551270e+00 -9.877495358523447067e-06 -1.296253140026237816e-05 -6.852008027635747567e-06 5.197994596528587863e-06
7.730000000000000000e+02 4.675930976867675781e+00 1.871419548988342285e+00 9.864449566521216184e-06 1.325217817793600261e-05 6.934988050488755107e-06 -5.941450126556446776e-06
7.740000000000000000e+02 3.952844619750976562e+00 1.882754564285278320e+00 -1.117493229685351253e-05 -1.326421806879807264e-05 -7.331745109695475549e-06 7.658963113499339670e-06
7.750000000000000000e+02 3.234745025634765625e+00 1.889819741249084473e+00 1.814643474062904716e-05 9.893889910017605871e-06 8.412097486143466085e-06 -7.945546713017392904e-06
7.760000000000000000e+02 2.529590606689453125e+00 1.887960791587829590e+00 -2.528387449274305254e-05 -5.942905772826634347e-06 -9.368033715873025358e-06 -4.597226279656752013e-07
7.770000000000000000e+02 1.832303285598754883e+00 1.887786865234375000e+00 1.607664853509049863e-05 8.687963600095827132e-06 7.429383913404308259e-06 8.603105925431009382e-06
7.780000000000000000e+02 1.283192157745361328e+01 1.458708524703979492e+00 -9.874975148704834282e-06 -4.134696609980892390e-06 -4.202901436656247824e-06 3.373293111508246511e-06
7.790000000000000000e+02 1.358371067047119141e+01 1.354460477828979492e+00 9.058657269633840770e-06 5.853153197676874697e-06 4.473542958294274285e-06 -4.324578640080289915e-06
7.800000000000000000e+02 1.503709793090820312e+01 1.150007605552673340e+00 4.868760242970893160e-06 1.044161763275042176e-05 4.593113317241659388e-06 -1.860265570030605886e-06
7.810000000000000000e+02 1.575943565368652344e+01 1.058062434196472168e+00 -5.923585831624222919e-06 -1.058597354131052271e-05 -4.952868039254099131e-06 -1.751196123223053291e-06
7.820000000000000000e+02 1.648424148559570312e+01 1.008164525032043457e+00 1.099804558180039749e-05 7.374271262960974127e-06 5.511695235327351838e-06 3.795514203375205398e-06
7.830000000000000000e+02 1.792996597290039062e+01 9.038596749305725098e-01 6.374636086547980085e-06 8.638955478090792894e-06 4.504077423916896805e-06 -6.523010824821540155e-07
7.840000000000000000e+02 1.857315826416015625e+01 7.808091640472412109e-01 -3.545877689248300157e-06 -1.225535015692003071e-05 -4.740368240163661540e-06 -4.727899067802354693e-06
7.850000000000000000e+02 1.974613952636718750e+01 9.305050969123840332e-01 -1.211367907671956345e-05 -4.716881448985077441e-06 -5.049168066761922091e-06 -8.900313332560472190e-06
7.860000000000000000e+02 2.040585517883300781e+01 1.052282333374023438e+00 1.206375782203394920e-05 2.688974802822485799e-07 3.699796479850192554e-06 3.820327492576325312e-06
7.870000000000000000e+02 2.048117637634277344e+01 2.461576223373413086e+00 -2.466778641974087805e-05 4.004312813776778057e-06 -6.199042218213435262e-06 9.958080227079335600e-06
7.880000000000000000e+02 2.107195281982421875e+01 1.166780233383178711e+00 -9.854962627287022769e-06 1.483116648159921169e-06 -2.511553930162335746e-06 3.099910088621982140e-07
7.890000000000000000e+02 1.914874839782714844e+01 7.908057570457458496e-01 6.583976301044458523e-06 1.409826745657483116e-05 6.204673354659462348e-06 1.237387641594978049e-05
7.900000000000000000e+02 1.837179756164550781e+01 5.296501159667968750e+00 -4.553454346023499966e-05 -2.514589141355827451e-07 -1.373580107610905543e-05 -6.147500698716612533e-06
7.910000000000000000e+02 1.869203186035156250e+01 7.782779693603515625e+00 5.519252590602263808e-05 -4.176487777840520721e-07 1.643246287130750716e-05 4.461059234017739072e-06
7.920000000000000000e+02 1.767575836181640625e+01 1.033604049682617188e+01 5.832355600432492793e-05 2.562416057116934098e-07 1.757393874868284911e-05 4.461221124074654654e-06
7.930000000000000000e+02 1.595742416381835938e+01 1.559473037719726562e+01 5.499660983332432806e-05 -2.008127921726554632e-06 1.589654493727721274e-05 3.984495833719847724e-06
7.940000000000000000e+02 1.528648567199707031e+01 1.973553466796875000e+01 -5.975136446068063378e-05 -4.247943252266850322e-06 -1.919979149533901364e-05 -9.654066843722830527e-07
7.950000000000000000e+02 1.524556159973144531e+01 2.113635063171386719e+01 6.397588731488212943e-05 -8.129863090289290994e-06 1.675380735832732171e-05 -9.543020951241487637e-07
7.960000000000000000e+02 1.532403945922851562e+01 2.394666671752929688e+01 7.147016003727912903e-05 -1.761986368364887312e-06 2.091245187330059707e-05 -3.275044946349225938e-06
7.970000000000000000e+02 1.652737236022949219e+01 3.156431770324707031e+01 1.255216629942879081e-04 7.709934834565501660e-06 3.996947998530231416e-05 -1.038912087096832693e-04
7.980000000000000000e+02 1.770007896423339844e+01 3.079327964782714844e+01 2.438036026433110237e-04 1.297058770433068275e-04 1.120528468163684011e-04 2.156024274881929159e-04
7.990000000000000000e+02 1.940078544616699219e+01 3.282613754272460938e+01 9.955094428732991219e-04 4.314896941650658846e-04 4.280997382011264563e-04 1.843500504037365317e-04
8.000000000000000000e+02 2.223212242126464844e+01 3.576490020751953125e+01 -1.734965713694691658e-03 -7.571146124973893166e-05 -5.432031466625630856e-04 1.642757095396518707e-03
8.010000000000000000e+02 2.532574462890625000e+01 3.703777694702148438e+01 -3.083962947130203247e-03 -5.987017881125211716e-03 -2.721294295042753220e-03 3.652663202956318855e-03
8.020000000000000000e+02 2.676898765563964844e+01 3.715463638305664062e+01 -1.941152848303318024e-02 2.815765328705310822e-03 -4.978728946298360825e-03 7.400602102279663086e-03
8.030000000000000000e+02 2.826372909545898438e+01 3.740367507934570312e+01 -4.089219868183135986e-02 -2.520193345844745636e-03 -1.302371732890605927e-02 9.965202771127223969e-03
8.040000000000000000e+02 3.098831748962402344e+01 3.709292602539062500e+01 -7.625276595354080200e-02 1.071532908827066422e-02 -1.966123282909393311e-02 1.206790655851364136e-02
8.050000000000000000e+02 3.793077850341796875e+01 3.424606323242187500e+01 2.019485831260681152e-01 3.643589019775390625e-01 1.698922365903854370e-01 -2.669901549816131592e-01
8.060000000000000000e+02 3.991054916381835938e+01 3.215447235107421875e+01 3.653651177883148193e-01 1.166569590568542480e+00 4.595804214477539062e-01 -5.509282350540161133e-01
8.070000000000000000e+02 4.315755462646484375e+01 2.687441635131835938e+01 1.748837679624557495e-01 1.788547873497009277e+00 5.890294909477233887e-01 -1.296568959951400757e-01
8.080000000000000000e+02 4.175712203979492188e+01 2.370753097534179688e+01 1.523788552731275558e-02 1.991203427314758301e+00 6.019324064254760742e-01 1.345278229564428329e-02
8.090000000000000000e+02 4.171199798583984375e+01 2.085054779052734375e+01 1.810641400516033173e-02 2.147098541259765625e+00 6.495614647865295410e-01 6.533639878034591675e-02
8.100000000000000000e+02 4.168414306640625000e+01 1.943095397949218750e+01 1.101071108132600784e-02 2.310698986053466797e+00 6.965128779411315918e-01 9.535452723503112793e-02
8.110000000000000000e+02 4.283077621459960938e+01 1.656109046936035156e+01 2.409207373857498169e-01 2.521025180816650391e+00 8.285837769508361816e-01 5.125331282615661621e-01
8.120000000000000000e+02 4.158308029174804688e+01 1.658953666687011719e+01 7.831688225269317627e-02 2.913267850875854492e+00 8.974754214286804199e-01 3.055626749992370605e-01
8.130000000000000000e+02 4.077555465698242188e+01 1.093496704101562500e+01 4.279951453208923340e-01 4.763034820556640625e+00 1.557308912277221680e+00 1.275270462036132812e+00
8.140000000000000000e+02 3.743864059448242188e+01 2.971559524536132812e+00 3.598210334777832031e+00 6.896577835083007812e+00 3.148436307907104492e+00 4.700163841247558594e+00
8.150000000000000000e+02 3.647714233398437500e+01 1.875729680061340332e+00 3.777521133422851562e+00 5.712078094482421875e+00 2.846879720687866211e+00 4.481840610504150391e+00
8.160000000000000000e+02 3.544708633422851562e+01 8.015733957290649414e-01 4.492822170257568359e+00 4.371693611145019531e+00 2.659354686737060547e+00 3.922038078308105469e+00
8.170000000000000000e+02 3.314688110351562500e+01 -2.556077957153320312e+00 2.340730577707290649e-01 1.377067804336547852e+00 4.833422601222991943e-01 1.901466369628906250e+00
8.180000000000000000e+02 1.863000297546386719e+01 -2.770472764968872070e+00 -1.876800358295440674e-01 -2.013211399316787720e-01 -1.167003512382507324e-01 -3.267246484756469727e-01
8.190000000000000000e+02 2.024817657470703125e+01 -2.654755830764770508e+00 -3.275122940540313721e-01 -2.644888162612915039e-01 -1.776003390550613403e-01 -4.981552362442016602e-01
8.200000000000000000e+02 1.703779220581054688e+01 -2.731589317321777344e+00 -1.170708835124969482e-01 -1.180452033877372742e-01 -7.053482532501220703e-02 -1.838199645280838013e-01
8.210000000000000000e+02 1.545620250701904297e+01 -2.638485193252563477e+00 -5.595122277736663818e-02 -7.364236563444137573e-02 -3.887807577848434448e-02 -8.478353917598724365e-02
8.220000000000000000e+02 1.240502643585205078e+01 -2.272304296493530273e+00 -2.234383672475814819e-02 -2.860726974904537201e-02 -1.528533175587654114e-02 -4.998899996280670166e-03
8.230000000000000000e+02 1.315050125122070312e+01 -2.371298074722290039e+00 -2.114191837608814240e-02 9.410268627107143402e-03 -3.519494784995913506e-03 -2.704328857362270355e-03
8.240000000000000000e+02 9.469119071960449219e+00 -1.900745034217834473e+00 -2.885583043098449707e-02 -6.493911612778902054e-03 -1.060492265969514847e-02 2.447445644065737724e-03
8.250000000000000000e+02 8.665005683898925781e+00 -1.881814241409301758e+00 -2.929690666496753693e-02 1.533909328281879425e-02 -4.187344573438167572e-03 5.070540122687816620e-03
8.260000000000000000e+02 7.854258060455322266e+00 -1.871589183807373047e+00 -3.005218133330345154e-02 -3.242538310587406158e-03 -9.988415986299514771e-03 -2.437966875731945038e-03
8.270000000000000000e+02 6.230907440185546875e+00 -1.864735245704650879e+00 -2.764735370874404907e-02 -2.264681039378046989e-03 -8.973610587418079376e-03 -9.251534007489681244e-03
8.280000000000000000e+02 4.608452796936035156e+00 -1.886808991432189941e+00 -2.082979120314121246e-02 -3.217519260942935944e-03 -7.214192766696214676e-03 -1.393763720989227295e-02
8.290000000000000000e+02 2.981670379638671875e+00 -1.988106727600097656e+00 -1.197850611060857773e-02 -6.389355286955833435e-03 -5.510358139872550964e-03 -1.454520784318447113e-02
8.300000000000000000e+02 3.238684177398681641e+00 -2.909138441085815430e+00 -1.242547575384378433e-02 1.043024705722928047e-03 -3.414735198020935059e-03 -1.983241550624370575e-02
8.310000000000000000e+02 2.163110971450805664e+00 -2.076628446578979492e+00 -6.956112571060657501e-03 -3.369187470525503159e-03 -3.097590059041976929e-03 -1.174097321927547455e-02
8.320000000000000000e+02 1.328988432884216309e+00 -2.170187234878540039e+00 -4.316323436796665192e-03 -9.302561171352863312e-03 -4.085665103048086166e-03 -8.171759545803070068e-03
8.330000000000000000e+02 4.533260464668273926e-01 -2.210542440414428711e+00 -1.895432244054973125e-03 -6.108531728386878967e-03 -2.401189180091023445e-03 -3.018946386873722076e-03
8.340000000000000000e+02 2.025041818618774414e+00 -4.163727951049804688e+01 4.779834300279617310e-02 5.782714486122131348e-01 1.878209263086318970e-01 -1.357944775372743607e-02
8.350000000000000000e+02 9.287457466125488281e-01 -3.872456741333007812e+01 5.488293245434761047e-03 6.471353173255920410e-01 1.957870870828628540e-01 -2.832499332726001740e-02
8.360000000000000000e+02 6.988280415534973145e-01 -3.464615631103515625e+01 -5.473123397678136826e-03 7.688777446746826172e-01 2.290213853120803833e-01 -1.410808600485324860e-02
8.370000000000000000e+02 6.896553039550781250e-01 -3.325539016723632812e+01 -5.023288540542125702e-03 7.878077030181884766e-01 2.348353266716003418e-01 -3.390124998986721039e-03
8.380000000000000000e+02 4.226399898529052734e+00 -2.994524192810058594e+01 -1.826293915510177612e-01 3.913639783859252930e-01 6.262037903070449829e-02 1.278789639472961426e-01
8.390000000000000000e+02 1.921993494033813477e+00 -2.754051208496093750e+01 -3.860889002680778503e-02 4.404581487178802490e-01 1.205547824501991272e-01 2.045024335384368896e-01
8.400000000000000000e+02 5.871584415435791016e-01 -2.622097015380859375e+01 6.250962149351835251e-03 2.997640371322631836e-01 9.180449694395065308e-02 9.200474619865417480e-02
8.410000000000000000e+02 5.851519107818603516e+00 -2.379590415954589844e+01 4.185623303055763245e-02 9.657696485519409180e-01 3.022877573966979980e-01 1.357792019844055176e-01
8.420000000000000000e+02 2.055281877517700195e+00 -2.218127441406250000e+01 5.872774124145507812e-02 2.536351047456264496e-02 2.522737532854080200e-02 2.205775976181030273e-01
8.430000000000000000e+02 6.828616619110107422e+00 -1.941981506347656250e+01 2.657262086868286133e-01 1.251628398895263672e+00 4.552063941955566406e-01 5.426263809204101562e-01
8.440000000000000000e+02 6.683874726295471191e-01 -2.204659080505371094e+01 1.165229734033346176e-02 -3.403464257717132568e-01 -9.860824048519134521e-02 7.207324355840682983e-02
8.450000000000000000e+02 6.406888961791992188e-01 -1.637688064575195312e+01 1.349096931517124176e-02 -4.874843060970306396e-01 -1.421979963779449463e-01 -2.340736798942089081e-02
8.460000000000000000e+02 6.209673285484313965e-01 -1.496138572692871094e+01 -2.475153189152479172e-03 -4.211246073246002197e-01 -1.270799338817596436e-01 -3.502253070473670959e-02
8.470000000000000000e+02 6.014650464057922363e-01 -1.355043220520019531e+01 1.215540454722940922e-03 -3.415274024009704590e-01 -1.020935550332069397e-01 -3.362276777625083923e-02
8.480000000000000000e+02 1.807871580123901367e+00 -1.359824371337890625e+01 -8.284839801490306854e-03 -1.725322455167770386e-01 -5.424512550234794617e-02 -8.748153597116470337e-02
8.490000000000000000e+02 5.551380515098571777e-01 -9.355197906494140625e+00 -1.984067028388381004e-03 -1.418611705303192139e-01 -4.315357282757759094e-02 -1.973979733884334564e-02
8.500000000000000000e+02 5.501762032508850098e-01 -7.964722633361816406e+00 -1.829778193496167660e-03 -9.811627864837646484e-02 -2.998381666839122772e-02 -1.469965185970067978e-02
8.510000000000000000e+02 4.007618427276611328e+00 -2.736977100372314453e+00 -1.594076864421367645e-02 -3.521890146657824516e-03 -5.838797893375158310e-03 -1.839476451277732849e-02
8.520000000000000000e+02 4.257831573486328125e+00 -3.460769414901733398e+00 -1.596879400312900543e-02 7.486909627914428711e-03 -2.544565126299858093e-03 -2.167261950671672821e-02
8.530000000000000000e+02 5.174198913574218750e+01 -4.075103759765625000e+01 -1.951782405376434326e-02 1.419748216867446899e-01 3.673709928989410400e-02 -1.460740156471729279e-02
8.540000000000000000e+02 3.627620697021484375e+01 -3.825657272338867188e+01 -2.016147822141647339e-01 4.551430344581604004e-01 7.605847716331481934e-02 6.596703082323074341e-03
8.550000000000000000e+02 1.224556064605712891e+01 -3.891144561767578125e+01 7.456580642610788345e-03 -6.677076965570449829e-02 -1.779425702989101410e-02 3.782235831022262573e-02
8.560000000000000000e+02 7.964104461669921875e+01 -1.544568920135498047e+01 -1.393404672853648663e-04 -3.674084291560575366e-05 -5.282439451548270881e-05 1.256119776371633634e-05
8.570000000000000000e+02 7.830843353271484375e+01 -1.518997955322265625e+01 3.740311149158515036e-05 -2.632940231706015766e-05 3.322112888781703077e-06 -9.021467849379405379e-05
8.580000000000000000e+02 7.743695831298828125e+01 -1.613559532165527344e+01 1.072656596079468727e-04 1.087817363440990448e-04 6.481421587523072958e-05 3.127763193333521485e-05
8.590000000000000000e+02 7.742521667480468750e+01 -1.838364982604980469e+01 -1.085801268345676363e-04 -1.526242267573252320e-04 -7.836130680516362190e-05 5.601628799922764301e-05
8.600000000000000000e+02 7.940254974365234375e+01 -2.235067939758300781e+01 1.300575968343764544e-04 1.204565196530893445e-04 7.515423203585669398e-05 -2.807426113804467604e-08
8.610000000000000000e+02 7.840830993652343750e+01 -2.486010742187500000e+01 -1.855614536907523870e-04 1.278720010304823518e-04 -1.730683470668736845e-05 -4.675326999858953059e-05
8.620000000000000000e+02 7.946030426025390625e+01 -2.507106590270996094e+01 1.188208188978023827e-04 1.605613506399095058e-04 8.381465158890932798e-05 -2.135019167326390743e-05
8.630000000000000000e+02 7.937245178222656250e+01 -2.915709304809570312e+01 -7.615968206664547324e-05 -3.220844155293889344e-05 -3.251043744967319071e-05 6.980366742936894298e-05
8.640000000000000000e+02 7.792216491699218750e+01 -3.149822425842285156e+01 -2.840156048478092998e-05 -5.669649690389633179e-04 -1.786099601304158568e-04 5.738997133448719978e-04
8.650000000000000000e+02 7.930946350097656250e+01 -3.190919876098632812e+01 -1.893887565529439598e-05 -6.514816777780652046e-04 -2.011261676670983434e-04 1.730171643430367112e-04
8.660000000000000000e+02 7.925314331054687500e+01 -3.608631896972656250e+01 3.106331860180944204e-06 -2.105427905917167664e-03 -6.306964787654578686e-04 2.434296620776876807e-04
8.670000000000000000e+02 7.776594543457031250e+01 -3.704745101928710938e+01 2.114951639669016004e-04 -2.225321717560291290e-03 -6.041479646228253841e-04 6.491895182989537716e-04
8.680000000000000000e+02 7.921206665039062500e+01 -3.744524383544921875e+01 1.460513340134639293e-05 -2.530504483729600906e-03 -7.547698332928121090e-04 2.098884142469614744e-04
8.690000000000000000e+02 7.869214630126953125e+01 -4.011228561401367188e+01 1.025514065986499190e-04 -3.005981678143143654e-03 -8.710291003808379173e-04 7.969642319949343801e-05
8.700000000000000000e+02 7.893920135498046875e+01 -1.533574867248535156e+01 -3.182428190484642982e-05 5.743296787841245532e-05 7.682605428271926939e-06 3.400435889489017427e-05
8.710000000000000000e+02 7.773699951171875000e+01 -1.518291950225830078e+01 8.474170499539468437e-06 8.213819091906771064e-05 2.718370888032950461e-05 7.852762792026624084e-05
8.720000000000000000e+02 7.713147735595703125e+01 -1.529168128967285156e+01 -5.007506479159928858e-05 -6.158137694001197815e-05 -3.349693361087702215e-05 -5.748070543631911278e-05
8.730000000000000000e+02 7.646850585937500000e+01 -1.536975383758544922e+01 7.933313463581725955e-05 3.481716339592821896e-05 3.424509122851304710e-05 4.783953500009374693e-06
8.740000000000000000e+02 7.353424072265625000e+01 -1.549089050292968750e+01 2.297739411005750299e-05 1.464826436858857051e-05 1.128769781644223258e-05 2.222731563961133361e-05
8.750000000000000000e+02 7.427036285400390625e+01 -1.547221279144287109e+01 1.173431428469484672e-05 -3.275111521361395717e-05 -6.305040642473613843e-06 -3.870113232551375404e-06
8.760000000000000000e+02 7.213472747802734375e+01 -1.646056365966796875e+01 -1.238975819433107972e-04 1.951531157828867435e-05 -3.131468110950663686e-05 -3.315642970846965909e-05
8.770000000000000000e+02 7.060282897949218750e+01 -1.582679462432861328e+01 -1.320998399023665115e-05 2.133028647222090513e-05 2.436090881019481458e-06 -3.981674308306537569e-05
8.780000000000000000e+02 6.931589508056640625e+01 -1.719252014160156250e+01 2.084483858197927475e-04 1.611711631994694471e-04 1.108858632505871356e-04 -1.192739455291302875e-05
8.790000000000000000e+02 6.993280029296875000e+01 -1.585697841644287109e+01 6.922265311004593968e-05 -6.271005258895456791e-05 1.953778792085358873e-06 1.722849629004485905e-05
8.800000000000000000e+02 7.287011718750000000e+01 -1.634254264831542969e+01 9.738312655827030540e-05 -2.616200617922004312e-06 2.843007678166031837e-05 6.824372394476085901e-05
8.810000000000000000e+02 6.882913208007812500e+01 -2.091251182556152344e+01 -2.196729474235326052e-04 7.229285984067246318e-05 -4.421402627485804260e-05 3.810025373240932822e-05
8.820000000000000000e+02 6.879980468750000000e+01 -2.230340194702148438e+01 2.736164897214621305e-04 1.405592192895710468e-04 1.242527068825438619e-04 -2.325165951333474368e-06
8.830000000000000000e+02 6.855484771728515625e+01 -2.513141059875488281e+01 2.588469360489398241e-04 2.731826680246740580e-04 1.596088841324672103e-04 -5.981905997032299638e-05
8.840000000000000000e+02 6.672969818115234375e+01 -2.914321517944335938e+01 -2.377936616539955139e-03 -8.817295893095433712e-04 -9.778998792171478271e-04 -1.135697471909224987e-03
8.850000000000000000e+02 6.449164581298828125e+01 -3.120490455627441406e+01 -8.236648514866828918e-03 -1.261755009181797504e-03 -2.849521115422248840e-03 -3.283030586317181587e-03
8.860000000000000000e+02 5.369478607177734375e+01 -2.954341506958007812e+01 7.133938837796449661e-03 1.857568696141242981e-02 7.712887600064277649e-03 -1.802453026175498962e-02
8.870000000000000000e+02 5.072178649902343750e+01 -2.651048278808593750e+01 2.560964971780776978e-02 2.004712074995040894e-02 1.369703188538551331e-02 -2.154515497386455536e-02
8.880000000000000000e+02 4.975772857666015625e+01 -2.549883270263671875e+01 2.039851807057857513e-02 1.057665608823299408e-02 9.292552247643470764e-03 -1.926046051084995270e-02
8.890000000000000000e+02 4.679491424560546875e+01 -2.250359535217285156e+01 -3.739163512364029884e-04 -2.620266377925872803e-02 -7.972973398864269257e-03 1.471227500587701797e-02
8.900000000000000000e+02 4.581212234497070312e+01 -2.151811790466308594e+01 -1.609163731336593628e-02 -3.724383190274238586e-02 -1.600063964724540710e-02 2.739202976226806641e-02
8.910000000000000000e+02 4.483547973632812500e+01 -2.053918266296386719e+01 -2.916718274354934692e-02 -5.048270151019096375e-02 -2.389496564865112305e-02 3.953099623322486877e-02
8.920000000000000000e+02 4.057941436767578125e+01 -9.916079521179199219e+00 2.810323052108287811e-02 1.090970337390899658e-01 4.116007685661315918e-02 -8.321891725063323975e-02
8.930000000000000000e+02 4.118112945556640625e+01 -9.785009384155273438e+00 2.046046219766139984e-02 7.175472378730773926e-02 2.766455709934234619e-02 -4.597907140851020813e-02
8.940000000000000000e+02 4.000723266601562500e+01 -9.234233856201171875e+00 6.177326291799545288e-02 8.654081076383590698e-02 4.449422284960746765e-02 -9.284114837646484375e-02
8.950000000000000000e+02 4.067802429199218750e+01 -9.257680892944335938e+00 4.078380391001701355e-02 6.077843159437179565e-02 3.046867065131664276e-02 -5.725627020001411438e-02
8.960000000000000000e+02 3.701910400390625000e+01 -8.857800483703613281e+00 2.900926768779754639e-01 1.536861062049865723e-01 1.331336349248886108e-01 -3.025172650814056396e-01
8.970000000000000000e+02 3.474937438964843750e+01 -8.417989730834960938e+00 5.916298627853393555e-01 2.195329219102859497e-01 2.433488368988037109e-01 -4.721543788909912109e-01
8.980000000000000000e+02 3.400360488891601562e+01 -8.260308265686035156e+00 7.182627320289611816e-01 2.398316562175750732e-01 2.874283194541931152e-01 -5.201099514961242676e-01
8.990000000000000000e+02 3.269979095458984375e+01 -7.924017429351806641e+00 9.521149396896362305e-01 3.234010338783264160e-01 3.826547861099243164e-01 -6.309691071510314941e-01
9.000000000000000000e+02 3.149391746520996094e+01 -7.580975532531738281e+00 1.210276722908020020e+00 4.865429401397705078e-01 5.090458989143371582e-01 -7.744977474212646484e-01
9.010000000000000000e+02 3.092171859741210938e+01 -7.424098014831542969e+00 1.312585115432739258e+00 6.730096936225891113e-01 5.956784486770629883e-01 -8.784838318824768066e-01
9.020000000000000000e+02 2.936133766174316406e+01 -6.738455772399902344e+00 1.608424186706542969e+00 1.882693290710449219e+00 1.047335267066955566e+00 -1.399567484855651855e+00
9.030000000000000000e+02 2.866437339782714844e+01 -6.450406074523925781e+00 1.414930462837219238e+00 3.375698804855346680e+00 1.437188744544982910e+00 -1.369148731231689453e+00
9.040000000000000000e+02 2.771095848083496094e+01 -6.139846324920654297e+00 1.428644299507141113e+00 5.384832859039306641e+00 2.044043064117431641e+00 5.303069353103637695e-01
9.050000000000000000e+02 2.721713066101074219e+01 -5.757854938507080078e+00 2.990337371826171875e+00 4.699713706970214844e+00 2.307015180587768555e+00 2.117080688476562500e+00
9.060000000000000000e+02 2.672304534912109375e+01 -5.266952514648437500e+00 4.859228134155273438e+00 2.425075531005859375e+00 2.185291051864624023e+00 2.062063217163085938e+00
9.070000000000000000e+02 2.115000152587890625e+01 -3.166829347610473633e+00 -7.993813604116439819e-02 -2.522298693656921387e-01 -9.965040534734725952e-02 -5.734623670578002930e-01
9.080000000000000000e+02 2.755688095092773438e+01 -3.066551208496093750e+00 -1.433516860008239746e+00 2.367165565490722656e+00 2.800945937633514404e-01 -6.361434459686279297e-01
9.090000000000000000e+02 2.798917198181152344e+01 -2.858703613281250000e+00 -2.919272661209106445e+00 3.215013742446899414e+00 8.872234076261520386e-02 2.137326717376708984e+00
9.100000000000000000e+02 2.862854576110839844e+01 -2.910553693771362305e+00 -2.479067564010620117e+00 2.920930385589599609e+00 1.325588822364807129e-01 3.624097347259521484e+00
9.110000000000000000e+02 2.942107582092285156e+01 -3.141577720642089844e+00 8.878580331802368164e-01 5.684146881103515625e-01 4.368818104267120361e-01 5.540034294128417969e+00
9.120000000000000000e+02 2.919815063476562500e+01 -2.828462839126586914e+00 -2.027493476867675781e+00 3.086049556732177734e-01 -5.156665444374084473e-01 4.193362236022949219e+00
9.130000000000000000e+02 3.057847595214843750e+01 -3.559860229492187500e+00 8.843169808387756348e-01 -4.703280925750732422e-01 1.241966560482978821e-01 3.814276695251464844e+00
9.140000000000000000e+02 3.032271385192871094e+01 -3.471984863281250000e+00 1.288056373596191406e+00 -4.767414927482604980e-01 2.433944791555404663e-01 4.064954757690429688e+00
9.150000000000000000e+02 3.094186401367187500e+01 -3.818666696548461914e+00 3.680122196674346924e-01 -4.317173957824707031e-01 -1.911155506968498230e-02 3.086622476577758789e+00
9.160000000000000000e+02 3.134503173828125000e+01 -3.909518241882324219e+00 -1.329746097326278687e-01 -1.061833426356315613e-01 -7.174738496541976929e-02 2.786648988723754883e+00
9.170000000000000000e+02 3.112739753723144531e+01 -3.890278100967407227e+00 7.349321991205215454e-02 -3.533495366573333740e-01 -8.395688980817794800e-02 2.884778261184692383e+00
9.180000000000000000e+02 3.163584709167480469e+01 -3.910159587860107422e+00 -6.107709407806396484e-01 -1.123332604765892029e-01 -2.169312685728073120e-01 2.525179862976074219e+00
9.190000000000000000e+02 3.274390411376953125e+01 -4.181646347045898438e+00 -1.380301713943481445e+00 3.420674800872802734e-01 -3.114702403545379639e-01 1.801442980766296387e+00
9.200000000000000000e+02 3.409765625000000000e+01 -4.492173194885253906e+00 -2.262823820114135742e+00 5.262332558631896973e-01 -5.209771990776062012e-01 9.125695824623107910e-01
9.210000000000000000e+02 3.695111465454101562e+01 -5.114843368530273438e+00 -2.622709989547729492e+00 7.071242332458496094e-01 -5.746757388114929199e-01 -5.240528583526611328e-01
9.220000000000000000e+02 3.627143096923828125e+01 -4.913509368896484375e+00 -2.666871070861816406e+00 6.514504551887512207e-01 -6.046261787414550781e-01 -3.049063384532928467e-01
9.230000000000000000e+02 3.654085922241210938e+01 -3.546643495559692383e+00 -1.550627231597900391e+00 1.425595879554748535e+00 -3.750943392515182495e-02 -4.270970821380615234e-01
9.240000000000000000e+02 3.896932983398437500e+01 -5.389433383941650391e+00 -1.935419201850891113e+00 3.574411571025848389e-01 -4.733934104442596436e-01 -1.144593954086303711e+00
9.250000000000000000e+02 3.814247512817382812e+01 -4.054049968719482422e+00 -1.987902045249938965e+00 1.073682785034179688e+00 -2.742657959461212158e-01 -1.309461951255798340e+00
9.260000000000000000e+02 4.052897644042968750e+01 -5.414427757263183594e+00 -1.131791472434997559e+00 -1.853768825531005859e-01 -3.951505124568939209e-01 -1.151105642318725586e+00
9.270000000000000000e+02 1.427373218536376953e+01 -1.634265899658203125e+01 -2.460360378026962280e-01 -9.481569379568099976e-02 -1.022555157542228699e-01 2.050206363201141357e-01
9.280000000000000000e+02 1.958011627197265625e+01 -1.726737022399902344e+01 -5.738239884376525879e-01 -2.018313156440854073e-03 -1.727526932954788208e-01 2.598761320114135742e-01
9.290000000000000000e+02 1.928553390502929688e+01 -1.837280654907226562e+01 -6.742641329765319824e-01 -2.586722932755947113e-02 -2.100394070148468018e-01 2.106138169765472412e-01
9.300000000000000000e+02 2.184526062011718750e+01 -1.876628112792968750e+01 -8.888292908668518066e-01 3.066641278564929962e-02 -2.574488520622253418e-01 7.834718376398086548e-02
9.310000000000000000e+02 2.421515655517578125e+01 -1.759418296813964844e+01 -1.071693778038024902e+00 1.150962561368942261e-01 -2.869792580604553223e-01 8.696101605892181396e-02
9.320000000000000000e+02 2.200418853759765625e+01 -1.664534378051757812e+01 -6.877828240394592285e-01 1.125955209136009216e-01 -1.725561916828155518e-01 2.900440096855163574e-01
9.330000000000000000e+02 2.829358100891113281e+01 -1.791768455505371094e+01 -1.735253214836120605e+00 -5.832327064126729965e-03 -5.223256349563598633e-01 -2.624190747737884521e-01
9.340000000000000000e+02 3.599653244018554688e+01 -2.603303527832031250e+01 1.590892970561981201e-01 1.253760933876037598e+00 4.238550662994384766e-01 8.925840258598327637e-03
9.350000000000000000e+02 2.698973846435546875e+01 -3.159929084777832031e+01 -1.999899595975875854e-01 9.534814395010471344e-03 -5.713654309511184692e-02 -2.134650480002164841e-03
9.360000000000000000e+02 2.287091064453125000e+01 -3.179401588439941406e+01 -2.290076017379760742e-01 -1.049164682626724243e-03 -6.901703029870986938e-02 -1.585946232080459595e-02
9.370000000000000000e+02 2.351667594909667969e+01 -3.302616882324218750e+01 -2.007132917642593384e-01 -5.356813198886811733e-04 -6.037469208240509033e-02 -4.431855864822864532e-03
9.380000000000000000e+02 2.148520469665527344e+01 -3.219731521606445312e+01 -2.371865212917327881e-01 -1.076729223132133484e-02 -7.438614219427108765e-02 -6.207705009728670120e-03
9.390000000000000000e+02 1.934908866882324219e+01 -3.416358184814453125e+01 -1.938953399658203125e-01 -3.232076391577720642e-02 -6.786482781171798706e-02 3.219106420874595642e-02
9.400000000000000000e+02 1.687747764587402344e+01 -3.338897323608398438e+01 -2.459520697593688965e-01 -4.032997786998748779e-02 -8.588461577892303467e-02 5.400816351175308228e-02
9.410000000000000000e+02 1.180355453491210938e+01 -3.120928764343261719e+01 -4.677399098873138428e-01 -4.254519939422607422e-02 -1.530855298042297363e-01 1.353122442960739136e-01
9.420000000000000000e+02 1.140709686279296875e+01 -1.618555831909179688e+01 3.731141090393066406e-01 8.623561263084411621e-02 1.378049254417419434e-01 1.718392968177795410e-01
9.430000000000000000e+02 3.201180267333984375e+01 -8.309556961059570312e+00 9.476012587547302246e-01 4.828554987907409668e-01 4.291370213031768799e-01 -7.697561383247375488e-01
9.440000000000000000e+02 2.901715087890625000e+01 -6.596097469329833984e+00 1.519890546798706055e+00 2.476470708847045898e+00 1.198908329010009766e+00 -1.405516386032104492e+00
9.450000000000000000e+02 2.821527290344238281e+01 -6.574807643890380859e+00 1.108780980110168457e+00 4.113073348999023438e+00 1.566556215286254883e+00 -6.690416336059570312e-01
9.460000000000000000e+02 2.791734123229980469e+01 -6.210496425628662109e+00 1.268989443778991699e+00 5.151515483856201172e+00 1.926151514053344727e+00 -4.002918023616075516e-03
9.470000000000000000e+02 2.918965530395507812e+01 -6.672372341156005859e+00 1.577441215515136719e+00 2.120234966278076172e+00 1.109302878379821777e+00 -1.420181870460510254e+00
9.480000000000000000e+02 2.926539993286132812e+01 -7.025372028350830078e+00 1.354599475860595703e+00 2.017951965332031250e+00 1.011765360832214355e+00 -1.249172687530517578e+00
9.490000000000000000e+02 2.919786643981933594e+01 -3.103669166564941406e+00 8.603217601776123047e-01 7.047618031501770020e-01 4.695250689983367920e-01 5.466440677642822266e+00
9.500000000000000000e+02 2.901662445068359375e+01 -3.039297819137573242e+00 -9.742570519447326660e-01 1.545155286788940430e+00 1.712694913148880005e-01 4.665492534637451172e+00
9.510000000000000000e+02 2.550473594665527344e+01 -1.518667340278625488e+00 -5.284251213073730469e+00 -5.409352779388427734e-01 -1.747555851936340332e+00 1.064055085182189941e+00
9.520000000000000000e+02 2.271502685546875000e+01 -2.299224615097045898e+00 -1.038825392723083496e+00 1.421526521444320679e-01 -2.690018117427825928e-01 -6.663512587547302246e-01
9.530000000000000000e+02 2.713583755493164062e+01 -2.908668518066406250e+00 -1.581777572631835938e+00 1.659121036529541016e+00 2.320302836596965790e-02 -2.069768905639648438e+00
9.540000000000000000e+02 2.719584655761718750e+01 -3.279268264770507812e+00 2.524701356887817383e-01 2.213681221008300781e+00 7.398453950881958008e-01 -2.042210102081298828e+00
9.550000000000000000e+02 2.359653663635253906e+01 -2.065446138381958008e+00 -1.238580226898193359e+00 3.093800246715545654e-01 -2.787600457668304443e-01 -7.007576823234558105e-01
9.560000000000000000e+02 2.186737632751464844e+01 -2.462545871734619141e+00 -4.756756126880645752e-01 -1.706789582967758179e-01 -1.939063668251037598e-01 -5.954310894012451172e-01
9.570000000000000000e+02 2.631651496887207031e+01 -4.232203483581542969e+00 4.762524604797363281e+00 4.447588697075843811e-02 1.442100167274475098e+00 -7.197222113609313965e-01
9.580000000000000000e+02 2.779418563842773438e+01 -2.085102558135986328e+00 -1.057564258575439453e+01 -2.844810783863067627e-01 -3.258037090301513672e+00 -3.056919872760772705e-01
9.590000000000000000e+02 2.665930747985839844e+01 -5.047753334045410156e+00 5.416045188903808594e+00 1.831198334693908691e+00 2.174173116683959961e+00 1.684072256088256836e+00
9.600000000000000000e+02 2.738649177551269531e+01 -3.173064708709716797e+00 1.861671507358551025e-01 2.443719625473022461e+00 7.889660000801086426e-01 -1.599560260772705078e+00
9.610000000000000000e+02 2.728152656555175781e+01 -6.296400070190429688e+00 1.747179746627807617e+00 4.402514457702636719e+00 1.844908237457275391e+00 1.246324062347412109e+00
9.620000000000000000e+02 2.861015129089355469e+01 -1.868041515350341797e+00 -9.327341079711914062e+00 6.656731963157653809e-01 -2.598500251770019531e+00 8.876549005508422852e-01
9.630000000000000000e+02 2.717899894714355469e+01 -6.094524860382080078e+00 2.217916250228881836e+00 4.348793983459472656e+00 1.970013141632080078e+00 1.611963868141174316e+00
9.640000000000000000e+02 3.196382141113281250e+01 -3.203940629959106445e+00 1.224921494722366333e-01 6.608477830886840820e-01 2.350019812583923340e-01 2.752115964889526367e+00
9.650000000000000000e+02 2.957799720764160156e+01 -2.702830791473388672e+00 -7.386459112167358398e-01 2.990057766437530518e-01 -1.318920403718948364e-01 4.465574741363525391e+00
9.660000000000000000e+02 3.010620307922363281e+01 -3.470590591430664062e+00 1.444881677627563477e+00 -4.397442638874053955e-01 3.015412092208862305e-01 4.331611156463623047e+00
9.670000000000000000e+02 2.898166847229003906e+01 -2.604136228561401367e+00 -4.425623893737792969e+00 1.316352725028991699e+00 -9.327813386917114258e-01 4.057672023773193359e+00
9.680000000000000000e+02 2.979473495483398438e+01 -3.392455339431762695e+00 1.430954337120056152e+00 -9.988614916801452637e-02 3.993204534053802490e-01 4.786316871643066406e+00
9.690000000000000000e+02 3.147098350524902344e+01 -3.263968944549560547e+00 1.446685940027236938e-01 2.541741132736206055e-01 1.196528077125549316e-01 3.148671627044677734e+00
9.700000000000000000e+02 3.143432617187500000e+01 -8.129611015319824219e+00 1.044864416122436523e+00 6.190920472145080566e-01 4.991869628429412842e-01 -8.387975692749023438e-01
9.710000000000000000e+02 3.209190368652343750e+01 -7.750651359558105469e+00 1.076716780662536621e+00 3.986020982265472412e-01 4.425956904888153076e-01 -6.909409165382385254e-01
9.720000000000000000e+02 3.261178588867187500e+01 -8.509156227111816406e+00 8.378906250000000000e-01 4.192585051059722900e-01 3.771447241306304932e-01 -7.130600810050964355e-01
9.730000000000000000e+02 3.090454292297363281e+01 -7.981489181518554688e+00 1.127403378486633301e+00 7.804451584815979004e-01 5.723545551300048828e-01 -9.132233262062072754e-01
9.740000000000000000e+02 3.324225997924804688e+01 -8.713973999023437500e+00 7.319330573081970215e-01 3.523332774639129639e-01 3.252798914909362793e-01 -6.597342491149902344e-01
9.750000000000000000e+02 7.575535583496093750e+01 -1.542108440399169922e+01 -3.687919161166064441e-05 -3.295980786788277328e-05 -2.095169838867150247e-05 6.129801477072760463e-06
9.760000000000000000e+02 7.944328308105468750e+01 -1.815765953063964844e+01 -1.432901917723938823e-04 -9.839061931415926665e-06 -4.593877747538499534e-05 2.150095679098740220e-05
9.770000000000000000e+02 7.592236328125000000e+01 -1.643130874633789062e+01 6.061610110918991268e-05 6.424215098377317190e-05 3.745747744687832892e-05 -8.174659342330414802e-06
9.780000000000000000e+02 7.802147674560546875e+01 -1.577709102630615234e+01 -9.049417712958529592e-06 -1.351709070149809122e-04 -4.326609996496699750e-05 -8.650962627143599093e-06
9.790000000000000000e+02 6.865319061279296875e+01 -1.633414077758789062e+01 -1.967071875697001815e-05 -9.957034490071237087e-05 -3.577231836970895529e-05 -7.874243601690977812e-05
9.800000000000000000e+02 6.894747161865234375e+01 -1.822598075866699219e+01 -1.382079644827172160e-04 -3.823113001999445260e-05 -5.293172944220714271e-05 5.874103590031154454e-05
9.810000000000000000e+02 7.726618194580078125e+01 -6.964383602142333984e+00 -1.016313675791025162e-03 2.503656549379229546e-03 4.462028155103325844e-04 5.805669818073511124e-03
9.820000000000000000e+02 7.681041717529296875e+01 -1.152953720092773438e+01 3.448822302743792534e-03 1.487050440118764527e-06 1.035092864185571671e-03 4.425786435604095459e-03
9.830000000000000000e+02 7.950488281250000000e+01 -9.478415489196777344e+00 -6.408651825040578842e-04 8.362437598407268524e-03 2.316471654921770096e-03 1.998104155063629150e-03
9.840000000000000000e+02 7.842754364013671875e+01 -6.886067390441894531e+00 -1.336959772743284702e-03 1.082135457545518875e-02 2.845318522304296494e-03 3.695708233863115311e-03
9.850000000000000000e+02 7.951823425292968750e+01 -8.221253395080566406e+00 4.459255724214017391e-04 1.395606808364391327e-02 4.320598207414150238e-03 1.586995902471244335e-03
9.860000000000000000e+02 7.652445220947265625e+01 -1.085067844390869141e+01 3.675351850688457489e-03 1.090049510821700096e-03 1.429620431736111641e-03 6.290781777352094650e-03
9.870000000000000000e+02 3.741925811767578125e+01 -1.144615840911865234e+01 6.502379477024078369e-02 3.962524831295013428e-01 1.383828818798065186e-01 -4.090805053710937500e-01
9.880000000000000000e+02 2.033739662170410156e+01 4.148884296417236328e+00 -3.883292811224237084e-05 -1.934068450282211415e-06 -1.223009803652530536e-05 7.477198096239590086e-07
9.890000000000000000e+02 2.115748596191406250e+01 2.112185955047607422e+00 -6.403716270142467692e-06 5.750881882704561576e-06 -1.958502338084144867e-07 -1.732447913127543870e-06
9.900000000000000000e+02 2.170382308959960938e+01 1.361518383026123047e+00 2.856563014574931003e-06 2.696359160836436786e-06 1.665876652623410337e-06 -2.100477558997226879e-06
9.910000000000000000e+02 2.155841255187988281e+01 2.605107784271240234e+00 9.346230399387422949e-06 5.274531304166885093e-06 4.386228283692616969e-06 7.563578492408851162e-06
9.920000000000000000e+02 1.932600784301757812e+01 3.185472965240478516e+00 -4.153967529418878257e-05 -2.772868583633680828e-06 -1.329376300418516621e-05 -1.178609545604558662e-05
9.930000000000000000e+02 1.754714584350585938e+01 7.732621192932128906e+00 -4.997148425900377333e-05 9.412922281626379117e-07 -1.470905772293917835e-05 -1.654930201766546816e-06
9.940000000000000000e+02 1.934358787536621094e+01 1.508314251899719238e+00 1.487665758759249002e-05 5.604817943094531074e-06 6.144442522781901062e-06 1.684385824773926288e-05
9.950000000000000000e+02 1.977585792541503906e+01 5.310498714447021484e+00 4.316957347327843308e-05 1.201273562401183881e-06 1.331125440628966317e-05 3.618648861447582021e-06
9.960000000000000000e+02 1.658447456359863281e+01 2.357892036437988281e+00 9.434549610887188464e-06 2.430023232591338456e-05 1.012043412629282102e-05 4.911215000902302563e-06
9.970000000000000000e+02 3.478678894042968750e+01 -4.652867317199707031e+00 -2.563651084899902344e+00 6.185492873191833496e-01 -5.835305452346801758e-01 4.465240240097045898e-01
9.980000000000000000e+02 3.282511520385742188e+01 -8.688651919364929199e-01 4.480018138885498047e+00 1.754507541656494141e+00 1.870357632637023926e+00 2.649995326995849609e+00
9.990000000000000000e+02 3.254261779785156250e+01 -3.273207426071166992e+00 -3.044700622558593750e-01 7.953707575798034668e-01 1.472702175378799438e-01 2.276748180389404297e+00
1.000000000000000000e+03 3.550717926025390625e+01 -4.790986061096191406e+00 -2.633433103561401367e+00 7.090179920196533203e-01 -5.773245096206665039e-01 1.223802566528320312e-01
1.001000000000000000e+03 3.572656250000000000e+01 -4.130539894104003906e+00 -1.986824989318847656e+00 1.004116177558898926e+00 -2.948126792907714844e-01 -4.746177792549133301e-02
1.002000000000000000e+03 6.121917724609375000e+00 1.855257749557495117e+00 9.572152521286625415e-06 1.244825762114487588e-05 6.606122951779980212e-06 -3.239805209886981174e-06
1.003000000000000000e+03 9.775059700012207031e+00 2.509000062942504883e+00 1.772144423739518970e-05 5.687696102540940046e-06 7.022742465778719634e-06 2.975126790261128917e-06
1.004000000000000000e+03 7.538516044616699219e+00 2.544784545898437500e+00 -1.355243603029521182e-05 -1.140732183557702228e-05 -7.487927177862729877e-06 -1.985209109989227727e-06
1.005000000000000000e+03 6.846107959747314453e+00 1.851180911064147949e+00 -9.679914001026190817e-06 -1.151867127191508189e-05 -6.359575763781322166e-06 1.611204652363085188e-06
1.006000000000000000e+03 6.808831214904785156e+00 2.556639671325683594e+00 1.176822934212395921e-05 1.278673153137788177e-05 7.366488262050552294e-06 3.828520078741348698e-08
1.007000000000000000e+03 8.250961303710937500e+00 3.235794305801391602e+00 -1.871851964097004384e-05 -1.099781820812495425e-05 -8.914901627576909959e-06 -5.733907073590671644e-06
1.008000000000000000e+03 6.048768043518066406e+00 4.056355953216552734e+00 -1.364217314403504133e-05 -1.548990076116751879e-05 -8.739621989661827683e-06 1.942093149409629405e-06
1.009000000000000000e+03 1.574945449829101562e+00 7.673579692840576172e+00 -4.376696233521215618e-05 -6.180386662890668958e-06 -1.498420442658243701e-05 4.847083346248837188e-06
1.010000000000000000e+03 1.874073386192321777e+00 2.638865470886230469e+00 -3.402892980375327170e-05 -7.187562005128711462e-06 -1.236494699696777388e-05 -1.888971200969535857e-05
1.011000000000000000e+03 1.301147103309631348e+00 2.727128267288208008e+00 -1.041062296280870214e-05 9.501205227024911437e-07 -2.838150749084888957e-06 8.595146027801092714e-06
1.012000000000000000e+03 1.129236793518066406e+01 1.673343181610107422e+00 -1.138690640800632536e-05 -2.807215196298784576e-06 -4.258236458554165438e-06 1.527910399090615101e-06
1.013000000000000000e+03 9.002950668334960938e+00 3.226579666137695312e+00 2.097799006151035428e-05 8.834526852297130972e-06 8.943755346990656108e-06 6.141462563391542062e-06
1.014000000000000000e+03 1.391663742065429688e+01 -2.462922811508178711e+00 -3.089164383709430695e-02 -4.529984667897224426e-02 -2.285744808614253998e-02 -3.010520339012145996e-02
1.015000000000000000e+03 1.023070907592773438e+01 -1.962151765823364258e+00 -2.519187517464160919e-02 1.553148124366998672e-02 -2.898117993026971817e-03 1.080547459423542023e-02
1.016000000000000000e+03 1.095732688903808594e+01 -2.832601070404052734e+00 -1.054997835308313370e-02 1.192463003098964691e-02 4.123955150134861469e-04 1.454579643905162811e-02
1.017000000000000000e+03 1.022101116180419922e+01 -3.521983146667480469e+00 -3.663166891783475876e-03 1.421007234603166580e-02 3.164071589708328247e-03 1.949786022305488586e-02
1.018000000000000000e+03 9.471727371215820312e+00 -2.690978288650512695e+00 -1.873664930462837219e-02 1.704951934516429901e-02 -5.061390693299472332e-04 1.135829091072082520e-02
1.019000000000000000e+03 1.443798160552978516e+01 2.015775918960571289e+00 9.211192264046985656e-06 8.384176908293738961e-06 5.278610842651687562e-06 -6.768178081983933225e-06
1.020000000000000000e+03 1.586802387237548828e+01 1.755990386009216309e+00 4.370856004243250936e-06 1.674274608376435935e-05 6.334080353553872555e-06 1.001819100565626286e-06
1.021000000000000000e+03 1.516212177276611328e+01 1.875718832015991211e+00 -5.123361916048452258e-06 -1.293119930778630078e-05 -5.416368367150425911e-06 4.419712240633089095e-06
1.022000000000000000e+03 1.206257438659667969e+01 1.567523241043090820e+00 1.078217883332399651e-05 3.117053665846469812e-06 4.169769908912712708e-06 -2.459303914292831905e-06
1.023000000000000000e+03 3.825476837158203125e+01 -5.319870948791503906e+00 -2.277608871459960938e+00 5.066220164299011230e-01 -5.312960147857666016e-01 -9.742362499237060547e-01
1.024000000000000000e+03 3.732081604003906250e+01 -4.172040462493896484e+00 -2.037987232208251953e+00 1.138788580894470215e+00 -2.697595655918121338e-01 -8.698396086692810059e-01
1.025000000000000000e+03 3.962500762939453125e+01 -4.736387729644775391e+00 -1.602871060371398926e+00 2.279203832149505615e-01 -4.124852120876312256e-01 -1.468822836875915527e+00
1.026000000000000000e+03 3.893805313110351562e+01 -4.706484317779541016e+00 -1.822086095809936523e+00 4.429079890251159668e-01 -4.137534201145172119e-01 -1.408463597297668457e+00
1.027000000000000000e+03 3.821690368652343750e+01 -4.698311805725097656e+00 -2.113383531570434570e+00 7.339950799942016602e-01 -4.138165414333343506e-01 -1.297899007797241211e+00
1.028000000000000000e+03 3.746838760375976562e+01 -4.764985561370849609e+00 -2.379009723663330078e+00 8.220450878143310547e-01 -4.670893847942352295e-01 -8.608628511428833008e-01
1.029000000000000000e+03 3.652819061279296875e+01 -2.876522302627563477e+00 -9.819025993347167969e-01 1.777339577674865723e+00 2.386310994625091553e-01 -2.015869319438934326e-01
1.030000000000000000e+03 3.574677658081054688e+01 -9.004216194152832031e-01 1.772705435752868652e+00 3.170413494110107422e+00 1.482935667037963867e+00 1.536325931549072266e+00
1.031000000000000000e+03 7.280155944824218750e+01 -1.554783821105957031e+01 -4.066283872816711664e-05 -4.589967829815577716e-06 -1.357584278594003990e-05 -2.180806222895625979e-05
1.032000000000000000e+03 7.355500793457031250e+01 -1.708652877807617188e+01 1.564894046168774366e-05 -8.578763663535937667e-05 -2.104160921589937061e-05 6.807318277424201369e-05
1.033000000000000000e+03 7.837478637695312500e+01 -1.816854095458984375e+01 1.762180618243291974e-04 1.143808476626873016e-04 8.717967284610494971e-05 -1.185624023491982371e-05
1.034000000000000000e+03 7.359216308593750000e+01 -1.632277679443359375e+01 8.009013072296511382e-06 -2.292812496307305992e-05 -4.475733476283494383e-06 -4.940958388033322990e-05
1.035000000000000000e+03 7.133325195312500000e+01 -1.575046348571777344e+01 -5.278358366922475398e-05 1.937695924425497651e-05 -1.002198678179411218e-05 5.924776633037254214e-05
1.036000000000000000e+03 7.294567871093750000e+01 -1.705845260620117188e+01 -1.570435997564345598e-04 -1.239433731825556606e-05 -5.083137875772081316e-05 -7.465062662959098816e-05
1.037000000000000000e+03 7.834386444091796875e+01 -2.080264663696289062e+01 2.041439438471570611e-04 -4.004834045190364122e-05 4.922867810819298029e-05 -3.032631866517476737e-05
1.038000000000000000e+03 6.979937744140625000e+01 -1.648377037048339844e+01 -1.419077598256990314e-04 -4.205538425594568253e-05 -5.518894249689765275e-05 5.412869359133765101e-05
1.039000000000000000e+03 7.008438873291015625e+01 -1.991420745849609375e+01 -9.076065180124714971e-05 9.965669960365630686e-06 -2.423849400656763464e-05 -3.760306981348549016e-06
1.040000000000000000e+03 7.329172515869140625e+01 -1.164584159851074219e+01 8.342424407601356506e-03 -2.564596710726618767e-03 1.733348355628550053e-03 1.233743270859122276e-03
1.041000000000000000e+03 7.186740112304687500e+01 -1.015280055999755859e+01 5.640269257128238678e-03 -7.657158654183149338e-03 -6.050668307580053806e-04 -1.284142723307013512e-03
1.042000000000000000e+03 7.097860717773437500e+01 -1.106557178497314453e+01 8.372436277568340302e-03 -5.181815009564161301e-03 9.571864502504467964e-04 -4.515117034316062927e-03
1.043000000000000000e+03 6.822320556640625000e+01 -1.176338958740234375e+01 3.220462007448077202e-03 4.184816498309373856e-03 2.221583388745784760e-03 -4.858696833252906799e-03
1.044000000000000000e+03 7.259211730957031250e+01 -1.090412807464599609e+01 6.585943512618541718e-03 -4.406301304697990417e-03 6.538927555084228516e-04 -8.239308954216539860e-05
1.045000000000000000e+03 6.870114898681640625e+01 -9.973557472229003906e+00 1.294652465730905533e-02 1.509018824435770512e-03 4.336663056164979935e-03 -2.902468666434288025e-03
1.046000000000000000e+03 7.341877746582031250e+01 -1.081748962402343750e+01 5.191703327000141144e-03 -3.391700098291039467e-03 5.400010268203914165e-04 2.470505656674504280e-03
1.047000000000000000e+03 7.589230346679687500e+01 -1.109527873992919922e+01 3.136138198897242546e-03 -1.857285504229366779e-03 3.836558025795966387e-04 5.105590913444757462e-03
1.048000000000000000e+03 3.465524291992187500e+01 -9.104931831359863281e+00 5.118238925933837891e-01 2.845328450202941895e-01 2.389070391654968262e-01 -5.558968782424926758e-01
1.049000000000000000e+03 3.691969299316406250e+01 -9.616306304931640625e+00 2.482785284519195557e-01 2.309625595808029175e-01 1.437723338603973389e-01 -3.845261037349700928e-01
1.050000000000000000e+03 3.625934600830078125e+01 -8.723611831665039062e+00 3.790368139743804932e-01 1.731799840927124023e-01 1.656650304794311523e-01 -3.639544844627380371e-01
1.051000000000000000e+03 3.392535781860351562e+01 -8.913030624389648438e+00 6.149871349334716797e-01 3.247691094875335693e-01 2.819268703460693359e-01 -6.161402463912963867e-01
1.052000000000000000e+03 3.540378189086914062e+01 -9.288720130920410156e+00 4.088989496231079102e-01 2.705927193164825439e-01 2.038474977016448975e-01 -5.073763132095336914e-01
1.053000000000000000e+03 3.777950668334960938e+01 -8.974680900573730469e+00 2.159799635410308838e-01 1.362603455781936646e-01 1.056720912456512451e-01 -2.522186040878295898e-01
1.054000000000000000e+03 3.843125534057617188e+01 -9.859491348266601562e+00 1.373053491115570068e-01 1.897966861724853516e-01 9.813060611486434937e-02 -2.554159462451934814e-01
1.055000000000000000e+03 3.603742980957031250e+01 -1.022953224182128906e+01 2.472234219312667847e-01 3.362583816051483154e-01 1.750445365905761719e-01 -5.181597471237182617e-01
1.056000000000000000e+03 3.767738723754882812e+01 -9.750303268432617188e+00 1.842366904020309448e-01 2.107313126325607300e-01 1.184904053807258606e-01 -3.139905631542205811e-01
1.057000000000000000e+03 3.616050338745117188e+01 -9.461273193359375000e+00 3.228967487812042236e-01 2.447746694087982178e-01 1.703014224767684937e-01 -4.394495487213134766e-01
1.058000000000000000e+03 1.472533702850341797e+01 -3.259866714477539062e+00 -3.244960680603981018e-03 -7.429135590791702271e-02 -2.326089516282081604e-02 -6.714132428169250488e-02
1.059000000000000000e+03 1.318261718750000000e+01 -3.098109006881713867e+00 -3.669142723083496094e-03 -4.370148107409477234e-02 -1.421118713915348053e-02 -2.044991962611675262e-02
1.060000000000000000e+03 1.630389404296875000e+01 -3.379673480987548828e+00 -1.142140850424766541e-02 -1.199580878019332886e-01 -3.941385075449943542e-02 -1.520303785800933838e-01
1.061000000000000000e+03 9.018372535705566406e+00 2.530173778533935547e+00 -1.721244007057975978e-05 -7.478916813852265477e-06 -7.407406883430667222e-06 -3.726098611878114752e-06
1.062000000000000000e+03 1.133079910278320312e+01 2.395081043243408203e+00 1.653732033446431160e-05 3.165645239278092049e-06 5.910889285587472841e-06 -1.016966507449978963e-06
1.063000000000000000e+03 1.368306446075439453e+01 2.137265443801879883e+00 -1.349264039163244888e-05 -4.814891781279584393e-06 -5.492259788297815248e-06 6.024435151630314067e-06
1.064000000000000000e+03 1.290351390838623047e+01 2.234682083129882812e+00 1.502952090959297493e-05 3.091438884439412504e-06 5.436287665361305699e-06 -4.286420789867406711e-06
1.065000000000000000e+03 1.783305549621582031e+01 -2.756458044052124023e+00 -1.435141861438751221e-01 -6.523258984088897705e-02 -6.262402981519699097e-02 -2.171248644590377808e-01
1.066000000000000000e+03 1.550694179534912109e+01 -3.329093933105468750e+00 2.886159578338265419e-03 -4.967962577939033508e-02 -1.403803937137126923e-02 -7.826504856348037720e-02
1.067000000000000000e+03 1.791317176818847656e+01 -3.418950080871582031e+00 -1.837188936769962311e-02 -1.918992549180984497e-01 -6.308134645223617554e-02 -2.768765091896057129e-01
1.068000000000000000e+03 1.710931015014648438e+01 -3.409295320510864258e+00 -2.126259496435523033e-03 -1.087999567389488220e-01 -3.327786549925804138e-02 -1.778759509325027466e-01
1.069000000000000000e+03 2.034788322448730469e+01 -3.271478891372680664e+00 -4.494426026940345764e-02 -2.950408756732940674e-01 -1.019955426454544067e-01 -4.735587537288665771e-01
1.070000000000000000e+03 2.201641464233398438e+01 -3.656182765960693359e+00 2.145105153322219849e-01 -2.424338608980178833e-01 -8.377003483474254608e-03 -6.676710247993469238e-01
1.071000000000000000e+03 1.871865844726562500e+01 -3.402960062026977539e+00 -1.092701032757759094e-02 -1.999847739934921265e-01 -6.327353417873382568e-02 -3.083895146846771240e-01
1.072000000000000000e+03 8.695956230163574219e+00 -2.648884773254394531e+00 -2.353124693036079407e-02 2.316907375643495470e-05 -7.052423432469367981e-03 1.092219725251197815e-03
1.073000000000000000e+03 6.340181350708007812e+00 -2.597975254058837891e+00 -2.363806404173374176e-02 1.438153069466352463e-02 -2.776960143819451332e-03 -8.849875070154666901e-03
1.074000000000000000e+03 7.042377471923828125e+00 -1.866122603416442871e+00 -2.912433259189128876e-02 1.303145755082368851e-02 -4.827862605452537537e-03 -4.094039089977741241e-03
1.075000000000000000e+03 7.910957813262939453e+00 -2.621827840805053711e+00 -2.362033538520336151e-02 1.759413257241249084e-02 -1.807860797271132469e-03 2.146176528185606003e-03
1.076000000000000000e+03 7.124672412872314453e+00 -2.605161666870117188e+00 -2.533220872282981873e-02 2.656237222254276276e-03 -6.802791729569435120e-03 -6.882566493004560471e-03
1.077000000000000000e+03 5.419866085052490234e+00 -1.869681715965270996e+00 -2.463952451944351196e-02 9.256121702492237091e-03 -4.615020938217639923e-03 -1.172904297709465027e-02
1.078000000000000000e+03 4.781497955322265625e+00 -2.644304513931274414e+00 -1.954185590147972107e-02 8.904380723834037781e-03 -3.191242692992091179e-03 -1.674220524728298187e-02
1.079000000000000000e+03 1.679159164428710938e+00 -9.507175445556640625e+00 -7.185221649706363678e-03 -8.877788484096527100e-02 -2.878893166780471802e-02 -5.044394358992576599e-02
1.080000000000000000e+03 5.635949373245239258e-01 -6.573452472686767578e+00 -5.065125296823680401e-04 -6.432916224002838135e-02 -1.945070177316665649e-02 -1.210107002407312393e-02
1.081000000000000000e+03 2.962268829345703125e+00 -4.080650806427001953e+00 -9.356144815683364868e-03 -3.886878024786710739e-03 -3.972906619310379028e-03 -2.540942467749118805e-02
1.082000000000000000e+03 5.859454870223999023e-01 -3.675331115722656250e+00 -9.537641308270394802e-04 -2.109336107969284058e-02 -6.614137440919876099e-03 -7.296470925211906433e-03
1.083000000000000000e+03 2.655118179321289062e+01 -3.567905187606811523e+00 2.266728401184082031e+00 4.361657500267028809e-01 8.108682036399841309e-01 -2.167791128158569336e+00
1.084000000000000000e+03 2.677326393127441406e+01 -3.789968967437744141e+00 3.885067939758300781e+00 1.001140594482421875e+00 1.465862512588500977e+00 -1.577450752258300781e+00
1.085000000000000000e+03 4.146077728271484375e+01 -5.457648277282714844e+00 -5.709462165832519531e-01 -6.148017048835754395e-01 -3.557243943214416504e-01 -9.075359702110290527e-01
1.086000000000000000e+03 4.221967697143554688e+01 -3.666394710540771484e+00 -4.712088108062744141e-01 -2.553760290145874023e+00 -9.074907898902893066e-01 -1.380327343940734863e+00
1.087000000000000000e+03 4.172319030761718750e+01 -4.597059249877929688e+00 -7.020008563995361328e-01 -1.202143549919128418e+00 -5.712432861328125000e-01 -1.100880146026611328e+00
1.088000000000000000e+03 2.023295879364013672e+00 -3.176103782653808594e+01 -3.185586631298065186e-02 6.023060083389282227e-01 1.711350381374359131e-01 3.175104781985282898e-02
1.089000000000000000e+03 3.813201904296875000e+01 -2.065900039672851562e+01 3.234126865863800049e-01 1.058934211730957031e+00 4.147040843963623047e-01 -1.501019597053527832e-01
1.090000000000000000e+03 3.499381637573242188e+01 -1.796359825134277344e+01 -2.722316384315490723e-01 1.445915341377258301e+00 3.521051406860351562e-01 -3.769892156124114990e-01
1.091000000000000000e+03 7.771658420562744141e+00 -1.529391956329345703e+01 1.577823758125305176e-01 5.255779027938842773e-01 2.050080895423889160e-01 1.783116459846496582e-01
1.092000000000000000e+03 6.233142375946044922e+00 -2.776723670959472656e+01 -2.365434467792510986e-01 1.202066093683242798e-01 -3.490105271339416504e-02 1.724802106618881226e-01
1.093000000000000000e+03 5.948284149169921875e+00 -2.515060424804687500e+01 -6.261159200221300125e-03 6.712024211883544922e-01 1.994823813438415527e-01 8.664274215698242188e-02
1.094000000000000000e+03 3.319533920288085938e+01 -1.706028556823730469e+01 -6.372655630111694336e-01 7.265862226486206055e-01 2.679620683193206787e-02 -7.026620507240295410e-01
1.095000000000000000e+03 3.815581893920898438e+01 -2.350230598449707031e+01 3.028896152973175049e-01 1.013846993446350098e+00 3.950209915637969971e-01 -1.469393968582153320e-01
1.096000000000000000e+03 9.873210906982421875e+00 -3.442964935302734375e+01 -1.073314324021339417e-01 -5.472720041871070862e-02 -4.861759021878242493e-02 5.867237225174903870e-02
1.097000000000000000e+03 3.084591388702392578e+00 -1.499481582641601562e+01 1.606338284909725189e-02 1.115220785140991211e-02 8.164676837623119354e-03 -9.421657770872116089e-02
1.098000000000000000e+03 6.708691716194152832e-01 -1.921728324890136719e+01 2.946585230529308319e-02 -5.298817753791809082e-01 -1.501247733831405640e-01 1.191310770809650421e-02
1.099000000000000000e+03 1.271648883819580078e+01 -1.495005035400390625e+01 1.025242507457733154e-01 -1.920776814222335815e-02 2.499494515359401703e-02 3.114451169967651367e-01
1.100000000000000000e+03 1.283766078948974609e+01 -1.606324005126953125e+01 2.958915010094642639e-02 -5.265521630644798279e-02 -6.919820327311754227e-03 1.520175933837890625e-01
1.101000000000000000e+03 2.842956542968750000e+01 -3.148567771911621094e+01 -1.748791188001632690e-01 1.575368642807006836e-02 -4.773762822151184082e-02 1.448791101574897766e-02
1.102000000000000000e+03 3.049833488464355469e+01 -3.284387207031250000e+01 -1.008724719285964966e-01 1.973414123058319092e-01 2.894068323075771332e-02 1.217568814754486084e-01
1.103000000000000000e+03 1.318859767913818359e+01 -3.140704917907714844e+01 -4.100520610809326172e-01 -3.996709734201431274e-02 -1.350057572126388550e-01 1.043260917067527771e-01
1.104000000000000000e+03 1.032894802093505859e+01 -3.094998168945312500e+01 -5.306828022003173828e-01 -1.626835465431213379e-01 -2.080099135637283325e-01 2.059886455535888672e-01
1.105000000000000000e+03 5.321210384368896484e+00 -1.972019958496093750e+01 2.243552058935165405e-01 7.405945658683776855e-01 2.894849181175231934e-01 2.658922970294952393e-01
1.106000000000000000e+03 3.565924072265625000e+01 -3.063048934936523438e+01 -1.075660735368728638e-01 6.784765124320983887e-01 1.712731271982192993e-01 -3.331224434077739716e-04
1.107000000000000000e+03 1.134539222717285156e+01 -1.515374565124511719e+01 2.337449193000793457e-01 1.051835268735885620e-01 1.016785353422164917e-01 3.005991876125335693e-01
1.108000000000000000e+03 1.727190208435058594e+01 -1.645517730712890625e+01 -3.749484419822692871e-01 -1.056222841143608093e-01 -1.441712230443954468e-01 2.744928896427154541e-01
1.109000000000000000e+03 1.610450553894042969e+01 -1.590665435791015625e+01 -2.335984408855438232e-01 -1.444107443094253540e-01 -1.134027540683746338e-01 2.702551484107971191e-01
1.110000000000000000e+03 3.331492233276367188e+01 -2.899538230895996094e+01 1.556457728147506714e-01 5.911492109298706055e-01 2.240384966135025024e-01 2.663355469703674316e-01
1.111000000000000000e+03 6.345629096031188965e-01 -2.762841987609863281e+01 -1.444119866937398911e-02 5.017183423042297363e-01 1.461831331253051758e-01 8.145506680011749268e-02
1.112000000000000000e+03 8.882022857666015625e+00 -1.534738063812255859e+01 1.684129238128662109e-01 5.270804166793823242e-01 2.086480110883712769e-01 3.080669939517974854e-01
1.113000000000000000e+03 2.000691413879394531e+00 -1.928212165832519531e+01 6.267225742340087891e-02 -1.251433789730072021e-01 -1.874133758246898651e-02 5.583659932017326355e-02
1.114000000000000000e+03 1.803359222412109375e+01 -1.798665237426757812e+01 -5.839458107948303223e-01 -7.544044405221939087e-02 -1.978158652782440186e-01 2.421060055494308472e-01
1.115000000000000000e+03 3.432070159912109375e+01 -3.104813003540039062e+01 -1.362064182758331299e-01 6.400458812713623047e-01 1.511518359184265137e-01 8.245836198329925537e-02
1.116000000000000000e+03 3.307358551025390625e+01 -3.161100959777832031e+01 -9.148314595222473145e-02 4.913111627101898193e-01 1.199484020471572876e-01 1.681870371103286743e-01
1.117000000000000000e+03 3.755419921875000000e+01 -2.171713447570800781e+01 3.079930245876312256e-01 1.145618796348571777e+00 4.360835552215576172e-01 -1.607440412044525146e-01
1.118000000000000000e+03 1.842405128479003906e+01 -1.690879631042480469e+01 -4.738078117370605469e-01 -4.801800847053527832e-02 -1.565477401018142700e-01 2.846193313598632812e-01
1.119000000000000000e+03 2.055827713012695312e+01 -1.864406967163085938e+01 -7.576505541801452637e-01 6.865029688924551010e-03 -2.252356559038162231e-01 1.480263918638229370e-01
1.120000000000000000e+03 1.997913169860839844e+01 -3.226524353027343750e+01 -2.429994940757751465e-01 -6.875518709421157837e-03 -7.496250420808792114e-02 3.274508053436875343e-03
1.121000000000000000e+03 2.073960494995117188e+01 -1.752482223510742188e+01 -6.977307796478271484e-01 5.432203039526939392e-02 -1.930226236581802368e-01 2.351182103157043457e-01
1.122000000000000000e+03 2.572547912597656250e+01 -1.842068862915039062e+01 -1.470670938491821289e+00 4.857879597693681717e-03 -4.397439360618591309e-01 -1.771546006202697754e-01
1.123000000000000000e+03 2.392111587524414062e+01 -1.658365821838378906e+01 -8.497229218482971191e-01 1.670549064874649048e-01 -2.048003971576690674e-01 2.329076677560806274e-01
1.124000000000000000e+03 2.872959899902343750e+01 -1.643754959106445312e+01 -1.037273168563842773e+00 7.826892286539077759e-02 -2.877012789249420166e-01 -1.710288524627685547e-01
1.125000000000000000e+03 2.894434165954589844e+01 -3.344761657714843750e+01 -1.085739135742187500e-01 1.002459079027175903e-01 -2.498402493074536324e-03 8.569675683975219727e-02
1.126000000000000000e+03 2.723465919494628906e+01 -3.336102294921875000e+01 -1.427962929010391235e-01 4.630153998732566833e-02 -2.894842438399791718e-02 2.183475904166698456e-02
1.127000000000000000e+03 2.552877235412597656e+01 -3.173805618286132812e+01 -2.076186537742614746e-01 3.216119948774576187e-03 -6.132075935602188110e-02 -1.195859909057617188e-02
1.128000000000000000e+03 1.489483547210693359e+01 -1.525437927246093750e+01 -6.722199916839599609e-02 -1.661249399185180664e-01 -7.000408321619033813e-02 2.783190906047821045e-01
1.129000000000000000e+03 3.206872558593750000e+01 -1.667097282409667969e+01 -6.695737838745117188e-01 2.961904108524322510e-01 -1.120150014758110046e-01 -7.065568566322326660e-01
1.130000000000000000e+03 2.536567878723144531e+01 -1.737012481689453125e+01 -1.200028538703918457e+00 9.786628931760787964e-02 -3.306486606597900391e-01 5.669698864221572876e-02
1.131000000000000000e+03 2.701402091979980469e+01 -1.816790008544921875e+01 -1.719908118247985840e+00 -3.688460588455200195e-02 -5.270377993583679199e-01 -2.149025201797485352e-01
1.132000000000000000e+03 3.329726028442382812e+01 -1.615723419189453125e+01 -5.253121852874755859e-01 7.457329630851745605e-01 6.612624973058700562e-02 -7.713766694068908691e-01
1.133000000000000000e+03 2.314517402648925781e+01 -1.875308418273925781e+01 -1.070638060569763184e+00 3.097290545701980591e-02 -3.118995428085327148e-01 1.749832415953278542e-03
1.134000000000000000e+03 3.279815673828125000e+00 -1.789326858520507812e+01 9.780251234769821167e-02 1.322561353445053101e-01 6.901759654283523560e-02 2.142417244613170624e-02
1.135000000000000000e+03 1.452820682525634766e+01 -3.163020706176757812e+01 -3.768648803234100342e-01 -2.236115373671054840e-02 -1.197678074240684509e-01 7.976816594600677490e-02
1.136000000000000000e+03 1.563103771209716797e+01 -3.333713912963867188e+01 -2.489271759986877441e-01 -4.658494517207145691e-02 -8.865363895893096924e-02 7.601883262395858765e-02
1.137000000000000000e+03 1.435454273223876953e+01 -3.315860748291015625e+01 -2.664774656295776367e-01 -5.816832929849624634e-02 -9.739373624324798584e-02 9.994122385978698730e-02
1.138000000000000000e+03 1.168098735809326172e+01 -3.287490844726562500e+01 -2.991973161697387695e-01 -1.058925017714500427e-01 -1.215269491076469421e-01 1.596951782703399658e-01
1.139000000000000000e+03 1.308851337432861328e+01 -3.288323593139648438e+01 -2.973153889179229736e-01 -5.739495158195495605e-02 -1.064131036400794983e-01 1.201223209500312805e-01
1.140000000000000000e+03 3.696298599243164062e+01 -2.271139907836914062e+01 2.742978930473327637e-01 1.371733188629150391e+00 4.938093125820159912e-01 -2.265617549419403076e-01
1.141000000000000000e+03 3.653580856323242188e+01 -2.373148345947265625e+01 2.370209097862243652e-01 1.590517878532409668e+00 5.482616424560546875e-01 -6.334770470857620239e-02
1.142000000000000000e+03 2.213129043579101562e+01 -3.403568649291992188e+01 -1.745092570781707764e-01 -1.136022340506315231e-02 -5.576084554195404053e-02 7.014216389507055283e-03
1.143000000000000000e+03 2.516187477111816406e+01 -3.584748077392578125e+01 -1.218501627445220947e-01 2.431653067469596863e-02 -2.926008962094783783e-02 2.881575562059879303e-02
1.144000000000000000e+03 2.700309371948242188e+01 -3.425618171691894531e+00 1.865766048431396484e+00 1.406681299209594727e+00 9.817342162132263184e-01 -1.912834882736206055e+00
1.145000000000000000e+03 6.221483612060546875e+01 -1.726901531219482422e+00 -3.987354040145874023e-01 2.955340035259723663e-02 -1.107546016573905945e-01 2.439692057669162750e-02
1.146000000000000000e+03 6.802113342285156250e+01 -6.925767898559570312e+00 -7.358357775956392288e-03 -3.995532169938087463e-03 -3.406167030334472656e-03 -5.623329780064523220e-04
1.147000000000000000e+03 5.957069396972656250e+01 -6.683227419853210449e-01 -6.801190972328186035e-01 1.276419311761856079e-02 -2.002064585685729980e-01 6.969046778976917267e-03
1.148000000000000000e+03 1.298277473449707031e+01 2.264641571044921875e+01 -1.188614041893742979e-04 1.629007056180853397e-05 -3.077139990637078881e-05 -3.394213990759453736e-06
1.149000000000000000e+03 5.057507705688476562e+01 3.031901836395263672e+00 -2.003841161727905273e+00 -6.055724807083606720e-03 -6.029691100120544434e-01 -7.032959461212158203e-01
1.150000000000000000e+03 1.540336227416992188e+01 1.833575630187988281e+01 5.600567965302616358e-05 -5.918430360907223076e-06 1.502617487858515233e-05 2.366250328122987412e-06
1.151000000000000000e+03 1.431093883514404297e+01 1.827706336975097656e+01 -7.454882870661094785e-05 2.687343680918274913e-07 -2.228402809123508632e-05 -5.188242539588827640e-06
1.152000000000000000e+03 6.478592681884765625e+01 -3.008358716964721680e+00 -1.870984882116317749e-01 4.354394972324371338e-02 -4.306636005640029907e-02 1.914976537227630615e-02
1.153000000000000000e+03 2.833868789672851562e+01 3.909172821044921875e+01 1.115492777898907661e-03 -6.499830167740583420e-03 -1.615301240235567093e-03 2.741094678640365601e-02
1.154000000000000000e+03 5.414282989501953125e+01 7.114835381507873535e-01 -1.232049107551574707e+00 8.752001076936721802e-02 -3.433587253093719482e-01 3.631336987018585205e-02
1.155000000000000000e+03 5.323474121093750000e+01 2.279153823852539062e+00 -1.390592455863952637e+00 1.423148959875106812e-01 -3.744832575321197510e-01 -2.482289373874664307e-01
1.156000000000000000e+03 6.350448608398437500e+01 -2.358369588851928711e+00 -2.802190482616424561e-01 1.760561391711235046e-02 -7.878402620553970337e-02 7.356164511293172836e-03
1.157000000000000000e+03 6.090420150756835938e+01 -1.158851623535156250e+00 -5.476035475730895996e-01 -6.170735694468021393e-03 -1.661322861909866333e-01 -1.056886976584792137e-03
1.158000000000000000e+03 5.821253967285156250e+01 -2.535637915134429932e-01 -8.379197716712951660e-01 -2.639373391866683960e-02 -2.592940330505371094e-01 -2.570222131907939911e-02
1.159000000000000000e+03 6.765394592285156250e+01 -1.178813362121582031e+01 -3.228965681046247482e-03 2.693101530894637108e-03 -1.607592421351000667e-04 -8.264535106718540192e-03
1.160000000000000000e+03 6.816345214843750000e+01 -1.242463111877441406e+01 3.163070417940616608e-03 2.934267511591315269e-03 1.829201471991837025e-03 -4.209892824292182922e-03
1.161000000000000000e+03 6.665267944335937500e+01 -9.315989494323730469e+00 -1.081647584214806557e-03 1.345777884125709534e-02 3.712839446961879730e-03 -1.559622120112180710e-02
1.162000000000000000e+03 2.796419143676757812e+01 4.124223327636718750e+01 2.244072221219539642e-02 -1.887061633169651031e-02 1.071031438186764717e-03 1.212005782872438431e-02
1.163000000000000000e+03 6.880403137207031250e+01 -8.638282775878906250e+00 7.738891988992691040e-03 -9.773581987246870995e-04 2.028460148721933365e-03 -4.137586802244186401e-03
1.164000000000000000e+03 6.753307342529296875e+01 -8.539534568786621094e+00 1.023205276578664780e-02 6.782404147088527679e-03 5.104336887598037720e-03 -5.882571451365947723e-03
1.165000000000000000e+03 1.861588668823242188e+01 3.186903953552246094e+01 -2.349231508560478687e-04 3.111896803602576256e-04 2.287995994265656918e-05 3.314629138913005590e-04
1.166000000000000000e+03 1.565177726745605469e+01 3.012091064453125000e+01 7.083441596478223801e-05 4.897969483863562346e-05 3.594423105823807418e-05 1.625339064048603177e-04
1.167000000000000000e+03 1.611383628845214844e+01 1.151078033447265625e+01 6.016580664436332881e-05 -1.570224981151113752e-06 1.757867539708968252e-05 2.666639147719251923e-06
1.168000000000000000e+03 1.565221405029296875e+01 1.280476951599121094e+01 -6.258623761823400855e-05 2.977278654725523666e-07 -1.868655272119212896e-05 -2.457057235005777329e-06
1.169000000000000000e+03 1.731956672668457031e+01 3.436801528930664062e+01 7.393932319246232510e-04 -1.869668776635080576e-04 1.657279062783345580e-04 -2.650852547958493233e-04
1.170000000000000000e+03 1.841597938537597656e+01 3.292810058593750000e+01 5.841053789481520653e-04 8.279593021143227816e-05 2.000703971134498715e-04 -1.944010909937787801e-05
1.171000000000000000e+03 1.417338657379150391e+01 1.971435165405273438e+01 8.161488949554041028e-05 -6.570597633981378749e-06 2.251328623970039189e-05 3.299251147836912423e-06
1.172000000000000000e+03 1.522671508789062500e+01 1.412344741821289062e+01 6.499398296000435948e-05 -1.589510134181182366e-06 1.902134135889355093e-05 1.716028350529086310e-06
1.173000000000000000e+03 1.881943321228027344e+01 1.196823716163635254e+00 2.260878773086005822e-06 -1.276292277907487005e-05 -3.150613338220864534e-06 -9.807378773984964937e-06
1.174000000000000000e+03 1.472196388244628906e+01 2.700478935241699219e+01 -7.540654769400134683e-05 3.557765012374147773e-05 -1.194867036247160286e-05 6.276568456087261438e-05
1.175000000000000000e+03 2.001142120361328125e+01 1.719970822334289551e+00 -2.230590871477033943e-05 3.788755975620006211e-06 -5.555145889957202598e-06 -6.499805294879479334e-06
1.176000000000000000e+03 2.055329132080078125e+01 3.173971652984619141e+00 3.471076706773601472e-05 -2.840530214598402381e-06 9.561070328345522285e-06 -8.440766578132752329e-06
1.177000000000000000e+03 1.411362743377685547e+01 2.115140342712402344e+01 -8.909921598387882113e-05 4.986495241610100493e-06 -2.523381590435747057e-05 -1.081790514945168979e-06
1.178000000000000000e+03 1.817536163330078125e+01 9.053024291992187500e+00 -5.706953379558399320e-05 -5.824447271152166650e-07 -1.729559335217345506e-05 -3.900393949152203277e-06
1.179000000000000000e+03 1.696024131774902344e+01 5.485869884490966797e+00 4.370204987935721874e-05 -2.469857690812204964e-06 1.236965817952295765e-05 -2.981412762892432511e-06
1.180000000000000000e+03 7.939614868164062500e+01 -2.779013442993164062e+01 6.603598012588918209e-05 1.131268218159675598e-04 5.374884131015278399e-05 3.604092489695176482e-05
1.181000000000000000e+03 7.944015502929687500e+01 -2.095476531982421875e+01 -1.596125948708504438e-04 8.826307021081447601e-05 -2.140485412382986397e-05 -1.906572470034006983e-05
1.182000000000000000e+03 7.905157470703125000e+01 -3.876951599121093750e+01 1.998143306991551071e-05 -2.849695738404989243e-03 -8.489142637699842453e-04 1.932400773512199521e-04
1.183000000000000000e+03 7.926641082763671875e+01 -3.470201873779296875e+01 4.552911195787601173e-05 -1.652108505368232727e-03 -4.819738096557557583e-04 2.641692408360540867e-04
1.184000000000000000e+03 7.928239440917968750e+01 -3.330457305908203125e+01 -6.704370753141120076e-05 -1.115439808927476406e-03 -3.547450469341129065e-04 2.868316369131207466e-04
1.185000000000000000e+03 7.943146514892578125e+01 -2.372088050842285156e+01 -1.222247228724882007e-04 1.105837582144886255e-04 -3.492287078188383020e-06 -1.729778318804164883e-06
1.186000000000000000e+03 7.815826416015625000e+01 -2.743873596191406250e+01 -1.089598008547909558e-04 -7.740918226772919297e-05 -5.591069566435180604e-05 5.473191049532033503e-05
1.187000000000000000e+03 7.826282501220703125e+01 -2.610353660583496094e+01 5.299888289300724864e-05 3.711144745466299355e-05 2.703310019569471478e-05 9.080560266738757491e-05
1.188000000000000000e+03 7.934419250488281250e+01 -3.052873229980468750e+01 -7.979798283486161381e-06 -2.881526306737214327e-04 -8.883972623152658343e-05 1.586370635777711868e-04
1.189000000000000000e+03 7.784748077392578125e+01 -3.292720031738281250e+01 -1.939103240147233009e-04 -9.535438148304820061e-04 -3.442362358327955008e-04 6.562996422871947289e-04
1.190000000000000000e+03 7.863996124267578125e+01 -1.635846519470214844e+01 3.070761522394604981e-05 9.613434667699038982e-05 3.805258893407881260e-05 -4.244799492880702019e-05
1.191000000000000000e+03 1.442008399963378906e+01 2.551837348937988281e+01 1.346378558082506061e-04 -6.398928690032334998e-06 3.847167681669816375e-05 5.076578872831305489e-06
1.192000000000000000e+03 1.659321403503417969e+01 1.023881244659423828e+01 -5.642782343784347177e-05 -3.498914225019689184e-07 -1.703331508906558156e-05 -2.829492359524010681e-06
1.193000000000000000e+03 1.512329769134521484e+01 2.852019691467285156e+01 1.870208652690052986e-04 6.311805009318049997e-06 5.799980135634541512e-05 2.145338476111646742e-05
1.194000000000000000e+03 1.484725284576416016e+01 1.546958541870117188e+01 -6.735519127687439322e-05 -1.426597236786619760e-06 -2.063453575829043984e-05 -3.207162080798298120e-06
1.195000000000000000e+03 7.806488800048828125e+01 3.527511596679687500e+01 4.065084736794233322e-03 -8.105703592300415039e-01 -2.419515699148178101e-01 6.890131044201552868e-04
1.196000000000000000e+03 7.830581665039062500e+01 -2.806193113327026367e+00 -2.646239008754491806e-03 4.525774158537387848e-03 5.638606380671262741e-04 -5.329707171767950058e-03
1.197000000000000000e+03 7.810556793212890625e+01 2.746002435684204102e+00 -5.728362593799829483e-03 -6.320831924676895142e-02 -2.068100497126579285e-02 -3.978810831904411316e-02
1.198000000000000000e+03 7.801892852783203125e+01 9.733493804931640625e+00 -3.641386283561587334e-03 -2.617320716381072998e-01 -7.961203902959823608e-02 -7.637850195169448853e-02
1.199000000000000000e+03 7.805067443847656250e+01 1.666373443603515625e+01 3.452301723882555962e-03 -5.091050863265991211e-01 -1.516958326101303101e-01 -7.135833054780960083e-02
1.200000000000000000e+03 7.909749603271484375e+01 3.857632064819335938e+01 -9.421950089745223522e-04 -8.520545363426208496e-01 -2.558990120887756348e-01 1.127875782549381256e-02
1.201000000000000000e+03 7.922221374511718750e+01 3.213464736938476562e+01 -1.008662744425237179e-03 -8.825846314430236816e-01 -2.650779783725738525e-01 -3.113942686468362808e-03
1.202000000000000000e+03 7.768680572509765625e+01 2.931715774536132812e+01 6.528838071972131729e-03 -7.555734515190124512e-01 -2.247133851051330566e-01 -2.348598651587963104e-02
1.203000000000000000e+03 7.767308044433593750e+01 3.230358123779296875e+01 7.520584855228662491e-03 -7.797011733055114746e-01 -2.316541820764541626e-01 -1.318150013685226440e-02
1.204000000000000000e+03 7.928556823730468750e+01 2.507345008850097656e+01 2.488716039806604385e-03 -7.994205355644226074e-01 -2.390795350074768066e-01 -1.294757518917322159e-02
1.205000000000000000e+03 7.795772552490234375e+01 2.220134162902832031e+01 4.237925168126821518e-03 -6.597556471824645996e-01 -1.966553181409835815e-01 -5.103668570518493652e-02
1.206000000000000000e+03 7.785839080810546875e+01 2.500368309020996094e+01 4.154219757765531540e-03 -7.097187042236328125e-01 -2.116693407297134399e-01 -4.057605192065238953e-02
1.207000000000000000e+03 7.801765441894531250e+01 1.942953300476074219e+01 4.033015575259923935e-03 -5.924559831619262695e-01 -1.765268892049789429e-01 -6.142792478203773499e-02
1.208000000000000000e+03 7.934084320068359375e+01 1.950134468078613281e+01 1.558156916871666908e-03 -6.582098007202148438e-01 -1.969954967498779297e-01 -2.052755653858184814e-02
1.209000000000000000e+03 7.805653381347656250e+01 1.527969264984130859e+01 3.018642775714397430e-03 -4.618940651416778564e-01 -1.376626342535018921e-01 -7.390511780977249146e-02
1.210000000000000000e+03 7.675898742675781250e+01 1.384389114379882812e+01 4.337843041867017746e-03 -3.791282176971435547e-01 -1.124371141195297241e-01 -1.199036836624145508e-01
1.211000000000000000e+03 7.935062408447265625e+01 1.255342769622802734e+01 8.071570773608982563e-04 -3.904691338539123535e-01 -1.168985888361930847e-01 -2.778615429997444153e-02
1.212000000000000000e+03 7.805091857910156250e+01 1.251189327239990234e+01 1.981690584216266870e-04 -3.626320660114288330e-01 -1.087301746010780334e-01 -7.813207060098648071e-02
1.213000000000000000e+03 7.799633026123046875e+01 8.335351943969726562e+00 -3.131654812023043633e-03 -2.146696746349334717e-01 -6.534039974212646484e-02 -7.401335984468460083e-02
1.214000000000000000e+03 7.800397491455078125e+01 5.547239780426025391e+00 -5.147527903318405151e-03 -1.305431276559829712e-01 -4.070719704031944275e-02 -6.003523617982864380e-02
1.215000000000000000e+03 7.933927917480468750e+01 5.595354080200195312e+00 -3.518169512972235680e-03 -1.199233233928680420e-01 -3.703244775533676147e-02 -2.061802335083484650e-02
1.216000000000000000e+03 7.662487030029296875e+01 5.469525814056396484e+00 -1.807598024606704712e-02 -1.305752992630004883e-01 -4.459538310766220093e-02 -9.414897114038467407e-02
1.217000000000000000e+03 7.816286468505859375e+01 1.346229195594787598e+00 -8.540648035705089569e-03 -3.686220943927764893e-02 -1.362085714936256409e-02 -2.943786419928073883e-02
1.218000000000000000e+03 7.826341247558593750e+01 -1.427341818809509277e+00 -6.334541365504264832e-03 -3.667883342131972313e-03 -3.000727389007806778e-03 -1.239805296063423157e-02
1.219000000000000000e+03 7.942028808593750000e+01 -1.369326114654541016e+00 6.007486372254788876e-04 1.466241106390953064e-02 4.578948020935058594e-03 -3.897310933098196983e-03
1.220000000000000000e+03 7.711458587646484375e+01 -1.508131027221679688e+00 -1.080121286213397980e-02 -1.643581129610538483e-02 -8.171106688678264618e-03 -2.004564553499221802e-02
1.221000000000000000e+03 7.717280578613281250e+01 -9.603449821472167969e+00 -6.083790212869644165e-04 1.436925842426717281e-03 2.485640288796275854e-04 4.970880690962076187e-03
1.222000000000000000e+03 7.777829742431640625e+01 -1.037551975250244141e+01 3.082490991801023483e-03 3.963141702115535736e-03 2.113689901307225227e-03 6.412478629499673843e-03
1.223000000000000000e+03 7.716464233398437500e+01 -1.069990348815917969e+01 1.825963961891829967e-03 2.855931525118649006e-04 6.334671634249389172e-04 4.728473257273435593e-03
1.224000000000000000e+03 7.836394500732421875e+01 -9.902014732360839844e+00 -7.711936486884951591e-04 4.326715599745512009e-03 1.066656550392508507e-03 3.812096780166029930e-03
1.225000000000000000e+03 3.901939392089843750e+01 5.457946300506591797e+00 2.384853124618530273e+00 8.016459465026855469e+00 3.120393753051757812e+00 4.155697822570800781e+00
1.226000000000000000e+03 4.566143417358398438e+01 1.261572957038879395e+00 -7.713913917541503906e+00 -2.974695920944213867e+00 -3.206583023071289062e+00 -3.075714111328125000e+00
1.227000000000000000e+03 6.431542968750000000e+01 -3.367454147338867188e+01 -8.753516711294651031e-03 1.982620451599359512e-03 -2.031268784776329994e-03 4.058575723320245743e-03
1.228000000000000000e+03 4.170491409301757812e+01 -2.001352071762084961e+00 -2.206869602203369141e+00 -1.814584732055664062e+00 -1.206436276435852051e+00 -2.436501264572143555e+00
1.229000000000000000e+03 4.255740356445312500e+01 2.962464094161987305e-01 -3.184613704681396484e+00 -1.707541346549987793e+00 -1.467646479606628418e+00 -1.448843836784362793e+00
1.230000000000000000e+03 3.677608489990234375e+01 -1.278563141822814941e+00 4.691371321678161621e-01 2.946221828460693359e+00 1.024607658386230469e+00 6.213014125823974609e-01
1.231000000000000000e+03 5.611725616455078125e+01 -3.393570327758789062e+01 -4.641089588403701782e-03 2.831120975315570831e-02 7.101036142557859421e-03 -1.631814427673816681e-02
1.232000000000000000e+03 5.764520645141601562e+01 -3.440575790405273438e+01 -5.975118838250637054e-03 7.228817325085401535e-03 3.761094412766396999e-04 -7.097698282450437546e-03
1.233000000000000000e+03 4.290356063842773438e+01 -1.862259483337402344e+01 -3.681943938136100769e-02 6.567343324422836304e-02 8.656199090182781219e-03 1.620810478925704956e-02
1.234000000000000000e+03 4.080484390258789062e+01 -3.947823047637939453e+00 -1.188683867454528809e+00 -7.869852781295776367e-01 -5.927007198333740234e-01 -1.910675048828125000e+00
1.235000000000000000e+03 6.981937408447265625e+01 -2.398429107666015625e+01 -6.303218833636492491e-05 -2.056942867056932300e-05 -2.508048601157497615e-05 2.398452852503396571e-05
1.236000000000000000e+03 4.080715179443359375e+01 3.295489120483398438e+01 1.331563740968704224e-01 1.160544991493225098e+00 3.881103992462158203e-01 -2.899777293205261230e-01
1.237000000000000000e+03 4.116347503662109375e+01 3.435466766357421875e+01 -1.072699390351772308e-02 1.056075334548950195e+00 3.136045038700103760e-01 -1.941096335649490356e-01
1.238000000000000000e+03 6.918074035644531250e+01 -2.692973327636718750e+01 -7.870699628256261349e-04 3.838997145066969097e-05 -2.246039948659017682e-04 -2.985216269735246897e-04
1.239000000000000000e+03 5.458782958984375000e+01 -3.314841842651367188e+01 -3.885959042236208916e-03 4.869509115815162659e-02 1.344273984432220459e-02 -2.453683875501155853e-02
1.240000000000000000e+03 4.282622528076171875e+01 2.844864654541015625e+01 2.480651736259460449e-01 1.703333616256713867e+00 5.854196548461914062e-01 -1.509366780519485474e-01
1.241000000000000000e+03 3.151983261108398438e+01 -1.335905671119689941e+00 3.733321666717529297e+00 1.030690193176269531e+00 1.429203629493713379e+00 1.814737081527709961e+00
1.242000000000000000e+03 3.030519676208496094e+01 -1.696389198303222656e+00 -1.324400067329406738e+00 1.854131519794464111e-01 -3.416960835456848145e-01 1.560681462287902832e+00
1.243000000000000000e+03 3.676257705688476562e+01 3.509236145019531250e+01 7.971429824829101562e-02 1.499481797218322754e-01 6.889874488115310669e-02 -1.156617701053619385e-01
1.244000000000000000e+03 3.242432022094726562e+01 3.699605941772460938e+01 -6.001223996281623840e-02 -3.074090927839279175e-04 -1.809589564800262451e-02 3.043071599677205086e-03
1.245000000000000000e+03 4.128646850585937500e+01 1.374769783020019531e+01 2.439113408327102661e-01 3.682921648025512695e+00 1.178049921989440918e+00 7.481698989868164062e-01
1.246000000000000000e+03 4.293782424926757812e+01 1.799951934814453125e+01 1.572909355163574219e-01 2.298718690872192383e+00 7.368028759956359863e-01 3.794014155864715576e-01
1.247000000000000000e+03 4.072343444824218750e+01 -1.519987297058105469e+01 -1.957933977246284485e-02 4.172323346138000488e-01 1.192958950996398926e-01 -4.679747670888900757e-02
1.248000000000000000e+03 4.169335556030273438e+01 3.162160301208496094e+01 1.746018081903457642e-01 1.403788089752197266e+00 4.735169708728790283e-01 -2.745395600795745850e-01
1.249000000000000000e+03 6.568939971923828125e+01 -3.024220466613769531e+01 -5.104709882289171219e-03 -9.686330449767410755e-04 -1.822002930566668510e-03 -1.969099044799804688e-03
1.250000000000000000e+03 4.020367813110351562e+01 1.727666258811950684e+00 3.102270960807800293e-01 2.672635793685913086e+00 8.948588371276855469e-01 9.071463942527770996e-01
1.251000000000000000e+03 6.767549133300781250e+01 -3.301000976562500000e+01 -5.518536549061536789e-03 3.119962057098746300e-03 -7.195723010227084160e-04 3.180677536875009537e-03
1.252000000000000000e+03 4.075770950317382812e+01 -1.395604515075683594e+01 -1.918468740768730640e-03 3.838601410388946533e-01 1.145825013518333435e-01 -1.014247462153434753e-01
1.253000000000000000e+03 4.152789688110351562e+01 -1.131879806518554688e+01 1.002172008156776428e-02 1.584812849760055542e-01 5.055090039968490601e-02 -4.230688139796257019e-02
1.254000000000000000e+03 4.045642852783203125e+01 9.544062614440917969e+00 7.038009762763977051e-01 5.730091571807861328e+00 1.930167794227600098e+00 1.805156469345092773e+00
1.255000000000000000e+03 4.356226348876953125e+01 1.207350921630859375e+01 8.968338370323181152e-01 2.293806076049804688e+00 9.571920037269592285e-01 1.218840360641479492e+00
1.256000000000000000e+03 3.222663116455078125e+01 3.896544647216796875e+01 1.114498544484376907e-02 3.272435069084167480e-02 1.316080056130886078e-02 -1.398435235023498535e-02
1.257000000000000000e+03 4.027249908447265625e+01 -1.756117820739746094e+01 -2.939691394567489624e-02 5.844538211822509766e-01 1.665170639753341675e-01 -1.799753680825233459e-02
1.258000000000000000e+03 4.215369415283203125e+01 -1.987617301940917969e+01 6.658766418695449829e-02 2.983354926109313965e-01 1.094769462943077087e-01 -7.105393707752227783e-02
1.259000000000000000e+03 3.834623718261718750e+01 2.321758747100830078e+00 1.922904968261718750e+00 5.256392955780029297e+00 2.153789281845092773e+00 2.774617195129394531e+00
1.260000000000000000e+03 3.467946624755859375e+01 3.834707260131835938e+01 1.675253547728061676e-02 1.136604920029640198e-01 3.912390768527984619e-02 -6.560539454221725464e-02
1.261000000000000000e+03 2.612434387207031250e+01 -2.078114032745361328e+00 -7.480090618133544922e+00 -5.697323083877563477e-01 -2.414946794509887695e+00 -1.134275436401367188e+00
1.262000000000000000e+03 3.804698181152343750e+01 -3.388916492462158203e+00 -1.654465317726135254e+00 1.468317747116088867e+00 -5.584425479173660278e-02 -1.225810408592224121e+00
1.263000000000000000e+03 6.679368591308593750e+01 -3.142035865783691406e+01 -5.390097387135028839e-03 5.961815477348864079e-04 -1.438174745999276638e-03 -5.109988269396126270e-04
1.264000000000000000e+03 3.634469223022460938e+01 1.749576330184936523e-01 2.551960945129394531e+00 3.991121768951416016e+00 1.962924718856811523e+00 2.387456655502319336e+00
1.265000000000000000e+03 3.728111267089843750e+01 1.268534898757934570e+00 2.545031070709228516e+00 4.838953971862792969e+00 2.215195417404174805e+00 2.859312295913696289e+00
1.266000000000000000e+03 4.161571502685546875e+01 9.341423034667968750e+00 1.258221030235290527e+00 3.948874950408935547e+00 1.562128782272338867e+00 1.981767535209655762e+00
1.267000000000000000e+03 4.302306747436523438e+01 1.943045806884765625e+01 1.004938185214996338e-01 2.162061452865600586e+00 6.787666082382202148e-01 2.733477950096130371e-01
1.268000000000000000e+03 3.886373138427734375e+01 3.641308975219726562e+01 -4.432737827301025391e-02 6.474393010139465332e-01 1.809335798025131226e-01 -2.265520840883255005e-01
1.269000000000000000e+03 3.874425125122070312e+01 3.513525772094726562e+01 4.358162358403205872e-02 6.101801395416259766e-01 1.961285322904586792e-01 -2.661450207233428955e-01
1.270000000000000000e+03 4.175758743286132812e+01 2.514900207519531250e+01 2.042380347847938538e-02 1.992401719093322754e+00 6.038476228713989258e-01 -1.956800557672977448e-02
1.271000000000000000e+03 4.104294586181640625e+01 1.233808994293212891e+01 2.597038745880126953e-01 4.030445098876953125e+00 1.287044644355773926e+00 9.672785997390747070e-01
1.272000000000000000e+03 4.251100158691406250e+01 1.365593528747558594e+01 4.618153572082519531e-01 2.936232328414916992e+00 1.019414305686950684e+00 8.951300978660583496e-01
1.273000000000000000e+03 4.150548171997070312e+01 4.955720424652099609e+00 1.787436962127685547e+00 2.332211017608642578e+00 1.235894441604614258e+00 2.031410694122314453e+00
1.274000000000000000e+03 4.199088287353515625e+01 1.075711631774902344e+01 8.647208809852600098e-01 3.572595119476318359e+00 1.331194758415222168e+00 1.592195987701416016e+00
1.275000000000000000e+03 4.326160430908203125e+01 2.530668449401855469e+01 8.320380747318267822e-02 1.820753335952758789e+00 5.711871385574340820e-01 -2.437452971935272217e-02
1.276000000000000000e+03 4.317778015136718750e+01 2.231105232238769531e+01 6.112225353717803955e-02 1.918515443801879883e+00 5.938913226127624512e-01 1.127796098589897156e-01
1.277000000000000000e+03 4.461462783813476562e+01 2.228966522216796875e+01 1.310947090387344360e-01 1.725754022598266602e+00 5.570546388626098633e-01 1.729699075222015381e-01
1.278000000000000000e+03 3.917742919921875000e+01 -9.933542251586914062e+00 9.257398545742034912e-02 1.690186858177185059e-01 7.847779989242553711e-02 -1.918832659721374512e-01
1.279000000000000000e+03 6.117970657348632812e+01 -3.553610992431640625e+01 -2.191175008192658424e-03 1.130765769630670547e-03 -3.181227657478302717e-04 4.559185355901718140e-03
1.280000000000000000e+03 5.914638137817382812e+01 -3.510917282104492188e+01 -4.343616310507059097e-03 1.919082249514758587e-03 -7.273601950146257877e-04 -1.556930947117507458e-03
1.281000000000000000e+03 6.992596435546875000e+01 -2.256678009033203125e+01 -3.995579390903003514e-06 6.194210436660796404e-05 1.738395803840830922e-05 4.243083458277396858e-05
1.282000000000000000e+03 5.348359680175781250e+01 -3.177918052673339844e+01 2.471958752721548080e-03 5.105796456336975098e-02 1.605897769331932068e-02 -3.309813514351844788e-02
1.283000000000000000e+03 4.783959579467773438e+01 -2.545322990417480469e+01 6.229362264275550842e-02 3.437547013163566589e-02 2.900072745978832245e-02 -5.577618256211280823e-02
1.284000000000000000e+03 5.073487091064453125e+01 -3.034866905212402344e+01 3.025685250759124756e-02 8.104869723320007324e-02 3.339166566729545593e-02 -6.363061815500259399e-02
1.285000000000000000e+03 6.542261505126953125e+01 -3.241793823242187500e+01 -1.153722126036882401e-02 1.451833406463265419e-03 -3.025616519153118134e-03 1.122467219829559326e-03
1.286000000000000000e+03 4.403925323486328125e+01 -2.151327133178710938e+01 7.313996553421020508e-02 6.915056705474853516e-02 4.268715903162956238e-02 -5.178646370768547058e-02
1.287000000000000000e+03 5.068024444580078125e+01 -2.847996139526367188e+01 3.766997903585433960e-02 4.839707538485527039e-02 2.582011558115482330e-02 -4.640804603695869446e-02
1.288000000000000000e+03 3.593243408203125000e+01 -1.894935798645019531e+01 1.019579991698265076e-01 1.412496685981750488e+00 4.543364048004150391e-01 -1.031315997242927551e-01
1.289000000000000000e+03 6.887011718750000000e+01 -1.954027748107910156e+01 1.697133266134187579e-04 5.242362385615706444e-05 6.664108514087274671e-05 -2.315354549864423461e-06
1.290000000000000000e+03 4.875210952758789062e+01 -2.648861122131347656e+01 5.812040343880653381e-02 3.983991220593452454e-02 2.938809432089328766e-02 -5.466178059577941895e-02
1.291000000000000000e+03 7.227045440673828125e+01 -1.724954223632812500e+01 1.889184932224452496e-04 3.331851257826201618e-05 6.667109846603125334e-05 3.493295662337914109e-05
1.292000000000000000e+03 5.270758438110351562e+01 -2.850899887084960938e+01 1.839061640202999115e-02 2.497525699436664581e-02 1.300976146012544632e-02 -1.869969069957733154e-02
1.293000000000000000e+03 4.779091262817382812e+01 -2.349374771118164062e+01 9.525999426841735840e-03 -1.346632838249206543e-02 -1.182098640128970146e-03 -4.908223636448383331e-04
1.294000000000000000e+03 4.688275909423828125e+01 -2.444157028198242188e+01 7.298205792903900146e-02 3.268235921859741211e-02 3.169932588934898376e-02 -5.583905801177024841e-02
1.295000000000000000e+03 4.588751602172851562e+01 -2.347085571289062500e+01 7.894043624401092529e-02 3.299432992935180664e-02 3.358042985200881958e-02 -5.851946026086807251e-02
1.296000000000000000e+03 4.495010757446289062e+01 -2.448558616638183594e+01 1.285572648048400879e-01 1.139503642916679382e-01 7.275228947401046753e-02 -1.218473389744758606e-01
1.297000000000000000e+03 1.308605551719665527e+00 -4.007894897460937500e+01 -1.575281843543052673e-02 5.981986522674560547e-01 1.747337579727172852e-01 -4.082781448960304260e-02
1.298000000000000000e+03 8.313262462615966797e-01 3.735042572021484375e+01 -1.462073996663093567e-04 1.743191387504339218e-04 8.433524271822534502e-06 3.952874612878076732e-05
1.299000000000000000e+03 7.380675673484802246e-01 3.316797637939453125e+01 1.641550989006645977e-05 1.014834633679129183e-04 3.536969234119169414e-05 -1.187119505630107597e-05
1.300000000000000000e+03 6.195970177650451660e-01 2.611209869384765625e+01 -6.358836981235072017e-05 2.152259185095317662e-06 -1.843083373387344182e-05 6.343787845253245905e-06
1.301000000000000000e+03 1.890163898468017578e+00 2.862816810607910156e+01 8.085524314083158970e-05 2.321381907677277923e-05 3.122071939287707210e-05 -1.457679809391265735e-05
1.302000000000000000e+03 3.103592395782470703e+00 2.834125328063964844e+01 -8.658947626827284694e-05 1.660578891460318118e-05 -2.099510675179772079e-05 -2.420713826722931117e-05
1.303000000000000000e+03 3.063432455062866211e+00 2.565612602233886719e+01 -7.292114605661481619e-05 -2.726195589275448583e-06 -2.269420292577706277e-05 -1.472257463319692761e-05
1.304000000000000000e+03 2.080220460891723633e+00 3.143848609924316406e+01 8.627567876828834414e-05 4.237369284965097904e-05 3.859481148538179696e-05 -1.450202307751169428e-05
1.305000000000000000e+03 2.316106796264648438e+00 3.427886199951171875e+01 5.007766594644635916e-05 1.499282370787113905e-04 6.000177381793037057e-05 -7.350259693339467049e-05
1.306000000000000000e+03 2.215723276138305664e+00 3.286632537841796875e+01 -5.596793198492377996e-05 3.973127604695037007e-05 -4.870997599937254563e-06 -5.630192390526644886e-05
1.307000000000000000e+03 3.628028631210327148e+00 3.907215881347656250e+01 1.004256555461324751e-04 1.873496075859293342e-04 8.633257675683125854e-05 -1.901599316624924541e-04
1.308000000000000000e+03 7.073056101799011230e-01 -3.602565002441406250e+01 3.862175391986966133e-03 7.394797205924987793e-01 2.230025678873062134e-01 -1.449110358953475952e-02
1.309000000000000000e+03 7.105255126953125000e+00 -3.610497665405273438e+01 -1.874677836894989014e-02 1.272822469472885132e-01 3.256064280867576599e-02 -9.580692276358604431e-03
1.310000000000000000e+03 6.625772714614868164e-01 -3.044560432434082031e+01 -1.416505128145217896e-02 7.405363321304321289e-01 2.179113775491714478e-01 3.214945644140243530e-02
1.311000000000000000e+03 3.019687414169311523e+00 -2.718683624267578125e+01 -8.146014809608459473e-02 4.227336943149566650e-01 1.023820638656616211e-01 2.940683364868164062e-01
1.312000000000000000e+03 6.141712665557861328e-01 1.907340812683105469e+01 6.065061461413279176e-05 -1.455766323488205671e-06 1.775845339579973370e-05 -6.604382178920786828e-06
1.313000000000000000e+03 5.879515409469604492e-01 1.342719173431396484e+01 5.832583337905816734e-05 4.148847665419452824e-07 1.762221472745295614e-05 -6.313043286354513839e-06
1.314000000000000000e+03 5.198455452919006348e-01 7.802273273468017578e+00 5.066489393357187510e-05 1.945604935826850124e-06 1.578314913786016405e-05 -4.463981895241886377e-06
1.315000000000000000e+03 6.871067881584167480e-01 -2.063865852355957031e+01 7.945904508233070374e-03 -4.656511247158050537e-01 -1.373115628957748413e-01 5.253091454505920410e-02
1.316000000000000000e+03 6.182817220687866211e-01 -2.344295501708984375e+01 8.929184637963771820e-03 -1.577142924070358276e-01 -4.463553056120872498e-02 9.491552412509918213e-02
1.317000000000000000e+03 1.925244688987731934e+00 -1.642412376403808594e+01 1.833770982921123505e-02 -1.993128061294555664e-01 -5.429252982139587402e-02 -6.333071738481521606e-02
1.318000000000000000e+03 2.133178234100341797e+00 -3.705652999877929688e+01 1.799027668312191963e-03 5.896842479705810547e-01 1.774449795484542847e-01 -3.707129135727882385e-02
1.319000000000000000e+03 4.461416602134704590e-01 5.036462306976318359e+00 5.650411185342818499e-05 8.420504855166655034e-06 1.947738564922474325e-05 7.952734449645504355e-06
1.320000000000000000e+03 2.377573013305664062e+00 3.623563766479492188e+00 -4.625574729288928211e-05 -1.569886080687865615e-05 -1.858638279372826219e-05 1.892833279271144420e-05
1.321000000000000000e+03 1.684406042098999023e+00 1.045225048065185547e+01 -5.366491677705198526e-05 -2.201268898716080002e-06 -1.675985549809411168e-05 4.882188932242570445e-06
1.322000000000000000e+03 5.582278370857238770e-01 1.061109161376953125e+01 5.550889545702375472e-05 7.850821930333040655e-07 1.688819429546128958e-05 -6.413319169951137155e-06
1.323000000000000000e+03 1.772231459617614746e+00 1.324691486358642578e+01 -5.898900417378172278e-05 -3.643685886345338076e-06 -1.878980583569500595e-05 3.128136086161248386e-06
1.324000000000000000e+03 1.850752115249633789e+00 2.029190635681152344e+01 6.616886093979701400e-05 3.570717808543122374e-06 2.092187241942156106e-05 -8.555082899874832947e-07
1.325000000000000000e+03 1.843944072723388672e+00 1.888559150695800781e+01 -6.378428224707022309e-05 -6.196798494784161448e-06 -2.099432458635419607e-05 1.301078100368613377e-06
1.326000000000000000e+03 1.853181123733520508e+00 2.447200393676757812e+01 -6.763813871657475829e-05 -3.531163429215666838e-06 -2.135079193976707757e-05 -2.172489303120528348e-06
1.327000000000000000e+03 4.987238883972167969e+00 -4.041735839843750000e+01 4.046759381890296936e-02 3.558759689331054688e-01 1.189030706882476807e-01 7.935767993330955505e-03
1.328000000000000000e+03 2.494064807891845703e+00 -3.809500122070312500e+01 -1.522338949143886566e-02 5.444037318229675293e-01 1.587540954351425171e-01 -5.600591748952865601e-02
1.329000000000000000e+03 5.216372489929199219e+00 -3.592444610595703125e+01 -2.073930203914642334e-02 2.816400527954101562e-01 7.827022671699523926e-02 -2.251393906772136688e-02
1.330000000000000000e+03 2.096439838409423828e+00 -3.313337326049804688e+01 -2.825691737234592438e-02 6.098487377166748047e-01 1.744775474071502686e-01 -1.801120466552674770e-03
1.331000000000000000e+03 5.041362285614013672e+00 -2.800263977050781250e+01 -2.029139846563339233e-01 3.687529563903808594e-01 4.975169524550437927e-02 2.096369564533233643e-01
1.332000000000000000e+03 3.938534975051879883e+00 -2.682627296447753906e+01 -1.205106750130653381e-01 4.322055578231811523e-01 9.350845962762832642e-02 3.074141740798950195e-01
1.333000000000000000e+03 1.740444540977478027e+00 -2.485614395141601562e+01 1.193851791322231293e-02 1.878213137388229370e-01 5.992795154452323914e-02 2.511063218116760254e-01
1.334000000000000000e+03 4.486418247222900391e+00 -2.273450088500976562e+01 1.647171974182128906e-01 5.698438882827758789e-01 2.203683257102966309e-01 3.244484961032867432e-01
1.335000000000000000e+03 2.102941513061523438e+00 -2.073742485046386719e+01 8.378661423921585083e-02 -4.309865087270736694e-02 1.220638863742351532e-02 1.341595500707626343e-01
1.336000000000000000e+03 2.966613531112670898e+00 -1.225769710540771484e+01 -2.168685197830200195e-02 -1.519520394504070282e-02 -1.106461696326732635e-02 -9.643614292144775391e-02
1.337000000000000000e+03 5.835273861885070801e-01 -1.214633655548095703e+01 -3.429669188335537910e-03 -2.645840048789978027e-01 -8.040410280227661133e-02 -3.076850809156894684e-02
1.338000000000000000e+03 1.761680483818054199e+00 -1.221698379516601562e+01 -4.203485324978828430e-03 -1.438795179128646851e-01 -4.442490264773368835e-02 -7.501713931560516357e-02
1.339000000000000000e+03 1.695433139801025391e+00 -6.869871616363525391e+00 -5.422775167971849442e-03 -4.727889597415924072e-02 -1.581050083041191101e-02 -3.061146475374698639e-02
1.340000000000000000e+03 1.620035529136657715e+00 -3.527030467987060547e+00 -3.176781116053462029e-03 -1.295375078916549683e-02 -4.839159548282623291e-03 -1.507314480841159821e-02
1.341000000000000000e+03 6.266791820526123047e-01 -5.153066635131835938e+00 -1.320851617492735386e-03 -3.817852213978767395e-02 -1.184981223195791245e-02 -9.513163939118385315e-03
1.342000000000000000e+03 5.548452758789062500e+01 4.126972854137420654e-01 -1.089490175247192383e+00 -1.717747189104557037e-02 -3.320003151893615723e-01 -2.809086441993713379e-02
1.343000000000000000e+03 2.848610496520996094e+01 -6.378588199615478516e+00 1.308994293212890625e+00 3.911473035812377930e+00 1.566140294075012207e+00 -1.224284410476684570e+00
1.344000000000000000e+03 2.830881881713867188e+01 -6.306829452514648438e+00 1.231104373931884766e+00 4.487871170043945312e+00 1.715692758560180664e+00 -9.417666196823120117e-01
1.345000000000000000e+03 2.884137344360351562e+01 -6.523244857788085938e+00 1.469064354896545410e+00 2.911376237869262695e+00 1.314132213592529297e+00 -1.432276368141174316e+00
1.346000000000000000e+03 2.704956626892089844e+01 -5.961617469787597656e+00 2.753477334976196289e+00 4.082432746887207031e+00 2.050773143768310547e+00 1.951370716094970703e+00
1.347000000000000000e+03 2.839522933959960938e+01 -2.429656744003295898e+00 -4.287007808685302734e+00 2.181745767593383789e+00 -6.315786242485046387e-01 2.928620338439941406e+00
1.348000000000000000e+03 2.703715133666992188e+01 -5.631333351135253906e+00 3.567682504653930664e+00 3.973790645599365234e+00 2.262441873550415039e+00 2.282388925552368164e+00
1.349000000000000000e+03 2.618610763549804688e+01 -3.670927047729492188e+00 2.432888746261596680e+00 -4.166525900363922119e-01 6.048708558082580566e-01 -1.789082884788513184e+00
1.350000000000000000e+03 2.716862297058105469e+01 -2.460348367691040039e+00 -4.638927936553955078e+00 4.192551076412200928e-01 -1.265901803970336914e+00 -9.497414231300354004e-01
1.351000000000000000e+03 2.640947914123535156e+01 -4.442548274993896484e+00 5.277137279510498047e+00 4.689745306968688965e-01 1.723833560943603516e+00 -1.610462814569473267e-01
1.352000000000000000e+03 2.281970977783203125e+01 -2.915229082107543945e+00 -3.243803083896636963e-01 2.929012104868888855e-02 -8.852705359458923340e-02 -8.614035844802856445e-01
1.353000000000000000e+03 2.651649475097656250e+01 -5.688103675842285156e+00 3.728509664535522461e+00 2.382736682891845703e+00 1.833373904228210449e+00 1.907111763954162598e+00
1.354000000000000000e+03 2.279649543762207031e+01 -3.555281877517700195e+00 6.562994420528411865e-02 -2.529755830764770508e-01 -5.620368942618370056e-02 -8.996977806091308594e-01
1.355000000000000000e+03 2.464543914794921875e+01 -2.525282621383666992e+00 -1.504080891609191895e+00 5.597238540649414062e-01 -2.833071053028106689e-01 -1.662060856819152832e+00
1.356000000000000000e+03 2.667906188964843750e+01 -3.991479158401489258e+00 5.084022521972656250e+00 7.733263969421386719e-01 1.757204771041870117e+00 -1.302961349487304688e+00
1.357000000000000000e+03 3.008585929870605469e+01 -7.120754241943359375e+00 1.470840215682983398e+00 1.062069892883300781e+00 7.598730325698852539e-01 -1.079777359962463379e+00
1.358000000000000000e+03 3.077084732055664062e+01 -3.049592256546020508e+00 2.700967788696289062e-01 3.341764807701110840e-01 1.812819689512252808e-01 3.738291263580322266e+00
1.359000000000000000e+03 2.992231178283691406e+01 -2.940259456634521484e+00 2.391508966684341431e-01 2.511934041976928711e-01 1.471032947301864624e-01 4.791925907135009766e+00
1.360000000000000000e+03 3.068186378479003906e+01 -2.266476392745971680e+00 -1.975764930248260498e-01 9.898108839988708496e-01 2.376703172922134399e-01 3.753621101379394531e+00
1.361000000000000000e+03 3.135326957702636719e+01 -8.679997444152832031e+00 8.746613264083862305e-01 6.910627484321594238e-01 4.697172343730926514e-01 -8.674352169036865234e-01
1.362000000000000000e+03 3.248694229125976562e+01 -9.088972091674804688e+00 7.214262485504150391e-01 4.871514439582824707e-01 3.625732958316802979e-01 -7.756224274635314941e-01
1.363000000000000000e+03 3.080652809143066406e+01 -8.579277992248535156e+00 9.011923074722290039e-01 8.957158327102661133e-01 5.390724539756774902e-01 -9.116641879081726074e-01
1.364000000000000000e+03 3.190580368041992188e+01 -8.861556053161621094e+00 8.067081570625305176e-01 5.860046744346618652e-01 4.178138673305511475e-01 -8.203889727592468262e-01
1.365000000000000000e+03 7.671431732177734375e+01 -1.633875274658203125e+01 -8.527759200660511851e-05 -8.336196333402767777e-05 -5.059186514699831605e-05 -1.065414471668191254e-05
1.366000000000000000e+03 7.846258544921875000e+01 -1.945452499389648438e+01 -1.849570253398269415e-04 4.122215977986343205e-05 -4.312046075938269496e-05 -3.506638677208684385e-06
1.367000000000000000e+03 7.703119659423828125e+01 -1.737442779541015625e+01 8.287175296572968364e-05 1.532599126221612096e-04 7.083950185915455222e-05 -4.911612995783798397e-05
1.368000000000000000e+03 1.659095001220703125e+01 1.723418474197387695e+00 -1.197220444737467915e-05 -1.700951906968839467e-05 -8.694516509422101080e-06 -9.914008842315524817e-06
1.369000000000000000e+03 1.740969085693359375e+01 1.756512999534606934e+00 2.356471304665319622e-05 4.694889412348857149e-06 8.477880328428000212e-06 9.149574907496571541e-06
1.370000000000000000e+03 1.022262954711914062e+01 -2.753777027130126953e+00 -1.770183816552162170e-02 -8.955909870564937592e-03 -7.997324690222740173e-03 4.502893425524234772e-03
1.371000000000000000e+03 7.433484649658203125e+01 -1.639154815673828125e+01 3.816257503785891458e-06 2.315114579687360674e-05 8.090220944723114371e-06 2.028070593951269984e-05
1.372000000000000000e+03 7.055857849121093750e+01 -1.664813423156738281e+01 7.586103311041370034e-05 1.980935121537186205e-05 2.870111347874626517e-05 1.154141282313503325e-04
1.373000000000000000e+03 6.940723419189453125e+01 -1.139571857452392578e+01 9.133415296673774719e-03 -2.427191007882356644e-03 2.011867240071296692e-03 -4.747931379824876785e-03
1.374000000000000000e+03 3.432423782348632812e+01 -2.437279224395751953e+00 3.014672696590423584e-01 2.011965751647949219e+00 6.940299272537231445e-01 1.207343697547912598e+00
1.375000000000000000e+03 3.504056167602539062e+01 -3.967927932739257812e+00 -1.656660914421081543e+00 1.078147411346435547e+00 -1.735540479421615601e-01 4.277223646640777588e-01
1.376000000000000000e+03 7.784735870361328125e+01 -9.190314292907714844e+00 2.828960306942462921e-03 5.057188682258129120e-03 2.365844789892435074e-03 7.494662422686815262e-03
1.377000000000000000e+03 3.919018936157226562e+01 -4.208750426769256592e-01 -8.647317290306091309e-01 2.368784904479980469e+00 4.512159526348114014e-01 -3.613222539424896240e-01
1.378000000000000000e+03 1.821407699584960938e+01 1.575610399246215820e+00 -1.024607536237454042e-05 6.408799890778027475e-06 -1.151182686953688972e-06 4.126358817302389070e-06
1.379000000000000000e+03 1.827310371398925781e+01 2.886253833770751953e+00 2.337146543140988797e-05 1.822879676183219999e-05 1.248007811227580532e-05 2.043216591118834913e-05
1.380000000000000000e+03 3.308018493652343750e+01 -3.539554357528686523e+00 -7.278252840042114258e-01 6.387813687324523926e-01 -2.671316824853420258e-02 1.799935698509216309e+00
1.381000000000000000e+03 3.369351196289062500e+01 -3.633934020996093750e+00 -1.015992641448974609e+00 1.044028520584106445e+00 8.410779759287834167e-03 1.393395662307739258e+00
1.382000000000000000e+03 3.377212142944335938e+01 -1.851297140121459961e+00 2.084925413131713867e+00 2.270089864730834961e+00 1.306504487991333008e+00 1.916776537895202637e+00
1.383000000000000000e+03 3.197223281860351562e+01 -2.403705358505249023e+00 6.714513897895812988e-01 1.309696912765502930e+00 5.943444967269897461e-01 2.595550775527954102e+00
1.384000000000000000e+03 3.913480758666992188e+00 2.665055990219116211e+00 1.319543389399768785e-05 1.337063440587371588e-05 7.969820217113010585e-06 -5.867283562110969797e-06
1.385000000000000000e+03 4.639672756195068359e+00 2.624732017517089844e+00 -1.479139609728008509e-05 -1.212996630783891305e-05 -8.076408448687288910e-06 5.339484687283402309e-06
1.386000000000000000e+03 6.082665920257568359e+00 2.572575092315673828e+00 -1.211419203173136339e-05 -1.312782114837318659e-05 -7.572603863081894815e-06 3.116784000667394139e-06
1.387000000000000000e+03 5.336724758148193359e+00 3.349722385406494141e+00 -1.581772085046395659e-05 -1.290171348955482244e-05 -8.615829756308812648e-06 7.289867880899691954e-06
1.388000000000000000e+03 6.056957721710205078e+00 3.305244445800781250e+00 1.264887032448314130e-05 1.458333827031310648e-05 8.169662578438874334e-06 -2.316191284990054555e-06
1.389000000000000000e+03 1.054823780059814453e+01 2.463057518005371094e+00 -1.717652776278555393e-05 -3.897800525010097772e-06 -6.322298759187106043e-06 -1.064226012204017024e-06
1.390000000000000000e+03 7.512355327606201172e+00 3.248021841049194336e+00 1.563360274303704500e-05 1.315964254899881780e-05 8.637973223812878132e-06 3.909638053301023319e-06
1.391000000000000000e+03 6.782885551452636719e+00 3.271167039871215820e+00 -1.416744271409697831e-05 -1.397359483235049993e-05 -8.442310900136362761e-06 -9.483410394750535488e-07
1.392000000000000000e+03 4.622836112976074219e+00 3.402087926864624023e+00 2.218130612163804471e-05 8.261855327873490751e-06 9.132948434853460640e-06 -6.150219178380211815e-06
1.393000000000000000e+03 2.504248142242431641e+00 2.699124336242675781e+00 4.218372487230226398e-05 3.824175564659526572e-06 1.380236972181592137e-05 -6.116240456321975216e-06
1.394000000000000000e+03 1.133988952636718750e+01 3.130991935729980469e+00 -2.285123264300636947e-05 -2.990480425069108605e-06 -7.752513738523703068e-06 -4.005130449513671920e-08
1.395000000000000000e+03 1.095940589904785156e+01 -3.589687585830688477e+00 -1.034516026265919209e-03 -1.501442026346921921e-02 -4.814680665731430054e-03 7.138154003769159317e-03
1.396000000000000000e+03 1.169985580444335938e+01 -3.666547536849975586e+00 1.180901285260915756e-02 -1.413291902281343937e-03 3.118716180324554443e-03 1.785187236964702606e-02
1.397000000000000000e+03 1.243045043945312500e+01 -3.009956836700439453e+00 -1.767195761203765869e-03 9.907188359647989273e-04 -2.329431008547544479e-04 6.628558970987796783e-03
1.398000000000000000e+03 9.472780227661132812e+00 -3.465859651565551758e+00 -1.344733964651823044e-02 7.922444492578506470e-04 -3.796528559178113937e-03 6.508338730782270432e-03
1.399000000000000000e+03 1.459492874145507812e+01 2.791993379592895508e+00 -1.165810590464388952e-05 -6.621753072977298871e-06 -5.483957920660031959e-06 1.050334412866504863e-05
1.400000000000000000e+03 1.517179298400878906e+01 4.376382827758789062e+00 -9.959667295333929360e-06 5.677009085047757253e-06 -1.284797463085851632e-06 1.749586954247206450e-05
1.401000000000000000e+03 1.378440284729003906e+01 2.929509162902832031e+00 1.938666719070170075e-05 2.352188857912551612e-06 6.521656814584275708e-06 -7.084481694619171321e-06
1.402000000000000000e+03 1.211562538146972656e+01 2.318563461303710938e+00 -1.621870615053921938e-05 -2.786889126582536846e-06 -5.701678674085997045e-06 2.460666564729763195e-06
1.403000000000000000e+03 3.985688018798828125e+01 -3.358381986618041992e+00 -1.872599601745605469e+00 2.828857600688934326e-01 -4.769141674041748047e-01 -2.024509429931640625e+00
1.404000000000000000e+03 3.648804092407226562e+01 -4.215371608734130859e+00 -2.062911272048950195e+00 1.032748699188232422e+00 -3.090487420558929443e-01 -4.123307764530181885e-01
1.405000000000000000e+03 3.891368103027343750e+01 -4.006359100341796875e+00 -1.874134659767150879e+00 6.555407643318176270e-01 -3.655781447887420654e-01 -1.734587311744689941e+00
1.406000000000000000e+03 7.511468505859375000e+01 -1.644251632690429688e+01 -1.483578489569481462e-05 -5.426305142464116216e-05 -2.072965071420185268e-05 -1.216882355947745964e-05
1.407000000000000000e+03 7.514332580566406250e+01 -1.749349784851074219e+01 1.011255517369136214e-04 2.032145312114153057e-05 3.643409945652820170e-05 7.015281153144314885e-05
1.408000000000000000e+03 7.187055206298828125e+01 -1.832964324951171875e+01 2.961785066872835159e-04 1.225642190547659993e-04 1.256228133570402861e-04 9.331737965112552047e-05
1.409000000000000000e+03 7.027665710449218750e+01 -1.869586944580078125e+01 8.861217793310061097e-05 1.077497217920608819e-04 5.890857210033573210e-05 5.849095032317563891e-05
1.410000000000000000e+03 7.322489166259765625e+01 -1.767513656616210938e+01 2.994491078425198793e-04 8.200003503588959575e-05 1.144347406807355583e-04 1.259305863641202450e-04
1.411000000000000000e+03 4.027032852172851562e+01 -4.559360980987548828e+00 -1.314603328704833984e+00 -2.051778137683868408e-01 -4.559343457221984863e-01 -1.551934599876403809e+00
1.412000000000000000e+03 4.125068664550781250e+01 -3.048419713973999023e+00 -1.819391489028930664e+00 -1.349286437034606934e+00 -9.506033658981323242e-01 -2.368290662765502930e+00
1.413000000000000000e+03 7.431069946289062500e+01 -1.066300010681152344e+01 5.404200870543718338e-03 -3.186810528859496117e-03 6.652171141467988491e-04 4.184910096228122711e-03
1.414000000000000000e+03 7.522068023681640625e+01 -1.069985294342041016e+01 4.843330010771751404e-03 -3.261070523876696825e-04 1.355166896246373653e-03 5.679819732904434204e-03
1.415000000000000000e+03 7.178719329833984375e+01 -1.097913455963134766e+01 6.443984806537628174e-03 -4.187480080872774124e-03 6.769513711333274841e-04 -4.820116446353495121e-04
1.416000000000000000e+03 7.195909881591796875e+01 -9.348740577697753906e+00 1.319549774052575231e-04 -6.326306145638227463e-03 -1.858305418863892555e-03 1.392950653098523617e-03
1.417000000000000000e+03 6.875581359863281250e+01 -1.166584777832031250e+01 4.878556821495294571e-03 -4.253222723491489887e-04 1.335970358923077583e-03 -8.156824856996536255e-03
1.418000000000000000e+03 7.017416381835937500e+01 -1.118571472167968750e+01 5.243994761258363724e-03 -2.564232097938656807e-03 8.039288222789764404e-04 -4.242752678692340851e-03
1.419000000000000000e+03 7.346170043945312500e+01 -1.007696533203125000e+01 3.221625462174415588e-03 -3.839538665488362312e-03 -1.853739522630348802e-04 1.728105242364108562e-03
1.420000000000000000e+03 7.577688598632812500e+01 -9.739188194274902344e+00 4.265301104169338942e-04 -3.106800373643636703e-03 -8.040810935199260712e-04 5.586544517427682877e-03
1.421000000000000000e+03 6.789384460449218750e+01 -1.094864749908447266e+01 5.992198828607797623e-03 -4.598614177666604519e-04 1.659701229073107243e-03 -1.002350263297557831e-02
1.422000000000000000e+03 3.759265136718750000e+01 -1.724183273315429688e+01 -1.476759016513824463e-01 9.789294004440307617e-01 2.493760436773300171e-01 -1.112984567880630493e-01
1.423000000000000000e+03 3.452614974975585938e+01 -9.810217857360839844e+00 4.107459783554077148e-01 3.732464611530303955e-01 2.351977378129959106e-01 -6.414614915847778320e-01
1.424000000000000000e+03 3.311500930786132812e+01 -9.337353706359863281e+00 6.089349389076232910e-01 4.426549971103668213e-01 3.154769837856292725e-01 -7.370868325233459473e-01
1.425000000000000000e+03 3.379751968383789062e+01 -9.581495285034179688e+00 5.135900974273681641e-01 3.890694379806518555e-01 2.707978785037994385e-01 -6.856551170349121094e-01
1.426000000000000000e+03 3.756029129028320312e+01 -1.057094383239746094e+01 1.391960382461547852e-01 2.973704636096954346e-01 1.309699565172195435e-01 -3.760350048542022705e-01
1.427000000000000000e+03 4.069951629638671875e+01 -1.159238052368164062e+01 1.501667220145463943e-02 2.344841510057449341e-01 7.485024631023406982e-02 -1.198322549462318420e-01
1.428000000000000000e+03 3.909569168090820312e+01 -1.077293586730957031e+01 7.100181281566619873e-02 2.440082728862762451e-01 9.450302273035049438e-02 -2.345931231975555420e-01
1.429000000000000000e+03 1.395094680786132812e+01 -3.181301355361938477e+00 3.774020820856094360e-03 -1.789410971105098724e-02 -4.236026667058467865e-03 -2.136131562292575836e-02
1.430000000000000000e+03 1.476139736175537109e+01 -3.977582454681396484e+00 5.541450157761573792e-02 -6.891635060310363770e-02 -4.050554241985082626e-03 -4.552596434950828552e-02
1.431000000000000000e+03 1.244482517242431641e+01 -3.748936653137207031e+00 1.492926757782697678e-02 -3.853464126586914062e-02 -7.081611547619104385e-03 -5.283215548843145370e-03
1.432000000000000000e+03 1.320349025726318359e+01 -3.830327033996582031e+00 3.135798871517181396e-02 -2.773695625364780426e-02 1.086309319362044334e-03 -9.445230243727564812e-04
1.433000000000000000e+03 1.213963603973388672e+01 3.073450326919555664e+00 2.171920095861423761e-05 2.838898581103421748e-06 7.367430043814238161e-06 -2.324912657059030607e-06
1.434000000000000000e+03 1.295524024963378906e+01 3.009288072586059570e+00 -2.083017898257821798e-05 -2.454446985211689025e-06 -6.985387699387501925e-06 3.768912620216724463e-06
1.435000000000000000e+03 3.989905166625976562e+01 -9.956829071044921875e+00 6.079091876745223999e-02 1.419199407100677490e-01 6.081325933337211609e-02 -1.361394673585891724e-01
1.436000000000000000e+03 1.636485099792480469e+01 -4.078012943267822266e+00 8.905275166034698486e-02 -1.341299116611480713e-01 -1.352314930409193039e-02 -1.251891851425170898e-01
1.437000000000000000e+03 1.800004768371582031e+01 -4.094782829284667969e+00 1.391456127166748047e-01 -2.288947552442550659e-01 -2.692474052309989929e-02 -2.390855997800827026e-01
1.438000000000000000e+03 1.726000976562500000e+01 -4.802109718322753906e+00 2.253384441137313843e-01 -2.378193289041519165e-01 -3.744264366105198860e-03 -1.567181646823883057e-01
1.439000000000000000e+03 3.527790069580078125e+01 -1.002594566345214844e+01 3.261125385761260986e-01 3.424670696258544922e-01 2.005738765001296997e-01 -5.736858844757080078e-01
1.440000000000000000e+03 1.953356933593750000e+01 -3.353180170059204102e+00 -3.550525009632110596e-02 -2.647654414176940918e-01 -9.008120000362396240e-02 -4.307622313499450684e-01
1.441000000000000000e+03 2.044326782226562500e+01 -3.902277946472167969e+00 2.237306684255599976e-01 -3.262346982955932617e-01 -3.075120970606803894e-02 -4.711975157260894775e-01
1.442000000000000000e+03 2.053684425354003906e+01 -4.553522109985351562e+00 4.677948951721191406e-01 -4.266163706779479980e-01 1.235355902463197708e-02 -4.071721434593200684e-01
1.443000000000000000e+03 2.195924758911132812e+01 -3.045149564743041992e+00 -2.587713301181793213e-01 -2.381806224584579468e-01 -1.490855813026428223e-01 -6.437462568283081055e-01
1.444000000000000000e+03 7.268701934814453125e+01 -1.009980392456054688e+01 3.444741480052471161e-03 -5.036891903728246689e-03 -4.776450805366039276e-04 2.458485541865229607e-03
1.445000000000000000e+03 6.433929920196533203e+00 -3.334238529205322266e+00 -2.240338362753391266e-02 8.302570320665836334e-03 -4.230244085192680359e-03 -1.195670850574970245e-02
1.446000000000000000e+03 2.462319135665893555e+00 -3.171105623245239258e+00 -8.266071788966655731e-03 -1.233165431767702103e-02 -6.179317831993103027e-03 -1.887969113886356354e-02
1.447000000000000000e+03 3.911890029907226562e+00 -7.450085163116455078e+00 -1.821560412645339966e-02 1.460299734026193619e-02 -1.083782059140503407e-03 -3.917239978909492493e-02
1.448000000000000000e+03 7.945617675781250000e+00 -3.383873224258422852e+00 -2.077730558812618256e-02 8.268523961305618286e-03 -3.752634162083268166e-03 -1.696772640570998192e-03
1.449000000000000000e+03 5.558737277984619141e+00 -2.605933904647827148e+00 -2.237773872911930084e-02 1.021824311465024948e-03 -6.406774278730154037e-03 -1.440561190247535706e-02
1.450000000000000000e+03 5.687519073486328125e+00 -3.329801082611083984e+00 -1.986371912062168121e-02 1.497433055192232132e-02 -1.466816407628357410e-03 -1.404960174113512039e-02
1.451000000000000000e+03 1.843888163566589355e+00 -5.598191738128662109e+00 -4.767999053001403809e-03 -2.869741059839725494e-02 -1.003962289541959763e-02 -2.707108110189437866e-02
1.452000000000000000e+03 8.709469795227050781e+00 -3.420845746994018555e+00 -1.475330162793397903e-02 2.095381543040275574e-02 1.860153977759182453e-03 1.097874157130718231e-02
1.453000000000000000e+03 1.555527019500732422e+01 -4.036822795867919922e+00 5.766820535063743591e-02 -1.214587911963462830e-01 -1.913717575371265411e-02 -1.048341020941734314e-01
1.454000000000000000e+03 1.052707386016845703e+01 3.919171810150146484e+00 -2.895010038628242910e-05 -4.172784883849089965e-06 -9.936865353665780276e-06 -4.897185135632753372e-06
1.455000000000000000e+03 1.881405830383300781e+01 -4.059913635253906250e+00 1.529073566198348999e-01 -2.745661437511444092e-01 -3.649763390421867371e-02 -3.316769897937774658e-01
1.456000000000000000e+03 2.371260070800781250e+01 -2.715473890304565430e+00 -1.085938930511474609e+00 1.321013867855072021e-01 -2.861512601375579834e-01 -1.080302357673645020e+00
1.457000000000000000e+03 2.123712921142578125e+01 -3.785968065261840820e+00 2.029837220907211304e-01 -3.716755211353302002e-01 -5.060753598809242249e-02 -5.664525628089904785e-01
1.458000000000000000e+03 2.622594451904296875e+01 -5.893318653106689453e+00 3.361552000045776367e+00 1.757462739944458008e+00 1.535704374313354492e+00 1.654693841934204102e+00
1.459000000000000000e+03 4.163100814819335938e+01 -9.353754043579101562e+00 8.561351336538791656e-03 3.262787684798240662e-02 1.235676836222410202e-02 -1.347325555980205536e-02
1.460000000000000000e+03 4.177379989624023438e+01 -9.576611518859863281e+00 1.680255372775718570e-04 2.238314971327781677e-02 6.765352562069892883e-03 -8.168952539563179016e-03
1.461000000000000000e+03 6.849213409423828125e+01 -1.118579673767089844e+01 7.378397975116968155e-03 4.866073373705148697e-03 3.673341358080506325e-03 -6.369246169924736023e-03
1.462000000000000000e+03 2.094914436340332031e+01 -1.646690368652343750e+01 -5.616021752357482910e-01 6.501699239015579224e-02 -1.489755660295486450e-01 3.162193596363067627e-01
1.463000000000000000e+03 2.306795310974121094e+01 -1.771583175659179688e+01 -9.277303814888000488e-01 9.119980782270431519e-02 -2.509591877460479736e-01 1.465864777565002441e-01
1.464000000000000000e+03 6.838845062255859375e+01 -7.882747650146484375e+00 -5.886686500161886215e-03 -6.099303252995014191e-03 -3.595796879380941391e-03 -5.033538211137056351e-03
1.465000000000000000e+03 2.713978385925292969e+01 -1.856053590774536133e+00 -1.210519981384277344e+01 -1.397699564695358276e-01 -3.673491001129150391e+00 2.093090265989303589e-01
1.466000000000000000e+03 5.363282394409179688e+01 3.469652652740478516e+00 -1.177601099014282227e+00 4.436771944165229797e-02 -3.399700224399566650e-01 -4.956477582454681396e-01
1.467000000000000000e+03 1.882011795043945312e+01 -1.587789535522460938e+01 -3.429246842861175537e-01 -4.870254546403884888e-02 -1.174881681799888611e-01 3.255801200866699219e-01
1.468000000000000000e+03 2.889682006835937500e+01 -1.498915481567382812e+01 -6.478133201599121094e-01 2.835460901260375977e-01 -1.092801615595817566e-01 -2.665711939334869385e-01
1.469000000000000000e+03 2.770474815368652344e+01 -1.681966781616210938e+01 -1.265313744544982910e+00 6.536381691694259644e-02 -3.599849939346313477e-01 -1.003388538956642151e-01
1.470000000000000000e+03 2.219152450561523438e+01 -1.568881702423095703e+01 -5.160334110260009766e-01 1.383345574140548706e-01 -1.133096516132354736e-01 3.715694248676300049e-01
1.471000000000000000e+03 1.198145675659179688e+01 1.815479087829589844e+01 -9.486728959018364549e-05 2.794769216052372940e-06 -2.762175608950201422e-05 -1.882490505522582680e-05
1.472000000000000000e+03 2.939188003540039062e+01 -2.154835939407348633e+00 -4.514706611633300781e+00 3.177185356616973877e-01 -1.259096384048461914e+00 2.621030807495117188e+00
1.473000000000000000e+03 2.585835456848144531e+01 -3.351068878173828125e+01 -1.621716469526290894e-01 5.631811916828155518e-03 -4.696195200085639954e-02 6.568689830601215363e-03
1.474000000000000000e+03 2.462092590332031250e+01 -1.515594387054443359e+01 -6.122949123382568359e-01 2.626919448375701904e-01 -1.048808842897415161e-01 3.046570718288421631e-01
1.475000000000000000e+03 2.056362915039062500e+01 -3.550668716430664062e+01 -1.523138582706451416e-01 -3.482996672391891479e-02 -5.614314600825309753e-02 2.228094078600406647e-02
1.476000000000000000e+03 3.881103396415710449e-01 3.786169528961181641e+00 -6.421656871680170298e-05 -1.759194128680974245e-05 -2.454255445627495646e-05 -2.161595693905837834e-05
1.477000000000000000e+03 3.913267898559570312e+01 -1.706542015075683594e+01 -7.939236611127853394e-02 7.552080154418945312e-01 2.027446925640106201e-01 -5.127911642193794250e-02
1.478000000000000000e+03 3.822926330566406250e+01 -1.652925491333007812e+01 -1.306986063718795776e-01 8.574722409248352051e-01 2.180320769548416138e-01 -1.520380526781082153e-01
1.479000000000000000e+03 2.340438270568847656e+01 -3.537002182006835938e+01 -1.427729874849319458e-01 1.343340147286653519e-03 -4.242889210581779480e-02 1.478281989693641663e-02
1.480000000000000000e+03 2.451490211486816406e+01 -3.421972274780273438e+01 -1.584860533475875854e-01 7.295934949070215225e-03 -4.535703733563423157e-02 1.115189027041196823e-02
1.481000000000000000e+03 1.408248901367187500e+01 1.397944450378417969e+01 -7.093577733030542731e-05 -1.148842329712351784e-06 -2.162538658012636006e-05 -5.230411261436529458e-06
1.482000000000000000e+03 1.776168251037597656e+01 -1.545108413696289062e+01 -2.194355428218841553e-01 -1.050521805882453918e-01 -9.734632074832916260e-02 3.268766403198242188e-01
1.483000000000000000e+03 2.607889175415039062e+01 -1.606710052490234375e+01 -9.186715483665466309e-01 2.029068320989608765e-01 -2.147294133901596069e-01 1.201979964971542358e-01
1.484000000000000000e+03 1.799572944641113281e+01 6.508873462677001953e+00 4.802392504643648863e-05 -2.792009809127193876e-06 1.356957454845542088e-05 3.360617029102286324e-06
1.485000000000000000e+03 1.707265663146972656e+01 8.976380348205566406e+00 5.187774877413176000e-05 5.683425001734576654e-07 1.573382724018301815e-05 1.859516032709507272e-06
1.486000000000000000e+03 2.222850799560546875e+01 -3.715221023559570312e+01 -1.146251037716865540e-01 -1.931556873023509979e-02 -4.018219932913780212e-02 2.051053941249847412e-02
1.487000000000000000e+03 1.347712230682373047e+01 -3.427296447753906250e+01 -2.079204171895980835e-01 -7.470345497131347656e-02 -8.478716015815734863e-02 1.137851178646087646e-01
1.488000000000000000e+03 6.415256023406982422e+00 -2.892182159423828125e+01 -2.577029764652252197e-01 1.159985363483428955e-01 -4.251133278012275696e-02 1.687623858451843262e-01
1.489000000000000000e+03 4.687908554077148438e+01 -2.635773849487304688e+01 9.272509068250656128e-02 8.922339230775833130e-02 5.458454415202140808e-02 -9.973701834678649902e-02
1.490000000000000000e+03 7.504711914062500000e+01 -2.744536972045898438e+01 -5.227270885370671749e-04 -3.319061070214956999e-04 -2.563899615779519081e-04 2.126359177054837346e-04
1.491000000000000000e+03 7.810506439208984375e+01 -2.879006195068359375e+01 -2.025097819569054991e-05 -1.125774433603510261e-04 -3.984852446592412889e-05 1.922571827890351415e-04
1.492000000000000000e+03 7.814849853515625000e+01 -2.227667808532714844e+01 -1.846631057560443878e-04 4.870389602729119360e-05 -4.078776328242383897e-05 -1.120456872740760446e-04
1.493000000000000000e+03 7.744394683837890625e+01 -2.432415199279785156e+01 3.108717282884754241e-05 -1.724874309729784727e-04 -4.242007707944139838e-05 9.515550482319667935e-05
1.494000000000000000e+03 7.649884796142578125e+01 -3.105300903320312500e+01 -5.581942386925220490e-04 -4.406036168802529573e-04 -2.996393595822155476e-04 6.800040137022733688e-04
1.495000000000000000e+03 7.779226684570312500e+01 -3.436118698120117188e+01 1.026466816256288439e-05 -1.282442477531731129e-03 -3.816533426288515329e-04 8.080850238911807537e-04
1.496000000000000000e+03 7.682524871826171875e+01 -2.193744277954101562e+01 1.012383727356791496e-04 -1.619148824829608202e-04 -1.820295256038662046e-05 -2.211870196333620697e-06
1.497000000000000000e+03 7.672040557861328125e+01 -2.970939064025878906e+01 -1.467768597649410367e-04 -3.327100421302020550e-04 -1.438460749341174960e-04 4.049893177580088377e-04
1.498000000000000000e+03 7.795436096191406250e+01 -1.704602813720703125e+01 -1.578527881065383554e-04 -1.228900073328986764e-04 -8.422284008702263236e-05 -6.986490916460752487e-06
1.499000000000000000e+03 7.684883880615234375e+01 -2.846218109130859375e+01 -2.581227745395153761e-04 -2.935986558441072702e-04 -1.655164378462359309e-04 3.054965345654636621e-04
1.500000000000000000e+03 7.687223815917968750e+01 -2.705961799621582031e+01 -1.130351956817321479e-04 5.946002147538820282e-06 -3.212675801478326321e-05 2.059311955235898495e-04
1.501000000000000000e+03 7.709761810302734375e+01 -2.565476989746093750e+01 -1.060738868545740843e-04 -6.945009954506531358e-05 -5.265719664748758078e-05 -9.030782530317083001e-05
1.502000000000000000e+03 7.622540283203125000e+01 -3.560126495361328125e+01 1.910410355776548386e-04 -1.381573732942342758e-03 -3.571597917471081018e-04 1.363628543913364410e-03
1.503000000000000000e+03 7.642469024658203125e+01 -3.256869506835937500e+01 -9.103510819841176271e-05 -6.149013643153011799e-04 -2.117809490300714970e-04 1.046042307280004025e-03
1.504000000000000000e+03 7.250935363769531250e+01 -3.646859359741210938e+01 -4.722658777609467506e-04 -9.187011164613068104e-04 -4.172901099082082510e-04 2.376894932240247726e-03
1.505000000000000000e+03 7.660708618164062500e+01 -3.916811370849609375e+01 4.627732560038566589e-04 -2.329297596588730812e-03 -5.599572905339300632e-04 4.843209462705999613e-04
1.506000000000000000e+03 7.536254119873046875e+01 9.701752662658691406e+00 -1.156468316912651062e-02 -2.323831915855407715e-01 -7.318436354398727417e-02 -1.573335677385330200e-01
1.507000000000000000e+03 7.663450622558593750e+01 8.301011085510253906e+00 -1.190731395035982132e-02 -2.045911401510238647e-01 -6.494953483343124390e-02 -1.146298125386238098e-01
1.508000000000000000e+03 7.542072296142578125e+01 1.650170135498046875e+01 1.617750152945518494e-02 -4.182074964046478271e-01 -1.206090003252029419e-01 -1.485487669706344604e-01
1.509000000000000000e+03 7.675648498535156250e+01 1.521795463562011719e+01 6.586059462279081345e-03 -4.219101369380950928e-01 -1.245972216129302979e-01 -1.180927380919456482e-01
1.510000000000000000e+03 7.643120574951171875e+01 2.490538787841796875e+01 1.414687093347311020e-02 -6.267750263214111328e-01 -1.837884485721588135e-01 -6.217159330844879150e-02
1.511000000000000000e+03 7.658380889892578125e+01 2.209519386291503906e+01 1.338191889226436615e-02 -5.869747400283813477e-01 -1.720778495073318481e-01 -7.916611433029174805e-02
1.512000000000000000e+03 7.455461120605468750e+01 3.094493293762207031e+01 2.302509546279907227e-02 -5.699200034141540527e-01 -1.640684753656387329e-01 -3.775310143828392029e-02
1.513000000000000000e+03 7.616478729248046875e+01 2.932085227966308594e+01 1.326774433255195618e-02 -6.590465903282165527e-01 -1.937336623668670654e-01 -3.823257237672805786e-02
1.514000000000000000e+03 7.522920989990234375e+01 3.653136825561523438e+01 1.633547618985176086e-02 -6.530615687370300293e-01 -1.910178214311599731e-01 -2.182334288954734802e-02
1.515000000000000000e+03 7.673119354248046875e+01 3.583290481567382812e+01 1.437280606478452682e-02 -7.459833621978759766e-01 -2.194831669330596924e-01 4.094598349183797836e-03
1.516000000000000000e+03 7.628661346435546875e+01 3.416194152832031250e+01 1.532541029155254364e-02 -7.054046988487243652e-01 -2.070237845182418823e-01 -1.693215407431125641e-02
1.517000000000000000e+03 7.624639129638671875e+01 2.780865859985351562e+01 1.314101368188858032e-02 -6.506788134574890137e-01 -1.912613362073898315e-01 -4.542171955108642578e-02
1.518000000000000000e+03 7.663684844970703125e+01 2.071512222290039062e+01 1.160804927349090576e-02 -5.622287988662719727e-01 -1.651862114667892456e-01 -8.880262076854705811e-02
1.519000000000000000e+03 7.675038909912109375e+01 1.246899700164794922e+01 9.204540983773767948e-04 -3.364637196063995361e-01 -1.006629765033721924e-01 -1.244623810052871704e-01
1.520000000000000000e+03 7.684491729736328125e+01 2.646615743637084961e+00 -1.975503936409950256e-02 -6.915044039487838745e-02 -2.667164430022239685e-02 -6.214914843440055847e-02
1.521000000000000000e+03 7.834201812744140625e+01 -4.182723999023437500e+00 -3.730622818693518639e-03 9.923272766172885895e-03 1.857794937677681446e-03 -1.202664687298238277e-03
1.522000000000000000e+03 7.417186737060546875e+01 -8.593704223632812500e+00 -2.854364924132823944e-03 -7.853057235479354858e-03 -3.212226554751396179e-03 2.374038565903902054e-03
1.523000000000000000e+03 7.726546478271484375e+01 -5.587186336517333984e+00 -5.382221657782793045e-03 2.714928006753325462e-03 -8.001881069503724575e-04 1.681464840658009052e-03
1.524000000000000000e+03 7.856077575683593750e+01 3.658710861206054688e+01 3.715922823175787926e-03 -8.411330580711364746e-01 -2.512251436710357666e-01 9.016953408718109131e-03
1.525000000000000000e+03 7.718482208251953125e+01 -2.870676755905151367e+00 -1.047349907457828522e-02 -5.898348055779933929e-03 -4.911554045975208282e-03 -1.096414495259523392e-02
1.526000000000000000e+03 7.804823303222656250e+01 4.149481296539306641e+00 -8.987115696072578430e-03 -9.370383620262145996e-02 -3.080728463828563690e-02 -4.994772002100944519e-02
1.527000000000000000e+03 7.694542694091796875e+01 1.246519207954406738e+00 -1.521865278482437134e-02 -4.787861183285713196e-02 -1.892917789518833160e-02 -4.650126025080680847e-02
1.528000000000000000e+03 7.668898773193359375e+01 9.705248832702636719e+00 -6.361278705298900604e-03 -2.490945905447006226e-01 -7.663676142692565918e-02 -1.224160194396972656e-01
1.529000000000000000e+03 7.674260711669921875e+01 1.659241867065429688e+01 9.721884503960609436e-03 -4.612423479557037354e-01 -1.354561448097229004e-01 -1.102183535695075989e-01
1.530000000000000000e+03 7.791144561767578125e+01 2.359658432006835938e+01 6.293205078691244125e-03 -6.864003539085388184e-01 -2.040321379899978638e-01 -4.456660524010658264e-02
1.531000000000000000e+03 7.765368652343750000e+01 3.080235290527343750e+01 4.209268838167190552e-03 -7.653656005859375000e-01 -2.283468991518020630e-01 -1.857420243322849274e-02
1.532000000000000000e+03 7.633715820312500000e+01 2.634412574768066406e+01 1.269081886857748032e-02 -6.409450769424438477e-01 -1.884762793779373169e-01 -5.515877157449722290e-02
1.533000000000000000e+03 7.667855834960937500e+01 1.933907699584960938e+01 1.286207977682352066e-02 -5.318935513496398926e-01 -1.557094454765319824e-01 -9.547364711761474609e-02
1.534000000000000000e+03 7.659169769287109375e+01 6.883665561676025391e+00 -1.347348839044570923e-02 -1.669358611106872559e-01 -5.412280559539794922e-02 -1.075666174292564392e-01
1.535000000000000000e+03 7.703353118896484375e+01 -1.378753483295440674e-01 -1.598786935210227966e-02 -2.836962975561618805e-02 -1.330724917352199554e-02 -3.261188417673110962e-02
1.536000000000000000e+03 1.687286949157714844e+01 3.305352449417114258e+00 9.459916327614337206e-06 7.877582902438007295e-06 5.201249678066233173e-06 1.183421409223228693e-05
1.537000000000000000e+03 4.269173431396484375e+01 1.511246395111083984e+01 3.551062047481536865e-01 2.717522144317626953e+00 9.217885136604309082e-01 7.046100497245788574e-01
1.538000000000000000e+03 4.409701919555664062e+01 1.652288627624511719e+01 3.857064247131347656e-01 2.083449125289916992e+00 7.407466769218444824e-01 6.226181387901306152e-01
1.539000000000000000e+03 4.968703842163085938e+01 -2.750520515441894531e+01 4.298104718327522278e-02 4.510759934782981873e-02 2.642659470438957214e-02 -5.367974191904067993e-02
1.540000000000000000e+03 3.931170654296875000e+01 -2.433427047729492188e+01 2.322786450386047363e-01 7.441585063934326172e-01 2.929311394691467285e-01 -2.453385889530181885e-01
1.541000000000000000e+03 4.433751296997070312e+01 -2.558281898498535156e+01 1.473031342029571533e-01 1.884506344795227051e-01 1.007261276245117188e-01 -1.715931147336959839e-01
1.542000000000000000e+03 7.109735870361328125e+01 -2.283743667602539062e+01 -1.451252755941823125e-04 -7.580575038446113467e-05 -6.627930997638031840e-05 1.292159049626206979e-05
1.543000000000000000e+03 6.999106597900390625e+01 -2.121300888061523438e+01 8.675247227074578404e-05 3.101401671301573515e-05 3.532994742272421718e-05 7.969672878971323371e-05
1.544000000000000000e+03 5.009160232543945312e+01 -3.301780319213867188e+01 3.612599801272153854e-03 1.381269544363021851e-01 4.252186417579650879e-02 -8.107350766658782959e-02
1.545000000000000000e+03 5.197647857666015625e+01 -3.268954086303710938e+01 6.821080576628446579e-03 9.030932188034057617e-02 2.913912199437618256e-02 -5.184389278292655945e-02
1.546000000000000000e+03 1.419575786590576172e+01 3.050401687622070312e+01 3.811359056271612644e-04 -1.159310486400499940e-04 7.956145418575033545e-05 3.587600440368987620e-05
1.547000000000000000e+03 4.435924530029296875e+01 1.939243125915527344e+01 2.016332000494003296e-01 1.888732790946960449e+00 6.271098256111145020e-01 3.638792037963867188e-01
1.548000000000000000e+03 4.482223510742187500e+01 2.542354965209960938e+01 1.628371179103851318e-01 1.579965233802795410e+00 5.228407382965087891e-01 1.300969813019037247e-02
1.549000000000000000e+03 4.601601409912109375e+01 -2.535894393920898438e+01 1.045835465192794800e-01 9.321470558643341064e-02 5.933947488665580750e-02 -1.091693267226219177e-01
1.550000000000000000e+03 1.500532722473144531e+01 1.139491558074951172e+01 -6.364246655721217394e-05 1.694525280981906690e-06 -1.858438190538436174e-05 -4.859078671870520338e-06
1.551000000000000000e+03 7.256643676757812500e+01 -1.797614288330078125e+01 -2.751451975200325251e-04 -1.730726944515481591e-05 -8.773573790676891804e-05 1.114813931053504348e-04
1.552000000000000000e+03 4.310105895996093750e+01 2.086273002624511719e+01 6.213880702853202820e-02 2.013438463211059570e+00 6.226731538772583008e-01 1.759452372789382935e-01
1.553000000000000000e+03 4.474347686767578125e+01 2.380965232849121094e+01 1.356717646121978760e-01 1.650531649589538574e+00 5.358610153198242188e-01 9.757657349109649658e-02
1.554000000000000000e+03 4.627560043334960938e+01 2.371451187133789062e+01 2.085474133491516113e-01 1.428771495819091797e+00 4.911956787109375000e-01 1.478720754384994507e-01
1.555000000000000000e+03 4.324326705932617188e+01 2.378824234008789062e+01 5.986340343952178955e-02 1.854824066162109375e+00 5.744062662124633789e-01 4.528611525893211365e-02
1.556000000000000000e+03 5.684658050537109375e+00 3.369145202636718750e+01 1.785821514204144478e-04 1.098034845199435949e-04 8.651569078210741282e-05 2.821196176228113472e-06
1.557000000000000000e+03 2.346078872680664062e+00 3.565636062622070312e+01 -5.740483538829721510e-05 5.612771201413124800e-05 -3.831377455298934365e-07 2.142953417205717415e-05
1.558000000000000000e+03 3.409278631210327148e+00 3.107966995239257812e+01 -1.018217226373963058e-04 4.225187149131670594e-05 -1.787095607141964138e-05 -4.201494448352605104e-05
1.559000000000000000e+03 1.858561038970947266e+00 2.725040817260742188e+01 -7.211353658931329846e-05 1.146597423939965665e-05 -1.819426870497409254e-05 -1.045989029080374166e-05
1.560000000000000000e+03 3.072745800018310547e+00 2.427993202209472656e+01 8.070198236964643002e-05 1.376035015709931031e-05 2.833869802998378873e-05 -3.044817958652856760e-06
1.561000000000000000e+03 3.686763763427734375e+00 3.252101135253906250e+01 1.351449755020439625e-04 5.322822107700631022e-05 5.651195897371508181e-05 -2.201483403041493148e-05
1.562000000000000000e+03 3.934386253356933594e+00 3.400471878051757812e+01 -4.660830381908454001e-05 -7.831696711946278811e-05 -3.747758091776631773e-05 -8.651507960166782141e-05
1.563000000000000000e+03 5.774175167083740234e+00 3.014291381835937500e+01 -4.222568531986325979e-05 -2.003138797590509057e-05 -1.867712126113474369e-05 -5.489181057782843709e-05
1.564000000000000000e+03 3.610916852951049805e+00 -3.578168106079101562e+01 -2.278074063360691071e-02 4.665871262550354004e-01 1.331419199705123901e-01 -2.495806664228439331e-02
1.565000000000000000e+03 2.011121988296508789e+00 -2.896422958374023438e+01 -6.227365508675575256e-02 5.161812901496887207e-01 1.361722797155380249e-01 1.611574143171310425e-01
1.566000000000000000e+03 3.177780866622924805e+00 -3.031819725036621094e+01 -9.550635516643524170e-02 4.662195444107055664e-01 1.112139597535133362e-01 1.079050526022911072e-01
1.567000000000000000e+03 2.135856628417968750e+00 -3.449702835083007812e+01 -1.662283390760421753e-02 6.138581633567810059e-01 1.791705936193466187e-01 -2.266998402774333954e-02
1.568000000000000000e+03 5.278564929962158203e+00 -3.426755523681640625e+01 -5.549815297126770020e-02 2.847006618976593018e-01 6.876075267791748047e-02 -1.334942784160375595e-02
1.569000000000000000e+03 1.852578878402709961e+00 2.168908119201660156e+01 -6.584411312360316515e-05 -7.365876172116259113e-06 -2.196299647039268166e-05 5.336903541319770738e-07
1.570000000000000000e+03 1.965991258621215820e+00 -3.037462425231933594e+01 -5.727060139179229736e-02 5.818635821342468262e-01 1.573778986930847168e-01 7.854048162698745728e-02
1.571000000000000000e+03 3.060736179351806641e+00 1.730817604064941406e+01 -6.781305273761972785e-05 -3.987884610978653654e-06 -2.154028152290266007e-05 -3.470678166195284575e-06
1.572000000000000000e+03 2.914342403411865234e+00 1.167579936981201172e+01 -5.731358032790012658e-05 -1.383286189593491144e-06 -1.760905979608651251e-05 2.859445658032200299e-06
1.573000000000000000e+03 2.898213386535644531e+00 -1.093197441101074219e+01 -1.797474175691604614e-02 -1.734387502074241638e-02 -1.059558521956205368e-02 -7.739263027906417847e-02
1.574000000000000000e+03 2.401163578033447266e+00 4.775918006896972656e+00 2.745889651123434305e-05 5.153091478860005736e-06 9.783596397028304636e-06 -1.410678305546753109e-05
1.575000000000000000e+03 2.733216047286987305e+00 8.911330223083496094e+00 -4.898793122265487909e-05 -2.709863792915712111e-06 -1.550933848193380982e-05 6.828250661783386022e-06
1.576000000000000000e+03 1.800360202789306641e+00 1.465533256530761719e+01 6.056157872080802917e-05 1.728891334096260834e-06 1.868714025476947427e-05 -1.557313112243718933e-06
1.577000000000000000e+03 3.040108680725097656e+00 1.589990806579589844e+01 6.564297655131667852e-05 2.434629550407407805e-06 2.042328196694143116e-05 3.134726966891321354e-06
1.578000000000000000e+03 1.867245078086853027e+00 -2.355745315551757812e+01 1.453776471316814423e-02 1.012421548366546631e-01 3.473397344350814819e-02 2.385262399911880493e-01
1.579000000000000000e+03 1.861437201499938965e+00 -1.500160884857177734e+01 1.785622909665107727e-02 -1.900390684604644775e-01 -5.165484920144081116e-02 -7.655616104602813721e-02
1.580000000000000000e+03 1.661811590194702148e+00 -8.176418304443359375e+00 -8.430666290223598480e-03 -6.646240502595901489e-02 -2.246792055666446686e-02 -4.051608592271804810e-02
1.581000000000000000e+03 5.094025611877441406e+00 -4.033226013183593750e+00 -1.694453507661819458e-02 1.334570907056331635e-02 -1.079647918231785297e-03 -1.933428645133972168e-02
1.582000000000000000e+03 2.826823711395263672e+00 1.028954219818115234e+01 5.250770118436776102e-05 1.839594148123069317e-07 1.580749813001602888e-05 -4.240743692207615823e-06
1.583000000000000000e+03 2.817606210708618164e+00 -7.195076942443847656e+00 -1.602147519588470459e-02 -1.779006421566009521e-02 -1.014346163719892502e-02 -4.350933432579040527e-02
1.584000000000000000e+03 2.303537845611572266e+00 -4.642784118652343750e+00 -8.608004078269004822e-03 -2.068750001490116119e-02 -8.788650855422019958e-03 -2.372729964554309845e-02
1.585000000000000000e+03 1.964636206626892090e+00 -1.784951972961425781e+01 4.822403937578201294e-02 -1.910953372716903687e-01 -4.286139085888862610e-02 -1.276500988751649857e-02
1.586000000000000000e+03 2.749233961105346680e+00 -2.605281639099121094e+01 -4.407497867941856384e-02 3.569590449333190918e-01 9.386522322893142700e-02 3.027050197124481201e-01
1.587000000000000000e+03 1.727006673812866211e+00 -2.615822792053222656e+01 -2.473172172904014587e-02 3.274176418781280518e-01 9.080577641725540161e-02 2.421768158674240112e-01
1.588000000000000000e+03 3.090966463088989258e+00 2.152065277099609375e+01 7.243800791911780834e-05 9.995505024562589824e-06 2.473005406500305980e-05 3.335966312079108320e-06
1.589000000000000000e+03 2.133747816085815430e+00 -3.582580566406250000e+01 -1.137230079621076584e-02 6.013212800025939941e-01 1.769846826791763306e-01 -4.510883614420890808e-02
1.590000000000000000e+03 3.335248231887817383e+00 -3.708896255493164062e+01 -1.502042077481746674e-02 5.027135610580444336e-01 1.463079452514648438e-01 -5.356040969491004944e-02
1.591000000000000000e+03 2.827767372131347656e+00 -9.635080337524414062e+00 -2.370930649340152740e-02 -2.317534573376178741e-02 -1.406539604067802429e-02 -6.630887091159820557e-02
1.592000000000000000e+03 2.788346529006958008e+00 -8.378094673156738281e+00 -1.445597037672996521e-02 -2.188216522336006165e-02 -1.090144086629152298e-02 -5.045481771230697632e-02
1.593000000000000000e+03 2.977773189544677734e+00 1.306951522827148438e+01 6.000554640195332468e-05 2.459531287968275137e-06 1.873952351161278784e-05 -9.749540907932896516e-08
1.594000000000000000e+03 3.015521526336669922e+00 1.448279190063476562e+01 -6.281810783548280597e-05 -3.478153757896507159e-06 -1.988887925108429044e-05 1.252486043767930823e-07
1.595000000000000000e+03 3.090932846069335938e+00 2.012751770019531250e+01 -6.754777132300660014e-05 -7.810184797563124448e-06 -2.260738619952462614e-05 -5.888905434403568506e-06
1.596000000000000000e+03 3.083276271820068359e+00 2.290275955200195312e+01 -7.007840758888050914e-05 -8.072863238339778036e-06 -2.344538188481237739e-05 -8.061977496254257858e-06
1.597000000000000000e+03 3.079681873321533203e+00 1.871985816955566406e+01 6.833369843661785126e-05 5.274714112601941451e-06 2.208252226409967989e-05 6.273253347899299115e-06
1.598000000000000000e+03 3.557636976242065430e+00 -3.296964645385742188e+01 -6.005506217479705811e-02 4.496102035045623779e-01 1.168665438890457153e-01 2.389197470620274544e-03
1.599000000000000000e+03 4.671563625335693359e+00 -3.127072334289550781e+01 -1.537263244390487671e-01 3.206452429294586182e-01 5.007567629218101501e-02 6.053670123219490051e-02
1.600000000000000000e+03 4.505789279937744141e+00 -2.393753433227539062e+01 6.895275413990020752e-02 6.112973690032958984e-01 2.040750384330749512e-01 3.379344940185546875e-01
1.601000000000000000e+03 3.478048563003540039e+00 -2.061902618408203125e+01 1.607028692960739136e-01 3.336358368396759033e-01 1.483016014099121094e-01 2.162379622459411621e-01
1.602000000000000000e+03 3.227873325347900391e+00 -1.643603515625000000e+01 7.524722814559936523e-02 6.590412557125091553e-02 4.234540462493896484e-02 -3.883716464042663574e-02
1.603000000000000000e+03 4.571046829223632812e+00 -1.818309020996093750e+01 2.042861133813858032e-01 3.733476698398590088e-01 1.732901334762573242e-01 7.880815118551254272e-02
1.604000000000000000e+03 3.020715475082397461e+00 -1.361249446868896484e+01 2.920864848420023918e-03 -1.830943510867655277e-03 3.269764420110732317e-04 -9.217473119497299194e-02
1.605000000000000000e+03 3.717085647583007812e+01 -2.522401237487792969e+01 1.877079755067825317e-01 1.192583680152893066e+00 4.140875041484832764e-01 -1.328362524509429932e-01
1.606000000000000000e+03 3.602165222167968750e+01 -2.723372650146484375e+01 5.504833534359931946e-02 1.082692146301269531e+00 3.413221240043640137e-01 2.580752596259117126e-02
1.607000000000000000e+03 4.328826904296875000e+01 1.055725288391113281e+01 1.197876572608947754e+00 2.356504440307617188e+00 1.066314339637756348e+00 1.522886753082275391e+00
1.608000000000000000e+03 7.141946411132812500e+01 -1.914530754089355469e+01 -4.486769103095866740e-05 -1.497421035310253501e-04 -5.838293873239308596e-05 -4.323729808675125241e-05
1.609000000000000000e+03 6.807641601562500000e+01 -9.382975578308105469e+00 -1.132249482907354832e-03 -2.095783129334449768e-03 -9.684097603894770145e-04 -1.177042629569768906e-02
1.610000000000000000e+03 7.101852416992187500e+01 -1.021305751800537109e+01 4.867957439273595810e-03 -6.142126396298408508e-03 -3.822507278528064489e-04 -2.015747362747788429e-03
1.611000000000000000e+03 4.075302505493164062e+01 -1.272552204132080078e+01 7.293254602700471878e-03 3.089902698993682861e-01 9.488505870103836060e-02 -1.166122332215309143e-01
1.612000000000000000e+03 4.421007156372070312e+01 3.142168807983398438e+01 1.224370524287223816e-01 1.283380985260009766e+00 4.217454195022583008e-01 -2.954413415864109993e-03
1.613000000000000000e+03 7.115359497070312500e+01 -2.150500297546386719e+01 1.029071354423649609e-04 -4.625530436896951869e-06 2.948448127426672727e-05 2.778959787974599749e-05
1.614000000000000000e+03 4.316289901733398438e+01 -2.239647102355957031e+01 1.546950638294219971e-01 1.829904615879058838e-01 1.013056635856628418e-01 -1.259415298700332642e-01
1.615000000000000000e+03 4.394223022460937500e+01 -2.349123764038085938e+01 1.423381119966506958e-01 1.587445139884948730e-01 9.032478928565979004e-02 -1.334833800792694092e-01
1.616000000000000000e+03 1.127531051635742188e+01 -1.408194541931152344e+01 1.551745384931564331e-01 1.471637487411499023e-01 9.070148319005966187e-02 3.812406957149505615e-01
1.617000000000000000e+03 8.989120483398437500e+00 -1.407723140716552734e+01 1.161154732108116150e-01 3.736398816108703613e-01 1.469265967607498169e-01 2.475882321596145630e-01
1.618000000000000000e+03 1.548161220550537109e+01 1.015212249755859375e+01 5.892728950129821897e-05 -1.450010472581197973e-06 1.724318462947849184e-05 5.054158009443199262e-06
1.619000000000000000e+03 1.620880889892578125e+01 -3.475210189819335938e+01 -1.861566007137298584e-01 -6.115916743874549866e-02 -7.419472932815551758e-02 7.297980785369873047e-02
1.620000000000000000e+03 5.278169631958007812e+01 -3.448345947265625000e+01 -3.706474788486957550e-03 8.895151317119598389e-02 2.557351253926753998e-02 -4.630836099386215210e-02
1.621000000000000000e+03 3.517879486083984375e+01 -3.284297180175781250e+01 -1.473855227231979370e-01 5.472572445869445801e-01 1.199615150690078735e-01 4.776892438530921936e-02
1.622000000000000000e+03 1.783834266662597656e+01 -3.516402053833007812e+01 -1.626798808574676514e-01 -5.880637466907501221e-02 -6.644587963819503784e-02 5.928771942853927612e-02
1.623000000000000000e+03 5.151101303100585938e+01 1.399386048316955566e+00 -1.892915487289428711e+00 1.780480891466140747e-01 -5.144602060317993164e-01 -3.874206542968750000e-02
1.624000000000000000e+03 5.100371551513671875e+01 4.243154048919677734e+00 -1.325594663619995117e+00 -2.392627000808715820e-01 -4.694572091102600098e-01 -9.748116135597229004e-01
1.625000000000000000e+03 1.453072452545166016e+01 1.266671371459960938e+01 6.767536251572892070e-05 -1.788694817150826566e-06 1.976599924091715366e-05 3.682495389512041584e-06
1.626000000000000000e+03 2.808181762695312500e+01 -1.543139743804931641e+01 -7.751676440238952637e-01 2.166210860013961792e-01 -1.675639748573303223e-01 -1.658359169960021973e-01
1.627000000000000000e+03 3.942762756347656250e+01 3.577251672744750977e+00 2.082764625549316406e+00 4.850594997406005859e+00 2.080007791519165039e+00 2.691025972366333008e+00
1.628000000000000000e+03 1.611035537719726562e+01 3.910737276077270508e+00 3.156162620143732056e-06 -2.589087216620100662e-06 1.701226182149184751e-07 -1.631864870432764292e-05
1.629000000000000000e+03 1.734628486633300781e+01 2.554732084274291992e+00 -1.798637276806402951e-05 -1.918414818646851927e-05 -1.115115628635976464e-05 -1.121472723752958700e-05
1.630000000000000000e+03 8.656594276428222656e+00 -3.322066497802734375e+01 -1.480884253978729248e-01 -4.691740870475769043e-02 -5.850175023078918457e-02 4.802307859063148499e-02
1.631000000000000000e+03 1.384092712402343750e+01 2.879421424865722656e+01 -8.133548544719815254e-05 2.168366336263716221e-05 -1.789554517017677426e-05 7.324427861021831632e-05
1.632000000000000000e+03 1.637615776062011719e+01 7.718252182006835938e+00 4.857101157540455461e-05 1.423528715349675622e-06 1.499836253060493618e-05 1.527839117443363648e-06
1.633000000000000000e+03 1.675935554504394531e+01 6.574387073516845703e+00 -4.803387128049507737e-05 2.959145831482601352e-06 -1.352241724816849455e-05 1.527412791801907588e-06
1.634000000000000000e+03 4.765188980102539062e+01 -2.748421287536621094e+01 7.119402289390563965e-02 8.847871422767639160e-02 4.790182411670684814e-02 -9.565193951129913330e-02
1.635000000000000000e+03 4.856026077270507812e+01 -2.859950637817382812e+01 6.101835146546363831e-02 8.721449971199035645e-02 4.446985572576522827e-02 -8.841142803430557251e-02
1.636000000000000000e+03 1.174431800842285156e+01 -3.461931991577148438e+01 -1.231777891516685486e-01 -1.018808037042617798e-01 -6.751757860183715820e-02 9.244632720947265625e-02
1.637000000000000000e+03 4.248355865478515625e+01 -2.147890853881835938e+01 1.277063488960266113e-01 2.703003585338592529e-01 1.194020137190818787e-01 -1.128242313861846924e-01
1.638000000000000000e+03 1.369510936737060547e+01 1.534407043457031250e+01 7.424937939504161477e-05 6.208804848029103596e-07 2.246107760583981872e-05 5.077295554656302556e-06
1.639000000000000000e+03 2.142798995971679688e+01 4.134178543090820312e+01 1.663891482166945934e-03 -1.577755669131875038e-03 2.584073808975517750e-05 9.127557859756052494e-04
1.640000000000000000e+03 1.961527252197265625e+01 3.924678039550781250e+01 -2.137854229658842087e-03 -1.130091608501970768e-03 -9.803837165236473083e-04 4.392908595036715269e-04
1.641000000000000000e+03 4.116247558593750000e+01 7.957291603088378906e+00 1.666970610618591309e+00 4.401366233825683594e+00 1.820500969886779785e+00 2.431915283203125000e+00
1.642000000000000000e+03 4.286105728149414062e+01 9.084300041198730469e+00 1.562338113784790039e+00 2.442841291427612305e+00 1.201553821563720703e+00 1.790404915809631348e+00
1.643000000000000000e+03 3.462744140625000000e+01 -1.051929235458374023e+00 2.490305662155151367e+00 2.701861143112182617e+00 1.557650089263916016e+00 2.232826948165893555e+00
1.644000000000000000e+03 3.289515304565429688e+01 -1.853879213333129883e+00 2.130074739456176758e+00 1.688188672065734863e+00 1.145479083061218262e+00 2.216683626174926758e+00
1.645000000000000000e+03 6.952877807617187500e+01 -3.713949584960937500e+01 8.490853942930698395e-04 -9.442337322980165482e-04 -2.854450576705858111e-05 2.869764342904090881e-03
1.646000000000000000e+03 3.226138305664062500e+01 4.124340438842773438e+01 3.747561946511268616e-02 6.763636320829391479e-02 3.153359517455101013e-02 -5.458849947899580002e-03
1.647000000000000000e+03 4.281767654418945312e+01 1.446002364158630371e+00 -2.116678237915039062e+00 -1.531995892524719238e+00 -1.094602227210998535e+00 -5.848593115806579590e-01
1.648000000000000000e+03 5.746436595916748047e+00 -1.876388931274414062e+01 3.311673402786254883e-01 8.157392144203186035e-01 3.440719842910766602e-01 3.027990162372589111e-01
1.649000000000000000e+03 6.182179450988769531e+00 -1.768351554870605469e+01 3.251130580902099609e-01 6.745458841323852539e-01 2.998977005481719971e-01 2.059548646211624146e-01
1.650000000000000000e+03 4.230856323242187500e+01 7.719715595245361328e+00 1.845221638679504395e+00 2.533883094787597656e+00 1.313731431961059570e+00 2.011778116226196289e+00
1.651000000000000000e+03 1.302327919006347656e+01 1.968871116638183594e+01 -9.660111390985548496e-05 6.123354523879243061e-06 -2.714332731557078660e-05 -1.052660354616818950e-05
1.652000000000000000e+03 1.316658020019531250e+01 1.821506500244140625e+01 8.723227074369788170e-05 -3.133424797852057964e-06 2.522965405660215765e-05 8.744096703594550490e-06
1.653000000000000000e+03 4.430652999877929688e+01 2.662044286727905273e+00 -1.797702193260192871e+00 -2.193302869796752930e+00 -1.197301506996154785e+00 -4.446231722831726074e-01
1.654000000000000000e+03 4.292577362060546875e+01 3.863110065460205078e+00 5.951944589614868164e-01 -3.330999016761779785e-01 7.862836867570877075e-02 8.235647082328796387e-01
1.655000000000000000e+03 6.862268066406250000e+01 -2.841530227661132812e+01 -1.011269865557551384e-03 1.300041330978274345e-04 -2.643796906340867281e-04 -4.962112288922071457e-04
1.656000000000000000e+03 7.036436462402343750e+01 -2.734013938903808594e+01 -2.758320479188114405e-04 -2.456662514305207878e-06 -8.348660776391625404e-05 -5.032430271967314184e-05
1.657000000000000000e+03 4.394458007812500000e+01 1.506413459777832031e+01 5.177185535430908203e-01 2.184053182601928711e+00 8.105315566062927246e-01 7.609573006629943848e-01
1.658000000000000000e+03 4.554237747192382812e+01 1.790775299072265625e+01 3.912981748580932617e-01 1.652022719383239746e+00 6.129962801933288574e-01 5.154561400413513184e-01
1.659000000000000000e+03 4.418770599365234375e+01 2.901383209228515625e+01 2.189756929874420166e-01 1.452663064002990723e+00 5.014916658401489258e-01 -4.621623083949089050e-02
1.660000000000000000e+03 1.432018947601318359e+01 3.221474456787109375e+01 -1.033571097650565207e-04 -5.294182483339682221e-05 -4.688967965194024146e-05 -1.102567839552648365e-04
1.661000000000000000e+03 1.578114414215087891e+01 3.265558242797851562e+01 5.721957422792911530e-04 -1.317812857450917363e-04 1.321243325946852565e-04 1.679661800153553486e-04
1.662000000000000000e+03 3.922121810913085938e+01 -1.798015475273132324e+00 -1.751901507377624512e+00 1.437383890151977539e+00 -9.435528516769409180e-02 -1.398444533348083496e+00
1.663000000000000000e+03 1.404080867767333984e+01 -1.268745422363281250e+01 1.791394203901290894e-01 -1.284313946962356567e-01 1.521240919828414917e-02 3.583779335021972656e-01
1.664000000000000000e+03 1.571821403503417969e+01 -1.428692150115966797e+01 3.524250164628028870e-02 -1.712777465581893921e-01 -4.081057384610176086e-02 3.403891623020172119e-01
1.665000000000000000e+03 4.378913879394531250e+00 -1.931434822082519531e+01 2.127705663442611694e-01 4.652097821235656738e-01 2.033941000699996948e-01 2.055925130844116211e-01
1.666000000000000000e+03 4.618436813354492188e+00 -2.029692268371582031e+01 2.122645825147628784e-01 5.913311839103698730e-01 2.410787194967269897e-01 2.347139716148376465e-01
1.667000000000000000e+03 4.022067260742187500e+01 3.858794784545898438e+01 -1.340306252241134644e-01 7.531090378761291504e-01 1.857235133647918701e-01 -1.216163858771324158e-01
1.668000000000000000e+03 6.390124130249023438e+01 -1.144342541694641113e+00 -3.310241699218750000e-01 6.219409406185150146e-02 -8.064902573823928833e-02 -4.183826595544815063e-02
1.669000000000000000e+03 3.619275665283203125e+01 -2.485016059875488281e+01 2.118282169103622437e-01 1.383490204811096191e+00 4.785955250263214111e-01 2.431222796440124512e-02
1.670000000000000000e+03 4.274509429931640625e+01 -2.428752899169921875e+01 1.837432980537414551e-01 2.880863249301910400e-01 1.415488868951797485e-01 -1.872133463621139526e-01
1.671000000000000000e+03 1.327251052856445312e+01 2.565225028991699219e+01 -1.271812943741679192e-04 3.332448977744206786e-05 -2.815703919623047113e-05 2.696104456845205277e-05
1.672000000000000000e+03 6.367737197875976562e+01 -3.586663436889648438e+01 -2.938240766525268555e-03 7.599478703923523426e-04 -6.534878630191087723e-04 5.611255764961242676e-03
1.673000000000000000e+03 6.623361968994140625e+01 -3.581758880615234375e+01 -8.360561332665383816e-04 2.361899940297007561e-03 4.577531653922051191e-04 6.013194099068641663e-03
1.674000000000000000e+03 3.897693634033203125e+01 1.488059163093566895e+00 9.592354297637939453e-01 3.782609701156616211e+00 1.422553539276123047e+00 1.520753383636474609e+00
1.675000000000000000e+03 4.157287979125976562e+01 3.719813823699951172e+00 1.020567893981933594e+00 1.609106302261352539e+00 7.889022827148437500e-01 1.494789838790893555e+00
1.676000000000000000e+03 5.191152572631835938e+01 2.645335674285888672e+00 -1.704105257987976074e+00 7.145193964242935181e-02 -4.897959828376770020e-01 -4.478201270103454590e-01
1.677000000000000000e+03 3.727568817138671875e+01 -3.511365413665771484e+00 -1.631061673164367676e+00 1.482380151748657227e+00 -4.460444673895835876e-02 -7.595192790031433105e-01
1.678000000000000000e+03 1.413193130493164062e+01 2.259034919738769531e+01 1.031487481668591499e-04 -7.855610419937875122e-06 2.858794141502585262e-05 1.850928356361691840e-06
1.679000000000000000e+03 3.174032020568847656e+01 -3.209128570556640625e+01 -9.492290765047073364e-02 3.294617235660552979e-01 7.036164402961730957e-02 1.601320803165435791e-01
1.680000000000000000e+03 3.380724334716796875e+01 -3.353496551513671875e+01 -1.850532889366149902e-01 4.936441481113433838e-01 9.257726371288299561e-02 7.587066292762756348e-02
1.681000000000000000e+03 5.726131057739257812e+01 1.242036223411560059e+00 -8.726513981819152832e-01 1.144386405940167606e-04 -2.617610692977905273e-01 -1.609836220741271973e-01
1.682000000000000000e+03 7.076401519775390625e+01 -2.581660842895507812e+01 -6.016739644110202789e-04 -8.454915223410353065e-05 -2.058669342659413815e-04 -1.964404073078185320e-04
1.683000000000000000e+03 3.982154083251953125e+01 3.412229537963867188e+01 6.902161240577697754e-02 8.826702833175659180e-01 2.855075597763061523e-01 -2.964327335357666016e-01
1.684000000000000000e+03 6.931765747070312500e+01 -3.049554252624511719e+01 -2.319698454812169075e-03 1.438787207007408142e-03 -2.642733743414282799e-04 1.018844661302864552e-03
1.685000000000000000e+03 4.973561286926269531e+00 -2.666219711303710938e+01 -1.517846435308456421e-01 4.393877685070037842e-01 8.628093451261520386e-02 2.844093441963195801e-01
1.686000000000000000e+03 3.641154861450195312e+01 -2.864465904235839844e+01 -1.786900684237480164e-02 8.905173540115356445e-01 2.617945075035095215e-01 -1.922590471804141998e-02
1.687000000000000000e+03 3.907033157348632812e+01 5.033428072929382324e-01 -2.428616769611835480e-02 2.805862426757812500e+00 8.344728350639343262e-01 4.472116529941558838e-01
1.688000000000000000e+03 4.060713958740234375e+01 -2.073157691955566406e+01 1.814272999763488770e-01 5.347155332565307617e-01 2.148428410291671753e-01 -1.109560057520866394e-01
1.689000000000000000e+03 6.008703231811523438e+01 -3.816670608520507812e+01 9.059308096766471863e-03 1.192818768322467804e-02 6.296249106526374817e-03 -2.559070009738206863e-03
1.690000000000000000e+03 4.060516357421875000e+01 -1.639007568359375000e+01 -5.711443722248077393e-02 5.213731527328491211e-01 1.392776072025299072e-01 -1.178731024265289307e-02
1.691000000000000000e+03 3.967127227783203125e+01 -1.500458812713623047e+01 -7.398413121700286865e-02 5.571309924125671387e-01 1.449440568685531616e-01 -1.143892332911491394e-01
1.692000000000000000e+03 3.195112228393554688e+01 -3.602194595336914062e+01 -1.613138914108276367e-01 3.233344256877899170e-01 4.860616102814674377e-02 8.718983083963394165e-02
1.693000000000000000e+03 4.921660995483398438e+01 3.450411558151245117e+00 -2.082978010177612305e+00 -5.712447166442871094e-01 -7.962667942047119141e-01 -1.334108710289001465e+00
1.694000000000000000e+03 4.877854919433593750e+01 2.227937221527099609e+00 -3.341544628143310547e+00 -1.551474332809448242e-01 -1.049007654190063477e+00 -7.494378089904785156e-01
1.695000000000000000e+03 3.193987274169921875e+01 -3.380806350708007812e+01 -1.372035443782806396e-01 3.410546183586120605e-01 6.115531921386718750e-02 1.312368810176849365e-01
1.696000000000000000e+03 6.262757492065429688e+01 -6.188342571258544922e-01 -4.318989813327789307e-01 3.640892356634140015e-02 -1.186470165848731995e-01 -7.668451219797134399e-02
1.697000000000000000e+03 3.112472534179687500e+01 -1.607275581359863281e+01 -6.737024188041687012e-01 1.225991621613502502e-01 -1.653309762477874756e-01 -5.689408779144287109e-01
1.698000000000000000e+03 4.216415405273437500e+01 -8.456729054450988770e-01 -3.296916007995605469e+00 -2.113452196121215820e+00 -1.623110532760620117e+00 -2.491727352142333984e+00
1.699000000000000000e+03 5.282267379760742188e+01 1.031639337539672852e+00 -1.534152388572692871e+00 8.720865845680236816e-02 -4.340831041336059570e-01 3.278768155723810196e-03
1.700000000000000000e+03 6.421644592285156250e+01 9.446606785058975220e-02 -3.542464375495910645e-01 4.679070040583610535e-02 -9.223672002553939819e-02 -1.238578781485557556e-01
1.701000000000000000e+03 4.293891143798828125e+01 3.199875640869140625e+01 1.110397130250930786e-01 1.318162798881530762e+00 4.287607669830322266e-01 -9.476810693740844727e-02
1.702000000000000000e+03 4.308087158203125000e+01 3.385139465332031250e+01 -1.659553870558738708e-02 1.176474452018737793e+00 3.479636609554290771e-01 -6.177599728107452393e-02
1.703000000000000000e+03 6.983850860595703125e+01 -2.885077476501464844e+01 -2.523854840546846390e-03 4.078918136656284332e-04 -6.347888847813010216e-04 -4.562634858302772045e-04
1.704000000000000000e+03 4.096191406250000000e+01 -1.937060928344726562e+01 7.516237348318099976e-02 4.669614434242248535e-01 1.626371443271636963e-01 -4.042391851544380188e-02
1.705000000000000000e+03 4.071765899658203125e+01 -1.559005618095397949e+00 -2.382948160171508789e+00 1.193257495760917664e-01 -6.790867447853088379e-01 -2.007343530654907227e+00
1.706000000000000000e+03 7.349057006835937500e+01 -2.470266914367675781e+01 2.028073795372620225e-04 -1.178126331069506705e-05 5.730783595936372876e-05 2.326929243281483650e-04
1.707000000000000000e+03 6.629327774047851562e+00 -1.513054466247558594e+01 1.428255140781402588e-01 5.398043990135192871e-01 2.047889828681945801e-01 9.898501634597778320e-02
1.708000000000000000e+03 3.174432182312011719e+01 -1.065267848968505859e+01 3.490119576454162598e-01 6.913933157920837402e-01 3.121215999126434326e-01 -8.425566554069519043e-01
1.709000000000000000e+03 2.958388710021972656e+01 -1.592600154876708984e+01 -8.344728946685791016e-01 9.644653648138046265e-02 -2.214079052209854126e-01 -3.464135825634002686e-01
1.710000000000000000e+03 3.884327697753906250e+01 -1.974240875244140625e+01 1.939108371734619141e-01 8.246123194694519043e-01 3.055569529533386230e-01 -5.712270736694335938e-02
1.711000000000000000e+03 3.731844329833984375e+01 -2.713295745849609375e+01 8.435450494289398193e-02 9.519824385643005371e-01 3.109010756015777588e-01 -1.487258076667785645e-01
1.712000000000000000e+03 1.238007450103759766e+01 -1.394691658020019531e+01 1.515597701072692871e-01 6.786454934626817703e-03 4.750386625528335571e-02 3.508054316043853760e-01
1.713000000000000000e+03 4.575592422485351562e+01 2.761609315872192383e+00 -1.899196028709411621e+00 -2.792945146560668945e+00 -1.407642364501953125e+00 -1.271217703819274902e+00
1.714000000000000000e+03 4.166581726074218750e+01 2.676937580108642578e+00 -2.228136807680130005e-01 6.973262429237365723e-01 1.423537731170654297e-01 8.265191316604614258e-01
1.715000000000000000e+03 1.887292289733886719e+01 3.423748779296875000e+01 5.828812136314809322e-04 -3.841950092464685440e-05 1.633385109016671777e-04 5.195271223783493042e-04
1.716000000000000000e+03 1.769033622741699219e+01 3.585596084594726562e+01 -5.772274453192949295e-04 -1.172145057353191078e-04 -2.083325816784054041e-04 2.351779839955270290e-04
1.717000000000000000e+03 7.218611145019531250e+01 -5.594926357269287109e+00 -2.646916732192039490e-02 -1.220437604933977127e-02 -1.160206273198127747e-02 -3.148840041831135750e-03
1.718000000000000000e+03 3.977575683593750000e+01 -1.388107204437255859e+01 -2.925181388854980469e-02 4.471149444580078125e-01 1.253589391708374023e-01 -1.510514616966247559e-01
1.719000000000000000e+03 5.455940628051757812e+01 1.932431101799011230e+00 -1.194427609443664551e+00 6.259931623935699463e-02 -3.395484685897827148e-01 -2.035237252712249756e-01
1.720000000000000000e+03 1.296015930175781250e+01 2.116566276550292969e+01 1.133408004534430802e-04 -8.426234671787824482e-06 3.147437018924392760e-05 1.178530783363385126e-05
1.721000000000000000e+03 5.451117515563964844e+00 -1.497634315490722656e+01 6.748961657285690308e-02 3.752101659774780273e-01 1.328099370002746582e-01 -1.747489161789417267e-02
1.722000000000000000e+03 6.486802577972412109e+00 -3.225943756103515625e+01 -1.623955965042114258e-01 1.391863077878952026e-01 -6.962784100323915482e-03 2.846665866672992706e-02
1.723000000000000000e+03 1.013412857055664062e+01 -3.271077728271484375e+01 -2.263261377811431885e-01 -1.573636829853057861e-01 -1.151069477200508118e-01 1.266942322254180908e-01
1.724000000000000000e+03 5.383761978149414062e+01 -3.675332260131835938e+01 -1.753665739670395851e-03 8.788982033729553223e-02 2.584084682166576385e-02 -2.912728860974311829e-02
1.725000000000000000e+03 2.812490272521972656e+01 -6.246026515960693359e+00 1.187976598739624023e+00 4.876459598541259766e+00 1.819330811500549316e+00 -5.316336154937744141e-01
1.726000000000000000e+03 2.744690895080566406e+01 -6.495211601257324219e+00 1.397142529487609863e+00 4.296809673309326172e+00 1.708185553550720215e+00 7.912813425064086914e-01
1.727000000000000000e+03 2.695161628723144531e+01 -6.468938827514648438e+00 1.888687252998352051e+00 3.470230102539062500e+00 1.607675194740295410e+00 1.377757310867309570e+00
1.728000000000000000e+03 2.553238296508789062e+01 -5.089683532714843750e+00 3.733629465103149414e+00 -1.687533594667911530e-02 1.115026235580444336e+00 3.063664734363555908e-01
1.729000000000000000e+03 2.591487121582031250e+01 -3.879843235015869141e+00 3.003122329711914062e+00 -4.999767839908599854e-01 7.509436607360839844e-01 -1.748897194862365723e+00
1.730000000000000000e+03 2.603614997863769531e+01 -3.337060451507568359e+00 9.656938314437866211e-01 -5.343058705329895020e-01 1.294163912534713745e-01 -2.138764858245849609e+00
1.731000000000000000e+03 2.988570976257324219e+01 -7.031946182250976562e+00 1.496523976325988770e+00 1.222393989562988281e+00 8.156753778457641602e-01 -1.128891825675964355e+00
1.732000000000000000e+03 2.865776824951171875e+01 -2.621081113815307617e+00 -4.137331962585449219e+00 2.374983310699462891e+00 -5.287046432495117188e-01 3.762637615203857422e+00
1.733000000000000000e+03 3.081995964050292969e+01 -9.139155387878417969e+00 7.292220592498779297e-01 9.042192697525024414e-01 4.900324046611785889e-01 -8.917537927627563477e-01
1.734000000000000000e+03 3.048842811584472656e+01 -7.845305442810058594e+00 1.175999999046325684e+00 9.436018466949462891e-01 6.358805298805236816e-01 -9.806491136550903320e-01
1.735000000000000000e+03 3.018751335144042969e+01 -7.688762664794921875e+00 1.216868758201599121e+00 1.092654824256896973e+00 6.928570866584777832e-01 -1.027219891548156738e+00
1.736000000000000000e+03 2.629432868957519531e+01 -2.843180418014526367e+00 -2.570825815200805664e+00 -3.725957870483398438e-01 -8.830264210700988770e-01 -2.084325790405273438e+00
1.737000000000000000e+03 3.230790710449218750e+01 -9.651292800903320312e+00 5.829234719276428223e-01 5.787767767906188965e-01 3.485100567340850830e-01 -8.229656815528869629e-01
1.738000000000000000e+03 9.463892936706542969e+00 -4.235445022583007812e+00 -1.070952159352600574e-03 2.066635154187679291e-02 5.878619849681854248e-03 2.307223714888095856e-02
1.739000000000000000e+03 1.021081924438476562e+01 -4.281904697418212891e+00 2.375127747654914856e-03 -2.557937987148761749e-03 -5.484303255798295140e-05 1.471138745546340942e-02
1.740000000000000000e+03 3.050468063354492188e+01 -1.171260166168212891e+01 8.886200934648513794e-02 7.696424722671508789e-01 2.575513422489166260e-01 -7.217863798141479492e-01
1.741000000000000000e+03 7.608590698242187500e+01 -1.749289703369140625e+01 3.381582791917026043e-05 -1.363489864161238074e-04 -3.075995118706487119e-05 -6.409834895748645067e-05
1.742000000000000000e+03 3.111295127868652344e+01 -3.199833631515502930e+00 4.274585545063018799e-01 7.715632766485214233e-02 1.513844579458236694e-01 3.416954994201660156e+00
1.743000000000000000e+03 1.598095512390136719e+01 2.373634576797485352e+00 -9.453205507270467933e-07 -1.982604771910700947e-05 -6.231410225154832006e-06 2.646633447511703707e-06
1.744000000000000000e+03 7.659868621826171875e+01 -1.018781185150146484e+01 2.545878523960709572e-03 2.741480479016900063e-03 1.586207654327154160e-03 7.545378059148788452e-03
1.745000000000000000e+03 3.484901046752929688e+01 -2.971846580505371094e+00 -3.891079127788543701e-01 1.522908926010131836e+00 3.401402831077575684e-01 7.905919551849365234e-01
1.746000000000000000e+03 3.175787734985351562e+01 -9.382413864135742188e+00 6.820908784866333008e-01 6.539188623428344727e-01 4.008029103279113770e-01 -8.552496433258056641e-01
1.747000000000000000e+03 1.385813236236572266e+01 5.913292407989501953e+00 4.080804137629456818e-05 -7.599153377668699250e-06 9.962665899365674704e-06 8.578640375844770460e-08
1.748000000000000000e+03 3.850763702392578125e+01 -2.383434057235717773e+00 -1.365281939506530762e+00 1.652219891548156738e+00 8.608138561248779297e-02 -1.233793973922729492e+00
1.749000000000000000e+03 7.336529541015625000e+01 -1.891352272033691406e+01 8.426688873441889882e-05 1.879702322185039520e-04 8.167113264789804816e-05 2.981547149829566479e-04
1.750000000000000000e+03 7.574204254150390625e+01 -2.103052330017089844e+01 -2.891569465646171011e-06 3.007650084327906370e-04 8.936203084886074066e-05 1.934411375259514898e-05
1.751000000000000000e+03 7.427089691162109375e+01 -1.735888099670410156e+01 2.697612217161804438e-05 3.766967711271718144e-05 1.939373942150268704e-05 -3.276267307228408754e-05
1.752000000000000000e+03 1.880518531799316406e+01 2.117589473724365234e+00 -1.832962516346015036e-05 -9.696587767393793911e-06 -8.407863788306713104e-06 -2.021396721829660237e-05
1.753000000000000000e+03 1.767362022399902344e+01 3.818904161453247070e+00 -1.458433780499035493e-05 -1.642822826397605240e-05 -9.303769729740452021e-06 -2.107322507072240114e-05
1.754000000000000000e+03 1.387010860443115234e+01 3.747480630874633789e+00 -2.737969225563574582e-05 -2.704871349124005064e-06 -9.025368854054249823e-06 5.355680059437872842e-06
1.755000000000000000e+03 8.978317260742187500e+00 3.941839933395385742e+00 -2.471745938237290829e-05 -1.032904037856496871e-05 -1.051394974638242275e-05 -9.360668627778068185e-06
1.756000000000000000e+03 9.769423484802246094e+00 3.209843397140502930e+00 -2.289414078404661268e-05 -6.120499165263026953e-06 -8.704391802893951535e-06 -5.202742158871842548e-06
1.757000000000000000e+03 1.094930744171142578e+01 -4.340571880340576172e+00 1.873077079653739929e-02 3.008433617651462555e-03 6.521761417388916016e-03 2.904578484594821930e-02
1.758000000000000000e+03 1.533957290649414062e+01 2.585460186004638672e+00 3.248264647481846623e-06 1.314412293140776455e-05 4.917716523777926341e-06 -8.201236596505623311e-06
1.759000000000000000e+03 1.480297756195068359e+01 3.595457077026367188e+00 1.303170120081631467e-05 4.556402018351946026e-06 5.276430783851537853e-06 -1.147684542956994846e-05
1.760000000000000000e+03 7.187257766723632812e+00 -3.354663372039794922e+00 -2.008262090384960175e-02 2.074727416038513184e-02 1.993960904655978084e-04 -1.879966002888977528e-03
1.761000000000000000e+03 8.704031944274902344e+00 -4.196946620941162109e+00 -1.275908201932907104e-02 1.306103076785802841e-02 9.058462455868721008e-05 6.930333562195301056e-03
1.762000000000000000e+03 8.227849006652832031e+00 3.947613954544067383e+00 2.052964191534556448e-05 1.342259656667010859e-05 1.018567127175629139e-05 7.810896931914612651e-06
1.763000000000000000e+03 8.154569625854492188e+00 5.414049625396728516e+00 2.005539863603189588e-05 2.410825982224196196e-05 1.324909680988639593e-05 1.493624404247384518e-05
1.764000000000000000e+03 5.329590797424316406e+00 4.135581970214843750e+00 1.342334871878847480e-05 1.586094367667101324e-05 8.785287718637846410e-06 -8.761139724811073393e-06
1.765000000000000000e+03 3.640972137451171875e+00 6.111717700958251953e+00 4.233698564348742366e-05 9.406893695995677263e-06 1.552316462039016187e-05 -4.480455118027748540e-06
1.766000000000000000e+03 4.597404956817626953e+00 5.082419395446777344e+00 2.587113158369902521e-05 1.753317337715998292e-05 1.302129203395452350e-05 -2.179268267354927957e-05
1.767000000000000000e+03 3.153167009353637695e+00 3.572158098220825195e+00 9.707252502266783267e-06 2.016499274759553373e-05 8.961673302110284567e-06 -7.457194897142471746e-06
1.768000000000000000e+03 1.391039609909057617e+00 4.932021617889404297e+00 -1.859888106992002577e-05 -1.148045612353598699e-05 -9.023800885188393295e-06 4.218433332425775006e-06
1.769000000000000000e+03 1.698854327201843262e+00 3.345542192459106445e+00 4.740196527563966811e-05 1.931023325596470386e-05 2.001366010517813265e-05 1.202154180646175519e-05
1.770000000000000000e+03 3.561669921875000000e+01 -2.357727527618408203e+00 -4.115458950400352478e-02 2.137428760528564453e+00 6.288822889328002930e-01 6.354111433029174805e-01
1.771000000000000000e+03 7.387065124511718750e+01 -1.821634101867675781e+01 -1.242720900336280465e-04 -1.996574719669297338e-04 -9.717886860016733408e-05 -1.937398483278229833e-04
1.772000000000000000e+03 7.145693206787109375e+01 -1.752933883666992188e+01 -1.947281707543879747e-04 -2.868933006539009511e-05 -6.702524842694401741e-05 -1.210606296808691695e-05
1.773000000000000000e+03 7.123053741455078125e+01 -2.027354049682617188e+01 1.425894424755824730e-05 1.934174724738113582e-05 1.008020717563340440e-05 8.065494330367073417e-05
1.774000000000000000e+03 3.585427093505859375e+01 -2.981349468231201172e+00 -8.751373291015625000e-01 1.703093171119689941e+00 2.483867406845092773e-01 6.651391088962554932e-02
1.775000000000000000e+03 2.388710021972656250e+01 -3.298984766006469727e+00 -1.805570535361766815e-02 -3.059452213346958160e-02 -1.459506805986166000e-02 -1.309248566627502441e+00
1.776000000000000000e+03 7.682574462890625000e+01 -1.897805595397949219e+01 8.618412539362907410e-05 1.228310284204781055e-04 6.270454468904063106e-05 -1.351225073449313641e-04
1.777000000000000000e+03 1.397797012329101562e+01 -3.907085895538330078e+00 3.362421691417694092e-02 -7.248605787754058838e-02 -1.165855117142200470e-02 -3.937396034598350525e-02
1.778000000000000000e+03 7.010978698730468750e+01 -1.028206253051757812e+01 9.028726257383823395e-03 -5.864285398274660110e-03 9.493323741480708122e-04 -5.984474904835224152e-03
1.779000000000000000e+03 6.919546508789062500e+01 -1.060659790039062500e+01 2.921504201367497444e-03 -3.726530587300658226e-03 -2.415079361526295543e-04 -8.480013348162174225e-03
1.780000000000000000e+03 2.339555931091308594e+01 -3.657831668853759766e+00 3.120259642601013184e-01 -1.729613393545150757e-01 4.171938449144363403e-02 -1.080492258071899414e+00
1.781000000000000000e+03 1.718331336975097656e+01 -4.098758697509765625e+00 9.645130485296249390e-02 -1.923435479402542114e-01 -2.876767329871654510e-02 -2.056386023759841919e-01
1.782000000000000000e+03 7.421394348144531250e+01 -9.854413986206054688e+00 2.159809373551979661e-04 -5.621789023280143738e-03 -1.621742499992251396e-03 3.892699023708701134e-03
1.783000000000000000e+03 6.939646911621093750e+01 -9.093344688415527344e+00 -3.312439366709440947e-04 -8.342160843312740326e-03 -2.602021209895610809e-03 -8.869531564414501190e-03
1.784000000000000000e+03 3.645031738281250000e+01 -1.213882255554199219e+01 8.009408600628376007e-03 5.182336568832397461e-01 1.578729301691055298e-01 -5.223358869552612305e-01
1.785000000000000000e+03 3.902537918090820312e+01 -1.169513034820556641e+01 2.878613956272602081e-02 3.346702754497528076e-01 1.090369224548339844e-01 -2.579773962497711182e-01
1.786000000000000000e+03 3.679837417602539062e+01 -1.041253471374511719e+01 1.839394271373748779e-01 3.142738342285156250e-01 1.494639813899993896e-01 -4.383924305438995361e-01
1.787000000000000000e+03 1.320748805999755859e+01 -4.564846515655517578e+00 5.500286445021629333e-02 -6.474736332893371582e-02 -2.923348918557167053e-03 -8.204182609915733337e-03
1.788000000000000000e+03 1.296988296508789062e+01 3.777367353439331055e+00 2.685286744963377714e-05 3.180355179210891947e-06 9.009966561279725283e-06 -4.513375643000472337e-06
1.789000000000000000e+03 1.054950046539306641e+01 3.178448200225830078e+00 2.300951200595591217e-05 4.299199190427316353e-06 8.192612767743412405e-06 2.800902166200103238e-06
1.790000000000000000e+03 3.832650756835937500e+01 -1.069772052764892578e+01 9.529351443052291870e-02 2.750687003135681152e-01 1.111086606979370117e-01 -2.998213768005371094e-01
1.791000000000000000e+03 7.391046142578125000e+01 -7.358852863311767578e+00 -6.298288237303495407e-03 -1.081053446978330612e-02 -5.132646765559911728e-03 3.324537537992000580e-04
1.792000000000000000e+03 7.652033233642578125e+01 -8.791169166564941406e+00 1.386987627483904362e-03 2.187978243455290794e-03 1.072489772923290730e-03 7.860774174332618713e-03
1.793000000000000000e+03 1.169214153289794922e+01 -4.410127639770507812e+00 2.454739063978195190e-02 -2.775767818093299866e-02 -9.630862041376531124e-04 1.164321415126323700e-02
1.794000000000000000e+03 1.244221115112304688e+01 -4.486865997314453125e+00 4.641817882657051086e-02 -2.741074748337268829e-02 5.702228751033544540e-03 2.087625116109848022e-02
1.795000000000000000e+03 3.361553573608398438e+01 -1.026262187957763672e+01 3.905687928199768066e-01 4.780262410640716553e-01 2.605785131454467773e-01 -7.555733919143676758e-01
1.796000000000000000e+03 1.642479515075683594e+01 -4.789950847625732422e+00 1.645410954952239990e-01 -1.901393532752990723e-01 -7.679475937038660049e-03 -1.273558288812637329e-01
1.797000000000000000e+03 3.511785888671875000e+01 -1.078717708587646484e+01 2.201395034790039062e-01 4.405136406421661377e-01 1.981959342956542969e-01 -6.453028917312622070e-01
1.798000000000000000e+03 3.588125610351562500e+01 -1.103111171722412109e+01 1.573992073535919189e-01 4.196759164333343506e-01 1.731225401163101196e-01 -5.631545782089233398e-01
1.799000000000000000e+03 3.664654541015625000e+01 -1.125320816040039062e+01 1.081001982092857361e-01 4.171832799911499023e-01 1.575850397348403931e-01 -4.999461770057678223e-01
1.800000000000000000e+03 3.985911560058593750e+01 -1.170455551147460938e+01 2.581037394702434540e-02 2.847870290279388428e-01 9.317922592163085938e-02 -1.865405142307281494e-01
1.801000000000000000e+03 1.963085937500000000e+01 -3.994484186172485352e+00 1.983641982078552246e-01 -3.361950516700744629e-01 -4.134925082325935364e-02 -3.818398714065551758e-01
1.802000000000000000e+03 1.973183441162109375e+01 -4.660839080810546875e+00 4.001363217830657959e-01 -3.600717186927795410e-01 1.201937720179557800e-02 -3.348207473754882812e-01
1.803000000000000000e+03 7.365281677246093750e+01 -9.377964973449707031e+00 2.458243630826473236e-03 -4.831777885556221008e-03 -7.120603113435208797e-04 5.507816094905138016e-03
1.804000000000000000e+03 7.112191009521484375e+01 -9.382684707641601562e+00 4.046055022627115250e-03 -1.098900008946657181e-02 -2.082883613184094429e-03 -2.220499329268932343e-03
1.805000000000000000e+03 4.061122131347656250e+01 -1.066145515441894531e+01 2.708193846046924591e-02 1.668891161680221558e-01 5.819131433963775635e-02 -1.071533337235450745e-01
1.806000000000000000e+03 6.489864826202392578e+00 -4.069910526275634766e+00 -1.840259879827499390e-02 2.337289601564407349e-02 1.491089002229273319e-03 -7.153401151299476624e-03
1.807000000000000000e+03 5.776238918304443359e+00 -4.037558078765869141e+00 -2.105175331234931946e-02 1.268911547958850861e-02 -2.508791396394371986e-03 -1.759529113769531250e-02
1.808000000000000000e+03 4.484465122222900391e+00 -4.070199012756347656e+00 -1.725991070270538330e-02 3.257773118093609810e-03 -4.200641531497240067e-03 -2.228121273219585419e-02
1.809000000000000000e+03 3.618353366851806641e+00 -4.736867904663085938e+00 -1.414507068693637848e-02 -3.884000703692436218e-03 -5.408721510320901871e-03 -2.725178375840187073e-02
1.810000000000000000e+03 7.212454795837402344e+00 -4.114959716796875000e+00 -2.035640366375446320e-02 1.736722514033317566e-02 -8.967535104602575302e-04 -5.885861348360776901e-03
1.811000000000000000e+03 4.151045799255371094e+00 -5.767125129699707031e+00 -1.480365172028541565e-02 8.101174607872962952e-03 -2.010743133723735809e-03 -3.059795871376991272e-02
1.812000000000000000e+03 2.963292121887207031e+00 -6.156099796295166016e+00 -1.057870406657457352e-02 -1.419640239328145981e-02 -7.432532031089067459e-03 -3.484777361154556274e-02
1.813000000000000000e+03 1.398985099792480469e+01 -4.638948440551757812e+00 8.544798940420150757e-02 -7.449512183666229248e-02 3.285859711468219757e-03 -9.095544926822185516e-03
1.814000000000000000e+03 1.478550243377685547e+01 -4.704778671264648438e+00 9.765028953552246094e-02 -1.170601621270179749e-01 -5.822961218655109406e-03 -5.315736681222915649e-02
1.815000000000000000e+03 9.695487022399902344e+00 4.697308063507080078e+00 -3.207617191947065294e-05 -8.206218808481935412e-06 -1.208471712743630633e-05 -1.116909879783634096e-05
1.816000000000000000e+03 1.559720134735107422e+01 -4.756628036499023438e+00 1.414572596549987793e-01 -1.431578695774078369e-01 -5.101811257191002369e-04 -6.704451888799667358e-02
1.817000000000000000e+03 4.133991622924804688e+01 -1.035301113128662109e+01 4.686711356043815613e-03 9.050676971673965454e-02 2.855804562568664551e-02 -4.920596629381179810e-02
1.818000000000000000e+03 1.213457012176513672e+01 3.833110570907592773e+00 -2.885295361920725554e-05 -1.968166316146380268e-06 -9.246336048818193376e-06 2.006970817092224024e-06
1.819000000000000000e+03 1.809144592285156250e+01 -4.787701606750488281e+00 2.657519280910491943e-01 -2.792536914348602295e-01 -4.050532821565866470e-03 -2.250268906354904175e-01
1.820000000000000000e+03 2.517982101440429688e+01 -3.163795709609985352e+00 -1.295999735593795776e-01 1.365573257207870483e-01 2.087205881252884865e-03 -2.211602926254272461e+00
1.821000000000000000e+03 2.580450057983398438e+01 -4.718516349792480469e+00 4.026041984558105469e+00 -1.973672956228256226e-01 1.148602366447448730e+00 -4.602713510394096375e-02
1.822000000000000000e+03 7.045665740966796875e+01 -1.759445762634277344e+01 -3.545401341398246586e-05 -6.277560896705836058e-05 -2.946888707811012864e-05 -5.670430618920363486e-05
1.823000000000000000e+03 2.020439720153808594e+01 -1.522880363464355469e+01 -3.103308975696563721e-01 1.660988666117191315e-02 -8.811630308628082275e-02 3.885055780410766602e-01
1.824000000000000000e+03 2.493164443969726562e+01 -1.626845741271972656e+01 -8.477117419242858887e-01 1.803777366876602173e-01 -2.002002149820327759e-01 1.937974095344543457e-01
1.825000000000000000e+03 2.322160339355468750e+01 -1.594340991973876953e+01 -6.527404785156250000e-01 1.748781353235244751e-01 -1.433586925268173218e-01 3.297081887722015381e-01
1.826000000000000000e+03 1.988544654846191406e+01 -1.621679306030273438e+01 -4.534007906913757324e-01 1.669497042894363403e-02 -1.310117393732070923e-01 3.329719901084899902e-01
1.827000000000000000e+03 1.827820014953613281e+01 -1.448719692230224609e+01 -9.179357439279556274e-02 -1.140544414520263672e-01 -6.175440549850463867e-02 3.743356168270111084e-01
1.828000000000000000e+03 2.119029998779296875e+01 -1.547769260406494141e+01 -4.116280376911163330e-01 7.811484485864639282e-02 -1.000539585947990417e-01 3.915783464908599854e-01
1.829000000000000000e+03 3.949222564697265625e+01 -1.606932640075683594e+01 -7.479461282491683960e-02 6.244207620620727539e-01 1.648878455162048340e-01 -8.874257653951644897e-02
1.830000000000000000e+03 1.735591888427734375e+01 -1.398303604125976562e+01 2.188890986144542694e-02 -1.560649275779724121e-01 -4.025280475616455078e-02 3.754732608795166016e-01
1.831000000000000000e+03 6.133343124389648438e+01 -7.915060222148895264e-02 -5.269731879234313965e-01 4.825205355882644653e-02 -1.436163485050201416e-01 -8.229135721921920776e-02
1.832000000000000000e+03 5.905393600463867188e+01 2.014449357986450195e+00 -6.758278608322143555e-01 1.815958693623542786e-02 -1.973004937171936035e-01 -2.480549514293670654e-01
1.833000000000000000e+03 3.893491744995117188e+01 -1.270106124877929688e+01 -1.275728549808263779e-02 4.264305233955383301e-01 1.241019666194915771e-01 -2.615810930728912354e-01
1.834000000000000000e+03 2.714302825927734375e+01 -1.579615974426269531e+01 -8.237929940223693848e-01 1.953694224357604980e-01 -1.885270774364471436e-01 5.877367220818996429e-03
1.835000000000000000e+03 2.753392028808593750e+01 -1.451590251922607422e+01 -5.362867712974548340e-01 3.880084156990051270e-01 -4.448350518941879272e-02 -3.491520881652832031e-02
1.836000000000000000e+03 2.021232604980468750e+01 -3.950326538085937500e+01 -6.817326694726943970e-02 -6.300880759954452515e-02 -3.935462236404418945e-02 2.026673778891563416e-02
1.837000000000000000e+03 3.435289764404296875e+01 -1.694295310974121094e+01 -5.186858177185058594e-01 1.130366325378417969e+00 1.835041344165802002e-01 -6.199805736541748047e-01
1.838000000000000000e+03 1.022131633758544922e+01 -1.301675796508789062e+01 9.406690299510955811e-02 2.164697051048278809e-01 9.316098690032958984e-02 3.023839294910430908e-01
1.839000000000000000e+03 3.359303283691406250e+01 -1.551667976379394531e+01 -4.796755015850067139e-01 7.578352689743041992e-01 8.344794064760208130e-02 -7.502558231353759766e-01
1.840000000000000000e+03 3.404671859741210938e+01 -1.607494163513183594e+01 -5.302464962005615234e-01 8.587554693222045898e-01 9.855269640684127808e-02 -7.393407225608825684e-01
1.841000000000000000e+03 5.589864349365234375e+01 1.593814730644226074e+00 -9.862361550331115723e-01 6.117458641529083252e-02 -2.775184512138366699e-01 -1.405252367258071899e-01
1.842000000000000000e+03 5.231283950805664062e+01 3.850368976593017578e+00 -1.271740436553955078e+00 8.381104096770286560e-03 -3.790077865123748779e-01 -6.474591493606567383e-01
1.843000000000000000e+03 9.389715194702148438e+00 2.121537399291992188e+01 -1.134551857830956578e-04 4.158017418376402929e-06 -3.278915028204210103e-05 -3.694916813401505351e-05
1.844000000000000000e+03 7.473367309570312500e+01 -2.482193565368652344e+01 -3.737914375960826874e-04 -1.950454316101968288e-04 -1.706510665826499462e-04 -2.220518363174051046e-04
1.845000000000000000e+03 7.471537017822265625e+01 -2.167753982543945312e+01 -2.019046805799007416e-04 -3.058161819353699684e-04 -1.523162500234320760e-04 -1.927279517985880375e-04
1.846000000000000000e+03 7.230636596679687500e+01 -2.305463981628417969e+01 2.451008185744285583e-04 -2.933172800112515688e-05 6.473073153756558895e-05 1.150134849012829363e-04
1.847000000000000000e+03 7.464300537109375000e+01 -3.536445236206054688e+01 -3.798938123509287834e-04 -1.222750870510935783e-03 -4.807934165000915527e-04 1.859408803284168243e-03
1.848000000000000000e+03 7.478433990478515625e+01 -3.369561386108398438e+01 -1.735800906317308545e-04 -4.220198898110538721e-04 -1.786799984984099865e-04 1.539995311759412289e-03
1.849000000000000000e+03 7.347994995117187500e+01 -2.989765167236328125e+01 -1.069697202183306217e-03 6.914274999871850014e-04 -1.134808844653889537e-04 8.155956165865063667e-04
1.850000000000000000e+03 7.731064605712890625e+01 -2.052204895019531250e+01 -5.761083957622759044e-05 1.084602845367044210e-04 1.525483367004198954e-05 -3.075366839766502380e-05
1.851000000000000000e+03 7.629086303710937500e+01 -2.356443405151367188e+01 -1.261767029063776135e-04 1.250805053132353351e-05 -3.410059434827417135e-05 -1.495497417636215687e-04
1.852000000000000000e+03 3.248883056640625000e+01 -1.581360435485839844e+01 -5.477260351181030273e-01 5.453175902366638184e-01 -7.225292501971125603e-04 -7.688225507736206055e-01
1.853000000000000000e+03 3.170112800598144531e+01 -1.528799915313720703e+01 -5.193327665328979492e-01 3.987396955490112305e-01 -3.617792576551437378e-02 -7.622537612915039062e-01
1.854000000000000000e+03 7.568883514404296875e+01 -1.931338691711425781e+01 1.154461206169798970e-04 1.735000696498900652e-04 8.668385271448642015e-05 1.641351082071196288e-05
1.855000000000000000e+03 7.416712951660156250e+01 -3.693230438232421875e+01 1.077888533473014832e-03 -9.837404359132051468e-04 2.824440343829337507e-05 2.721203491091728210e-03
1.856000000000000000e+03 7.757300567626953125e+01 -1.936351776123046875e+01 1.177723534055985510e-04 -1.752275238686706871e-05 3.007488157891202718e-05 -9.476113518758211285e-06
1.857000000000000000e+03 7.606906890869140625e+01 -1.851849937438964844e+01 -7.392249244730919600e-05 2.531241625547409058e-05 -1.458302267565159127e-05 6.940034654689952731e-05
1.858000000000000000e+03 7.173789215087890625e+01 -3.846900177001953125e+01 2.131422981619834900e-03 -6.842012517154216766e-04 4.341665189713239670e-04 2.789743943139910698e-03
1.859000000000000000e+03 7.649443054199218750e+01 -3.705643463134765625e+01 4.646663146559149027e-04 -1.924314536154270172e-03 -4.378944577183574438e-04 1.142409280873835087e-03
1.860000000000000000e+03 7.526435852050781250e+01 8.306380271911621094e+00 -1.981207355856895447e-02 -1.958540081977844238e-01 -6.469982862472534180e-02 -1.558877676725387573e-01
1.861000000000000000e+03 7.544734191894531250e+01 1.514246273040771484e+01 1.280561275780200958e-02 -3.831442892551422119e-01 -1.111015975475311279e-01 -1.527995169162750244e-01
1.862000000000000000e+03 7.573277282714843750e+01 1.104053139686584473e+00 -3.187470883131027222e-02 -4.820274934172630310e-02 -2.402323856949806213e-02 -6.108726933598518372e-02
1.863000000000000000e+03 7.672799682617187500e+01 1.109129619598388672e+01 -2.721635159105062485e-03 -2.917544543743133545e-01 -8.834282308816909790e-02 -1.219172254204750061e-01
1.864000000000000000e+03 7.545651245117187500e+01 1.378335380554199219e+01 6.816319655627012253e-03 -3.479149639606475830e-01 -1.023295894265174866e-01 -1.606708765029907227e-01
1.865000000000000000e+03 7.673036956787109375e+01 4.057758331298828125e+00 -1.712096668779850006e-02 -9.930913895368576050e-02 -3.492903336882591248e-02 -7.984556257724761963e-02
1.866000000000000000e+03 7.540769958496093750e+01 3.895470619201660156e+00 -3.610346466302871704e-02 -9.208802878856658936e-02 -3.845744952559471130e-02 -1.030933260917663574e-01
1.867000000000000000e+03 7.671476745605468750e+01 1.796529197692871094e+01 1.047432702034711838e-02 -4.988757669925689697e-01 -1.465204358100891113e-01 -1.053206548094749451e-01
1.868000000000000000e+03 7.525661468505859375e+01 2.059521293640136719e+01 2.462190017104148865e-02 -5.009157061576843262e-01 -1.428881436586380005e-01 -1.155928745865821838e-01
1.869000000000000000e+03 7.404946899414062500e+01 9.734303474426269531e+00 -1.900546811521053314e-02 -2.168304026126861572e-01 -7.075076550245285034e-02 -1.951550841331481934e-01
1.870000000000000000e+03 7.542131805419921875e+01 1.106762123107910156e+01 -5.299919750541448593e-03 -2.719238102436065674e-01 -8.316712081432342529e-02 -1.635587513446807861e-01
1.871000000000000000e+03 7.516537475585937500e+01 5.336850643157958984e+00 -3.168610483407974243e-02 -1.248730644583702087e-01 -4.696775227785110474e-02 -1.284362822771072388e-01
1.872000000000000000e+03 7.511636352539062500e+01 6.836503028869628906e+00 -2.855473943054676056e-02 -1.543296873569488525e-01 -5.486533045768737793e-02 -1.425522565841674805e-01
1.873000000000000000e+03 7.651501464843750000e+01 2.348847770690917969e+01 1.278000138700008392e-02 -6.095371246337890625e-01 -1.790271252393722534e-01 -7.261848449707031250e-02
1.874000000000000000e+03 7.519457244873046875e+01 2.196901321411132812e+01 2.264595031738281250e-02 -5.222484469413757324e-01 -1.498807370662689209e-01 -1.058600023388862610e-01
1.875000000000000000e+03 7.474703979492187500e+01 2.773405265808105469e+01 2.427795156836509705e-02 -5.656576752662658691e-01 -1.624139249324798584e-01 -5.946864187717437744e-02
1.876000000000000000e+03 7.407394409179687500e+01 1.638703346252441406e+01 2.632875740528106689e-02 -3.753190636634826660e-01 -1.046970859169960022e-01 -1.776293069124221802e-01
1.877000000000000000e+03 7.537446594238281250e+01 1.786085128784179688e+01 2.106681652367115021e-02 -4.483926892280578613e-01 -1.281977593898773193e-01 -1.370764821767807007e-01
1.878000000000000000e+03 7.501042175292968750e+01 2.477647781372070312e+01 2.547618187963962555e-02 -5.512998700141906738e-01 -1.577471047639846802e-01 -8.387291431427001953e-02
1.879000000000000000e+03 7.511790466308593750e+01 2.335518455505371094e+01 2.448847703635692596e-02 -5.375884771347045898e-01 -1.539300084114074707e-01 -9.360536932945251465e-02
1.880000000000000000e+03 7.486476898193359375e+01 2.623445129394531250e+01 2.467839047312736511e-02 -5.594593286514282227e-01 -1.604342907667160034e-01 -7.010879367589950562e-02
1.881000000000000000e+03 7.335482788085937500e+01 2.607029914855957031e+01 4.047930613160133362e-02 -4.806998968124389648e-01 -1.320661753416061401e-01 -8.378445357084274292e-02
1.882000000000000000e+03 7.607828521728515625e+01 -2.956853628158569336e+00 -1.596695743501186371e-02 -1.404480636119842529e-02 -9.003529325127601624e-03 -1.490051671862602234e-02
1.883000000000000000e+03 7.615183258056640625e+01 -4.277882575988769531e+00 -1.288861595094203949e-02 -6.779244635254144669e-03 -5.900358315557241440e-03 -6.384371779859066010e-03
1.884000000000000000e+03 7.610446929931640625e+01 3.088725852966308594e+01 1.310489326715469360e-02 -6.677772998809814453e-01 -1.964017301797866821e-01 -2.800146676599979401e-02
1.885000000000000000e+03 7.465953063964843750e+01 2.930093002319335938e+01 2.260248549282550812e-02 -5.685619115829467773e-01 -1.637878268957138062e-01 -4.671257734298706055e-02
1.886000000000000000e+03 7.280123901367187500e+01 3.276382446289062500e+01 3.136298805475234985e-02 -4.711630046367645264e-01 -1.319400072097778320e-01 -3.158144652843475342e-02
1.887000000000000000e+03 7.597222900390625000e+01 -1.620042443275451660e+00 -2.287323959171772003e-02 -2.095559425652027130e-02 -1.314864959567785263e-02 -2.839221246540546417e-02
1.888000000000000000e+03 7.585376739501953125e+01 -2.679693102836608887e-01 -2.475115098059177399e-02 -3.507024422287940979e-02 -1.794641837477684021e-02 -4.285378009080886841e-02
1.889000000000000000e+03 7.611707305908203125e+01 3.250204086303710938e+01 1.193932909518480301e-02 -6.745843291282653809e-01 -1.987934857606887817e-01 -2.048520743846893311e-02
1.890000000000000000e+03 7.467265319824218750e+01 3.455137634277343750e+01 1.780999824404716492e-02 -5.901694297790527344e-01 -1.717078238725662231e-01 -2.093157544732093811e-02
1.891000000000000000e+03 7.451145172119140625e+01 3.268599700927734375e+01 1.859382539987564087e-02 -5.814491510391235352e-01 -1.688565909862518311e-01 -2.728591114282608032e-02
1.892000000000000000e+03 7.617181396484375000e+01 -5.581048488616943359e+00 -7.492797914892435074e-03 -4.887682385742664337e-03 -3.714144229888916016e-03 6.789639592170715332e-04
1.893000000000000000e+03 7.472462463378906250e+01 -7.683248043060302734e+00 -3.895738162100315094e-03 -4.482567775994539261e-03 -2.513491781428456306e-03 5.082868970930576324e-03
1.894000000000000000e+03 7.747046661376953125e+01 -8.220239639282226562e+00 -2.346568973734974861e-03 3.018460934981703758e-03 2.015675418078899384e-04 5.903627723455429077e-03
1.895000000000000000e+03 4.586182785034179688e+01 2.073448753356933594e+01 2.491984069347381592e-01 1.560815095901489258e+00 5.430040359497070312e-01 3.100961744785308838e-01
1.896000000000000000e+03 4.423328399658203125e+01 1.796310424804687500e+01 2.782708406448364258e-01 2.000986337661743164e+00 6.837771534919738770e-01 4.801622927188873291e-01
1.897000000000000000e+03 7.098882293701171875e+01 -2.428437423706054688e+01 1.560157688800245523e-04 -1.508320929133333266e-05 4.227977115078829229e-05 6.228237907635048032e-05
1.898000000000000000e+03 4.652508163452148438e+01 2.539042472839355469e+01 2.257369011640548706e-01 1.326892971992492676e+00 4.657889604568481445e-01 9.755346924066543579e-02
1.899000000000000000e+03 4.472723007202148438e+01 1.035185146331787109e+01 1.356978178024291992e+00 1.193611860275268555e+00 7.651770114898681641e-01 1.156793117523193359e+00
1.900000000000000000e+03 4.377034759521484375e+01 1.358208084106445312e+01 6.669636964797973633e-01 2.282374858856201172e+00 8.848015666007995605e-01 9.741509556770324707e-01
1.901000000000000000e+03 5.023961639404296875e+01 -3.506987762451171875e+01 -1.210560742765665054e-02 1.577884256839752197e-01 4.370484501123428345e-02 -6.928874552249908447e-02
1.902000000000000000e+03 1.521287345886230469e+01 7.681626796722412109e+00 -5.032179251429624856e-05 -5.175490059627918527e-06 -1.664918454480357468e-05 -8.622067980468273163e-06
1.903000000000000000e+03 1.594041919708251953e+01 8.921843528747558594e+00 -5.210679591982625425e-05 -1.595069420545769390e-06 -1.611055995454080403e-05 -4.693179107562173158e-06
1.904000000000000000e+03 4.448320007324218750e+01 2.082673263549804688e+01 1.575745493173599243e-01 1.812835454940795898e+00 5.911229848861694336e-01 2.686169147491455078e-01
1.905000000000000000e+03 4.605159378051757812e+01 2.218629264831542969e+01 2.220059633255004883e-01 1.503001093864440918e+00 5.175021290779113770e-01 2.292984277009963989e-01
1.906000000000000000e+03 4.488277435302734375e+01 -2.715046691894531250e+01 1.195188835263252258e-01 2.060221582651138306e-01 9.766231477260589600e-02 -1.803213655948638916e-01
1.907000000000000000e+03 4.318310737609863281e+00 2.277489089965820312e+01 8.127906767185777426e-05 1.668140612309798598e-05 2.938814213848672807e-05 4.752994755108375102e-06
1.908000000000000000e+03 3.331492424011230469e+00 -2.254835510253906250e+01 9.480762481689453125e-02 3.443517982959747314e-01 1.317478269338607788e-01 2.822206914424896240e-01
1.909000000000000000e+03 4.067223072052001953e+00 -2.174391555786132812e+01 1.535923331975936890e-01 4.565314650535583496e-01 1.830371469259262085e-01 2.488093972206115723e-01
1.910000000000000000e+03 3.262479543685913086e+00 -1.928300666809082031e+01 1.365327686071395874e-01 1.612045764923095703e-01 8.932120352983474731e-02 9.409531205892562866e-02
1.911000000000000000e+03 4.383662223815917969e+00 -1.624470520019531250e+01 9.372658282518386841e-02 2.588075101375579834e-01 1.057602316141128540e-01 -4.493293538689613342e-02
1.912000000000000000e+03 5.039416313171386719e+00 -1.715230369567871094e+01 1.739317178726196289e-01 4.587058126926422119e-01 1.897912621498107910e-01 7.345706969499588013e-02
1.913000000000000000e+03 5.568736553192138672e+00 2.270798301696777344e+01 -6.299215601757168770e-05 -2.351013426959980279e-05 -2.595068690425250679e-05 -2.201619099650997669e-05
1.914000000000000000e+03 5.502192497253417969e+00 2.670815658569335938e+01 1.289331703446805477e-04 1.243287715624319389e-05 4.240981070324778557e-05 6.468287210736889392e-06
1.915000000000000000e+03 3.068759679794311523e+00 2.701086807250976562e+01 9.391669300384819508e-05 1.860868360381573439e-05 3.375761298229917884e-05 -1.534716284368187189e-05
1.916000000000000000e+03 4.371607780456542969e+00 2.935215187072753906e+01 -9.534421405987814069e-05 1.550578053866047412e-05 -2.395152841927483678e-05 -2.958908407890703529e-05
1.917000000000000000e+03 4.327580928802490234e+00 1.857329368591308594e+01 -7.137897773645818233e-05 -4.974541297997348011e-06 -2.290605516463983804e-05 -1.164778041129466146e-05
1.918000000000000000e+03 4.345355987548828125e+00 1.998939514160156250e+01 7.348036160692572594e-05 1.098158645618241280e-05 2.533858423703350127e-05 1.287601207877742127e-05
1.919000000000000000e+03 4.296788215637207031e+00 1.716106986999511719e+01 7.404290954582393169e-05 2.766888655969523825e-06 2.304293957422487438e-05 1.048789181368192658e-05
1.920000000000000000e+03 4.263423919677734375e+00 2.549477767944335938e+01 9.808043978409841657e-05 1.633834654057864100e-05 3.432563607930205762e-05 -2.427951130812289193e-06
1.921000000000000000e+03 4.285899162292480469e+00 2.414064598083496094e+01 -7.411278784275054932e-05 -9.935200978361535817e-06 -2.521439637348521501e-05 -1.662968134041875601e-05
1.922000000000000000e+03 4.217981815338134766e+00 1.289752292633056641e+01 -6.091805335017852485e-05 -4.040234216518001631e-06 -1.948748649738263339e-05 1.074349825103126932e-06
1.923000000000000000e+03 4.244915962219238281e+00 1.432803630828857422e+01 6.550757825607433915e-05 2.161305019399151206e-06 2.030066389124840498e-05 1.050735818353132345e-06
1.924000000000000000e+03 3.983133077621459961e+00 -9.708030700683593750e+00 -2.721038460731506348e-02 4.780631139874458313e-02 6.178777664899826050e-03 -5.407798662781715393e-02
1.925000000000000000e+03 3.907024145126342773e+00 -8.523694992065429688e+00 -3.086161240935325623e-02 2.449869923293590546e-02 -1.908874139189720154e-03 -5.093063414096832275e-02
1.926000000000000000e+03 4.246756076812744141e+00 -1.361360168457031250e+01 -4.753882531076669693e-03 1.516661047935485840e-01 4.407366737723350525e-02 -8.626442402601242065e-02
1.927000000000000000e+03 3.373115777969360352e+00 -3.159846878051757812e+01 -9.518381953239440918e-02 4.681644141674041748e-01 1.118941754102706909e-01 5.207992717623710632e-02
1.928000000000000000e+03 5.028754234313964844e+00 3.747838592529296875e+01 5.727157258661463857e-05 -8.838404755806550384e-05 -9.333742127637378871e-06 -1.026304162223823369e-04
1.929000000000000000e+03 3.957126855850219727e+00 3.550996398925781250e+01 5.515040538739413023e-05 1.373724662698805332e-04 5.775686076958663762e-05 -1.565802813274785876e-04
1.930000000000000000e+03 5.397176742553710938e+00 1.127060317993164062e+01 -5.324893572833389044e-05 8.266729309980291873e-06 -1.349466219835449010e-05 1.373732084175571799e-05
1.931000000000000000e+03 4.115028381347656250e+00 -1.096340560913085938e+01 -3.981794416904449463e-02 7.702395319938659668e-02 1.116180419921875000e-02 -6.941217184066772461e-02
1.932000000000000000e+03 5.379848003387451172e+00 -1.089630317687988281e+01 -3.783312812447547913e-02 1.636600941419601440e-01 3.774809092283248901e-02 -2.058651112020015717e-02
1.933000000000000000e+03 4.127331733703613281e+00 1.149360084533691406e+01 5.744168811361305416e-05 -2.136031753252609633e-06 1.659169720369391143e-05 -2.531187647036858834e-06
1.934000000000000000e+03 3.659673690795898438e+00 -3.438035583496093750e+01 -3.667449578642845154e-02 4.356962740421295166e-01 1.197065338492393494e-01 -1.955378986895084381e-02
1.935000000000000000e+03 5.094423294067382812e+00 3.207371139526367188e+01 -1.137549479608424008e-04 1.192926265503047034e-05 -3.054770786548033357e-05 -4.222357529215514660e-05
1.936000000000000000e+03 4.646574020385742188e+00 3.066114234924316406e+01 1.331546809524297714e-04 2.441824472043663263e-05 4.727187842945568264e-05 -5.598849384114146233e-05
1.937000000000000000e+03 2.644862174987792969e+00 7.540557384490966797e+00 4.259201159584335983e-05 6.404837677109753713e-06 1.469905510020907968e-05 -8.345131391251925379e-06
1.938000000000000000e+03 3.837212324142456055e+00 8.756916046142578125e+00 4.406552034197375178e-05 3.647072389867389575e-06 1.431377768312813714e-05 -9.570859219820704311e-06
1.939000000000000000e+03 4.008091926574707031e+00 -4.286050319671630859e+00 -1.424817647784948349e-02 5.574623122811317444e-03 -2.602065913379192352e-03 -2.632053755223751068e-02
1.940000000000000000e+03 4.569829940795898438e+01 1.931866264343261719e+01 3.096494972705841064e-01 1.620060801506042480e+00 5.789130926132202148e-01 4.090855419635772705e-01
1.941000000000000000e+03 2.564557790756225586e+00 6.140472412109375000e+00 -3.183301669196225703e-05 -1.100241661333711818e-05 -1.285062990064034238e-05 1.089838224288541824e-05
1.942000000000000000e+03 5.346873760223388672e+00 4.951510906219482422e+00 -7.749175892968196422e-06 -1.887037251435685903e-05 -7.985864613146986812e-06 6.583397862414130941e-06
1.943000000000000000e+03 3.247144699096679688e+00 -5.343719959259033203e+00 -1.256636716425418854e-02 -4.808529745787382126e-03 -5.212469026446342468e-03 -3.173883631825447083e-02
1.944000000000000000e+03 4.312929534912109375e+01 -2.764011764526367188e+01 1.026885882019996643e-01 3.426079750061035156e-01 1.335889697074890137e-01 -2.140709012746810913e-01
1.945000000000000000e+03 9.353472709655761719e+00 3.911970138549804688e+01 -5.261280966806225479e-05 3.597073664423078299e-04 9.212836448568850756e-05 7.507792179239913821e-05
1.946000000000000000e+03 3.641991853713989258e+00 3.693909454345703125e+01 -7.064274541335180402e-05 1.346638164250180125e-04 1.920632166729774326e-05 -2.996124021592549980e-05
1.947000000000000000e+03 7.231562805175781250e+01 -2.171872138977050781e+01 -1.768311340129002929e-04 -1.130006930907256901e-04 -8.694954885868355632e-05 -3.069997183047235012e-05
1.948000000000000000e+03 7.230879974365234375e+01 -2.053481292724609375e+01 1.788002264220267534e-04 -4.985516716260462999e-05 3.868351632263511419e-05 9.483122084930073470e-06
1.949000000000000000e+03 6.629861450195312500e+01 -1.801035761833190918e+00 -2.121993750333786011e-01 4.764048755168914795e-02 -4.936766624450683594e-02 -3.305512666702270508e-02
1.950000000000000000e+03 3.806330108642578125e+01 -1.257252788543701172e+01 -2.882254309952259064e-02 4.839277863502502441e-01 1.365315765142440796e-01 -3.454658389091491699e-01
1.951000000000000000e+03 3.866440200805664062e+01 -1.482011604309082031e+01 -1.010389029979705811e-01 6.382949948310852051e-01 1.611768305301666260e-01 -1.996522545814514160e-01
1.952000000000000000e+03 3.423192501068115234e+00 -3.911353302001953125e+01 5.544144194573163986e-03 5.209549665451049805e-01 1.579497307538986206e-01 -3.284952417016029358e-02
1.953000000000000000e+03 4.653673171997070312e+00 -3.760896301269531250e+01 -3.856352297589182854e-03 3.715747594833374023e-01 1.103155240416526794e-01 -9.875453077256679535e-03
1.954000000000000000e+03 5.146286392211914062e+01 -3.129230690002441406e+01 1.334527786821126938e-02 8.313638716936111450e-02 2.894449792802333832e-02 -5.866903066635131836e-02
1.955000000000000000e+03 5.766378021240234375e+01 2.403072834014892578e+00 -7.533878087997436523e-01 4.348916187882423401e-02 -2.129696011543273926e-01 -2.507683634757995605e-01
1.956000000000000000e+03 4.134306716918945312e+01 5.091664791107177734e-01 -1.765587806701660156e+00 2.836582362651824951e-01 -4.445788860321044922e-01 -6.796921491622924805e-01
1.957000000000000000e+03 4.110389709472656250e+01 -5.512697100639343262e-01 -2.336856126785278320e+00 2.674065530300140381e-01 -6.208348870277404785e-01 -1.294702291488647461e+00
1.958000000000000000e+03 4.402397537231445312e+01 -3.026125717163085938e+01 3.428024798631668091e-02 3.127880394458770752e-01 1.041204929351806641e-01 -1.857009977102279663e-01
1.959000000000000000e+03 4.681871032714843750e+01 4.749774456024169922e+00 -3.220956325531005859e-01 -1.551308035850524902e+00 -5.620210766792297363e-01 -8.963665366172790527e-01
1.960000000000000000e+03 2.666882705688476562e+01 -1.484577083587646484e+01 -6.275846958160400391e-01 3.511669039726257324e-01 -8.292533457279205322e-02 6.499893218278884888e-02
1.961000000000000000e+03 4.169516754150390625e+01 -2.094501686096191406e+01 1.334059834480285645e-01 3.558066785335540771e-01 1.467638015747070312e-01 -9.429713338613510132e-02
1.962000000000000000e+03 4.071393966674804688e+01 -2.204774093627929688e+01 2.267380207777023315e-01 5.425738096237182617e-01 2.307935506105422974e-01 -1.527812927961349487e-01
1.963000000000000000e+03 4.724302673339843750e+01 -2.985323524475097656e+01 4.989872872829437256e-02 1.635790318250656128e-01 6.404332816600799561e-02 -1.313219070434570312e-01
1.964000000000000000e+03 4.873039245605468750e+01 -3.089732360839843750e+01 3.282443061470985413e-02 1.391185522079467773e-01 5.158289149403572083e-02 -1.010171398520469666e-01
1.965000000000000000e+03 1.627981948852539062e+01 2.865432262420654297e+00 -8.677675396029371768e-06 1.732784880914550740e-06 -2.083467279589967802e-06 -9.254307769879233092e-06
1.966000000000000000e+03 1.668953323364257812e+01 4.594431877136230469e+00 -1.993411387957166880e-05 1.459589657315518707e-05 -1.601464873601798899e-06 2.072899405902717263e-05
1.967000000000000000e+03 1.564592838287353516e+01 6.628296375274658203e+00 5.025290010962635279e-05 4.539472513442888157e-07 1.521205376775469631e-05 8.377111043955665082e-06
1.968000000000000000e+03 1.470559120178222656e+01 5.543540954589843750e+00 -2.706861596379894763e-05 7.258112418639939278e-06 -5.943150881648762152e-06 2.411116611256147735e-06
1.969000000000000000e+03 6.924633026123046875e+01 -7.419921398162841797e+00 -6.649438291788101196e-03 -8.658300153911113739e-03 -4.592321347445249557e-03 -3.092569066211581230e-03
1.970000000000000000e+03 6.881596374511718750e+01 -5.467327594757080078e+00 -4.443745687603950500e-02 -4.752606153488159180e-03 -1.475701946765184402e-02 1.716569997370243073e-03
1.971000000000000000e+03 6.746984100341796875e+01 -4.557710170745849609e+00 -7.624527812004089355e-02 3.464184468612074852e-03 -2.183432690799236298e-02 4.830469377338886261e-03
1.972000000000000000e+03 1.290989875793457031e+01 1.381861972808837891e+01 7.374073175014927983e-05 2.972877837237319909e-06 2.301408130733761936e-05 8.266875738627277315e-06
1.973000000000000000e+03 1.481924629211425781e+01 8.871272087097167969e+00 5.696813605027273297e-05 -4.751791848889297398e-08 1.707618503132835031e-05 9.343272722617257386e-06
1.974000000000000000e+03 4.021747970581054688e+01 -2.477876186370849609e+00 -1.877682089805603027e+00 2.961295545101165771e-01 -4.744657576084136963e-01 -1.925515651702880859e+00
1.975000000000000000e+03 4.422992324829101562e+01 8.691386222839355469e+00 1.643362164497375488e+00 1.001945495605468750e+00 7.935922741889953613e-01 1.291542768478393555e+00
1.976000000000000000e+03 5.019858551025390625e+01 5.845300197601318359e+00 -3.993420600891113281e-01 -5.729159712791442871e-01 -2.916774153709411621e-01 -9.130203723907470703e-01
1.977000000000000000e+03 4.341876220703125000e+01 7.370790481567382812e+00 1.799628376960754395e+00 1.080743074417114258e+00 8.641114234924316406e-01 1.482181429862976074e+00
1.978000000000000000e+03 1.437520122528076172e+01 1.006161880493164062e+01 -6.388843030435964465e-05 2.171668029404827394e-06 -1.851502747740596533e-05 -9.552792107569985092e-06
1.979000000000000000e+03 7.870383739471435547e+00 -1.395600700378417969e+01 5.407794564962387085e-02 4.394238293170928955e-01 1.480505317449569702e-01 1.858334839344024658e-01
1.980000000000000000e+03 4.648601913452148438e+01 2.730318641662597656e+01 2.196803838014602661e-01 1.263723492622375488e+00 4.450211524963378906e-01 6.264212727546691895e-02
1.981000000000000000e+03 4.473065948486328125e+01 2.722469520568847656e+01 2.185991406440734863e-01 1.482237339019775391e+00 5.102509260177612305e-01 -1.219837646931409836e-02
1.982000000000000000e+03 5.665637207031250000e+01 3.937390804290771484e+00 -7.139704823493957520e-01 3.553671762347221375e-02 -2.035301327705383301e-01 -4.005329608917236328e-01
1.983000000000000000e+03 1.484174060821533203e+01 -1.353345584869384766e+01 1.027958914637565613e-01 -1.697517484426498413e-01 -2.008675783872604370e-02 3.460769057273864746e-01
1.984000000000000000e+03 1.671636772155761719e+01 -1.492389678955078125e+01 -9.805869311094284058e-02 -1.593618243932723999e-01 -7.722615450620651245e-02 3.186105191707611084e-01
1.985000000000000000e+03 5.899722576141357422e+00 -3.077198219299316406e+01 -2.360747903585433960e-01 2.054643332958221436e-01 -9.183137677609920502e-03 7.682271301746368408e-02
1.986000000000000000e+03 4.522501754760742188e+01 1.503030967712402344e+01 6.419389843940734863e-01 1.692481756210327148e+00 7.003262042999267578e-01 7.622144222259521484e-01
1.987000000000000000e+03 3.870535278320312500e+01 -2.260338592529296875e+01 2.677654922008514404e-01 9.409466981887817383e-01 3.626136481761932373e-01 -2.011739164590835571e-01
1.988000000000000000e+03 4.489971160888671875e+01 1.199736595153808594e+01 1.043739438056945801e+00 1.528979420661926270e+00 7.718156576156616211e-01 1.047354340553283691e+00
1.989000000000000000e+03 4.506412887573242188e+01 1.354345703125000000e+01 8.368597626686096191e-01 1.643597722053527832e+00 7.441372275352478027e-01 8.954713940620422363e-01
1.990000000000000000e+03 5.312750339508056641e+00 -2.937997055053710938e+01 -2.529440522193908691e-01 2.660847902297973633e-01 3.942227456718683243e-03 1.594045460224151611e-01
1.991000000000000000e+03 4.182749557495117188e+01 6.377979278564453125e+00 2.027906656265258789e+00 2.586257457733154297e+00 1.384249210357666016e+00 2.135156869888305664e+00
1.992000000000000000e+03 1.561489391326904297e+01 -3.825424194335937500e+01 -5.574433505535125732e-02 -8.997425436973571777e-02 -4.371557757258415222e-02 5.085584893822669983e-02
1.993000000000000000e+03 1.848752593994140625e+01 -3.708189392089843750e+01 -1.031625270843505859e-01 -7.253964245319366455e-02 -5.271065235137939453e-02 4.702981561422348022e-02
1.994000000000000000e+03 1.271052360534667969e+01 3.063318443298339844e+01 -1.105478077079169452e-04 -4.982110112905502319e-05 -4.811067265109159052e-05 -2.558792402851395309e-05
1.995000000000000000e+03 4.053769683837890625e+01 2.976266860961914062e+00 8.022211790084838867e-01 2.824048280715942383e+00 1.087880849838256836e+00 1.575840473175048828e+00
1.996000000000000000e+03 4.413879776000976562e+01 5.253656387329101562e+00 1.034349918365478516e+00 -6.614071726799011230e-01 1.118828132748603821e-01 5.899184346199035645e-01
1.997000000000000000e+03 3.109171867370605469e+01 -9.548542976379394531e+00 6.110200285911560059e-01 8.335149884223937988e-01 4.333604872226715088e-01 -8.729537129402160645e-01
1.998000000000000000e+03 4.018426895141601562e+01 6.137440800666809082e-01 -1.046284794807434082e+00 1.915524244308471680e+00 2.607718408107757568e-01 -1.157953962683677673e-01
1.999000000000000000e+03 3.742150497436523438e+01 -3.240453302860260010e-01 6.959990859031677246e-01 3.435883283615112305e+00 1.239564657211303711e+00 9.072673320770263672e-01
2.000000000000000000e+03 4.150017166137695312e+01 1.593126058578491211e+00 -1.131685972213745117e+00 4.311196804046630859e-01 -2.101698964834213257e-01 2.337019331753253937e-02
2.001000000000000000e+03 4.213584136962890625e+01 -2.303028488159179688e+01 1.847616881132125854e-01 3.540235161781311035e-01 1.616355627775192261e-01 -1.719205975532531738e-01
2.002000000000000000e+03 3.718928909301757812e+01 -3.031022262573242188e+01 -6.369308382272720337e-02 7.361513972282409668e-01 2.017374932765960693e-01 -7.054300606250762939e-02
2.003000000000000000e+03 3.840349960327148438e+01 -2.674295616149902344e+01 1.196932047605514526e-01 8.568326234817504883e-01 2.929577529430389404e-01 -1.814932227134704590e-01
2.004000000000000000e+03 6.836642456054687500e+01 -3.502022933959960938e+01 -2.474177745170891285e-04 -5.132016376592218876e-04 -2.281858323840424418e-04 4.657885991036891937e-03
2.005000000000000000e+03 6.598037719726562500e+01 -3.379000091552734375e+01 -5.674493964761495590e-03 7.053576409816741943e-04 -1.490740920417010784e-03 3.902723779901862144e-03
2.006000000000000000e+03 3.812952423095703125e+01 -3.218050003051757812e+01 -1.380057930946350098e-01 6.225689053535461426e-01 1.453689336776733398e-01 -1.054497957229614258e-01
2.007000000000000000e+03 4.972341156005859375e+01 4.651800632476806641e+00 -9.328566789627075195e-01 -6.862445473670959473e-01 -4.857303798198699951e-01 -1.101037025451660156e+00
2.008000000000000000e+03 1.219613361358642578e+01 1.666208457946777344e+01 8.499574323650449514e-05 3.226858325433568098e-06 2.646677967277355492e-05 1.426094058842863888e-05
2.009000000000000000e+03 7.594036102294921875e+01 -2.514739990234375000e+01 -7.384656055364757776e-05 1.800394238671287894e-05 -1.675278508628252894e-05 1.765624183462932706e-04
2.010000000000000000e+03 1.954445648193359375e+01 3.548515319824218750e+01 1.594358036527410150e-04 2.005893329624086618e-04 1.080075380741618574e-04 -4.779956943821161985e-04
2.011000000000000000e+03 4.337135696411132812e+01 3.050149345397949219e+01 2.078151255846023560e-01 1.431167364120483398e+00 4.916947484016418457e-01 -9.656796604394912720e-02
2.012000000000000000e+03 2.829498100280761719e+01 -3.851068115234375000e+01 -1.201837956905364990e-01 1.453334540128707886e-01 7.544897962361574173e-03 4.759884253144264221e-02
2.013000000000000000e+03 3.935656356811523438e+01 -2.083406829833984375e+01 2.463909238576889038e-01 7.408472895622253418e-01 2.961714565753936768e-01 -1.161853224039077759e-01
2.014000000000000000e+03 6.301678466796875000e+01 5.617244839668273926e-01 -4.225288629531860352e-01 6.439254432916641235e-02 -1.074408963322639465e-01 -1.360460370779037476e-01
2.015000000000000000e+03 1.231533527374267578e+01 2.731268119812011719e+01 -1.523183018434792757e-04 3.571353954612277448e-05 -3.498142905300483108e-05 8.956367310020141304e-06
2.016000000000000000e+03 5.501607418060302734e+00 2.406736183166503906e+01 9.263110405299812555e-05 2.283171124872751534e-05 3.463884422671981156e-05 -6.915308290444954764e-07
2.017000000000000000e+03 1.308836936950683594e+01 2.413986587524414062e+01 1.552137982798740268e-04 -1.784433152351994067e-05 4.121083838981576264e-05 1.589741077623330057e-05
2.018000000000000000e+03 1.180881023406982422e+01 2.270245933532714844e+01 1.484226959291845560e-04 -1.324623099208110943e-05 4.055294266436249018e-05 2.832468089764006436e-05
2.019000000000000000e+03 3.157890081405639648e+00 -2.382506179809570312e+01 5.656625330448150635e-02 2.966985404491424561e-01 1.059794351458549500e-01 3.340522646903991699e-01
2.020000000000000000e+03 4.343908691406250000e+01 3.598006820678710938e+01 -1.227810978889465332e-01 1.063468933105468750e+00 2.822063565254211426e-01 -3.327317535877227783e-02
2.021000000000000000e+03 4.638698577880859375e+01 3.162910842895507812e+01 9.008388966321945190e-02 1.119659900665283203e+00 3.629231154918670654e-01 8.314646780490875244e-02
2.022000000000000000e+03 5.534809589385986328e+00 -1.225808143615722656e+01 -4.206692427396774292e-02 2.246071398258209229e-01 5.476206168532371521e-02 -2.521061338484287262e-02
2.023000000000000000e+03 6.329080200195312500e+01 -3.858430099487304688e+01 8.821550756692886353e-03 3.657121909782290459e-03 3.743601962924003601e-03 5.231269169598817825e-03
2.024000000000000000e+03 3.858532333374023438e+01 -2.516020584106445312e+01 2.027396261692047119e-01 8.747451901435852051e-01 3.232454359531402588e-01 -1.846220940351486206e-01
2.025000000000000000e+03 3.705210876464843750e+01 -2.610770797729492188e+01 1.369875073432922363e-01 1.087794303894042969e+00 3.674345314502716064e-01 -8.984828740358352661e-02
2.026000000000000000e+03 4.011343765258789062e+01 -3.266247212886810303e-01 -1.402206420898437500e+00 1.407790303230285645e+00 1.675170962698757648e-03 -7.197793722152709961e-01
2.027000000000000000e+03 7.219082641601562500e+01 -3.425832366943359375e+01 -1.141974935308098793e-03 -4.575159255182370543e-05 -3.563179634511470795e-04 2.093993593007326126e-03
2.028000000000000000e+03 7.110714721679687500e+01 -2.924978828430175781e+01 -1.387870754115283489e-03 6.755248759873211384e-04 -2.137037663487717509e-04 7.029295666143298149e-04
2.029000000000000000e+03 1.129533386230468750e+01 -1.303141307830810547e+01 9.966865181922912598e-02 1.338917165994644165e-01 7.006811350584030151e-02 3.271787166595458984e-01
2.030000000000000000e+03 6.512565612792968750e+01 -1.562261819839477539e+00 -2.637771666049957275e-01 3.710874542593955994e-02 -6.800052523612976074e-02 -4.604164510965347290e-02
2.031000000000000000e+03 4.656523132324218750e+01 2.910128402709960938e+01 1.985885202884674072e-01 1.194728612899780273e+00 4.179951250553131104e-01 6.288471817970275879e-02
2.032000000000000000e+03 7.209592437744140625e+01 -2.620560073852539062e+01 -7.299699063878506422e-05 5.055071596871130168e-05 -6.733881946274777874e-06 1.279533898923546076e-04
2.033000000000000000e+03 7.346057891845703125e+01 -2.633575248718261719e+01 -7.145532872527837753e-04 -2.873252087738364935e-04 -3.005635517183691263e-04 -2.305259404238313437e-04
2.034000000000000000e+03 3.493299102783203125e+01 -3.564075088500976562e+01 -1.838016659021377563e-01 4.721536934375762939e-01 8.650560677051544189e-02 3.272252157330513000e-02
2.035000000000000000e+03 7.336038970947265625e+01 -3.360875701904296875e+01 -1.213206443935632706e-03 -3.630471182987093925e-04 -4.728760686703026295e-04 1.785355270840227604e-03
2.036000000000000000e+03 4.495257186889648438e+01 3.297476959228515625e+01 3.401456028223037720e-02 1.177094340324401855e+00 3.633326888084411621e-01 4.837037995457649231e-02
2.037000000000000000e+03 4.598462677001953125e+01 3.484033203125000000e+01 -5.872794240713119507e-02 1.062567710876464844e+00 3.011519312858581543e-01 6.938875466585159302e-02
2.038000000000000000e+03 4.144801712036132812e+01 -2.481719017028808594e+01 1.897220909595489502e-01 4.856953024864196777e-01 2.026252150535583496e-01 -2.264154851436614990e-01
2.039000000000000000e+03 3.763247680664062500e+01 -2.437644767761230469e+01 2.595442533493041992e-01 1.049903392791748047e+00 3.928343057632446289e-01 -2.077966928482055664e-01
2.040000000000000000e+03 7.511254882812500000e+01 -4.045256805419921875e+01 5.071457126177847385e-04 -3.487466368824243546e-03 -8.940962143242359161e-04 5.551515496335923672e-04
2.041000000000000000e+03 5.399166584014892578e+00 -1.617919921875000000e+01 1.617340296506881714e-01 4.521803855895996094e-01 1.841743290424346924e-01 5.272728204727172852e-02
2.042000000000000000e+03 5.140978336334228516e+00 4.042327117919921875e+01 -2.498756512068212032e-04 -1.970396842807531357e-04 -1.340746093774214387e-04 9.324070333605050109e-07
2.043000000000000000e+03 4.294023513793945312e+01 2.657467603683471680e+00 -1.174508213996887207e+00 -1.023854851722717285e+00 -6.595089435577392578e-01 1.259398087859153748e-02
2.044000000000000000e+03 2.830510330200195312e+01 -6.912431240081787109e+00 9.853389859199523926e-01 3.538012027740478516e+00 1.357005357742309570e+00 -7.096248269081115723e-01
2.045000000000000000e+03 2.785288047790527344e+01 -6.547153949737548828e+00 1.121037721633911133e+00 4.491713523864746094e+00 1.683825492858886719e+00 1.198394317179918289e-02
2.046000000000000000e+03 2.790076637268066406e+01 -6.780810832977294922e+00 1.011629104614257812e+00 3.936012268066406250e+00 1.484292387962341309e+00 -9.294418990612030029e-02
2.047000000000000000e+03 2.722269058227539062e+01 -6.808348655700683594e+00 1.316762208938598633e+00 3.614562511444091797e+00 1.479397416114807129e+00 8.879271745681762695e-01
2.048000000000000000e+03 2.686815834045410156e+01 -5.470139980316162109e+00 4.212437629699707031e+00 3.235826969146728516e+00 2.234479427337646484e+00 2.250656604766845703e+00
2.049000000000000000e+03 2.605233001708984375e+01 -5.721135139465332031e+00 3.563564062118530273e+00 1.203600049018859863e+00 1.430149197578430176e+00 1.428496956825256348e+00
2.050000000000000000e+03 2.601302146911621094e+01 -4.404464721679687500e+00 4.358078002929687500e+00 -2.483933866024017334e-01 1.232905387878417969e+00 -6.278695464134216309e-01
2.051000000000000000e+03 2.530687522888183594e+01 -5.818814277648925781e+00 3.065998315811157227e+00 4.069151282310485840e-01 1.041874051094055176e+00 8.480882048606872559e-01
2.052000000000000000e+03 2.573106002807617188e+01 -4.199212074279785156e+00 3.176501750946044922e+00 -4.984231889247894287e-01 8.034235239028930664e-01 -1.087317109107971191e+00
2.053000000000000000e+03 2.642719459533691406e+01 -3.241414070129394531e+00 8.323715329170227051e-01 1.048294827342033386e-01 2.811602950096130371e-01 -2.079287052154541016e+00
2.054000000000000000e+03 2.564120674133300781e+01 -3.315958499908447266e+00 7.271009683609008789e-01 -7.835131287574768066e-01 -1.692364178597927094e-02 -2.553096294403076172e+00
2.055000000000000000e+03 2.884187507629394531e+01 -7.560618400573730469e+00 9.606933593750000000e-01 2.404995918273925781e+00 1.009706735610961914e+00 -9.287132024765014648e-01
2.056000000000000000e+03 2.884280204772949219e+01 -7.156486034393310547e+00 1.107997417449951172e+00 2.619697332382202148e+00 1.118308424949645996e+00 -1.072535514831542969e+00
2.057000000000000000e+03 2.951210403442382812e+01 -7.328048229217529297e+00 1.306750297546386719e+00 1.691141366958618164e+00 8.993675112724304199e-01 -1.205772995948791504e+00
2.058000000000000000e+03 2.698406791687011719e+01 -2.655165910720825195e+00 -2.964283943176269531e+00 1.257379293441772461e+00 -5.120713710784912109e-01 -2.067052125930786133e+00
2.059000000000000000e+03 2.667858505249023438e+01 -2.870076417922973633e+00 -1.851400494575500488e+00 1.126823067665100098e+00 -2.173731923103332520e-01 -2.166421890258789062e+00
2.060000000000000000e+03 2.587323379516601562e+01 -2.967866659164428711e+00 -1.663750648498535156e+00 -1.030292391777038574e+00 -8.082128763198852539e-01 -2.251668691635131836e+00
2.061000000000000000e+03 2.327441787719726562e+01 -4.106078147888183594e+00 7.905176877975463867e-01 -4.398607313632965088e-01 1.051970943808555603e-01 -7.849892973899841309e-01
2.062000000000000000e+03 9.441651344299316406e+00 -5.003090381622314453e+00 1.063155825249850750e-03 1.384685467928647995e-02 4.473003093153238297e-03 2.074895240366458893e-02
2.063000000000000000e+03 1.018674945831298828e+01 -5.037083148956298828e+00 1.931210234761238098e-02 1.383777149021625519e-02 9.944962337613105774e-03 3.821307793259620667e-02
2.064000000000000000e+03 3.127565956115722656e+01 -9.171010971069335938e+00 7.435148954391479492e-01 7.634016871452331543e-01 4.520749747753143311e-01 -8.830451965332031250e-01
2.065000000000000000e+03 2.509134864807128906e+01 -3.618979692459106445e+00 9.200338721275329590e-01 -4.599299132823944092e-01 1.380311846733093262e-01 -1.794770121574401855e+00
2.066000000000000000e+03 1.582464408874511719e+01 5.803895473480224609e+00 -5.364696335163898766e-05 9.526005669613368809e-06 -1.323628748650662601e-05 -6.191987722559133545e-06
2.067000000000000000e+03 2.457814216613769531e+01 -3.135074377059936523e+00 -5.287134647369384766e-01 -5.816478654742240906e-02 -1.760634630918502808e-01 -1.704395651817321777e+00
2.068000000000000000e+03 3.205685043334960938e+01 -1.017247009277343750e+01 4.765015244483947754e-01 6.425185799598693848e-01 3.357060253620147705e-01 -8.508533239364624023e-01
2.069000000000000000e+03 3.292687225341796875e+01 -9.959883689880371094e+00 4.953736364841461182e-01 5.021775364875793457e-01 2.992653548717498779e-01 -7.888956069946289062e-01
2.070000000000000000e+03 3.772689056396484375e+01 -1.708118438720703125e+00 -7.359820008277893066e-01 2.483581542968750000e+00 5.242798924446105957e-01 -3.693390786647796631e-01
2.071000000000000000e+03 3.888868331909179688e+01 -3.217576265335083008e+00 -1.819854617118835449e+00 1.090600132942199707e+00 -2.187763452529907227e-01 -1.606665968894958496e+00
2.072000000000000000e+03 3.031238365173339844e+01 -8.421118736267089844e+00 9.335746765136718750e-01 1.106669902801513672e+00 6.120733618736267090e-01 -9.579992890357971191e-01
2.073000000000000000e+03 3.152828979492187500e+01 -9.859155654907226562e+00 5.385392308235168457e-01 7.299479246139526367e-01 3.805461525917053223e-01 -8.629208207130432129e-01
2.074000000000000000e+03 6.063486099243164062e+00 4.819550991058349609e+00 1.546891871839761734e-05 1.306541435042163357e-05 8.560300557292066514e-06 1.377297621729667298e-06
2.075000000000000000e+03 9.744913101196289062e+00 3.936696052551269531e+00 2.755896093731280416e-05 6.997249784035375342e-06 1.036686353472759947e-05 7.853928764234296978e-06
2.076000000000000000e+03 3.249716758728027344e+00 4.503737926483154297e+00 3.050695113415713422e-06 3.676271262520458549e-06 2.018089844568748958e-06 -1.836693172663217410e-06
2.077000000000000000e+03 4.618762493133544922e+00 4.215509891510009766e+00 -2.958667573693674058e-05 -7.814162927388679236e-06 -1.122025150834815577e-05 1.434375553799327463e-05
2.078000000000000000e+03 6.770687580108642578e+00 4.001842498779296875e+00 1.513381721451878548e-05 1.532712667540181428e-05 9.138283530774060637e-06 2.354492835365817882e-06
2.079000000000000000e+03 5.476314067840576172e+00 5.803966522216796875e+00 -7.145551535359118134e-06 -9.673018439571023919e-07 -2.433856025163549930e-06 7.944136086734943092e-07
2.080000000000000000e+03 1.564109325408935547e+01 3.261477708816528320e+00 -4.009857548226136714e-06 -4.225162228976842016e-06 -2.470505933160893619e-06 1.182340747618582100e-05
2.081000000000000000e+03 1.377355480194091797e+01 4.515580654144287109e+00 3.975734580308198929e-05 -2.030759560511796735e-06 1.131797580455895513e-05 -3.556923047653981484e-06
2.082000000000000000e+03 7.493670463562011719e+00 3.966557025909423828e+00 -1.807552325772121549e-05 -1.423986850568326190e-05 -9.694617801869753748e-06 -5.119722118251956999e-06
2.083000000000000000e+03 8.199722290039062500e+00 4.676919937133789062e+00 -2.139077150786761194e-05 -1.709933349047787488e-05 -1.154703204520046711e-05 -1.088737917598336935e-05
2.084000000000000000e+03 3.784263610839843750e+00 5.055633544921875000e+00 -6.510531238745898008e-05 -8.849800906318705529e-06 -2.218653571617323905e-05 7.703662959102075547e-06
2.085000000000000000e+03 3.731257629394531250e+01 -2.317408084869384766e+00 -7.394220232963562012e-01 2.185175180435180664e+00 4.337259531021118164e-01 -4.585972726345062256e-01
2.086000000000000000e+03 7.640586853027343750e+01 -1.998262214660644531e+01 -1.326690562564181164e-05 -1.814312126953154802e-04 -5.840943777002394199e-05 2.674491588550154120e-05
2.087000000000000000e+03 7.525619506835937500e+01 -1.851493453979492188e+01 -1.023098520818166435e-04 -1.734388060867786407e-04 -8.272459672298282385e-05 -1.484452659497037530e-04
2.088000000000000000e+03 7.261107635498046875e+01 -1.868807029724121094e+01 1.335845590801909566e-04 -2.442926634103059769e-04 -3.321242911624722183e-05 -2.731259155552834272e-04
2.089000000000000000e+03 7.238516998291015625e+01 -1.951968574523925781e+01 -1.058922207448631525e-04 1.221584534505382180e-04 4.879869266005698591e-06 1.575543574290350080e-04
2.090000000000000000e+03 7.321575164794921875e+01 -1.966650009155273438e+01 2.475500223226845264e-04 -8.866177813615649939e-05 4.766647543874569237e-05 -5.689542740583419800e-05
2.091000000000000000e+03 1.293502426147460938e+01 4.541352748870849609e+00 -3.568575266399420798e-05 7.995490136636362877e-07 -1.046586112352088094e-05 5.106398020870983601e-06
2.092000000000000000e+03 1.318940067291259766e+01 -5.300052642822265625e+00 9.640032052993774414e-02 -6.725868582725524902e-02 8.742489852011203766e-03 2.609929628670215607e-02
2.093000000000000000e+03 1.092345905303955078e+01 -5.084783554077148438e+00 2.586880885064601898e-02 -1.140966266393661499e-02 4.337743856012821198e-03 2.696167305111885071e-02
2.094000000000000000e+03 1.166700172424316406e+01 -5.146298885345458984e+00 5.047448351979255676e-02 -1.774734817445278168e-02 9.818140417337417603e-03 4.084014892578125000e-02
2.095000000000000000e+03 7.949734687805175781e+00 -4.158527851104736328e+00 -1.340249180793762207e-02 2.681145817041397095e-02 4.022689536213874817e-03 8.645582944154739380e-03
2.096000000000000000e+03 6.966952323913574219e+00 -6.606142997741699219e+00 -1.714887656271457672e-02 6.071067601442337036e-02 1.306854002177715302e-02 1.014118734747171402e-02
2.097000000000000000e+03 2.131856536865234375e+01 -4.427938461303710938e+00 5.703272819519042969e-01 -3.892018496990203857e-01 5.433762446045875549e-02 -4.839622378349304199e-01
2.098000000000000000e+03 2.318830108642578125e+01 -5.188112258911132812e+00 1.568476319313049316e+00 -5.033885240554809570e-01 3.195263147354125977e-01 -3.309760391712188721e-01
2.099000000000000000e+03 7.282772064208984375e+01 -9.278080940246582031e+00 2.064200583845376968e-03 -8.601467125117778778e-03 -1.961180008947849274e-03 4.678274563048034906e-04
2.100000000000000000e+03 1.132371234893798828e+01 3.883687257766723633e+00 2.898466664191801101e-05 2.643862217155401595e-06 9.488558134762570262e-06 1.500372377449821215e-06
2.101000000000000000e+03 8.936842918395996094e+00 4.684356689453125000e+00 2.768709236988797784e-05 1.310921834374312311e-05 1.223889285029144958e-05 1.294659432460321113e-05
2.102000000000000000e+03 7.121710205078125000e+01 -7.990821361541748047e+00 -2.429762855172157288e-03 -9.930151514708995819e-03 -3.707974217832088470e-03 -2.026062458753585815e-03
2.103000000000000000e+03 1.210684299468994141e+01 4.608387470245361328e+00 3.515853313729166985e-05 7.914260891084268223e-08 1.057130248227622360e-05 -2.772942764295294182e-07
2.104000000000000000e+03 1.648086547851562500e+01 -5.510818481445312500e+00 2.622031271457672119e-01 -2.310001701116561890e-01 9.360883384943008423e-03 -7.243885844945907593e-02
2.105000000000000000e+03 1.733886528015136719e+01 -5.519451618194580078e+00 3.179277181625366211e-01 -2.724362909793853760e-01 1.364742405712604523e-02 -1.208191588521003723e-01
2.106000000000000000e+03 3.435741424560546875e+01 -1.053265762329101562e+01 3.065514564514160156e-01 4.392529428005218506e-01 2.237413227558135986e-01 -6.983741521835327148e-01
2.107000000000000000e+03 3.567753219604492188e+01 -1.186001396179199219e+01 5.175455659627914429e-02 5.330071449279785156e-01 1.754285097122192383e-01 -6.224266290664672852e-01
2.108000000000000000e+03 3.415059280395507812e+01 -1.125915622711181641e+01 1.791884154081344604e-01 5.279120802879333496e-01 2.121301591396331787e-01 -7.544414997100830078e-01
2.109000000000000000e+03 1.242014884948730469e+01 -5.220158100128173828e+00 6.264938414096832275e-02 -4.961015656590461731e-02 3.911769017577171326e-03 2.122852019965648651e-02
2.110000000000000000e+03 7.200927734375000000e+01 -8.558059692382812500e+00 7.823311025276780128e-04 -1.070413924753665924e-02 -2.976542571559548378e-03 -1.468847738578915596e-03
2.111000000000000000e+03 7.347328186035156250e+01 -8.098782539367675781e+00 -3.430268960073590279e-03 -5.553877446800470352e-03 -2.695244038477540016e-03 4.528566263616085052e-03
2.112000000000000000e+03 7.281543731689453125e+01 -8.488101959228515625e+00 -3.906124271452426910e-03 -8.816823363304138184e-03 -3.816884476691484451e-03 3.693860257044434547e-03
2.113000000000000000e+03 4.338686943054199219e+00 -5.131981372833251953e+00 -1.874274946749210358e-02 1.091227028518915176e-02 -2.349143614992499352e-03 -2.781841903924942017e-02
2.114000000000000000e+03 3.999495506286621094e+00 -6.527692317962646484e+00 -2.217314578592777252e-02 1.154184527695178986e-02 -3.189390059560537338e-03 -3.800276294350624084e-02
2.115000000000000000e+03 7.023461914062500000e+01 -9.305438995361328125e+00 4.301228560507297516e-03 -5.400114692747592926e-03 -3.296658396720886230e-04 -1.830291235819458961e-03
2.116000000000000000e+03 7.495832824707031250e+01 -9.143566131591796875e+00 2.267671283334493637e-03 -1.637513167224824429e-03 1.890474377432838082e-04 6.457699462771415710e-03
2.117000000000000000e+03 7.566907501220703125e+01 -8.107267379760742188e+00 -3.081336617469787598e-03 -4.655017051845788956e-03 -2.320906147360801697e-03 5.052931606769561768e-03
2.118000000000000000e+03 3.491382217407226562e+01 -1.156169700622558594e+01 1.162889227271080017e-01 5.107156038284301758e-01 1.881013661623001099e-01 -6.844850778579711914e-01
2.119000000000000000e+03 3.700430679321289062e+01 -1.338258266448974609e+01 -1.170317828655242920e-01 6.382295489311218262e-01 1.563593298196792603e-01 -4.387148022651672363e-01
2.120000000000000000e+03 2.063545417785644531e+01 -5.226476669311523438e+00 7.049266099929809570e-01 -4.297879636287689209e-01 8.254159986972808838e-02 -2.898500561714172363e-01
2.121000000000000000e+03 5.128314495086669922e+00 -4.677333831787109375e+00 -2.121531032025814056e-02 1.458974462002515793e-02 -1.987669849768280983e-03 -2.294525876641273499e-02
2.122000000000000000e+03 6.480189800262451172e+00 -4.803318500518798828e+00 -2.177673391997814178e-02 2.613920532166957855e-02 1.308741513639688492e-03 -1.225650031119585037e-02
2.123000000000000000e+03 1.562995719909667969e+01 -5.482080459594726562e+00 1.935005038976669312e-01 -1.780606508255004883e-01 4.631957039237022400e-03 -5.203775316476821899e-02
2.124000000000000000e+03 3.265670776367187500e+01 -1.056982612609863281e+01 3.519082665443420410e-01 5.829277634620666504e-01 2.804507911205291748e-01 -8.255983591079711914e-01
2.125000000000000000e+03 3.336901473999023438e+01 -1.095763683319091797e+01 2.716603875160217285e-01 5.309764146804809570e-01 2.407910376787185669e-01 -7.965813279151916504e-01
2.126000000000000000e+03 7.178607940673828125e+00 -4.896496295928955078e+00 -1.438589487224817276e-02 3.295843303203582764e-02 5.571761168539524078e-03 3.640139941126108170e-03
2.127000000000000000e+03 7.921776771545410156e+00 -4.950610160827636719e+00 -1.545063499361276627e-02 2.709040232002735138e-02 3.491930197924375534e-03 4.587871488183736801e-03
2.128000000000000000e+03 3.985952377319335938e+01 -1.077288436889648438e+01 4.385129362344741821e-02 2.109477967023849487e-01 7.643972337245941162e-02 -1.698224395513534546e-01
2.129000000000000000e+03 1.891461944580078125e+01 -4.740641593933105469e+00 3.397025465965270996e-01 -3.466819822788238525e-01 -2.093834569677710533e-03 -2.700665593147277832e-01
2.130000000000000000e+03 1.398070907592773438e+01 -5.375495910644531250e+00 1.146862432360649109e-01 -1.038969680666923523e-01 3.236781805753707886e-03 -3.453615121543407440e-03
2.131000000000000000e+03 1.479486179351806641e+01 -5.436568260192871094e+00 1.631066203117370605e-01 -1.371135562658309937e-01 7.797915954142808914e-03 -1.074861641973257065e-02
2.132000000000000000e+03 1.128617954254150391e+01 4.662330627441406250e+00 -3.463234315859153867e-05 -1.793300498320604675e-06 -1.092769252863945439e-05 -3.538287501214654185e-06
2.133000000000000000e+03 1.902420997619628906e+01 -5.454154014587402344e+00 4.902426898479461670e-01 -3.663399517536163330e-01 3.717081993818283081e-02 -1.970728635787963867e-01
2.134000000000000000e+03 9.611269950866699219e+00 5.497234344482421875e+00 3.574216316337697208e-05 9.743238479131832719e-06 1.364562103844946250e-05 1.327809786744182929e-05
2.135000000000000000e+03 2.597264480590820312e+01 -6.084748744964599609e+00 2.940727233886718750e+00 1.388963580131530762e+00 1.298907279968261719e+00 1.430366158485412598e+00
2.136000000000000000e+03 1.818920707702636719e+01 -5.504520416259765625e+00 4.071434140205383301e-01 -3.389874994754791260e-01 2.044678106904029846e-02 -1.542459130287170410e-01
2.137000000000000000e+03 7.065317535400390625e+01 -8.469640731811523438e+00 -6.833305116742849350e-03 -1.220857165753841400e-02 -5.712562706321477890e-03 -2.312717260792851448e-03
2.138000000000000000e+03 3.293655776977539062e+01 -1.507880783081054688e+01 -4.403607845306396484e-01 6.534113883972167969e-01 6.391519308090209961e-02 -8.175442218780517578e-01
2.139000000000000000e+03 2.163149452209472656e+01 -6.385060787200927734e+00 1.167183399200439453e+00 -4.554848670959472656e-01 2.135095596313476562e-01 -7.573772687464952469e-03
2.140000000000000000e+03 6.863158416748046875e+01 -1.889185547828674316e+00 -1.399334073066711426e-01 1.917146332561969757e-02 -3.622858226299285889e-02 -4.483139514923095703e-02
2.141000000000000000e+03 1.799896240234375000e+01 -1.309609603881835938e+01 1.099564954638481140e-01 -1.605241447687149048e-01 -1.517029572278261185e-02 4.061994552612304688e-01
2.142000000000000000e+03 1.647818374633789062e+01 -1.339486598968505859e+01 9.293811023235321045e-02 -1.848080456256866455e-01 -2.756098099052906036e-02 3.649227321147918701e-01
2.143000000000000000e+03 2.569750404357910156e+01 -1.505108165740966797e+01 -6.111597418785095215e-01 2.965734601020812988e-01 -9.437587112188339233e-02 1.970027387142181396e-01
2.144000000000000000e+03 2.448314094543457031e+01 -1.404554557800292969e+01 -3.249618113040924072e-01 3.407803475856781006e-01 4.745568614453077316e-03 3.713969886302947998e-01
2.145000000000000000e+03 6.706881999969482422e+00 -1.378476715087890625e+01 4.089330614078789949e-04 3.949160277843475342e-01 1.185974851250648499e-01 5.999003350734710693e-02
2.146000000000000000e+03 7.010895538330078125e+01 -6.235647678375244141e+00 -2.657739631831645966e-02 -9.802331216633319855e-03 -1.091391779482364655e-02 -6.252218154259026051e-04
2.147000000000000000e+03 6.497863292694091797e+00 -1.647305870056152344e+01 2.228018045425415039e-01 6.258828043937683105e-01 2.546053826808929443e-01 1.318442225456237793e-01
2.148000000000000000e+03 7.393527221679687500e+01 -3.254510402679443359e+00 -3.257257863879203796e-02 -1.767042838037014008e-02 -1.507290173321962357e-02 -1.990966871380805969e-02
2.149000000000000000e+03 2.546505546569824219e+01 -1.406525611877441406e+01 -4.029186666011810303e-01 4.268427193164825439e-01 7.177218794822692871e-03 2.869499623775482178e-01
2.150000000000000000e+03 3.984136199951171875e+01 -1.275728702545166016e+01 -5.975533276796340942e-03 3.744608163833618164e-01 1.105455830693244934e-01 -1.845344007015228271e-01
2.151000000000000000e+03 3.820948410034179688e+01 -1.160032749176025391e+01 4.942246526479721069e-02 3.676038086414337158e-01 1.251078844070434570e-01 -3.374786376953125000e-01
2.152000000000000000e+03 6.043640136718750000e+01 1.586986184120178223e+00 -5.709483027458190918e-01 4.669328406453132629e-02 -1.572764962911605835e-01 -1.987381726503372192e-01
2.153000000000000000e+03 5.629438781738281250e+01 2.761468648910522461e+00 -8.948951363563537598e-01 3.223336860537528992e-02 -2.587985098361968994e-01 -3.147765398025512695e-01
2.154000000000000000e+03 3.156837081909179688e+01 -1.400484275817871094e+01 -3.061708211898803711e-01 5.049214959144592285e-01 5.962520465254783630e-02 -7.762970924377441406e-01
2.155000000000000000e+03 3.031667900085449219e+01 -1.530116653442382812e+01 -6.612129211425781250e-01 1.501449346542358398e-01 -1.533204019069671631e-01 -5.008581280708312988e-01
2.156000000000000000e+03 3.778919982910156250e+01 -1.892189788818359375e+01 6.856212019920349121e-02 1.032719135284423828e+00 3.303843736648559570e-01 -3.091266565024852753e-02
2.157000000000000000e+03 3.597758102416992188e+01 -1.716368865966796875e+01 -2.935104668140411377e-01 1.168010711669921875e+00 2.623500823974609375e-01 -2.726101279258728027e-01
2.158000000000000000e+03 1.237394142150878906e+01 -1.303325939178466797e+01 1.513954550027847290e-01 1.999612338840961456e-02 5.141747370362281799e-02 3.682462573051452637e-01
2.159000000000000000e+03 1.324205303192138672e+01 -1.345726585388183594e+01 1.371417790651321411e-01 -5.639464035630226135e-02 2.422414347529411316e-02 3.492415547370910645e-01
2.160000000000000000e+03 7.503334045410156250e+01 -3.224114990234375000e+01 -1.019685179926455021e-03 -3.814288356807082891e-04 -4.203341959509998560e-04 1.146750757470726967e-03
2.161000000000000000e+03 3.514905548095703125e+01 -1.736297845840454102e+00 9.362757802009582520e-01 2.201488733291625977e+00 9.413293600082397461e-01 1.117568492889404297e+00
2.162000000000000000e+03 1.338808917999267578e+01 1.250771045684814453e+01 -7.211063348222523928e-05 1.014798129972405150e-07 -2.160274743800982833e-05 -9.483672329224646091e-06
2.163000000000000000e+03 6.859751892089843750e+01 -3.118348598480224609e+00 -1.052489951252937317e-01 2.383052371442317963e-03 -3.085978329181671143e-02 -2.086997777223587036e-02
2.164000000000000000e+03 6.738742065429687500e+01 -3.229153871536254883e+00 -1.241694912314414978e-01 2.396197989583015442e-02 -3.006225265562534332e-02 -1.237621344625949860e-02
2.165000000000000000e+03 1.720415496826171875e+01 -1.255079650878906250e+01 2.005554437637329102e-01 -1.938034445047378540e-01 2.025597728788852692e-03 3.912689089775085449e-01
2.166000000000000000e+03 7.397965240478515625e+01 -3.135263633728027344e+01 -7.995059131644666195e-04 -3.729454765561968088e-04 -3.517354198265820742e-04 1.194927026517689228e-03
2.167000000000000000e+03 7.467629241943359375e+01 -2.938929367065429688e+01 -7.802853942848742008e-04 -3.879303403664380312e-04 -3.504647174850106239e-04 5.173837998881936073e-04
2.168000000000000000e+03 7.355905151367187500e+01 -2.318299102783203125e+01 -2.971508947666734457e-04 -1.899089256767183542e-04 -1.461179490434005857e-04 -2.061530831269919872e-04
2.169000000000000000e+03 7.319608306884765625e+01 2.925260734558105469e+01 3.606152161955833435e-02 -4.873985350131988525e-01 -1.354010999202728271e-01 -5.381902307271957397e-02
2.170000000000000000e+03 7.181256103515625000e+01 -2.783533096313476562e+00 -6.565869599580764771e-02 -9.200477041304111481e-03 -2.245775237679481506e-02 -3.253464028239250183e-02
2.171000000000000000e+03 7.498919677734375000e+01 -3.078532218933105469e+00 -2.672714926302433014e-02 -1.524987164884805679e-02 -1.259310636669397354e-02 -1.989232003688812256e-02
2.172000000000000000e+03 7.321497344970703125e+01 2.763509750366210938e+01 3.770072385668754578e-02 -4.814969599246978760e-01 -1.331388801336288452e-01 -6.960351765155792236e-02
2.173000000000000000e+03 7.464831542968750000e+01 -2.623159980773925781e+01 -1.359269081149250269e-04 2.077467215713113546e-04 2.154594403691589832e-05 3.320734249427914619e-04
2.174000000000000000e+03 7.378453063964843750e+01 2.183570480346679688e+01 3.942505270242691040e-02 -4.619033038616180420e-01 -1.267434805631637573e-01 -1.256497949361801147e-01
2.175000000000000000e+03 7.411955261230468750e+01 1.504827499389648438e+01 1.830081827938556671e-02 -3.483551442623138428e-01 -9.901629388332366943e-02 -1.887695640325546265e-01
2.176000000000000000e+03 7.531652069091796875e+01 1.922490310668945312e+01 2.201827429234981537e-02 -4.770300090312957764e-01 -1.365035176277160645e-01 -1.292785555124282837e-01
2.177000000000000000e+03 7.401004028320312500e+01 1.772908210754394531e+01 3.137329965829849243e-02 -4.026913046836853027e-01 -1.113953962922096252e-01 -1.707642972469329834e-01
2.178000000000000000e+03 7.410394287109375000e+01 3.608523130416870117e+00 -5.034602433443069458e-02 -8.606577664613723755e-02 -4.092353954911231995e-02 -1.228224858641624451e-01
2.179000000000000000e+03 7.435452270507812500e+01 2.278552055358886719e+00 -5.350566282868385315e-02 -6.149963289499282837e-02 -3.450158610939979553e-02 -9.720630198717117310e-02
2.180000000000000000e+03 7.391891479492187500e+01 8.405228614807128906e+00 -2.813719213008880615e-02 -1.814893335103988647e-01 -6.288795918226242065e-02 -1.846913397312164307e-01
2.181000000000000000e+03 7.545011901855468750e+01 1.242562484741210938e+01 1.992316683754324913e-03 -3.094131350517272949e-01 -9.222624450922012329e-02 -1.602837741374969482e-01
2.182000000000000000e+03 7.412011718750000000e+01 1.105485343933105469e+01 -6.766193546354770660e-03 -2.497696131467819214e-01 -7.696074247360229492e-02 -1.942582428455352783e-01
2.183000000000000000e+03 7.362398529052734375e+01 2.460674095153808594e+01 3.982451185584068298e-02 -4.825415611267089844e-01 -1.328151077032089233e-01 -9.794887900352478027e-02
2.184000000000000000e+03 7.576348876953125000e+01 -2.874785995483398438e+01 -3.015256661456078291e-04 1.273153757210820913e-04 -5.226308712735772133e-05 4.016287275590002537e-04
2.185000000000000000e+03 7.482743835449218750e+01 -1.777368068695068359e+00 -3.216879069805145264e-02 -2.485588937997817993e-02 -1.710740476846694946e-02 -3.340217098593711853e-02
2.186000000000000000e+03 7.092630767822265625e+01 3.256551361083984375e+01 3.816379234194755554e-02 -3.678046762943267822e-01 -9.889227151870727539e-02 -2.846742421388626099e-02
2.187000000000000000e+03 7.414498138427734375e+01 1.371118354797363281e+01 1.200956664979457855e-02 -3.162211477756500244e-01 -9.126347303390502930e-02 -1.914757043123245239e-01
2.188000000000000000e+03 7.368314361572265625e+01 7.050440311431884766e+00 -4.397250711917877197e-02 -1.473889350891113281e-01 -5.740843340754508972e-02 -1.805748045444488525e-01
2.189000000000000000e+03 7.374571228027343750e+01 4.913001537322998047e+00 -5.559236928820610046e-02 -1.044598147273063660e-01 -4.801565408706665039e-02 -1.507273167371749878e-01
2.190000000000000000e+03 7.385260009765625000e+01 2.045815086364746094e+01 3.780804201960563660e-02 -4.453198313713073730e-01 -1.222535371780395508e-01 -1.431235522031784058e-01
2.191000000000000000e+03 7.393100738525390625e+01 1.908444213867187500e+01 3.760172426700592041e-02 -4.249127209186553955e-01 -1.161932945251464844e-01 -1.548607498407363892e-01
2.192000000000000000e+03 7.466405487060546875e+01 -4.410240352153778076e-01 -4.183382913470268250e-02 -3.162448853254318237e-02 -2.203749679028987885e-02 -5.209514871239662170e-02
2.193000000000000000e+03 4.747150039672851562e+01 2.197885704040527344e+01 2.982562780380249023e-01 1.272040843963623047e+00 4.710891246795654297e-01 2.528997063636779785e-01
2.194000000000000000e+03 4.828199768066406250e+01 2.497164344787597656e+01 2.649854719638824463e-01 1.116685748100280762e+00 4.145013689994812012e-01 1.543695628643035889e-01
2.195000000000000000e+03 1.128567600250244141e+01 2.897418403625488281e+01 -1.734380639391019940e-04 -8.479619282297790051e-06 -5.457530278363265097e-05 -7.880596240283921361e-05
2.196000000000000000e+03 1.479005908966064453e+01 -6.167559623718261719e+00 1.937509477138519287e-01 -1.544420123100280762e-01 1.179267745465040207e-02 1.473768427968025208e-02
2.197000000000000000e+03 4.646846771240234375e+01 5.875274658203125000e+00 6.306844353675842285e-01 -1.244846224784851074e+00 -1.842485368251800537e-01 -3.921877145767211914e-01
2.198000000000000000e+03 4.274464607238769531e+00 2.808864021301269531e+01 1.169027236755937338e-04 2.376901829848065972e-05 4.220152186462655663e-05 -2.903329550463240594e-05
2.199000000000000000e+03 5.430151939392089844e+00 2.902569961547851562e+01 1.235235104104503989e-04 2.590290023363195360e-06 3.783414285862818360e-05 -2.227948607469443232e-05
2.200000000000000000e+03 4.843618011474609375e+01 1.909837150573730469e+01 4.792342483997344971e-01 1.053137183189392090e+00 4.597114324569702148e-01 3.683299422264099121e-01
2.201000000000000000e+03 5.093034267425537109e+00 -9.676641464233398438e+00 -4.216692596673965454e-02 9.471260011196136475e-02 1.576370373368263245e-02 -3.503116592764854431e-02
2.202000000000000000e+03 7.508543395996093750e+01 -4.339426994323730469e+00 -1.757848449051380157e-02 -1.241441816091537476e-02 -8.997870609164237976e-03 -8.096891455352306366e-03
2.203000000000000000e+03 7.609214019775390625e+01 -6.894785881042480469e+00 -4.710877314209938049e-03 -1.457072678022086620e-03 -1.850384986028075218e-03 4.169414751231670380e-03
2.204000000000000000e+03 4.171042251586914062e+01 -2.193691253662109375e+01 2.029631882905960083e-01 3.685024082660675049e-01 1.714396774768829346e-01 -1.487491279840469360e-01
2.205000000000000000e+03 4.213422775268554688e+01 -2.631057357788085938e+01 1.469703465700149536e-01 4.022360742092132568e-01 1.647619307041168213e-01 -2.252649068832397461e-01
2.206000000000000000e+03 9.361897468566894531e+00 2.442408561706542969e+01 -1.134372796514071524e-04 -1.354703181277727708e-05 -3.809529516729526222e-05 -6.307125295279547572e-05
2.207000000000000000e+03 1.208894634246826172e+01 2.576033401489257812e+01 2.264228533022105694e-04 -4.949525828124023974e-05 5.307827814249321818e-05 3.695438499562442303e-05
2.208000000000000000e+03 7.404420471191406250e+01 -6.552947521209716797e+00 -1.292083878070116043e-02 -9.716866537928581238e-03 -6.791311316192150116e-03 7.611778564751148224e-04
2.209000000000000000e+03 4.723713684082031250e+01 2.058408355712890625e+01 3.417986929416656494e-01 1.313794970512390137e+00 4.966780841350555420e-01 3.298432528972625732e-01
2.210000000000000000e+03 7.452010345458984375e+01 -1.895633125305175781e+01 1.308931387029588223e-04 2.543025766499340534e-04 1.155587087851017714e-04 2.110605419147759676e-04
2.211000000000000000e+03 4.272757530212402344e+00 -1.494877815246582031e+01 4.591420665383338928e-02 2.066631764173507690e-01 7.577321678400039673e-02 -5.594390630722045898e-02
2.212000000000000000e+03 6.724939346313476562e+00 1.550906467437744141e+01 -9.152714483207091689e-05 1.901988071040250361e-05 -2.175217923650052398e-05 -8.366808287973981351e-06
2.213000000000000000e+03 4.341560363769531250e+00 2.139274597167968750e+01 -6.764905992895364761e-05 -1.224275001732166857e-05 -2.396754462097305804e-05 -1.402093403157778084e-05
2.214000000000000000e+03 4.266555786132812500e+00 1.575373458862304688e+01 -7.282249134732410312e-05 5.253486961009912193e-07 -2.168914215872064233e-05 -4.280611847207183018e-06
2.215000000000000000e+03 5.426887989044189453e+00 2.794596672058105469e+01 -8.093310316326096654e-05 -3.494484917609952390e-05 -3.476338679320178926e-05 -5.011118992115370929e-05
2.216000000000000000e+03 4.265925884246826172e+00 2.681765937805175781e+01 -7.720883149886503816e-05 -9.024327482620719820e-06 -2.586994742159731686e-05 -2.924063119280617684e-05
2.217000000000000000e+03 4.213817596435546875e+00 -1.227116394042968750e+01 -2.341682650148868561e-02 1.217138543725013733e-01 2.948910929262638092e-02 -7.305019348859786987e-02
2.218000000000000000e+03 6.848264217376708984e+00 -1.243516254425048828e+01 -1.664704643189907074e-02 3.040049374103546143e-01 8.620736747980117798e-02 6.469927728176116943e-02
2.219000000000000000e+03 5.595714569091796875e+00 1.843570327758789062e+01 7.833701238268986344e-05 6.509870672744000331e-06 2.545406459830701351e-05 1.905427052406594157e-05
2.220000000000000000e+03 5.609469890594482422e+00 2.130540084838867188e+01 7.817189180059358478e-05 1.861722194007597864e-05 2.903673521359451115e-05 2.003763438551686704e-05
2.221000000000000000e+03 5.547623634338378906e+00 1.702083587646484375e+01 -8.100595732685178518e-05 2.892482370953075588e-06 -2.343404230487067252e-05 -1.424274705641437322e-05
2.222000000000000000e+03 5.475627899169921875e+00 1.421618175506591797e+01 -7.723575981799513102e-05 4.255409294273704290e-06 -2.189410588471218944e-05 -1.058855673363723326e-06
2.223000000000000000e+03 5.773818016052246094e+00 3.557008361816406250e+01 -5.094825974083505571e-05 -1.716042315820232034e-04 -6.676574412267655134e-05 -2.134969690814614296e-05
2.224000000000000000e+03 4.529380035400390625e+01 -2.620462989807128906e+01 1.247274801135063171e-01 1.444013863801956177e-01 8.073865622282028198e-02 -1.468133479356765747e-01
2.225000000000000000e+03 4.510767745971679688e+01 6.795873641967773438e+00 1.382206082344055176e+00 -3.039451539516448975e-01 3.234782516956329346e-01 5.735360980033874512e-01
2.226000000000000000e+03 7.388642883300781250e+01 -1.948729515075683594e+01 -1.701770961517468095e-04 -2.906125155277550220e-04 -1.382368791382759809e-04 -2.618816506583243608e-04
2.227000000000000000e+03 3.977570295333862305e+00 1.011406230926513672e+01 -5.197470818529836833e-05 2.215118911408353597e-06 -1.492787669121753424e-05 8.876239007804542780e-06
2.228000000000000000e+03 5.117648601531982422e+00 9.895936965942382812e+00 4.059704588144086301e-05 1.402456888399683521e-07 1.222118771693203598e-05 -1.590942883922252804e-05
2.229000000000000000e+03 5.486982345581054688e+00 -1.365361118316650391e+01 8.471014909446239471e-03 3.179145455360412598e-01 9.791567176580429077e-02 -1.936160214245319366e-02
2.230000000000000000e+03 4.929515361785888672e+00 8.586553573608398438e+00 -3.625845783972181380e-05 -7.025591003184672445e-06 -1.298521510761929676e-05 1.364250965707469732e-05
2.231000000000000000e+03 5.003345489501953125e+00 -6.716288089752197266e+00 -1.976109668612480164e-02 3.564952686429023743e-02 4.766528960317373276e-03 -2.450440265238285065e-02
2.232000000000000000e+03 4.096409606933593750e+01 -2.338391494750976562e+01 2.315176427364349365e-01 4.958436191082000732e-01 2.182083725929260254e-01 -2.065813541412353516e-01
2.233000000000000000e+03 4.986084461212158203e+00 -7.592422008514404297e+00 -3.150193765759468079e-02 4.517503827810287476e-02 4.101929720491170883e-03 -3.475172817707061768e-02
2.234000000000000000e+03 6.002909183502197266e+00 -6.700206279754638672e+00 -2.708221040666103363e-02 4.805412888526916504e-02 6.291576195508241653e-03 -1.638265512883663177e-02
2.235000000000000000e+03 5.495661163330078125e+01 3.108571052551269531e+00 -9.965726733207702637e-01 7.920112460851669312e-02 -2.752114534378051758e-01 -3.465111851692199707e-01
2.236000000000000000e+03 5.272911453247070312e+01 5.023461818695068359e+00 -8.633586168289184570e-01 -1.282673925161361694e-01 -2.974877953529357910e-01 -7.759469747543334961e-01
2.237000000000000000e+03 5.402703094482421875e+01 4.617595672607421875e+00 -8.440474867820739746e-01 -5.833748728036880493e-03 -2.549643814563751221e-01 -5.869367718696594238e-01
2.238000000000000000e+03 1.404737758636474609e+01 6.725331306457519531e+00 -4.939438076689839363e-05 4.863282356382114813e-06 -1.335932938673067838e-05 -3.597736167648690753e-06
2.239000000000000000e+03 4.743968582153320312e+01 -3.479138183593750000e+01 -2.697097696363925934e-02 2.357291728258132935e-01 6.262745708227157593e-02 -1.071685478091239929e-01
2.240000000000000000e+03 3.968298339843750000e+01 -1.876831054687500000e+01 5.507129058241844177e-02 6.976106762886047363e-01 2.258045822381973267e-01 -2.441579848527908325e-02
2.241000000000000000e+03 3.855344009399414062e+01 -1.577376937866210938e+01 -1.397925615310668945e-01 7.471524477005004883e-01 1.822079569101333618e-01 -1.550182998180389404e-01
2.242000000000000000e+03 4.631840515136718750e+01 1.046628856658935547e+01 1.273921132087707520e+00 5.051053166389465332e-01 5.337079167366027832e-01 7.287210822105407715e-01
2.243000000000000000e+03 4.630681228637695312e+01 1.205422019958496094e+01 1.119449615478515625e+00 9.131668806076049805e-01 6.097849607467651367e-01 8.049397468566894531e-01
2.244000000000000000e+03 6.509792804718017578e+00 -1.045341491699218750e+01 -3.672150894999504089e-02 1.764653027057647705e-01 4.192313551902770996e-02 2.065015211701393127e-02
2.245000000000000000e+03 1.403665447235107422e+01 7.710586071014404297e+00 5.084897202323190868e-05 5.589335614786250517e-06 1.693149170023389161e-05 7.992994142114184797e-06
2.246000000000000000e+03 1.389032649993896484e+01 1.126336097717285156e+01 6.823482544859871268e-05 -2.376648581048357300e-06 1.975745362869929522e-05 8.794112545729149133e-06
2.247000000000000000e+03 4.538478469848632812e+01 1.648158454895019531e+01 5.098383426666259766e-01 1.686608910560607910e+00 6.589341759681701660e-01 6.239088773727416992e-01
2.248000000000000000e+03 4.670541763305664062e+01 1.644139671325683594e+01 5.959007143974304199e-01 1.304008483886718750e+00 5.699727535247802734e-01 5.815145969390869141e-01
2.249000000000000000e+03 6.228632354736328125e+01 2.401860713958740234e+00 -4.348005652427673340e-01 4.873799905180931091e-02 -1.158187687397003174e-01 -2.425521463155746460e-01
2.250000000000000000e+03 4.806950759887695312e+01 2.749967575073242188e+01 2.241043150424957275e-01 1.090922713279724121e+00 3.945081233978271484e-01 1.282376497983932495e-01
2.251000000000000000e+03 6.539244079589843750e+01 -2.101906687021255493e-01 -2.868903279304504395e-01 5.632615089416503906e-02 -6.916924566030502319e-02 -9.035964310169219971e-02
2.252000000000000000e+03 1.438575553894042969e+01 4.857227802276611328e+00 5.913804216106655076e-06 -1.310651714447885752e-05 -2.157813923986395821e-06 -1.056162363965995610e-05
2.253000000000000000e+03 4.639929580688476562e+01 1.356221294403076172e+01 8.957899808883666992e-01 1.131945013999938965e+00 6.083204746246337891e-01 7.490500807762145996e-01
2.254000000000000000e+03 3.855111312866210938e+01 -1.801242065429687500e+01 -9.368881583213806152e-03 8.758392333984375000e-01 2.599411010742187500e-01 -5.002785474061965942e-02
2.255000000000000000e+03 3.980852508544921875e+01 -1.091746330261230469e+00 -1.582610130310058594e+00 1.388309121131896973e+00 -5.829030275344848633e-02 -1.090094327926635742e+00
2.256000000000000000e+03 3.958234405517578125e+01 -2.211124038696289062e+01 2.486295700073242188e-01 7.043853998184204102e-01 2.859044969081878662e-01 -1.719387620687484741e-01
2.257000000000000000e+03 3.120683860778808594e+01 -1.033423233032226562e+01 4.117629230022430420e-01 7.840243577957153320e-01 3.587361872196197510e-01 -8.423445820808410645e-01
2.258000000000000000e+03 6.085049819946289062e+01 2.845941781997680664e+00 -5.142334699630737305e-01 2.741902135312557220e-02 -1.460443288087844849e-01 -2.990921735763549805e-01
2.259000000000000000e+03 4.654017257690429688e+01 1.501799392700195312e+01 7.487822771072387695e-01 1.243965625762939453e+00 5.978243350982666016e-01 6.667471528053283691e-01
2.260000000000000000e+03 5.802667617797851562e+01 3.597760438919067383e+00 -6.622645854949951172e-01 1.724509522318840027e-02 -1.935058385133743286e-01 -3.743915259838104248e-01
2.261000000000000000e+03 9.410374641418457031e+00 -5.768501758575439453e+00 1.423808746039867401e-02 3.057649731636047363e-02 1.344437524676322937e-02 4.410178214311599731e-02
2.262000000000000000e+03 4.590386199951171875e+01 -2.706724739074707031e+01 1.046091690659523010e-01 1.516312509775161743e-01 7.687212526798248291e-02 -1.421869248151779175e-01
2.263000000000000000e+03 5.144797515869140625e+01 5.446555137634277344e+00 -6.360302567481994629e-01 -3.398475944995880127e-01 -2.927633523941040039e-01 -8.832903504371643066e-01
2.264000000000000000e+03 1.322059249877929688e+01 3.539137649536132812e+01 -3.114975988864898682e-04 -2.653954434208571911e-04 -1.730679068714380264e-04 -3.558227617759257555e-04
2.265000000000000000e+03 9.592679023742675781e+00 3.214207458496093750e+01 1.706920156721025705e-04 1.060363647411577404e-04 8.301851630676537752e-05 9.970251994673162699e-05
2.266000000000000000e+03 4.883222961425781250e+01 8.371880531311035156e+00 7.597366571426391602e-01 -4.667539894580841064e-01 8.789479732513427734e-02 -2.954841852188110352e-01
2.267000000000000000e+03 4.295021438598632812e+01 6.273725032806396484e+00 1.906114816665649414e+00 9.967405796051025391e-01 8.708565831184387207e-01 1.586668848991394043e+00
2.268000000000000000e+03 4.547658920288085938e+01 8.060395240783691406e+00 1.488557100296020508e+00 -1.544558349996805191e-02 4.419334530830383301e-01 6.936337351799011230e-01
2.269000000000000000e+03 5.441777420043945312e+01 5.717659473419189453e+00 -5.891844034194946289e-01 -8.873885124921798706e-02 -2.033769786357879639e-01 -6.614073514938354492e-01
2.270000000000000000e+03 4.426053619384765625e+01 3.986856937408447266e+00 1.414155513048171997e-01 -1.606518983840942383e+00 -4.395310282707214355e-01 1.170272473245859146e-02
2.271000000000000000e+03 7.335557556152343750e+01 3.722980880737304688e+01 1.829580776393413544e-02 -5.078297853469848633e-01 -1.468601822853088379e-01 -1.842459477484226227e-02
2.272000000000000000e+03 1.554311466217041016e+01 3.587361907958984375e+01 7.499271887354552746e-04 -2.371712762396782637e-04 1.538267679279670119e-04 -2.072359711746685207e-05
2.273000000000000000e+03 8.082993507385253906e+00 -4.126911163330078125e+01 5.015052482485771179e-02 1.218196153640747070e-01 5.159104242920875549e-02 2.835454361047595739e-04
2.274000000000000000e+03 1.184720897674560547e+01 1.966589164733886719e+01 1.101539382943883538e-04 -4.795785116584738716e-06 3.160744745400734246e-05 1.991955286939628422e-05
2.275000000000000000e+03 6.837426662445068359e+00 1.685856056213378906e+01 8.443238766631111503e-05 -3.081799604842672125e-06 2.440517528157215565e-05 1.951355079654604197e-05
2.276000000000000000e+03 1.171282577514648438e+01 1.362365722656250000e+01 -7.443848153343424201e-05 -6.977025350352050737e-06 -2.442465120111592114e-05 -1.675424209679476917e-05
2.277000000000000000e+03 1.250487899780273438e+01 1.520894145965576172e+01 -7.788653601892292500e-05 -4.746538252220489085e-06 -2.478992246324196458e-05 -1.287826489715371281e-05
2.278000000000000000e+03 3.866378021240234375e+01 -2.982913208007812500e+01 -4.193136468529701233e-02 6.914221644401550293e-01 1.948472410440444946e-01 -1.650110185146331787e-01
2.279000000000000000e+03 2.052113914489746094e+01 -1.431121730804443359e+01 -1.578509360551834106e-01 2.755656465888023376e-02 -3.908830881118774414e-02 4.583769440650939941e-01
2.280000000000000000e+03 6.810917854309082031e+00 1.282614231109619141e+01 -6.524172931676730514e-05 -1.964870716619770974e-05 -2.546713039919268340e-05 -1.469296421419130638e-05
2.281000000000000000e+03 7.167852783203125000e+01 -2.781274604797363281e+01 -1.317809685133397579e-03 2.336981706321239471e-04 -3.252334718126803637e-04 -1.135423299274407327e-04
2.282000000000000000e+03 7.069788360595703125e+01 -3.058716392517089844e+01 -2.336134435608983040e-03 1.936001644935458899e-04 -6.427602493204176426e-04 4.120875091757625341e-04
2.283000000000000000e+03 3.979145812988281250e+01 -3.151647567749023438e+01 -7.514826208353042603e-02 5.782482028007507324e-01 1.509299874305725098e-01 -1.497080624103546143e-01
2.284000000000000000e+03 3.903293991088867188e+01 -2.786886215209960938e+01 6.559056043624877930e-02 7.254756093025207520e-01 2.373198419809341431e-01 -2.227363437414169312e-01
2.285000000000000000e+03 4.031785202026367188e+01 -2.541772270202636719e+01 1.942585408687591553e-01 5.826948285102844238e-01 2.330860197544097900e-01 -2.201374769210815430e-01
2.286000000000000000e+03 3.975257110595703125e+01 -2.329722023010253906e+01 2.611238956451416016e-01 6.806412935256958008e-01 2.825295627117156982e-01 -1.851471215486526489e-01
2.287000000000000000e+03 7.038192272186279297e+00 -3.402546310424804688e+01 -9.571931511163711548e-02 9.389245510101318359e-02 -5.480579566210508347e-04 8.505135774612426758e-03
2.288000000000000000e+03 9.633337020874023438e+00 1.647980880737304688e+01 9.386994497617706656e-05 3.982748239650391042e-06 2.935580778284929693e-05 2.915010009019169956e-05
2.289000000000000000e+03 1.178938770294189453e+01 2.118182182312011719e+01 -1.176986697828397155e-04 1.246541432919912040e-05 -3.156997627229429781e-05 -1.861053897300735116e-05
2.290000000000000000e+03 7.223023223876953125e+01 -2.454741668701171875e+01 -4.242335271555930376e-04 -1.463095395592972636e-04 -1.711629156488925219e-04 -1.346690260106697679e-04
2.291000000000000000e+03 4.776813888549804688e+01 3.299305343627929688e+01 3.300305828452110291e-02 1.008735537528991699e+00 3.125215768814086914e-01 1.111293062567710876e-01
2.292000000000000000e+03 1.253901481628417969e+01 2.893208694458007812e+01 3.384178271517157555e-04 -9.917260467773303390e-05 7.177356746979057789e-05 3.326170917716808617e-05
2.293000000000000000e+03 1.111636734008789062e+01 2.739675331115722656e+01 3.039898874703794718e-04 -8.782340592006221414e-05 6.484994810307398438e-05 6.348115130094811320e-05
2.294000000000000000e+03 4.535103225708007812e+01 3.013094329833984375e+01 1.776710003614425659e-01 1.259941458702087402e+00 4.312837421894073486e-01 4.155054688453674316e-02
2.295000000000000000e+03 7.390452575683593750e+01 -2.790674400329589844e+01 -4.275940009392797947e-04 3.746736620087176561e-04 -1.587610677233897150e-05 3.729536838363856077e-04
2.296000000000000000e+03 6.436201477050781250e+01 2.391727209091186523e+00 -3.476588129997253418e-01 3.357685357332229614e-02 -9.422458708286285400e-02 -2.330956161022186279e-01
2.297000000000000000e+03 6.347444534301757812e+01 1.750915288925170898e+00 -3.979441821575164795e-01 4.416492581367492676e-02 -1.061337739229202271e-01 -2.146578729152679443e-01
2.298000000000000000e+03 7.103517913818359375e+01 -3.548675537109375000e+01 -2.383968094363808632e-04 -3.318086237413808703e-05 -8.147329936036840081e-05 3.173636272549629211e-03
2.299000000000000000e+03 2.054855346679687500e+01 3.678796005249023438e+01 -3.659350040834397078e-04 -8.159087155945599079e-04 -3.545531071722507477e-04 8.979284903034567833e-04
2.300000000000000000e+03 1.190874195098876953e+01 2.422904014587402344e+01 -1.402410562150180340e-04 2.545916140661574900e-05 -3.443456807872280478e-05 -1.321003401244524866e-05
2.301000000000000000e+03 1.060187530517578125e+01 2.275394439697265625e+01 -1.245659950654953718e-04 9.137615961662959307e-06 -3.462851600488647819e-05 -3.133139398414641619e-05
2.302000000000000000e+03 7.143316650390625000e+01 -3.307528686523437500e+01 -1.923455158248543739e-03 3.666806442197412252e-04 -4.670323687605559826e-04 2.220488619059324265e-03
2.303000000000000000e+03 4.693355178833007812e+01 3.708475494384765625e+01 -1.300072968006134033e-01 9.957309365272521973e-01 2.597170770168304443e-01 6.664725393056869507e-02
2.304000000000000000e+03 1.681170272827148438e+01 -4.102401351928710938e+01 -2.245586924254894257e-02 -9.333747625350952148e-02 -3.473800420761108398e-02 1.609970815479755402e-02
2.305000000000000000e+03 2.882026100158691406e+01 -8.127736091613769531e+00 7.518121004104614258e-01 2.101658105850219727e+00 8.560410737991333008e-01 -7.483494281768798828e-01
2.306000000000000000e+03 2.832166862487792969e+01 -7.120627403259277344e+00 9.337075948715209961e-01 3.270764827728271484e+00 1.261341691017150879e+00 -6.578055620193481445e-01
2.307000000000000000e+03 2.811009788513183594e+01 -6.941012859344482422e+00 9.758560061454772949e-01 3.631317138671875000e+00 1.382151961326599121e+00 -4.345215857028961182e-01
2.308000000000000000e+03 2.703131103515625000e+01 -7.055198192596435547e+00 1.258617639541625977e+00 3.118370056152343750e+00 1.313096284866333008e+00 8.605839610099792480e-01
2.309000000000000000e+03 2.508593559265136719e+01 -3.992716312408447266e+00 2.060773849487304688e+00 -5.603953003883361816e-01 4.501135647296905518e-01 -1.519094347953796387e+00
2.310000000000000000e+03 2.274875068664550781e+01 -4.174646377563476562e+00 7.772224545478820801e-01 -3.614630997180938721e-01 1.247278079390525818e-01 -7.451111078262329102e-01
2.311000000000000000e+03 2.541186904907226562e+01 -4.028995513916015625e+00 2.548382520675659180e+00 -6.151494979858398438e-01 5.799699425697326660e-01 -1.437891960144042969e+00
2.312000000000000000e+03 2.445722961425781250e+01 -4.744717121124267578e+00 2.132825374603271484e+00 -5.057978034019470215e-01 4.881083071231842041e-01 -6.563782095909118652e-01
2.313000000000000000e+03 2.367140579223632812e+01 -3.997231483459472656e+00 8.595669865608215332e-01 -2.683388590812683105e-01 1.773684322834014893e-01 -1.121608495712280273e+00
2.314000000000000000e+03 2.977507400512695312e+01 -7.855434894561767578e+00 1.087410807609558105e+00 1.450668692588806152e+00 7.614238858222961426e-01 -1.064480423927307129e+00
2.315000000000000000e+03 2.816349792480468750e+01 -7.415134906768798828e+00 8.378579616546630859e-01 3.039435386657714844e+00 1.163187980651855469e+00 -4.381303191184997559e-01
2.316000000000000000e+03 2.997562408447265625e+01 -8.122110366821289062e+00 1.002659082412719727e+00 1.301846861839294434e+00 6.913517713546752930e-01 -9.999850988388061523e-01
2.317000000000000000e+03 2.410359573364257812e+01 -3.803050756454467773e+00 7.492232918739318848e-01 -3.787958025932312012e-01 1.111282408237457275e-01 -1.380648970603942871e+00
2.318000000000000000e+03 2.206943702697753906e+01 -4.296096324920654297e+00 5.745400786399841309e-01 -4.156589210033416748e-01 4.766434803605079651e-02 -6.386369466781616211e-01
2.319000000000000000e+03 2.140300750732421875e+01 -5.082174301147460938e+00 8.084420561790466309e-01 -4.782118201255798340e-01 9.906906634569168091e-02 -3.649616837501525879e-01
2.320000000000000000e+03 2.553521347045898438e+01 -3.698397874832153320e+00 1.612675547599792480e+00 -5.148010253906250000e-01 3.293623626232147217e-01 -1.934818387031555176e+00
2.321000000000000000e+03 2.963606834411621094e+01 -1.448548221588134766e+01 -4.536104202270507812e-01 3.444884121417999268e-01 -3.273659944534301758e-02 -4.297774732112884521e-01
2.322000000000000000e+03 1.015229606628417969e+01 -5.788329124450683594e+00 2.122261561453342438e-02 9.103449992835521698e-03 9.097820147871971130e-03 3.904457390308380127e-02
2.323000000000000000e+03 2.509424400329589844e+01 -5.456173896789550781e+00 3.047335386276245117e+00 -3.375459089875221252e-02 9.040742516517639160e-01 4.146277308464050293e-01
2.324000000000000000e+03 2.470024108886718750e+01 -4.108523368835449219e+00 1.638401508331298828e+00 -5.164272189140319824e-01 3.365922868251800537e-01 -1.327264666557312012e+00
2.325000000000000000e+03 1.088555240631103516e+01 -5.820357799530029297e+00 4.631088301539421082e-02 -7.361800817307084799e-05 1.387117989361286163e-02 5.655118823051452637e-02
2.326000000000000000e+03 2.999043083190917969e+01 -8.981932640075683594e+00 7.033886313438415527e-01 1.247749567031860352e+00 5.853414535522460938e-01 -8.785418272018432617e-01
2.327000000000000000e+03 3.035849380493164062e+01 -1.027055931091308594e+01 3.912389576435089111e-01 9.734593033790588379e-01 4.094094634056091309e-01 -7.909330725669860840e-01
2.328000000000000000e+03 6.936707019805908203e+00 7.155498981475830078e+00 1.581123251526150852e-05 7.817154255462810397e-06 7.088516213116236031e-06 -7.435823135892860591e-06
2.329000000000000000e+03 8.062725067138671875e+00 6.128765583038330078e+00 -1.615579094504937530e-05 -3.621439100243151188e-05 -1.571105531184002757e-05 -2.344570020795799792e-05
2.330000000000000000e+03 6.114955902099609375e+00 5.561538696289062500e+00 -3.371073034941218793e-05 2.468463208060711622e-06 -9.372680324304383248e-06 1.579480795044219121e-06
2.331000000000000000e+03 4.671469688415527344e+00 6.092622756958007812e+00 -1.947485543496441096e-05 -1.093045284505933523e-05 -9.121592484007123858e-06 1.279668958886759356e-05
2.332000000000000000e+03 6.772342205047607422e+00 4.746210575103759766e+00 -2.003023291763383895e-05 -1.333316322416067123e-05 -1.000901920633623376e-05 -7.515583888562105130e-07
2.333000000000000000e+03 6.782447814941406250e+00 5.504442691802978516e+00 2.116127870976924896e-05 1.552349749545101076e-05 1.100543340726289898e-05 -1.072585473593790084e-05
2.334000000000000000e+03 7.479375362396240234e+00 4.698670864105224609e+00 1.722368870105128735e-05 1.808329579944256693e-05 1.059209535014815629e-05 3.941881914215628058e-06
2.335000000000000000e+03 2.401526641845703125e+01 -5.083101749420166016e+00 2.064471721649169922e+00 -4.825557768344879150e-01 4.745747447013854980e-01 -3.521669209003448486e-01
2.336000000000000000e+03 2.378200912475585938e+01 -4.416567325592041016e+00 1.332729339599609375e+00 -5.154550671577453613e-01 2.451822757720947266e-01 -8.307437896728515625e-01
2.337000000000000000e+03 1.162584114074707031e+01 -5.870753765106201172e+00 5.879096686840057373e-02 -2.721799351274967194e-02 9.471892379224300385e-03 4.543817788362503052e-02
2.338000000000000000e+03 1.291515064239501953e+01 5.320920944213867188e+00 4.265635652700439095e-05 -7.000101959420135245e-06 1.069687641575001180e-05 -1.072044142347294837e-06
2.339000000000000000e+03 1.047979736328125000e+01 4.692708492279052734e+00 3.385321178939193487e-05 4.410600467963377014e-06 1.147914281318662688e-05 7.464984719263156876e-06
2.340000000000000000e+03 8.861485481262207031e+00 5.456996440887451172e+00 -3.099959576502442360e-05 -1.664429510128684342e-05 -1.429316671419655904e-05 -1.815078212530352175e-05
2.341000000000000000e+03 7.014244842529296875e+01 -7.156981468200683594e+00 -1.369603816419839859e-02 -9.040773846209049225e-03 -6.821043323725461960e-03 9.912149980664253235e-04
2.342000000000000000e+03 1.237533473968505859e+01 -5.946413040161132812e+00 9.276363998651504517e-02 -4.880432039499282837e-02 1.318779587745666504e-02 5.692092329263687134e-02
2.343000000000000000e+03 1.314335727691650391e+01 -6.037759304046630859e+00 1.154817938804626465e-01 -8.194530755281448364e-02 1.006094645708799362e-02 3.998225927352905273e-02
2.344000000000000000e+03 2.951274681091308594e+01 -1.140692520141601562e+01 8.403895795345306396e-02 9.520331621170043945e-01 3.108216524124145508e-01 -5.618600249290466309e-01
2.345000000000000000e+03 5.021559715270996094e+00 -5.969118118286132812e+00 -2.507031708955764771e-02 2.647752314805984497e-02 4.221619165036827326e-04 -2.729898132383823395e-02
2.346000000000000000e+03 5.069702148437500000e+00 -5.310302734375000000e+00 -1.534572988748550415e-02 1.798863708972930908e-02 7.928719860501587391e-04 -2.189456485211849213e-02
2.347000000000000000e+03 3.409585189819335938e+01 -1.494291305541992188e+01 -3.844015002250671387e-01 7.796592712402343750e-01 1.185773387551307678e-01 -7.672663331031799316e-01
2.348000000000000000e+03 7.502239990234375000e+01 -6.663703918457031250e+00 -8.356845937669277191e-03 -8.117088116705417633e-03 -4.942180123180150986e-03 2.767450176179409027e-03
2.349000000000000000e+03 3.723996353149414062e+01 -1.238183593750000000e+01 -9.263589978218078613e-03 5.113068819046020508e-01 1.506129801273345947e-01 -4.483539164066314697e-01
2.350000000000000000e+03 3.505005264282226562e+01 -1.352111434936523438e+01 -1.853238642215728760e-01 7.358304262161254883e-01 1.651519685983657837e-01 -6.991521120071411133e-01
2.351000000000000000e+03 8.684129714965820312e+00 -4.978284358978271484e+00 -2.980377059429883957e-03 3.181028366088867188e-02 8.648972027003765106e-03 2.410036139190196991e-02
2.352000000000000000e+03 8.581263542175292969e+00 -7.266489982604980469e+00 1.064568758010864258e-03 6.381471455097198486e-02 1.946378499269485474e-02 5.011969432234764099e-02
2.353000000000000000e+03 6.348764896392822266e+00 -5.530175685882568359e+00 -1.682332716882228851e-02 3.342491388320922852e-02 4.980476573109626770e-03 -6.224843673408031464e-03
2.354000000000000000e+03 5.799037933349609375e+00 -4.724635601043701172e+00 -1.705668307840824127e-02 2.238130755722522736e-02 1.597387483343482018e-03 -1.402475871145725250e-02
2.355000000000000000e+03 1.853584480285644531e+01 -9.932522773742675781e+00 5.303222537040710449e-01 -2.749891579151153564e-01 7.659993320703506470e-02 3.523867428302764893e-01
2.356000000000000000e+03 1.741252517700195312e+01 -6.246398925781250000e+00 4.110742807388305664e-01 -3.156476318836212158e-01 2.862798981368541718e-02 -4.646906256675720215e-02
2.357000000000000000e+03 7.280547332763671875e+01 -7.708115100860595703e+00 -7.843469269573688507e-03 -1.276935357600450516e-02 -6.183846853673458099e-03 1.001740529318340123e-04
2.358000000000000000e+03 7.197559356689453125e+01 -7.713162899017333984e+00 -1.064103841781616211e-02 -9.935912676155567169e-03 -6.173085421323776245e-03 1.639308291487395763e-03
2.359000000000000000e+03 7.040605545043945312e+00 -5.724587917327880859e+00 -2.160399779677391052e-02 4.175670072436332703e-02 6.045811343938112259e-03 -3.186825430020689964e-03
2.360000000000000000e+03 3.363488769531250000e+01 -1.268233585357666016e+01 -4.855759441852569580e-02 6.360162496566772461e-01 1.762375980615615845e-01 -8.137146830558776855e-01
2.361000000000000000e+03 3.245856475830078125e+01 -1.162354278564453125e+01 1.638313978910446167e-01 6.132268905639648438e-01 2.331174910068511963e-01 -8.377065658569335938e-01
2.362000000000000000e+03 1.394874382019042969e+01 -6.118689060211181641e+00 1.620265692472457886e-01 -1.184507161378860474e-01 1.307275425642728806e-02 3.828531876206398010e-02
2.363000000000000000e+03 1.477798271179199219e+01 -6.893771171569824219e+00 2.431210279464721680e-01 -1.772169619798660278e-01 1.977122202515602112e-02 6.460931152105331421e-02
2.364000000000000000e+03 1.565261745452880859e+01 -6.204681873321533203e+00 2.640910744667053223e-01 -2.109708487987518311e-01 1.593606360256671906e-02 1.812515314668416977e-03
2.365000000000000000e+03 1.997785186767578125e+01 -6.103682518005371094e+00 7.473035454750061035e-01 -4.270789623260498047e-01 9.606736898422241211e-02 -1.137609183788299561e-01
2.366000000000000000e+03 1.984188461303710938e+01 -5.358545303344726562e+00 5.904405117034912109e-01 -4.327598214149475098e-01 4.730421677231788635e-02 -2.464003413915634155e-01
2.367000000000000000e+03 2.781267547607421875e+01 -1.330141258239746094e+01 -2.995546460151672363e-01 6.265925765037536621e-01 9.811137616634368896e-02 -1.092679351568222046e-01
2.368000000000000000e+03 2.413531112670898438e+01 -1.300632095336914062e+01 -1.049330011010169983e-01 4.062239825725555420e-01 9.038729220628738403e-02 4.625951647758483887e-01
2.369000000000000000e+03 2.149211692810058594e+01 -5.736186027526855469e+00 1.049139022827148438e+00 -4.666577577590942383e-01 1.747443825006484985e-01 -1.813016533851623535e-01
2.370000000000000000e+03 1.828753852844238281e+01 -6.252222061157226562e+00 5.125615596771240234e-01 -3.515920937061309814e-01 4.829084128141403198e-02 -6.882747262716293335e-02
2.371000000000000000e+03 1.207544994354248047e+01 5.411387920379638672e+00 -4.108790744794532657e-05 2.146305860151187517e-06 -1.168248036265140399e-05 -3.438636440478148870e-06
2.372000000000000000e+03 1.202017974853515625e+01 7.052917957305908203e+00 -4.792963591171428561e-05 -8.935044206737075001e-06 -1.705940485408063978e-05 -1.863700890680775046e-05
2.373000000000000000e+03 1.914841461181640625e+01 -6.220782279968261719e+00 6.291553378105163574e-01 -4.154328703880310059e-01 6.411674618721008301e-02 -9.444865584373474121e-02
2.374000000000000000e+03 8.041119575500488281e+00 -1.274891567230224609e+01 9.628161787986755371e-04 3.289856612682342529e-01 9.898453950881958008e-02 1.405731290578842163e-01
2.375000000000000000e+03 9.144498825073242188e+00 -1.293539524078369141e+01 2.837106399238109589e-02 3.158320188522338867e-01 1.032609194517135620e-01 2.432551234960556030e-01
2.376000000000000000e+03 3.471874237060546875e+01 -1.555575275421142578e+01 -4.588496088981628418e-01 9.466372132301330566e-01 1.463362872600555420e-01 -6.837366819381713867e-01
2.377000000000000000e+03 3.611111450195312500e+01 -1.548598003387451172e+01 -3.192783892154693604e-01 9.465226531028747559e-01 1.881732642650604248e-01 -4.241645932197570801e-01
2.378000000000000000e+03 1.939373207092285156e+01 -1.275674915313720703e+01 1.372393816709518433e-01 -1.080788820981979370e-01 8.748149499297142029e-03 4.582299292087554932e-01
2.379000000000000000e+03 2.240798759460449219e+01 -1.478236675262451172e+01 -3.540002107620239258e-01 1.536945402622222900e-01 -6.009169667959213257e-02 4.341519474983215332e-01
2.380000000000000000e+03 6.865981292724609375e+01 -4.325356960296630859e+00 -7.529971003532409668e-02 5.336729809641838074e-03 -2.098889462649822235e-02 -8.444973267614841461e-03
2.381000000000000000e+03 6.902555847167968750e+01 -6.507787227630615234e+00 -2.307445555925369263e-02 -8.112929761409759521e-03 -9.356215596199035645e-03 7.203315617516636848e-04
2.382000000000000000e+03 1.259287261962890625e+01 -1.120635700225830078e+01 1.631830632686614990e-01 -2.892738580703735352e-02 4.027670249342918396e-02 3.011074662208557129e-01
2.383000000000000000e+03 1.035016250610351562e+01 -1.196969413757324219e+01 5.640530213713645935e-02 1.757842153310775757e-01 6.965685635805130005e-02 2.663601040840148926e-01
2.384000000000000000e+03 1.280335617065429688e+01 1.108669948577880859e+01 -7.152920443331822753e-05 1.016902956507692579e-06 -2.115369170496705920e-05 -1.800274549168534577e-05
2.385000000000000000e+03 1.373187351226806641e+01 8.830672264099121094e+00 -5.885619975742883980e-05 -1.922718411151436158e-07 -1.771454117260873318e-05 -1.351219816569937393e-05
2.386000000000000000e+03 1.044830131530761719e+01 -1.093413448333740234e+01 6.299219280481338501e-02 1.193519607186317444e-01 5.470324680209159851e-02 2.259348630905151367e-01
2.387000000000000000e+03 1.881453704833984375e+01 -1.358662414550781250e+01 4.025205969810485840e-02 -1.130376830697059631e-01 -2.183568663895130157e-02 4.260639548301696777e-01
2.388000000000000000e+03 1.746557044982910156e+01 -6.966941356658935547e+00 4.642096161842346191e-01 -3.165390789508819580e-01 4.430115967988967896e-02 2.502489835023880005e-02
2.389000000000000000e+03 2.349861907958984375e+01 -1.411259269714355469e+01 -3.135325312614440918e-01 2.756624221801757812e-01 -1.136103458702564240e-02 4.436588287353515625e-01
2.390000000000000000e+03 5.974794387817382812e+01 4.511826515197753906e+00 -4.782702326774597168e-01 6.205879617482423782e-03 -1.416193097829818726e-01 -4.029886126518249512e-01
2.391000000000000000e+03 3.224391937255859375e+01 -1.457520866394042969e+01 -3.597438931465148926e-01 5.499092936515808105e-01 5.704962462186813354e-02 -8.075734972953796387e-01
2.392000000000000000e+03 2.007205390930175781e+01 -1.321464443206787109e+01 7.459602504968643188e-02 -5.433277040719985962e-02 6.078976672142744064e-03 4.781157374382019043e-01
2.393000000000000000e+03 2.704025077819824219e+01 -1.366047763824462891e+01 -3.815979659557342529e-01 5.254427790641784668e-01 4.315343499183654785e-02 1.788315363228321075e-02
2.394000000000000000e+03 2.831775093078613281e+01 -1.411954212188720703e+01 -4.432864189147949219e-01 4.352945387363433838e-01 -2.397564472630620003e-03 -2.198145985603332520e-01
2.395000000000000000e+03 3.097045326232910156e+01 -1.464645481109619141e+01 -4.008897840976715088e-01 3.548801541328430176e-01 -1.380288880318403244e-02 -6.853783726692199707e-01
2.396000000000000000e+03 3.721910238265991211e+00 7.426057815551757812e+00 -4.098163481103256345e-05 -6.889503765705740079e-06 -1.436134152754675597e-05 7.778109647915698588e-06
2.397000000000000000e+03 1.558816242218017578e+01 5.094532012939453125e+00 3.319226016174070537e-05 -1.369712845189496875e-05 5.848539331054780632e-06 -9.498317922407295555e-06
2.398000000000000000e+03 3.680810165405273438e+01 -1.806665611267089844e+01 -8.104537427425384521e-02 1.184822440147399902e+00 3.311331272125244141e-01 -1.377688944339752197e-01
2.399000000000000000e+03 3.880381774902343750e+01 -1.376284122467041016e+01 -8.021464198827743530e-02 5.545831918716430664e-01 1.423105597496032715e-01 -2.364058494567871094e-01
2.400000000000000000e+03 3.787265396118164062e+01 -1.361150932312011719e+01 -9.383131563663482666e-02 6.043829321861267090e-01 1.531654894351959229e-01 -3.519753813743591309e-01
2.401000000000000000e+03 6.949903106689453125e+01 -8.233480453491210938e+00 -2.935841446742415428e-03 -1.017627399414777756e-02 -3.933634608983993530e-03 1.139875152148306370e-03
2.402000000000000000e+03 7.084507751464843750e+01 -7.383288383483886719e+00 -1.463251560926437378e-02 -1.604006439447402954e-02 -9.201774373650550842e-03 1.054668216966092587e-03
2.403000000000000000e+03 9.972979545593261719e+00 2.750705718994140625e+01 -1.718728890409693122e-04 3.072293111472390592e-05 -4.234498555888421834e-05 -8.186644117813557386e-05
2.404000000000000000e+03 5.317387008666992188e+01 6.153593063354492188e+00 -4.485449790954589844e-01 -1.909895539283752441e-01 -1.918603628873825073e-01 -7.355507612228393555e-01
2.405000000000000000e+03 5.533228302001953125e+01 4.260964870452880859e+00 -8.244091272354125977e-01 1.167651824653148651e-02 -2.438197880983352661e-01 -5.031866431236267090e-01
2.406000000000000000e+03 4.737847518920898438e+01 3.030257797241210938e+01 1.509041637182235718e-01 1.081791281700134277e+00 3.698086440563201904e-01 1.060630828142166138e-01
2.407000000000000000e+03 1.493749523162841797e+01 -1.197187232971191406e+01 2.058167159557342529e-01 -1.750879585742950439e-01 9.218628518283367157e-03 3.431951999664306641e-01
2.408000000000000000e+03 1.138753509521484375e+01 -1.201606750488281250e+01 1.112938746809959412e-01 9.086748957633972168e-02 6.064840778708457947e-02 3.105179965496063232e-01
2.409000000000000000e+03 3.317137527465820312e+01 -1.168384647369384766e+01 1.333385556936264038e-01 5.948400497436523438e-01 2.184535861015319824e-01 -8.280175328254699707e-01
2.410000000000000000e+03 3.184095191955566406e+01 -1.226083183288574219e+01 2.487761899828910828e-02 6.352353096008300781e-01 1.980338692665100098e-01 -8.250150680541992188e-01
2.411000000000000000e+03 7.181787872314453125e+01 -3.105850982666015625e+01 -1.513624330982565880e-03 4.104696854483336210e-04 -3.309464082121849060e-04 1.488529378548264503e-03
2.412000000000000000e+03 3.768865966796875000e+01 -1.577766704559326172e+01 -1.807560622692108154e-01 8.327738642692565918e-01 1.956053376197814941e-01 -2.351930737495422363e-01
2.413000000000000000e+03 1.287642383575439453e+01 3.242296218872070312e+01 3.410615317989140749e-04 -1.490374270360916853e-04 5.760723433922976255e-05 -5.621670425171032548e-05
2.414000000000000000e+03 6.332046985626220703e+00 3.140755271911621094e+01 7.219634426292032003e-05 2.575389044068288058e-05 2.938507168437354267e-05 -6.369761103997007012e-05
2.415000000000000000e+03 9.070664405822753906e+00 2.883626937866210938e+01 -2.736618989729322493e-05 -1.370699756080284715e-04 -4.933085074299015105e-05 -1.210793561767786741e-04
2.416000000000000000e+03 7.116029357910156250e+01 1.740152549743652344e+01 5.864713713526725769e-02 -3.172563314437866211e-01 -7.758276164531707764e-02 -2.209840118885040283e-01
2.417000000000000000e+03 7.269019317626953125e+01 1.624800109863281250e+01 3.571309894323348999e-02 -3.377459645271301270e-01 -9.060985594987869263e-02 -2.091433554887771606e-01
2.418000000000000000e+03 7.343902587890625000e+01 -6.525300145149230957e-01 -5.620021000504493713e-02 -3.112424723803997040e-02 -2.619733661413192749e-02 -5.768264830112457275e-02
2.419000000000000000e+03 7.489424133300781250e+01 -2.323008918762207031e+01 2.267803938593715429e-04 -8.596389307058416307e-06 6.545519863720983267e-05 1.983612455660477281e-04
2.420000000000000000e+03 7.153372192382812500e+01 1.100507640838623047e+01 -1.232767198234796524e-02 -2.064678817987442017e-01 -6.563866883516311646e-02 -2.531118690967559814e-01
2.421000000000000000e+03 7.261148071289062500e+01 8.554154396057128906e+00 -4.141229018568992615e-02 -1.685256361961364746e-01 -6.298137456178665161e-02 -2.217904329299926758e-01
2.422000000000000000e+03 7.099302673339843750e+01 3.834531784057617188e+00 -1.147718057036399841e-01 -5.318213999271392822e-02 -5.038618296384811401e-02 -1.775792837142944336e-01
2.423000000000000000e+03 7.315297698974609375e+01 2.017892122268676758e+00 -7.037587463855743408e-02 -5.465659499168395996e-02 -3.750974312424659729e-02 -1.085331812500953674e-01
2.424000000000000000e+03 7.414752197265625000e+01 1.237908458709716797e+01 1.540263649076223373e-03 -2.845949232578277588e-01 -8.491639792919158936e-02 -1.980792880058288574e-01
2.425000000000000000e+03 7.308623504638671875e+01 5.928427219390869141e+00 -5.294289439916610718e-02 -1.203777641057968140e-01 -5.199619755148887634e-02 -1.732508242130279541e-01
2.426000000000000000e+03 4.784616470336914062e+01 3.953992605209350586e+00 -1.196939826011657715e+00 -1.414524555206298828e+00 -7.834393382072448730e-01 -1.321515083312988281e+00
2.427000000000000000e+03 7.333172607421875000e+01 7.178570032119750977e-01 -6.798069924116134644e-02 -3.698694333434104919e-02 -3.149029240012168884e-02 -8.252830058336257935e-02
2.428000000000000000e+03 7.452488708496093750e+01 9.182782173156738281e-01 -4.526873305439949036e-02 -4.810314252972602844e-02 -2.801156230270862579e-02 -7.275478541851043701e-02
2.429000000000000000e+03 7.404502105712890625e+01 -4.425011634826660156e+00 -2.600548416376113892e-02 -1.233259774744510651e-02 -1.150142494589090347e-02 -1.233612652868032455e-02
2.430000000000000000e+03 8.029598236083984375e+00 -1.034731578826904297e+01 -1.373337768018245697e-02 1.779622286558151245e-01 4.926865547895431519e-02 9.960975497961044312e-02
2.431000000000000000e+03 8.112568855285644531e+00 2.275645637512207031e+01 -8.841581438900902867e-05 -2.267755735374521464e-05 -3.332801134092733264e-05 -5.754511585109867156e-05
2.432000000000000000e+03 7.141900634765625000e+01 3.069095802307128906e+01 4.420021921396255493e-02 -3.968932330608367920e-01 -1.058079004287719727e-01 -4.093885421752929688e-02
2.433000000000000000e+03 5.446236610412597656e+00 2.538665580749511719e+01 -8.601880836067721248e-05 -7.768757313897367567e-06 -2.813626997522078454e-05 -2.298586332472041249e-05
2.434000000000000000e+03 7.349675750732421875e+01 -2.179822921752929688e+01 2.372798771830275655e-04 6.200407369760796428e-05 8.978518599178642035e-05 1.263512240257114172e-04
2.435000000000000000e+03 5.997857093811035156e+00 -8.592395782470703125e+00 -3.757457435131072998e-02 9.412565827369689941e-02 1.696532592177391052e-02 -1.307680085301399231e-02
2.436000000000000000e+03 4.985638618469238281e+00 -8.582789421081542969e+00 -2.681650780141353607e-02 6.460572779178619385e-02 1.133676525205373764e-02 -2.801005914807319641e-02
2.437000000000000000e+03 7.307056427001953125e+00 2.752809143066406250e+01 1.343293406534940004e-04 -1.084570321836508811e-04 7.761694178043399006e-06 7.398446541628800333e-06
2.438000000000000000e+03 6.347975254058837891e+00 2.843634796142578125e+01 -3.172790093231014907e-05 5.409956793300807476e-05 6.711500645906198770e-06 -7.831286347936838865e-05
2.439000000000000000e+03 5.493279933929443359e+00 1.562945270538330078e+01 8.142912702169269323e-05 -4.476806225284235552e-06 2.308569673914462328e-05 9.342220437247306108e-06
2.440000000000000000e+03 8.222104072570800781e+00 1.660446357727050781e+01 -7.967876445036381483e-05 7.877956704760435969e-06 -2.154024332412518561e-05 -1.136793798650614917e-05
2.441000000000000000e+03 5.077400207519531250e+01 2.553121948242187500e+01 2.902369797229766846e-01 8.332418203353881836e-01 3.370436429977416992e-01 1.685207188129425049e-01
2.442000000000000000e+03 4.780261611938476562e+01 2.342886352539062500e+01 2.843154370784759521e-01 1.207027912139892578e+00 4.474029839038848877e-01 1.936712563037872314e-01
2.443000000000000000e+03 6.679855823516845703e+00 1.418566417694091797e+01 7.717074913671240211e-05 -2.701964376683463342e-06 2.234063504147343338e-05 4.050158167956396937e-06
2.444000000000000000e+03 5.522894859313964844e+00 1.273743152618408203e+01 6.627957191085442901e-05 4.998089934815652668e-06 2.138329909939784557e-05 -3.931020728487055749e-06
2.445000000000000000e+03 6.905843257904052734e+00 1.977464675903320312e+01 8.520200935890898108e-05 9.851278264250140637e-06 2.851598583220038563e-05 2.576148654043208808e-05
2.446000000000000000e+03 5.617787361145019531e+00 1.987263870239257812e+01 -7.182507397374138236e-05 -8.889673154044430703e-06 -2.421442513877991587e-05 -2.101716745528392494e-05
2.447000000000000000e+03 4.100813674926757812e+01 -2.678656768798828125e+01 1.246633678674697876e-01 5.250264406204223633e-01 1.949069350957870483e-01 -2.415822297334671021e-01
2.448000000000000000e+03 4.089524078369140625e+01 -2.807136154174804688e+01 7.743960618972778320e-02 5.248734354972839355e-01 1.806939095258712769e-01 -2.401974797248840332e-01
2.449000000000000000e+03 4.387592697143554688e+01 -2.659543228149414062e+01 1.287950724363327026e-01 2.615560889244079590e-01 1.171053498983383179e-01 -1.873784065246582031e-01
2.450000000000000000e+03 5.833779144287109375e+01 4.844959735870361328e+00 -5.042631626129150391e-01 1.092992257326841354e-02 -1.479999721050262451e-01 -4.318525791168212891e-01
2.451000000000000000e+03 5.943131256103515625e+01 3.233401060104370117e+00 -5.665024518966674805e-01 3.730530291795730591e-02 -1.587591469287872314e-01 -3.145472705364227295e-01
2.452000000000000000e+03 8.200933456420898438e+00 8.029211997985839844e+00 2.829369623214006424e-05 2.786037475743796676e-05 1.684622111497446895e-05 1.354134019493358210e-05
2.453000000000000000e+03 6.013131618499755859e+00 8.396085739135742188e+00 2.599440449557732791e-05 1.206080742122139782e-05 1.141656321124173701e-05 -8.720320693100802600e-06
2.454000000000000000e+03 1.224117279052734375e+01 1.229955291748046875e+01 7.265450403792783618e-05 3.053149157494772226e-06 2.271229641337413341e-05 1.506786702520912513e-05
2.455000000000000000e+03 7.402612304687500000e+01 -5.559902667999267578e+00 -1.762302964925765991e-02 -1.208746433258056641e-02 -8.913148194551467896e-03 -2.832308178767561913e-03
2.456000000000000000e+03 7.510312652587890625e+01 -5.543580055236816406e+00 -1.291271671652793884e-02 -7.524753920733928680e-03 -6.131241098046302795e-03 -2.588240662589669228e-03
2.457000000000000000e+03 3.618815612792968750e+01 -1.306146430969238281e+01 -1.001932099461555481e-01 6.585209965705871582e-01 1.674983352422714233e-01 -5.658548474311828613e-01
2.458000000000000000e+03 7.504221343994140625e+01 -1.994167518615722656e+01 -1.977997635549400002e-05 -3.804684092756360769e-04 -1.200745173264294863e-04 -2.037388476310297847e-04
2.459000000000000000e+03 7.323291778564453125e+01 -6.917217254638671875e+00 -9.901023469865322113e-03 -7.745548151433467865e-03 -5.293971858918666840e-03 1.873513800092041492e-03
2.460000000000000000e+03 4.883976364135742188e+01 2.169332122802734375e+01 3.697262406349182129e-01 1.055518031120300293e+00 4.275732636451721191e-01 2.618358731269836426e-01
2.461000000000000000e+03 4.946430587768554688e+01 2.779149436950683594e+01 2.202347815036773682e-01 9.288672208786010742e-01 3.447305858135223389e-01 1.382199823856353760e-01
2.462000000000000000e+03 4.852868270874023438e+01 5.120994091033935547e+00 -4.835490882396697998e-01 -9.044330120086669922e-01 -4.163946211338043213e-01 -1.025926113128662109e+00
2.463000000000000000e+03 8.710767745971679688e+00 6.264542102813720703e+00 3.561123594408854842e-05 1.825482650019694120e-05 1.615982000657822937e-05 1.949127181433141232e-05
2.464000000000000000e+03 4.288311386108398438e+01 5.072137832641601562e+00 1.326714873313903809e+00 3.383041620254516602e-01 4.995057284832000732e-01 1.239966273307800293e+00
2.465000000000000000e+03 4.813895034790039062e+01 6.723882198333740234e+00 4.044861495494842529e-01 -8.406940102577209473e-01 -1.308623552322387695e-01 -5.572428703308105469e-01
2.466000000000000000e+03 7.827429294586181641e+00 1.420460033416748047e+01 -4.168566738371737301e-05 -1.682964648352935910e-05 -1.755459379637613893e-05 8.853049621393438429e-06
2.467000000000000000e+03 1.059918498992919922e+01 2.119926452636718750e+01 1.323891483480110765e-04 -7.130483481887495145e-06 3.757759986910969019e-05 3.148639370920136571e-05
2.468000000000000000e+03 4.825031661987304688e+01 9.595150947570800781e+00 1.020243167877197266e+00 -2.333522140979766846e-01 2.360672950744628906e-01 5.722241103649139404e-02
2.469000000000000000e+03 2.068170738220214844e+01 -1.265636730194091797e+01 1.493421792984008789e-01 -1.518867071717977524e-02 4.024605080485343933e-02 5.189614295959472656e-01
2.470000000000000000e+03 4.674591827392578125e+01 9.015691757202148438e+00 1.343832254409790039e+00 -7.033316045999526978e-02 3.820497393608093262e-01 4.559014737606048584e-01
2.471000000000000000e+03 5.063879394531250000e+01 1.151139068603515625e+01 7.860214710235595703e-01 -7.562103122472763062e-02 2.131201326847076416e-01 -5.913740769028663635e-02
2.472000000000000000e+03 5.589901733398437500e+01 6.586958885192871094e+00 -3.810115456581115723e-01 -8.796214312314987183e-02 -1.406920999288558960e-01 -6.046425700187683105e-01
2.473000000000000000e+03 4.946989822387695312e+01 1.636186790466308594e+01 6.820183992385864258e-01 6.669643521308898926e-01 4.046948254108428955e-01 3.559527099132537842e-01
2.474000000000000000e+03 1.127242279052734375e+01 1.505847454071044922e+01 7.792467658873647451e-05 1.058506495610345155e-05 2.655292337294667959e-05 1.787613473425153643e-05
2.475000000000000000e+03 8.023357391357421875e+00 1.308725833892822266e+01 3.528498928062617779e-05 3.932767140213400126e-05 2.238379784103017300e-05 9.164105904346797615e-06
2.476000000000000000e+03 4.778108978271484375e+01 1.363712787628173828e+01 9.341714382171630859e-01 7.077400684356689453e-01 4.925734400749206543e-01 5.572642683982849121e-01
2.477000000000000000e+03 4.790183639526367188e+01 1.502509880065917969e+01 7.791482806205749512e-01 8.643052577972412109e-01 4.930360913276672363e-01 5.294919013977050781e-01
2.478000000000000000e+03 4.775393295288085938e+01 1.224182510375976562e+01 1.052805423736572266e+00 4.472177624702453613e-01 4.500069618225097656e-01 5.114112496376037598e-01
2.479000000000000000e+03 3.787641525268554688e+01 -2.581927490234375000e+01 1.767572164535522461e-01 9.315060377120971680e-01 3.324789702892303467e-01 -2.223826795816421509e-01
2.480000000000000000e+03 3.935934448242187500e+01 -2.612773513793945312e+01 1.560887098312377930e-01 7.252779006958007812e-01 2.644099891185760498e-01 -2.545734941959381104e-01
2.481000000000000000e+03 1.086882114410400391e+01 2.586762619018554688e+01 -1.594298373674973845e-04 3.588496838347055018e-05 -3.706346251419745386e-05 -4.187365630059503019e-05
2.482000000000000000e+03 4.466984939575195312e+01 -2.852135276794433594e+01 7.964309304952621460e-02 2.578241229057312012e-01 1.012401655316352844e-01 -1.789595335721969604e-01
2.483000000000000000e+03 4.744250869750976562e+01 7.754704475402832031e+00 9.453813433647155762e-01 -7.206269502639770508e-01 6.742631644010543823e-02 -1.635594069957733154e-01
2.484000000000000000e+03 1.383824825286865234e+01 3.369527053833007812e+01 5.059249233454465866e-04 -1.145828646258451045e-04 1.174026110675185919e-04 2.064632572000846267e-04
2.485000000000000000e+03 8.765741348266601562e+00 3.399296951293945312e+01 -3.359376205480657518e-05 -2.321429201401770115e-04 -7.972100866027176380e-05 -2.229391247965395451e-04
2.486000000000000000e+03 6.882608032226562500e+01 4.723787605762481689e-01 -1.716300100088119507e-01 1.229830738157033920e-02 -4.779951274394989014e-02 -1.063605695962905884e-01
2.487000000000000000e+03 4.000764846801757812e+01 -2.721056365966796875e+01 1.118106842041015625e-01 6.465051174163818359e-01 2.274947315454483032e-01 -2.239190936088562012e-01
2.488000000000000000e+03 5.696945571899414062e+01 5.155790328979492188e+00 -5.758151412010192871e-01 -1.352339796721935272e-02 -1.768015474081039429e-01 -5.061098337173461914e-01
2.489000000000000000e+03 4.623133468627929688e+01 7.081918239593505859e+00 1.100514173507690430e+00 -7.579121589660644531e-01 1.027805879712104797e-01 1.069072410464286804e-01
2.490000000000000000e+03 4.532524108886718750e+01 5.523348331451416016e+00 9.704855084419250488e-01 -1.084464907646179199e+00 -3.419381380081176758e-02 7.973156869411468506e-02
2.491000000000000000e+03 4.599544906616210938e+01 -3.153646469116210938e+01 1.915938407182693481e-02 2.442070841789245605e-01 7.900993525981903076e-02 -1.469218134880065918e-01
2.492000000000000000e+03 6.652083587646484375e+01 -4.159804284572601318e-01 -2.439866513013839722e-01 3.172056749463081360e-02 -6.367982923984527588e-02 -9.281636774539947510e-02
2.493000000000000000e+03 6.746270751953125000e+01 -1.886805415153503418e+00 -1.673437803983688354e-01 1.755109615623950958e-02 -4.493780434131622314e-02 -4.161076620221138000e-02
2.494000000000000000e+03 6.740357971191406250e+01 -4.112717437744140625e+01 6.505994126200675964e-03 -1.637269742786884308e-03 1.460617291741073132e-03 1.185268978588283062e-03
2.495000000000000000e+03 6.972358703613281250e+01 2.761875152587890625e+01 7.391537725925445557e-02 -3.229733407497406006e-01 -7.471738755702972412e-02 -7.519762963056564331e-02
2.496000000000000000e+03 7.185189819335937500e+01 2.916470527648925781e+01 4.599023982882499695e-02 -4.239512979984283447e-01 -1.133883222937583923e-01 -5.671770498156547546e-02
2.497000000000000000e+03 8.965029716491699219e+00 -3.883699035644531250e+01 3.200307860970497131e-02 5.991268157958984375e-02 2.757472917437553406e-02 1.740073319524526596e-03
2.498000000000000000e+03 7.237752532958984375e+01 7.385942935943603516e+00 -5.444736406207084656e-02 -1.384639889001846313e-01 -5.787340551614761353e-02 -2.110040485858917236e-01
2.499000000000000000e+03 7.321363067626953125e+01 -3.497236251831054688e+01 1.409602555213496089e-04 -3.428744676057249308e-04 -6.057426071492955089e-05 2.448368817567825317e-03
2.500000000000000000e+03 4.123102569580078125e+01 -3.353062438964843750e+01 -1.035889312624931335e-01 4.724480509757995605e-01 1.106577366590499878e-01 -1.400523334741592407e-01
2.501000000000000000e+03 3.992191314697265625e+01 -2.908801651000976562e+01 1.823497004806995392e-02 6.219326257705688477e-01 1.920502781867980957e-01 -2.009424418210983276e-01
2.502000000000000000e+03 4.562886428833007812e+01 4.202556610107421875e+00 -4.059332013130187988e-01 -1.843354701995849609e+00 -6.747863888740539551e-01 -7.011782526969909668e-01
2.503000000000000000e+03 7.074649047851562500e+01 2.866033172607421875e+01 6.100727245211601257e-02 -3.638001680374145508e-01 -9.083786606788635254e-02 -6.533756852149963379e-02
2.504000000000000000e+03 2.811605644226074219e+01 -7.186955928802490234e+00 8.783428668975830078e-01 3.255639791488647461e+00 1.240194797515869141e+00 -4.490437209606170654e-01
2.505000000000000000e+03 2.931731033325195312e+01 -8.453877449035644531e+00 7.533447146415710449e-01 1.726920127868652344e+00 7.440794706344604492e-01 -8.665842413902282715e-01
2.506000000000000000e+03 2.665449714660644531e+01 -6.925556659698486328e+00 1.619473099708557129e+00 2.757341623306274414e+00 1.313044428825378418e+00 1.211212515830993652e+00
2.507000000000000000e+03 2.620075416564941406e+01 -6.479135036468505859e+00 2.349971771240234375e+00 2.038093090057373047e+00 1.316419482231140137e+00 1.495085000991821289e+00
2.508000000000000000e+03 2.547878646850585938e+01 -4.506649971008300781e+00 3.455421924591064453e+00 -4.331332147121429443e-01 9.066866636276245117e-01 -6.566512584686279297e-01
2.509000000000000000e+03 2.285602188110351562e+01 -4.753999710083007812e+00 1.114271402359008789e+00 -4.768269658088684082e-01 1.912333369255065918e-01 -5.656884312629699707e-01
2.510000000000000000e+03 2.521416473388671875e+01 -4.275408744812011719e+00 2.530900478363037109e+00 -5.413541793823242188e-01 5.968639254570007324e-01 -1.098802566528320312e+00
2.511000000000000000e+03 2.477560806274414062e+01 -5.112608909606933594e+00 2.838070869445800781e+00 -3.714663982391357422e-01 7.399813532829284668e-01 -1.197177395224571228e-01
2.512000000000000000e+03 2.424271011352539062e+01 -4.300559520721435547e+00 1.674680233001708984e+00 -4.543938338756561279e-01 3.660859167575836182e-01 -1.016116499900817871e+00
2.513000000000000000e+03 2.216884422302246094e+01 -4.951045036315917969e+00 1.056757092475891113e+00 -4.611258506774902344e-01 1.786893606185913086e-01 -4.307971894741058350e-01
2.514000000000000000e+03 2.965469741821289062e+01 -8.344725608825683594e+00 8.774856925010681152e-01 1.490840315818786621e+00 7.104977965354919434e-01 -9.490104317665100098e-01
2.515000000000000000e+03 9.374527931213378906e+00 -6.538257122039794922e+00 1.330246962606906891e-02 3.298334404826164246e-02 1.388574484735727310e-02 4.781181365251541138e-02
2.516000000000000000e+03 1.374006175994873047e+01 -7.672513961791992188e+00 2.031424045562744141e-01 -1.312585920095443726e-01 2.156514488160610199e-02 1.171509101986885071e-01
2.517000000000000000e+03 3.038411140441894531e+01 -9.409903526306152344e+00 6.284828186035156250e-01 1.054075598716735840e+00 5.047675371170043945e-01 -8.638708591461181641e-01
2.518000000000000000e+03 5.894396305084228516e+00 7.239568710327148438e+00 -3.238711360609158874e-05 -1.356272969132987782e-05 -1.378495289827696979e-05 6.402205144695471972e-06
2.519000000000000000e+03 1.084550571441650391e+01 -6.550952434539794922e+00 4.759278148412704468e-02 -3.335460787639021873e-04 1.417777035385370255e-02 6.335362046957015991e-02
2.520000000000000000e+03 3.075793838500976562e+01 -9.894036293029785156e+00 4.985434412956237793e-01 8.865636587142944336e-01 4.155321419239044189e-01 -8.385836482048034668e-01
2.521000000000000000e+03 7.475122928619384766e+00 6.142473697662353516e+00 -3.734965048352023587e-06 3.172100332449190319e-05 8.395812074013520032e-06 -1.755974039951979648e-06
2.522000000000000000e+03 2.075852394104003906e+01 -5.922078132629394531e+00 8.748839497566223145e-01 -4.698382019996643066e-01 1.215137317776679993e-01 -1.540757417678833008e-01
2.523000000000000000e+03 7.466557025909423828e+00 5.433463096618652344e+00 -1.142670953413471580e-05 -2.496733213774859905e-05 -1.091821286536287516e-05 -2.257462256238795817e-06
2.524000000000000000e+03 1.040734195709228516e+01 5.503000259399414062e+00 -3.717451181728392839e-05 -6.515308086818549782e-06 -1.310694642597809434e-05 -1.010218147712294012e-05
2.525000000000000000e+03 9.482719421386718750e+00 6.336624622344970703e+00 -3.687288699438795447e-05 -1.413797053828602657e-05 -1.530325789644848555e-05 -1.262273690372239798e-05
2.526000000000000000e+03 1.229943370819091797e+01 -6.666652202606201172e+00 1.036340668797492981e-01 -5.146918445825576782e-02 1.564946398138999939e-02 7.322622090578079224e-02
2.527000000000000000e+03 1.370899295806884766e+01 5.199341773986816406e+00 -4.261976209818385541e-05 1.444155259378021583e-05 -8.453463124169502407e-06 2.408019327049260028e-06
2.528000000000000000e+03 1.295188903808593750e+01 6.117094039916992188e+00 -4.945473847328685224e-05 7.433020527969347313e-06 -1.260651515622157604e-05 -6.286858024395769462e-06
2.529000000000000000e+03 2.905418395996093750e+01 -1.368231296539306641e+01 -3.523266613483428955e-01 5.106137990951538086e-01 4.748613387346267700e-02 -3.685400784015655518e-01
2.530000000000000000e+03 1.305683612823486328e+01 -6.786334037780761719e+00 1.437871903181076050e-01 -8.716563880443572998e-02 1.698646321892738342e-02 7.979917526245117188e-02
2.531000000000000000e+03 1.389619922637939453e+01 -6.882531166076660156e+00 1.813983619213104248e-01 -1.232008039951324463e-01 1.745926588773727417e-02 7.224924117326736450e-02
2.532000000000000000e+03 5.752685546875000000e+00 -5.361074447631835938e+00 -2.476730942726135254e-02 2.784113772213459015e-02 9.221482905559241772e-04 -2.064589224755764008e-02
2.533000000000000000e+03 5.843994140625000000e+00 -5.955541133880615234e+00 -1.779064908623695374e-02 3.949459642171859741e-02 6.511183921247720718e-03 -1.140272058546543121e-02
2.534000000000000000e+03 2.488487625122070312e+01 -4.488258838653564453e+00 2.610364913940429688e+00 -5.474808216094970703e-01 6.188652515411376953e-01 -8.422732353210449219e-01
2.535000000000000000e+03 3.540686798095703125e+01 -1.270017528533935547e+01 -5.943403393030166626e-02 6.157831549644470215e-01 1.669047474861145020e-01 -6.497180461883544922e-01
2.536000000000000000e+03 3.465307998657226562e+01 -1.233260059356689453e+01 -4.129296634346246719e-03 6.093626618385314941e-01 1.815700232982635498e-01 -7.365928888320922852e-01
2.537000000000000000e+03 3.391774749755859375e+01 -1.198048305511474609e+01 7.666634768247604370e-02 5.685939192771911621e-01 1.935780793428421021e-01 -7.829053997993469238e-01
2.538000000000000000e+03 3.431930541992187500e+01 -1.308045387268066406e+01 -1.100673899054527283e-01 6.466005444526672363e-01 1.609599441289901733e-01 -7.689797878265380859e-01
2.539000000000000000e+03 1.652890777587890625e+01 -6.234172821044921875e+00 3.179236054420471191e-01 -2.494493573904037476e-01 2.054227329790592194e-02 -2.954261936247348785e-02
2.540000000000000000e+03 8.683877944946289062e+00 -8.421659469604492188e+00 -1.855492155300453305e-04 1.033062785863876343e-01 3.093621879816055298e-02 7.967685163021087646e-02
2.541000000000000000e+03 7.077480316162109375e+00 -7.522456645965576172e+00 -2.394629083573818207e-02 7.749261707067489624e-02 1.606389880180358887e-02 1.072108279913663864e-02
2.542000000000000000e+03 7.866065502166748047e+00 -5.752608776092529297e+00 -8.871777914464473724e-03 4.638009145855903625e-02 1.125249452888965607e-02 2.108492702245712280e-02
2.543000000000000000e+03 1.123329925537109375e+01 5.472593784332275391e+00 3.936311986763030291e-05 2.359043264732463285e-06 1.251664889423409477e-05 7.423354418278904632e-06
2.544000000000000000e+03 1.293821334838867188e+01 7.811780929565429688e+00 -5.292407149681821465e-05 -1.042247095028869808e-05 -1.900396273413207382e-05 -2.169765684811864048e-05
2.545000000000000000e+03 3.324482345581054688e+01 -1.332304477691650391e+01 -1.543607562780380249e-01 6.344874501228332520e-01 1.440380066633224487e-01 -8.254113197326660156e-01
2.546000000000000000e+03 3.223911285400390625e+01 -1.101762485504150391e+01 2.773304581642150879e-01 6.316962838172912598e-01 2.727080285549163818e-01 -8.474351763725280762e-01
2.547000000000000000e+03 8.654629707336425781e+00 -5.756576061248779297e+00 -4.463306628167629242e-03 3.375801444053649902e-02 8.788411505520343781e-03 2.333284914493560791e-02
2.548000000000000000e+03 1.578079700469970703e+01 -1.130147075653076172e+01 2.795047461986541748e-01 -2.093636095523834229e-01 2.104234136641025543e-02 3.367049992084503174e-01
2.549000000000000000e+03 1.864130592346191406e+01 -1.227076911926269531e+01 2.390391975641250610e-01 -1.641273349523544312e-01 2.247356250882148743e-02 4.428177177906036377e-01
2.550000000000000000e+03 3.092479515075683594e+01 -1.230549335479736328e+01 2.655641175806522369e-03 6.769909858703613281e-01 2.038939893245697021e-01 -7.570576667785644531e-01
2.551000000000000000e+03 1.244952774047851562e+01 -1.210255241394042969e+01 1.378778964281082153e-01 2.704232931137084961e-03 4.217464104294776917e-02 3.260784745216369629e-01
2.552000000000000000e+03 1.835605621337890625e+01 -7.024603366851806641e+00 5.739178061485290527e-01 -3.756153285503387451e-01 5.949073657393455505e-02 2.923003211617469788e-02
2.553000000000000000e+03 3.212590408325195312e+01 -1.337732791900634766e+01 -1.646987497806549072e-01 5.897110104560852051e-01 1.275036782026290894e-01 -8.245163559913635254e-01
2.554000000000000000e+03 1.205098628997802734e+01 6.231074810028076172e+00 4.675647505791857839e-05 1.453314979471542756e-07 1.407054242008598521e-05 1.086867723643081263e-05
2.555000000000000000e+03 2.017733383178710938e+01 -6.920667648315429688e+00 8.658982515335083008e-01 -4.295936524868011475e-01 1.308913826942443848e-01 5.347025766968727112e-02
2.556000000000000000e+03 2.094953346252441406e+01 -6.631768703460693359e+00 1.040526986122131348e+00 -4.407870769500732422e-01 1.799219846725463867e-01 3.035576455295085907e-02
2.557000000000000000e+03 1.232808780670166016e+01 9.782854080200195312e+00 -6.462465535150840878e-05 -5.787262125522829592e-06 -2.112357651640195400e-05 -3.194134842487983406e-05
2.558000000000000000e+03 1.928550148010253906e+01 -7.076089382171630859e+00 7.211648821830749512e-01 -3.942171633243560791e-01 9.808431565761566162e-02 5.382414534687995911e-02
2.559000000000000000e+03 6.599621295928955078e+00 1.077975463867187500e+01 1.115874147217255086e-05 -1.170456562249455601e-05 -1.637472024640374002e-07 -1.760400118655525148e-05
2.560000000000000000e+03 9.988203048706054688e+00 1.488031291961669922e+01 -8.069117757258936763e-05 -1.330717805103631690e-05 -2.819950532284565270e-05 -2.982941987283993512e-05
2.561000000000000000e+03 3.342834854125976562e+01 -1.442683506011962891e+01 -3.269189298152923584e-01 6.827597618103027344e-01 1.067522391676902771e-01 -7.984701395034790039e-01
2.562000000000000000e+03 3.460375595092773438e+01 -1.427831745147705078e+01 -2.919026315212249756e-01 7.653030753135681152e-01 1.420201361179351807e-01 -7.370647192001342773e-01
2.563000000000000000e+03 7.023141479492187500e+01 -7.928673744201660156e+00 -6.436650292016565800e-04 -7.743578404188156128e-03 -2.516173059120774269e-03 -4.239075351506471634e-03
2.564000000000000000e+03 2.958185577392578125e+01 -7.725588798522949219e+00 1.097904443740844727e+00 1.617916941642761230e+00 8.147463798522949219e-01 -1.078733563423156738e+00
2.565000000000000000e+03 3.276467514038085938e+01 -1.392862415313720703e+01 -2.735112011432647705e-01 6.259713172912597656e-01 1.057380437850952148e-01 -8.283172845840454102e-01
2.566000000000000000e+03 3.530771636962890625e+01 -1.630213928222656250e+01 -4.243513643741607666e-01 1.191985607147216797e+00 2.302902638912200928e-01 -4.757450520992279053e-01
2.567000000000000000e+03 3.683901977539062500e+01 -1.633097457885742188e+01 -2.507463395595550537e-01 1.034006595611572266e+00 2.349780946969985962e-01 -2.862237393856048584e-01
2.568000000000000000e+03 6.895191192626953125e+00 1.829558181762695312e+01 -7.820159953553229570e-05 -1.251878870789369103e-06 -2.383604260103311390e-05 -2.088453220494557172e-05
2.569000000000000000e+03 4.810544967651367188e+00 7.298704624176025391e+00 2.847249561455100775e-05 1.240829988091718405e-05 1.226423864864045754e-05 -1.037802758219186217e-05
2.570000000000000000e+03 8.208299636840820312e+00 -7.869379997253417969e+00 -3.708680858835577965e-03 7.924570888280868530e-02 2.266110852360725403e-02 5.516784265637397766e-02
2.571000000000000000e+03 1.298912906646728516e+01 6.929807186126708984e+00 5.425088238553144038e-05 1.618437408978934400e-06 1.676079591561574489e-05 1.603942109795752913e-05
2.572000000000000000e+03 1.067748546600341797e+01 2.431907463073730469e+01 1.834909489843994379e-04 -2.258437598356977105e-05 4.827196971746161580e-05 5.342971053323708475e-05
2.573000000000000000e+03 6.737887382507324219e+00 2.409711647033691406e+01 -4.434518268681131303e-05 -5.192028038436546922e-05 -2.887963819375727326e-05 -2.896582009270787239e-05
2.574000000000000000e+03 3.031505393981933594e+01 -1.394574069976806641e+01 -3.372578918933868408e-01 4.082965552806854248e-01 2.131159603595733643e-02 -5.927135944366455078e-01
2.575000000000000000e+03 3.109162712097167969e+01 -1.134301185607910156e+01 1.913405060768127441e-01 7.497746348381042480e-01 2.823345363140106201e-01 -8.032570481300354004e-01
2.576000000000000000e+03 7.284023284912109375e+01 1.231992721557617188e+01 3.935466986149549484e-03 -2.576706707477569580e-01 -7.612056285142898560e-02 -2.251407802104949951e-01
2.577000000000000000e+03 7.276412200927734375e+01 1.492900371551513672e+01 2.839631028473377228e-02 -3.126666545867919922e-01 -8.528110384941101074e-02 -2.155256122350692749e-01
2.578000000000000000e+03 4.921385574340820312e+01 2.298480033874511719e+01 3.407789170742034912e-01 1.005020618438720703e+00 4.037398397922515869e-01 2.129508405923843384e-01
2.579000000000000000e+03 5.101074981689453125e+01 2.342685508728027344e+01 3.625731170177459717e-01 7.934268712997436523e-01 3.467999994754791260e-01 1.943900436162948608e-01
2.580000000000000000e+03 8.412117004394531250e+00 7.112425327301025391e+00 -3.826451211352832615e-05 -2.387052154517732561e-05 -1.864051046140957624e-05 -1.045493263518437743e-05
2.581000000000000000e+03 7.425514984130859375e+01 -2.042401313781738281e+01 2.614774566609412432e-04 1.663366710999980569e-04 1.283442397834733129e-04 2.095832751365378499e-04
2.582000000000000000e+03 2.006000900268554688e+01 -1.200433158874511719e+01 2.839485704898834229e-01 -9.194669872522354126e-02 5.760056525468826294e-02 5.067766308784484863e-01
2.583000000000000000e+03 2.261463356018066406e+01 -1.386866855621337891e+01 -1.885097622871398926e-01 1.845069080591201782e-01 -1.200855476781725883e-03 4.809100925922393799e-01
2.584000000000000000e+03 1.854383277893066406e+01 -1.102867794036865234e+01 4.039928615093231201e-01 -2.242972552776336670e-01 5.390868335962295532e-02 4.059234857559204102e-01
2.585000000000000000e+03 2.500101470947265625e+01 -1.255704975128173828e+01 -5.985318496823310852e-02 5.682468414306640625e-01 1.525181084871292114e-01 4.225385487079620361e-01
2.586000000000000000e+03 2.655000877380371094e+01 -1.284987831115722656e+01 -1.799783110618591309e-01 6.794136166572570801e-01 1.498305946588516235e-01 1.676711142063140869e-01
2.587000000000000000e+03 5.370220184326171875e+01 7.236710071563720703e+00 -2.256849557161331177e-01 -2.007233351469039917e-01 -1.279224902391433716e-01 -6.693520545959472656e-01
2.588000000000000000e+03 1.117155170440673828e+01 6.303173542022705078e+00 -4.250905112712644041e-05 -7.100103175616823137e-06 -1.488274665462085977e-05 -1.240512665390269831e-05
2.589000000000000000e+03 1.272506618499755859e+01 8.788638114929199219e+00 5.667686491506174207e-05 6.723770184180466458e-06 1.902018993860110641e-05 2.551333636802155524e-05
2.590000000000000000e+03 4.919649124145507812e+01 1.373624706268310547e+01 8.760430216789245605e-01 3.953304588794708252e-01 3.814120590686798096e-01 3.364798724651336670e-01
2.591000000000000000e+03 1.565978431701660156e+01 -6.917481899261474609e+00 2.962176203727722168e-01 -2.167454808950424194e-01 2.384163998067378998e-02 4.561524838209152222e-02
2.592000000000000000e+03 1.337779712677001953e+01 -1.177253246307373047e+01 1.701255738735198975e-01 -6.902989745140075684e-02 3.032870218157768250e-02 3.322743773460388184e-01
2.593000000000000000e+03 1.214695453643798828e+01 -7.391148567199707031e+00 1.161322519183158875e-01 -4.899609833955764771e-02 2.014084532856941223e-02 1.117665767669677734e-01
2.594000000000000000e+03 5.042528915405273438e+01 2.963769149780273438e+01 1.723840534687042236e-01 8.612186312675476074e-01 3.100807964801788330e-01 1.391118019819259644e-01
2.595000000000000000e+03 4.783036422729492188e+01 2.900717544555664062e+01 1.895879060029983521e-01 1.088109731674194336e+00 3.833092749118804932e-01 1.099235266447067261e-01
2.596000000000000000e+03 5.567126083374023438e+01 5.408761024475097656e+00 -5.708718299865722656e-01 -2.241327054798603058e-02 -1.779855340719223022e-01 -5.434939265251159668e-01
2.597000000000000000e+03 7.242517089843750000e+01 2.031119346618652344e+01 5.905010551214218140e-02 -3.931861221790313721e-01 -1.002408042550086975e-01 -1.623101830482482910e-01
2.598000000000000000e+03 7.110592651367187500e+01 1.874585914611816406e+01 7.092927396297454834e-02 -3.293237388134002686e-01 -7.751833647489547729e-02 -2.021772265434265137e-01
2.599000000000000000e+03 7.206905364990234375e+01 6.341120243072509766e+00 -7.206557691097259521e-02 -1.173024550080299377e-01 -5.681040883064270020e-02 -2.090236246585845947e-01
2.600000000000000000e+03 7.240660858154296875e+01 4.340600013732910156e+00 -7.662528753280639648e-02 -8.414678275585174561e-02 -4.823162034153938293e-02 -1.664908379316329956e-01
2.601000000000000000e+03 7.162703704833984375e+01 2.733904361724853516e+00 -1.026768311858177185e-01 -4.696626961231231689e-02 -4.489292949438095093e-02 -1.448414772748947144e-01
2.602000000000000000e+03 7.372271728515625000e+01 2.320970535278320312e+01 3.584313765168190002e-02 -4.761669337749481201e-01 -1.320971399545669556e-01 -1.129854619503021240e-01
2.603000000000000000e+03 7.366683197021484375e+01 -2.007546424865722656e+00 -4.832535609602928162e-02 -1.987062580883502960e-02 -2.045879513025283813e-02 -3.861834853887557983e-02
2.604000000000000000e+03 6.761719512939453125e+01 -5.856654047966003418e-01 -2.020289301872253418e-01 3.532929718494415283e-02 -5.000989139080047607e-02 -7.948797941207885742e-02
2.605000000000000000e+03 8.020961761474609375e+00 2.431357192993164062e+01 9.436022082809358835e-05 6.206367834238335490e-05 4.692717266152612865e-05 7.204241410363465548e-05
2.606000000000000000e+03 6.059713363647460938e+00 -9.484986305236816406e+00 -3.813329711556434631e-02 1.318351626396179199e-01 2.811056002974510193e-02 -2.287371316924691200e-03
2.607000000000000000e+03 4.225081634521484375e+01 -2.903321456909179688e+01 5.633591488003730774e-02 4.333389103412628174e-01 1.469024419784545898e-01 -2.123938053846359253e-01
2.608000000000000000e+03 7.083467864990234375e+01 -2.884111881256103516e+00 -7.492996007204055786e-02 -1.041762810200452805e-02 -2.560427784919738770e-02 -3.018256649374961853e-02
2.609000000000000000e+03 7.259583282470703125e+01 -6.315876483917236328e+00 -2.115369588136672974e-02 -1.401285082101821899e-02 -1.054996438324451447e-02 -2.173878485336899757e-03
2.610000000000000000e+03 7.148020935058593750e+01 1.348938179016113281e+01 2.167902886867523193e-02 -2.568627595901489258e-01 -7.055512070655822754e-02 -2.499492913484573364e-01
2.611000000000000000e+03 7.153232574462890625e+01 1.223198795318603516e+01 2.819825662299990654e-03 -2.344736903905868530e-01 -6.949616223573684692e-02 -2.580028772354125977e-01
2.612000000000000000e+03 9.512334823608398438e+00 1.809200859069824219e+01 -1.029098057188093662e-04 7.704873496550135314e-06 -2.856147875718306750e-05 -2.696194496820680797e-05
2.613000000000000000e+03 8.216505050659179688e+00 1.816048622131347656e+01 9.059499279828742146e-05 -1.581730231237088447e-07 2.713104731810744852e-05 1.896928006317466497e-05
2.614000000000000000e+03 4.749567794799804688e+01 5.732415199279785156e+00 1.776084005832672119e-01 -1.183366298675537109e+00 -3.017273545265197754e-01 -7.410310506820678711e-01
2.615000000000000000e+03 6.118379592895507812e+01 4.185987472534179688e+00 -4.176781177520751953e-01 2.534375898540019989e-02 -1.177003085613250732e-01 -3.454596400260925293e-01
2.616000000000000000e+03 6.068303108215332031e+00 -7.647022724151611328e+00 -2.462552674114704132e-02 7.519202679395675659e-02 1.516994927078485489e-02 -3.648021025583148003e-03
2.617000000000000000e+03 7.316315650939941406e+00 -1.125489234924316406e+01 -3.780728578567504883e-02 2.385522127151489258e-01 6.022347882390022278e-02 6.862327456474304199e-02
2.618000000000000000e+03 6.224902629852294922e+00 9.583696365356445312e+00 -1.990107375604566187e-05 -6.201804353622719646e-06 -7.830863069102633744e-06 1.443010114599019289e-05
2.619000000000000000e+03 4.117494583129882812e+01 -3.044796371459960938e+01 -1.410570647567510605e-02 5.016770362854003906e-01 1.462714076042175293e-01 -2.002924978733062744e-01
2.620000000000000000e+03 6.447323608398437500e+01 1.261536955833435059e+00 -3.428593277931213379e-01 5.521757900714874268e-02 -8.629252761602401733e-02 -1.588659584522247314e-01
2.621000000000000000e+03 6.267004013061523438e+01 3.860066890716552734e+00 -3.786866664886474609e-01 1.741428673267364502e-02 -1.083817183971405029e-01 -3.190884292125701904e-01
2.622000000000000000e+03 7.305007171630859375e+01 -5.509515285491943359e+00 -2.271013520658016205e-02 -1.016986556351184845e-02 -9.863999672234058380e-03 -7.485313806682825089e-03
2.623000000000000000e+03 7.632398128509521484e+00 1.013681793212890625e+01 -1.765512752172071487e-05 2.109014894813299179e-05 1.030506155075272545e-06 2.099562880175653845e-05
2.624000000000000000e+03 7.099546051025390625e+01 2.015508079528808594e+01 8.112578094005584717e-02 -3.411431610584259033e-01 -7.800521701574325562e-02 -1.851823776960372925e-01
2.625000000000000000e+03 6.789909839630126953e+00 2.955221557617187500e+01 5.530523048946633935e-05 6.300290260696783662e-05 3.549244138412177563e-05 1.545280065329279751e-05
2.626000000000000000e+03 1.089159774780273438e+01 3.472183990478515625e+01 3.140644403174519539e-04 4.102696766494773328e-05 1.065274263964965940e-04 5.952521314611658454e-05
2.627000000000000000e+03 6.000502395629882812e+01 5.838271141052246094e+00 -3.462002575397491455e-01 -1.114655192941427231e-02 -1.072040423750877380e-01 -4.343958795070648193e-01
2.628000000000000000e+03 9.594682693481445312e+00 2.604029655456542969e+01 2.355361211812123656e-04 -7.858725439291447401e-05 4.708466076408512890e-05 5.966127355350181460e-05
2.629000000000000000e+03 1.085525131225585938e+01 1.039808082580566406e+01 -3.549175016814842820e-05 -2.870562275347765535e-05 -1.925921242218464613e-05 -3.659307913039810956e-05
2.630000000000000000e+03 7.329265117645263672e+00 1.166985511779785156e+01 4.688557601184584200e-05 2.099829907820094377e-05 2.036516161751933396e-05 3.475941412034444511e-05
2.631000000000000000e+03 5.190977096557617188e+01 6.632490158081054688e+00 -2.684547305107116699e-01 -3.353926539421081543e-01 -1.811542212963104248e-01 -7.746295928955078125e-01
2.632000000000000000e+03 7.096094512939453125e+01 2.655550384521484375e+01 6.048711761832237244e-02 -3.801815807819366455e-01 -9.590833634138107300e-02 -8.742646127939224243e-02
2.633000000000000000e+03 6.975271606445312500e+01 -2.999617338180541992e+00 -9.273756295442581177e-02 4.213948268443346024e-03 -2.655708417296409607e-02 -2.848581224679946899e-02
2.634000000000000000e+03 7.089332580566406250e+01 -3.939575672149658203e+00 -6.123808771371841431e-02 -4.971659742295742035e-03 -1.986292377114295959e-02 -1.918939873576164246e-02
2.635000000000000000e+03 1.110810470581054688e+01 1.199877834320068359e+01 -6.661407678620889783e-05 -9.749044693307951093e-06 -2.290893644385505468e-05 -2.939625665021594614e-05
2.636000000000000000e+03 2.574554824829101562e+01 -1.327784347534179688e+01 -2.377348542213439941e-01 5.365942120552062988e-01 8.965780586004257202e-02 2.573597431182861328e-01
2.637000000000000000e+03 2.385134124755859375e+01 -1.021642780303955078e+01 6.075589060783386230e-01 4.952773451805114746e-01 3.308508694171905518e-01 6.942461729049682617e-01
2.638000000000000000e+03 9.336867332458496094e+00 -1.190948009490966797e+01 3.094558045268058777e-02 2.238773107528686523e-01 7.644686847925186157e-02 2.065873742103576660e-01
2.639000000000000000e+03 1.011049079895019531e+01 -8.976787567138671875e+00 4.227901995182037354e-02 6.894030421972274780e-02 3.336579725146293640e-02 1.337017714977264404e-01
2.640000000000000000e+03 6.850803375244140625e+01 2.895531272888183594e+01 8.883071690797805786e-02 -2.592646181583404541e-01 -5.113017186522483826e-02 -5.630373209714889526e-02
2.641000000000000000e+03 5.058613586425781250e+01 1.263482475280761719e+01 7.998579144477844238e-01 5.861948803067207336e-02 2.575432360172271729e-01 4.808614403009414673e-02
2.642000000000000000e+03 7.276996612548828125e+01 -3.219532012939453125e+01 -1.098000910133123398e-03 2.601496235001832247e-04 -2.513553772587329149e-04 1.173714757896959782e-03
2.643000000000000000e+03 4.961108398437500000e+01 1.006799793243408203e+01 8.316926360130310059e-01 -2.231448292732238770e-01 1.825643479824066162e-01 -1.054427847266197205e-01
2.644000000000000000e+03 5.039990997314453125e+01 2.253032302856445312e+01 3.862383961677551270e-01 8.474166393280029297e-01 3.700965046882629395e-01 2.159542143344879150e-01
2.645000000000000000e+03 7.241188049316406250e+00 3.280978775024414062e+01 -6.367277092067524791e-05 5.712487836717627943e-05 -1.964367129403399304e-06 -9.998094174079596996e-05
2.646000000000000000e+03 5.719658279418945312e+01 6.488277435302734375e+00 -3.487654626369476318e-01 -5.001571401953697205e-02 -1.196343526244163513e-01 -5.352211594581604004e-01
2.647000000000000000e+03 6.684381008148193359e+00 2.642780113220214844e+01 -8.263278868980705738e-05 3.977775486418977380e-05 -1.285651069338200614e-05 -2.531447353248950094e-05
2.648000000000000000e+03 7.015565490722656250e+01 1.331058311462402344e+01 2.480782195925712585e-02 -2.318314015865325928e-01 -6.210707500576972961e-02 -2.802637815475463867e-01
2.649000000000000000e+03 1.011876296997070312e+01 2.893639564514160156e+01 2.929417823906987906e-04 -3.590495907701551914e-05 7.711104262853041291e-05 1.004860678222030401e-04
2.650000000000000000e+03 7.230789184570312500e+01 2.309784698486328125e+01 5.482835322618484497e-02 -4.172098338603973389e-01 -1.087144389748573303e-01 -1.263364702463150024e-01
2.651000000000000000e+03 1.095357322692871094e+01 1.656498718261718750e+01 -8.757309115026146173e-05 -5.021162451157579198e-06 -2.777827648969832808e-05 -2.500484151823911816e-05
2.652000000000000000e+03 1.076287746429443359e+01 1.810608291625976562e+01 1.020524650812149048e-04 -3.596816782192036044e-07 3.050783561775460839e-05 2.665643478394486010e-05
2.653000000000000000e+03 4.930651473999023438e+01 1.504092311859130859e+01 7.933991551399230957e-01 5.547042489051818848e-01 4.044310152530670166e-01 3.669116497039794922e-01
2.654000000000000000e+03 6.993421936035156250e+01 -5.202953815460205078e+00 -4.671494290232658386e-02 -5.287322681397199631e-03 -1.560067944228649139e-02 -6.405387539416551590e-03
2.655000000000000000e+03 4.807009887695312500e+01 1.640265846252441406e+01 6.682166457176208496e-01 9.603260755538940430e-01 4.885628223419189453e-01 4.823673963546752930e-01
2.656000000000000000e+03 4.986919021606445312e+01 1.900988197326660156e+01 5.195831656455993652e-01 7.992913126945495605e-01 3.956623375415802002e-01 2.987348735332489014e-01
2.657000000000000000e+03 8.807754516601562500e+00 3.005074691772460938e+01 8.199468720704317093e-05 1.340281305601820350e-04 6.480684533016756177e-05 6.429706991184502840e-05
2.658000000000000000e+03 8.148052215576171875e+00 2.843293571472167969e+01 -2.524187584640458226e-05 1.316257839789614081e-04 3.191517316736280918e-05 -3.625131284934468567e-05
2.659000000000000000e+03 7.058481597900390625e+01 3.484090805053710938e+01 3.300623223185539246e-02 -3.401814401149749756e-01 -9.215256571769714355e-02 -1.638265885412693024e-02
2.660000000000000000e+03 6.895152282714843750e+01 3.186816787719726562e+01 5.355345830321311951e-02 -2.660647034645080566e-01 -6.375337392091751099e-02 -2.546245791018009186e-02
2.661000000000000000e+03 1.065153408050537109e+01 1.965309143066406250e+01 -1.116758357966318727e-04 9.298476470576133579e-06 -3.071321043535135686e-05 -2.704750113480258733e-05
2.662000000000000000e+03 7.218131256103515625e+01 -7.119040489196777344e-01 -8.078467845916748047e-02 -1.739340461790561676e-02 -2.945342473685741425e-02 -6.421101093292236328e-02
2.663000000000000000e+03 6.872542572021484375e+01 -6.786685585975646973e-01 -1.585264950990676880e-01 6.422748323529958725e-03 -4.563112556934356689e-02 -7.976372539997100830e-02
2.664000000000000000e+03 1.291575145721435547e+01 3.750716400146484375e+01 3.009815700352191925e-04 1.080261881725164130e-05 9.353525820188224316e-05 9.704543481348082423e-05
2.665000000000000000e+03 1.567204284667968750e+01 -1.272472858428955078e+01 1.806453615427017212e-01 -1.865820437669754028e-01 -1.781005063094198704e-03 3.614250421524047852e-01
2.666000000000000000e+03 1.646166038513183594e+01 -1.195130157470703125e+01 2.348269820213317871e-01 -2.129814773797988892e-01 6.553653161972761154e-03 3.640429079532623291e-01
2.667000000000000000e+03 8.393477439880371094e+00 2.660185241699218750e+01 -9.479123400524258614e-05 8.730050467420369387e-05 -2.247218390039051883e-06 -3.927714715246111155e-05
2.668000000000000000e+03 2.719805717468261719e+01 -7.284635543823242188e+00 1.036086559295654297e+00 3.117943763732910156e+00 1.246209025382995605e+00 6.332970857620239258e-01
2.669000000000000000e+03 2.958106231689453125e+01 -8.725317001342773438e+00 7.290918827056884766e-01 1.503188014030456543e+00 6.696839928627014160e-01 -8.743921518325805664e-01
2.670000000000000000e+03 2.741001319885253906e+01 -6.996471881866455078e+00 1.087034583091735840e+00 3.618822097778320312e+00 1.411756992340087891e+00 5.555125474929809570e-01
2.671000000000000000e+03 2.461603736877441406e+01 -5.780043601989746094e+00 2.589127302169799805e+00 -7.378003746271133423e-02 7.546041607856750488e-01 4.022377431392669678e-01
2.672000000000000000e+03 2.435154724121093750e+01 -5.427511215209960938e+00 2.404667854309082031e+00 -3.670762479305267334e-01 6.112775206565856934e-01 -1.329814549535512924e-02
2.673000000000000000e+03 2.575565338134765625e+01 -5.642462730407714844e+00 3.465914249420166016e+00 7.061964273452758789e-01 1.251633167266845703e+00 1.072191715240478516e+00
2.674000000000000000e+03 2.595104598999023438e+01 -6.461507320404052734e+00 2.447809219360351562e+00 1.587822675704956055e+00 1.210689544677734375e+00 1.390763521194458008e+00
2.675000000000000000e+03 2.517026901245117188e+01 -4.806045055389404297e+00 2.985160350799560547e+00 -4.023607075214385986e-01 7.748399376869201660e-01 -3.692927658557891846e-01
2.676000000000000000e+03 2.362600326538085938e+01 -5.475593090057373047e+00 1.907344222068786621e+00 -4.316706359386444092e-01 4.427020847797393799e-01 -1.350669711828231812e-01
2.677000000000000000e+03 1.011573982238769531e+01 -6.544369697570800781e+00 3.698076680302619934e-02 2.333448268473148346e-02 1.809457503259181976e-02 6.693105399608612061e-02
2.678000000000000000e+03 2.375018119812011719e+01 -6.093605041503906250e+00 1.983161449432373047e+00 -2.566664516925811768e-01 5.179485082626342773e-01 2.327498793601989746e-01
2.679000000000000000e+03 2.220759582519531250e+01 -5.599608898162841797e+00 1.215598464012145996e+00 -4.917739033699035645e-01 2.171473503112792969e-01 -2.214563786983489990e-01
2.680000000000000000e+03 2.528678512573242188e+01 -6.440422058105468750e+00 2.517954826354980469e+00 7.635490298271179199e-01 9.844511747360229492e-01 1.071515083312988281e+00
2.681000000000000000e+03 2.481428909301757812e+01 -6.146915435791015625e+00 2.514007806777954102e+00 1.632976830005645752e-01 8.031916618347167969e-01 6.920627951622009277e-01
2.682000000000000000e+03 2.973926162719726562e+01 -1.322266483306884766e+01 -2.068370431661605835e-01 5.780513286590576172e-01 1.113642901182174683e-01 -5.157172083854675293e-01
2.683000000000000000e+03 7.720566272735595703e+00 6.764348983764648438e+00 1.174359476863173768e-05 2.149390638805925846e-05 9.971250619855709374e-06 6.045453574188286439e-06
2.684000000000000000e+03 1.031500816345214844e+01 6.341860294342041016e+00 3.885739715769886971e-05 1.166661331808427349e-05 1.515720305178547278e-05 1.268262167286593467e-05
2.685000000000000000e+03 1.157381629943847656e+01 -6.578220844268798828e+00 7.970082759857177734e-02 -2.111615799367427826e-02 1.757540181279182434e-02 8.001187443733215332e-02
2.686000000000000000e+03 7.163610839843750000e+01 -6.854479312896728516e+00 -1.226753368973731995e-02 -9.973153471946716309e-03 -6.672205869108438492e-03 -1.341751427389681339e-03
2.687000000000000000e+03 7.204920959472656250e+01 -4.702670097351074219e+00 -3.914416208863258362e-02 -1.070915348827838898e-02 -1.495599467307329178e-02 -1.386121474206447601e-02
2.688000000000000000e+03 3.168165016174316406e+01 -1.116636466979980469e+01 2.295381426811218262e-01 6.873480677604675293e-01 2.750658690929412842e-01 -8.316566944122314453e-01
2.689000000000000000e+03 3.074958038330078125e+01 -1.077280044555664062e+01 2.829257547855377197e-01 8.259370326995849609e-01 3.326588273048400879e-01 -7.926311492919921875e-01
2.690000000000000000e+03 2.271879386901855469e+01 -1.235860919952392578e+01 1.253434866666793823e-01 2.335884571075439453e-01 1.076795831322669983e-01 5.732472538948059082e-01
2.691000000000000000e+03 2.991221618652343750e+01 -1.060818099975585938e+01 2.613083124160766602e-01 1.004151582717895508e+00 3.796379864215850830e-01 -6.992647647857666016e-01
2.692000000000000000e+03 2.989248085021972656e+01 -1.209593391418457031e+01 -7.624452002346515656e-03 7.776191830635070801e-01 2.309984266757965088e-01 -6.005434393882751465e-01
2.693000000000000000e+03 1.103331565856933594e+01 7.994438648223876953e+00 -3.939981615985743701e-05 -2.060070073639508337e-05 -1.800015525077469647e-05 -1.587795486557297409e-05
2.694000000000000000e+03 2.284000396728515625e+01 -5.670924186706542969e+00 1.531365513801574707e+00 -4.378066658973693848e-01 3.280676603317260742e-01 -1.569411307573318481e-01
2.695000000000000000e+03 3.301876068115234375e+01 -1.236539173126220703e+01 1.181612722575664520e-02 6.057455539703369141e-01 1.852684915065765381e-01 -8.336540460586547852e-01
2.696000000000000000e+03 7.838630676269531250e+00 -6.542093753814697266e+00 -1.382512319833040237e-02 5.575320124626159668e-02 1.257842406630516052e-02 1.891978830099105835e-02
2.697000000000000000e+03 1.476421260833740234e+01 -9.792483329772949219e+00 2.842682600021362305e-01 -1.863842159509658813e-01 2.936521358788013458e-02 2.522393465042114258e-01
2.698000000000000000e+03 1.656010246276855469e+01 -6.960788726806640625e+00 3.779496550559997559e-01 -2.802652716636657715e-01 2.930531464517116547e-02 3.721255436539649963e-02
2.699000000000000000e+03 3.390356063842773438e+01 -1.377933979034423828e+01 -2.296670526266098022e-01 6.987858414649963379e-01 1.407356262207031250e-01 -7.957431674003601074e-01
2.700000000000000000e+03 1.832649993896484375e+01 -7.798636913299560547e+00 6.004599332809448242e-01 -3.500901460647583008e-01 7.511093467473983765e-02 1.259235590696334839e-01
2.701000000000000000e+03 8.625277519226074219e+00 -6.520287990570068359e+00 3.836598247289657593e-03 5.355998128652572632e-02 1.721897348761558533e-02 4.680767655372619629e-02
2.702000000000000000e+03 1.440976428985595703e+01 -7.863412857055664062e+00 2.451157420873641968e-01 -1.545874774456024170e-01 2.715847827494144440e-02 1.290775984525680542e-01
2.703000000000000000e+03 1.441957283020019531e+01 -9.097893714904785156e+00 2.545166611671447754e-01 -1.643015444278717041e-01 2.706453949213027954e-02 2.081651538610458374e-01
2.704000000000000000e+03 1.600061607360839844e+01 -7.889070510864257812e+00 3.659209311008453369e-01 -2.500540614128112793e-01 3.476006165146827698e-02 1.217519044876098633e-01
2.705000000000000000e+03 3.533192825317382812e+01 -1.484173488616943359e+01 -3.446441590785980225e-01 9.223715066909790039e-01 1.733182072639465332e-01 -6.161595582962036133e-01
2.706000000000000000e+03 3.265935897827148438e+01 -1.286900901794433594e+01 -9.488932788372039795e-02 6.234132647514343262e-01 1.585571765899658203e-01 -8.327876329421997070e-01
2.707000000000000000e+03 7.894514083862304688e+00 -7.279139518737792969e+00 -1.124349795281887054e-02 8.065548539161682129e-02 2.082359604537487030e-02 4.129235818982124329e-02
2.708000000000000000e+03 1.748611640930175781e+01 -7.656061649322509766e+00 4.909943640232086182e-01 -3.332666456699371338e-01 4.731831327080726624e-02 9.230506420135498047e-02
2.709000000000000000e+03 3.668251037597656250e+01 -1.446970176696777344e+01 -2.136835753917694092e-01 8.151472210884094238e-01 1.804390996694564819e-01 -4.515354931354522705e-01
2.710000000000000000e+03 3.765122604370117188e+01 -1.472525691986083984e+01 -1.862171143293380737e-01 7.712140679359436035e-01 1.754990965127944946e-01 -3.002049922943115234e-01
2.711000000000000000e+03 1.110324096679687500e+01 7.141621589660644531e+00 4.312538658268749714e-05 1.435243484593229368e-05 1.724334651953540742e-05 1.672264443186577410e-05
2.712000000000000000e+03 1.195940017700195312e+01 7.888020515441894531e+00 4.357464058557525277e-05 1.853659341577440500e-05 1.863337092800065875e-05 2.470129948051180691e-05
2.713000000000000000e+03 2.173660659790039062e+01 -9.383989334106445312e+00 8.414504528045654297e-01 -7.884190231561660767e-02 2.287825644016265869e-01 5.508044362068176270e-01
2.714000000000000000e+03 9.367329597473144531e+00 2.278490829467773438e+01 1.446368842152878642e-04 -1.341031889978694380e-07 4.335083212936297059e-05 4.842959970119409263e-05
2.715000000000000000e+03 3.093425369262695312e+01 -1.339675045013427734e+01 -1.911146193742752075e-01 5.363193154335021973e-01 1.035614162683486938e-01 -7.237524390220642090e-01
2.716000000000000000e+03 2.075302886962890625e+01 -1.024133682250976562e+01 6.181743144989013672e-01 -1.274860352277755737e-01 1.472064852714538574e-01 5.132014155387878418e-01
2.717000000000000000e+03 1.925337982177734375e+01 -1.150950622558593750e+01 3.523268997669219971e-01 -1.740069389343261719e-01 5.349598824977874756e-02 4.576072692871093750e-01
2.718000000000000000e+03 2.738657379150390625e+01 -1.254714107513427734e+01 -1.543391048908233643e-01 7.817986011505126953e-01 1.882378458976745605e-01 -3.775523230433464050e-02
2.719000000000000000e+03 2.364506721496582031e+01 -1.208583831787109375e+01 1.545056700706481934e-01 3.954025208950042725e-01 1.649724543094635010e-01 5.658718943595886230e-01
2.720000000000000000e+03 2.168297767639160156e+01 -1.355189990997314453e+01 -7.823874801397323608e-02 1.062712296843528748e-01 8.409744128584861755e-03 5.090013742446899414e-01
2.721000000000000000e+03 1.152055263519287109e+01 -1.100476074218750000e+01 1.022695228457450867e-01 5.181115120649337769e-02 4.622420296072959900e-02 2.611803710460662842e-01
2.722000000000000000e+03 6.818757629394531250e+01 2.631325483322143555e+00 -2.000149041414260864e-01 2.920461120083928108e-03 -5.912833288311958313e-02 -1.855724453926086426e-01
2.723000000000000000e+03 1.789868927001953125e+01 -1.175463008880615234e+01 2.863088846206665039e-01 -2.110903114080429077e-01 2.256556786596775055e-02 4.034205675125122070e-01
2.724000000000000000e+03 4.918387222290039062e+01 1.245990276336669922e+01 9.470882415771484375e-01 1.932658851146697998e-01 3.421062231063842773e-01 2.485482543706893921e-01
2.725000000000000000e+03 1.426747035980224609e+01 -1.111980819702148438e+01 2.322712689638137817e-01 -1.466689109802246094e-01 2.568070963025093079e-02 3.157078623771667480e-01
2.726000000000000000e+03 1.280070686340332031e+01 -9.364145278930664062e+00 1.682406812906265259e-01 -6.649019569158554077e-02 3.052514791488647461e-02 2.103411108255386353e-01
2.727000000000000000e+03 7.281135082244873047e+00 9.214283943176269531e+00 1.586016514920629561e-05 7.840922989998944104e-06 7.110326350812101737e-06 -6.224356184247881174e-06
2.728000000000000000e+03 8.338706970214843750e+00 -1.169562816619873047e+01 -4.095719661563634872e-03 2.597759068012237549e-01 7.670405507087707520e-02 1.514625251293182373e-01
2.729000000000000000e+03 7.333197784423828125e+01 -2.061205673217773438e+01 -2.146961924154311419e-04 -1.171002877526916564e-04 -9.953894186764955521e-05 -5.067350139142945409e-05
2.730000000000000000e+03 6.967675781250000000e+01 1.864712715148925781e+01 8.784241229295730591e-02 -2.879391312599182129e-01 -6.002901121973991394e-02 -2.206443846225738525e-01
2.731000000000000000e+03 6.980031585693359375e+01 1.586868095397949219e+01 6.574638187885284424e-02 -2.642030119895935059e-01 -5.953698977828025818e-02 -2.603314816951751709e-01
2.732000000000000000e+03 7.024344635009765625e+01 1.209929847717285156e+01 5.708854179829359055e-03 -2.083212882280349731e-01 -6.078372895717620850e-02 -2.790567278861999512e-01
2.733000000000000000e+03 7.148464965820312500e+01 9.817995071411132812e+00 -3.148685395717620850e-02 -1.832131147384643555e-01 -6.440999358892440796e-02 -2.550821304321289062e-01
2.734000000000000000e+03 7.205347442626953125e+01 1.759130239486694336e+00 -9.439781308174133301e-02 -3.804095089435577393e-02 -3.973162919282913208e-02 -1.153863742947578430e-01
2.735000000000000000e+03 6.770212650299072266e+00 -8.971764564514160156e+00 -2.933775447309017181e-02 1.215447634458541870e-01 2.766210399568080902e-02 2.155747450888156891e-02
2.736000000000000000e+03 7.457897186279296875e+00 -8.352275848388671875e+00 -2.217436954379081726e-02 1.142203360795974731e-01 2.761379070580005646e-02 4.089894890785217285e-02
2.737000000000000000e+03 2.855409622192382812e+01 -1.290429019927978516e+01 -1.961732655763626099e-01 6.890531182289123535e-01 1.478639543056488037e-01 -2.954079210758209229e-01
2.738000000000000000e+03 7.215382385253906250e+01 5.788432359695434570e-01 -8.602415025234222412e-02 -3.417568281292915344e-02 -3.605994954705238342e-02 -9.229018539190292358e-02
2.739000000000000000e+03 1.519214248657226562e+01 -1.058121871948242188e+01 2.794042229652404785e-01 -2.012032121419906616e-01 2.346029877662658691e-02 2.938927412033081055e-01
2.740000000000000000e+03 7.281757354736328125e+01 1.361796760559082031e+01 1.491155009716749191e-02 -2.875216901302337646e-01 -8.178304880857467651e-02 -2.260298728942871094e-01
2.741000000000000000e+03 7.193219757080078125e+01 -3.736962556838989258e+00 -5.143480375409126282e-02 -1.333834324032068253e-02 -1.943194493651390076e-02 -1.932136341929435730e-02
2.742000000000000000e+03 6.980622100830078125e+01 -4.127334594726562500e+00 -6.660133600234985352e-02 -6.496037822216749191e-03 -2.192921191453933716e-02 -1.159403007477521896e-02
2.743000000000000000e+03 1.049849414825439453e+01 1.336546230316162109e+01 7.381500472547486424e-05 1.581877768330741674e-05 2.689013490453362465e-05 2.745364145084749907e-05
2.744000000000000000e+03 8.158659934997558594e+00 1.087002372741699219e+01 -1.072112263500457630e-05 -2.045915061898995191e-05 -9.354082067147828639e-06 -4.543668910628184676e-05
2.745000000000000000e+03 7.590806961059570312e+00 2.563886642456054688e+01 5.316931128618307412e-05 -1.220047270180657506e-04 -2.065062471956480294e-05 -5.415899795480072498e-05
2.746000000000000000e+03 8.278752326965332031e+00 1.212707805633544922e+01 -6.059438237571157515e-05 -1.972637619473971426e-05 -2.409622720733750612e-05 -2.573643541836645454e-05
2.747000000000000000e+03 8.187853813171386719e+00 1.970045471191406250e+01 -9.286366548622027040e-05 8.339963528669613879e-07 -2.760889947239775211e-05 -2.881347427319269627e-05
2.748000000000000000e+03 7.360217094421386719e+00 -9.709614753723144531e+00 -2.720918320119380951e-02 1.634099036455154419e-01 4.086021706461906433e-02 5.929136276245117188e-02
2.749000000000000000e+03 8.748925209045410156e+00 -9.605584144592285156e+00 4.134084563702344894e-03 1.355415433645248413e-01 4.190269112586975098e-02 1.145483180880546570e-01
2.750000000000000000e+03 7.293300628662109375e+01 -3.493664741516113281e+00 -4.349179193377494812e-02 -1.415811385959386826e-02 -1.729497127234935760e-02 -2.433940768241882324e-02
2.751000000000000000e+03 7.196090698242187500e+01 -1.848515748977661133e+00 -7.190646231174468994e-02 -1.937111653387546539e-02 -2.738327346742153168e-02 -4.818689823150634766e-02
2.752000000000000000e+03 6.988798522949218750e+01 5.454876422882080078e-01 -1.431184709072113037e-01 -7.791915442794561386e-03 -4.527311399579048157e-02 -1.060710847377777100e-01
2.753000000000000000e+03 2.438755989074707031e+01 -1.176322364807128906e+01 1.686219274997711182e-01 5.442366003990173340e-01 2.138575613498687744e-01 5.382120609283447266e-01
2.754000000000000000e+03 8.734865188598632812e+00 -1.083045864105224609e+01 -7.287754677236080170e-03 1.977005600929260254e-01 5.712383985519409180e-02 1.370289176702499390e-01
2.755000000000000000e+03 7.979382991790771484e+00 1.529683208465576172e+01 7.218011887744069099e-05 -3.439580177655443549e-05 1.133529531216481701e-05 -2.147399936802685261e-05
2.756000000000000000e+03 6.839508533477783203e+00 2.270577812194824219e+01 8.503909339196980000e-05 3.155841841362416744e-05 3.497925354167819023e-05 3.387224205653183162e-05
2.757000000000000000e+03 7.304340362548828125e+01 -4.528012752532958984e+00 -3.163938596844673157e-02 -1.421662047505378723e-02 -1.375680230557918549e-02 -1.007092092186212540e-02
2.758000000000000000e+03 9.191783905029296875e+00 8.061634063720703125e+00 -3.625106546678580344e-05 -2.781892180792056024e-05 -1.922099545481614769e-05 -2.601474443508777767e-05
2.759000000000000000e+03 6.141266632080078125e+01 5.582196235656738281e+00 -3.353415429592132568e-01 -1.226518489420413971e-02 -1.042820140719413757e-01 -4.087414443492889404e-01
2.760000000000000000e+03 1.127041816711425781e+01 3.259469223022460938e+01 -2.120392746292054653e-04 -1.163140186690725386e-04 -9.850598871707916260e-05 -2.054431824944913387e-04
2.761000000000000000e+03 1.721470069885253906e+01 -1.118493747711181641e+01 3.398077785968780518e-01 -2.345039546489715576e-01 3.159114345908164978e-02 3.624775409698486328e-01
2.762000000000000000e+03 1.702676773071289062e+01 -9.442415237426757812e+00 4.470299780368804932e-01 -2.853226959705352783e-01 4.851218685507774353e-02 2.522790431976318359e-01
2.763000000000000000e+03 7.074409484863281250e+01 5.197716236114501953e+00 -1.049226894974708557e-01 -8.002535998821258545e-02 -5.548441410064697266e-02 -2.130187302827835083e-01
2.764000000000000000e+03 1.018634891510009766e+01 1.145347213745117188e+01 2.426621176709886640e-05 1.825661092880181968e-05 1.275684644497232512e-05 3.304843266960233450e-05
2.765000000000000000e+03 5.057175445556640625e+01 7.081938266754150391e+00 8.813658356666564941e-02 -4.996541142463684082e-01 -1.234552562236785889e-01 -7.193697690963745117e-01
2.766000000000000000e+03 5.185247421264648438e+01 1.165076637268066406e+01 6.304957866668701172e-01 -1.093068197369575500e-01 1.563566923141479492e-01 -1.933345794677734375e-01
2.767000000000000000e+03 5.633401870727539062e+01 8.548173904418945312e+00 -5.645821616053581238e-02 -1.368304789066314697e-01 -5.798660591244697571e-02 -5.634468793869018555e-01
2.768000000000000000e+03 5.480011749267578125e+01 6.738479137420654297e+00 -3.385424911975860596e-01 -1.291661709547042847e-01 -1.403125971555709839e-01 -6.462151408195495605e-01
2.769000000000000000e+03 7.233027648925781250e+01 2.439971542358398438e+01 5.054911226034164429e-02 -4.312795698642730713e-01 -1.142191365361213684e-01 -1.137318164110183716e-01
2.770000000000000000e+03 6.980504608154296875e+01 2.518880844116210938e+01 8.955468982458114624e-02 -3.209355473518371582e-01 -6.941425800323486328e-02 -1.082446724176406860e-01
2.771000000000000000e+03 9.435492515563964844e+00 1.966033935546875000e+01 1.145463902503252029e-04 -2.755747800620156340e-06 3.353719148435629904e-05 3.046997517230920494e-05
2.772000000000000000e+03 7.126284027099609375e+01 1.608192825317382812e+01 5.204604193568229675e-02 -2.987495362758636475e-01 -7.401105016469955444e-02 -2.317598015069961548e-01
2.773000000000000000e+03 1.119025802612304688e+01 -9.614566802978515625e+00 8.844362199306488037e-02 3.380772843956947327e-02 3.667540475726127625e-02 1.933958232402801514e-01
2.774000000000000000e+03 4.905470657348632812e+01 6.176546573638916016e+00 -7.529632747173309326e-02 -8.185178637504577637e-01 -2.681442499160766602e-01 -8.452345728874206543e-01
2.775000000000000000e+03 8.857984542846679688e+00 1.449776172637939453e+01 3.127576928818598390e-05 4.729019929072819650e-05 2.356978984607849270e-05 2.724917794694192708e-05
2.776000000000000000e+03 7.082220458984375000e+01 2.163040733337402344e+01 8.142661303281784058e-02 -3.506256639957427979e-01 -8.075971901416778564e-02 -1.583869606256484985e-01
2.777000000000000000e+03 6.965970611572265625e+01 1.995210647583007812e+01 9.834418445825576782e-02 -2.988674342632293701e-01 -6.015697121620178223e-02 -1.972620338201522827e-01
2.778000000000000000e+03 7.081553649902343750e+01 2.314122009277343750e+01 7.293459028005599976e-02 -3.610355854034423828e-01 -8.643029630184173584e-02 -1.392894983291625977e-01
2.779000000000000000e+03 8.996967315673828125e+00 1.024847698211669922e+01 -8.813461136014666408e-06 7.920988537080120295e-06 -2.677415977814234793e-07 2.416584356979001313e-05
2.780000000000000000e+03 5.546796798706054688e+01 7.564428806304931641e+00 -1.929711997509002686e-01 -1.326558142900466919e-01 -9.768810123205184937e-02 -5.945534110069274902e-01
2.781000000000000000e+03 6.157667922973632812e+01 6.987348079681396484e+00 -2.240728437900543213e-01 -3.455424681305885315e-02 -7.758812606334686279e-02 -4.282772541046142578e-01
2.782000000000000000e+03 7.000239562988281250e+01 1.456219959259033203e+01 4.701514169573783875e-02 -2.473646700382232666e-01 -6.010485813021659851e-02 -2.676821053028106689e-01
2.783000000000000000e+03 5.860735702514648438e+01 6.145235538482666016e+00 -3.745211362838745117e-01 -3.101633861660957336e-02 -1.216612458229064941e-01 -4.943208694458007812e-01
2.784000000000000000e+03 5.918875503540039062e+01 8.693945884704589844e+00 -1.157795414328575134e-01 -8.901639282703399658e-02 -6.143878027796745300e-02 -5.062853097915649414e-01
2.785000000000000000e+03 7.027274322509765625e+01 1.092045783996582031e+01 -1.826841942965984344e-02 -1.881444901227951050e-01 -6.192387267947196960e-02 -2.849030494689941406e-01
2.786000000000000000e+03 6.907356262207031250e+01 9.663847923278808594e+00 -5.110304802656173706e-02 -1.455327272415161133e-01 -5.899073183536529541e-02 -3.080704808235168457e-01
2.787000000000000000e+03 7.088343048095703125e+01 -1.795366525650024414e+00 -9.325043112039566040e-02 -3.891592612490057945e-03 -2.914260700345039368e-02 -4.925819858908653259e-02
2.788000000000000000e+03 6.988954925537109375e+01 3.005835723876953125e+01 6.537549942731857300e-02 -3.216924667358398438e-01 -7.689509540796279907e-02 -4.380635917186737061e-02
2.789000000000000000e+03 1.178624534606933594e+01 1.081923866271972656e+01 6.414526433218270540e-05 8.290944606414996088e-06 2.173086249968037009e-05 3.100415051449090242e-05
2.790000000000000000e+03 9.486785888671875000e+00 1.084795665740966797e+01 -5.171658267499879003e-05 1.875839552667457610e-05 -9.887456144497264177e-06 -3.291347093181684613e-05
2.791000000000000000e+03 4.923369979858398438e+01 7.216116905212402344e+00 3.592579662799835205e-01 -6.425823569297790527e-01 -8.499732613563537598e-02 -6.041936278343200684e-01
2.792000000000000000e+03 5.085724639892578125e+01 1.042947959899902344e+01 6.545034050941467285e-01 -2.208318263292312622e-01 1.301014721393585205e-01 -2.391627430915832520e-01
2.793000000000000000e+03 6.985816192626953125e+01 1.854714035987854004e+00 -1.498446762561798096e-01 -1.264275237917900085e-02 -4.874622821807861328e-02 -1.437256783246994019e-01
2.794000000000000000e+03 6.977903747558593750e+01 -1.843814134597778320e+00 -1.113101989030838013e-01 -4.010132048279047012e-03 -3.459610044956207275e-02 -4.998653382062911987e-02
2.795000000000000000e+03 8.154220581054687500e+00 2.122819328308105469e+01 1.085130497813224792e-04 9.737318578117992729e-06 3.547511005308479071e-05 3.961430775234475732e-05
2.796000000000000000e+03 4.280985641479492188e+01 -3.202005767822265625e+01 -3.397049382328987122e-02 4.088143110275268555e-01 1.124531477689743042e-01 -1.664412766695022583e-01
2.797000000000000000e+03 6.559785461425781250e+01 2.422366857528686523e+00 -2.884589135646820068e-01 3.524214774370193481e-02 -7.596503198146820068e-02 -2.104160785675048828e-01
2.798000000000000000e+03 6.283853530883789062e+01 5.381664752960205078e+00 -2.881859838962554932e-01 -1.823389902710914612e-03 -8.700280636548995972e-02 -3.612497746944427490e-01
2.799000000000000000e+03 6.859667205810546875e+01 2.634464263916015625e+01 9.639951586723327637e-02 -2.765597403049468994e-01 -5.404806882143020630e-02 -9.292588382959365845e-02
2.800000000000000000e+03 2.690421295166015625e+01 -7.569250583648681641e+00 1.031045556068420410e+00 2.670465230941772461e+00 1.110453248023986816e+00 7.037537097930908203e-01
2.801000000000000000e+03 2.331383514404296875e+01 -1.120764541625976562e+01 3.696430325508117676e-01 3.572677075862884521e-01 2.180732190608978271e-01 6.270244717597961426e-01
2.802000000000000000e+03 2.494315910339355469e+01 -1.134424781799316406e+01 2.062168866395950317e-01 6.852229833602905273e-01 2.674319744110107422e-01 5.294346809387207031e-01
2.803000000000000000e+03 2.809724044799804688e+01 -8.676342964172363281e+00 5.280318856239318848e-01 2.106089115142822266e+00 7.902363538742065430e-01 -3.110566735267639160e-01
2.804000000000000000e+03 2.417488670349121094e+01 -6.057554721832275391e+00 2.191319227218627930e+00 -1.868042498826980591e-01 6.013544797897338867e-01 3.502226173877716064e-01
2.805000000000000000e+03 2.954490852355957031e+01 -8.011966705322265625e+00 9.680659770965576172e-01 1.586441636085510254e+00 7.663522958755493164e-01 -9.956202507019042969e-01
2.806000000000000000e+03 2.959601402282714844e+01 -9.460662841796875000e+00 5.079994797706604004e-01 1.344658017158508301e+00 5.557972192764282227e-01 -7.416160106658935547e-01
2.807000000000000000e+03 1.082937240600585938e+01 -7.288503170013427734e+00 6.693782657384872437e-02 7.729950360953807831e-03 2.240033261477947235e-02 9.333766996860504150e-02
2.808000000000000000e+03 1.009299087524414062e+01 -7.317600250244140625e+00 3.744992241263389587e-02 2.780416794121265411e-02 1.957622729241847992e-02 8.022074401378631592e-02
2.809000000000000000e+03 2.919859886169433594e+01 -9.934788703918457031e+00 3.514698743820190430e-01 1.345098614692687988e+00 5.089705586433410645e-01 -6.113710999488830566e-01
2.810000000000000000e+03 2.998159217834472656e+01 -9.828866958618164062e+00 4.580726027488708496e-01 1.149247646331787109e+00 4.821960926055908203e-01 -7.755197882652282715e-01
2.811000000000000000e+03 2.220642662048339844e+01 -6.182361602783203125e+00 1.365864634513854980e+00 -4.320270717144012451e-01 2.801512777805328369e-01 1.352318376302719116e-02
2.812000000000000000e+03 9.322832107543945312e+00 7.195513725280761719e+00 3.454731995589099824e-05 2.395130650256760418e-05 1.754958793753758073e-05 1.299844825553009287e-05
2.813000000000000000e+03 2.397679901123046875e+01 -5.735311508178710938e+00 2.170356035232543945e+00 -3.441484570503234863e-01 5.478622913360595703e-01 1.029883548617362976e-01
2.814000000000000000e+03 2.060475158691406250e+01 -7.658873558044433594e+00 9.135057330131530762e-01 -3.741900622844696045e-01 1.617947071790695190e-01 2.116423994302749634e-01
2.815000000000000000e+03 1.924954414367675781e+01 -7.973382472991943359e+00 7.127113342285156250e-01 -3.790800571441650391e-01 1.000893786549568176e-01 1.715938299894332886e-01
2.816000000000000000e+03 2.708365821838378906e+01 -1.187543201446533203e+01 -4.414982348680496216e-02 9.276826381683349609e-01 2.650598585605621338e-01 6.042341515421867371e-02
2.817000000000000000e+03 2.269548988342285156e+01 -9.198036193847656250e+00 9.211470484733581543e-01 9.254334867000579834e-02 3.041071295738220215e-01 6.442065834999084473e-01
2.818000000000000000e+03 2.332618713378906250e+01 -5.897118091583251953e+00 1.793526172637939453e+00 -4.160620868206024170e-01 4.132392406463623047e-01 4.693040251731872559e-02
2.819000000000000000e+03 1.287887763977050781e+01 -7.591184616088867188e+00 1.498761624097824097e-01 -7.669115811586380005e-02 2.195550315082073212e-02 1.152412667870521545e-01
2.820000000000000000e+03 2.314233016967773438e+01 -1.038339138031005859e+01 6.169903874397277832e-01 2.856746912002563477e-01 2.707995176315307617e-01 6.784252524375915527e-01
2.821000000000000000e+03 3.017085647583007812e+01 -1.112852287292480469e+01 1.869407743215560913e-01 9.032778739929199219e-01 3.270655870437622070e-01 -7.089150547981262207e-01
2.822000000000000000e+03 2.164493560791015625e+01 -1.247914123535156250e+01 1.555471122264862061e-01 7.605385780334472656e-02 6.948029249906539917e-02 5.470293164253234863e-01
2.823000000000000000e+03 3.138735008239746094e+01 -1.190188503265380859e+01 7.597129791975021362e-02 6.650950908660888672e-01 2.223199307918548584e-01 -8.001219034194946289e-01
2.824000000000000000e+03 6.794030189514160156e+00 6.292020797729492188e+00 -1.723566674627363682e-05 -1.957928907359018922e-05 -1.104448710975702852e-05 2.087087705149315298e-05
2.825000000000000000e+03 1.021483612060546875e+01 7.195289134979248047e+00 -4.011207056464627385e-05 -1.931694532686378807e-05 -1.782870640454348177e-05 -1.622193849470932037e-05
2.826000000000000000e+03 1.102025508880615234e+01 8.871997833251953125e+00 3.249360088375397027e-05 1.380642879666993394e-05 1.389000954077346250e-05 1.064143725670874119e-05
2.827000000000000000e+03 9.315164566040039062e+00 -7.343740940093994141e+00 2.169874869287014008e-02 5.507013946771621704e-02 2.303066663444042206e-02 7.439432293176651001e-02
2.828000000000000000e+03 1.486463928222656250e+01 -7.509185314178466797e+00 2.578099668025970459e-01 -1.835939139127731323e-01 2.226481214165687561e-02 9.920035302639007568e-02
2.829000000000000000e+03 1.654431152343750000e+01 -1.063639259338378906e+01 3.389679491519927979e-01 -2.449887096881866455e-01 2.819377183914184570e-02 3.200827836990356445e-01
2.830000000000000000e+03 1.186758041381835938e+01 -8.577187538146972656e+00 1.177120506763458252e-01 -2.655623853206634521e-02 2.734674327075481415e-02 1.597427427768707275e-01
2.831000000000000000e+03 1.180222415924072266e+01 -1.013018608093261719e+01 1.195666044950485229e-01 1.475488394498825073e-02 4.029644653201103210e-02 2.321387231349945068e-01
2.832000000000000000e+03 3.036662864685058594e+01 -1.276070690155029297e+01 -1.109872236847877502e-01 6.160777807235717773e-01 1.515271663665771484e-01 -6.515133380889892578e-01
2.833000000000000000e+03 3.582802200317382812e+01 -1.398896694183349609e+01 -2.213211655616760254e-01 7.657879590988159180e-01 1.633400321006774902e-01 -5.725815892219543457e-01
2.834000000000000000e+03 8.233363151550292969e+00 8.918949127197265625e+00 -2.104950726788956672e-05 -1.609744867892004550e-05 -1.114408678404288366e-05 -3.696040266731870361e-06
2.835000000000000000e+03 1.184923839569091797e+01 8.722718238830566406e+00 -4.337420614319853485e-05 -2.072251299978233874e-05 -1.922901537909638137e-05 -3.819155244855210185e-05
2.836000000000000000e+03 9.344429969787597656e+00 -1.022950363159179688e+01 1.954585686326026917e-02 1.381040364503860474e-01 4.729497060179710388e-02 1.518638581037521362e-01
2.837000000000000000e+03 6.552465820312500000e+01 3.747578620910644531e+00 -2.673157155513763428e-01 2.723969286307692528e-03 -7.937752455472946167e-02 -2.668878138065338135e-01
2.838000000000000000e+03 5.328515625000000000e+01 8.898676872253417969e+00 1.923084557056427002e-01 -2.511855065822601318e-01 -1.766311377286911011e-02 -5.434319972991943359e-01
2.839000000000000000e+03 1.012056636810302734e+01 8.075985908508300781e+00 4.348426227807067335e-05 1.867855826276354492e-05 1.864884507085662335e-05 1.794192758097779006e-05
2.840000000000000000e+03 3.148921966552734375e+01 -1.283796405792236328e+01 -9.552913904190063477e-02 6.010105013847351074e-01 1.516444087028503418e-01 -7.897590398788452148e-01
2.841000000000000000e+03 1.383812618255615234e+01 -1.018843841552734375e+01 2.144168615341186523e-01 -1.156908273696899414e-01 2.961781062185764313e-02 2.717152535915374756e-01
2.842000000000000000e+03 2.015453720092773438e+01 -8.313209533691406250e+00 8.421507477760314941e-01 -3.400897681713104248e-01 1.506182849407196045e-01 2.674731612205505371e-01
2.843000000000000000e+03 2.636368560791015625e+01 -1.141551399230957031e+01 9.441103786230087280e-02 9.720322489738464355e-01 3.199329972267150879e-01 2.693019211292266846e-01
2.844000000000000000e+03 5.203864669799804688e+01 1.385822772979736328e+01 6.802499294281005859e-01 7.317934185266494751e-02 2.260287702083587646e-01 -1.152274478226900101e-02
2.845000000000000000e+03 6.900938415527343750e+01 1.191473960876464844e+01 3.977461252361536026e-03 -1.899601370096206665e-01 -5.579480156302452087e-02 -3.076537251472473145e-01
2.846000000000000000e+03 6.907690429687500000e+01 1.078033733367919922e+01 -1.820757985115051270e-02 -1.661894470453262329e-01 -5.531910806894302368e-02 -3.032406568527221680e-01
2.847000000000000000e+03 2.151350975036621094e+01 -1.138401508331298828e+01 3.931994736194610596e-01 3.001987002789974213e-02 1.269658058881759644e-01 5.800479054450988770e-01
2.848000000000000000e+03 6.558741760253906250e+01 1.112866997718811035e+00 -3.061862587928771973e-01 3.739804401993751526e-02 -8.063646405935287476e-02 -1.627166122198104858e-01
2.849000000000000000e+03 7.101812744140625000e+01 -4.953378677368164062e+00 -4.242076352238655090e-02 -1.124925632029771805e-02 -1.610100641846656799e-02 -7.170644123107194901e-03
2.850000000000000000e+03 7.121375274658203125e+01 -5.950291633605957031e+00 -2.942607738077640533e-02 -1.106529589742422104e-02 -1.214741170406341553e-02 -4.836187232285737991e-03
2.851000000000000000e+03 1.596276378631591797e+01 -1.007560062408447266e+01 3.456222116947174072e-01 -2.358514517545700073e-01 3.293121978640556335e-02 2.800657153129577637e-01
2.852000000000000000e+03 1.691163635253906250e+01 -8.915934562683105469e+00 4.464535117149353027e-01 -2.917115688323974609e-01 4.642258584499359131e-02 2.168173789978027344e-01
2.853000000000000000e+03 1.753351783752441406e+01 -8.800703048706054688e+00 5.100712180137634277e-01 -3.132684528827667236e-01 5.904082208871841431e-02 2.194084525108337402e-01
2.854000000000000000e+03 2.056064414978027344e+01 -1.117411422729492188e+01 4.234709739685058594e-01 -9.170081466436386108e-02 9.953104704618453979e-02 5.232447981834411621e-01
2.855000000000000000e+03 2.247428321838378906e+01 -1.135535049438476562e+01 3.889941871166229248e-01 1.715863496065139771e-01 1.681741625070571899e-01 6.091775894165039062e-01
2.856000000000000000e+03 1.794559860229492188e+01 -1.051171016693115234e+01 4.136854112148284912e-01 -2.570363879203796387e-01 4.699470847845077515e-02 3.585408031940460205e-01
2.857000000000000000e+03 1.010857295989990234e+01 -8.113119125366210938e+00 4.679835587739944458e-02 4.746600985527038574e-02 2.827931009232997894e-02 1.076387390494346619e-01
2.858000000000000000e+03 9.255307197570800781e+00 1.320020866394042969e+01 -5.623494871542789042e-05 -2.444395613565575331e-05 -2.420367127342615277e-05 -1.332483225269243121e-05
2.859000000000000000e+03 6.857446289062500000e+01 1.927298736572265625e+01 1.091060787439346313e-01 -2.675076723098754883e-01 -4.752047732472419739e-02 -2.163782864809036255e-01
2.860000000000000000e+03 7.136404418945312500e+01 8.669141769409179688e+00 -4.606664925813674927e-02 -1.550396531820297241e-01 -6.033188849687576294e-02 -2.469253093004226685e-01
2.861000000000000000e+03 6.916871643066406250e+01 8.555590629577636719e+00 -7.464934885501861572e-02 -1.181443929672241211e-01 -5.783812329173088074e-02 -2.870202958583831787e-01
2.862000000000000000e+03 6.866104125976562500e+01 1.426336097717285156e+01 5.520199984312057495e-02 -2.223086208105087280e-01 -5.013198778033256531e-02 -2.958033680915832520e-01
2.863000000000000000e+03 6.959459686279296875e+01 1.726662063598632812e+01 8.377856016159057617e-02 -2.742560505867004395e-01 -5.714325234293937683e-02 -2.371695190668106079e-01
2.864000000000000000e+03 6.954479217529296875e+01 6.733772754669189453e+00 -1.036038845777511597e-01 -9.568855166435241699e-02 -5.978773161768913269e-02 -2.674521207809448242e-01
2.865000000000000000e+03 1.028625488281250000e+01 -9.924906730651855469e+00 5.277169868350028992e-02 9.374461323022842407e-02 4.395489394664764404e-02 1.789275109767913818e-01
2.866000000000000000e+03 8.062566757202148438e+00 -9.028964996337890625e+00 -9.503508917987346649e-03 1.195491254329681396e-01 3.301368281245231628e-02 7.107076048851013184e-02
2.867000000000000000e+03 1.615334510803222656e+01 -8.513953208923339844e+00 3.811283111572265625e-01 -2.610286474227905273e-01 3.602989390492439270e-02 1.697226017713546753e-01
2.868000000000000000e+03 6.022238922119140625e+01 7.181275844573974609e+00 -2.466212213039398193e-01 -4.861931502819061279e-02 -8.857215940952301025e-02 -4.735254347324371338e-01
2.869000000000000000e+03 6.788566589355468750e+01 4.753429889678955078e+00 -1.675972193479537964e-01 -3.590083122253417969e-02 -6.104941293597221375e-02 -2.482415586709976196e-01
2.870000000000000000e+03 9.997824668884277344e+00 3.045737075805664062e+01 -9.582781785866245627e-05 -1.461987121729180217e-04 -7.260795973706990480e-05 -2.062008134089410305e-04
2.871000000000000000e+03 7.100453948974609375e+01 5.564668774604797363e-01 -1.168594807386398315e-01 -1.361692789942026138e-02 -3.914292156696319580e-02 -9.921287745237350464e-02
2.872000000000000000e+03 8.562974929809570312e+00 9.607849121093750000e+00 8.641784006613306701e-06 -2.311094613105524331e-05 -4.340748546383110806e-06 -2.866849354177247733e-05
2.873000000000000000e+03 5.062797927856445312e+01 1.382204818725585938e+01 7.940170168876647949e-01 2.032803595066070557e-01 2.991892099380493164e-01 1.417962908744812012e-01
2.874000000000000000e+03 5.246464920043945312e+01 7.820146083831787109e+00 4.464958980679512024e-02 -3.120286762714385986e-01 -8.021372556686401367e-02 -6.546647548675537109e-01
2.875000000000000000e+03 7.025753784179687500e+01 9.792678833007812500e+00 -3.691365569829940796e-02 -1.614665240049362183e-01 -5.951405316591262817e-02 -2.746209800243377686e-01
2.876000000000000000e+03 6.817330932617187500e+01 5.759201526641845703e+00 -1.549071222543716431e-01 -5.618586391210556030e-02 -6.332789361476898193e-02 -2.723869681358337402e-01
2.877000000000000000e+03 6.415882110595703125e+01 3.735994100570678711e+00 -3.161226212978363037e-01 2.684707939624786377e-02 -8.678266406059265137e-02 -2.777318954467773438e-01
2.878000000000000000e+03 6.297699737548828125e+01 6.846183776855468750e+00 -2.189973294734954834e-01 -3.999764472246170044e-02 -7.769849151372909546e-02 -4.085058569908142090e-01
2.879000000000000000e+03 6.910132598876953125e+01 2.337980461120605469e+01 1.078516468405723572e-01 -2.924187183380126953e-01 -5.537011846899986267e-02 -1.367159783840179443e-01
2.880000000000000000e+03 6.921084594726562500e+01 2.146827316284179688e+01 1.122268140316009521e-01 -2.922068238258361816e-01 -5.399400368332862854e-02 -1.737598031759262085e-01
2.881000000000000000e+03 5.713805389404296875e+01 9.936637878417968750e+00 8.759212493896484375e-02 -1.348342001438140869e-01 -1.417262200266122818e-02 -4.909927248954772949e-01
2.882000000000000000e+03 5.756475448608398438e+01 7.863616943359375000e+00 -1.843650639057159424e-01 -8.727920055389404297e-02 -8.149327337741851807e-02 -5.451442599296569824e-01
2.883000000000000000e+03 9.911952018737792969e+00 1.004749870300292969e+01 5.645463170367293060e-05 9.403554031450767070e-06 1.975745544768869877e-05 1.931386213982477784e-05
2.884000000000000000e+03 5.243293762207031250e+01 9.772445678710937500e+00 4.115090668201446533e-01 -2.504812479019165039e-01 4.830835014581680298e-02 -4.188406169414520264e-01
2.885000000000000000e+03 7.831685066223144531e+00 3.608208084106445312e+01 -1.174758654087781906e-05 3.148347896058112383e-04 9.092616528505459428e-05 4.986781277693808079e-06
2.886000000000000000e+03 7.097711944580078125e+01 -6.568709611892700195e-01 -1.043831333518028259e-01 -1.547924894839525223e-02 -3.595871478319168091e-02 -7.280107587575912476e-02
2.887000000000000000e+03 5.008733367919921875e+01 8.954152107238769531e+00 6.013019680976867676e-01 -4.092401862144470215e-01 5.761853232979774475e-02 -3.646096587181091309e-01
2.888000000000000000e+03 5.124206542968750000e+01 9.360010147094726562e+00 4.914962947368621826e-01 -2.859684228897094727e-01 6.165836006402969360e-02 -3.990856409072875977e-01
2.889000000000000000e+03 2.846092033386230469e+01 -7.661568641662597656e+00 8.243157267570495605e-01 2.650741815567016602e+00 1.042517304420471191e+00 -6.604856252670288086e-01
2.890000000000000000e+03 2.761968612670898438e+01 -7.183897972106933594e+00 9.045782089233398438e-01 3.454299688339233398e+00 1.307663321495056152e+00 1.816024333238601685e-01
2.891000000000000000e+03 2.659704971313476562e+01 -6.601244449615478516e+00 2.004213333129882812e+00 2.783504247665405273e+00 1.436315298080444336e+00 1.449064254760742188e+00
2.892000000000000000e+03 2.589962959289550781e+01 -6.933614253997802734e+00 1.986847400665283203e+00 1.685179233551025391e+00 1.101608037948608398e+00 1.278499960899353027e+00
2.893000000000000000e+03 2.573891639709472656e+01 -6.298446655273437500e+00 2.685273170471191406e+00 1.193104982376098633e+00 1.163513422012329102e+00 1.274553894996643066e+00
2.894000000000000000e+03 2.202164077758789062e+01 -8.185014724731445312e+00 1.101176500320434570e+00 -1.835329234600067139e-01 2.752930521965026855e-01 4.650047421455383301e-01
2.895000000000000000e+03 2.708542442321777344e+01 -8.489974021911621094e+00 6.310144066810607910e-01 2.192021846771240234e+00 8.469108939170837402e-01 3.197601735591888428e-01
2.896000000000000000e+03 2.432611846923828125e+01 -6.452792644500732422e+00 2.158923864364624023e+00 6.917992979288101196e-02 6.684311628341674805e-01 5.965474843978881836e-01
2.897000000000000000e+03 2.892417526245117188e+01 -8.685688018798828125e+00 6.221750974655151367e-01 1.832623958587646484e+00 7.364397048950195312e-01 -6.884365677833557129e-01
2.898000000000000000e+03 2.125064277648925781e+01 -7.324311733245849609e+00 1.092099428176879883e+00 -3.670467138290405273e-01 2.175158113241195679e-01 2.051625549793243408e-01
2.899000000000000000e+03 2.624776268005371094e+01 -6.759003639221191406e+00 2.033971548080444336e+00 2.168015956878662109e+00 1.260596275329589844e+00 1.395593404769897461e+00
2.900000000000000000e+03 2.267232513427734375e+01 -6.194173812866210938e+00 1.494278311729431152e+00 -4.138416349887847900e-01 3.241309821605682373e-01 8.603913336992263794e-02
2.901000000000000000e+03 2.960689926147460938e+01 -1.023978519439697266e+01 3.414169847965240479e-01 1.180073142051696777e+00 4.564470350742340088e-01 -6.548940539360046387e-01
2.902000000000000000e+03 2.881798171997070312e+01 -1.174470329284667969e+01 8.676544763147830963e-03 9.420661926269531250e-01 2.852228283882141113e-01 -3.967746794223785400e-01
2.903000000000000000e+03 2.354836463928222656e+01 -6.522939682006835938e+00 1.815403342247009277e+00 -2.167772948741912842e-01 4.795877933502197266e-01 3.520997464656829834e-01
2.904000000000000000e+03 2.240840148925781250e+01 -6.617832183837890625e+00 1.407570719718933105e+00 -3.572590649127960205e-01 3.150935173034667969e-01 1.564825922250747681e-01
2.905000000000000000e+03 2.924437332153320312e+01 -1.249084758758544922e+01 -1.211638450622558594e-01 7.376370429992675781e-01 1.849419623613357544e-01 -4.590702950954437256e-01
2.906000000000000000e+03 2.812827491760253906e+01 -1.217319393157958984e+01 -1.026966422796249390e-01 8.787962198257446289e-01 2.328298687934875488e-01 -2.031977921724319458e-01
2.907000000000000000e+03 2.096559715270996094e+01 -8.876907348632812500e+00 8.670294880867004395e-01 -2.288205921649932861e-01 1.914626806974411011e-01 4.341733455657958984e-01
2.908000000000000000e+03 1.088564586639404297e+01 -8.031419754028320312e+00 6.773200631141662598e-02 1.507032569497823715e-02 2.484070137143135071e-02 1.200251504778862000e-01
2.909000000000000000e+03 1.099560451507568359e+01 -8.804620742797851562e+00 7.781674712896347046e-02 3.519966825842857361e-02 3.390492498874664307e-02 1.578921228647232056e-01
2.910000000000000000e+03 1.555505561828613281e+01 -7.523365497589111328e+00 3.170816004276275635e-01 -2.336425483226776123e-01 2.503171190619468689e-02 8.611637353897094727e-02
2.911000000000000000e+03 1.359811592102050781e+01 -8.477713584899902344e+00 2.045221775770187378e-01 -1.168743520975112915e-01 2.629434503614902496e-02 1.650415211915969849e-01
2.912000000000000000e+03 1.851537132263183594e+01 -8.944665908813476562e+00 6.070597767829895020e-01 -3.277242481708526611e-01 8.380065113306045532e-02 2.604533135890960693e-01
2.913000000000000000e+03 2.401231384277343750e+01 -1.099960422515869141e+01 3.721754848957061768e-01 5.138022303581237793e-01 2.657933235168457031e-01 6.299577355384826660e-01
2.914000000000000000e+03 1.913440322875976562e+01 -8.752933502197265625e+00 6.817343235015869141e-01 -3.325450718402862549e-01 1.047567799687385559e-01 2.719911634922027588e-01
2.915000000000000000e+03 2.553934669494628906e+01 -1.187288475036621094e+01 4.681904613971710205e-02 7.410336136817932129e-01 2.363557964563369751e-01 3.784394562244415283e-01
2.916000000000000000e+03 1.679783058166503906e+01 -8.335661888122558594e+00 4.500744938850402832e-01 -3.022225797176361084e-01 4.435557872056961060e-02 1.592044979333877563e-01
2.917000000000000000e+03 9.344955444335937500e+00 -8.130335807800292969e+00 2.097699232399463654e-02 6.269169598817825317e-02 2.510060742497444153e-02 9.013787657022476196e-02
2.918000000000000000e+03 1.482932567596435547e+01 -8.629393577575683594e+00 2.884186804294586182e-01 -1.866523921489715576e-01 3.052988834679126740e-02 1.830519735813140869e-01
2.919000000000000000e+03 1.558961677551269531e+01 -9.406857490539550781e+00 3.286914825439453125e-01 -2.276418060064315796e-01 3.031489998102188110e-02 2.304272502660751343e-01
2.920000000000000000e+03 1.003718757629394531e+01 9.054551124572753906e+00 -5.005195635021664202e-05 -1.436829825252061710e-05 -1.932607665366958827e-05 -2.078688157780561596e-05
2.921000000000000000e+03 1.653611564636230469e+01 -9.653993606567382812e+00 3.866770267486572266e-01 -2.682082653045654297e-01 3.554062917828559875e-02 2.623093426227569580e-01
2.922000000000000000e+03 9.269719123840332031e+00 -8.884840965270996094e+00 2.328038401901721954e-02 9.205018728971481323e-02 3.459917008876800537e-02 1.146205291152000427e-01
2.923000000000000000e+03 1.949530220031738281e+01 -9.698165893554687500e+00 6.109572649002075195e-01 -2.580611705780029297e-01 1.058688238263130188e-01 3.911979198455810547e-01
2.924000000000000000e+03 1.974912261962890625e+01 -1.077784061431884766e+01 4.838880002498626709e-01 -1.901692450046539307e-01 8.811563253402709961e-02 4.554059803485870361e-01
2.925000000000000000e+03 2.154745292663574219e+01 -1.032340335845947266e+01 6.275526285171508789e-01 -3.923060745000839233e-02 1.764966100454330444e-01 5.607730746269226074e-01
2.926000000000000000e+03 6.956024169921875000e+01 3.223041057586669922e+00 -1.449151635169982910e-01 -3.483647108078002930e-02 -5.392549186944961548e-02 -1.841558665037155151e-01
2.927000000000000000e+03 6.885380554199218750e+01 4.290866374969482422e+00 -1.606256812810897827e-01 -3.698651120066642761e-02 -5.928365886211395264e-02 -2.231139242649078369e-01
2.928000000000000000e+03 2.237957191467285156e+01 -1.044100284576416016e+01 6.156882643699645996e-01 1.193641349673271179e-01 2.205157130956649780e-01 6.301379203796386719e-01
2.929000000000000000e+03 1.908270835876464844e+01 -1.035813903808593750e+01 4.879241287708282471e-01 -2.382973581552505493e-01 7.488803565502166748e-02 4.010614454746246338e-01
2.930000000000000000e+03 6.783700561523437500e+01 1.167921543121337891e+01 7.264601299539208412e-04 -1.643414944410324097e-01 -4.908451065421104431e-02 -3.221938610076904297e-01
2.931000000000000000e+03 1.365408515930175781e+01 -9.297117233276367188e+00 2.165076881647109985e-01 -1.163399890065193176e-01 3.005031123757362366e-02 2.105151414871215820e-01
2.932000000000000000e+03 1.280929660797119141e+01 -1.029640102386474609e+01 1.657134294509887695e-01 -5.037123337388038635e-02 3.460266068577766418e-02 2.577961981296539307e-01
2.933000000000000000e+03 1.195691680908203125e+01 -9.380901336669921875e+00 1.313620060682296753e-01 -2.076720073819160461e-02 3.317843750119209290e-02 1.978803277015686035e-01
2.934000000000000000e+03 2.631295967102050781e+01 -1.207083892822265625e+01 -5.210662633180618286e-02 8.165025115013122559e-01 2.293187528848648071e-01 2.323671132326126099e-01
2.935000000000000000e+03 9.261737823486328125e+00 1.213113784790039062e+01 4.231431375956162810e-05 -2.495359012755216099e-06 1.194568631035508588e-05 -2.588233655842486769e-05
2.936000000000000000e+03 6.575851440429687500e+01 1.751227951049804688e+01 1.584089696407318115e-01 -1.894775629043579102e-01 -9.320578537881374359e-03 -2.582277357578277588e-01
2.937000000000000000e+03 6.834724426269531250e+01 1.551767063140869141e+01 8.094561100006103516e-02 -2.294268608093261719e-01 -4.454437643289566040e-02 -2.773535549640655518e-01
2.938000000000000000e+03 5.087032699584960938e+01 1.631808471679687500e+01 6.852473020553588867e-01 4.352198839187622070e-01 3.361401557922363281e-01 2.273059040307998657e-01
2.939000000000000000e+03 5.073889923095703125e+01 1.505929660797119141e+01 7.381780147552490234e-01 3.329381048679351807e-01 3.213348388671875000e-01 2.014982551336288452e-01
2.940000000000000000e+03 6.038763046264648438e+01 8.556729316711425781e+00 -1.153699755668640137e-01 -7.541058957576751709e-02 -5.723416805267333984e-02 -4.717990756034851074e-01
2.941000000000000000e+03 6.678633880615234375e+01 9.834866523742675781e-01 -2.474983930587768555e-01 3.823399171233177185e-02 -6.277932226657867432e-02 -1.383603364229202271e-01
2.942000000000000000e+03 5.350083923339843750e+01 1.188164901733398438e+01 5.055370926856994629e-01 -1.231775730848312378e-01 1.147078499197959900e-01 -2.897284924983978271e-01
2.943000000000000000e+03 1.761410331726074219e+01 -9.945084571838378906e+00 4.507367014884948730e-01 -2.776495814323425293e-01 5.192613974213600159e-02 3.116209805011749268e-01
2.944000000000000000e+03 5.197294616699218750e+01 1.269980525970458984e+01 6.869733929634094238e-01 -1.794130913913249969e-02 2.007096260786056519e-01 -8.979645371437072754e-02
2.945000000000000000e+03 6.887906646728515625e+01 1.306833171844482422e+01 2.988933958113193512e-02 -2.037639319896697998e-01 -5.216237902641296387e-02 -2.982569038867950439e-01
2.946000000000000000e+03 6.441837310791015625e+01 6.748774051666259766e+00 -1.850737035274505615e-01 -3.892297297716140747e-02 -6.719900667667388916e-02 -3.617097437381744385e-01
2.947000000000000000e+03 6.169304275512695312e+01 8.382142066955566406e+00 -1.347205489873886108e-01 -7.046857476234436035e-02 -6.155673786997795105e-02 -4.522944092750549316e-01
2.948000000000000000e+03 5.816503906250000000e+01 9.111774444580078125e+00 -2.340452186763286591e-02 -1.079538166522979736e-01 -3.940749913454055786e-02 -5.063422322273254395e-01
2.949000000000000000e+03 5.109152603149414062e+01 8.272284507751464844e+00 3.217132687568664551e-01 -3.959340751171112061e-01 -2.226624265313148499e-02 -5.459965467453002930e-01
2.950000000000000000e+03 6.887771129608154297e+00 2.125251579284667969e+01 -7.508384442189708352e-05 -1.465486730012344196e-05 -2.692161433515138924e-05 -3.363431824254803360e-05
2.951000000000000000e+03 6.778496551513671875e+01 2.068216323852539062e+01 1.347708702087402344e-01 -2.404783368110656738e-01 -3.171224147081375122e-02 -1.901157945394515991e-01
2.952000000000000000e+03 6.560404968261718750e+01 5.140482902526855469e+00 -2.242409288883209229e-01 -1.181746181100606918e-02 -7.081751525402069092e-02 -2.985000312328338623e-01
2.953000000000000000e+03 6.674658966064453125e+01 3.699494838714599609e+00 -2.227405309677124023e-01 7.517848862335085869e-04 -6.659662723541259766e-02 -2.374340593814849854e-01
2.954000000000000000e+03 6.685942077636718750e+01 2.389076232910156250e+00 -2.437930852174758911e-01 1.096781343221664429e-02 -6.984758377075195312e-02 -1.980540007352828979e-01
2.955000000000000000e+03 5.194892501831054688e+01 1.073058032989501953e+01 5.842227935791015625e-01 -1.783024668693542480e-01 1.217760890722274780e-01 -2.845162153244018555e-01
2.956000000000000000e+03 2.674494361877441406e+01 -7.260625362396240234e+00 1.253033161163330078e+00 2.728810071945190430e+00 1.194553017616271973e+00 9.350828528404235840e-01
2.957000000000000000e+03 2.799643516540527344e+01 -8.002820968627929688e+00 6.688382029533386230e-01 2.579943895339965820e+00 9.746346473693847656e-01 -2.477364540100097656e-01
2.958000000000000000e+03 2.786923408508300781e+01 -7.241534709930419922e+00 8.660200238227844238e-01 3.319668769836425781e+00 1.255706667900085449e+00 -1.115047559142112732e-01
2.959000000000000000e+03 2.576233863830566406e+01 -6.699059963226318359e+00 2.221652507781982422e+00 1.473341464996337891e+00 1.108498215675354004e+00 1.271264672279357910e+00
2.960000000000000000e+03 2.435810661315917969e+01 -7.652129173278808594e+00 1.559158086776733398e+00 4.714830517768859863e-01 6.091923117637634277e-01 8.458272814750671387e-01
2.961000000000000000e+03 2.844664382934570312e+01 -9.075028419494628906e+00 4.644438326358795166e-01 1.846146225929260254e+00 6.931770443916320801e-01 -4.408771395683288574e-01
2.962000000000000000e+03 2.495327186584472656e+01 -6.519864559173583984e+00 2.367259025573730469e+00 5.081499814987182617e-01 8.626226782798767090e-01 9.209986925125122070e-01
2.963000000000000000e+03 2.284112167358398438e+01 -6.915988922119140625e+00 1.517390370368957520e+00 -2.614999115467071533e-01 3.767671287059783936e-01 3.536734580993652344e-01
2.964000000000000000e+03 2.454858970642089844e+01 -6.847423076629638672e+00 2.018791198730468750e+00 3.035517930984497070e-01 6.967028975486755371e-01 8.035687804222106934e-01
2.965000000000000000e+03 2.387387275695800781e+01 -6.783672332763671875e+00 1.861966252326965332e+00 -3.573285043239593506e-02 5.478700399398803711e-01 5.552050471305847168e-01
2.966000000000000000e+03 2.765387535095214844e+01 -9.092043876647949219e+00 4.195359051227569580e-01 1.922846794128417969e+00 7.027148008346557617e-01 -3.992689773440361023e-02
2.967000000000000000e+03 1.276676940917968750e+01 -8.466113090515136719e+00 1.641608178615570068e-01 -7.435431331396102905e-02 2.694195136427879333e-02 1.576753854751586914e-01
2.968000000000000000e+03 2.241988563537597656e+01 -9.699896812438964844e+00 7.833084464073181152e-01 6.683095544576644897e-02 2.550418078899383545e-01 6.225765347480773926e-01
2.969000000000000000e+03 2.775016212463378906e+01 -1.152517890930175781e+01 1.013835798949003220e-02 1.034723639488220215e+00 3.134586215019226074e-01 -1.241556257009506226e-01
2.970000000000000000e+03 1.806346702575683594e+01 -8.469493865966796875e+00 5.570471286773681641e-01 -3.407961428165435791e-01 6.487528979778289795e-02 1.917960196733474731e-01
2.971000000000000000e+03 1.759796524047851562e+01 -9.353140830993652344e+00 4.848021268844604492e-01 -2.957882881164550781e-01 5.670414865016937256e-02 2.650924026966094971e-01
2.972000000000000000e+03 2.938706779479980469e+01 -1.075015640258789062e+01 1.952425390481948853e-01 1.098146200180053711e+00 3.880166113376617432e-01 -5.746465325355529785e-01
2.973000000000000000e+03 2.191165161132812500e+01 -7.023947715759277344e+00 1.265508413314819336e+00 -3.630259931087493896e-01 2.707447111606597900e-01 2.298194915056228638e-01
2.974000000000000000e+03 2.130430412292480469e+01 -8.060407638549804688e+00 1.046889185905456543e+00 -2.753426134586334229e-01 2.314639687538146973e-01 3.726347684860229492e-01
2.975000000000000000e+03 1.427059650421142578e+01 -8.492040634155273438e+00 2.431191951036453247e-01 -1.558298170566558838e-01 2.618681266903877258e-02 1.648099571466445923e-01
2.976000000000000000e+03 2.687620162963867188e+01 -1.131953811645507812e+01 6.942196190357208252e-02 1.041936159133911133e+00 3.334074616432189941e-01 1.313262432813644409e-01
2.977000000000000000e+03 1.894411659240722656e+01 -9.365462303161621094e+00 5.971902608871459961e-01 -2.979207634925842285e-01 8.978085219860076904e-02 3.377369940280914307e-01
2.978000000000000000e+03 1.629586029052734375e+01 -9.119215965270996094e+00 3.995282649993896484e-01 -2.685038745403289795e-01 3.930731862783432007e-02 2.219963371753692627e-01
2.979000000000000000e+03 9.076845169067382812e+00 8.927979469299316406e+00 3.079927046201191843e-05 3.942305556847713888e-05 2.106669671775307506e-05 3.592796565499156713e-05
2.980000000000000000e+03 2.369220352172851562e+01 -9.457242965698242188e+00 8.508006334304809570e-01 4.052080214023590088e-01 3.768025934696197510e-01 7.353307008743286133e-01
2.981000000000000000e+03 1.983367919921875000e+01 -9.038500785827636719e+00 7.220969796180725098e-01 -3.012134134769439697e-01 1.262650638818740845e-01 3.523431122303009033e-01
2.982000000000000000e+03 1.809849166870117188e+01 -9.505780220031738281e+00 5.094428062438964844e-01 -3.056735694408416748e-01 6.113078445196151733e-02 2.931911647319793701e-01
2.983000000000000000e+03 1.698647117614746094e+01 -9.998661041259765625e+00 4.149056673049926758e-01 -2.661268115043640137e-01 4.463365301489830017e-02 3.042040765285491943e-01
2.984000000000000000e+03 1.547019672393798828e+01 -8.691837310791015625e+00 3.333452641963958740e-01 -2.305027395486831665e-01 3.085275366902351379e-02 1.833676993846893311e-01
2.985000000000000000e+03 6.714228057861328125e+01 6.189157962799072266e+00 -1.506382822990417480e-01 -5.513032153248786926e-02 -6.173058226704597473e-02 -2.964772284030914307e-01
2.986000000000000000e+03 6.860984039306640625e+01 1.509280681610107422e+00 -1.847831159830093384e-01 5.862522521056234837e-04 -5.525905638933181763e-02 -1.491987556219100952e-01
2.987000000000000000e+03 5.337355041503906250e+01 1.049656391143798828e+01 3.911407589912414551e-01 -1.870075464248657227e-01 6.123995780944824219e-02 -4.039992690086364746e-01
2.988000000000000000e+03 6.811545562744140625e+01 6.875316143035888672e+00 -1.269030570983886719e-01 -7.125285267829895020e-02 -5.944677442312240601e-02 -2.901192605495452881e-01
2.989000000000000000e+03 6.984773254394531250e+01 -6.728515028953552246e-01 -1.317036896944046021e-01 5.231510382145643234e-03 -3.794165328145027161e-02 -7.322936505079269409e-02
2.990000000000000000e+03 5.336734008789062500e+01 1.381874847412109375e+01 6.011990904808044434e-01 1.091706100851297379e-02 1.836348474025726318e-01 -1.203704997897148132e-01
2.991000000000000000e+03 4.825599288940429688e+01 1.776543807983398438e+01 5.546474456787109375e-01 1.019711375236511230e+00 4.723076522350311279e-01 4.263589084148406982e-01
2.992000000000000000e+03 5.330858993530273438e+01 1.277138042449951172e+01 5.536946058273315430e-01 -7.409572601318359375e-02 1.438796669244766235e-01 -2.034424394369125366e-01
2.993000000000000000e+03 6.796166229248046875e+01 1.688295364379882812e+01 1.052563935518264771e-01 -2.385994791984558105e-01 -4.000292718410491943e-02 -2.622616589069366455e-01
2.994000000000000000e+03 5.521006011962890625e+01 9.253361701965332031e+00 9.085560590028762817e-02 -1.763683706521987915e-01 -2.565383166074752808e-02 -5.381935834884643555e-01
2.995000000000000000e+03 6.642002868652343750e+01 1.618199157714843750e+01 1.247935295104980469e-01 -1.950618326663970947e-01 -2.108049206435680389e-02 -2.829183936119079590e-01
2.996000000000000000e+03 6.697204589843750000e+01 1.497442722320556641e+01 9.283833205699920654e-02 -2.032245099544525146e-01 -3.311585262417793274e-02 -3.048163056373596191e-01
2.997000000000000000e+03 6.663268280029296875e+01 1.953516769409179688e+01 1.539828181266784668e-01 -2.125980108976364136e-01 -1.758455857634544373e-02 -2.165148258209228516e-01
2.998000000000000000e+03 6.609143829345703125e+01 8.213901519775390625e+00 -1.076438650488853455e-01 -7.967326045036315918e-02 -5.619513988494873047e-02 -3.456695377826690674e-01
2.999000000000000000e+03 5.911075592041015625e+01 9.947611808776855469e+00 2.927659451961517334e-02 -1.093299910426139832e-01 -2.401601895689964294e-02 -4.705469608306884766e-01
3.000000000000000000e+03 6.451148986816406250e+01 8.207721710205078125e+00 -1.289495527744293213e-01 -7.592832297086715698e-02 -6.146335974335670471e-02 -3.935480713844299316e-01
3.001000000000000000e+03 6.709348297119140625e+01 2.582395744323730469e+01 1.197763979434967041e-01 -2.149984836578369141e-01 -2.856662310659885406e-02 -9.381850808858871460e-02
3.002000000000000000e+03 6.716525268554687500e+01 2.374668693542480469e+01 1.432802528142929077e-01 -2.200036495923995972e-01 -2.301702089607715607e-02 -1.322068721055984497e-01
3.003000000000000000e+03 6.425630187988281250e+01 5.256859302520751953e+00 -2.660224139690399170e-01 -1.355527527630329132e-02 -8.387330919504165649e-02 -3.431386351585388184e-01
3.004000000000000000e+03 2.787615966796875000e+01 -1.052974987030029297e+01 1.796558648347854614e-01 1.351645469665527344e+00 4.593904018402099609e-01 -1.579182893037796021e-01
3.005000000000000000e+03 2.555282211303710938e+01 -6.553069114685058594e+00 2.428858995437622070e+00 1.073464751243591309e+00 1.050697088241577148e+00 1.196342349052429199e+00
3.006000000000000000e+03 2.338162422180175781e+01 -7.001971244812011719e+00 1.644623994827270508e+00 -1.028795316815376282e-01 4.625233411788940430e-01 4.708904623985290527e-01
3.007000000000000000e+03 2.719105720520019531e+01 -9.157446861267089844e+00 4.408579170703887939e-01 1.849844455718994141e+00 6.872107386589050293e-01 1.761296540498733521e-01
3.008000000000000000e+03 2.879828643798828125e+01 -9.541690826416015625e+00 4.080505371093750000e-01 1.546743035316467285e+00 5.864380598068237305e-01 -5.320976972579956055e-01
3.009000000000000000e+03 2.693984222412109375e+01 -9.660145759582519531e+00 3.763178288936614990e-01 1.610517382621765137e+00 5.960505604743957520e-01 2.309830933809280396e-01
3.010000000000000000e+03 2.351025009155273438e+01 -7.510942459106445312e+00 1.513936281204223633e+00 3.416929394006729126e-02 4.644316732883453369e-01 6.242224574089050293e-01
3.011000000000000000e+03 2.658578872680664062e+01 -1.094547843933105469e+01 1.511472016572952271e-01 1.136487722396850586e+00 3.862904608249664307e-01 2.465984225273132324e-01
3.012000000000000000e+03 2.294327545166015625e+01 -7.894473552703857422e+00 1.329864859580993652e+00 -2.681772224605083466e-02 3.909141421318054199e-01 5.785732269287109375e-01
3.013000000000000000e+03 2.793112182617187500e+01 -9.551165580749511719e+00 3.450619280338287354e-01 1.720905303955078125e+00 6.197901964187622070e-01 -1.694691777229309082e-01
3.014000000000000000e+03 2.834627151489257812e+01 -1.003633022308349609e+01 2.607279419898986816e-01 1.472371339797973633e+00 5.199297666549682617e-01 -3.268786370754241943e-01
3.015000000000000000e+03 2.456103134155273438e+01 -1.078540325164794922e+01 3.828485310077667236e-01 6.545558571815490723e-01 3.112213015556335449e-01 6.119286417961120605e-01
3.016000000000000000e+03 2.241427803039550781e+01 -7.501543045043945312e+00 1.306239128112792969e+00 -2.180289626121520996e-01 3.264630436897277832e-01 3.894246816635131836e-01
3.017000000000000000e+03 2.773251152038574219e+01 -8.390851020812988281e+00 5.739487409591674805e-01 2.379253387451171875e+00 8.859605789184570312e-01 -5.814429000020027161e-02
3.018000000000000000e+03 2.447242736816406250e+01 -1.018937110900878906e+01 5.723097324371337891e-01 6.775121092796325684e-01 3.749465346336364746e-01 6.868981719017028809e-01
3.019000000000000000e+03 2.536050987243652344e+01 -1.085219860076904297e+01 2.889871001243591309e-01 8.796842098236083984e-01 3.506013751029968262e-01 4.957771301269531250e-01
3.020000000000000000e+03 2.303003311157226562e+01 -9.675094604492187500e+00 7.986581921577453613e-01 2.232220321893692017e-01 3.065640628337860107e-01 6.788257956504821777e-01
3.021000000000000000e+03 2.524057769775390625e+01 -9.123124122619628906e+00 8.204330801963806152e-01 1.074302196502685547e+00 5.684205889701843262e-01 7.607335448265075684e-01
3.022000000000000000e+03 2.216944313049316406e+01 -8.807238578796386719e+00 9.968014359474182129e-01 -8.419367671012878418e-02 2.737823128700256348e-01 5.415293574333190918e-01
3.023000000000000000e+03 6.591084289550781250e+01 6.619733333587646484e+00 -1.756063699722290039e-01 -5.215532705187797546e-02 -6.832850724458694458e-02 -3.408208787441253662e-01
3.024000000000000000e+03 6.680557250976562500e+01 4.948221683502197266e+00 -2.015123069286346436e-01 -2.960982173681259155e-02 -6.933663785457611084e-02 -2.848010063171386719e-01
3.025000000000000000e+03 6.741469573974609375e+01 1.385934925079345703e+01 6.319424510002136230e-02 -1.940130740404129028e-01 -3.924564644694328308e-02 -3.111667335033416748e-01
3.026000000000000000e+03 2.008823394775390625e+01 -1.007145881652832031e+01 5.774334073066711426e-01 -2.103507369756698608e-01 1.101248040795326233e-01 4.431417584419250488e-01
3.027000000000000000e+03 5.238673019409179688e+01 2.101224708557128906e+01 4.540396034717559814e-01 5.461854338645935059e-01 3.000675141811370850e-01 1.669459939002990723e-01
3.028000000000000000e+03 4.967554855346679688e+01 1.769550704956054688e+01 6.006757020950317383e-01 7.443038821220397949e-01 4.034938812255859375e-01 3.321028351783752441e-01
3.029000000000000000e+03 5.356259155273437500e+01 1.490520000457763672e+01 5.902619361877441406e-01 8.831773698329925537e-02 2.035738974809646606e-01 -5.693845823407173157e-02
3.030000000000000000e+03 6.938341522216796875e+01 5.406497955322265625e+00 -1.299247592687606812e-01 -5.861003696918487549e-02 -5.656043812632560730e-02 -2.340943813323974609e-01
3.031000000000000000e+03 7.113088989257812500e+01 7.568182945251464844e+00 -7.138314098119735718e-02 -1.290071308612823486e-01 -6.011708080768585205e-02 -2.458237260580062866e-01
3.032000000000000000e+03 6.788124084472656250e+01 3.771133899688720703e+00 -1.908420920372009277e-01 -2.020392753183841705e-02 -6.331380456686019897e-02 -2.261990904808044434e-01
3.033000000000000000e+03 6.469769287109375000e+01 1.332234287261962891e+01 9.120386838912963867e-02 -1.581982970237731934e-01 -2.009832672774791718e-02 -3.541460633277893066e-01
3.034000000000000000e+03 5.418064117431640625e+01 9.823880195617675781e+00 2.579731941223144531e-01 -1.868883520364761353e-01 2.132545225322246552e-02 -4.694837629795074463e-01
3.035000000000000000e+03 5.522608184814453125e+01 1.315872669219970703e+01 4.386697709560394287e-01 -6.992380321025848389e-02 1.106237918138504028e-01 -2.671612501144409180e-01
3.036000000000000000e+03 5.273161697387695312e+01 1.127844905853271484e+01 5.352231264114379883e-01 -1.657186299562454224e-01 1.108513548970222473e-01 -2.855449616909027100e-01
3.037000000000000000e+03 6.179354858398437500e+01 9.733201026916503906e+00 -3.130697086453437805e-02 -9.129547327756881714e-02 -3.678073361515998840e-02 -4.355130791664123535e-01
3.038000000000000000e+03 5.221583938598632812e+01 1.509780883789062500e+01 6.742920875549316406e-01 1.782219260931015015e-01 2.557542026042938232e-01 5.392962321639060974e-02
3.039000000000000000e+03 5.108702087402343750e+01 1.761783981323242188e+01 5.986008644104003906e-01 5.154472589492797852e-01 3.342144191265106201e-01 2.234551757574081421e-01
3.040000000000000000e+03 6.504598236083984375e+01 1.537536525726318359e+01 1.365651637315750122e-01 -1.749348342418670654e-01 -1.151089929044246674e-02 -3.081284761428833008e-01
3.041000000000000000e+03 6.306961441040039062e+01 8.254994392395019531e+00 -1.268065869808197021e-01 -6.349897384643554688e-02 -5.709166824817657471e-02 -4.105031788349151611e-01
3.042000000000000000e+03 6.739414978027343750e+01 2.753843116760253906e+01 1.072302833199501038e-01 -2.162379920482635498e-01 -3.270231187343597412e-02 -6.975056976079940796e-02
3.043000000000000000e+03 2.536339187622070312e+01 -8.332023620605468750e+00 1.113105058670043945e+00 1.208316206932067871e+00 6.964263916015625000e-01 8.968377113342285156e-01
3.044000000000000000e+03 2.545697021484375000e+01 -6.848058700561523438e+00 2.099970102310180664e+00 1.085812687873840332e+00 9.557347893714904785e-01 1.161046624183654785e+00
3.045000000000000000e+03 2.637569808959960938e+01 -7.479867458343505859e+00 1.303900122642517090e+00 2.196747303009033203e+00 1.050194263458251953e+00 1.009109616279602051e+00
3.046000000000000000e+03 2.651872253417968750e+01 -7.870378494262695312e+00 1.018378734588623047e+00 2.193711280822753906e+00 9.636270403861999512e-01 8.000182509422302246e-01
3.047000000000000000e+03 2.740996932983398438e+01 -8.751428604125976562e+00 5.322106480598449707e-01 2.135295629501342773e+00 8.002519011497497559e-01 1.125969141721725464e-01
3.048000000000000000e+03 2.408274269104003906e+01 -7.202864646911621094e+00 1.803919792175292969e+00 2.103348821401596069e-01 6.042764186859130859e-01 7.322517633438110352e-01
3.049000000000000000e+03 2.600180053710937500e+01 -7.552721500396728516e+00 1.381730079650878906e+00 1.831495642662048340e+00 9.639676809310913086e-01 1.069359064102172852e+00
3.050000000000000000e+03 2.573333740234375000e+01 -7.398646831512451172e+00 1.571222305297851562e+00 1.476479768753051758e+00 9.143106341361999512e-01 1.100209355354309082e+00
3.051000000000000000e+03 2.483605766296386719e+01 -7.217205524444580078e+00 1.851436257362365723e+00 6.941781044006347656e-01 7.636843323707580566e-01 9.710645079612731934e-01
3.052000000000000000e+03 2.740736579895019531e+01 -8.119881629943847656e+00 6.775319576263427734e-01 2.542372941970825195e+00 9.659714698791503906e-01 1.998109370470046997e-01
3.053000000000000000e+03 2.738128471374511719e+01 -1.097219467163085938e+01 9.800684452056884766e-02 1.197877168655395508e+00 3.887652158737182617e-01 1.261436496861279011e-03
3.054000000000000000e+03 2.514231872558593750e+01 -6.795077323913574219e+00 2.107423067092895508e+00 8.057906031608581543e-01 8.739641308784484863e-01 1.038588762283325195e+00
3.055000000000000000e+03 2.511831474304199219e+01 -7.920904636383056641e+00 1.395953893661499023e+00 1.024224758148193359e+00 7.260535955429077148e-01 9.755227565765380859e-01
3.056000000000000000e+03 2.518255043029785156e+01 -7.472984313964843750e+00 1.642425537109375000e+00 9.828341603279113770e-01 7.875779271125793457e-01 1.010783433914184570e+00
3.057000000000000000e+03 2.381196784973144531e+01 -8.007336616516113281e+00 1.380712866783142090e+00 2.731288671493530273e-01 4.961525201797485352e-01 7.581682801246643066e-01
3.058000000000000000e+03 2.835899543762207031e+01 -1.107706928253173828e+01 8.047369122505187988e-02 1.147788524627685547e+00 3.684786856174468994e-01 -3.037083148956298828e-01
3.059000000000000000e+03 2.742981338500976562e+01 -1.003757858276367188e+01 2.620033323764801025e-01 1.523748517036437988e+00 5.357255339622497559e-01 2.144216373562812805e-02
3.060000000000000000e+03 2.526727676391601562e+01 -9.972952842712402344e+00 5.183393359184265137e-01 9.879744052886962891e-01 4.518941342830657959e-01 6.216154694557189941e-01
3.061000000000000000e+03 2.584432029724121094e+01 -1.121355819702148438e+01 1.511837691068649292e-01 9.403883218765258789e-01 3.274716138839721680e-01 3.878245353698730469e-01
3.062000000000000000e+03 2.476939582824707031e+01 -9.608015060424804688e+00 7.007832527160644531e-01 8.083548545837402344e-01 4.527414143085479736e-01 7.244986891746520996e-01
3.063000000000000000e+03 2.332432746887207031e+01 -8.328619003295898438e+00 1.260534763336181641e+00 1.460935473442077637e-01 4.219884872436523438e-01 6.953191757202148438e-01
3.064000000000000000e+03 2.301088142395019531e+01 -8.746536254882812500e+00 1.087221145629882812e+00 1.105048879981040955e-01 3.593178093433380127e-01 6.513534784317016602e-01
3.065000000000000000e+03 2.352678680419921875e+01 -8.814628601074218750e+00 1.072813868522644043e+00 2.981219887733459473e-01 4.112807810306549072e-01 7.299941778182983398e-01
3.066000000000000000e+03 6.990336608886718750e+01 7.821559906005859375e+00 -7.145260274410247803e-02 -1.208969429135322571e-01 -5.770486220717430115e-02 -2.678442895412445068e-01
3.067000000000000000e+03 7.022402954101562500e+01 8.757865905761718750e+00 -5.585338547825813293e-02 -1.463165879249572754e-01 -6.065099313855171204e-02 -2.733850777149200439e-01
3.068000000000000000e+03 6.200611114501953125e+01 1.092871475219726562e+01 2.080084383487701416e-02 -1.133729889988899231e-01 -2.777164429426193237e-02 -4.259274303913116455e-01
3.069000000000000000e+03 5.479619598388671875e+01 1.072487545013427734e+01 2.981318235397338867e-01 -1.588562279939651489e-01 4.178267344832420349e-02 -4.286512732505798340e-01
3.070000000000000000e+03 6.779206085205078125e+01 8.268394470214843750e+00 -9.200324118137359619e-02 -1.061770170927047729e-01 -5.945407599210739136e-02 -3.227077424526214600e-01
3.071000000000000000e+03 6.786285400390625000e+01 9.600035667419433594e+00 -4.658159241080284119e-02 -1.302736997604370117e-01 -5.305659025907516479e-02 -3.268525302410125732e-01
3.072000000000000000e+03 6.573873901367187500e+01 1.425630664825439453e+01 9.647345542907714844e-02 -1.726080924272537231e-01 -2.284039184451103210e-02 -3.219256997108459473e-01
3.073000000000000000e+03 5.446935272216796875e+01 1.419537258148193359e+01 5.275375247001647949e-01 -2.780374884605407715e-02 1.499201357364654541e-01 -1.768741309642791748e-01
3.074000000000000000e+03 5.408263397216796875e+01 1.117388725280761719e+01 4.029464721679687500e-01 -1.564207971096038818e-01 7.395770400762557983e-02 -3.635561466217041016e-01
3.075000000000000000e+03 6.700584411621093750e+01 1.023228836059570312e+01 -3.870062902569770813e-02 -1.275425851345062256e-01 -4.987296089529991150e-02 -3.427581191062927246e-01
3.076000000000000000e+03 6.398418045043945312e+01 1.905704307556152344e+01 2.020126879215240479e-01 -1.467677205801010132e-01 1.657349057495594025e-02 -2.218543887138366699e-01
3.077000000000000000e+03 6.528730773925781250e+01 2.401271629333496094e+01 1.826666295528411865e-01 -1.393000930547714233e-01 1.300995983183383942e-02 -1.138458251953125000e-01
3.078000000000000000e+03 2.609235191345214844e+01 -9.839126586914062500e+00 4.397202134132385254e-01 1.326258301734924316e+00 5.297935605049133301e-01 4.835672080516815186e-01
3.079000000000000000e+03 2.576850891113281250e+01 -7.955447196960449219e+00 1.234467506408691406e+00 1.567615509033203125e+00 8.406249284744262695e-01 9.661539196968078613e-01
3.080000000000000000e+03 2.609530639648437500e+01 -8.254804611206054688e+00 9.919692277908325195e-01 1.748850345611572266e+00 8.222458362579345703e-01 8.204802274703979492e-01
3.081000000000000000e+03 2.654603958129882812e+01 -1.016660118103027344e+01 2.983995378017425537e-01 1.348111152648925781e+00 4.939531981945037842e-01 3.159157037734985352e-01
3.082000000000000000e+03 2.462816619873046875e+01 -8.173070907592773438e+00 1.308715343475341797e+00 7.264984250068664551e-01 6.105641126632690430e-01 8.861881494522094727e-01
3.083000000000000000e+03 2.494015884399414062e+01 -1.044995594024658203e+01 4.381415247917175293e-01 8.182117342948913574e-01 3.769059777259826660e-01 6.190573573112487793e-01
3.084000000000000000e+03 2.435048103332519531e+01 -9.125140190124511719e+00 9.229539632797241211e-01 6.614524126052856445e-01 4.753219187259674072e-01 7.932709455490112305e-01
3.085000000000000000e+03 2.616758728027343750e+01 -1.066246414184570312e+01 2.511231601238250732e-01 1.134106159210205078e+00 4.155687689781188965e-01 3.622174561023712158e-01
3.086000000000000000e+03 2.256007766723632812e+01 -8.396105766296386719e+00 1.153985619544982910e+00 -5.212238058447837830e-02 3.305589854717254639e-01 5.704604983329772949e-01
3.087000000000000000e+03 6.426484680175781250e+01 1.664619255065917969e+01 1.798728853464126587e-01 -1.587957590818405151e-01 6.323138251900672913e-03 -2.756859660148620605e-01
3.088000000000000000e+03 6.385422134399414062e+01 1.447830200195312500e+01 1.427507102489471436e-01 -1.486946344375610352e-01 -1.783176208846271038e-03 -3.301043510437011719e-01
3.089000000000000000e+03 5.728981018066406250e+01 1.259982490539550781e+01 2.899089157581329346e-01 -1.058223322033882141e-01 5.522597208619117737e-02 -3.636374771595001221e-01
3.090000000000000000e+03 5.640143203735351562e+01 1.399227333068847656e+01 4.075817167758941650e-01 -6.901361793279647827e-02 1.015704348683357239e-01 -2.664760947227478027e-01
3.091000000000000000e+03 5.236262130737304688e+01 1.745879554748535156e+01 6.031891107559204102e-01 3.652745485305786133e-01 2.905390858650207520e-01 1.374730020761489868e-01
3.092000000000000000e+03 6.575354766845703125e+01 2.036388206481933594e+01 1.807807683944702148e-01 -1.807019859552383423e-01 2.363429666729643941e-05 -1.939581185579299927e-01
3.093000000000000000e+03 6.324069976806640625e+01 1.776577377319335938e+01 2.204514741897583008e-01 -1.380024403333663940e-01 2.473471313714981079e-02 -2.421204447746276855e-01
3.094000000000000000e+03 6.559403991699218750e+01 2.856740379333496094e+01 1.248750314116477966e-01 -1.256670355796813965e-01 -2.376017655478790402e-04 -4.392186924815177917e-02
3.095000000000000000e+03 6.213690567016601562e+01 2.297502326965332031e+01 2.433784306049346924e-01 -2.945988252758979797e-02 6.417556107044219971e-02 -9.804774075746536255e-02
3.096000000000000000e+03 2.547440910339355469e+01 -7.694507598876953125e+00 1.476431369781494141e+00 1.323414087295532227e+00 8.399536013603210449e-01 1.060114026069641113e+00
3.097000000000000000e+03 2.677187347412109375e+01 -8.901495933532714844e+00 5.864162445068359375e-01 1.843432784080505371e+00 7.289547324180603027e-01 4.130715727806091309e-01
3.098000000000000000e+03 2.678229713439941406e+01 -8.199076652526855469e+00 8.081190586090087891e-01 2.194784641265869141e+00 9.008710980415344238e-01 5.554417371749877930e-01
3.099000000000000000e+03 2.489396286010742188e+01 -8.697000503540039062e+00 1.019288420677185059e+00 9.231171607971191406e-01 5.827217102050781250e-01 8.460299968719482422e-01
3.100000000000000000e+03 2.698522758483886719e+01 -1.052304935455322266e+01 2.151000648736953735e-01 1.301194071769714355e+00 4.548882544040679932e-01 1.573299765586853027e-01
3.101000000000000000e+03 2.407971954345703125e+01 -8.537127494812011719e+00 1.164448976516723633e+00 4.620045423507690430e-01 4.879360496997833252e-01 7.929949760437011719e-01
3.102000000000000000e+03 5.856634140014648438e+01 1.371414852142333984e+01 2.828860878944396973e-01 -1.043997555971145630e-01 5.354589968919754028e-02 -3.344797790050506592e-01
3.103000000000000000e+03 5.430014801025390625e+01 1.245117092132568359e+01 4.538476765155792236e-01 -8.918597549200057983e-02 1.093985140323638916e-01 -2.737408876419067383e-01
3.104000000000000000e+03 6.276697921752929688e+01 1.359345245361328125e+01 1.449087709188461304e-01 -1.408530026674270630e-01 1.216729753650724888e-03 -3.588423132896423340e-01
3.105000000000000000e+03 6.422430419921875000e+01 1.111261749267578125e+01 8.358370512723922729e-03 -1.293054074048995972e-01 -3.628411144018173218e-02 -3.955144584178924561e-01
3.106000000000000000e+03 6.562561035156250000e+01 1.254918289184570312e+01 4.295007884502410889e-02 -1.529355645179748535e-01 -3.299564495682716370e-02 -3.582800328731536865e-01
3.107000000000000000e+03 5.137726974487304688e+01 2.025827217102050781e+01 4.740791618824005127e-01 6.276906132698059082e-01 3.305309414863586426e-01 1.978707611560821533e-01
3.108000000000000000e+03 6.443966674804687500e+01 9.647577285766601562e+00 -5.888827517628669739e-02 -9.515950083732604980e-02 -4.621433094143867493e-02 -3.846018314361572266e-01
3.109000000000000000e+03 6.527206420898437500e+01 2.230975341796875000e+01 1.796165257692337036e-01 -1.580647975206375122e-01 6.465517915785312653e-03 -1.484613865613937378e-01
3.110000000000000000e+03 6.194079589843750000e+01 2.062501525878906250e+01 2.666167616844177246e-01 -6.077573820948600769e-02 6.175230443477630615e-02 -1.512344181537628174e-01
3.111000000000000000e+03 6.375496292114257812e+01 2.035208511352539062e+01 2.158788144588470459e-01 -1.312124729156494141e-01 2.539990469813346863e-02 -1.801710873842239380e-01
3.112000000000000000e+03 5.754802703857421875e+01 1.503812885284423828e+01 3.745597898960113525e-01 -5.329819768667221069e-02 9.637847542762756348e-02 -2.501026093959808350e-01
3.113000000000000000e+03 2.645411300659179688e+01 -9.359436035156250000e+00 4.973534047603607178e-01 1.590628743171691895e+00 6.263946294784545898e-01 4.531857967376708984e-01
3.114000000000000000e+03 2.641407775878906250e+01 -8.595308303833007812e+00 7.425319552421569824e-01 1.839523315429687500e+00 7.746165990829467773e-01 6.210650205612182617e-01
3.115000000000000000e+03 2.565153694152832031e+01 -9.493758201599121094e+00 5.988206267356872559e-01 1.215858936309814453e+00 5.444039106369018555e-01 6.347422003746032715e-01
3.116000000000000000e+03 2.567962074279785156e+01 -8.690564155578613281e+00 8.850540518760681152e-01 1.369090318679809570e+00 6.762433052062988281e-01 7.959085702896118164e-01
3.117000000000000000e+03 6.173184967041015625e+01 1.265645408630371094e+01 1.310223639011383057e-01 -1.253413707017898560e-01 1.704298658296465874e-03 -3.787097632884979248e-01
3.118000000000000000e+03 6.365292739868164062e+01 1.245707511901855469e+01 7.855324447154998779e-02 -1.351597160100936890e-01 -1.698194257915019989e-02 -3.728542327880859375e-01
3.119000000000000000e+03 6.044148635864257812e+01 1.003266525268554688e+01 1.762105057423468679e-05 -1.066826730966567993e-01 -3.199951350688934326e-02 -4.617436230182647705e-01
3.120000000000000000e+03 6.083098602294921875e+01 1.147609996795654297e+01 9.680292755365371704e-02 -1.202604100108146667e-01 -7.037244271486997604e-03 -4.235820770263671875e-01
3.121000000000000000e+03 6.583395385742187500e+01 9.798699378967285156e+00 -5.323190614581108093e-02 -1.170853450894355774e-01 -5.109517648816108704e-02 -3.721639811992645264e-01
3.122000000000000000e+03 5.415346908569335938e+01 1.817212677001953125e+01 5.277417898178100586e-01 2.302888482809066772e-01 2.274091839790344238e-01 3.816375508904457092e-02
3.123000000000000000e+03 5.287011337280273438e+01 1.880405807495117188e+01 5.325276851654052734e-01 3.998703658580780029e-01 2.797194123268127441e-01 1.302500665187835693e-01
3.124000000000000000e+03 5.533498001098632812e+01 1.730731201171875000e+01 4.950243532657623291e-01 1.253226846456527710e-01 1.861041188240051270e-01 -5.582387745380401611e-02
3.125000000000000000e+03 5.974308776855468750e+01 1.485499668121337891e+01 2.720801532268524170e-01 -9.546757489442825317e-02 5.298376828432083130e-02 -3.044537603855133057e-01
3.126000000000000000e+03 6.663864898681640625e+01 2.180143356323242188e+01 1.573124080896377563e-01 -2.085154503583908081e-01 -1.536091510206460953e-02 -1.653210967779159546e-01
3.127000000000000000e+03 2.604172134399414062e+01 -9.033987045288085938e+00 6.908237934112548828e-01 1.507233381271362305e+00 6.594171524047851562e-01 6.436688899993896484e-01
3.128000000000000000e+03 6.310379028320312500e+01 9.598637580871582031e+00 -6.018916517496109009e-02 -9.772479534149169922e-02 -4.737418889999389648e-02 -4.223157763481140137e-01
3.129000000000000000e+03 5.962049484252929688e+01 1.242244720458984375e+01 1.768824905157089233e-01 -1.149830892682075500e-01 1.856981962919235229e-02 -3.925268650054931641e-01
3.130000000000000000e+03 5.990992355346679688e+01 1.732727050781250000e+01 3.174085319042205811e-01 -5.538863316178321838e-02 7.860597223043441772e-02 -2.123398929834365845e-01
3.131000000000000000e+03 6.262067794799804688e+01 1.179580783843994141e+01 7.013333588838577271e-02 -1.302428990602493286e-01 -1.803286932408809662e-02 -4.070836007595062256e-01
3.132000000000000000e+03 6.305905914306640625e+01 1.081838321685791016e+01 8.441630750894546509e-03 -1.082930564880371094e-01 -2.995542809367179871e-02 -4.030871987342834473e-01
3.133000000000000000e+03 5.333821487426757812e+01 1.690134239196777344e+01 5.863721966743469238e-01 2.311528176069259644e-01 2.452574968338012695e-01 4.681761190295219421e-02
3.134000000000000000e+03 5.014233398437500000e+01 2.142178535461425781e+01 4.069264531135559082e-01 8.543280959129333496e-01 3.783763647079467773e-01 2.355232983827590942e-01
3.135000000000000000e+03 5.979810714721679688e+01 2.029236793518066406e+01 3.231800794601440430e-01 1.601907424628734589e-02 1.017597392201423645e-01 -1.194908618927001953e-01
3.136000000000000000e+03 5.647636032104492188e+01 1.626029014587402344e+01 4.558014869689941406e-01 1.250817719846963882e-02 1.404929012060165405e-01 -1.543581932783126831e-01
3.137000000000000000e+03 6.206932830810546875e+01 1.678706169128417969e+01 2.437664121389389038e-01 -1.150286793708801270e-01 3.862132132053375244e-02 -2.643587589263916016e-01
3.138000000000000000e+03 5.498915863037109375e+01 1.964639663696289062e+01 4.668743312358856201e-01 2.612054347991943359e-01 2.184239327907562256e-01 3.595147281885147095e-02
3.139000000000000000e+03 5.134342193603515625e+01 2.131068420410156250e+01 4.324908852577209473e-01 6.940925717353820801e-01 3.379750251770019531e-01 2.016072869300842285e-01
3.140000000000000000e+03 5.139029312133789062e+01 1.901341247558593750e+01 5.446349978446960449e-01 5.723110437393188477e-01 3.350838124752044678e-01 2.148935645818710327e-01
3.141000000000000000e+03 5.358706665039062500e+01 2.039687156677246094e+01 4.773019254207611084e-01 4.019506573677062988e-01 2.637757658958435059e-01 1.170441657304763794e-01
3.142000000000000000e+03 6.289800643920898438e+01 1.966046714782714844e+01 2.448718249797821045e-01 -1.120026186108589172e-01 3.986075893044471741e-02 -1.956072747707366943e-01
3.143000000000000000e+03 6.074100875854492188e+01 1.365588283538818359e+01 1.994764208793640137e-01 -1.220444589853286743e-01 2.322958782315254211e-02 -3.547386527061462402e-01
3.144000000000000000e+03 4.861011886596679688e+01 2.040051078796386719e+01 4.070158302783966064e-01 1.065740227699279785e+00 4.418267905712127686e-01 3.087154030799865723e-01
3.145000000000000000e+03 6.300064849853515625e+01 1.563459014892578125e+01 1.961174905300140381e-01 -1.421945691108703613e-01 1.617687568068504333e-02 -3.041145801544189453e-01
3.146000000000000000e+03 6.185295486450195312e+01 1.468944644927978516e+01 2.015413641929626465e-01 -1.243243813514709473e-01 2.316509373486042023e-02 -3.234690427780151367e-01
3.147000000000000000e+03 5.277374267578125000e+01 2.259017562866210938e+01 4.038102030754089355e-01 5.571383237838745117e-01 2.882845699787139893e-01 1.569372564554214478e-01
3.148000000000000000e+03 5.631669235229492188e+01 1.866548919677734375e+01 4.478120505809783936e-01 1.210085526108741760e-01 1.706461757421493530e-01 -5.441396310925483704e-02
3.149000000000000000e+03 5.147800064086914062e+01 2.241697883605957031e+01 3.961282968521118164e-01 7.223578095436096191e-01 3.355458378791809082e-01 1.892659217119216919e-01
3.150000000000000000e+03 6.218254470825195312e+01 1.870632362365722656e+01 2.479227483272552490e-01 -9.784817695617675781e-02 4.502236843109130859e-02 -2.108427584171295166e-01
3.151000000000000000e+03 6.473183441162109375e+01 2.106966781616210938e+01 1.963653862476348877e-01 -1.555083692073822021e-01 1.225710567086935043e-02 -1.781382113695144653e-01
3.152000000000000000e+03 5.872164154052734375e+01 1.881036186218261719e+01 3.663596510887145996e-01 1.360379066318273544e-02 1.139890328049659729e-01 -1.351073682308197021e-01
3.153000000000000000e+03 5.434143066406250000e+01 2.223025894165039062e+01 4.005951881408691406e-01 4.184376001358032227e-01 2.457098364830017090e-01 1.010551303625106812e-01
3.154000000000000000e+03 5.220356369018554688e+01 2.422753906250000000e+01 3.414406776428222656e-01 6.579954624176025391e-01 2.998308539390563965e-01 1.575460433959960938e-01
3.155000000000000000e+03 6.085930252075195312e+01 2.178102302551269531e+01 2.834122180938720703e-01 5.147559568285942078e-03 8.656793087720870972e-02 -1.017892658710479736e-01
3.156000000000000000e+03 6.408840942382812500e+01 2.220115089416503906e+01 2.134577929973602295e-01 -1.140016764402389526e-01 2.983683533966541290e-02 -1.356540620326995850e-01
3.157000000000000000e+03 6.116241836547851562e+01 1.805653953552246094e+01 2.826502323150634766e-01 -7.641357183456420898e-02 6.187099590897560120e-02 -2.120316028594970703e-01
3.158000000000000000e+03 5.203409957885742188e+01 2.689793586730957031e+01 2.631032764911651611e-01 7.274733185768127441e-01 2.971729636192321777e-01 1.476621478796005249e-01
3.159000000000000000e+03 5.530231857299804688e+01 2.414480018615722656e+01 3.434361517429351807e-01 3.907682001590728760e-01 2.202612906694412231e-01 8.772706240415573120e-02
3.160000000000000000e+03 5.665225982666015625e+01 2.600584411621093750e+01 2.778950631618499756e-01 3.425680398941040039e-01 1.861389279365539551e-01 7.059587538242340088e-02
3.161000000000000000e+03 5.496932601928710938e+01 2.732009696960449219e+01 2.501468360424041748e-01 4.783976078033447266e-01 2.185633331537246704e-01 1.085582599043846130e-01
3.162000000000000000e+03 5.590469741821289062e+01 2.125894165039062500e+01 4.115219712257385254e-01 2.510651051998138428e-01 1.987761259078979492e-01 3.063392266631126404e-02
3.163000000000000000e+03 6.361858367919921875e+01 2.378322601318359375e+01 2.094986885786056519e-01 -8.637118339538574219e-02 3.693825006484985352e-02 -1.048367917537689209e-01
3.164000000000000000e+03 5.841497421264648438e+01 2.161936378479003906e+01 3.508098423480987549e-01 1.139066070318222046e-01 1.394149363040924072e-01 -4.371098056435585022e-02
3.165000000000000000e+03 5.733837509155273438e+01 2.010842323303222656e+01 3.959626853466033936e-01 1.289818733930587769e-01 1.574833691120147705e-01 -4.684431850910186768e-02
3.166000000000000000e+03 6.294917678833007812e+01 2.589547729492187500e+01 1.927253901958465576e-01 -1.952243037521839142e-02 5.196088552474975586e-02 -5.512785166501998901e-02
3.167000000000000000e+03 6.799512481689453125e+01 3.415649795532226562e+01 4.723422974348068237e-02 -2.066798210144042969e-01 -4.783367738127708435e-02 -7.163715083152055740e-03
3.168000000000000000e+03 6.711007690429687500e+01 3.053056716918945312e+01 8.728345483541488647e-02 -1.789921075105667114e-01 -2.751259319484233856e-02 -2.875387668609619141e-02
3.169000000000000000e+03 7.168439483642578125e+01 4.076140213012695312e+01 3.816479118540883064e-03 -4.306993782520294189e-01 -1.280648708343505859e-01 -7.076387293636798859e-03
3.170000000000000000e+03 1.709183311462402344e+01 4.159643173217773438e+01 -7.791207754053175449e-04 -9.780115215107798576e-04 -5.271396948955953121e-04 -2.784410899039357901e-04
3.171000000000000000e+03 3.243021392822265625e+01 -4.126360321044921875e+01 -1.768416762351989746e-01 3.249323666095733643e-01 4.442720487713813782e-02 1.882195472717285156e-02
3.172000000000000000e+03 7.078854370117187500e+01 -3.182995796203613281e+01 -1.825962099246680737e-03 1.065045827999711037e-03 -2.282748755533248186e-04 1.226665684953331947e-03
3.173000000000000000e+03 6.297243118286132812e+01 2.155061531066894531e+01 2.357483953237533569e-01 -9.083545953035354614e-02 4.347388073801994324e-02 -1.414729952812194824e-01
3.174000000000000000e+03 3.222286224365234375e+01 -3.868210601806640625e+01 -1.694953143596649170e-01 3.183261752128601074e-01 4.464925453066825867e-02 4.972702264785766602e-02
3.175000000000000000e+03 3.717882156372070312e+01 -4.112380981445312500e+01 -2.011976391077041626e-01 4.399671554565429688e-01 7.163085043430328369e-02 -4.599658772349357605e-03
3.176000000000000000e+03 6.554764556884765625e+01 3.256684494018554688e+01 7.036592066287994385e-02 -1.012886166572570801e-01 -9.276810102164745331e-03 -1.172478124499320984e-02
3.177000000000000000e+03 4.801888656616210938e+01 -3.261626434326171875e+01 6.909419316798448563e-03 1.842157244682312012e-01 5.733754485845565796e-02 -1.125339940190315247e-01
3.178000000000000000e+03 5.870312881469726562e+01 1.619244575500488281e+01 3.537299633026123047e-01 -5.572238564491271973e-02 8.940227329730987549e-02 -2.308720946311950684e-01
3.179000000000000000e+03 6.089971542358398438e+01 1.588659763336181641e+01 2.604338228702545166e-01 -1.081081405282020569e-01 4.569770023226737976e-02 -2.844222784042358398e-01
3.180000000000000000e+03 5.963434219360351562e+01 2.316713333129882812e+01 2.952784001827239990e-01 9.405072033405303955e-02 1.167987361550331116e-01 -4.193016514182090759e-02
3.181000000000000000e+03 4.486574554443359375e+01 -3.363332366943359375e+01 -3.482991084456443787e-02 3.099083006381988525e-01 8.252350986003875732e-02 -1.396747827529907227e-01
3.182000000000000000e+03 5.516962432861328125e+01 3.275342559814453125e+01 8.601451665163040161e-02 5.374476909637451172e-01 1.870386600494384766e-01 1.081442981958389282e-01
3.183000000000000000e+03 1.243514633178710938e+01 -4.131610107421875000e+01 3.025028854608535767e-02 -6.932684034109115601e-02 -1.172296516597270966e-02 9.307889267802238464e-03
3.184000000000000000e+03 1.196347808837890625e+01 -3.659964370727539062e+01 -5.481061711907386780e-02 -6.863128393888473511e-02 -3.703257068991661072e-02 6.114561483263969421e-02
3.185000000000000000e+03 7.194051361083984375e+01 -4.107151412963867188e+01 2.466493984684348106e-03 -2.033701632171869278e-03 1.298376882914453745e-04 1.245806226506829262e-03
3.186000000000000000e+03 1.272186088562011719e+01 3.963524627685546875e+01 -4.812970291823148727e-04 -3.966525546275079250e-04 -2.633848635014146566e-04 -4.133091424591839314e-04
3.187000000000000000e+03 5.620555114746093750e+01 -3.563808441162109375e+01 1.738146413117647171e-03 3.335896506905555725e-02 1.052913349121809006e-02 -1.785624958574771881e-02
3.188000000000000000e+03 8.187869071960449219e+00 4.136791992187500000e+01 -5.278218668536283076e-05 7.024221849860623479e-05 5.238009180175140500e-06 -8.494084613630548120e-05
3.189000000000000000e+03 3.577870559692382812e+01 4.011938095092773438e+01 -6.851618178188800812e-03 2.639081478118896484e-01 7.711695879697799683e-02 -5.845006927847862244e-02
3.190000000000000000e+03 5.018553161621093750e+01 -3.144993019104003906e+01 2.099032513797283173e-02 1.097132563591003418e-01 3.921107575297355652e-02 -8.013801276683807373e-02
3.191000000000000000e+03 7.404416656494140625e+01 -3.853479385375976562e+01 1.728272181935608387e-03 -2.449620282277464867e-03 -2.164044417440891266e-04 1.948706922121345997e-03
3.192000000000000000e+03 5.903859710693359375e+01 3.413213729858398438e+01 6.524739414453506470e-02 3.106899857521057129e-01 1.127812117338180542e-01 5.936016887426376343e-02
3.193000000000000000e+03 6.685703277587890625e+01 -3.837773513793945312e+01 4.385072272270917892e-03 -1.570381573401391506e-03 8.444071863777935505e-04 4.498677793890237808e-03
3.194000000000000000e+03 5.256044769287109375e+01 3.347491073608398438e+01 4.787148535251617432e-02 7.078337073326110840e-01 2.267115563154220581e-01 1.241457983851432800e-01
3.195000000000000000e+03 4.990207290649414062e+01 3.367659378051757812e+01 1.440426893532276154e-02 8.900281786918640137e-01 2.713297307491302490e-01 1.251530647277832031e-01
3.196000000000000000e+03 4.337824249267578125e+01 -3.588687896728515625e+01 -1.006626337766647339e-01 3.863090574741363525e-01 8.569393306970596313e-02 -1.016041934490203857e-01
3.197000000000000000e+03 6.374948883056640625e+01 3.512611770629882812e+01 4.742338135838508606e-02 3.745681047439575195e-02 2.546405792236328125e-02 1.073639933019876480e-02
3.198000000000000000e+03 6.706532287597656250e+01 3.706719589233398438e+01 2.282297238707542419e-02 -1.404737085103988647e-01 -3.529522195458412170e-02 -2.280847838846966624e-04
3.199000000000000000e+03 5.684926223754882812e+01 3.817045211791992188e+01 -2.178418077528476715e-02 4.800821244716644287e-01 1.374893784523010254e-01 4.806593805551528931e-02
3.200000000000000000e+03 4.907231521606445312e+01 3.853756332397460938e+01 -1.442156136035919189e-01 9.137256741523742676e-01 2.308530211448669434e-01 6.064749509096145630e-02
3.201000000000000000e+03 2.338129043579101562e+01 -4.096337127685546875e+01 -7.213213294744491577e-02 -5.220497027039527893e-03 -2.320578880608081818e-02 1.153937540948390961e-02
3.202000000000000000e+03 3.658108139038085938e+01 -3.426362609863281250e+01 -1.918468773365020752e-01 5.437001585960388184e-01 1.055559888482093811e-01 -2.383740060031414032e-02
3.203000000000000000e+03 4.040829086303710938e+01 -3.746535110473632812e+01 -1.616349220275878906e-01 4.471701085567474365e-01 8.566056191921234131e-02 -6.362185627222061157e-02
3.204000000000000000e+03 4.681922531127929688e+01 -3.746937561035156250e+01 -6.484702229499816895e-02 2.741494774818420410e-01 6.279073655605316162e-02 -7.502008229494094849e-02
3.205000000000000000e+03 4.910056304931640625e+01 2.935603523254394531e+01 1.905141472816467285e-01 9.500324130058288574e-01 3.421639800071716309e-01 1.387359052896499634e-01
3.206000000000000000e+03 3.861479568481445312e+01 4.111000442504882812e+01 -8.813626319169998169e-02 5.465489029884338379e-01 1.375237852334976196e-01 -4.468049108982086182e-02
3.207000000000000000e+03 5.626976776123046875e+01 2.933563423156738281e+01 1.816877573728561401e-01 4.264189600944519043e-01 1.824320256710052490e-01 9.539621323347091675e-02
3.208000000000000000e+03 5.224534988403320312e+01 3.123489379882812500e+01 1.239343658089637756e-01 7.256110906600952148e-01 2.548636496067047119e-01 1.396956890821456909e-01
3.209000000000000000e+03 5.971979522705078125e+01 3.002360916137695312e+01 1.473112553358078003e-01 2.223367244005203247e-01 1.108943969011306763e-01 4.298190400004386902e-02
3.210000000000000000e+03 6.163575744628906250e+01 2.812766838073730469e+01 1.728721857070922852e-01 7.883797585964202881e-02 7.551304996013641357e-02 -6.296002771705389023e-03
3.211000000000000000e+03 5.812110519409179688e+01 2.794628524780273438e+01 2.115836143493652344e-01 2.797723710536956787e-01 1.474068015813827515e-01 5.362341925501823425e-02
3.212000000000000000e+03 4.971057510375976562e+01 3.610541915893554688e+01 -5.752845108509063721e-02 8.900539875030517578e-01 2.497576475143432617e-01 1.042801588773727417e-01
3.213000000000000000e+03 5.846987152099609375e+01 -4.097512817382812500e+01 1.159690599888563156e-02 3.669586405158042908e-02 1.448783092200756073e-02 -1.863510929979383945e-03
3.214000000000000000e+03 5.029349136352539062e+01 3.141768836975097656e+01 1.174335777759552002e-01 8.644762039184570312e-01 2.945729494094848633e-01 1.432402133941650391e-01
3.215000000000000000e+03 6.148766708374023438e+01 3.238772201538085938e+01 9.741028398275375366e-02 1.575430482625961304e-01 7.648599892854690552e-02 2.680967934429645538e-02
3.216000000000000000e+03 5.604507064819335938e+01 3.533314514160156250e+01 2.062306180596351624e-02 5.011284947395324707e-01 1.565254777669906616e-01 8.070796728134155273e-02
3.217000000000000000e+03 5.281209945678710938e+01 3.597698593139648438e+01 -2.454559504985809326e-02 7.178249359130859375e-01 2.079837918281555176e-01 1.037482768297195435e-01
3.218000000000000000e+03 5.977191162109375000e+01 2.636522293090820312e+01 2.360918819904327393e-01 1.561071276664733887e-01 1.176597028970718384e-01 8.736940100789070129e-03
3.219000000000000000e+03 5.823194885253906250e+01 2.462235832214355469e+01 2.969879806041717529e-01 2.050641477108001709e-01 1.506156325340270996e-01 1.819787733256816864e-02
3.220000000000000000e+03 4.129596710205078125e+01 -9.273428916931152344e+00 1.761255785822868347e-02 4.159007966518402100e-02 1.776079088449478149e-02 -2.734154835343360901e-02
3.221000000000000000e+03 2.998517036437988281e+01 -3.303604364395141602e+00 1.182295918464660645e+00 -1.563999503850936890e-01 3.077687919139862061e-01 4.528903007507324219e+00
3.222000000000000000e+03 2.993885421752929688e+01 -3.472383975982666016e+00 1.767217159271240234e+00 -4.853025972843170166e-01 3.845743536949157715e-01 4.566149711608886719e+00
3.223000000000000000e+03 2.963758659362792969e+01 -3.253213644027709961e+00 9.321250915527343750e-01 8.960540592670440674e-02 3.065191507339477539e-01 5.136442661285400391e+00
3.224000000000000000e+03 2.883426475524902344e+01 -2.947082042694091797e+00 -8.799279332160949707e-01 2.686081886291503906e+00 5.418462157249450684e-01 4.394333839416503906e+00
3.225000000000000000e+03 2.823894500732421875e+01 -2.833759546279907227e+00 -3.641762256622314453e+00 3.802546739578247070e+00 4.823531210422515869e-02 2.536193370819091797e+00
3.226000000000000000e+03 2.795431327819824219e+01 -2.472352266311645508e+00 -5.123633861541748047e+00 1.301259756088256836e+00 -1.146712183952331543e+00 1.087514042854309082e+00
3.227000000000000000e+03 2.774588394165039062e+01 -2.944021224975585938e+00 -1.613353371620178223e+00 2.408965110778808594e+00 2.386834919452667236e-01 4.626835286617279053e-01
3.228000000000000000e+03 2.763994979858398438e+01 -2.639935970306396484e+00 -4.920687675476074219e+00 -1.792379468679428101e-01 -1.529977679252624512e+00 1.476518958806991577e-01
3.229000000000000000e+03 2.740637207031250000e+01 -2.705250740051269531e+00 -2.740423202514648438e+00 1.435149312019348145e+00 -3.915821313858032227e-01 -1.525062203407287598e+00
3.230000000000000000e+03 2.736388778686523438e+01 -2.951433897018432617e+00 -2.057164907455444336e+00 1.578666806221008301e+00 -1.435493975877761841e-01 -1.321773529052734375e+00
3.231000000000000000e+03 2.700967025756835938e+01 -3.068091392517089844e+00 -5.290080904960632324e-01 1.360285639762878418e+00 2.493832409381866455e-01 -2.021411657333374023e+00
3.232000000000000000e+03 2.687712097167968750e+01 -3.604029893875122070e+00 2.971089363098144531e+00 1.398335933685302734e+00 1.310827612876892090e+00 -2.168829202651977539e+00
3.233000000000000000e+03 2.666584396362304688e+01 -4.424527168273925781e+00 6.021810531616210938e+00 8.283341526985168457e-01 2.055043458938598633e+00 4.973431304097175598e-02
3.234000000000000000e+03 2.622113037109375000e+01 -4.564310550689697266e+00 4.847663402557373047e+00 2.629351615905761719e-01 1.533179521560668945e+00 -6.559588015079498291e-03
3.235000000000000000e+03 2.638787460327148438e+01 -4.814642429351806641e+00 5.532063007354736328e+00 8.935896158218383789e-01 1.927695870399475098e+00 8.800534009933471680e-01
3.236000000000000000e+03 2.667057037353515625e+01 -4.830659866333007812e+00 6.024156570434570312e+00 1.361438870429992676e+00 2.215678691864013672e+00 1.229936122894287109e+00
3.237000000000000000e+03 2.626339912414550781e+01 -5.013629913330078125e+00 4.888164520263671875e+00 8.163791894912719727e-01 1.711363077163696289e+00 9.823702573776245117e-01
3.238000000000000000e+03 2.686232566833496094e+01 -5.871236801147460938e+00 3.152884483337402344e+00 3.551371335983276367e+00 2.011276721954345703e+00 2.006679773330688477e+00
3.239000000000000000e+03 2.737579917907714844e+01 -5.887147903442382812e+00 2.357352018356323242e+00 5.205176353454589844e+00 2.268758535385131836e+00 1.712601900100708008e+00
3.240000000000000000e+03 2.753462600708007812e+01 -6.017078399658203125e+00 1.806351661682128906e+00 5.429613113403320312e+00 2.170789480209350586e+00 1.153945446014404297e+00
3.241000000000000000e+03 2.805599403381347656e+01 -6.521406173706054688e+00 1.116409540176391602e+00 4.495991230010986328e+00 1.683720111846923828e+00 -3.885119855403900146e-01
3.242000000000000000e+03 2.838073921203613281e+01 -6.657228469848632812e+00 1.134398698806762695e+00 3.777240276336669922e+00 1.473491668701171875e+00 -8.929834961891174316e-01
3.243000000000000000e+03 2.856236457824707031e+01 -6.726754665374755859e+00 1.190545439720153809e+00 3.308125019073486328e+00 1.349601149559020996e+00 -1.093164443969726562e+00
3.244000000000000000e+03 2.873298072814941406e+01 -6.807570934295654297e+00 1.256908416748046875e+00 2.957525253295898438e+00 1.264330029487609863e+00 -1.220506429672241211e+00
3.245000000000000000e+03 2.951099395751953125e+01 -6.838646888732910156e+00 1.566340565681457520e+00 1.631499886512756348e+00 9.593521356582641602e-01 -1.293007493019104004e+00
3.246000000000000000e+03 2.972655487060546875e+01 -7.414998531341552734e+00 1.309041380882263184e+00 1.463316321372985840e+00 8.317072987556457520e-01 -1.150330901145935059e+00
3.247000000000000000e+03 3.029406547546386719e+01 -7.215439796447753906e+00 1.434075236320495605e+00 9.451656341552734375e-01 7.137722373008728027e-01 -1.026395440101623535e+00
3.248000000000000000e+03 7.917063140869140625e+01 -1.042556381225585938e+01 1.667459961026906967e-03 5.248480942100286484e-03 2.074782270938158035e-03 3.255068790167570114e-03
3.249000000000000000e+03 3.902901113033294678e-01 2.096678018569946289e+00 1.999143751163501292e-05 9.044867510965559632e-06 8.710891961527522653e-06 -1.538107540000055451e-06
3.250000000000000000e+03 7.860131072998046875e+01 -9.147178649902343750e+00 3.303051635157316923e-04 6.776690948754549026e-03 2.132098888978362083e-03 5.218541249632835388e-03
3.251000000000000000e+03 6.925972700119018555e-01 3.034516334533691406e+00 3.603511140681803226e-05 4.047242327942512929e-06 1.202470593852922320e-05 3.799399564741179347e-05
3.252000000000000000e+03 4.215505981445312500e+01 -5.456928730010986328e+00 -1.615268439054489136e-01 -1.151940345764160156e+00 -3.940401375293731689e-01 -4.476204216480255127e-01
3.253000000000000000e+03 2.603978538513183594e+01 3.849123001098632812e+01 2.407104941084980965e-03 -5.515343043953180313e-03 -9.324713610112667084e-04 1.487553492188453674e-02
3.254000000000000000e+03 6.664317321777343750e+01 -6.247694015502929688e+00 -8.543142117559909821e-03 4.953294061124324799e-03 -1.076954416930675507e-03 3.364474978297948837e-03
3.255000000000000000e+03 7.695518493652343750e+00 -1.683144378662109375e+01 5.024958252906799316e-01 8.236657977104187012e-01 3.978484869003295898e-01 4.095496535301208496e-01
3.256000000000000000e+03 2.067020034790039062e+01 1.854663133621215820e+00 1.726178015815094113e-05 -3.456792910583317280e-06 4.141495992371346802e-06 4.143735168327111751e-07
3.257000000000000000e+03 1.964796066284179688e+01 2.407562255859375000e+00 3.565678707673214376e-05 -4.743928457173751667e-06 9.273858267988543957e-06 8.746837920625694096e-06
3.258000000000000000e+03 3.077544212341308594e+01 -3.704326391220092773e+00 5.147683620452880859e-01 -3.840414881706237793e-01 3.921806439757347107e-02 3.392410993576049805e+00
3.259000000000000000e+03 3.129706382751464844e+01 -3.643297672271728516e+00 2.417286038398742676e-01 -2.258998528122901917e-02 6.574158370494842529e-02 3.016159772872924805e+00
3.260000000000000000e+03 3.034696578979492188e+01 -2.865207433700561523e+00 8.291990309953689575e-02 3.606652021408081055e-01 1.330755352973937988e-01 4.421436309814453125e+00
3.261000000000000000e+03 3.142705154418945312e+01 -2.032990455627441406e+00 2.771939337253570557e-01 1.468285083770751953e+00 5.236436724662780762e-01 2.762496948242187500e+00
3.262000000000000000e+03 3.141543579101562500e+01 -2.827819824218750000e+00 4.284665733575820923e-02 4.238482117652893066e-01 1.400084644556045532e-01 3.449953317642211914e+00
3.263000000000000000e+03 2.922814750671386719e+01 -7.391057491302490234e+00 1.171893835067749023e+00 1.984515786170959473e+00 9.469228982925415039e-01 -1.116840004920959473e+00
3.264000000000000000e+03 2.905557060241699219e+01 -6.972360610961914062e+00 1.314937710762023926e+00 2.305537939071655273e+00 1.086142659187316895e+00 -1.218106627464294434e+00
3.265000000000000000e+03 2.807828521728515625e+01 -6.728157043457031250e+00 1.011842370033264160e+00 4.043152809143066406e+00 1.516498565673828125e+00 -4.078182578086853027e-01
3.266000000000000000e+03 2.774723625183105469e+01 -6.913143634796142578e+00 1.009108781814575195e+00 3.792521715164184570e+00 1.440489172935485840e+00 5.746793746948242188e-02
3.267000000000000000e+03 2.761656188964843750e+01 -6.711151123046875000e+00 1.132976412773132324e+00 4.101189613342285156e+00 1.570249795913696289e+00 3.545701801776885986e-01
3.268000000000000000e+03 2.890273666381835938e+01 -6.871580123901367188e+00 1.295837640762329102e+00 2.697826147079467773e+00 1.198099136352539062e+00 -1.267753720283508301e+00
3.269000000000000000e+03 2.717803764343261719e+01 -2.689540386199951172e+00 -3.651136159896850586e+00 8.139317035675048828e-01 -8.511613011360168457e-01 -1.674024105072021484e+00
3.270000000000000000e+03 2.744976997375488281e+01 -2.435498237609863281e+00 -6.387002468109130859e+00 -4.356414377689361572e-01 -2.046793222427368164e+00 1.636470258235931396e-01
3.271000000000000000e+03 2.693293762207031250e+01 -2.870694160461425781e+00 -2.226172208786010742e+00 9.369204044342041016e-01 -3.867755234241485596e-01 -2.251565217971801758e+00
3.272000000000000000e+03 2.676552391052246094e+01 -3.167344331741333008e+00 -4.118833541870117188e-01 1.064967870712280273e+00 1.959253400564193726e-01 -2.157966375350952148e+00
3.273000000000000000e+03 2.690021896362304688e+01 -2.305476188659667969e+00 -4.377614498138427734e+00 4.249855875968933105e-01 -1.185788631439208984e+00 -1.370869398117065430e+00
3.274000000000000000e+03 2.675085639953613281e+01 -2.584002733230590820e+00 -3.518147230148315430e+00 1.040451169013977051e+00 -7.433087825775146484e-01 -2.059954166412353516e+00
3.275000000000000000e+03 2.694957923889160156e+01 -6.186188220977783203e+00 2.352591037750244141e+00 3.640066385269165039e+00 1.797797203063964844e+00 1.689211606979370117e+00
3.276000000000000000e+03 2.673776626586914062e+01 -6.111569881439208984e+00 2.579233646392822266e+00 3.157953262329101562e+00 1.721156120300292969e+00 1.718227386474609375e+00
3.277000000000000000e+03 2.662627983093261719e+01 -5.913081169128417969e+00 3.213274478912353516e+00 2.788666725158691406e+00 1.800582289695739746e+00 1.883732199668884277e+00
3.278000000000000000e+03 2.631713867187500000e+01 -5.479187011718750000e+00 4.261981487274169922e+00 1.596651196479797363e+00 1.757589817047119141e+00 1.681345701217651367e+00
3.279000000000000000e+03 2.636621284484863281e+01 -6.093869686126708984e+00 2.931090831756591797e+00 2.236625909805297852e+00 1.550315022468566895e+00 1.728743791580200195e+00
3.280000000000000000e+03 2.596633720397949219e+01 -5.299717426300048828e+00 4.074210166931152344e+00 6.663942933082580566e-01 1.422181248664855957e+00 1.019894003868103027e+00
3.281000000000000000e+03 2.642712593078613281e+01 -4.622450828552246094e+00 5.520823478698730469e+00 7.379478216171264648e-01 1.877631306648254395e+00 4.578107893466949463e-01
3.282000000000000000e+03 2.628056716918945312e+01 -3.965932846069335938e+00 3.823106765747070312e+00 -1.460702866315841675e-01 1.103110909461975098e+00 -1.428976178169250488e+00
3.283000000000000000e+03 2.644974899291992188e+01 -2.446291685104370117e+00 -3.685330867767333984e+00 -4.220395535230636597e-02 -1.118260502815246582e+00 -2.214076757431030273e+00
3.284000000000000000e+03 3.101518821716308594e+01 -3.555329561233520508e+00 4.034827649593353271e-01 -8.332205563783645630e-02 9.604820609092712402e-02 3.267878770828247070e+00
3.285000000000000000e+03 2.790960693359375000e+01 -6.979712963104248047e+00 9.635814428329467773e-01 3.660611867904663086e+00 1.387257933616638184e+00 -1.364755183458328247e-01
3.286000000000000000e+03 2.861560630798339844e+01 -7.106172561645507812e+00 1.046852111816406250e+00 2.902720451354980469e+00 1.184871792793273926e+00 -9.556861519813537598e-01
3.287000000000000000e+03 2.841759109497070312e+01 -7.327558994293212891e+00 8.940285444259643555e-01 2.955525875091552734e+00 1.154866337776184082e+00 -7.007806897163391113e-01
3.288000000000000000e+03 6.706001281738281250e+01 -7.470261573791503906e+00 -6.229176186025142670e-03 4.652557894587516785e-03 -4.729854408651590347e-04 -9.185456670820713043e-03
3.289000000000000000e+03 3.595467567443847656e+00 -3.692133665084838867e+00 -1.338348723948001862e-02 -5.260372068732976913e-03 -5.593157839030027390e-03 -2.203467302024364471e-02
3.290000000000000000e+03 2.301583290100097656e+01 -1.676531028747558594e+01 -7.998484969139099121e-01 1.280861347913742065e-01 -2.015287131071090698e-01 2.397631555795669556e-01
3.291000000000000000e+03 1.812899398803710938e+01 -3.364878082275390625e+01 -2.392569929361343384e-01 -3.179806843400001526e-02 -8.131652325391769409e-02 4.667865112423896790e-02
3.292000000000000000e+03 3.760450744628906250e+01 3.599765014648437500e+01 1.600192300975322723e-02 3.866537213325500488e-01 1.207966953516006470e-01 -1.893610656261444092e-01
3.293000000000000000e+03 4.958663463592529297e+00 -3.359670162200927734e+00 -1.894249767065048218e-02 2.727108309045433998e-03 -4.864616785198450089e-03 -1.888677664101123810e-02
3.294000000000000000e+03 2.704370975494384766e+00 3.802575302124023438e+01 -1.170933173852972686e-04 6.811523780925199389e-05 -1.469342441851040348e-05 2.923420288425404578e-05
3.295000000000000000e+03 2.846266746520996094e+01 -6.972434520721435547e+00 1.028286814689636230e+00 3.289079189300537109e+00 1.295209765434265137e+00 -8.711150288581848145e-01
3.296000000000000000e+03 3.360912322998046875e+01 -3.011197328567504883e+00 -1.414720267057418823e-01 1.288414239883422852e+00 3.440826535224914551e-01 1.618223190307617188e+00
3.297000000000000000e+03 2.612445068359375000e+01 -6.261092662811279297e+00 2.746944904327392578e+00 1.811729788780212402e+00 1.367602467536926270e+00 1.555083155632019043e+00
3.298000000000000000e+03 2.649919700622558594e+01 -6.324092864990234375e+00 2.433725833892822266e+00 2.650814294815063477e+00 1.525362014770507812e+00 1.627585887908935547e+00
3.299000000000000000e+03 2.581356620788574219e+01 -5.896691799163818359e+00 3.159110307693481445e+00 1.000485777854919434e+00 1.247878789901733398e+00 1.205003380775451660e+00
3.300000000000000000e+03 2.612137985229492188e+01 -4.801450729370117188e+00 4.716710090637207031e+00 3.552124202251434326e-01 1.521576762199401855e+00 4.238576889038085938e-01
3.301000000000000000e+03 2.697242355346679688e+01 -6.781398773193359375e+00 1.514876842498779297e+00 3.319967746734619141e+00 1.450453400611877441e+00 1.106350421905517578e+00
3.302000000000000000e+03 2.923445320129394531e+01 -8.035230636596679688e+00 8.777174353599548340e-01 1.837651491165161133e+00 8.146106600761413574e-01 -9.225935935974121094e-01
3.303000000000000000e+03 7.776380920410156250e+01 -3.576169967651367188e+01 6.341250264085829258e-05 -1.863832352682948112e-03 -5.401259404607117176e-04 7.953848689794540405e-04
3.304000000000000000e+03 1.449642181396484375e+01 -3.594940185546875000e+01 -1.104133278131484985e-01 -8.902191370725631714e-02 -5.983057245612144470e-02 8.339496701955795288e-02
3.305000000000000000e+03 4.087812805175781250e+01 3.638215255737304688e+01 -1.077533662319183350e-01 9.049983024597167969e-01 2.391734868288040161e-01 -1.554746329784393311e-01
3.306000000000000000e+03 3.815385818481445312e+00 -2.795487022399902344e+01 -1.421997845172882080e-01 4.168427884578704834e-01 8.239290863275527954e-02 2.519816160202026367e-01
3.307000000000000000e+03 3.641745328903198242e+00 -2.569780921936035156e+01 -4.789249971508979797e-02 4.346341490745544434e-01 1.160224899649620056e-01 3.576531112194061279e-01
3.308000000000000000e+03 2.881630659103393555e+00 -2.500367164611816406e+01 9.934143163263797760e-04 3.396922647953033447e-01 1.022057086229324341e-01 3.448064327239990234e-01
3.309000000000000000e+03 2.934365653991699219e+01 -7.651661872863769531e+00 1.073132753372192383e+00 1.867973089218139648e+00 8.823317289352416992e-01 -1.058754682540893555e+00
3.310000000000000000e+03 3.783728027343750000e+01 -2.837625312805175781e+01 1.873321644961833954e-02 8.368972539901733398e-01 2.566891312599182129e-01 -1.365246027708053589e-01
3.311000000000000000e+03 7.001287841796875000e+01 -3.400653076171875000e+01 -2.029672963544726372e-03 9.543475462123751640e-04 -3.225976251997053623e-04 2.701466204598546028e-03
3.312000000000000000e+03 2.677242660522460938e+01 -3.499197387695312500e+01 -1.190619692206382751e-01 4.885946214199066162e-02 -2.106075175106525421e-02 3.684817254543304443e-02
3.313000000000000000e+03 2.632032203674316406e+01 -7.086487293243408203e+00 1.655237793922424316e+00 2.257484674453735352e+00 1.173816680908203125e+00 1.235176801681518555e+00
3.314000000000000000e+03 1.714724922180175781e+01 3.291316223144531250e+01 1.583060511620715261e-04 -1.538785909360740334e-05 4.287546107661910355e-05 3.818889090325683355e-04
3.315000000000000000e+03 2.544078063964843750e+01 -2.625383615493774414e+00 -1.890426635742187500e+00 -3.025645911693572998e-01 -6.578973531723022461e-01 -2.018856525421142578e+00
3.316000000000000000e+03 4.511029243469238281e+00 -4.591522693634033203e+00 -1.539872959256172180e-02 7.724488619714975357e-03 -2.302272478118538857e-03 -2.426763810217380524e-02
3.317000000000000000e+03 2.814938354492187500e+01 -7.665258884429931641e+00 7.530856728553771973e-01 2.802854061126708984e+00 1.066781878471374512e+00 -3.852590024471282959e-01
3.318000000000000000e+03 2.837619590759277344e+01 -8.157917022705078125e+00 6.571695208549499512e-01 2.338918447494506836e+00 8.988263607025146484e-01 -5.164651274681091309e-01
3.319000000000000000e+03 2.768960952758789062e+01 -7.767238616943359375e+00 7.238435745239257812e-01 2.856102705001831055e+00 1.073983907699584961e+00 2.473878115415573120e-02
3.320000000000000000e+03 6.770823669433593750e+01 -5.804977416992187500e+00 -3.627960383892059326e-02 -1.059984322637319565e-03 -1.120187621563673019e-02 4.344013519585132599e-03
3.321000000000000000e+03 2.460804939270019531e+01 -3.655393600463867188e+00 9.766896963119506836e-01 -2.827134132385253906e-01 2.081928849220275879e-01 -1.567784190177917480e+00
3.322000000000000000e+03 5.036781311035156250e+00 -3.270870590209960938e+01 -1.154154166579246521e-01 2.875803709030151367e-01 5.164948850870132446e-02 1.825037598609924316e-02
3.323000000000000000e+03 4.965199279785156250e+01 -2.956254005432128906e+01 4.129616171121597290e-02 8.659552037715911865e-02 3.836750239133834839e-02 -7.943560928106307983e-02
3.324000000000000000e+03 2.336100769042968750e+01 -4.518550395965576172e+00 1.203239440917968750e+00 -4.136253893375396729e-01 2.368842214345932007e-01 -7.458388805389404297e-01
3.325000000000000000e+03 2.549665832519531250e+01 -6.113967895507812500e+00 2.812762975692749023e+00 8.008050918579101562e-01 1.084070444107055664e+00 1.111989259719848633e+00
3.326000000000000000e+03 2.628767585754394531e+01 -1.398786067962646484e+01 -4.119097292423248291e-01 4.647344350814819336e-01 1.584740914404392242e-02 1.578285843133926392e-01
3.327000000000000000e+03 2.742580413818359375e+01 -7.512869834899902344e+00 8.525974750518798828e-01 3.055662870407104492e+00 1.172478079795837402e+00 3.167250156402587891e-01
3.328000000000000000e+03 4.401350402832031250e+01 6.515673637390136719e+00 1.679385423660278320e+00 5.557390674948692322e-02 5.204877853393554688e-01 9.938127994537353516e-01
3.329000000000000000e+03 2.922722434997558594e+01 -9.112311363220214844e+00 5.398781895637512207e-01 1.553556799888610840e+00 6.280304789543151855e-01 -7.081955671310424805e-01
3.330000000000000000e+03 2.793090820312500000e+01 -7.514678478240966797e+00 7.846060991287231445e-01 3.036306619644165039e+00 1.146273851394653320e+00 -1.860250681638717651e-01
3.331000000000000000e+03 3.810758972167968750e+01 6.715224981307983398e-01 1.043115973472595215e+00 4.101664543151855469e+00 1.543434262275695801e+00 1.386224389076232910e+00
3.332000000000000000e+03 3.535106277465820312e+01 -3.358369350433349609e+00 -1.169076442718505859e+00 1.486360073089599609e+00 9.518509358167648315e-02 3.669838607311248779e-01
3.333000000000000000e+03 3.588465881347656250e+01 -3.534539699554443359e+00 -1.423970699310302734e+00 1.301522493362426758e+00 -3.673444688320159912e-02 -3.339271247386932373e-02
3.334000000000000000e+03 7.630356597900390625e+01 -3.405408096313476562e+01 -3.507689980324357748e-04 -1.109849079512059689e-03 -4.381854087114334106e-04 1.170889823697507381e-03
3.335000000000000000e+03 3.836548995971679688e+01 -9.874548316001892090e-01 -5.119456648826599121e-01 2.680814266204833984e+00 6.506605744361877441e-01 -1.657918244600296021e-01
3.336000000000000000e+03 1.964745140075683594e+01 -1.400337123870849609e+01 -5.817542225122451782e-02 -5.496839061379432678e-02 -3.394314274191856384e-02 4.372213184833526611e-01
3.337000000000000000e+03 2.144276046752929688e+01 -1.453648376464843750e+01 -2.605208158493041992e-01 8.805000782012939453e-02 -5.174123868346214294e-02 4.377418458461761475e-01
3.338000000000000000e+03 2.713006591796875000e+01 -7.847744941711425781e+00 8.215908408164978027e-01 2.616588830947875977e+00 1.031453847885131836e+00 4.579753279685974121e-01
3.339000000000000000e+03 3.926010608673095703e+00 4.265318393707275391e+00 3.848052074317820370e-05 -5.053558652434730902e-06 1.002808949124300852e-05 8.921436744913080474e-08
3.340000000000000000e+03 2.553661346435546875e+01 -7.144876003265380859e+00 1.856971859931945801e+00 1.226399302482604980e+00 9.250113368034362793e-01 1.116957187652587891e+00
3.341000000000000000e+03 2.599936866760253906e+01 -7.213924407958984375e+00 1.680159449577331543e+00 1.853150963783264160e+00 1.059993147850036621e+00 1.171668291091918945e+00
3.342000000000000000e+03 3.651311111450195312e+01 -2.139612913131713867e+00 -2.335085272789001465e-01 2.423482418060302734e+00 6.569921374320983887e-01 1.041307002305984497e-01
3.343000000000000000e+03 3.720876312255859375e+01 -2.889545440673828125e+00 -1.155769228935241699e+00 1.905613660812377930e+00 2.249533236026763916e-01 -6.598961353302001953e-01
3.344000000000000000e+03 2.363080215454101562e+01 -4.810954570770263672e+00 1.607375979423522949e+00 -5.066709518432617188e-01 3.302114903926849365e-01 -6.512705087661743164e-01
3.345000000000000000e+03 5.329306411743164062e+01 2.850885581970214844e+01 2.135154604911804199e-01 6.276741027832031250e-01 2.523568570613861084e-01 1.364037394523620605e-01
3.346000000000000000e+03 9.498925209045410156e+00 -1.100610256195068359e+01 2.328978106379508972e-02 1.780057102441787720e-01 6.038864701986312866e-02 1.924179047346115112e-01
3.347000000000000000e+03 7.127325439453125000e+01 -8.628105163574218750e+00 -3.790590446442365646e-03 -6.848103366792201996e-03 -3.191608237102627754e-03 1.446779933758080006e-03
3.348000000000000000e+03 7.232105255126953125e+01 -2.982947540283203125e+01 -1.282274839468300343e-03 -1.231399510288611054e-04 -4.216244269628077745e-04 3.891740052495151758e-04
3.349000000000000000e+03 7.285839080810546875e+01 -2.862496948242187500e+01 -8.033815538510680199e-04 -1.665684976615011692e-04 -2.909850154537707567e-04 3.653916937764734030e-04
3.350000000000000000e+03 3.782240295410156250e+01 -2.752591848373413086e+00 -1.312448382377624512e+00 1.762501597404479980e+00 1.350159794092178345e-01 -9.340231418609619141e-01
3.351000000000000000e+03 4.324956893920898438e+01 -2.559432411193847656e+01 1.490174829959869385e-01 2.822089493274688721e-01 1.293679326772689819e-01 -1.942208856344223022e-01
3.352000000000000000e+03 7.287267208099365234e+00 3.057042121887207031e+01 1.881124831015767995e-06 5.374734610086306930e-05 1.668854201852809638e-05 -8.357645128853619099e-05
3.353000000000000000e+03 2.309613227844238281e+01 -6.373496055603027344e+00 1.674224376678466797e+00 -3.180708587169647217e-01 4.068460762500762939e-01 1.734311580657958984e-01
3.354000000000000000e+03 3.243367767333984375e+01 -1.230218219757080078e+01 1.473642699420452118e-02 6.251747608184814453e-01 1.919733583927154541e-01 -8.403991460800170898e-01
3.355000000000000000e+03 2.882823753356933594e+01 -1.050971889495849609e+01 2.127699404954910278e-01 1.243474960327148438e+00 4.368734657764434814e-01 -4.574603438377380371e-01
3.356000000000000000e+03 7.179321289062500000e+01 2.782069778442382812e+01 5.098659917712211609e-02 -4.162071347236633301e-01 -1.095661595463752747e-01 -7.264771312475204468e-02
3.357000000000000000e+03 6.786185455322265625e+01 6.752920150756835938e-01 -2.094339728355407715e-01 1.293358113616704941e-02 -5.895011499524116516e-02 -1.319869756698608398e-01
3.358000000000000000e+03 7.514878082275390625e+01 -3.088178825378417969e+01 -3.296286158729344606e-04 -5.526129825739189982e-05 -1.154669807874597609e-04 8.241037139669060707e-04
3.359000000000000000e+03 1.152154350280761719e+01 -7.249755859375000000e+00 7.782714068889617920e-02 -1.440822891891002655e-02 1.902567408978939056e-02 9.150584042072296143e-02
3.360000000000000000e+03 7.758856296539306641e+00 2.953053092956542969e+01 9.979547030525282025e-05 -2.312182914465665817e-04 -3.942684634239412844e-05 -1.046876423060894012e-04
3.361000000000000000e+03 7.569956207275390625e+01 -2.653478813171386719e+01 -2.017402002820745111e-04 -1.681859430391341448e-04 -1.109778459067456424e-04 -3.888150968123227358e-05
3.362000000000000000e+03 7.113854980468750000e+01 2.453886032104492188e+01 7.449715584516525269e-02 -3.752777874469757080e-01 -9.023419022560119629e-02 -1.158983707427978516e-01
3.363000000000000000e+03 7.138345336914062500e+01 1.477399921417236328e+01 3.583208099007606506e-02 -2.807112932205200195e-01 -7.346376031637191772e-02 -2.472553998231887817e-01
3.364000000000000000e+03 7.087246704101562500e+01 6.457806110382080078e+00 -8.451208472251892090e-02 -1.021961420774459839e-01 -5.601246654987335205e-02 -2.268485873937606812e-01
3.365000000000000000e+03 4.912266921997070312e+01 2.639756393432617188e+01 2.568922340869903564e-01 9.905275702476501465e-01 3.742259442806243896e-01 1.399797797203063965e-01
3.366000000000000000e+03 1.498401832580566406e+01 6.261280536651611328e+00 2.372962808294687420e-05 -1.082533890439663082e-05 3.871286935464013368e-06 -8.184566695490502752e-07
3.367000000000000000e+03 7.204894256591796875e+01 5.372768878936767578e+00 -8.006148785352706909e-02 -9.066386520862579346e-02 -5.121760442852973938e-02 -1.835864931344985962e-01
3.368000000000000000e+03 7.267642974853515625e+01 -2.443069696426391602e+00 -5.503617227077484131e-02 -1.659732870757579803e-02 -2.149005047976970673e-02 -3.331814706325531006e-02
3.369000000000000000e+03 3.185927772521972656e+01 -1.170724487304687500e+01 1.383618563413619995e-01 6.772726178169250488e-01 2.446903437376022339e-01 -8.452631831169128418e-01
3.370000000000000000e+03 7.102664184570312500e+01 1.813397169113159180e+00 -1.192682385444641113e-01 -3.381334617733955383e-02 -4.592447727918624878e-02 -1.334995478391647339e-01
3.371000000000000000e+03 1.745542716979980469e+01 -8.267987251281738281e+00 5.065370798110961914e-01 -3.178123533725738525e-01 5.661742016673088074e-02 1.579499244689941406e-01
3.372000000000000000e+03 6.569842815399169922e+00 2.533244132995605469e+01 1.085613330360502005e-04 2.274829967063851655e-05 3.939288944820873439e-05 -2.403222242719493806e-05
3.373000000000000000e+03 6.002383232116699219e+00 6.294594287872314453e+00 5.656756547978147864e-05 9.045523256645537913e-06 1.968392643902916461e-05 -1.207009245263179764e-05
3.374000000000000000e+03 4.999034881591796875e+01 2.024719810485839844e+01 4.626134634017944336e-01 8.363586068153381348e-01 3.896916210651397705e-01 2.696845233440399170e-01
3.375000000000000000e+03 2.572279930114746094e+01 -1.033623981475830078e+01 3.609303534030914307e-01 1.087316870689392090e+00 4.344741702079772949e-01 5.020487308502197266e-01
3.376000000000000000e+03 1.547078514099121094e+01 -8.053126335144042969e+00 3.203829526901245117e-01 -2.211771607398986816e-01 2.976173348724842072e-02 1.426902860403060913e-01
3.377000000000000000e+03 1.492248725891113281e+01 -8.031731605529785156e+00 2.987050414085388184e-01 -2.089477032423019409e-01 2.692719735205173492e-02 1.387494951486587524e-01
3.378000000000000000e+03 1.666069221496582031e+01 -7.676219940185546875e+00 4.072372317314147949e-01 -2.809652090072631836e-01 3.788161277770996094e-02 9.609823673963546753e-02
3.379000000000000000e+03 2.077652359008789062e+01 -1.346053886413574219e+01 -2.292140154168009758e-03 2.275037392973899841e-02 6.137470249086618423e-03 4.964004755020141602e-01
3.380000000000000000e+03 5.756565475463867188e+01 1.750233078002929688e+01 4.073444306850433350e-01 2.499490976333618164e-02 1.297018080949783325e-01 -1.424307078123092651e-01
3.381000000000000000e+03 1.165797901153564453e+01 -7.863973140716552734e+00 1.077921316027641296e-01 -1.864042319357395172e-02 2.674551308155059814e-02 1.253019422292709351e-01
3.382000000000000000e+03 8.784450531005859375e+00 1.144956779479980469e+01 4.601163163897581398e-05 -1.328815324086463079e-05 9.817043064686004072e-06 5.173962563276290894e-05
3.383000000000000000e+03 8.940598487854003906e+00 2.776106452941894531e+01 2.293316356372088194e-04 -1.097655986086465418e-04 3.586981256376020610e-05 2.788074016280006617e-05
3.384000000000000000e+03 6.110664367675781250e+01 1.941457557678222656e+01 3.002084195613861084e-01 -5.689505487680435181e-02 7.299400866031646729e-02 -1.700416207313537598e-01
3.385000000000000000e+03 2.048887634277343750e+01 -9.513134956359863281e+00 7.299744486808776855e-01 -2.083617150783538818e-01 1.564838290214538574e-01 4.459160268306732178e-01
3.386000000000000000e+03 5.223934936523437500e+01 1.631047439575195312e+01 6.274760961532592773e-01 2.772517502307891846e-01 2.714183330535888672e-01 1.016037240624427795e-01
3.387000000000000000e+03 6.768961334228515625e+01 1.276911258697509766e+01 3.170572593808174133e-02 -1.865373998880386353e-01 -4.644950479269027710e-02 -3.273058533668518066e-01
3.388000000000000000e+03 6.798058319091796875e+01 1.063324260711669922e+01 -2.157660201191902161e-02 -1.559701412916183472e-01 -5.326402559876441956e-02 -3.262500464916229248e-01
3.389000000000000000e+03 6.670484161376953125e+01 1.141040325164794922e+01 6.640087813138961792e-04 -1.548119038343429565e-01 -4.624437168240547180e-02 -3.509790897369384766e-01
3.390000000000000000e+03 5.590548324584960938e+01 1.049893569946289062e+01 2.084932178258895874e-01 -1.477403044700622559e-01 1.822587661445140839e-02 -4.595240652561187744e-01
3.391000000000000000e+03 5.483396911621093750e+01 1.161614990234375000e+01 3.792704641819000244e-01 -1.229751557111740112e-01 7.688859105110168457e-02 -3.667808175086975098e-01
3.392000000000000000e+03 1.145157718658447266e+01 9.498445510864257812e+00 3.044212644454091787e-05 2.196816058130934834e-05 1.572308610775507987e-05 4.058776175952516496e-05
3.393000000000000000e+03 6.662141418457031250e+01 1.247918510437011719e+01 3.171097859740257263e-02 -1.625639647245407104e-01 -3.925589472055435181e-02 -3.371623158454895020e-01
3.394000000000000000e+03 5.593795394897460938e+01 1.190805149078369141e+01 3.081865012645721436e-01 -1.299698501825332642e-01 5.346499383449554443e-02 -3.751998245716094971e-01
3.395000000000000000e+03 5.830505752563476562e+01 1.121586227416992188e+01 1.512263864278793335e-01 -1.257854253053665161e-01 7.632285356521606445e-03 -4.403831958770751953e-01
3.396000000000000000e+03 7.190987396240234375e+01 -1.413351440429687500e+01 2.175723784603178501e-05 2.362339364481158555e-05 1.361418890155619010e-05 -7.235397788463160396e-06
3.397000000000000000e+03 7.117191314697265625e+01 -1.423426437377929688e+01 -7.267391538334777579e-06 -5.165262336959131062e-05 -1.767600406310521066e-05 2.366686385357752442e-05
3.398000000000000000e+03 7.054098510742187500e+01 -1.506571102142333984e+01 -9.063293873623479158e-06 -5.255616633803583682e-05 -1.848583815444726497e-05 4.900798012386076152e-05
3.399000000000000000e+03 7.272534942626953125e+01 -1.476733016967773438e+01 4.671311035053804517e-05 6.539182777487440035e-06 1.597568734723608941e-05 1.028534552460769191e-05
3.400000000000000000e+03 7.199845123291015625e+01 -1.486828804016113281e+01 -3.698539512697607279e-05 -1.210509253724012524e-05 -1.472714666306274012e-05 2.104229861288331449e-05
3.401000000000000000e+03 7.127030181884765625e+01 -1.496769714355468750e+01 4.110179725103080273e-05 2.694475551834329963e-05 2.041396510321646929e-05 -3.138043030048720539e-05
3.402000000000000000e+03 7.264659118652343750e+01 -1.403121566772460938e+01 3.606969301017670659e-07 -1.010423511615954340e-05 -2.923061401816084981e-06 1.460948737985745538e-06
3.403000000000000000e+03 7.043277740478515625e+01 -1.433362007141113281e+01 7.222215572255663574e-06 8.711611008038744330e-05 2.830149787769187242e-05 -2.205726013926323503e-05
3.404000000000000000e+03 7.413023376464843750e+01 -1.390827560424804688e+01 7.931651452963706106e-06 8.287902346637565643e-06 4.865865776082500815e-06 4.200643161311745644e-06
3.405000000000000000e+03 7.418925476074218750e+01 -1.464601135253906250e+01 1.980744855245575309e-05 -5.415408850240055472e-07 5.779771981906378642e-06 -4.894121957477182150e-06
3.406000000000000000e+03 7.345582580566406250e+01 -1.469340133666992188e+01 2.782262754408293404e-06 -6.326401944534154609e-06 -1.063241711563023273e-06 -5.556294581765541807e-06
3.407000000000000000e+03 7.487351226806640625e+01 -1.386064338684082031e+01 1.920528302434831858e-05 -3.118367021670565009e-05 -3.593516566979815252e-06 -6.145783117972314358e-06
3.408000000000000000e+03 7.492264556884765625e+01 -1.459901237487792969e+01 -7.785688467265572399e-06 6.302311248873593286e-06 -4.450132564670639113e-07 1.484474250901257619e-05
3.409000000000000000e+03 7.565595245361328125e+01 -1.455239677429199219e+01 4.476056346902623773e-05 -1.886016070784535259e-05 7.770120646455325186e-06 -1.486955534346634522e-05
3.410000000000000000e+03 7.561669921875000000e+01 -1.381339359283447266e+01 -3.583130592232919298e-07 5.575066097662784159e-05 1.661770511418581009e-05 3.698422915476839989e-06
3.411000000000000000e+03 7.338691711425781250e+01 -1.395629978179931641e+01 1.584001802257262170e-05 3.564214921425445937e-06 5.821269951411522925e-06 2.803974666676367633e-06
3.412000000000000000e+03 7.636968994140625000e+01 -1.377867794036865234e+01 1.920633258123416454e-05 -6.878496060380712152e-05 -1.487358713347930461e-05 6.867653041808807757e-07
3.413000000000000000e+03 7.711952209472656250e+01 -1.377026462554931641e+01 3.179969098709989339e-06 6.857950211269780993e-05 2.152784145437180996e-05 -2.491611539312543755e-08
3.414000000000000000e+03 7.880826568603515625e+01 -1.359098052978515625e+01 4.044572506245458499e-06 -3.211636794731020927e-05 -8.421538041147869080e-06 -7.417883807647740468e-06
3.415000000000000000e+03 7.957907104492187500e+01 -1.383945655822753906e+01 7.343698598560877144e-06 1.683476148173213005e-05 7.253537660290021449e-06 -7.158158950915094465e-06
3.416000000000000000e+03 7.818760681152343750e+01 -1.360080337524414062e+01 3.363011273904703557e-05 2.521138230804353952e-05 1.765244815032929182e-05 9.642934855946805328e-06
3.417000000000000000e+03 7.770421600341796875e+01 -1.456077384948730469e+01 2.704324288060888648e-05 -2.236263389931991696e-05 1.404182398800912779e-06 -7.979965448612347245e-05
3.418000000000000000e+03 7.832720947265625000e+01 -1.463026809692382812e+01 -5.108168261358514428e-05 9.287372085964307189e-05 1.253761092812055722e-05 6.444321479648351669e-05
3.419000000000000000e+03 7.636756134033203125e+01 -1.452004623413085938e+01 -4.000837361672893167e-05 2.359367135795764625e-05 -4.924410859530325979e-06 -1.271773180633317679e-05
3.420000000000000000e+03 7.868551635742187500e+01 -1.398741340637207031e+01 -9.852262155618518591e-05 -5.599090218311175704e-05 -4.635406003217212856e-05 -5.921096089878119528e-05
3.421000000000000000e+03 7.704452514648437500e+01 -1.451572895050048828e+01 3.610800922615453601e-05 -1.340139078820357099e-05 6.811986168031580746e-06 3.689936420414596796e-05
3.422000000000000000e+03 7.932569885253906250e+01 -1.446048069000244141e+01 1.813480339478701353e-04 4.245066884323023260e-05 6.713961192872375250e-05 7.463499059667810798e-06
3.423000000000000000e+03 7.842517852783203125e+01 -1.427305221557617188e+01 6.943232438061386347e-05 3.720716631505638361e-05 3.199184720870107412e-05 3.120860856142826378e-05
3.424000000000000000e+03 7.781768798828125000e+01 -1.396652030944824219e+01 -3.834258677670732141e-05 -5.701203190255910158e-05 -2.860638596757780761e-05 -5.054579105490120128e-06
3.425000000000000000e+03 7.885647583007812500e+01 -1.460024929046630859e+01 -4.565103881759569049e-05 -1.238803088199347258e-04 -5.085940574645064771e-05 4.272190926712937653e-05
3.426000000000000000e+03 7.711834716796875000e+01 -1.299776554107666016e+01 4.872127901762723923e-03 -5.974752129986882210e-04 1.282395794987678528e-03 1.088539836928248405e-03
3.427000000000000000e+03 7.789198303222656250e+01 -1.297994422912597656e+01 2.716134767979383469e-03 5.285544320940971375e-04 9.734067716635763645e-04 1.164285116828978062e-03
3.428000000000000000e+03 7.903719329833984375e+01 -1.217878055572509766e+01 3.134116122964769602e-04 1.118543324992060661e-03 4.295864782761782408e-04 1.070555183105170727e-03
3.429000000000000000e+03 7.634127044677734375e+01 -1.300821304321289062e+01 7.969356141984462738e-03 1.412926591001451015e-03 2.814684761688113213e-03 1.845904160290956497e-03
3.430000000000000000e+03 7.865165710449218750e+01 -1.295684051513671875e+01 7.300623692572116852e-04 -9.747512194735463709e-06 2.160944568458944559e-04 6.138485041446983814e-04
3.431000000000000000e+03 7.934807586669921875e+01 -1.291915225982666016e+01 6.293786573223769665e-04 5.273409187793731689e-04 3.470158844720572233e-04 -2.729974585236050189e-05
3.432000000000000000e+03 7.966441345214843750e+01 -1.234435749053955078e+01 5.158700514584779739e-05 3.711532917805016041e-04 1.268220803467556834e-04 6.259831134229898453e-04
3.433000000000000000e+03 7.627622985839843750e+01 -1.226877021789550781e+01 6.055020261555910110e-03 -5.396447377279400826e-04 1.654612598940730095e-03 3.131202887743711472e-03
3.434000000000000000e+03 7.770402526855468750e+01 -1.224003696441650391e+01 2.572458004578948021e-03 3.053344553336501122e-04 8.633377146907150745e-04 2.395536750555038452e-03
3.435000000000000000e+03 7.840223693847656250e+01 -1.221670055389404297e+01 2.314445329830050468e-03 1.217005541548132896e-03 1.059435191564261913e-03 2.372914925217628479e-03
3.436000000000000000e+03 7.699185180664062500e+01 -1.225809097290039062e+01 4.925547167658805847e-03 1.258087111636996269e-03 1.855090260505676270e-03 4.309236072003841400e-03
3.437000000000000000e+03 7.406774902343750000e+01 -1.312981986999511719e+01 1.406280044466257095e-02 -1.282329554669559002e-03 3.834141185507178307e-03 1.739286468364298344e-03
3.438000000000000000e+03 7.400872802734375000e+01 -1.239208412170410156e+01 1.083474513143301010e-02 4.378305457066744566e-04 3.381772665306925774e-03 1.988332718610763550e-03
3.439000000000000000e+03 7.557528686523437500e+01 -1.303425216674804688e+01 1.060669776052236557e-02 -1.456345315091311932e-03 2.745105652138590813e-03 1.723420689813792706e-03
3.440000000000000000e+03 7.331423187255859375e+01 -1.317915630340576172e+01 1.534362509846687317e-02 8.863559341989457607e-04 4.868994466960430145e-03 1.116185914725065231e-03
3.441000000000000000e+03 7.482145690917968750e+01 -1.308151912689208984e+01 1.268747262656688690e-02 1.576211652718484402e-03 4.279105458408594131e-03 1.604491961188614368e-03
3.442000000000000000e+03 7.553604125976562500e+01 -1.229524612426757812e+01 7.680962327867746353e-03 9.810517076402902603e-04 2.598604187369346619e-03 4.046921618282794952e-03
3.443000000000000000e+03 7.324532318115234375e+01 -1.244205474853515625e+01 1.072087790817022324e-02 -1.065179938450455666e-03 2.896709134802222252e-03 1.922703580930829048e-03
3.444000000000000000e+03 7.477232360839843750e+01 -1.234315013885498047e+01 9.473212063312530518e-03 -1.334880711510777473e-03 2.441499382257461548e-03 3.060397459194064140e-03
3.445000000000000000e+03 7.096827697753906250e+01 -1.272444248199462891e+01 1.036238670349121094e-02 -2.313434379175305367e-03 2.414685674011707306e-03 -2.565821632742881775e-03
3.446000000000000000e+03 7.106666564941406250e+01 -1.345787525177001953e+01 1.073626428842544556e-02 8.530119084753096104e-04 3.476782934740185738e-03 3.275501949246972799e-04
3.447000000000000000e+03 7.031845092773437500e+01 -1.356116008758544922e+01 8.500342257320880890e-03 -2.081815851852297783e-03 1.925558084622025490e-03 -3.322712727822363377e-04
3.448000000000000000e+03 7.181496429443359375e+01 -1.335562419891357422e+01 1.338117849081754684e-02 -6.719244993291795254e-04 3.812776179984211922e-03 6.297719664871692657e-04
3.449000000000000000e+03 7.172639465332031250e+01 -1.262085151672363281e+01 1.015692949295043945e-02 -8.373465971089899540e-04 2.795874839648604393e-03 -3.007561899721622467e-04
3.450000000000000000e+03 7.256328582763671875e+01 -1.325442695617675781e+01 1.466832775622606277e-02 -1.445785310352221131e-04 4.357124678790569305e-03 1.535686780698597431e-03
3.451000000000000000e+03 7.248452758789062500e+01 -1.251831245422363281e+01 1.160711515694856644e-02 -7.846966618672013283e-04 3.246725769713521004e-03 -5.420657107606530190e-04
3.452000000000000000e+03 7.021024322509765625e+01 -1.282906818389892578e+01 7.149658165872097015e-03 1.972558529814705253e-04 2.204074291512370110e-03 -2.388151129707694054e-03
3.453000000000000000e+03 6.946450042724609375e+01 -1.368148803710937500e+01 4.372523166239261627e-03 1.417151186615228653e-03 1.736902282573282719e-03 -9.945948841050267220e-04
3.454000000000000000e+03 6.942981719970703125e+01 -1.293651866912841797e+01 6.422870326787233353e-03 -2.821685513481497765e-03 1.080355490557849407e-03 -3.845506347715854645e-03
3.455000000000000000e+03 6.844756317138671875e+01 -1.325969314575195312e+01 5.009653046727180481e-03 2.438773401081562042e-03 2.234527841210365295e-03 -7.373630069196224213e-04
3.456000000000000000e+03 6.787104797363281250e+01 -1.338530731201171875e+01 1.563973608426749706e-03 5.864384584128856659e-03 2.228507539257407188e-03 7.401806069537997246e-04
3.457000000000000000e+03 6.822621154785156250e+01 -1.295994949340820312e+01 4.769595805555582047e-03 2.094108844175934792e-03 2.059111371636390686e-03 -2.930505434051156044e-03
3.458000000000000000e+03 6.794889068603515625e+01 -1.309183692932128906e+01 1.726099872030317783e-03 1.265705795958638191e-03 8.975417003966867924e-04 -1.722762011922895908e-03
3.459000000000000000e+03 6.875301361083984375e+01 -1.294659233093261719e+01 6.112844683229923248e-03 2.030234085395932198e-03 2.442923607304692268e-03 -2.353669144213199615e-03
3.460000000000000000e+03 6.854268646240234375e+01 -1.381786727905273438e+01 4.676800162997096777e-04 -2.872775541618466377e-03 -7.215286605060100555e-04 -1.658421359024941921e-03
3.461000000000000000e+03 6.915425872802734375e+01 -1.528317165374755859e+01 -5.722752757719717920e-05 -4.610793621395714581e-05 -3.100063986494205892e-05 -7.967757846927270293e-05
3.462000000000000000e+03 6.981649780273437500e+01 -1.516665935516357422e+01 -1.721026274026371539e-05 8.347896073246374726e-05 1.988061012525577098e-05 7.490736493309668731e-07
3.463000000000000000e+03 6.849820709228515625e+01 -1.521993160247802734e+01 -5.470745236380025744e-05 -3.269521039328537881e-05 -2.622079955472145230e-05 5.547655746340751648e-05
3.464000000000000000e+03 6.962475585937500000e+01 -1.444882297515869141e+01 -1.745396730257198215e-05 -8.441050158580765128e-05 -3.055934212170541286e-05 2.170746847696136683e-05
3.465000000000000000e+03 6.880525207519531250e+01 -1.459250164031982422e+01 8.757189789321273565e-05 8.107948087854310870e-05 5.059541217633523047e-05 -5.063510616309940815e-05
3.466000000000000000e+03 1.628620338439941406e+01 -1.255944609642028809e+00 -1.587675958871841431e-01 4.534112662076950073e-02 -3.402794152498245239e-02 -1.479528099298477173e-02
3.467000000000000000e+03 1.779829025268554688e+01 -2.059187889099121094e+00 -2.804870605468750000e-01 -1.037349328398704529e-01 -1.152665987610816956e-01 -1.871594935655593872e-01
3.468000000000000000e+03 1.623538208007812500e+01 -1.994474172592163086e+00 -1.334576159715652466e-01 -6.353711336851119995e-02 -5.909842252731323242e-02 -8.785254508256912231e-02
3.469000000000000000e+03 1.858121871948242188e+01 -2.091711521148681641e+00 -3.583889007568359375e-01 -2.749547362327575684e-02 -1.157653108239173889e-01 -2.251871228218078613e-01
3.470000000000000000e+03 1.856809425354003906e+01 -1.350533485412597656e+00 -5.330039858818054199e-01 -1.184294596314430237e-01 -1.954300254583358765e-01 -1.034207493066787720e-01
3.471000000000000000e+03 1.704577255249023438e+01 -1.287305474281311035e+00 -2.340558916330337524e-01 -6.583359837532043457e-02 -8.996684849262237549e-02 -4.225508868694305420e-02
3.472000000000000000e+03 1.701626777648925781e+01 -2.026717901229858398e+00 -1.906911879777908325e-01 1.774309761822223663e-02 -5.188442766666412354e-02 -9.743537753820419312e-02
3.473000000000000000e+03 1.780648040771484375e+01 -1.318892598152160645e+00 -3.470638394355773926e-01 6.420874595642089844e-02 -8.485652506351470947e-02 -4.549431800842285156e-02
3.474000000000000000e+03 2.016102409362792969e+01 -1.984116315841674805e+00 -6.361194849014282227e-01 -4.566710442304611206e-02 -2.045359909534454346e-01 -3.535864949226379395e-01
3.475000000000000000e+03 1.932956504821777344e+01 -1.326877713203430176e+00 -7.385841012001037598e-01 5.860154330730438232e-02 -2.039947807788848877e-01 -1.596137881278991699e-01
3.476000000000000000e+03 2.095439147949218750e+01 -1.900163888931274414e+00 -7.901663780212402344e-01 -2.512744665145874023e-01 -3.124322593212127686e-01 -4.967399537563323975e-01
3.477000000000000000e+03 1.936882019042968750e+01 -2.066858530044555664e+00 -4.707111418247222900e-01 -1.977822035551071167e-01 -2.005480080842971802e-01 -3.265419900417327881e-01
3.478000000000000000e+03 2.174835014343261719e+01 -1.814883351325988770e+00 -9.669271111488342285e-01 -7.035426050424575806e-02 -3.111844062805175781e-01 -5.002379417419433594e-01
3.479000000000000000e+03 2.161623764038085938e+01 -1.084643244743347168e+00 -1.532685637474060059e+00 -3.027437329292297363e-01 -5.506287813186645508e-01 -3.405784666538238525e-01
3.480000000000000000e+03 2.009082221984863281e+01 -1.247412800788879395e+00 -9.388995170593261719e-01 -1.840080171823501587e-01 -3.368722796440124512e-01 -2.234256267547607422e-01
3.481000000000000000e+03 2.085324478149414062e+01 -1.166737556457519531e+00 -1.209078073501586914e+00 1.084726527333259583e-01 -3.301816284656524658e-01 -2.813482582569122314e-01
3.482000000000000000e+03 2.387390518188476562e+01 -4.479292035102844238e-01 -6.541507244110107422e-01 -1.657518446445465088e-01 -2.459707707166671753e-01 4.718003794550895691e-02
3.483000000000000000e+03 2.338660240173339844e+01 -1.393575310707092285e+00 -1.868407726287841797e+00 5.962751507759094238e-01 -3.816397786140441895e-01 -4.940315186977386475e-01
3.484000000000000000e+03 2.463154602050781250e+01 -7.788130044937133789e-01 -1.021618366241455078e+00 -1.361663788557052612e-01 -3.473353981971740723e-01 6.323945522308349609e-01
3.485000000000000000e+03 2.316317939758300781e+01 -6.830692291259765625e-01 -1.299135088920593262e+00 1.719696223735809326e-01 -3.381496369838714600e-01 -3.675453737378120422e-02
3.486000000000000000e+03 2.239013290405273438e+01 -9.233466386795043945e-01 -1.628478884696960449e+00 8.989705890417098999e-02 -4.615745544433593750e-01 -4.541386365890502930e-01
3.487000000000000000e+03 2.256301116943359375e+01 -1.645976901054382324e+00 -1.154332756996154785e+00 6.322280038148164749e-03 -3.444031476974487305e-01 -3.377675414085388184e-01
3.488000000000000000e+03 2.414787673950195312e+01 -1.146310925483703613e+00 -2.409160137176513672e+00 3.640222847461700439e-01 -6.135413050651550293e-01 5.311039686203002930e-01
3.489000000000000000e+03 2.268977355957031250e+01 7.519461512565612793e-01 1.127559426095103845e-05 6.282336926233256236e-06 5.267379037832142785e-06 4.523664756561629474e-06
3.490000000000000000e+03 2.288392829895019531e+01 3.258301690220832825e-02 -3.250120926168165170e-06 2.889849213261186378e-07 -8.883407645043917000e-07 -4.275661922292783856e-07
3.491000000000000000e+03 2.203942871093750000e+01 5.569665431976318359e-01 -2.303297378603019752e-06 -9.134259926213417202e-06 -3.431267259657033719e-06 -2.323538637938327156e-06
3.492000000000000000e+03 2.220252990722656250e+01 -1.685228794813156128e-01 1.161656655312981457e-06 2.021972704824293032e-06 9.550888080411823466e-07 1.537291723252565134e-06
3.493000000000000000e+03 2.341383171081542969e+01 3.852292895317077637e-01 5.499514372786507010e-07 -9.764126218669844093e-08 1.356930567908420926e-07 9.892698216162898461e-08
3.494000000000000000e+03 2.074801826477050781e+01 -3.961672186851501465e-01 1.747633632476208732e-06 6.431465408240910619e-06 2.453729848639341071e-06 -1.959823237029922893e-08
3.495000000000000000e+03 2.001827239990234375e+01 -4.734351336956024170e-01 -2.186964366046595387e-06 -8.476717084704432636e-06 -3.199104412487940863e-06 -6.685710900455887895e-07
3.496000000000000000e+03 2.134514999389648438e+01 4.143537878990173340e-01 3.716289938893169165e-06 5.478734692587750033e-06 2.758507434919010848e-06 -4.682452754423138686e-07
3.497000000000000000e+03 1.924920082092285156e+01 1.924032717943191528e-01 -4.185716534266248345e-06 -9.988669262384064496e-06 -4.252316102792974561e-06 -4.437512416188837960e-06
3.498000000000000000e+03 1.994807052612304688e+01 2.632684409618377686e-01 6.126502285042079166e-06 6.175230282678967342e-06 3.690519633892108686e-06 4.205079676466993988e-06
3.499000000000000000e+03 2.064687156677246094e+01 3.372591733932495117e-01 -6.697442131553543732e-06 -3.616233016145997681e-06 -3.094102567047229968e-06 -1.760954887686239090e-06
3.500000000000000000e+03 1.928845596313476562e+01 -5.475775003433227539e-01 1.373303462059993763e-06 1.115230134018929675e-05 3.757681270144530572e-06 9.228566568708629347e-07
3.501000000000000000e+03 2.147724342346191406e+01 -3.157954216003417969e-01 -8.940770612753112800e-07 -4.650829851016169414e-06 -1.663472062318760436e-06 -5.400011104939039797e-07
3.502000000000000000e+03 1.707793617248535156e+01 -5.109162330627441406e-01 -2.088893097607069649e-06 -1.236151183547917753e-05 -4.335121502663241699e-06 -8.669767481706003309e-08
3.503000000000000000e+03 1.633993148803710938e+01 -4.782602787017822266e-01 2.092675003950716928e-06 1.174019325844710693e-05 4.149860615143552423e-06 7.852055432522320189e-07
3.504000000000000000e+03 1.781616592407226562e+01 -5.415064096450805664e-01 1.376194745716929901e-06 1.308929495280608535e-05 4.339647148299263790e-06 2.088938266808781918e-08
3.505000000000000000e+03 1.854128074645996094e+01 1.711868941783905029e-01 2.631915549500263296e-06 1.152774075308116153e-05 4.247896868037059903e-06 1.603210762368689757e-06
3.506000000000000000e+03 1.855440711975097656e+01 -5.699911117553710938e-01 -1.536453510198043659e-06 -1.279519528907258064e-05 -4.299494321458041668e-06 -4.278071799035387812e-07
3.507000000000000000e+03 1.639075088500976562e+01 2.602692842483520508e-01 -6.276904969126917422e-06 -1.080155379895586520e-05 -5.123537448525894433e-06 -5.792935553472489119e-07
3.508000000000000000e+03 1.710744285583496094e+01 2.284961640834808350e-01 6.046585895091993734e-06 1.096702544600702822e-05 5.104083356854971498e-06 -1.482779055095306830e-07
3.509000000000000000e+03 1.782435607910156250e+01 1.987887471914291382e-01 -4.490953870117664337e-06 -1.143061308539472520e-05 -4.776470177603187039e-06 4.951520509166584816e-07
3.510000000000000000e+03 1.421318435668945312e+01 5.040000677108764648e-01 4.297439772926736623e-06 8.422278369835112244e-06 3.815915533778024837e-06 -2.246135863970266655e-06
3.511000000000000000e+03 1.412459087371826172e+01 -2.306861728429794312e-01 -1.571470193084678613e-06 -8.342248293047305197e-06 -2.974115659526432864e-06 1.249181593721004901e-07
3.512000000000000000e+03 1.338628387451171875e+01 -1.375386416912078857e-01 1.859198505371750798e-06 6.062769443815341219e-06 2.376590373387443833e-06 -3.756300372970144963e-07
3.513000000000000000e+03 1.486306858062744141e+01 -3.233485221862792969e-01 1.619268800823192578e-06 1.022433934849686921e-05 3.553082478902069852e-06 2.977072881549247541e-07
3.514000000000000000e+03 1.566856193542480469e+01 3.219058215618133545e-01 4.342802640167064965e-06 1.024378161673666909e-05 4.375975549919530749e-06 3.699360888731462182e-07
3.515000000000000000e+03 1.560165977478027344e+01 -4.155019819736480713e-01 -1.554624304844764993e-06 -1.127274936152389273e-05 -3.848212145385332406e-06 -7.725985824436065741e-07
3.516000000000000000e+03 1.348572158813476562e+01 5.957868695259094238e-01 -5.756201971962582320e-06 -6.367394234985113144e-06 -3.637078862084308639e-06 2.481740011717192829e-06
3.517000000000000000e+03 1.494081592559814453e+01 4.126985073089599609e-01 -3.986180672654882073e-06 -9.797774509934242815e-06 -4.135186827625147998e-06 8.938306450545496773e-07
3.518000000000000000e+03 1.115022563934326172e+01 2.165033817291259766e-01 -2.431376742606516927e-06 -1.140874587690632325e-06 -1.071675342245725915e-06 2.697136949336709222e-07
3.519000000000000000e+03 1.122651290893554688e+01 9.537453055381774902e-01 6.460761142079718411e-06 1.811403194551530760e-06 2.481649289620690979e-06 -1.294218577641004231e-06
3.520000000000000000e+03 1.040434932708740234e+01 3.321511745452880859e-01 1.148252522398252040e-06 3.494587303976004478e-07 4.493133758387557464e-07 -4.815332204088917933e-07
3.521000000000000000e+03 1.189680099487304688e+01 9.631319344043731689e-02 1.747058831824688241e-06 2.289907342856167816e-06 1.211089852404256817e-06 -5.188167051528580487e-07
3.522000000000000000e+03 1.274307727813720703e+01 7.053368687629699707e-01 5.540076926990877837e-06 4.284313945390749723e-06 2.947317398138693534e-06 -2.250991656183032319e-06
3.523000000000000000e+03 1.264393043518066406e+01 -2.822761237621307373e-02 -1.897415245366573799e-06 -3.939182533940766007e-06 -1.750979322423518170e-06 4.062004848037759075e-07
3.524000000000000000e+03 1.046920776367187500e+01 1.071231842041015625e+00 -5.189832336327526718e-06 -1.108545347960898653e-06 -1.889513328023895156e-06 8.867861538419674616e-07
3.525000000000000000e+03 1.198451900482177734e+01 8.317164182662963867e-01 -6.404754913091892377e-06 -2.896518708439543843e-06 -2.790382040984695777e-06 1.612428491171158385e-06
3.526000000000000000e+03 9.722556114196777344e+00 1.127092480659484863e+00 7.843703315302263945e-06 1.227093548550328705e-06 2.721238843150786124e-06 1.616611768895381829e-07
3.527000000000000000e+03 8.893199920654296875e+00 3.828711509704589844e-01 1.877057911769952625e-06 2.744802998222439783e-07 6.454614549511461519e-07 5.439306391963327769e-07
3.528000000000000000e+03 8.134614944458007812e+00 3.804794847965240479e-01 -2.572102630438166671e-06 -1.078282821254106238e-06 -1.095115635507681873e-06 -4.030157754186802777e-07
3.529000000000000000e+03 7.376657485961914062e+00 3.794998824596405029e-01 2.027283471761620604e-06 1.419197360519319773e-06 1.033944272421649657e-06 2.723315333241771441e-07
3.530000000000000000e+03 5.861315727233886719e+00 3.756705820560455322e-01 1.703115117379638832e-06 -2.376265229031560011e-07 4.396465840272867354e-07 -1.066397430804499891e-06
3.531000000000000000e+03 5.314155578613281250e+00 1.111996769905090332e+00 4.286121111363172531e-06 -1.184521238428715151e-06 9.304799277742858976e-07 -3.710481678353971802e-06
3.532000000000000000e+03 4.345917224884033203e+00 3.706551194190979004e-01 4.812391694031248335e-07 -5.705026069335872307e-06 -1.567135996083379723e-06 -4.021986569568980485e-06
3.533000000000000000e+03 2.830904960632324219e+00 3.606805205345153809e-01 1.453708478038606700e-06 -1.173553482658462599e-05 -3.084547870457754470e-06 -5.547567070607328787e-06
3.534000000000000000e+03 2.075619697570800781e+00 3.579981029033660889e-01 -8.777154221206728835e-07 1.195977893075905740e-05 3.324619001432438381e-06 5.240280643192818388e-06
3.535000000000000000e+03 2.378913402557373047e+00 1.097998142242431641e+00 9.857358236331492662e-06 -8.469734893878921866e-06 4.162871789503697073e-07 -2.338754256925312802e-06
3.536000000000000000e+03 1.332661628723144531e+00 3.664357960224151611e-01 -4.671520912324922392e-07 -1.181021070806309581e-05 -3.683208888105582446e-06 -6.186508926475653425e-06
3.537000000000000000e+03 1.659207582473754883e+00 1.106435775756835938e+00 -8.048255949688609689e-06 5.331435659172711894e-06 -8.150460644174017943e-07 -9.817898671826696955e-08
3.538000000000000000e+03 6.544207930564880371e-01 3.946581482887268066e-01 1.877485010481905192e-05 1.816461735870689154e-05 1.108184005715884268e-05 1.783862353477161378e-05
3.539000000000000000e+03 3.110946178436279297e+00 1.100680470466613770e+00 -7.907606232038233429e-06 7.513090167776681483e-06 -1.183546345373542863e-07 5.690190846507903188e-06
3.540000000000000000e+03 3.587856292724609375e+00 3.676122725009918213e-01 -4.002777416189928772e-07 9.398133443028200418e-06 2.699356627999804914e-06 5.467917162604862824e-06
3.541000000000000000e+03 5.103871345520019531e+00 3.719967305660247803e-01 -1.203843567054718733e-06 2.476623421898693778e-06 3.818339564531925134e-07 2.324518391105812043e-06
3.542000000000000000e+03 6.048347473144531250e+00 1.115670561790466309e+00 -4.929383976559620351e-06 1.451105475780423149e-07 -1.435282115380687173e-06 2.461375515849795192e-06
3.543000000000000000e+03 6.618996143341064453e+00 3.784884214401245117e-01 -2.102594180541927926e-06 -1.050794253387721255e-06 -9.460165415475785267e-07 3.014981757587520406e-07
3.544000000000000000e+03 8.251890182495117188e+00 1.120479464530944824e+00 6.283042694121832028e-06 6.088346822252788115e-07 2.067563173113740049e-06 7.765220857436361257e-07
3.545000000000000000e+03 8.987222671508789062e+00 1.122871160507202148e+00 -6.754775768058607355e-06 -8.919968763621000107e-07 -2.294031673955032602e-06 -5.917636940466763917e-07
3.546000000000000000e+03 9.651785850524902344e+00 3.870925009250640869e-01 -3.171643129462609068e-06 2.267843655090473476e-07 -8.834576306071539875e-07 9.678932855194943841e-08
3.547000000000000000e+03 7.517184734344482422e+00 1.119499921798706055e+00 -6.055849553376901895e-06 -6.584859875147230923e-07 -2.014300662267487496e-06 5.276598358250339516e-08
3.548000000000000000e+03 6.782775878906250000e+00 1.118488430976867676e+00 5.327185590431327000e-06 4.461783476017444627e-07 1.732009195620776154e-06 -9.388703006152354646e-07
3.549000000000000000e+03 4.579453945159912109e+00 1.110655069351196289e+00 -3.252845999668352306e-06 2.370868060097564012e-06 -2.645933250278176274e-07 5.373211479309247807e-06
3.550000000000000000e+03 3.844645261764526367e+00 1.107612252235412598e+00 4.734612502943491563e-06 -4.481083124119322747e-06 7.605883212136177463e-08 -6.432800546463113278e-06
3.551000000000000000e+03 1.004219174385070801e+00 1.134658098220825195e+00 -7.417521374009083956e-06 7.395709872071165591e-06 -6.543401820380267964e-09 3.203930134532129159e-07
3.552000000000000000e+03 3.516347110271453857e-01 9.575126171112060547e-01 -2.023808701778762043e-05 -1.306595459027448669e-05 -9.991212209570221603e-06 -9.413419320480898023e-06
3.553000000000000000e+03 1.328147125244140625e+01 -9.107246994972229004e-01 -4.241590574383735657e-02 2.566154114902019501e-02 -5.026309285312891006e-03 8.491962216794490814e-03
3.554000000000000000e+03 1.470345211029052734e+01 -1.836183547973632812e+00 -6.708641350269317627e-02 -4.040524363517761230e-02 -3.224749863147735596e-02 -3.551930561661720276e-02
3.555000000000000000e+03 1.318203258514404297e+01 -1.644050240516662598e+00 -3.890911862254142761e-02 -2.863142825663089752e-02 -2.026216499507427216e-02 -9.295131079852581024e-03
3.556000000000000000e+03 1.478120040893554688e+01 -1.100136518478393555e+00 -6.861456483602523804e-02 3.487767651677131653e-02 -1.012106612324714661e-02 3.107818309217691422e-03
3.557000000000000000e+03 1.546425342559814453e+01 -1.930399060249328613e+00 -8.865831047296524048e-02 1.916622929275035858e-02 -2.084762416779994965e-02 -3.685208037495613098e-02
3.558000000000000000e+03 1.553115558624267578e+01 -1.192991256713867188e+00 -1.066273003816604614e-01 -4.666565731167793274e-02 -4.598788917064666748e-02 -1.714137010276317596e-02
3.559000000000000000e+03 1.403127861022949219e+01 -1.006039500236511230e+00 -5.238666385412216187e-02 -3.305281698703765869e-02 -2.563184499740600586e-02 -4.944731015712022781e-03
3.560000000000000000e+03 1.394268608093261719e+01 -1.740725755691528320e+00 -4.455182328820228577e-02 1.978936605155467987e-02 -7.428736891597509384e-03 -2.707590581849217415e-03
3.561000000000000000e+03 1.171745300292968750e+01 -1.416588187217712402e+00 -3.357185050845146179e-02 -1.989882439374923706e-02 -1.604120247066020966e-02 2.354285679757595062e-04
3.562000000000000000e+03 1.027132415771484375e+01 -1.186757922172546387e+00 -3.569170832633972168e-02 -1.206353493034839630e-02 -1.432657334953546524e-02 1.163460547104477882e-03
3.563000000000000000e+03 1.244032764434814453e+01 -1.534988999366760254e+00 -3.103862144052982330e-02 1.692539080977439880e-02 -4.233969375491142273e-03 9.427094832062721252e-03
3.564000000000000000e+03 1.253947448730468750e+01 -8.014244437217712402e-01 -4.107037931680679321e-02 -2.613211795687675476e-02 -2.016074955463409424e-02 1.124650938436388969e-03
3.565000000000000000e+03 1.180517101287841797e+01 -6.811850070953369141e-01 -3.878712281584739685e-02 2.004263736307621002e-02 -5.623345263302326202e-03 1.047625113278627396e-02
3.566000000000000000e+03 1.107078933715820312e+01 -5.637502074241638184e-01 -4.065649956464767456e-02 -1.888107508420944214e-02 -1.786127127707004547e-02 3.473499324172735214e-03
3.567000000000000000e+03 1.099450206756591797e+01 -1.300992131233215332e+00 -3.108012862503528595e-02 1.590475253760814667e-02 -4.552613012492656708e-03 1.079265866428613663e-02
3.568000000000000000e+03 1.033618259429931641e+01 -4.476772546768188477e-01 -3.886679187417030334e-02 1.535204239189624786e-02 -7.054425310343503952e-03 7.761931978166103363e-03
3.569000000000000000e+03 9.576753616333007812e+00 -3.928347527980804443e-01 -4.149694368243217468e-02 -1.044117100536823273e-02 -1.558143459260463715e-02 6.295916391536593437e-04
3.570000000000000000e+03 9.504050254821777344e+00 -1.132834792137145996e+00 -3.548100590705871582e-02 1.450440846383571625e-02 -6.292979698628187180e-03 8.251748979091644287e-03
3.571000000000000000e+03 8.792594909667968750e+00 -3.964475393295288086e-01 -4.492966830730438232e-02 1.009537093341350555e-02 -1.045028958469629288e-02 2.792900661006569862e-03
3.572000000000000000e+03 8.008638381958007812e+00 -3.979170620441436768e-01 -4.635613039135932922e-02 -7.488529663532972336e-03 -1.615339703857898712e-02 -2.052019117400050163e-03
3.573000000000000000e+03 7.224994659423828125e+00 -3.992207646369934082e-01 -4.445649683475494385e-02 7.302384357899427414e-03 -1.114623434841632843e-02 4.771719977725297213e-04
3.574000000000000000e+03 6.441524982452392578e+00 -4.004793763160705566e-01 -4.184234514832496643e-02 -5.273964256048202515e-03 -1.413489319384098053e-02 -3.983165137469768524e-03
3.575000000000000000e+03 5.658351421356201172e+00 -4.034211039543151855e-01 -3.580784797668457031e-02 5.136707331985235214e-03 -9.201342239975929260e-03 -1.543561927974224091e-03
3.576000000000000000e+03 4.875236511230468750e+00 -4.076028764247894287e-01 -3.009230457246303558e-02 -3.719586413353681564e-03 -1.014356687664985657e-02 -5.159512627869844437e-03
3.577000000000000000e+03 4.092308998107910156e+00 -4.107097685337066650e-01 -2.173150703310966492e-02 3.004213795065879822e-03 -5.618188064545392990e-03 -2.657039556652307510e-03
3.578000000000000000e+03 2.531672000885009766e+00 -4.164903461933135986e-01 -7.577985525131225586e-03 1.078012865036725998e-03 -1.949991798028349876e-03 -2.179624279960989952e-03
3.579000000000000000e+03 2.214911937713623047e+00 -1.156490325927734375e+00 -8.420752361416816711e-03 -3.910476341843605042e-03 -3.699368564411997795e-03 -8.147459477186203003e-03
3.580000000000000000e+03 3.740455806255340576e-01 -5.643077492713928223e-01 -1.163819033536128700e-04 -6.948689115233719349e-04 -2.433752379147335887e-04 -2.947322500403970480e-04
3.581000000000000000e+03 1.421646475791931152e+00 -1.153123378753662109e+00 -2.704398473724722862e-03 -2.756044268608093262e-03 -1.638132729567587376e-03 -4.133221227675676346e-03
3.582000000000000000e+03 8.692774772644042969e+00 -1.136447548866271973e+00 -3.662040829658508301e-02 -7.328667677938938141e-03 -1.318472251296043396e-02 -8.693821146152913570e-04
3.583000000000000000e+03 7.881700515747070312e+00 -1.137917041778564453e+00 -3.618412464857101440e-02 1.061988994479179382e-02 -7.669270504266023636e-03 2.033822936937212944e-03
3.584000000000000000e+03 7.070939540863037109e+00 -1.139220714569091797e+00 -3.598138317465782166e-02 -4.595824517309665680e-03 -1.217316277325153351e-02 -6.123166531324386597e-03
3.585000000000000000e+03 6.260352134704589844e+00 -1.140479445457458496e+00 -3.228336200118064880e-02 7.593771442770957947e-03 -7.406876888126134872e-03 -4.007955081760883331e-03
3.586000000000000000e+03 5.450060844421386719e+00 -1.143421053886413574e+00 -2.931765653192996979e-02 -3.345027565956115723e-03 -9.798805229365825653e-03 -1.038158964365720749e-02
3.587000000000000000e+03 4.639828681945800781e+00 -1.147602915763854980e+00 -2.317773737013339996e-02 4.474065266549587250e-03 -5.611101631075143814e-03 -7.885345257818698883e-03
3.588000000000000000e+03 3.829783916473388672e+00 -1.150709748268127441e+00 -1.875867135822772980e-02 -3.400283167138695717e-03 -6.647686474025249481e-03 -1.196871791034936905e-02
3.589000000000000000e+03 3.020616531372070312e+00 -1.151894450187683105e+00 -1.161796040832996368e-02 6.027467316016554832e-04 -3.304564161226153374e-03 -7.834830321371555328e-03
3.590000000000000000e+03 3.310259342193603516e+00 -4.118944704532623291e-01 -1.511918939650058746e-02 -2.584585221484303474e-03 -5.311132408678531647e-03 -4.686795175075531006e-03
3.591000000000000000e+03 1.765524148941040039e+00 -4.131233394145965576e-01 -3.315184498205780983e-03 -2.264427719637751579e-03 -1.673883642069995403e-03 -2.007423434406518936e-03
3.592000000000000000e+03 1.067645549774169922e+00 -3.868701159954071045e-01 -7.041731150820851326e-04 1.303645665757358074e-03 1.798417797544971108e-04 -4.338566668593557552e-06
3.593000000000000000e+03 6.966503262519836426e-01 -1.126870155334472656e+00 3.995765582658350468e-04 -3.963916969951242208e-04 9.554547659718082286e-07 -5.312360008247196674e-04
3.594000000000000000e+03 2.839042091369628906e+01 -4.546472072601318359e+00 2.609166526794433594e+01 1.738704919815063477e+00 8.349111557006835938e+00 -3.692721843719482422e+00
3.595000000000000000e+03 2.839398956298828125e+01 -4.527333736419677734e+00 2.971594047546386719e+01 2.533285140991210938e+00 9.674767494201660156e+00 2.950634717941284180e+00
3.596000000000000000e+03 2.839376449584960938e+01 -4.507866382598876953e+00 3.060684394836425781e+01 5.305577754974365234e+00 1.077372646331787109e+01 7.143410682678222656e+00
3.597000000000000000e+03 2.838975334167480469e+01 -4.488815307617187500e+00 2.979538726806640625e+01 9.425652503967285156e+00 1.176631259918212891e+01 1.083887672424316406e+01
3.598000000000000000e+03 2.838211059570312500e+01 -4.470910072326660156e+00 2.786154174804687500e+01 1.400830459594726562e+01 1.256095409393310547e+01 1.310987091064453125e+01
3.599000000000000000e+03 2.837112617492675781e+01 -4.454835414886474609e+00 2.488699340820312500e+01 1.888108825683593750e+01 1.313042449951171875e+01 1.415138912200927734e+01
3.600000000000000000e+03 2.835722351074218750e+01 -4.441206932067871094e+00 2.211787033081054688e+01 2.357386779785156250e+01 1.370752143859863281e+01 1.363085269927978516e+01
3.601000000000000000e+03 2.834093475341796875e+01 -4.430545330047607422e+00 1.881794166564941406e+01 2.716827201843261719e+01 1.379586410522460938e+01 1.200219249725341797e+01
3.602000000000000000e+03 2.832288169860839844e+01 -4.423259258270263672e+00 1.745415496826171875e+01 2.991248703002929688e+01 1.420999240875244141e+01 9.416816711425781250e+00
3.603000000000000000e+03 2.830375480651855469e+01 -4.419627189636230469e+00 1.580638313293457031e+01 3.102190971374511719e+01 1.404848766326904297e+01 6.109988689422607422e+00
3.604000000000000000e+03 2.828428649902343750e+01 -4.419788360595703125e+00 1.618350791931152344e+01 3.108284378051757812e+01 1.417990589141845703e+01 3.347490072250366211e+00
3.605000000000000000e+03 2.826522254943847656e+01 -4.423736572265625000e+00 1.714865875244140625e+01 2.965893554687500000e+01 1.404227828979492188e+01 4.186476469039916992e-01
3.606000000000000000e+03 2.824729156494140625e+01 -4.431321144104003906e+00 1.868285751342773438e+01 2.780853271484375000e+01 1.394741725921630859e+01 -1.288603425025939941e+00
3.607000000000000000e+03 2.823118019104003906e+01 -4.442250728607177734e+00 2.106432342529296875e+01 2.523535346984863281e+01 1.388990306854248047e+01 -2.296930313110351562e+00
3.608000000000000000e+03 2.821750640869140625e+01 -4.456108093261718750e+00 2.314251136779785156e+01 2.283569717407226562e+01 1.379346275329589844e+01 -2.318199872970581055e+00
3.609000000000000000e+03 2.820679092407226562e+01 -4.472362518310546875e+00 2.520694351196289062e+01 2.053670310974121094e+01 1.372309398651123047e+01 -1.419302582740783691e+00
3.610000000000000000e+03 2.819944572448730469e+01 -4.490392208099365234e+00 2.685726928710937500e+01 1.917954444885253906e+01 1.381104469299316406e+01 2.200530916452407837e-01
3.611000000000000000e+03 2.819574928283691406e+01 -4.509506702423095703e+00 2.766125106811523438e+01 1.808526802062988281e+01 1.372395610809326172e+01 2.457597732543945312e+00
3.612000000000000000e+03 2.819584655761718750e+01 -4.528975009918212891e+00 2.777121162414550781e+01 1.845229339599609375e+01 1.386705112457275391e+01 4.846095561981201172e+00
3.613000000000000000e+03 2.819973182678222656e+01 -4.548051834106445312e+00 2.666648674011230469e+01 1.947877120971679688e+01 1.384357738494873047e+01 7.372838497161865234e+00
3.614000000000000000e+03 2.820725631713867188e+01 -4.566007614135742188e+00 2.467446708679199219e+01 2.148958587646484375e+01 1.384921646118164062e+01 9.329050064086914062e+00
3.615000000000000000e+03 2.821813392639160156e+01 -4.582154273986816406e+00 2.168067169189453125e+01 2.424034500122070312e+01 1.377630519866943359e+01 1.054509449005126953e+01
3.616000000000000000e+03 2.823194503784179688e+01 -4.595874786376953125e+00 1.805657196044921875e+01 2.711800956726074219e+01 1.355237483978271484e+01 1.067728614807128906e+01
3.617000000000000000e+03 2.824816513061523438e+01 -4.606643676757812500e+00 1.425280857086181641e+01 2.981442451477050781e+01 1.322017002105712891e+01 9.561429023742675781e+00
3.618000000000000000e+03 2.826617050170898438e+01 -4.614048957824707031e+00 1.065146064758300781e+01 3.165601348876953125e+01 1.269224262237548828e+01 7.339519500732421875e+00
3.619000000000000000e+03 2.828527259826660156e+01 -4.617807388305664062e+00 7.703561305999755859e+00 3.229450607299804688e+01 1.199942016601562500e+01 4.248366832733154297e+00
3.620000000000000000e+03 2.830474090576171875e+01 -4.617774486541748047e+00 5.541035652160644531e+00 3.139884185791015625e+01 1.108196258544921875e+01 8.249180316925048828e-01
3.621000000000000000e+03 2.832382965087890625e+01 -4.613952159881591797e+00 4.455839633941650391e+00 2.905080032348632812e+01 1.005199146270751953e+01 -2.576049804687500000e+00
3.622000000000000000e+03 2.834181022644042969e+01 -4.606486797332763672e+00 3.944842100143432617e+00 2.536280822753906250e+01 8.792295455932617188e+00 -5.405710220336914062e+00
3.623000000000000000e+03 2.835799407958984375e+01 -4.595663547515869141e+00 4.481932640075683594e+00 2.056930732727050781e+01 7.515371799468994141e+00 -7.482963562011718750e+00
3.624000000000000000e+03 2.837175941467285156e+01 -4.581896781921386719e+00 5.198754310607910156e+00 1.513723468780517578e+01 6.100796699523925781e+00 -8.478466987609863281e+00
3.625000000000000000e+03 2.838258171081542969e+01 -4.565713405609130859e+00 8.504522323608398438e+00 7.482642173767089844e+00 4.796149253845214844e+00 -7.264314651489257812e+00
