# el_label, x, y, sXX, sYY, sZZ, sXY
1.000000000000000000e+00 7.117069244384765625e+01 -1.423212051391601562e+01 7.658296090085059404e-05 2.437292278045788407e-05 3.028676655958406627e-05 2.600598236313089728e-05
2.000000000000000000e+00 7.043277740478515625e+01 -1.433362007141113281e+01 4.207017627777531743e-05 -5.467677965498296544e-06 1.098074972105678171e-05 1.435132435290142894e-05
3.000000000000000000e+00 7.054098510742187500e+01 -1.506571197509765625e+01 5.198556391405873001e-05 2.830038465617690235e-05 2.408578438917174935e-05 6.459641736000776291e-05
4.000000000000000000e+00 7.272506713867187500e+01 -1.476655960083007812e+01 9.044669423019513488e-05 -3.554374416125938296e-05 1.647088538447860628e-05 2.552238947828300297e-05
5.000000000000000000e+00 7.199694824218750000e+01 -1.486537361145019531e+01 1.007910832413472235e-04 2.069472066068556160e-05 3.644574098871089518e-05 4.700141289504244924e-05
6.000000000000000000e+00 7.264630126953125000e+01 -1.403044509887695312e+01 1.167947848443873227e-04 2.847799260052852333e-05 4.358183286967687309e-05 1.793914816516917199e-05
7.000000000000000000e+00 7.126908111572265625e+01 -1.496555328369140625e+01 5.856618008692748845e-05 -1.439119841961655766e-05 1.325249468209221959e-05 3.693493272294290364e-05
8.000000000000000000e+00 7.190837097167968750e+01 -1.413059997558593750e+01 9.215392492478713393e-05 -2.426200626359786838e-05 2.036757541645783931e-05 2.327671245438978076e-05
9.000000000000000000e+00 7.413023376464843750e+01 -1.390827560424804688e+01 1.284331083297729492e-04 2.680151737877167761e-05 4.657038880395703018e-05 3.260316816522390582e-06
1.000000000000000000e+01 7.418925476074218750e+01 -1.464601135253906250e+01 9.524827328277751803e-05 -4.067440386279486120e-05 1.637215973460115492e-05 7.054881621115782764e-07
1.100000000000000000e+01 7.345582580566406250e+01 -1.469340133666992188e+01 1.275167887797579169e-04 1.291895387112163007e-05 4.213072315906174481e-05 1.573985173308756202e-05
1.200000000000000000e+01 7.487351226806640625e+01 -1.386064338684082031e+01 1.075120308087207377e-04 -3.048823964491020888e-05 2.310713716724421829e-05 1.655350047258252744e-06
1.300000000000000000e+01 7.492264556884765625e+01 -1.459901237487792969e+01 1.183583081001415849e-04 1.163486376754008234e-05 3.899795046891085804e-05 -1.778441219357773662e-05
1.400000000000000000e+01 7.565595245361328125e+01 -1.455239677429199219e+01 7.472575816791504622e-05 -3.288662264822050929e-05 1.255174083780730143e-05 -2.189585029555018991e-05
1.500000000000000000e+01 7.561669921875000000e+01 -1.381339359283447266e+01 9.853865049080923200e-05 2.166237027267925441e-05 3.606030441005714238e-05 -8.334420272149145603e-06
1.600000000000000000e+01 7.338691711425781250e+01 -1.395629978179931641e+01 1.150074749602936208e-04 -3.296484646853059530e-05 2.461278927512466908e-05 1.397869073116453364e-05
1.700000000000000000e+01 7.638958740234375000e+01 -1.377656173706054688e+01 6.309353921096771955e-05 -1.998413972614798695e-05 1.293282093683956191e-05 -7.051477496133884415e-06
1.800000000000000000e+01 7.719170379638671875e+01 -1.374955749511718750e+01 4.772444663103669882e-05 1.335750675934832543e-05 1.832458656281232834e-05 -1.324353524978505448e-05
1.900000000000000000e+01 7.960242462158203125e+01 -1.442159938812255859e+01 2.120814315276220441e-05 6.112406936154002324e-06 8.196165254048537463e-06 -5.076577053841901943e-06
2.000000000000000000e+01 7.879685211181640625e+01 -1.369768714904785156e+01 1.172717293229652569e-05 5.628886356134898961e-06 5.206818059377837926e-06 -4.977077423973241821e-06
2.100000000000000000e+01 7.880713653564453125e+01 -1.444469833374023438e+01 -6.149803539301501587e-06 4.768757207784801722e-06 -4.143138880863261875e-07 -9.708100151328835636e-06
2.200000000000000000e+01 7.801129913330078125e+01 -1.446828174591064453e+01 4.635939330910332501e-05 1.776815770426765084e-05 1.923826494021341205e-05 -3.173955337842926383e-05
2.300000000000000000e+01 7.959899902343750000e+01 -1.367239379882812500e+01 -4.948658897774294019e-06 -2.974451263071387075e-07 -1.573831241330481134e-06 -4.187785123122012010e-07
2.400000000000000000e+01 7.799414825439453125e+01 -1.372346687316894531e+01 1.386549683957127854e-05 -6.326693437586072832e-06 2.261641157019766979e-06 -5.859464636159827933e-06
2.500000000000000000e+01 7.642045593261718750e+01 -1.451698207855224609e+01 8.636860002297908068e-05 1.276711827813414857e-05 2.974071685457602143e-05 -3.734069468919187784e-05
2.600000000000000000e+01 7.721571350097656250e+01 -1.449217700958251953e+01 3.371057027834467590e-05 -1.296708524023415521e-05 6.223045147635275498e-06 -2.600659536255989224e-05
2.700000000000000000e+01 7.714254760742187500e+01 -1.223622417449951172e+01 1.201048027724027634e-02 1.364900730550289154e-03 4.012614022940397263e-03 9.660603478550910950e-03
2.800000000000000000e+01 7.797621154785156250e+01 -1.295833301544189453e+01 7.650876883417367935e-03 5.811444716528058052e-04 2.469606231898069382e-03 3.097408683970570564e-03
2.900000000000000000e+01 7.959193420410156250e+01 -1.217013359069824219e+01 8.453691843897104263e-04 2.473314059898257256e-03 9.956050198525190353e-04 1.702988869510591030e-03
3.000000000000000000e+01 7.877569580078125000e+01 -1.219138813018798828e+01 3.466911381110548973e-03 3.213132964447140694e-03 2.004013396799564362e-03 5.086430348455905914e-03
3.100000000000000000e+01 7.635707092285156250e+01 -1.300015926361083984e+01 2.270844206213951111e-02 3.763549029827117920e-04 6.925439462065696716e-03 4.515213426202535629e-03
3.200000000000000000e+01 7.878598785400390625e+01 -1.293839931488037109e+01 2.754339948296546936e-03 8.016171632334589958e-04 1.066787168383598328e-03 1.748281298205256462e-03
3.300000000000000000e+01 7.959536743164062500e+01 -1.291919994354248047e+01 4.833438433706760406e-04 4.470676649361848831e-04 2.791234583128243685e-04 4.623329441528767347e-04
3.400000000000000000e+01 7.632619476318359375e+01 -1.225973415374755859e+01 1.668727397918701172e-02 7.477256003767251968e-04 5.230499897152185440e-03 1.024409290403127670e-02
3.500000000000000000e+01 7.795905303955078125e+01 -1.221351718902587891e+01 7.403806317597627640e-03 2.214466920122504234e-03 2.885481808334589005e-03 7.954573258757591248e-03
3.600000000000000000e+01 7.716655731201171875e+01 -1.297884464263916016e+01 1.460396777838468552e-02 3.731511824298650026e-04 4.493135493248701096e-03 3.947099670767784119e-03
3.700000000000000000e+01 7.406774902343750000e+01 -1.312981986999511719e+01 3.973765671253204346e-02 7.893142173998057842e-05 1.194497663527727127e-02 4.381876904517412186e-03
3.800000000000000000e+01 7.400872802734375000e+01 -1.239208412170410156e+01 2.805790863931179047e-02 -1.065089832991361618e-03 8.097845129668712616e-03 6.417781580239534378e-03
3.900000000000000000e+01 7.557528686523437500e+01 -1.303425216674804688e+01 2.995804511010646820e-02 4.324105102568864822e-04 9.117136709392070770e-03 4.915613215416669846e-03
4.000000000000000000e+01 7.331423187255859375e+01 -1.317915630340576172e+01 4.279466345906257629e-02 1.746888883644714952e-04 1.289080549031496048e-02 4.058891441673040390e-03
4.100000000000000000e+01 7.482145690917968750e+01 -1.308151912689208984e+01 3.542670980095863342e-02 9.240147483069449663e-05 1.065573375672101974e-02 4.810731392353773117e-03
4.200000000000000000e+01 7.553604125976562500e+01 -1.229524612426757812e+01 2.119209803640842438e-02 1.357517903670668602e-04 6.398355122655630112e-03 9.471317753195762634e-03
4.300000000000000000e+01 7.324532318115234375e+01 -1.244205474853515625e+01 2.903222665190696716e-02 -1.277935225516557693e-03 8.326287381350994110e-03 3.956150729209184647e-03
4.400000000000000000e+01 7.477232360839843750e+01 -1.234315013885498047e+01 2.517927438020706177e-02 -5.492945783771574497e-04 7.388994097709655762e-03 8.176073431968688965e-03
4.500000000000000000e+01 7.096827697753906250e+01 -1.272444248199462891e+01 2.612784691154956818e-02 -4.299493040889501572e-03 6.548506207764148712e-03 -5.389990750700235367e-03
4.600000000000000000e+01 7.106666564941406250e+01 -1.345787525177001953e+01 3.142716363072395325e-02 -6.472829845733940601e-04 9.233964607119560242e-03 6.804580334573984146e-04
4.700000000000000000e+01 7.031845092773437500e+01 -1.356116008758544922e+01 2.366834692656993866e-02 -1.077482942491769791e-03 6.777259521186351776e-03 -9.656085167080163956e-04
4.800000000000000000e+01 7.181496429443359375e+01 -1.335562419891357422e+01 3.749532625079154968e-02 -7.815246353857219219e-04 1.101414021104574203e-02 2.584883011877536774e-03
4.900000000000000000e+01 7.172639465332031250e+01 -1.262085151672363281e+01 2.884473837912082672e-02 -3.453576704487204552e-03 7.617348339408636093e-03 -2.453511115163564682e-03
5.000000000000000000e+01 7.256328582763671875e+01 -1.325442695617675781e+01 4.202917963266372681e-02 3.512183902785181999e-04 1.271411869674921036e-02 3.780564293265342712e-03
5.100000000000000000e+01 7.248452758789062500e+01 -1.251831245422363281e+01 2.941200509667396545e-02 -2.391867106780409813e-03 8.106040768325328827e-03 4.725244361907243729e-04
5.200000000000000000e+01 7.021024322509765625e+01 -1.282906818389892578e+01 2.170191332697868347e-02 -3.947393037378787994e-03 5.326356273144483566e-03 -8.456302806735038757e-03
5.300000000000000000e+01 6.788661956787109375e+01 -1.320209407806396484e+01 1.306794234551489353e-03 4.463609308004379272e-03 1.731121097691357136e-03 -3.864433849230408669e-03
5.400000000000000000e+01 6.878565216064453125e+01 -1.352828216552734375e+01 7.475913502275943756e-03 9.182255016639828682e-04 2.518241759389638901e-03 -4.024769179522991180e-03
5.500000000000000000e+01 6.828938293457031250e+01 -1.306586265563964844e+01 5.026895087212324142e-03 4.229780286550521851e-03 2.777002518996596336e-03 -7.775710429996252060e-03
5.600000000000000000e+01 6.830919647216796875e+01 -1.388005447387695312e+01 2.065160544589161873e-03 4.739660944323986769e-04 7.617379887960851192e-04 -9.935067500919103622e-04
5.700000000000000000e+01 6.952383422851562500e+01 -1.367080211639404297e+01 1.315552368760108948e-02 -8.728298707865178585e-04 3.684808034449815750e-03 -2.528158947825431824e-03
5.800000000000000000e+01 6.948915863037109375e+01 -1.292583274841308594e+01 1.781096309423446655e-02 -2.347667468711733818e-03 4.638988990336656570e-03 -9.832744486629962921e-03
5.900000000000000000e+01 6.884123229980468750e+01 -1.296961402893066406e+01 1.273140870034694672e-02 9.842881700024008751e-04 4.114709328860044479e-03 -9.674923494458198547e-03
6.000000000000000000e+01 6.897310638427734375e+01 -1.539471054077148438e+01 -6.602402572752907872e-05 3.858309355564415455e-05 -8.232279469666536897e-06 3.126518276985734701e-05
6.100000000000000000e+01 6.911930084228515625e+01 -1.481748771667480469e+01 7.704348536208271980e-05 5.459330714074894786e-05 3.949103847844526172e-05 2.650024271133588627e-06
6.200000000000000000e+01 6.849454498291015625e+01 -1.466646862030029297e+01 -1.516365500719984993e-05 -1.065546803147299215e-05 -7.745737093500792980e-06 -1.117148076446028426e-05
6.300000000000000000e+01 6.990488433837890625e+01 -1.517381191253662109e+01 4.856636587646789849e-05 -3.131232233499758877e-06 1.363053979730466381e-05 1.752438765834085643e-05
6.400000000000000000e+01 6.941767120361328125e+01 -1.531802082061767578e+01 8.529426850145682693e-06 3.587304308894090354e-05 1.332074134552385658e-05 1.365433126920834184e-05
6.500000000000000000e+01 6.967160034179687500e+01 -1.446315002441406250e+01 -2.431833308946806937e-06 -1.135712295763369184e-06 -1.070263692781736609e-06 3.241626109229400754e-05
6.600000000000000000e+01 6.846971130371093750e+01 -1.542172050476074219e+01 5.080113987787626684e-05 2.492487283234368078e-06 1.598808739800006151e-05 2.293353099958039820e-05
6.700000000000000000e+01 1.628620338439941406e+01 -1.255944609642028809e+00 -1.035825610160827637e+00 -1.525251287966966629e-02 -3.153234422206878662e-01 4.340943694114685059e-02
6.800000000000000000e+01 1.779829025268554688e+01 -2.059187889099121094e+00 -9.773086905479431152e-01 -2.746796980500221252e-02 -3.014329969882965088e-01 -4.037820547819137573e-02
6.900000000000000000e+01 1.623538208007812500e+01 -1.994474172592163086e+00 -8.828590512275695801e-01 -2.702644839882850647e-02 -2.729656398296356201e-01 -4.014317710243631154e-06
7.000000000000000000e+01 1.858121871948242188e+01 -2.091711521148681641e+00 -9.744603037834167480e-01 -5.428270995616912842e-02 -3.086228966712951660e-01 -5.868007987737655640e-02
7.100000000000000000e+01 1.856809425354003906e+01 -1.350533485412597656e+00 -1.188411831855773926e+00 -3.135669603943824768e-02 -3.659305572509765625e-01 -1.744142174720764160e-02
7.200000000000000000e+01 1.704577255249023438e+01 -1.287305474281311035e+00 -1.052123904228210449e+00 -6.106521934270858765e-03 -3.174691200256347656e-01 2.521102689206600189e-02
7.300000000000000000e+01 1.701626777648925781e+01 -2.026717901229858398e+00 -9.361046552658081055e-01 -1.708157360553741455e-02 -2.859558761119842529e-01 -7.734053302556276321e-03
7.400000000000000000e+01 1.780648040771484375e+01 -1.318892598152160645e+00 -1.096505999565124512e+00 -3.401501104235649109e-03 -3.299722373485565186e-01 1.731244660913944244e-02
7.500000000000000000e+01 2.016102409362792969e+01 -1.984116315841674805e+00 -1.026504158973693848e+00 -2.240886352956295013e-02 -3.146739006042480469e-01 -6.296347826719284058e-02
7.600000000000000000e+01 1.932956504821777344e+01 -1.326877713203430176e+00 -1.198129177093505859e+00 -3.313190117478370667e-02 -3.693783283233642578e-01 -7.506896555423736572e-02
7.700000000000000000e+01 2.095439147949218750e+01 -1.900163888931274414e+00 -1.014968633651733398e+00 -8.656851947307586670e-03 -3.070876598358154297e-01 -8.418159931898117065e-02
7.800000000000000000e+01 1.936882019042968750e+01 -2.066858530044555664e+00 -9.927823543548583984e-01 -5.301098898053169250e-02 -3.137379884719848633e-01 -4.962849617004394531e-02
7.900000000000000000e+01 2.174835014343261719e+01 -1.814883351325988770e+00 -9.831210374832153320e-01 4.758531227707862854e-03 -2.935087382793426514e-01 -5.531835183501243591e-02
8.000000000000000000e+01 2.161623764038085938e+01 -1.084643244743347168e+00 -1.070404529571533203e+00 -2.486485429108142853e-02 -3.285807967185974121e-01 -1.092102006077766418e-01
8.100000000000000000e+01 2.009082221984863281e+01 -1.247412800788879395e+00 -1.125317215919494629e+00 -1.311916578561067581e-02 -3.415309190750122070e-01 -1.035141274333000183e-01
8.200000000000000000e+01 2.085324478149414062e+01 -1.166737556457519531e+00 -1.092729330062866211e+00 -7.396476343274116516e-03 -3.300377428531646729e-01 -1.025910452008247375e-01
8.300000000000000000e+01 2.379194641113281250e+01 -9.929092526435852051e-01 -7.643921971321105957e-01 1.020947992801666260e-01 -1.986892074346542358e-01 1.068066507577896118e-01
8.400000000000000000e+01 2.349235153198242188e+01 -1.466013431549072266e+00 -1.000683069229125977e+00 1.376280188560485840e-01 -2.589164972305297852e-01 4.081445187330245972e-02
8.500000000000000000e+01 2.485333633422851562e+01 -1.035431027412414551e+00 -8.220547437667846680e-01 -1.478868722915649414e-01 -2.909824848175048828e-01 3.626067638397216797e-01
8.600000000000000000e+01 2.443948364257812500e+01 -6.615749597549438477e-01 -3.235185146331787109e-01 -2.591135539114475250e-02 -1.048289611935615540e-01 1.377601325511932373e-01
8.700000000000000000e+01 2.403339767456054688e+01 -2.786582112312316895e-01 -1.626719683408737183e-01 -2.263734582811594009e-03 -4.948071017861366272e-02 1.895620115101337433e-02
8.800000000000000000e+01 2.327892684936523438e+01 -5.916076898574829102e-01 -5.318992137908935547e-01 1.371905021369457245e-02 -1.554540544748306274e-01 -1.671533659100532532e-02
8.900000000000000000e+01 2.244556808471679688e+01 -9.079747796058654785e-01 -8.725686073303222656e-01 1.465438306331634521e-02 -2.573742866516113281e-01 -8.682172000408172607e-02
9.000000000000000000e+01 2.261844444274902344e+01 -1.630605101585388184e+00 -9.850841760635375977e-01 9.372577816247940063e-02 -2.674075365066528320e-01 -2.322782529518008232e-03
9.100000000000000000e+01 2.424050903320312500e+01 -1.300757288932800293e+00 -1.018935561180114746e+00 1.572929620742797852e-01 -2.584927678108215332e-01 1.377122551202774048e-01
9.200000000000000000e+01 2.299460601806640625e+01 8.182935714721679688e-01 -1.525807761026953813e-06 -6.044830342943896540e-07 -6.390872613337705843e-07 -1.509116145825828426e-06
9.300000000000000000e+01 2.290218925476074219e+01 -4.239485040307044983e-02 2.324637726758282952e-08 -1.349334070255281404e-06 -3.978263123372016707e-07 3.977443441272043856e-07
9.400000000000000000e+01 2.196019172668457031e+01 6.625256538391113281e-01 6.638013019255595282e-06 3.243753326387377456e-06 2.964530040117097087e-06 3.397616183065110818e-06
9.500000000000000000e+01 2.221916389465332031e+01 -2.854320704936981201e-01 1.208979028888279572e-06 1.300187591368739959e-06 7.527499974457896315e-07 -3.844045011192065431e-07
9.600000000000000000e+01 2.357227516174316406e+01 2.119392603635787964e-01 4.484935800519451732e-07 7.551145699835615233e-07 3.610824421684810659e-07 3.037533247152168769e-07
9.700000000000000000e+01 2.249470710754394531e+01 4.821806550025939941e-01 -1.440001597075024620e-06 -1.455438791708729696e-06 -8.686321280038100667e-07 7.049050054774852470e-07
9.800000000000000000e+01 2.204356956481933594e+01 1.772505939006805420e-01 -3.159173502353951335e-06 1.567371555211138912e-06 -4.775405955115274992e-07 -2.270473714816034772e-06
9.900000000000000000e+01 2.032857894897460938e+01 3.672832548618316650e-01 1.832249040489841718e-06 1.362690568385005463e-06 9.584819053998216987e-07 8.687851504873833619e-07
1.000000000000000000e+02 2.136629676818847656e+01 3.529261425137519836e-02 2.873034190997714177e-06 -4.684336829541280167e-07 7.213801609395886771e-07 1.672123858043050859e-06
1.010000000000000000e+02 2.012214088439941406e+01 -5.437968373298645020e-01 -6.921834483364364132e-07 -1.223224671775824390e-06 -5.746224474023620132e-07 2.365618740896024974e-07
1.020000000000000000e+02 2.122879219055175781e+01 5.218483209609985352e-01 -3.658405830719857477e-06 -1.559579914101050235e-06 -1.565395791658374947e-06 -1.444578401788021438e-06
1.030000000000000000e+02 1.938433074951171875e+01 2.124629318714141846e-01 -1.066419486051017884e-06 -1.313864572694001254e-06 -7.140852176235057414e-07 -3.397721286546584452e-07
1.040000000000000000e+02 1.936666107177734375e+01 -5.335462689399719238e-01 4.695553172950894805e-07 4.158163449119456345e-07 2.656115043464524206e-07 2.283416336013033288e-07
1.050000000000000000e+02 2.077547073364257812e+01 -5.444256067276000977e-01 2.340474054562946549e-07 1.722291813166521024e-06 5.869017627446737606e-07 2.656208266671455931e-07
1.060000000000000000e+02 2.149132919311523438e+01 -4.403701424598693848e-01 -1.420297849108465016e-06 -1.331775024482340086e-06 -8.256218393398739863e-07 -1.660001771597308107e-07
1.070000000000000000e+02 2.057812309265136719e+01 -1.356525272130966187e-01 -7.403786526083422359e-07 2.040667510527782724e-07 -1.608935633612418314e-07 -1.425785171704774257e-06
1.080000000000000000e+02 1.707793617248535156e+01 -5.109162330627441406e-01 -3.443533387326169759e-07 3.961165617738515721e-08 -9.142249979277039529e-08 4.408555298596184002e-08
1.090000000000000000e+02 1.633993148803710938e+01 -4.782602787017822266e-01 2.688723554911121028e-07 -5.499895792127063032e-07 -8.433516285322184558e-08 -1.933799751441256376e-07
1.100000000000000000e+02 1.781616592407226562e+01 -5.415064096450805664e-01 3.557148033905832563e-07 2.634274949286918854e-07 1.857426923379534855e-07 5.627844856803676521e-08
1.110000000000000000e+02 1.854128074645996094e+01 1.711868941783905029e-01 1.264714228454977274e-06 1.598946596459427383e-06 8.590982361056376249e-07 2.125455722534752567e-07
1.120000000000000000e+02 1.855440711975097656e+01 -5.699911117553710938e-01 -4.045734272040135693e-07 -4.027264424166787649e-07 -2.421899694127205294e-07 -1.180134887590611470e-07
1.130000000000000000e+02 1.639075088500976562e+01 2.602692842483520508e-01 -9.052318432622996625e-07 -4.193500728888466256e-07 -3.973745776875148294e-07 2.743509526226262096e-07
1.140000000000000000e+02 1.710744285583496094e+01 2.284961640834808350e-01 9.791644970391644165e-07 8.311405963468132541e-07 5.430915166471095290e-07 -1.550072141753844335e-07
1.150000000000000000e+02 1.782435607910156250e+01 1.987887471914291382e-01 -9.505976095169899054e-07 -1.261205056835024152e-06 -6.635407885369204450e-07 -1.024066733634754200e-07
1.160000000000000000e+02 1.421318435668945312e+01 5.040000677108764648e-01 9.685038548923330382e-07 -8.570677323405107018e-07 3.343081900197830691e-08 -1.688590884896257194e-07
1.170000000000000000e+02 1.412459087371826172e+01 -2.306861728429794312e-01 -4.141881220220966497e-07 2.165804517062497325e-06 5.254848929325817153e-07 2.519858526284224354e-07
1.180000000000000000e+02 1.338628387451171875e+01 -1.375386416912078857e-01 1.237077356108784443e-07 -2.457386244714143686e-06 -7.001035555731505156e-07 -2.809804584558150964e-07
1.190000000000000000e+02 1.486306858062744141e+01 -3.233485221862792969e-01 2.639085039390920429e-07 -1.747265173435152974e-06 -4.450069752692797920e-07 -2.664386613560054684e-07
1.200000000000000000e+02 1.566856193542480469e+01 3.219058215618133545e-01 1.149149852608388755e-06 3.164381467968269135e-08 3.542380966337077552e-07 -4.396334531975298887e-07
1.210000000000000000e+02 1.560165977478027344e+01 -4.155019819736480713e-01 -4.046037815896852408e-07 1.167673417512560263e-06 2.289208822503496776e-07 2.707396333789802156e-07
1.220000000000000000e+02 1.348572158813476562e+01 5.957868695259094238e-01 -1.089255988517834339e-06 1.219344767378061078e-06 3.902664147403811512e-08 -1.005883643045990539e-08
1.230000000000000000e+02 1.494081592559814453e+01 4.126985073089599609e-01 -1.182581968350859825e-06 4.348509321516758064e-07 -2.243193080175842624e-07 2.209616241088951938e-07
1.240000000000000000e+02 1.115022563934326172e+01 2.165033817291259766e-01 -4.000860656105942326e-07 2.990033181049511768e-06 7.769841090521367732e-07 1.937130633677952574e-07
1.250000000000000000e+02 1.122651290893554688e+01 9.537453055381774902e-01 6.165832928672898561e-07 -1.652970240684226155e-06 -3.109160786607390037e-07 3.965016901474882616e-07
1.260000000000000000e+02 1.040434932708740234e+01 3.321511745452880859e-01 3.471961065315554151e-07 -2.999215666932286695e-06 -7.956058425406808965e-07 8.350308178250998026e-08
1.270000000000000000e+02 1.189680099487304688e+01 9.631319344043731689e-02 1.170500496527893119e-07 -2.848095846275100484e-06 -8.193137546186335385e-07 -1.686931057065521600e-07
1.280000000000000000e+02 1.274307727813720703e+01 7.053368687629699707e-01 9.302110584030742757e-07 -1.373465579490584787e-06 -1.329763676949369255e-07 -5.222813292959926912e-09
1.290000000000000000e+02 1.264393043518066406e+01 -2.822761237621307373e-02 -4.836247171624563634e-07 2.670042704266961664e-06 6.559253620253002737e-07 2.936638736628083279e-07
1.300000000000000000e+02 1.046920776367187500e+01 1.071231842041015625e+00 -2.021864474954782054e-06 1.611348579899640754e-06 -1.231547912539099343e-07 -6.547026032421854325e-07
1.310000000000000000e+02 1.198451900482177734e+01 8.317164182662963867e-01 -1.270512711926130578e-06 1.645760676183272153e-06 1.125744120145100169e-07 -1.682553119053409318e-07
1.320000000000000000e+02 8.874713897705078125e+00 3.907073438167572021e-01 -8.658766859070965438e-08 -2.136202056135516614e-06 -6.668369678664021194e-07 1.489299421564282966e-07
1.330000000000000000e+02 9.645540237426757812e+00 3.903963863849639893e-01 -3.163623887303401716e-07 2.487541223672451451e-06 6.513536732200009283e-07 -3.199001525899802800e-07
1.340000000000000000e+02 7.374577522277832031e+00 1.131132245063781738e+00 -8.582944133195269387e-07 1.058066118275746703e-06 5.993151575012234389e-08 -1.157601900558802299e-06
1.350000000000000000e+02 7.331357002258300781e+00 3.911322057247161865e-01 -1.807071043913310859e-07 -1.512319045104959514e-06 -5.079078277958615217e-07 3.722317103438399499e-07
1.360000000000000000e+02 5.045433998107910156e+00 1.131745219230651855e+00 -2.054612906476904755e-07 -3.466778153438099253e-08 -7.203872343097827979e-08 1.436685238331847358e-06
1.370000000000000000e+02 2.715631723403930664e+00 1.131616950035095215e+00 4.691115691457525827e-07 -7.990322501427726820e-07 -9.897620145693508675e-08 -8.419178811891470104e-07
1.380000000000000000e+02 2.699708461761474609e+00 3.916168808937072754e-01 -1.892922512070072116e-07 6.499917049040959682e-07 1.382098275826137979e-07 3.194769817582709948e-07
1.390000000000000000e+02 1.939137935638427734e+00 1.131583452224731445e+00 -7.481511374862748198e-07 8.436629173047549557e-07 2.865352755065941892e-08 6.612320362364698667e-07
1.400000000000000000e+02 1.927764058113098145e+00 3.915834426879882812e-01 1.954907702383934520e-07 -6.470186804108379874e-07 -1.354583787360752467e-07 -1.936364668608803186e-07
1.410000000000000000e+02 1.156864285469055176e+00 3.912966847419738770e-01 -1.963175577657239046e-07 4.744415775803645374e-07 8.343720736547766137e-08 1.341625477380148368e-07
1.420000000000000000e+02 3.880036771297454834e-01 1.130522727966308594e+00 -8.528683679287496489e-07 2.618140797494561411e-07 -1.773162949803008814e-07 5.626507970646343892e-08
1.430000000000000000e+02 3.857289254665374756e-01 3.905227184295654297e-01 2.846200573003443424e-07 -1.809409013731055893e-07 3.110374180437247560e-08 -6.044045619546523085e-08
1.440000000000000000e+02 4.243989944458007812e+00 3.916435539722442627e-01 -1.799864861595779075e-07 2.138556283171055838e-07 1.016074246962261896e-08 4.657233603211352602e-07
1.450000000000000000e+02 3.472155570983886719e+00 3.916060328483581543e-01 2.297881351864816679e-08 -5.052070264355279505e-07 -1.446684620987070957e-07 -3.571374236344126984e-07
1.460000000000000000e+02 4.269012451171875000e+00 1.131643533706665039e+00 3.060645425989605428e-08 -3.091865892201894894e-07 -8.357403658010298386e-08 -1.178639877252862789e-06
1.470000000000000000e+02 5.015861988067626953e+00 3.917452692985534668e-01 -2.046633085228677373e-07 1.724119442769733723e-07 -9.675409806675361324e-09 -4.331696175086108269e-07
1.480000000000000000e+02 5.788088321685791016e+00 3.919011354446411133e-01 -1.878783564279729035e-07 -6.169899506858200766e-07 -2.414604978184797801e-07 4.863317144554457627e-07
1.490000000000000000e+02 6.598729610443115234e+00 1.131563067436218262e+00 9.063212758064764785e-08 -7.257004881466855295e-07 -1.905205095908968360e-07 1.375137799186632037e-06
1.500000000000000000e+02 6.560058593750000000e+00 3.915631175041198730e-01 -4.280123846456262982e-07 1.087121404452773277e-06 1.977327030999731505e-07 -3.989033245943574002e-07
1.510000000000000000e+02 8.103197097778320312e+00 3.908808529376983643e-01 -5.616082034975988790e-07 1.890995804387785029e-06 3.988162973200815031e-07 -2.789056452456861734e-07
1.520000000000000000e+02 8.150966644287109375e+00 1.130880832672119141e+00 3.088555899921630044e-07 -1.233638613484799862e-06 -2.774349070477910573e-07 1.052438733495364431e-06
1.530000000000000000e+02 8.927033424377441406e+00 1.130707383155822754e+00 -1.122098069572530221e-06 1.594057380316371564e-06 1.415877761701267445e-07 -9.681740493761026300e-07
1.540000000000000000e+02 9.702409744262695312e+00 1.130396366119384766e+00 -1.869421879518995411e-07 -1.701326596048602369e-06 -5.664806508320907596e-07 9.381861332258267794e-07
1.550000000000000000e+02 5.822209835052490234e+00 1.131901144981384277e+00 -4.500443253618868766e-07 4.075519370871916180e-07 -1.274771754822268122e-08 -1.295967308578838129e-06
1.560000000000000000e+02 3.492628335952758789e+00 1.131605982780456543e+00 -4.779111577590811066e-07 5.727110874431673437e-07 2.843998458956775721e-08 1.174746103060897440e-06
1.570000000000000000e+02 1.163688659667968750e+00 1.131296634674072266e+00 7.640293802069209050e-07 -7.107450414878258016e-07 1.598530730007041711e-08 -2.874718063594627893e-07
1.580000000000000000e+02 1.328147125244140625e+01 -9.107246994972229004e-01 -7.750519514083862305e-01 -8.676674216985702515e-03 -2.351185828447341919e-01 7.185572385787963867e-02
1.590000000000000000e+02 1.470345211029052734e+01 -1.836183547973632812e+00 -8.079190850257873535e-01 -4.342131316661834717e-03 -2.436783611774444580e-01 3.649899503216147423e-03
1.600000000000000000e+02 1.318203258514404297e+01 -1.644050240516662598e+00 -6.946107745170593262e-01 2.865754300728440285e-03 -2.075235098600387573e-01 4.443103447556495667e-03
1.610000000000000000e+02 1.478120040893554688e+01 -1.100136518478393555e+00 -8.928203582763671875e-01 -6.633816752582788467e-03 -2.698362469673156738e-01 7.745517045259475708e-02
1.620000000000000000e+02 1.546425342559814453e+01 -1.930399060249328613e+00 -8.416106104850769043e-01 -1.767643727362155914e-02 -2.577861249446868896e-01 -3.231816692277789116e-03
1.630000000000000000e+02 1.553115558624267578e+01 -1.192991256713867188e+00 -9.814136624336242676e-01 -1.959414593875408173e-02 -3.003023564815521240e-01 6.805372983217239380e-02
1.640000000000000000e+02 1.403127861022949219e+01 -1.006039500236511230e+00 -8.296487331390380859e-01 -8.061188273131847382e-03 -2.513129711151123047e-01 7.327819615602493286e-02
1.650000000000000000e+02 1.394268608093261719e+01 -1.740725755691528320e+00 -7.517153024673461914e-01 4.381170962005853653e-03 -2.242002487182617188e-01 1.087992545217275620e-02
1.660000000000000000e+02 6.850709533691406250e+01 -1.618681716918945312e+01 -6.201540236361324787e-05 4.789188096765428782e-05 -4.237057055433979258e-06 5.437954769149655476e-06
1.670000000000000000e+02 6.909098815917968750e+01 -1.691547775268554688e+01 -5.077456080471165478e-05 8.208786312025040388e-05 9.393991604156326503e-06 4.335748599260114133e-05
1.680000000000000000e+02 7.139270782470703125e+01 -1.570161533355712891e+01 8.943144348450005054e-05 2.148672683688346297e-05 3.327544982312247157e-05 8.369232818949967623e-05
1.690000000000000000e+02 6.902490997314453125e+01 -1.610820960998535156e+01 5.421860623755492270e-05 5.053198765381239355e-05 3.142517743981443346e-05 3.867068517138250172e-05
1.700000000000000000e+02 6.866601562500000000e+01 -2.485570335388183594e+01 6.425481988117098808e-04 2.143412362784147263e-03 8.357882034033536911e-04 5.065044388175010681e-04
1.710000000000000000e+02 7.962948608398437500e+01 -2.773023605346679688e+01 -2.333816810278221965e-04 1.245829858817160130e-03 3.037344431504607201e-04 1.994814665522426367e-04
1.720000000000000000e+02 7.897237396240234375e+01 -2.353555297851562500e+01 -1.671733043622225523e-04 7.804322522133588791e-04 1.839776959968730807e-04 -1.671988284215331078e-04
1.730000000000000000e+02 7.968000030517578125e+01 -2.064503860473632812e+01 1.470562128815799952e-04 5.606270860880613327e-04 2.123049926012754440e-04 -9.060386219061911106e-05
1.740000000000000000e+02 7.966212463378906250e+01 -1.752051925659179688e+01 9.378643881063908339e-05 1.391591067658737302e-04 6.988366658333688974e-05 -4.111469388590194285e-05
1.750000000000000000e+02 6.897799682617187500e+01 -2.563468360900878906e+01 -5.799508653581142426e-04 1.265285536646842957e-03 2.056004013866186142e-04 -3.407011390663683414e-04
1.760000000000000000e+02 6.789905548095703125e+01 -2.677657127380371094e+01 -5.646731588058173656e-04 1.005578786134719849e-03 1.322716707363724709e-04 -8.328013354912400246e-04
1.770000000000000000e+02 6.662821197509765625e+01 -2.880323028564453125e+01 -1.321974303573369980e-02 -7.025119382888078690e-03 -6.073458585888147354e-03 -8.075464516878128052e-03
1.780000000000000000e+02 6.349868011474609375e+01 -3.142349243164062500e+01 -1.055389121174812317e-01 -1.609824225306510925e-02 -3.649114444851875305e-02 -3.976272791624069214e-02
1.790000000000000000e+02 6.200416946411132812e+01 -3.215217208862304688e+01 -2.002491950988769531e-01 -1.272352412343025208e-02 -6.389181315898895264e-02 -4.113608226180076599e-02
1.800000000000000000e+02 6.040348815917968750e+01 -3.256536865234375000e+01 -3.374826908111572266e-01 -1.553797163069248199e-02 -1.059061959385871887e-01 -1.583858020603656769e-02
1.810000000000000000e+02 5.785876083374023438e+01 -3.242921447753906250e+01 -3.427388966083526611e-01 -1.528680697083473206e-02 -1.074077114462852478e-01 5.275539308786392212e-02
1.820000000000000000e+02 5.570786285400390625e+01 -3.109355735778808594e+01 -4.557956755161285400e-02 5.767672136425971985e-02 3.629146376624703407e-03 -1.200815476477146149e-02
1.830000000000000000e+02 5.232755661010742188e+01 -2.891293716430664062e+01 1.590934842824935913e-01 3.972974717617034912e-01 1.669172942638397217e-01 -2.754712700843811035e-01
1.840000000000000000e+02 4.543621826171875000e+01 -3.221203613281250000e+01 -1.350316703319549561e-01 2.334051609039306641e+00 6.597059965133666992e-01 -7.151570320129394531e-01
1.850000000000000000e+02 3.412137222290039062e+01 -2.863223648071289062e+01 9.557488560676574707e-01 4.607462406158447266e+00 1.668963432312011719e+00 1.666676640510559082e+00
1.860000000000000000e+02 3.224404525756835938e+01 -2.914553070068359375e+01 1.670487761497497559e+00 2.533409833908081055e+00 1.261169314384460449e+00 1.936738252639770508e+00
1.870000000000000000e+02 3.092338371276855469e+01 -3.017428779602050781e+01 1.244256019592285156e+00 1.219758272171020508e+00 7.392042875289916992e-01 1.182630658149719238e+00
1.880000000000000000e+02 2.963850402832031250e+01 -3.164327430725097656e+01 2.256838828325271606e-01 8.352077603340148926e-01 3.182674944400787354e-01 7.883676886558532715e-01
1.890000000000000000e+02 2.904953575134277344e+01 -3.937620925903320312e+01 -2.925661802291870117e-01 1.397560834884643555e+00 3.314983844757080078e-01 2.928566038608551025e-01
1.900000000000000000e+02 2.956447410583496094e+01 -3.754352188110351562e+01 -3.009835779666900635e-01 1.527298092842102051e+00 3.678943514823913574e-01 4.835430383682250977e-01
1.910000000000000000e+02 3.533021545410156250e+01 -3.903610229492187500e+01 -8.446832895278930664e-01 2.878690958023071289e+00 6.102023124694824219e-01 1.547013819217681885e-01
1.920000000000000000e+02 4.122387313842773438e+01 -4.075558090209960938e+01 -8.325715661048889160e-01 2.881725311279296875e+00 6.147460937500000000e-01 -6.123952567577362061e-02
1.930000000000000000e+02 3.540827560424804688e+01 -2.831264114379882812e+01 5.978779196739196777e-01 5.360078334808349609e+00 1.787386894226074219e+00 1.056323528289794922e+00
1.940000000000000000e+02 5.005538940429687500e+01 -2.545579528808593750e+01 3.191256225109100342e-01 4.327349662780761719e-01 2.255581766366958618e-01 -3.773861527442932129e-01
1.950000000000000000e+02 4.437722396850585938e+01 -1.976136207580566406e+01 1.545031666755676270e+00 2.695212125778198242e+00 1.272073149681091309e+00 -1.954274177551269531e+00
1.960000000000000000e+02 4.067329788208007812e+01 -1.558256053924560547e+01 9.548692703247070312e-01 1.039872264862060547e+01 3.406077623367309570e+00 -1.070677042007446289e+00
1.970000000000000000e+02 4.173452377319335938e+01 -1.306491661071777344e+01 1.030558496713638306e-01 1.328850460052490234e+01 4.017467975616455078e+00 -8.176847100257873535e-01
1.980000000000000000e+02 4.162285995483398438e+01 -1.147472286224365234e+01 1.985220909118652344e-01 1.373116111755371094e+01 4.178905010223388672e+00 -1.002634644508361816e+00
1.990000000000000000e+02 4.153039550781250000e+01 -8.272169113159179688e+00 2.546209692955017090e-01 1.635316658020019531e+01 4.982336044311523438e+00 5.875979065895080566e-01
2.000000000000000000e+02 4.085548019409179688e+01 -8.207757949829101562e+00 9.011651873588562012e-01 1.449726104736328125e+01 4.619527816772460938e+00 1.502760887145996094e+00
2.010000000000000000e+02 4.247299957275390625e+01 -3.488387584686279297e+00 8.897940516471862793e-01 1.465312099456787109e+01 4.662874698638916016e+00 3.240639686584472656e+00
2.020000000000000000e+02 4.297983169555664062e+01 -1.966227173805236816e+00 2.139481782913208008e+00 1.330641078948974609e+01 4.633767604827880859e+00 4.528972148895263672e+00
2.030000000000000000e+02 4.440481948852539062e+01 4.420032724738121033e-03 -6.776161193847656250e-01 2.382560253143310547e+00 5.114831924438476562e-01 9.420824646949768066e-01
2.040000000000000000e+02 4.317674636840820312e+01 1.348848223686218262e+00 -4.125002861022949219e+00 7.629839897155761719e+00 1.051451206207275391e+00 1.372492313385009766e+00
2.050000000000000000e+02 4.037118530273437500e+01 7.633022785186767578e+00 1.660523533821105957e+00 1.186058330535888672e+01 4.056332111358642578e+00 3.780871868133544922e+00
2.060000000000000000e+02 3.917026519775390625e+01 6.346235752105712891e+00 2.216931581497192383e+00 1.254437351226806641e+01 4.428391456604003906e+00 4.965875148773193359e+00
2.070000000000000000e+02 3.882207107543945312e+01 5.612210750579833984e+00 2.093841314315795898e+00 1.100472354888916016e+01 3.929569482803344727e+00 4.727878570556640625e+00
2.080000000000000000e+02 3.656494140625000000e+01 2.238752841949462891e+00 -3.179587721824645996e-01 1.777589440345764160e+00 4.378891885280609131e-01 4.869998097419738770e-01
2.090000000000000000e+02 3.414782714843750000e+01 7.756273448467254639e-02 -4.358864307403564453e+00 -1.556401610374450684e+00 -1.774579763412475586e+00 -2.567759990692138672e+00
2.100000000000000000e+02 4.031328964233398438e+01 -1.220246410369873047e+01 4.369418919086456299e-01 1.152666568756103516e+01 3.589082241058349609e+00 -3.725688755512237549e-01
2.110000000000000000e+02 3.287763595581054688e+01 -1.827383041381835938e+01 -2.209015130996704102e+00 -3.266418576240539551e-01 -7.606970667839050293e-01 9.400804638862609863e-01
2.120000000000000000e+02 3.605858612060546875e+01 -1.975564575195312500e+01 -4.308349490165710449e-01 5.899114131927490234e+00 1.640483736991882324e+00 9.171419739723205566e-01
2.130000000000000000e+02 3.520433425903320312e+01 -2.102111625671386719e+01 2.152350395917892456e-01 7.287959575653076172e+00 2.250958442687988281e+00 -1.048154756426811218e-01
2.140000000000000000e+02 3.477887344360351562e+01 -1.976319313049316406e+01 -8.550012856721878052e-02 4.582681655883789062e+00 1.349154472351074219e+00 -4.157777726650238037e-01
2.150000000000000000e+02 4.247451400756835938e+01 -1.706084442138671875e+01 1.934877753257751465e+00 1.119602680206298828e+01 3.939271450042724609e+00 -3.754680156707763672e+00
2.160000000000000000e+02 3.941756439208984375e+01 5.288031101226806641e+00 1.095459342002868652e+00 1.050099849700927734e+01 3.478937387466430664e+00 3.384294986724853516e+00
2.170000000000000000e+02 4.052613449096679688e+01 1.100339698791503906e+01 5.680889487266540527e-01 1.225964546203613281e+01 3.848320245742797852e+00 2.502258300781250000e+00
2.180000000000000000e+02 4.136994552612304688e+01 1.818062400817871094e+01 4.797282442450523376e-02 9.080253601074218750e+00 2.738467931747436523e+00 2.202842533588409424e-01
2.190000000000000000e+02 4.139772033691406250e+01 2.700625801086425781e+01 1.438359022140502930e-01 8.509633064270019531e+00 2.596040725708007812e+00 -3.301256597042083740e-01
2.200000000000000000e+02 4.136860656738281250e+01 2.782596397399902344e+01 4.499633908271789551e-01 9.260088920593261719e+00 2.913015604019165039e+00 -8.809268474578857422e-01
2.210000000000000000e+02 4.575833511352539062e+01 9.695217609405517578e-01 -8.803451538085937500e+00 -8.337551951408386230e-01 -2.891162157058715820e+00 -1.501730084419250488e+00
2.220000000000000000e+02 4.661553955078125000e+01 1.821558117866516113e+00 -6.503585338592529297e+00 -1.301423907279968262e+00 -2.341502666473388672e+00 4.158662855625152588e-01
2.230000000000000000e+02 4.822723388671875000e+01 7.794727683067321777e-01 -7.843333721160888672e+00 -6.953175067901611328e-01 -2.561595439910888672e+00 2.002255916595458984e+00
2.240000000000000000e+02 4.750027847290039062e+01 1.635465025901794434e+00 -7.635453224182128906e+00 -9.794763922691345215e-01 -2.584478855133056641e+00 6.475976109504699707e-02
2.250000000000000000e+02 4.830463790893554688e+01 1.419908642768859863e+00 -7.092454910278320312e+00 -3.022744655609130859e-01 -2.218418836593627930e+00 7.652559280395507812e-01
2.260000000000000000e+02 5.046213150024414062e+01 -1.892044022679328918e-02 -4.536964893341064453e+00 -4.899980425834655762e-01 -1.508088946342468262e+00 1.560624837875366211e+00
2.270000000000000000e+02 5.505921554565429688e+01 -1.003423094749450684e+00 -3.576475143432617188e+00 -2.272503636777400970e-02 -1.079760074615478516e+00 3.632680773735046387e-01
2.280000000000000000e+02 6.112451934814453125e+01 -2.554950237274169922e+00 -1.379126667976379395e+00 -1.691855937242507935e-01 -4.644936919212341309e-01 4.901925623416900635e-01
2.290000000000000000e+02 6.248109436035156250e+01 -2.703965425491333008e+00 -1.033334136009216309e+00 -1.167515963315963745e-01 -3.450257182121276855e-01 2.752510607242584229e-01
2.300000000000000000e+02 6.390775680541992188e+01 -4.551451206207275391e+00 -2.256391197443008423e-01 -9.019656479358673096e-02 -9.475070238113403320e-02 1.418962478637695312e-01
2.310000000000000000e+02 6.441482543945312500e+01 -5.167419910430908203e+00 -1.059158220887184143e-01 -3.213924914598464966e-02 -4.141652211546897888e-02 6.742582470178604126e-02
2.320000000000000000e+02 7.091640472412109375e+01 -1.200339317321777344e+01 2.154375240206718445e-02 -7.848168723285198212e-03 4.108675289899110794e-03 -8.252006024122238159e-03
2.330000000000000000e+02 7.398219299316406250e+01 -1.167699050903320312e+01 1.872039213776588440e-02 -3.441387554630637169e-03 4.583701491355895996e-03 7.470793090760707855e-03
2.340000000000000000e+02 7.713558197021484375e+01 -1.148109340667724609e+01 8.565068244934082031e-03 2.455176785588264465e-03 3.306073602288961411e-03 1.323556620627641678e-02
2.350000000000000000e+02 7.894829559326171875e+01 -2.530357837677001953e+00 -5.415987689048051834e-03 4.870271775871515274e-03 -1.637147506698966026e-04 -2.020773850381374359e-02
2.360000000000000000e+02 7.894132995605468750e+01 4.657414913177490234e+00 -5.618777591735124588e-03 -3.861446678638458252e-01 -1.175290346145629883e-01 -9.874514490365982056e-02
2.370000000000000000e+02 7.892097473144531250e+01 1.263644313812255859e+01 1.318327384069561958e-03 -1.255815148353576660e+00 -3.763490319252014160e-01 -1.303710341453552246e-01
2.380000000000000000e+02 7.889453887939453125e+01 1.902307319641113281e+01 4.053258337080478668e-03 -1.909152269363403320e+00 -5.715296864509582520e-01 -9.704387187957763672e-02
2.390000000000000000e+02 7.885436248779296875e+01 2.779723548889160156e+01 2.146459650248289108e-03 -2.392540931701660156e+00 -7.171183824539184570e-01 -3.272317722439765930e-02
2.400000000000000000e+02 7.891638183593750000e+01 3.088409805297851562e+01 2.086007036268711090e-03 -2.476501226425170898e+00 -7.423245906829833984e-01 -1.746091991662979126e-02
2.410000000000000000e+02 7.948609161376953125e+01 3.878298568725585938e+01 -1.328551734331995249e-04 -2.649833440780639648e+00 -7.949898838996887207e-01 5.838716868311166763e-03
2.420000000000000000e+02 7.962355804443359375e+01 3.645632934570312500e+01 -1.035924162715673447e-02 -2.671624898910522461e+00 -8.045952320098876953e-01 5.212127231061458588e-03
2.430000000000000000e+02 7.392455291748046875e+01 3.893289947509765625e+01 1.596271432936191559e-02 -1.419330358505249023e+00 -4.210103154182434082e-01 -2.724339626729488373e-02
2.440000000000000000e+02 7.153520965576171875e+01 3.893911361694335938e+01 2.612608298659324646e-02 -9.052436351776123047e-01 -2.637352645397186279e-01 -6.370970513671636581e-03
2.450000000000000000e+02 7.338117218017578125e+01 3.190543174743652344e+01 4.996113106608390808e-02 -1.308573603630065918e+00 -3.775837123394012451e-01 -6.392344832420349121e-02
2.460000000000000000e+02 7.427549743652343750e+01 2.236835479736328125e+01 1.038326621055603027e-01 -1.317799329757690430e+00 -3.641899824142456055e-01 -2.954261004924774170e-01
2.470000000000000000e+02 7.351884460449218750e+01 1.606355094909667969e+01 9.773372858762741089e-02 -9.486706852912902832e-01 -2.552810907363891602e-01 -5.214641690254211426e-01
2.480000000000000000e+02 7.393308258056640625e+01 8.787753105163574219e+00 -4.870632663369178772e-02 -5.460177659988403320e-01 -1.784172207117080688e-01 -5.562514066696166992e-01
2.490000000000000000e+02 7.404060363769531250e+01 1.877646684646606445e+00 -1.585317552089691162e-01 -1.675030291080474854e-01 -9.781043231487274170e-02 -3.177938163280487061e-01
2.500000000000000000e+02 6.498239898681640625e+01 -3.744683265686035156e+00 -5.011693835258483887e-01 6.133696436882019043e-02 -1.319497227668762207e-01 1.060476675629615784e-01
2.510000000000000000e+02 6.628141784667968750e+01 -5.788351058959960938e+00 -1.183342114090919495e-01 1.635710895061492920e-02 -3.059312887489795685e-02 4.435347765684127808e-02
2.520000000000000000e+02 7.964561462402343750e+01 -4.179428577423095703e+00 -7.855782750993967056e-04 5.684348195791244507e-02 1.681737042963504791e-02 -2.046832814812660217e-03
2.530000000000000000e+02 5.279100799560546875e+01 2.151158004999160767e-01 -3.554860353469848633e+00 2.338990718126296997e-01 -9.962884187698364258e-01 5.388603806495666504e-01
2.540000000000000000e+02 5.358221817016601562e+01 1.255071461200714111e-01 -3.344943523406982422e+00 1.215542033314704895e-01 -9.670168161392211914e-01 3.797984123229980469e-01
2.550000000000000000e+02 6.486628723144531250e+01 -5.830160617828369141e+00 -3.413882851600646973e-02 2.644118107855319977e-02 -2.309294417500495911e-03 1.307987235486507416e-02
2.560000000000000000e+02 6.553884887695312500e+01 -7.261083126068115234e+00 6.139170844107866287e-03 7.176946103572845459e-02 2.337258867919445038e-02 -2.521340921521186829e-02
2.570000000000000000e+02 6.659729766845703125e+01 -9.394625663757324219e+00 1.388933230191469193e-02 4.712775722146034241e-02 1.830512657761573792e-02 -2.844071388244628906e-02
2.580000000000000000e+02 7.882825469970703125e+01 -7.364111900329589844e+00 -1.800847006961703300e-03 2.996256761252880096e-02 8.448516018688678741e-03 8.441722020506858826e-03
2.590000000000000000e+02 7.958970642089843750e+01 -1.139743423461914062e+01 5.884208367206156254e-04 7.066194433718919754e-03 2.296384423971176147e-03 3.049910534173250198e-03
2.600000000000000000e+02 5.780546569824218750e+01 4.082934188842773438e+01 -2.140005230903625488e-01 2.097775220870971680e+00 5.651323795318603516e-01 6.689039617776870728e-02
2.610000000000000000e+02 6.267828750610351562e+01 4.077386856079101562e+01 -5.449144169688224792e-02 9.716809988021850586e-01 2.751568555831909180e-01 3.657607734203338623e-02
2.620000000000000000e+02 6.526131439208984375e+01 2.859369277954101562e+01 3.247416317462921143e-01 2.409944087266921997e-01 1.697208136320114136e-01 -6.246366351842880249e-02
2.630000000000000000e+02 6.177252197265625000e+01 2.754519653320312500e+01 4.814627170562744141e-01 8.184652924537658691e-01 3.899784088134765625e-01 3.694380447268486023e-02
2.640000000000000000e+02 6.614147186279296875e+01 1.852626228332519531e+01 4.483757019042968750e-01 -1.667154282331466675e-01 8.449807763099670410e-02 -5.617079734802246094e-01
2.650000000000000000e+02 6.208964538574218750e+01 6.471467494964599609e+00 -5.020616054534912109e-01 1.337326020002365112e-01 -1.104986965656280518e-01 -9.846339821815490723e-01
2.660000000000000000e+02 6.182348251342773438e+01 -2.347256541252136230e-01 -1.450288891792297363e+00 1.129478514194488525e-01 -4.012022912502288818e-01 -2.216991484165191650e-01
2.670000000000000000e+02 6.384676361083984375e+01 -6.873072981834411621e-01 -1.083677411079406738e+00 1.740270704030990601e-01 -2.728950977325439453e-01 -2.162439674139022827e-01
2.680000000000000000e+02 5.313743591308593750e+01 4.078919219970703125e+01 -4.484603106975555420e-01 3.051266670227050781e+00 7.808418869972229004e-01 8.789914101362228394e-02
2.690000000000000000e+02 5.839764404296875000e+01 3.724003601074218750e+01 -7.212971150875091553e-02 1.904022693634033203e+00 5.495679378509521484e-01 1.769879311323165894e-01
2.700000000000000000e+02 5.209299850463867188e+01 3.222877120971679688e+01 2.256828695535659790e-01 3.135934114456176758e+00 1.008485078811645508e+00 4.247435033321380615e-01
2.710000000000000000e+02 5.437540817260742188e+01 2.573071098327636719e+01 8.071216940879821777e-01 2.416480302810668945e+00 9.670805931091308594e-01 3.350108563899993896e-01
2.720000000000000000e+02 5.330663681030273438e+01 1.541352081298828125e+01 1.282889723777770996e+00 1.784866333007812500e+00 9.203268289566040039e-01 1.341536492109298706e-01
2.730000000000000000e+02 5.626812744140625000e+01 7.589788436889648438e+00 -2.835150361061096191e-01 3.692629635334014893e-01 2.572437375783920288e-02 -8.976211547851562500e-01
2.740000000000000000e+02 5.600194168090820312e+01 -4.696686565876007080e-01 -3.086738586425781250e+00 -8.004713058471679688e-02 -9.500357508659362793e-01 2.250512838363647461e-01
2.750000000000000000e+02 5.620892333984375000e+01 1.269854754209518433e-01 -2.866690158843994141e+00 -3.583271056413650513e-02 -8.707568645477294922e-01 7.165124267339706421e-02
2.760000000000000000e+02 5.071423721313476562e+01 3.716627120971679688e+01 -3.537022173404693604e-01 3.504488468170166016e+00 9.452359080314636230e-01 3.146032392978668213e-01
2.770000000000000000e+02 4.751300048828125000e+01 3.086358070373535156e+01 4.426131248474121094e-01 4.295843601226806641e+00 1.421536922454833984e+00 3.271212875843048096e-01
2.780000000000000000e+02 4.733258819580078125e+01 2.540075111389160156e+01 7.476517558097839355e-01 4.837750434875488281e+00 1.675620675086975098e+00 2.250598669052124023e-01
2.790000000000000000e+02 4.657639312744140625e+01 1.924201011657714844e+01 8.630819916725158691e-01 5.476986408233642578e+00 1.902020573616027832e+00 8.949790596961975098e-01
2.800000000000000000e+02 4.699534225463867188e+01 1.064282703399658203e+01 1.524889469146728516e+00 3.616311550140380859e+00 1.542360305786132812e+00 1.325917243957519531e+00
2.810000000000000000e+02 4.664255905151367188e+01 1.233856010437011719e+01 1.576895952224731445e+00 4.428092002868652344e+00 1.801496386528015137e+00 1.455725789070129395e+00
2.820000000000000000e+02 4.205766677856445312e+01 4.111053085327148438e+01 -7.905094623565673828e-01 3.492093801498413086e+00 8.104753494262695312e-01 -6.637292355298995972e-02
2.830000000000000000e+02 4.377648925781250000e+01 3.726255035400390625e+01 -6.450253725051879883e-01 4.085449695587158203e+00 1.032127261161804199e+00 -1.069677807390689850e-02
2.840000000000000000e+02 3.910607528686523438e+01 3.311459732055664062e+01 1.313170552253723145e+00 2.790972709655761719e+00 1.231243014335632324e+00 -1.825395107269287109e+00
2.850000000000000000e+02 4.010620498657226562e+01 3.175934982299804688e+01 1.521045327186584473e+00 5.281646251678466797e+00 2.040807485580444336e+00 -2.413308620452880859e+00
2.860000000000000000e+02 4.105065917968750000e+01 2.945061302185058594e+01 8.670963048934936523e-01 7.626934051513671875e+00 2.548208951950073242e+00 -2.160582304000854492e+00
2.870000000000000000e+02 3.710089492797851562e+01 3.459191513061523438e+01 6.050178408622741699e-01 7.108948826789855957e-01 3.947738111019134521e-01 -6.179104447364807129e-01
2.880000000000000000e+02 1.438280940055847168e+00 3.780135726928710938e+01 -6.436925468733534217e-05 5.429690936580300331e-04 1.435799495084211230e-04 -8.943616558099165559e-05
2.890000000000000000e+02 9.720610618591308594e+00 3.521081542968750000e+01 -7.949184509925544262e-05 -4.237802058923989534e-04 -1.509816065663471818e-04 -6.192612927407026291e-04
2.900000000000000000e+02 1.298832225799560547e+01 3.279908370971679688e+01 9.513282566331326962e-04 -1.463377993786707520e-04 2.414971386315301061e-04 7.641534466529265046e-05
2.910000000000000000e+02 1.668795204162597656e+01 2.820824432373046875e+01 -3.948212834075093269e-04 2.169838844565674663e-04 -5.335122114047408104e-05 3.447326016612350941e-04
2.920000000000000000e+02 1.700056648254394531e+01 2.897258377075195312e+01 7.024334045127034187e-04 4.449149419087916613e-04 3.442045126575976610e-04 1.924336902447976172e-05
2.930000000000000000e+02 1.911905860900878906e+01 3.259155654907226562e+01 8.266053628176450729e-04 7.103869575075805187e-04 4.610976902768015862e-04 1.365827047266066074e-03
2.940000000000000000e+02 1.893780708312988281e+01 3.401258468627929688e+01 9.963946649804711342e-04 -4.248518089298158884e-04 1.714628597255796194e-04 7.340626907534897327e-04
2.950000000000000000e+02 2.202889633178710938e+01 3.675784301757812500e+01 -3.390269353985786438e-03 -2.177549991756677628e-03 -1.670345896854996681e-03 -3.068628720939159393e-04
2.960000000000000000e+02 2.086693382263183594e+01 3.765954208374023438e+01 -7.076141191646456718e-04 2.921109087765216827e-03 6.640484789386391640e-04 2.185058314353227615e-03
2.970000000000000000e+02 1.906766700744628906e+01 3.845128250122070312e+01 -3.245823318138718605e-03 -3.196203848347067833e-03 -1.932608196511864662e-03 6.897513521835207939e-04
2.980000000000000000e+02 4.253416955471038818e-01 3.477753448486328125e+01 1.654849766055122018e-04 4.328109789639711380e-04 1.794887939468026161e-04 -6.420769204851239920e-05
2.990000000000000000e+02 1.182297468185424805e+00 3.059789657592773438e+01 6.719560042256489396e-05 1.510333968326449394e-04 6.546869553858414292e-05 -1.011320418911054730e-04
3.000000000000000000e+02 1.329385089874267578e+01 2.252039337158203125e+01 4.264456583769060671e-05 5.852251706528477371e-05 3.035012559848837554e-05 2.762223084573633969e-05
3.010000000000000000e+02 1.545351600646972656e+01 2.182654762268066406e+01 -2.894140779972076416e-04 -1.822494959924370050e-05 -9.229170973412692547e-05 -1.272849294764455408e-05
3.020000000000000000e+02 1.564927101135253906e+01 2.509534835815429688e+01 -3.269981534685939550e-04 2.538031549192965031e-05 -9.048535139299929142e-05 8.328561671078205109e-05
3.030000000000000000e+02 1.584938907623291016e+01 2.589655685424804688e+01 3.953042905777692795e-04 9.644701640354469419e-05 1.475253957323729992e-04 -2.755078094196505845e-05
3.040000000000000000e+02 3.777111768722534180e-01 2.834359741210937500e+01 4.349173468654043972e-05 7.456371531588956714e-05 3.541663318173959851e-05 -3.352392741362564266e-05
3.050000000000000000e+02 1.090569376945495605e+00 2.334812164306640625e+01 3.928329169866628945e-05 -1.717331656436726917e-06 1.126978804677492008e-05 3.807389020948903635e-06
3.060000000000000000e+02 1.312765502929687500e+01 1.845411491394042969e+01 1.123347756220027804e-04 3.841332363663241267e-05 4.522443123278208077e-05 -1.099261135095730424e-05
3.070000000000000000e+02 1.759240913391113281e+01 9.140697479248046875e+00 2.737717477430123836e-05 3.298117690064827912e-06 9.202587534673511982e-06 1.131686258304398507e-05
3.080000000000000000e+02 1.579727840423583984e+01 1.695780754089355469e+01 -1.466036919737234712e-04 -1.186768804473103955e-05 -4.754141627927310765e-05 -2.596944068500306457e-05
3.090000000000000000e+02 1.565086555480957031e+01 1.776039123535156250e+01 1.592442131368443370e-04 -1.261929173779208213e-05 4.398747478262521327e-05 2.200960079790093005e-05
3.100000000000000000e+02 3.612504601478576660e-01 2.030309104919433594e+01 -4.790935054188594222e-05 -1.948871067725121975e-05 -2.021941872953902930e-05 9.811014024307951331e-06
3.110000000000000000e+02 1.076790094375610352e+00 1.611242675781250000e+01 -3.542096237652003765e-05 -1.180590697913430631e-05 -1.416806117049418390e-05 1.128437270381255075e-05
3.120000000000000000e+02 8.851928710937500000e+00 7.225844383239746094e+00 7.638498573214747012e-06 1.853883532021427527e-06 2.847714540621382184e-06 -2.196537707277457230e-06
3.130000000000000000e+02 1.631779670715332031e+01 3.021640777587890625e+00 -6.092870989959919825e-06 -3.233054030715720728e-06 -2.797777369778486900e-06 1.899913740999181755e-06
3.140000000000000000e+02 1.768666076660156250e+01 1.078507137298583984e+01 -4.281450674170628190e-05 -3.321887334095663391e-06 -1.384091774525586516e-05 -9.853279152594041079e-06
3.150000000000000000e+02 3.589746356010437012e-01 1.467508220672607422e+01 3.496884164633229375e-05 -3.484642093098955229e-06 9.445260729989968240e-06 -9.201537977787666023e-06
3.160000000000000000e+02 1.056495904922485352e+00 8.893632888793945312e+00 1.336389141215477139e-05 1.076517150977451820e-06 4.332122898631496355e-06 -4.456632268556859344e-06
3.170000000000000000e+02 9.719559669494628906e+00 1.813251018524169922e+00 -1.403826217938330956e-06 2.640671709741582163e-06 3.710536589096591342e-07 -1.511121240582724568e-06
3.180000000000000000e+02 1.127268028259277344e+01 1.642613410949707031e+00 -2.469652145009604283e-06 2.017130782405729406e-06 -1.357563661485983175e-07 -9.513635745861392934e-07
3.190000000000000000e+02 1.426694679260253906e+01 1.216094374656677246e+00 -2.214885626017348841e-06 7.174559186751139350e-07 -4.492289349400380161e-07 7.912035471235867590e-08
3.200000000000000000e+02 1.775483703613281250e+01 1.563532590866088867e+00 -2.270643335577915423e-06 -2.786870027193799615e-06 -1.517253963356779423e-06 4.942644409311469644e-07
3.210000000000000000e+02 1.710474205017089844e+01 9.341650605201721191e-01 -1.766905711519939359e-06 -1.408634716426604427e-06 -9.526621624900144525e-07 4.834459446101391222e-07
3.220000000000000000e+02 2.113786125183105469e+01 3.451224327087402344e+00 -1.069167592504527420e-05 -2.109264869432081468e-06 -3.840282261080574244e-06 -4.641337909561116248e-06
3.230000000000000000e+02 2.244003295898437500e+01 1.444593429565429688e+00 4.497005193115910515e-06 1.129531142396444920e-06 1.687961002971860580e-06 2.248525561299175024e-06
3.240000000000000000e+02 4.964048862457275391e+00 2.571184158325195312e+00 -7.928917398203338962e-07 -1.698271262284833938e-06 -7.473489063158922363e-07 3.194727241861983202e-06
3.250000000000000000e+02 3.400030136108398438e-01 6.658555507659912109e+00 1.078229433915112168e-05 3.015114771187654696e-07 3.325141960885957815e-06 -2.740006948442896828e-06
3.260000000000000000e+02 1.047544121742248535e+00 8.100643157958984375e+00 -1.163093384093372151e-05 -2.960738129331730306e-06 -4.377501682029105723e-06 4.713525868282886222e-06
3.270000000000000000e+02 2.451232337951660156e+01 3.654785537719726562e+01 -1.652179285883903503e-02 3.486213507130742073e-03 -3.910673782229423523e-03 8.788196137174963951e-04
3.280000000000000000e+02 2.688064765930175781e+01 3.807896804809570312e+01 -4.853677377104759216e-02 -9.554370306432247162e-03 -1.742734387516975403e-02 3.847143054008483887e-02
3.290000000000000000e+02 3.088244819641113281e+01 3.844763946533203125e+01 -4.876015707850456238e-02 -4.169318079948425293e-02 -2.713600173592567444e-02 1.028049886226654053e-01
3.300000000000000000e+02 3.261479949951171875e+01 3.667504501342773438e+01 -2.857345342636108398e-01 1.207287386059761047e-01 -4.950174316763877869e-02 6.207287311553955078e-02
3.310000000000000000e+02 4.139786529541015625e+01 2.458908653259277344e+01 1.495867595076560974e-02 7.652005672454833984e+00 2.300089359283447266e+00 -3.809007629752159119e-02
3.320000000000000000e+02 4.125188446044921875e+01 1.577053165435791016e+01 8.485189080238342285e-02 1.021229839324951172e+01 3.089145183563232422e+00 8.441066145896911621e-01
3.330000000000000000e+02 3.412341308593750000e+01 -1.491031527519226074e+00 -2.878837108612060547e+00 -3.348248451948165894e-02 -8.736959099769592285e-01 -9.390887618064880371e-01
3.340000000000000000e+02 3.200366592407226562e+01 -1.090738892555236816e+00 -5.972650051116943359e+00 -1.313167214393615723e+00 -2.185745000839233398e+00 -2.530049800872802734e+00
3.350000000000000000e+02 2.722597312927246094e+01 -1.883846044540405273e+00 -3.103378057479858398e+00 -4.636270180344581604e-02 -9.449222683906555176e-01 -7.658312469720840454e-02
3.360000000000000000e+02 2.569063186645507812e+01 -1.748274803161621094e+00 -2.034851551055908203e+00 -1.965367347002029419e-01 -6.694164872169494629e-01 3.161371350288391113e-01
3.370000000000000000e+02 2.439046478271484375e+01 -1.907745957374572754e+00 -1.253373503684997559e+00 1.261119097471237183e-01 -3.381784856319427490e-01 -5.655001383274793625e-03
3.380000000000000000e+02 2.507744407653808594e+01 -1.732100963592529297e+00 -1.444254636764526367e+00 -5.527978762984275818e-02 -4.498603343963623047e-01 1.634856760501861572e-01
3.390000000000000000e+02 2.105846786499023438e+01 -3.285335302352905273e+00 -8.537322282791137695e-01 -7.604083511978387833e-03 -2.584008872509002686e-01 -9.474926441907882690e-02
3.400000000000000000e+02 2.188803672790527344e+01 -1.520351886749267578e+01 7.347172498703002930e-01 -2.170272171497344971e-01 1.553070098161697388e-01 4.515623301267623901e-02
3.410000000000000000e+02 2.085102844238281250e+01 -1.888397026062011719e+01 6.316549777984619141e-01 -1.667211391031742096e-02 1.844948679208755493e-01 -7.019454240798950195e-02
3.420000000000000000e+02 2.318162155151367188e+01 -1.892281723022460938e+01 6.683968901634216309e-01 -9.952993132174015045e-03 1.975331753492355347e-01 4.654584825038909912e-02
3.430000000000000000e+02 2.396117591857910156e+01 -1.887390518188476562e+01 6.377701163291931152e-01 -3.577899653464555740e-03 1.902576684951782227e-01 7.120677083730697632e-02
3.440000000000000000e+02 3.016905784606933594e+01 -1.780183029174804688e+01 -9.194063544273376465e-01 3.491303324699401855e-02 -2.653479874134063721e-01 1.349596232175827026e-01
3.450000000000000000e+02 3.217280197143554688e+01 -1.794039726257324219e+01 -2.259207725524902344e+00 -4.148473143577575684e-01 -8.022165298461914062e-01 8.954151868820190430e-01
3.460000000000000000e+02 2.879116821289062500e+01 -1.653563880920410156e+01 1.113024726510047913e-01 -4.909640178084373474e-02 1.866182126104831696e-02 6.760461330413818359e-01
3.470000000000000000e+02 2.830988311767578125e+01 -1.421249008178710938e+01 9.596576094627380371e-01 -3.133123815059661865e-01 1.939035654067993164e-01 6.006614565849304199e-01
3.480000000000000000e+02 2.921669578552246094e+01 -1.458380508422851562e+01 9.489820599555969238e-01 -2.591085731983184814e-01 2.069620639085769653e-01 6.895593404769897461e-01
3.490000000000000000e+02 2.883929252624511719e+01 -1.830860614776611328e+00 -4.330686092376708984e+00 -2.146473824977874756e-01 -1.363600015640258789e+00 -6.561602950096130371e-01
3.500000000000000000e+02 2.102301597595214844e+01 -2.603745937347412109e+00 -9.318763017654418945e-01 -1.299686636775732040e-02 -2.834619581699371338e-01 -7.104005664587020874e-02
3.510000000000000000e+02 2.020597839355468750e+01 -2.687855482101440430e+00 -9.031596183776855469e-01 -3.476087003946304321e-02 -2.813761532306671143e-01 -7.055435329675674438e-02
3.520000000000000000e+02 1.538432312011718750e+01 -2.623668670654296875e+00 -7.421644926071166992e-01 -1.323610451072454453e-02 -2.266201823949813843e-01 -4.229229688644409180e-02
3.530000000000000000e+02 1.160366439819335938e+01 -2.134624481201171875e+00 -5.438463687896728516e-01 3.698933869600296021e-02 -1.520571112632751465e-01 -6.894358247518539429e-02
3.540000000000000000e+02 1.148135375976562500e+01 -2.824131965637207031e+00 -5.004320740699768066e-01 5.062973126769065857e-02 -1.349406987428665161e-01 -1.108017638325691223e-01
3.550000000000000000e+02 3.687119960784912109e+00 -1.891684532165527344e+00 -1.031985655426979065e-01 -2.329992502927780151e-02 -3.794954717159271240e-02 -9.287771582603454590e-02
3.560000000000000000e+02 1.057870149612426758e+00 -1.075667858123779297e+01 7.611331529915332794e-04 -7.477062940597534180e-01 -2.240835428237915039e-01 -1.389172971248626709e-01
3.570000000000000000e+02 7.444627761840820312e+00 -1.876288223266601562e+01 4.513432681560516357e-01 1.188088059425354004e+00 4.918293952941894531e-01 6.475852727890014648e-01
3.580000000000000000e+02 6.277455806732177734e+00 -2.185422515869140625e+01 1.058516427874565125e-01 7.997317910194396973e-01 2.716750204563140869e-01 2.598628699779510498e-01
3.590000000000000000e+02 5.467635154724121094e+00 -2.171494483947753906e+01 1.579836606979370117e-01 3.810914754867553711e-01 1.617225408554077148e-01 3.231973648071289062e-01
3.600000000000000000e+02 6.780834674835205078e+00 -2.025458145141601562e+01 2.323378622531890869e-01 1.067319512367248535e+00 3.898972272872924805e-01 4.400344491004943848e-01
3.610000000000000000e+02 3.592435717582702637e-01 -1.637226867675781250e+01 8.368180133402347565e-03 -1.507115721702575684e+00 -4.496242702007293701e-01 -1.782016083598136902e-02
3.620000000000000000e+02 3.499794900417327881e-01 -1.798441696166992188e+01 7.862816564738750458e-03 -1.539994001388549805e+00 -4.596393704414367676e-01 4.174734000116586685e-03
3.630000000000000000e+02 6.139807224273681641e+00 -2.353407287597656250e+01 1.399688236415386200e-02 3.506144583225250244e-01 1.093834042549133301e-01 1.185236424207687378e-01
3.640000000000000000e+02 6.307454586029052734e+00 -2.600368309020996094e+01 -7.782192528247833252e-02 -4.039009213447570801e-01 -1.445168554782867432e-01 1.889902502298355103e-01
3.650000000000000000e+02 3.665238022804260254e-01 -2.840445709228515625e+01 -3.298711031675338745e-03 8.087011054158210754e-03 1.436489867046475410e-03 3.759947791695594788e-02
3.660000000000000000e+02 8.161606788635253906e+00 -2.877182579040527344e+01 -3.846987783908843994e-01 -3.848691880702972412e-01 -2.308703958988189697e-01 3.743926286697387695e-01
3.670000000000000000e+02 6.498054981231689453e+00 -2.687193107604980469e+01 -2.660451531410217285e-01 -5.913993716239929199e-01 -2.572333514690399170e-01 3.220706582069396973e-01
3.680000000000000000e+02 3.765208423137664795e-01 -3.001649856567382812e+01 -1.878814538940787315e-03 1.260116249322891235e-01 3.723984211683273315e-02 1.828230358660221100e-02
3.690000000000000000e+02 9.366844177246093750e+00 -2.985788726806640625e+01 -5.886293053627014160e-01 -3.637932538986206055e-01 -2.857267856597900391e-01 3.971044421195983887e-01
3.700000000000000000e+02 8.746850967407226562e+00 -2.932723999023437500e+01 -4.338460564613342285e-01 -3.815476298332214355e-01 -2.446181029081344604e-01 3.936775624752044678e-01
3.710000000000000000e+02 1.007503986358642578e+01 -3.027833557128906250e+01 -6.689625978469848633e-01 -2.167399227619171143e-01 -2.657107710838317871e-01 3.103984296321868896e-01
3.720000000000000000e+02 4.405651688575744629e-01 -3.647702407836914062e+01 2.154749818146228790e-03 1.415290832519531250e-01 4.310515150427818298e-02 -5.980993621051311493e-03
3.730000000000000000e+02 1.254656791687011719e+00 -3.485741043090820312e+01 -3.848813008517026901e-03 9.922078996896743774e-02 2.861159481108188629e-02 -1.110852230340242386e-02
3.740000000000000000e+02 4.671150684356689453e+00 -3.824072647094726562e+01 6.650324445217847824e-03 -8.379530161619186401e-02 -2.314349263906478882e-02 -1.600192859768867493e-02
3.750000000000000000e+02 1.132064819335937500e+01 -3.616622924804687500e+01 -1.027057543396949768e-01 -1.886469870805740356e-01 -8.740582317113876343e-02 4.653531312942504883e-02
3.760000000000000000e+02 1.401351547241210938e+01 -3.121555900573730469e+01 -4.082618355751037598e-01 -1.961479522287845612e-02 -1.283629834651947021e-01 7.606139034032821655e-02
3.770000000000000000e+02 9.752953529357910156e+00 -3.092488670349121094e+01 -4.290032982826232910e-01 -2.809970378875732422e-01 -2.130000889301300049e-01 2.334348559379577637e-01
3.780000000000000000e+02 1.798154067993164062e+01 -3.800539779663085938e+01 -5.841402336955070496e-02 -6.291992962360382080e-02 -3.640018776059150696e-02 -1.637693867087364197e-02
3.790000000000000000e+02 1.656893157958984375e+01 -3.615257644653320312e+01 -1.615002304315567017e-01 -8.274967968463897705e-02 -7.327497005462646484e-02 -1.984898373484611511e-02
3.800000000000000000e+02 1.885398292541503906e+01 -3.163603210449218750e+01 -5.172433257102966309e-01 -5.556047428399324417e-03 -1.568398177623748779e-01 -2.817800641059875488e-02
3.810000000000000000e+02 1.723176383972167969e+01 -3.167671394348144531e+01 -5.030121207237243652e-01 -1.126096118241548538e-02 -1.542819291353225708e-01 1.449618861079216003e-02
3.820000000000000000e+02 2.213199806213378906e+01 -3.706690597534179688e+01 -5.749697238206863403e-02 9.845604002475738525e-02 1.228771917521953583e-02 2.670251578092575073e-02
3.830000000000000000e+02 2.939858627319335938e+01 -3.080628395080566406e+01 2.943544089794158936e-01 3.069638609886169434e-01 1.803954839706420898e-01 4.075303375720977783e-01
3.840000000000000000e+02 2.540441703796386719e+01 -3.129405403137207031e+01 -6.317532062530517578e-01 1.454473566263914108e-02 -1.851625293493270874e-01 -5.012775957584381104e-02
3.850000000000000000e+02 4.425948715209960938e+01 -3.927540969848632812e+01 -6.361686587333679199e-01 2.554335832595825195e+00 5.754501223564147949e-01 -2.210586667060852051e-01
3.860000000000000000e+02 4.557585525512695312e+01 -3.683890533447265625e+01 -4.419290125370025635e-01 2.292660713195800781e+00 5.552195310592651367e-01 -4.099841713905334473e-01
3.870000000000000000e+02 4.207871246337890625e+01 -2.781017494201660156e+01 2.013341933488845825e-01 3.677223205566406250e+00 1.163567304611206055e+00 -7.053341865539550781e-01
3.880000000000000000e+02 4.800899505615234375e+01 -4.080710220336914062e+01 -4.009406566619873047e-01 1.890317916870117188e+00 4.468131661415100098e-01 -1.280920654535293579e-01
3.890000000000000000e+02 5.088119506835937500e+01 -3.707803726196289062e+01 -1.457343697547912598e-01 1.264458417892456055e+00 3.356172144412994385e-01 -3.033415079116821289e-01
3.900000000000000000e+02 5.177608871459960938e+01 -2.837660980224609375e+01 1.965998858213424683e-01 4.625569880008697510e-01 1.977470666170120239e-01 -3.182375133037567139e-01
3.910000000000000000e+02 5.856022644042968750e+01 -3.829633331298828125e+01 9.524960070848464966e-02 1.783964633941650391e-01 8.209381997585296631e-02 -2.699841000139713287e-02
3.920000000000000000e+02 5.774040222167968750e+01 -3.669898223876953125e+01 5.008534714579582214e-02 2.055315822362899780e-01 7.668507844209671021e-02 -5.813540145754814148e-02
3.930000000000000000e+02 6.800693511962890625e+01 -3.649224090576171875e+01 8.656830526888370514e-03 2.718712130445055664e-05 2.605205401778221130e-03 4.252246767282485962e-02
3.940000000000000000e+02 7.858021545410156250e+01 -3.785150527954101562e+01 -6.375517841661348939e-05 -2.125189825892448425e-02 -6.394695956259965897e-03 4.519803915172815323e-03
3.950000000000000000e+02 7.959497070312500000e+01 -3.408433532714843750e+01 -2.555255778133869171e-04 -1.123665273189544678e-02 -3.447653492912650108e-03 1.401679939590394497e-03
3.960000000000000000e+02 7.885388183593750000e+01 -3.070615196228027344e+01 -1.504665415268391371e-04 -2.811477286741137505e-03 -8.885831339284777641e-04 1.955614192411303520e-03
3.970000000000000000e+02 6.652583312988281250e+01 -3.141086387634277344e+01 -5.141420662403106689e-02 7.787935435771942139e-03 -1.308788172900676727e-02 2.838552463799715042e-04
3.980000000000000000e+02 6.890329742431640625e+01 -3.553461074829101562e+01 -5.363814067095518112e-03 -3.449069045018404722e-04 -1.712616300210356712e-03 3.470361605286598206e-02
3.990000000000000000e+02 7.500939941406250000e+01 -1.532857704162597656e+01 7.997629290912300348e-05 -5.069562030257657170e-05 8.784200872469227761e-06 -2.293541547260247171e-05
4.000000000000000000e+02 1.013075065612792969e+01 -1.657922363281250000e+01 1.510498166084289551e+00 1.562853306531906128e-01 5.000350475311279297e-01 4.149895310401916504e-01
4.010000000000000000e+02 1.196384716033935547e+01 -1.481027412414550781e+01 1.072853803634643555e+00 2.994927763938903809e-01 4.117039740085601807e-01 -9.503988549113273621e-03
4.020000000000000000e+02 3.472559452056884766e-01 -9.149193763732910156e+00 -1.085503608919680119e-03 -6.421926021575927734e-01 -1.929834336042404175e-01 -4.641222953796386719e-02
4.030000000000000000e+02 1.563348770141601562e+01 -1.717667770385742188e+01 1.098949790000915527e+00 2.015993595123291016e-01 3.901647627353668213e-01 -4.314572513103485107e-01
4.040000000000000000e+02 1.728903388977050781e+01 -1.711467933654785156e+01 8.705443143844604492e-01 1.582065597176551819e-02 2.659094929695129395e-01 -2.525169849395751953e-01
4.050000000000000000e+02 3.550976943969726562e+01 -2.035905838012695312e+01 1.682219952344894409e-01 6.275416374206542969e+00 1.933091640472412109e+00 2.358099073171615601e-01
4.060000000000000000e+02 3.508499526977539062e+01 -2.253468513488769531e+01 2.756443247199058533e-02 8.182026863098144531e+00 2.462877511978149414e+00 3.112470209598541260e-01
4.070000000000000000e+02 3.544499206542968750e+01 -2.520589828491210938e+01 1.550032019615173340e+00 8.040011405944824219e+00 2.877012968063354492e+00 1.548292517662048340e+00
4.080000000000000000e+02 3.484742355346679688e+01 -2.491807365417480469e+01 1.326827526092529297e+00 1.042843437194824219e+01 3.526578664779663086e+00 2.607255697250366211e+00
4.090000000000000000e+02 8.292232513427734375e+00 -1.742726516723632812e+01 1.178666472434997559e+00 9.089566469192504883e-01 6.262869834899902344e-01 8.160486221313476562e-01
4.100000000000000000e+02 8.590870857238769531e+00 -1.664886856079101562e+01 1.161786317825317383e+00 6.585367321968078613e-01 5.460969209671020508e-01 5.274500846862792969e-01
4.110000000000000000e+02 1.091247177124023438e+01 -1.641663360595703125e+01 1.574195742607116699e+00 1.261908710002899170e-01 5.101159811019897461e-01 3.280695974826812744e-01
4.120000000000000000e+02 4.496894836425781250e+01 -2.144432640075683594e+01 8.156960010528564453e-01 2.295753479003906250e+00 9.334348440170288086e-01 -1.366516947746276855e+00
4.130000000000000000e+02 4.667484664916992188e+01 -2.202489280700683594e+01 7.041521668434143066e-01 9.559595584869384766e-01 4.980335235595703125e-01 -8.136031627655029297e-01
4.140000000000000000e+02 1.252029895782470703e+01 -1.627721786499023438e+01 1.988237619400024414e+00 1.383166462182998657e-01 6.379662752151489258e-01 -8.472676575183868408e-02
4.150000000000000000e+02 1.488983249664306641e+01 -1.686878967285156250e+01 1.320479989051818848e+00 1.812011748552322388e-01 4.505043625831604004e-01 -4.440062940120697021e-01
4.160000000000000000e+02 1.715346145629882812e+01 -1.470779132843017578e+01 8.254678845405578613e-01 -5.021893233060836792e-02 2.325746864080429077e-01 -7.266823947429656982e-02
4.170000000000000000e+02 1.617253303527832031e+01 -2.689555644989013672e+00 -7.750717997550964355e-01 -2.151237241923809052e-02 -2.389752566814422607e-01 -4.381424561142921448e-02
4.180000000000000000e+02 1.078003311157226562e+01 -1.434003734588623047e+01 8.018069863319396973e-01 3.500337004661560059e-01 3.455522060394287109e-01 1.139062549918889999e-02
4.190000000000000000e+02 1.539517879486083984e+01 -1.490682029724121094e+01 9.663192033767700195e-01 8.645504713058471680e-02 3.158322572708129883e-01 -8.327308297157287598e-02
4.200000000000000000e+02 4.022403717041015625e+01 -9.794272422790527344e+00 7.624602913856506348e-01 1.224726486206054688e+01 3.902917623519897461e+00 5.452947020530700684e-01
4.210000000000000000e+02 3.481491470336914062e+01 5.430079698562622070e-01 -3.639046192169189453e+00 -1.370770812034606934e+00 -1.502945065498352051e+00 -2.209588766098022461e+00
4.220000000000000000e+02 4.205789184570312500e+01 -5.033558845520019531e+00 7.173831462860107422e-01 1.410381412506103516e+01 4.446359157562255859e+00 3.268075466156005859e+00
4.230000000000000000e+02 7.964775085449218750e+01 3.006635904312133789e+00 -1.124835689552128315e-03 -2.277740836143493652e-01 -6.866967678070068359e-02 -2.760906331241130829e-02
4.240000000000000000e+02 7.404685211181640625e+01 2.654094696044921875e+00 -1.541334092617034912e-01 -1.986595392227172852e-01 -1.058378815650939941e-01 -3.519864976406097412e-01
4.250000000000000000e+02 3.998302841186523438e+01 8.641899108886718750e+00 1.335169196128845215e+00 1.378725051879882812e+01 4.536725997924804688e+00 3.984938621520996094e+00
4.260000000000000000e+02 7.964347076416015625e+01 9.393074035644531250e+00 2.300769265275448561e-04 -9.135183095932006836e-01 -2.739864587783813477e-01 -4.330799728631973267e-02
4.270000000000000000e+02 7.388364410400390625e+01 9.544720649719238281e+00 -3.148970007896423340e-02 -5.925777554512023926e-01 -1.872202455997467041e-01 -5.672538280487060547e-01
4.280000000000000000e+02 6.513821411132812500e+01 1.088380432128906250e+01 7.554800063371658325e-02 -7.299116253852844238e-02 7.670500199310481548e-04 -9.176987409591674805e-01
4.290000000000000000e+02 5.434230422973632812e+01 8.049701690673828125e+00 -2.434150688350200653e-02 5.337132215499877930e-01 1.528115123510360718e-01 -7.531312704086303711e-01
4.300000000000000000e+02 7.963599395751953125e+01 1.657689285278320312e+01 5.068406608188524842e-05 -1.797621726989746094e+00 -5.392712950706481934e-01 -3.654149547219276428e-02
4.310000000000000000e+02 7.347319030761718750e+01 1.691410827636718750e+01 1.086866110563278198e-01 -9.854283928871154785e-01 -2.630225419998168945e-01 -4.997030496597290039e-01
4.320000000000000000e+02 6.611513519287109375e+01 1.706542587280273438e+01 4.162260293960571289e-01 -1.765894591808319092e-01 7.189096510410308838e-02 -6.411918401718139648e-01
4.330000000000000000e+02 5.376293945312500000e+01 1.765605163574218750e+01 1.228708982467651367e+00 1.971939206123352051e+00 9.601944684982299805e-01 1.944855749607086182e-01
4.340000000000000000e+02 7.962178802490234375e+01 2.296389389038085938e+01 1.619879913050681353e-04 -2.352639913558959961e+00 -7.057433724403381348e-01 -2.004892192780971527e-02
4.350000000000000000e+02 6.539933776855468750e+01 2.447922515869140625e+01 4.365937113761901855e-01 4.780764505267143250e-02 1.453204005956649780e-01 -2.245955318212509155e-01
4.360000000000000000e+02 5.295283889770507812e+01 2.710229301452636719e+01 7.329752445220947266e-01 2.866375923156738281e+00 1.079805374145507812e+00 4.063589274883270264e-01
4.370000000000000000e+02 4.670178222656250000e+01 2.289587974548339844e+01 6.613658070564270020e-01 5.332344055175781250e+00 1.798112869262695312e+00 4.076538980007171631e-01
4.380000000000000000e+02 7.963882446289062500e+01 3.012028503417968750e+01 -1.007147715426981449e-03 -2.629508018493652344e+00 -7.891545891761779785e-01 -5.427830852568149567e-03
4.390000000000000000e+02 7.271664428710937500e+01 3.098104095458984375e+01 7.369715720415115356e-02 -1.164489507675170898e+00 -3.272376954555511475e-01 -7.219990342855453491e-02
4.400000000000000000e+02 6.283266830444335938e+01 3.081874465942382812e+01 3.051567077636718750e-01 7.939927577972412109e-01 3.297448456287384033e-01 9.431739151477813721e-02
4.410000000000000000e+02 5.710928726196289062e+01 3.217884445190429688e+01 2.406860589981079102e-01 2.008860588073730469e+00 6.748639941215515137e-01 2.907132804393768311e-01
4.420000000000000000e+02 4.662549591064453125e+01 3.232123184204101562e+01 2.090925276279449463e-01 4.421414852142333984e+00 1.389152169227600098e+00 2.924477756023406982e-01
4.430000000000000000e+02 1.275855255126953125e+01 3.170511817932128906e+01 2.335844328626990318e-04 -2.572982339188456535e-04 -7.114139407349284738e-06 -1.836098963394761086e-04
4.440000000000000000e+02 1.312668609619140625e+01 2.333866500854492188e+01 -4.520916991168633103e-05 -1.695528917480260134e-04 -6.442861922550946474e-05 1.393290131090907380e-05
4.450000000000000000e+02 1.412266063690185547e+01 1.750217628479003906e+01 4.460033596842549741e-05 -2.205677810707129538e-05 6.763067631254671142e-06 4.610691030393354595e-05
4.460000000000000000e+02 1.318487548828125000e+01 1.092896938323974609e+01 -3.566693703760392964e-05 -1.404931208526249975e-05 -1.491487455496098846e-05 2.561682066470893915e-08
4.470000000000000000e+02 6.711500549316406250e+01 -2.814985275268554688e+01 -5.636716727167367935e-03 -3.023585770279169083e-03 -2.598090795800089836e-03 -5.141852889209985733e-03
4.480000000000000000e+02 6.853189849853515625e+01 -1.698875808715820312e+01 8.013165643205866218e-05 9.792153286980465055e-05 5.341595897334627807e-05 2.849460179277230054e-05
4.490000000000000000e+02 6.928434753417968750e+01 -2.003921890258789062e+01 -1.091873782570473850e-04 3.483208711259067059e-04 7.174004713306203485e-05 1.408269454259425402e-04
4.500000000000000000e+02 7.069042968750000000e+01 -1.581325912475585938e+01 4.599749445333145559e-05 -2.939467549367691390e-06 1.291740863962331787e-05 5.191133823245763779e-05
4.510000000000000000e+02 7.023734283447265625e+01 -1.670438766479492188e+01 1.778900332283228636e-05 1.585529753356240690e-05 1.009329025691840798e-05 7.226330490084365010e-05
4.520000000000000000e+02 6.856446838378906250e+01 -1.857293510437011719e+01 1.148886294686235487e-04 2.598731080070137978e-04 1.124285190599039197e-04 5.829466681461781263e-05
4.530000000000000000e+02 6.859945678710937500e+01 -2.094290924072265625e+01 -1.868570980150252581e-04 7.038798648864030838e-04 1.551068417029455304e-04 4.447970422916114330e-05
4.540000000000000000e+02 6.860662078857421875e+01 -2.173234748840332031e+01 2.504727453924715519e-04 9.811024647206068039e-04 3.694725746754556894e-04 1.794888230506330729e-04
4.550000000000000000e+02 6.861585235595703125e+01 -2.252249336242675781e+01 -2.726495440583676100e-04 1.229689456522464752e-03 2.871119650080800056e-04 6.937624129932373762e-05
4.560000000000000000e+02 6.863980102539062500e+01 -2.331356048583984375e+01 3.580950142350047827e-04 1.669875928200781345e-03 6.083913031034171581e-04 2.778178604785352945e-04
4.570000000000000000e+02 6.867036437988281250e+01 -2.410099411010742188e+01 -3.212426090613007545e-04 2.057815203443169594e-03 5.209717783145606518e-04 1.909962156787514687e-04
4.580000000000000000e+02 6.752593231201171875e+01 -2.746332550048828125e+01 -2.925094682723283768e-03 -1.058138674125075340e-03 -1.194969983771443367e-03 -1.490898546762764454e-03
4.590000000000000000e+02 6.548139190673828125e+01 -2.997714042663574219e+01 -3.583229333162307739e-02 -1.227182429283857346e-02 -1.443123538047075272e-02 -1.782847195863723755e-02
4.600000000000000000e+02 6.484581756591796875e+01 -3.049736404418945312e+01 -5.024566128849983215e-02 -1.200693193823099136e-02 -1.867577806115150452e-02 -2.543477714061737061e-02
4.610000000000000000e+02 6.228272628784179688e+01 -3.317053604125976562e+01 -1.544594913721084595e-01 -8.887129835784435272e-03 -4.900398850440979004e-02 2.312644757330417633e-02
4.620000000000000000e+02 6.121341323852539062e+01 -3.238071823120117188e+01 -2.540626823902130127e-01 -1.835642196238040924e-02 -8.172573149204254150e-02 -3.386636450886726379e-02
4.630000000000000000e+02 5.957029724121093750e+01 -3.267934417724609375e+01 -3.827031850814819336e-01 -3.043176978826522827e-02 -1.239404827356338501e-01 2.018221840262413025e-02
4.640000000000000000e+02 5.578858947753906250e+01 -3.247235107421875000e+01 -1.155416145920753479e-01 1.773763746023178101e-01 1.855042576789855957e-02 -1.080483645200729370e-01
4.650000000000000000e+02 5.703765487670898438e+01 -3.213322448730468750e+01 -2.744286656379699707e-01 -8.604363538324832916e-03 -8.490990847349166870e-02 4.899009689688682556e-02
4.660000000000000000e+02 5.399325942993164062e+01 -2.939954757690429688e+01 8.286372572183609009e-02 1.568653732538223267e-01 7.191872596740722656e-02 -1.226267814636230469e-01
4.670000000000000000e+02 5.342878723144531250e+01 -2.883569908142089844e+01 1.203884258866310120e-01 1.877825558185577393e-01 9.245129674673080444e-02 -1.553423255681991577e-01
4.680000000000000000e+02 5.461291885375976562e+01 -3.115345573425292969e+01 4.103425890207290649e-03 2.295502126216888428e-01 7.009609043598175049e-02 -1.238188147544860840e-01
4.690000000000000000e+02 5.230344772338867188e+01 -2.771243667602539062e+01 1.890426427125930786e-01 2.658383548259735107e-01 1.364642977714538574e-01 -2.308155447244644165e-01
4.700000000000000000e+02 5.173122024536132812e+01 -2.716948699951171875e+01 2.333387732505798340e-01 3.250578343868255615e-01 1.675189882516860962e-01 -2.704423069953918457e-01
4.710000000000000000e+02 5.116303634643554688e+01 -2.661770439147949219e+01 2.655006647109985352e-01 3.704024255275726318e-01 1.907709240913391113e-01 -3.177607059478759766e-01
4.720000000000000000e+02 5.060683059692382812e+01 -2.604229354858398438e+01 2.946281433105468750e-01 4.074320197105407715e-01 2.106180340051651001e-01 -3.443542122840881348e-01
4.730000000000000000e+02 4.893119430541992188e+01 -2.430252647399902344e+01 4.207087159156799316e-01 5.321646332740783691e-01 2.858619987964630127e-01 -4.770664274692535400e-01
4.740000000000000000e+02 4.949582672119140625e+01 -2.487520217895507812e+01 3.655424714088439941e-01 4.762509167194366455e-01 2.525380253791809082e-01 -4.204547405242919922e-01
4.750000000000000000e+02 4.836808395385742188e+01 -2.373238182067871094e+01 4.789409041404724121e-01 6.072446107864379883e-01 3.258556425571441650e-01 -5.347936749458312988e-01
4.760000000000000000e+02 4.668953704833984375e+01 -2.316016197204589844e+01 6.212764978408813477e-01 1.261650085449218750e+00 5.648779869079589844e-01 -8.781285881996154785e-01
4.770000000000000000e+02 4.553298568725585938e+01 -2.089798545837402344e+01 9.741961956024169922e-01 1.464254856109619141e+00 7.315353155136108398e-01 -1.178291797637939453e+00
4.780000000000000000e+02 4.495848846435546875e+01 -2.033322334289550781e+01 1.197708845138549805e+00 1.884626150131225586e+00 9.247004985809326172e-01 -1.488834857940673828e+00
4.790000000000000000e+02 4.380246353149414062e+01 -1.915985870361328125e+01 1.894009470939636230e+00 4.060140132904052734e+00 1.786244869232177734e+00 -2.596398353576660156e+00
4.800000000000000000e+02 4.284040832519531250e+01 -1.780207252502441406e+01 2.124573707580566406e+00 8.176120758056640625e+00 3.090208292007446289e+00 -3.744227409362792969e+00
4.810000000000000000e+02 4.203789520263671875e+01 -1.547587203979492188e+01 5.438960790634155273e-01 1.288812732696533203e+01 4.029607295989990234e+00 -2.246161460876464844e+00
4.820000000000000000e+02 4.189876556396484375e+01 -1.467381477355957031e+01 4.625830352306365967e-01 1.336906814575195312e+01 4.149495601654052734e+00 -1.918452262878417969e+00
4.830000000000000000e+02 4.179129028320312500e+01 -1.387044143676757812e+01 4.821119606494903564e-01 1.403051757812500000e+01 4.353788852691650391e+00 -1.357336640357971191e+00
4.840000000000000000e+02 4.169025421142578125e+01 -1.226672840118408203e+01 -9.026988595724105835e-02 1.270966243743896484e+01 3.785817861557006836e+00 -8.827543854713439941e-01
4.850000000000000000e+02 4.094900512695312500e+01 -1.143462657928466797e+01 2.878654599189758301e-01 1.282837677001953125e+01 3.934872627258300781e+00 -2.091637849807739258e-01
4.860000000000000000e+02 4.156544113159179688e+01 -1.067832374572753906e+01 2.888281047344207764e-01 1.483957195281982422e+01 4.538519859313964844e+00 -6.037610769271850586e-01
4.870000000000000000e+02 4.163756561279296875e+01 -6.628369331359863281e+00 1.146064758300781250e+00 1.702082252502441406e+01 5.450066089630126953e+00 3.090088367462158203e+00
4.880000000000000000e+02 4.182924652099609375e+01 -5.819432258605957031e+00 8.367469906806945801e-01 1.503073883056640625e+01 4.760245800018310547e+00 3.435308218002319336e+00
4.890000000000000000e+02 4.227265167236328125e+01 -4.258279800415039062e+00 6.056442856788635254e-01 1.405926609039306641e+01 4.399473190307617188e+00 3.146747112274169922e+00
4.900000000000000000e+02 4.269256591796875000e+01 -2.720752477645874023e+00 1.406361103057861328e+00 1.493392372131347656e+01 4.902085304260253906e+00 3.885386943817138672e+00
4.910000000000000000e+02 4.503644180297851562e+01 5.258556008338928223e-01 -3.718393564224243164e+00 2.550529241561889648e-01 -1.039002180099487305e+00 -1.139271497726440430e+00
4.920000000000000000e+02 4.973038864135742188e+01 2.681406438350677490e-01 -5.699968814849853516e+00 -7.302197217941284180e-01 -1.929056644439697266e+00 1.788758516311645508e+00
4.930000000000000000e+02 5.118908691406250000e+01 -2.991220057010650635e-01 -3.704253673553466797e+00 -2.609893083572387695e-01 -1.189572930335998535e+00 1.164266943931579590e+00
4.940000000000000000e+02 5.192970275878906250e+01 -5.276045203208923340e-01 -3.354972839355468750e+00 -7.131364196538925171e-03 -1.008631229400634766e+00 8.270351290702819824e-01
4.950000000000000000e+02 5.269392776489257812e+01 -6.811688542366027832e-01 -3.382311105728149414e+00 1.556356996297836304e-02 -1.010024309158325195e+00 5.669704675674438477e-01
4.960000000000000000e+02 5.584265136718750000e+01 -1.148344039916992188e+00 -3.543854713439941406e+00 -9.549190849065780640e-02 -1.091804027557373047e+00 3.885156810283660889e-01
4.970000000000000000e+02 5.675440979003906250e+01 -6.542512178421020508e-01 -3.009241104125976562e+00 -9.689410030841827393e-02 -9.318405985832214355e-01 2.273105531930923462e-01
4.980000000000000000e+02 5.662214279174804688e+01 -1.295386910438537598e+00 -3.339808464050292969e+00 -9.900975227355957031e-02 -1.031645417213439941e+00 4.663221836090087891e-01
4.990000000000000000e+02 5.892555999755859375e+01 -1.818792223930358887e+00 -2.454606533050537109e+00 -1.394969671964645386e-01 -7.782310843467712402e-01 5.364930629730224609e-01
5.000000000000000000e+02 5.816285705566406250e+01 -1.623186707496643066e+00 -2.776266813278198242e+00 -1.350620239973068237e-01 -8.733986616134643555e-01 5.382767915725708008e-01
5.010000000000000000e+02 5.968382263183593750e+01 -2.030768156051635742e+00 -2.208022117614746094e+00 -1.918190568685531616e-01 -7.199523448944091797e-01 5.594562292098999023e-01
5.020000000000000000e+02 6.179631042480468750e+01 -2.791514396667480469e+00 -1.145742058753967285e+00 -1.499166488647460938e-01 -3.886976242065429688e-01 4.069754183292388916e-01
5.030000000000000000e+02 6.351485443115234375e+01 -2.922561645507812500e+00 -8.373791575431823730e-01 4.072254896163940430e-02 -2.389969676733016968e-01 1.224236935377120972e-01
5.040000000000000000e+02 6.284400939941406250e+01 -3.426720857620239258e+00 -7.726639509201049805e-01 -1.960410177707672119e-01 -2.906115055084228516e-01 3.285999596118927002e-01
5.050000000000000000e+02 6.443009948730468750e+01 -4.146238803863525391e+00 -3.824205100536346436e-01 -8.348169736564159393e-03 -1.172306016087532043e-01 1.459303647279739380e-01
5.060000000000000000e+02 6.523427581787109375e+01 -6.537096500396728516e+00 -1.750824623741209507e-03 6.486158072948455811e-02 1.893322728574275970e-02 -1.568121649324893951e-02
5.070000000000000000e+02 6.584363555908203125e+01 -7.977597713470458984e+00 9.486363269388675690e-03 6.545107811689376831e-02 2.248123101890087128e-02 -2.903002873063087463e-02
5.080000000000000000e+02 6.618692779541015625e+01 -8.683969497680664062e+00 1.282145828008651733e-02 5.735917389392852783e-02 2.105418965220451355e-02 -2.969896607100963593e-02
5.090000000000000000e+02 7.015670776367187500e+01 -1.209643745422363281e+01 2.095413208007812500e-02 -7.199521176517009735e-03 4.126382991671562195e-03 -1.154740434139966965e-02
5.100000000000000000e+02 6.875492858886718750e+01 -1.228991889953613281e+01 1.480243448168039322e-02 1.004752004519104958e-03 4.742155782878398895e-03 -1.442346908152103424e-02
5.110000000000000000e+02 6.802935028076171875e+01 -1.158334636688232422e+01 1.373929902911186218e-02 1.230488717555999756e-02 7.813256233930587769e-03 -1.754375174641609192e-02
5.120000000000000000e+02 6.761072540283203125e+01 -1.248322486877441406e+01 4.877815954387187958e-03 1.751221343874931335e-02 6.717009004205465317e-03 -8.495108224451541901e-03
5.130000000000000000e+02 6.943448638916015625e+01 -1.219053554534912109e+01 1.825731992721557617e-02 -3.716700011864304543e-03 4.362185951322317123e-03 -1.387815270572900772e-02
5.140000000000000000e+02 7.167841339111328125e+01 -1.190795993804931641e+01 2.174350619316101074e-02 -7.057501003146171570e-03 4.405801184475421906e-03 -4.408444743603467941e-03
5.150000000000000000e+02 7.244239807128906250e+01 -1.181305789947509766e+01 2.115760184824466705e-02 -5.946041084825992584e-03 4.563468042761087418e-03 -8.517393871443346143e-05
5.160000000000000000e+02 7.475466918945312500e+01 -1.161941051483154297e+01 1.686573401093482971e-02 -2.286668866872787476e-03 4.373719450086355209e-03 1.030444167554378510e-02
5.170000000000000000e+02 7.552919769287109375e+01 -1.156268119812011719e+01 1.437946874648332596e-02 -1.053619082085788250e-03 3.997754771262407303e-03 1.246920693665742874e-02
5.180000000000000000e+02 7.961023712158203125e+01 -7.389811515808105469e+00 -2.848013537004590034e-04 4.670313000679016113e-02 1.392549835145473480e-02 3.493004944175481796e-03
5.190000000000000000e+02 7.958867645263671875e+01 -1.059847450256347656e+01 3.011666995007544756e-04 1.389344595372676849e-02 4.258383996784687042e-03 3.918935079127550125e-03
5.200000000000000000e+02 7.956887054443359375e+01 4.206029510498046875e+01 -8.936430327594280243e-03 -2.668157339096069336e+00 -8.031281232833862305e-01 1.009612623602151871e-02
5.210000000000000000e+02 7.828957366943359375e+01 4.014666366577148438e+01 -8.722192607820034027e-03 -2.355298280715942383e+00 -7.092061638832092285e-01 6.474399473518133163e-03
5.220000000000000000e+02 7.832394409179687500e+01 4.105516052246093750e+01 4.641458857804536819e-03 -2.370015144348144531e+00 -7.096120715141296387e-01 -1.647362299263477325e-02
5.230000000000000000e+02 7.944773101806640625e+01 3.957105255126953125e+01 -8.635167963802814484e-03 -2.650321960449218750e+00 -7.976871132850646973e-01 -2.638624049723148346e-03
5.240000000000000000e+02 7.844542694091796875e+01 3.849401092529296875e+01 -4.648835863918066025e-03 -2.420788764953613281e+00 -7.276312708854675293e-01 5.552412010729312897e-03
5.250000000000000000e+02 7.961097717285156250e+01 3.567945480346679688e+01 1.231146510690450668e-02 -2.681485891342163086e+00 -8.007523417472839355e-01 5.899128038436174393e-03
5.260000000000000000e+02 7.957818603515625000e+01 3.489714431762695312e+01 -5.560497753322124481e-03 -2.683275938034057617e+00 -8.066509366035461426e-01 -1.603202195838093758e-03
5.270000000000000000e+02 7.957188415527343750e+01 3.410125350952148438e+01 3.688502358272671700e-03 -2.679716348648071289e+00 -8.028083443641662598e-01 4.285178729332983494e-04
5.280000000000000000e+02 7.958456420898437500e+01 3.330074310302734375e+01 -1.200122991576790810e-03 -2.674999952316284180e+00 -8.028600215911865234e-01 -2.112777205184102058e-03
5.290000000000000000e+02 7.960340881347656250e+01 3.250220108032226562e+01 1.187491230666637421e-03 -2.667828321456909180e+00 -7.999922037124633789e-01 -1.982325920835137367e-03
5.300000000000000000e+02 7.875068664550781250e+01 3.324932098388671875e+01 5.335581488907337189e-03 -2.475396156311035156e+00 -7.410181760787963867e-01 -9.583160281181335449e-03
5.310000000000000000e+02 7.962183380126953125e+01 3.170592308044433594e+01 -9.635262540541589260e-05 -2.658404827117919922e+00 -7.975503802299499512e-01 -3.165163332596421242e-03
5.320000000000000000e+02 7.963428497314453125e+01 2.933098602294921875e+01 2.925443695858120918e-03 -2.610471248626708984e+00 -7.822637557983398438e-01 -7.479829713702201843e-03
5.330000000000000000e+02 7.962755584716796875e+01 2.854085922241210938e+01 -2.169122686609625816e-03 -2.587944269180297852e+00 -7.770339846611022949e-01 -8.191473782062530518e-03
5.340000000000000000e+02 7.962115478515625000e+01 2.774851799011230469e+01 2.555788028985261917e-03 -2.564748048782348633e+00 -7.686576843261718750e-01 -8.723149076104164124e-03
5.350000000000000000e+02 7.961650085449218750e+01 2.695415496826171875e+01 -5.615637055598199368e-04 -2.538545846939086914e+00 -7.617322206497192383e-01 -1.065704133361577988e-02
5.360000000000000000e+02 7.961408233642578125e+01 2.615776062011718750e+01 1.440000836737453938e-03 -2.509830951690673828e+00 -7.525172829627990723e-01 -1.160480268299579620e-02
5.370000000000000000e+02 7.961417388916015625e+01 2.535987091064453125e+01 6.056133424863219261e-04 -2.477435350418090820e+00 -7.430489063262939453e-01 -1.367391739040613174e-02
5.380000000000000000e+02 7.883422851562500000e+01 2.621450424194335938e+01 3.542201360687613487e-03 -2.336220026016235352e+00 -6.998032927513122559e-01 -4.121855646371841431e-02
5.390000000000000000e+02 7.961603546142578125e+01 2.456156349182128906e+01 1.041281619109213352e-03 -2.441241741180419922e+00 -7.320601344108581543e-01 -1.531205046921968460e-02
5.400000000000000000e+02 7.962486267089843750e+01 2.216474914550781250e+01 2.285666996613144875e-03 -2.300204038619995117e+00 -6.893755197525024414e-01 -2.273618802428245544e-02
5.410000000000000000e+02 7.962720489501953125e+01 2.136685562133789062e+01 -1.857632450992241502e-04 -2.242561101913452148e+00 -6.728240251541137695e-01 -2.471021935343742371e-02
5.420000000000000000e+02 7.962908172607421875e+01 2.056890296936035156e+01 2.165724989026784897e-03 -2.179864645004272461e+00 -6.533096432685852051e-01 -2.692030370235443115e-02
5.430000000000000000e+02 7.963069152832031250e+01 1.977072143554687500e+01 -5.874767884961329401e-05 -2.112477302551269531e+00 -6.337608695030212402e-01 -2.891943044960498810e-02
5.440000000000000000e+02 7.963219451904296875e+01 1.897242546081542969e+01 1.910433871671557426e-03 -2.040323257446289062e+00 -6.115238070487976074e-01 -3.096110187470912933e-02
5.450000000000000000e+02 7.888959503173828125e+01 1.982158851623535156e+01 5.843081511557102203e-03 -1.974377036094665527e+00 -5.905601978302001953e-01 -9.125410765409469604e-02
5.460000000000000000e+02 7.963358306884765625e+01 1.817416381835937500e+01 7.766133057884871960e-05 -1.963774204254150391e+00 -5.891089439392089844e-01 -3.285659104585647583e-02
5.470000000000000000e+02 7.963731384277343750e+01 1.577809524536132812e+01 1.534386537969112396e-03 -1.708581328392028809e+00 -5.121140480041503906e-01 -3.823238611221313477e-02
5.480000000000000000e+02 7.963846588134765625e+01 1.498032760620117188e+01 1.488291582063538954e-05 -1.616108775138854980e+00 -4.848281741142272949e-01 -3.966278210282325745e-02
5.490000000000000000e+02 7.963931274414062500e+01 1.418258380889892578e+01 1.365319010801613331e-03 -1.520357966423034668e+00 -4.556977748870849609e-01 -4.111204296350479126e-02
5.500000000000000000e+02 7.963999938964843750e+01 1.338432407379150391e+01 -1.491551665822044015e-04 -1.422050833702087402e+00 -4.266600012779235840e-01 -4.216466099023818970e-02
5.510000000000000000e+02 7.964077758789062500e+01 1.258601188659667969e+01 1.048155012540519238e-03 -1.321657180786132812e+00 -3.961827158927917480e-01 -4.305848106741905212e-02
5.520000000000000000e+02 7.964153289794921875e+01 1.178803157806396484e+01 -3.285808197688311338e-04 -1.219908595085144043e+00 -3.660711348056793213e-01 -4.356513917446136475e-02
5.530000000000000000e+02 7.964220428466796875e+01 1.098994064331054688e+01 6.735368515364825726e-04 -1.117458820343017578e+00 -3.350355625152587891e-01 -4.382350668311119080e-02
5.540000000000000000e+02 7.964281463623046875e+01 1.019190597534179688e+01 -4.894610028713941574e-04 -1.015085816383361816e+00 -3.046725690364837646e-01 -4.374532029032707214e-02
5.550000000000000000e+02 7.964418029785156250e+01 8.594237327575683594e+00 -7.579414523206651211e-04 -8.136739134788513184e-01 -2.443295568227767944e-01 -4.245186224579811096e-02
5.560000000000000000e+02 7.964487457275390625e+01 7.796163082122802734e+00 -1.719743595458567142e-04 -7.163498997688293457e-01 -2.149565517902374268e-01 -4.125393554568290710e-02
5.570000000000000000e+02 7.964566040039062500e+01 6.997764110565185547e+00 -9.834236698225140572e-04 -6.223961114883422852e-01 -1.870138496160507202e-01 -3.971189260482788086e-02
5.580000000000000000e+02 7.964645385742187500e+01 6.199722766876220703e+00 -5.631757667288184166e-04 -5.324784517288208008e-01 -1.599124819040298462e-01 -3.781546279788017273e-02
5.590000000000000000e+02 7.964702606201171875e+01 5.401938915252685547e+00 -1.190571347251534462e-03 -4.474577307701110840e-01 -1.345944851636886597e-01 -3.562125191092491150e-02
5.600000000000000000e+02 7.822518157958984375e+01 7.108040332794189453e+00 -9.243628941476345062e-03 -6.110399961471557617e-01 -1.860850900411605835e-01 -1.909257918596267700e-01
5.610000000000000000e+02 7.964732360839843750e+01 4.604224205017089844e+00 -8.483246783725917339e-04 -3.679342567920684814e-01 -1.106347739696502686e-01 -3.317796066403388977e-02
5.620000000000000000e+02 7.964859771728515625e+01 2.207347154617309570e+00 -1.503202016465365887e-03 -1.680154502391815186e-01 -5.085559561848640442e-02 -2.448751963675022125e-02
5.630000000000000000e+02 7.964936828613281250e+01 1.409585952758789062e+00 -1.278358511626720428e-03 -1.155707612633705139e-01 -3.505473583936691284e-02 -2.123250626027584076e-02
5.640000000000000000e+02 7.964962768554687500e+01 6.117452979087829590e-01 -1.416494720615446568e-03 -7.061117142438888550e-02 -2.160829864442348480e-02 -1.806656830012798309e-02
5.650000000000000000e+02 7.964965820312500000e+01 -1.867441684007644653e-01 -1.288511441089212894e-03 -3.299860283732414246e-02 -1.028613373637199402e-02 -1.491801068186759949e-02
5.660000000000000000e+02 7.964974975585937500e+01 -9.852907061576843262e-01 -1.281966920942068100e-03 -2.533075399696826935e-03 -1.144512789323925972e-03 -1.193154696375131607e-02
5.670000000000000000e+02 7.964978790283203125e+01 -1.783645749092102051e+00 -1.200698781758546829e-03 2.118656970560550690e-02 5.995761603116989136e-03 -9.059092029929161072e-03
5.680000000000000000e+02 7.824594879150390625e+01 -7.455360889434814453e-02 -1.682298630475997925e-02 -9.639535844326019287e-02 -3.396550193428993225e-02 -7.504496723413467407e-02
5.690000000000000000e+02 7.964942169189453125e+01 -2.581704616546630859e+00 -1.049080514349043369e-03 3.858159855008125305e-02 1.125975511968135834e-02 -6.471945438534021378e-03
5.700000000000000000e+02 7.964126586914062500e+01 -4.979919910430908203e+00 -8.100118138827383518e-04 5.909879878163337708e-02 1.748663559556007385e-02 -2.497166278772056103e-04
5.710000000000000000e+02 7.963369750976562500e+01 -5.781102180480957031e+00 -5.893523339182138443e-04 5.763438344001770020e-02 1.711350865662097931e-02 1.281379489228129387e-03
5.720000000000000000e+02 7.962294006347656250e+01 -6.584959983825683594e+00 -6.156531744636595249e-04 5.323934555053710938e-02 1.578710786998271942e-02 2.572119003161787987e-03
5.730000000000000000e+02 7.890332794189453125e+01 -5.733377456665039062e+00 -3.119115019217133522e-03 3.441229090094566345e-02 9.387953206896781921e-03 2.017657272517681122e-03
5.740000000000000000e+02 7.959837341308593750e+01 -8.193191528320312500e+00 -3.122878551948815584e-04 3.893443569540977478e-02 1.158664375543594360e-02 4.080324899405241013e-03
5.750000000000000000e+02 7.959101867675781250e+01 -8.995716094970703125e+00 -2.278242027387022972e-05 3.048739209771156311e-02 9.139383211731910706e-03 4.396864678710699081e-03
5.760000000000000000e+02 7.876676177978515625e+01 -1.062254619598388672e+01 1.397392130456864834e-03 1.102301105856895447e-02 3.726121038198471069e-03 1.020957529544830322e-02
5.770000000000000000e+02 4.255016446113586426e-01 4.205985641479492188e+01 -8.158742275554686785e-05 6.546861841343343258e-04 1.719296269584447145e-04 -9.833151852944865823e-05
5.780000000000000000e+02 5.059109330177307129e-01 4.121707153320312500e+01 3.626756370067596436e-04 5.983136361464858055e-04 2.882967819459736347e-04 6.474683323176577687e-05
5.790000000000000000e+02 2.847819519042968750e+01 3.699368286132812500e+01 -1.792636811733245850e-01 -6.776908878237009048e-03 -5.581217631697654724e-02 7.683453615754842758e-03
5.800000000000000000e+02 4.565122985839843750e+01 3.922318267822265625e+01 -7.734514474868774414e-01 4.007196426391601562e+00 9.701234698295593262e-01 7.965728640556335449e-02
5.810000000000000000e+02 7.671200561523437500e+01 4.187441635131835938e+01 -1.575257163494825363e-03 -2.038640022277832031e+00 -6.120645403861999512e-01 1.622808538377285004e-02
5.820000000000000000e+02 7.852796936035156250e+01 4.200349807739257812e+01 2.699590753763914108e-03 -2.484230756759643555e+00 -7.444593906402587891e-01 -2.509335801005363464e-02
5.830000000000000000e+02 3.804473578929901123e-01 1.893819689750671387e+00 1.468088385081500746e-06 9.246186039035819704e-08 4.681650693783012684e-07 -2.352454231413503294e-07
5.840000000000000000e+02 1.144980549812316895e+00 1.880759000778198242e+00 -1.679092861195385922e-06 -4.589396098708675709e-07 -6.414097128981666174e-07 7.675905635551316664e-07
5.850000000000000000e+02 3.401334762573242188e+00 2.589034080505371094e+00 -1.684714902694395278e-06 -1.166853508038911968e-06 -8.554705459573597182e-07 2.753277158262790181e-06
5.860000000000000000e+02 4.181036472320556641e+00 2.579259157180786133e+00 8.832024604998878203e-07 1.389351155012263916e-06 6.817660960223292932e-07 -2.691895360840135254e-06
5.870000000000000000e+02 3.465967476367950439e-01 4.273287296295166016e+00 -5.670005975844105706e-06 -4.526740440269350074e-07 -1.836804017329995986e-06 1.405455009262368549e-06
5.880000000000000000e+02 1.031812906265258789e+00 6.529023170471191406e+00 -8.614669241069350392e-06 -2.014976644204580225e-06 -3.188893742844811641e-06 3.621555606514448300e-06
5.890000000000000000e+02 3.387271463871002197e-01 5.862162113189697266e+00 -9.090955245483200997e-06 -1.060013687492755707e-06 -3.045290668524103239e-06 2.353407353439251892e-06
5.900000000000000000e+02 3.467439413070678711e-01 8.253029823303222656e+00 1.434933983546216041e-05 2.623180535010760650e-07 4.383497525850543752e-06 -3.884725629177410156e-06
5.910000000000000000e+02 3.505929410457611084e-01 9.052980422973632812e+00 -1.634482396184466779e-05 -2.980168801514082588e-06 -5.797498033643933013e-06 4.805842308996943757e-06
5.920000000000000000e+02 3.538869023323059082e-01 9.854249954223632812e+00 1.831641748140100390e-05 -7.722153583245017217e-08 5.471758868225151673e-06 -5.045947546022944152e-06
5.930000000000000000e+02 3.559091091156005859e-01 1.065755653381347656e+01 -2.062211933662183583e-05 -4.349156370153650641e-06 -7.491382802982116118e-06 6.136258889455348253e-06
5.940000000000000000e+02 3.565230071544647217e-01 1.146022701263427734e+01 2.309230694663710892e-05 -7.071514573908643797e-07 6.715546533087035641e-06 -6.310106073215138167e-06
5.950000000000000000e+02 1.070347189903259277e+00 1.129648113250732422e+01 -1.948909448401536793e-05 -5.625761787086958066e-06 -7.534456926805432886e-06 7.366053978330455720e-06
5.960000000000000000e+02 3.578350543975830078e-01 1.306641483306884766e+01 2.847132782335393131e-05 -1.805139049793069717e-06 7.999856279639061540e-06 -7.698799890931695700e-06
5.970000000000000000e+02 3.588950335979461670e-01 1.547748184204101562e+01 -3.821039354079402983e-05 -1.188196256407536566e-05 -1.502770646766293794e-05 1.114104361477075145e-05
5.980000000000000000e+02 3.593141138553619385e-01 1.628106689453125000e+01 4.133014954277314246e-05 -5.826375399919925258e-06 1.065113247022964060e-05 -1.050234186550369486e-05
5.990000000000000000e+02 3.598397672176361084e-01 1.708525657653808594e+01 -4.416101728565990925e-05 -1.497116591053782031e-05 -1.773965414031408727e-05 1.216768123413203284e-05
6.000000000000000000e+02 3.598455786705017090e-01 1.788969993591308594e+01 4.655575321521610022e-05 -8.904408787202555686e-06 1.129540305555565283e-05 -1.082310700439848006e-05
6.010000000000000000e+02 3.597813248634338379e-01 1.869344520568847656e+01 -4.808297671843320131e-05 -1.797146796889137477e-05 -1.981633431569207460e-05 1.193046045955270529e-05
6.020000000000000000e+02 3.616254031658172607e-01 2.191075706481933594e+01 -4.290101060178130865e-05 -1.853964567999355495e-05 -1.843219615693669766e-05 5.715045062970602885e-06
6.030000000000000000e+02 3.619908988475799561e-01 2.271310615539550781e+01 3.821092832367867231e-05 -1.204177988256560639e-05 7.850743713788688183e-06 -5.116892225487390533e-06
6.040000000000000000e+02 3.634432554244995117e-01 2.351678466796875000e+01 -3.096980071859434247e-05 -1.224703100888291374e-05 -1.296504888159688562e-05 -3.646188986294873757e-07
6.050000000000000000e+02 3.651419281959533691e-01 2.432164955139160156e+01 2.376212432864122093e-05 -4.475571586226578802e-06 5.785965640825452283e-06 -1.250885816261870787e-06
6.060000000000000000e+02 3.662508726119995117e-01 2.512613296508789062e+01 -1.273678390134591609e-05 2.929133415818796493e-06 -2.942294941021827981e-06 -9.554217285767663270e-06
6.070000000000000000e+02 1.095269203186035156e+00 2.415554237365722656e+01 -2.945310734503436834e-05 3.013089326486806385e-06 -7.932005246402695775e-06 -2.177255009883083403e-05
6.080000000000000000e+02 3.702057003974914551e-01 2.673383903503417969e+01 1.255710958503186703e-05 3.044290133402682841e-05 1.290000363951548934e-05 -2.076625241898000240e-05
6.090000000000000000e+02 3.819362819194793701e-01 2.914661598205566406e+01 -5.750479976995848119e-05 9.900602890411391854e-05 1.245036946784239262e-05 1.055133725458290428e-05
6.100000000000000000e+02 3.879259526729583740e-01 2.995221328735351562e+01 7.660921983188018203e-05 1.372918486595153809e-04 6.417032273020595312e-05 -4.557397915050387383e-05
6.110000000000000000e+02 3.947713971138000488e-01 3.075820350646972656e+01 -9.069802763406187296e-05 1.726202171994373202e-04 2.457665505062323064e-05 1.069872087100520730e-05
6.120000000000000000e+02 4.020712673664093018e-01 3.156467247009277344e+01 1.111102465074509382e-04 2.216762368334457278e-04 9.983594645746052265e-05 -5.736057937610894442e-05
6.130000000000000000e+02 1.204749226570129395e+00 3.140771293640136719e+01 -6.719975499436259270e-05 2.005205751629546285e-04 3.999624459538608789e-05 -2.014495476032607257e-05
6.140000000000000000e+02 4.154502749443054199e-01 3.317541885375976562e+01 1.487808622187003493e-04 3.223138919565826654e-04 1.413284189766272902e-04 -6.626726099057123065e-05
6.150000000000000000e+02 4.302880764007568359e-01 3.557827758789062500e+01 -1.531059097032994032e-04 5.032303743064403534e-04 1.050373321049846709e-04 -8.041895853239111602e-06
6.160000000000000000e+02 4.413521289825439453e-01 3.638042831420898438e+01 1.310681400354951620e-04 5.489751347340643406e-04 2.040129911620169878e-04 -4.739555151900276542e-05
6.170000000000000000e+02 4.591920077800750732e-01 3.718217849731445312e+01 -1.059481946867890656e-04 6.174707086756825447e-04 1.534567563794553280e-04 -2.064275759039446712e-05
6.180000000000000000e+02 4.840468168258666992e-01 3.798965454101562500e+01 9.690201113699004054e-05 6.753125344403088093e-04 2.316643658559769392e-04 -5.362327647162601352e-05
6.190000000000000000e+02 5.096345543861389160e-01 3.879664230346679688e+01 -1.128180592786520720e-04 7.258942932821810246e-04 1.839228643802925944e-04 -5.336509730113903061e-06
6.200000000000000000e+02 5.023772120475769043e-01 4.041241455078125000e+01 -3.966781368944793940e-04 7.622909615747630596e-04 1.096838459488935769e-04 1.501693041063845158e-04
6.210000000000000000e+02 1.050132274627685547e+01 1.750701308250427246e+00 2.055434833891922608e-06 -2.419721568003296852e-06 -1.092859989171302004e-07 9.389202659804141149e-07
6.220000000000000000e+02 8.150743484497070312e+00 1.840124011039733887e+00 -1.390923102917440701e-06 3.030174866580637172e-06 4.917755518363264855e-07 -1.971030314962263219e-06
6.230000000000000000e+02 8.933617591857910156e+00 1.830225229263305664e+00 6.939357604096585419e-07 -2.879686917367507704e-06 -6.557253300343290903e-07 1.885160827441723086e-06
6.240000000000000000e+02 5.701066970825195312e+00 3.263884067535400391e+00 -3.627119937732459221e-08 -1.696659751360130031e-06 -5.198792791816231329e-07 3.837622898572590202e-06
6.250000000000000000e+02 6.587738037109375000e+00 1.851768732070922852e+00 -7.196138653853267897e-07 2.678969849512213841e-06 5.878067668163566850e-07 -2.257047299281111918e-06
6.260000000000000000e+02 5.026432514190673828e+00 1.858340859413146973e+00 1.487289864599006251e-07 2.086823315039509907e-06 6.706656563437718432e-07 -2.237962007711757906e-06
6.270000000000000000e+02 4.246612071990966797e+00 1.860587239265441895e+00 -8.987267392512876540e-07 -1.781029368430608884e-06 -8.039268664106202777e-07 2.328148184460587800e-06
6.280000000000000000e+02 3.467639207839965820e+00 1.863342642784118652e+00 8.692051096659270115e-07 1.421802153345197439e-06 6.873021902720211074e-07 -1.842274969021673314e-06
6.290000000000000000e+02 2.690231323242187500e+00 1.867182850837707520e+00 -1.360342821499216370e-06 -1.175573629552673083e-06 -7.607749239468830638e-07 1.721262492537789512e-06
6.300000000000000000e+02 1.915593266487121582e+00 1.872608423233032227e+00 1.442198481527157128e-06 7.689691301493439823e-07 6.633503062403178774e-07 -1.181224888568976894e-06
6.310000000000000000e+02 1.279934120178222656e+01 1.414354681968688965e+00 -2.191103703808039427e-06 1.431464397683157586e-06 -2.278917747844388941e-07 -3.381754254405677784e-07
6.320000000000000000e+02 1.354228782653808594e+01 1.310374975204467773e+00 1.740980337672226597e-06 -1.098665961762890220e-06 1.926942871932624257e-07 6.356290782605356071e-08
6.330000000000000000e+02 1.498567962646484375e+01 1.123686790466308594e+00 2.129406311723869294e-06 -2.232014963965411880e-07 5.718614488614548463e-07 -4.752757547521468950e-07
6.340000000000000000e+02 1.569940662384033203e+01 1.035995244979858398e+00 -2.325230752830975689e-06 -2.569461798884731252e-07 -7.746530741314927582e-07 5.323177560967451427e-07
6.350000000000000000e+02 1.640475082397460938e+01 9.725933074951171875e-01 1.843743689278198872e-06 7.611548653585487045e-07 7.814695663910242729e-07 -6.657912763330386952e-07
6.360000000000000000e+02 1.780668449401855469e+01 9.027594923973083496e-01 1.749300281517207623e-06 1.923980107676470652e-06 1.101984139495471027e-06 -2.225204980277339928e-07
6.370000000000000000e+02 1.996351814270019531e+01 5.559962749481201172e+00 1.836228329921141267e-05 2.104340410369331948e-06 6.139986908237915486e-06 6.765632861061021686e-06
6.380000000000000000e+02 1.884551048278808594e+01 2.916965484619140625e+00 -3.983955139119643718e-06 -3.984939212386962026e-06 -2.390668441876186989e-06 -6.356701476306625409e-08
6.390000000000000000e+02 2.196996879577636719e+01 2.072911500930786133e+00 -6.446856332331662998e-06 -1.389639578519563656e-06 -2.350948761886684224e-06 -3.050076429644832388e-06
6.400000000000000000e+02 2.177272605895996094e+01 1.242066979408264160e+00 -4.795145741809392348e-06 -1.659555096011899877e-06 -1.936410171765601262e-06 -2.448668055876623839e-06
6.410000000000000000e+02 2.137500190734863281e+01 1.891500353813171387e+00 5.111414338898612186e-06 2.008579713219660334e-06 2.135998101948644035e-06 3.198117610736517236e-06
6.420000000000000000e+02 2.098450469970703125e+01 2.576322078704833984e+00 -6.206704711075872183e-06 -2.957541255454998463e-06 -2.749273789959261194e-06 -4.090542461199220270e-06
6.430000000000000000e+02 1.929523849487304688e+01 9.009925723075866699e-01 1.803334498617914505e-06 1.998015022763866000e-06 1.140404833677166607e-06 7.420492238452425227e-07
6.440000000000000000e+02 1.851261329650878906e+01 8.774413466453552246e-01 -2.096152229569270276e-06 -2.306022224729531445e-06 -1.320652359027008060e-06 -1.548633150605382980e-07
6.450000000000000000e+02 1.938988113403320312e+01 5.332220077514648438e+00 -1.306537433265475556e-05 -2.331380756004364230e-06 -4.619026640284573659e-06 -7.800415914971381426e-06
6.460000000000000000e+02 1.888963127136230469e+01 7.765488147735595703e+00 -2.297119135619141161e-05 -2.138866193490684964e-06 -7.533017196692526340e-06 -6.610512173210736364e-06
6.470000000000000000e+02 1.856889724731445312e+01 8.519209861755371094e+00 2.626023706397973001e-05 1.751280592543480452e-06 8.403455467487219721e-06 7.369028935499954969e-06
6.480000000000000000e+02 1.797957420349121094e+01 1.003324508666992188e+01 3.689142249641008675e-05 1.590122110428637825e-06 1.154446363216266036e-05 9.348168532596901059e-06
6.490000000000000000e+02 1.827050781250000000e+01 9.277688026428222656e+00 -3.104738061665557325e-05 -2.566419652794138528e-06 -1.008414074021857232e-05 -8.129046364047098905e-06
6.500000000000000000e+02 1.740537071228027344e+01 1.154097843170166016e+01 4.866893868893384933e-05 1.492820729254162870e-06 1.504852752987062559e-05 1.131757653638487682e-05
6.510000000000000000e+02 1.690056228637695312e+01 1.307581138610839844e+01 6.289019802352413535e-05 1.849381192187138367e-06 1.942187373060733080e-05 1.550538399897050112e-05
6.520000000000000000e+02 1.667837142944335938e+01 1.385544109344482422e+01 -7.546015694970265031e-05 -9.366301128466147929e-06 -2.544793824199587107e-05 -1.822249032557010651e-05
6.530000000000000000e+02 1.645834732055664062e+01 1.463064289093017578e+01 9.242326632374897599e-05 2.590322310425108299e-06 2.850407508958596736e-05 2.458681592543143779e-05
6.540000000000000000e+02 1.622765350341796875e+01 1.539954280853271484e+01 -1.122867397498339415e-04 -1.346411590930074453e-05 -3.772525815293192863e-05 -2.753337139438372105e-05
6.550000000000000000e+02 1.599997997283935547e+01 1.617128944396972656e+01 1.309173385379835963e-04 -3.272691401434713043e-06 3.829339766525663435e-05 3.192269650753587484e-05
6.560000000000000000e+02 1.532415294647216797e+01 1.604773902893066406e+01 -7.688076584599912167e-05 -1.660776615608483553e-05 -2.804656105581671000e-05 -3.844767707050777972e-05
6.570000000000000000e+02 1.548202514648437500e+01 1.938188743591308594e+01 1.850726985139772296e-04 -1.699083986750338227e-05 5.042455813963897526e-05 2.014749588852282614e-05
6.580000000000000000e+02 1.545620822906494141e+01 2.019940185546875000e+01 -2.142748708138242364e-04 -2.529473749746102840e-05 -7.187088340288028121e-05 -2.115102870448026806e-05
6.590000000000000000e+02 1.545385551452636719e+01 2.264358901977539062e+01 3.216674667783081532e-04 -2.945516462204977870e-05 8.766369137447327375e-05 -3.301075139461318031e-06
6.600000000000000000e+02 1.547477531433105469e+01 2.346183013916015625e+01 -3.344662836752831936e-04 -6.005795057717477903e-06 -1.021416173898614943e-04 3.310730971861630678e-05
6.610000000000000000e+02 1.553030204772949219e+01 2.427984046936035156e+01 3.412335354369133711e-04 7.933534106996376067e-06 1.047501209541223943e-04 -3.593507790355943143e-05
6.620000000000000000e+02 1.734697914123535156e+01 2.972902107238769531e+01 -1.812774280551820993e-04 3.501760074868798256e-04 5.066957237431779504e-05 6.341796251945197582e-04
6.630000000000000000e+02 1.691831016540527344e+01 3.094367790222167969e+01 1.925251272041350603e-04 8.586827607359737158e-05 8.351802534889429808e-05 6.066227215342223644e-04
6.640000000000000000e+02 1.774419021606445312e+01 3.046629714965820312e+01 8.931398042477667332e-04 7.788525545038282871e-04 5.015977076254785061e-04 2.038945385720580816e-04
6.650000000000000000e+02 1.864459800720214844e+01 3.189817237854003906e+01 1.128565985709428787e-03 1.170375850051641464e-03 6.896825507283210754e-04 4.272637015674263239e-04
6.660000000000000000e+02 2.016629981994628906e+01 3.387835693359375000e+01 1.266339560970664024e-03 1.183339394629001617e-03 7.349036750383675098e-04 2.394376788288354874e-03
6.670000000000000000e+02 2.076752471923828125e+01 3.452287673950195312e+01 5.703279282897710800e-03 2.728946041315793991e-03 2.529667690396308899e-03 1.414359576301649213e-04
6.680000000000000000e+02 2.148874664306640625e+01 3.493331527709960938e+01 2.716928720474243164e-04 -3.976033534854650497e-03 -1.111302175559103489e-03 6.777514703571796417e-03
6.690000000000000000e+02 2.281145095825195312e+01 3.579456710815429688e+01 -6.246622069738805294e-04 -6.909594405442476273e-03 -2.260277047753334045e-03 8.166153915226459503e-03
6.700000000000000000e+02 2.359818840026855469e+01 3.625884246826171875e+01 -9.439576417207717896e-03 6.793045904487371445e-03 -7.939591887407004833e-04 4.782243166118860245e-03
6.710000000000000000e+02 2.693525886535644531e+01 3.694850540161132812e+01 -7.971700280904769897e-02 4.590279422700405121e-03 -2.253801748156547546e-02 1.175593305379152298e-02
6.720000000000000000e+02 2.922806930541992188e+01 3.707616806030273438e+01 -2.188747078180313110e-01 -2.556220395490527153e-03 -6.642927974462509155e-02 1.521180756390094757e-02
6.730000000000000000e+02 3.080453300476074219e+01 3.713433837890625000e+01 -2.673587501049041748e-01 -7.816085591912269592e-03 -8.255244791507720947e-02 6.547217816114425659e-02
6.740000000000000000e+02 3.175415420532226562e+01 3.686752319335937500e+01 -2.886330783367156982e-01 -7.370308041572570801e-02 -1.087008491158485413e-01 9.314978867769241333e-02
6.750000000000000000e+02 3.459925460815429688e+01 3.640929794311523438e+01 -1.532958000898361206e-01 8.999434858560562134e-02 -1.899043470621109009e-02 -3.550205007195472717e-02
6.760000000000000000e+02 3.539595794677734375e+01 3.588873291015625000e+01 -9.693842381238937378e-02 1.325109899044036865e-01 1.067176926881074905e-02 -9.583813697099685669e-02
6.770000000000000000e+02 3.592935943603515625e+01 3.534837722778320312e+01 2.559631690382957458e-02 1.152931824326515198e-01 4.226684942841529846e-02 -2.238992750644683838e-01
6.780000000000000000e+02 3.642415237426757812e+01 3.492100143432617188e+01 4.066035747528076172e-01 2.621344923973083496e-01 2.006214261054992676e-01 -2.631176114082336426e-01
6.790000000000000000e+02 3.782029342651367188e+01 3.420694732666015625e+01 9.459024667739868164e-01 1.397425413131713867e+00 7.029983997344970703e-01 -1.097597956657409668e+00
6.800000000000000000e+02 3.964318847656250000e+01 3.246597671508789062e+01 1.534521222114562988e+00 3.920092582702636719e+00 1.636384129524230957e+00 -2.224023818969726562e+00
6.810000000000000000e+02 4.078168106079101562e+01 3.023120689392089844e+01 8.175281286239624023e-01 6.566336154937744141e+00 2.215159177780151367e+00 -2.176527261734008789e+00
6.820000000000000000e+02 4.126202774047851562e+01 2.864861488342285156e+01 8.549078106880187988e-01 9.097202301025390625e+00 2.985632896423339844e+00 -1.727182269096374512e+00
6.830000000000000000e+02 4.140122222900390625e+01 2.619601058959960938e+01 3.451720997691154480e-02 7.969101905822753906e+00 2.401085615158081055e+00 -1.506510376930236816e-01
6.840000000000000000e+02 4.217449569702148438e+01 2.623931884765625000e+01 2.056939601898193359e-01 7.660284042358398438e+00 2.359793424606323242e+00 -3.933290243148803711e-01
6.850000000000000000e+02 4.140090560913085938e+01 2.539122200012207031e+01 3.017833270132541656e-02 7.755316734313964844e+00 2.335648536682128906e+00 -8.423706144094467163e-02
6.860000000000000000e+02 4.138389968872070312e+01 2.138709068298339844e+01 9.150713682174682617e-03 7.840871334075927734e+00 2.355006694793701172e+00 5.817390233278274536e-02
6.870000000000000000e+02 4.138175201416015625e+01 2.058581161499023438e+01 1.162651181221008301e-02 8.014702796936035156e+00 2.407898902893066406e+00 8.108183741569519043e-02
6.880000000000000000e+02 4.137951660156250000e+01 1.978438186645507812e+01 2.028398588299751282e-02 8.258860588073730469e+00 2.483743429183959961e+00 1.162381172180175781e-01
6.890000000000000000e+02 4.137470245361328125e+01 1.898311805725097656e+01 1.170313730835914612e-02 8.542990684509277344e+00 2.566408157348632812e+00 1.515533775091171265e-01
6.900000000000000000e+02 4.205087661743164062e+01 1.732629966735839844e+01 3.524153530597686768e-01 8.812296867370605469e+00 2.749413490295410156e+00 7.553310990333557129e-01
6.910000000000000000e+02 4.130691146850585938e+01 1.657174301147460938e+01 9.374637901782989502e-02 9.792537689208984375e+00 2.965885400772094727e+00 7.470661997795104980e-01
6.920000000000000000e+02 4.119202041625976562e+01 1.496717357635498047e+01 4.221616685390472412e-01 1.124176311492919922e+01 3.499177455902099609e+00 1.263821959495544434e+00
6.930000000000000000e+02 4.095191192626953125e+01 1.337414646148681641e+01 3.899502456188201904e-01 1.097017097473144531e+01 3.408036470413208008e+00 2.000935316085815430e+00
6.940000000000000000e+02 4.108649444580078125e+01 1.416725254058837891e+01 4.535132348537445068e-01 1.122983360290527344e+01 3.505003929138183594e+00 1.801595449447631836e+00
6.950000000000000000e+02 4.083065414428710938e+01 9.239728927612304688e+00 1.430241584777832031e+00 1.169970130920410156e+01 3.938982963562011719e+00 3.311580896377563477e+00
6.960000000000000000e+02 4.037117385864257812e+01 1.021280384063720703e+01 8.072289228439331055e-01 1.310743618011474609e+01 4.174399375915527344e+00 2.911124229431152344e+00
6.970000000000000000e+02 3.974541091918945312e+01 7.866740703582763672e+00 1.578278899192810059e+00 1.376544857025146484e+01 4.603118419647216797e+00 4.385813713073730469e+00
6.980000000000000000e+02 3.947843933105468750e+01 7.099068641662597656e+00 1.962430357933044434e+00 1.354931449890136719e+01 4.653523445129394531e+00 4.779760360717773438e+00
6.990000000000000000e+02 3.844717407226562500e+01 4.889229297637939453e+00 2.005947113037109375e+00 9.641644477844238281e+00 3.494277477264404297e+00 4.280963420867919922e+00
7.000000000000000000e+02 3.803694152832031250e+01 4.181919097900390625e+00 1.854674577713012695e+00 7.914022445678710938e+00 2.930608987808227539e+00 3.704963445663452148e+00
7.010000000000000000e+02 3.757909774780273438e+01 3.504951953887939453e+00 1.342449188232421875e+00 5.609261035919189453e+00 2.085513114929199219e+00 2.769612073898315430e+00
7.020000000000000000e+02 3.602654647827148438e+01 1.631597042083740234e+00 -1.311887860298156738e+00 3.612370789051055908e-01 -2.851952016353607178e-01 -5.708585977554321289e-01
7.030000000000000000e+02 3.544630813598632812e+01 1.058921337127685547e+00 -2.550172090530395508e+00 -7.751307487487792969e-01 -9.975908994674682617e-01 -1.545900583267211914e+00
7.040000000000000000e+02 3.345773315429687500e+01 -3.516880869865417480e-01 -4.920495986938476562e+00 -1.623290896415710449e+00 -1.963136076927185059e+00 -2.750823259353637695e+00
7.050000000000000000e+02 3.274475860595703125e+01 -7.459895610809326172e-01 -5.493793487548828125e+00 -1.566144108772277832e+00 -2.117981195449829102e+00 -2.776357650756835938e+00
7.060000000000000000e+02 3.123355293273925781e+01 -1.366206049919128418e+00 -5.976175785064697266e+00 -8.861584067344665527e-01 -2.058700323104858398e+00 -1.990720152854919434e+00
7.070000000000000000e+02 2.964448356628417969e+01 -1.720706939697265625e+00 -4.797389507293701172e+00 -2.936620414257049561e-01 -1.527315497398376465e+00 -1.001410245895385742e+00
7.080000000000000000e+02 2.269125366210937500e+01 -2.337648391723632812e+00 -1.049120545387268066e+00 9.392473101615905762e-02 -2.865587472915649414e-01 -6.373448669910430908e-02
7.090000000000000000e+02 1.938817977905273438e+01 -2.760265588760375977e+00 -8.745563626289367676e-01 -5.314856022596359253e-02 -2.783114612102508545e-01 -7.089215517044067383e-02
7.100000000000000000e+02 1.696987724304199219e+01 -2.729646921157836914e+00 -8.108418583869934082e-01 -3.229019045829772949e-02 -2.529396116733551025e-01 -5.150235444307327271e-02
7.110000000000000000e+02 1.307714080810546875e+01 -2.341984987258911133e+00 -6.287493705749511719e-01 2.151390351355075836e-02 -1.821706444025039673e-01 -5.061988532543182373e-02
7.120000000000000000e+02 1.460994434356689453e+01 -2.532318592071533203e+00 -7.072128057479858398e-01 -9.314514318248257041e-05 -2.121917754411697388e-01 -4.403588175773620605e-02
7.130000000000000000e+02 1.088034725189208984e+01 -2.030522346496582031e+00 -5.074574947357177734e-01 4.340966045856475830e-02 -1.392143517732620239e-01 -7.501958310604095459e-02
7.140000000000000000e+02 1.232995891571044922e+01 -2.240990638732910156e+00 -5.867432951927185059e-01 2.677610702812671661e-02 -1.679901629686355591e-01 -5.933061614632606506e-02
7.150000000000000000e+02 9.395589828491210938e+00 -1.876407504081726074e+00 -4.159182906150817871e-01 3.828610852360725403e-02 -1.132896542549133301e-01 -8.715489506721496582e-02
7.160000000000000000e+02 1.015708446502685547e+01 -1.932439565658569336e+00 -4.608332514762878418e-01 4.432654753327369690e-02 -1.249520108103752136e-01 -7.757534086704254150e-02
7.170000000000000000e+02 8.590023994445800781e+00 -1.863599896430969238e+00 -3.670104146003723145e-01 2.939979918301105499e-02 -1.012831851840019226e-01 -9.644508361816406250e-02
7.180000000000000000e+02 6.957866668701171875e+00 -1.854395389556884766e+00 -2.728782594203948975e-01 8.007945492863655090e-03 -7.946109771728515625e-02 -1.174787506461143494e-01
7.190000000000000000e+02 5.320775032043457031e+00 -1.869281530380249023e+00 -1.830365657806396484e-01 -8.310884237289428711e-03 -5.740423500537872314e-02 -1.165225207805633545e-01
7.200000000000000000e+02 4.503670215606689453e+00 -1.882136225700378418e+00 -1.413229405879974365e-01 -1.664229109883308411e-02 -4.738957062363624573e-02 -1.076922342181205750e-01
7.210000000000000000e+02 1.088577747344970703e+00 -6.770703315734863281e+00 -8.431618101894855499e-03 -3.224232494831085205e-01 -9.925645589828491211e-02 -1.126037985086441040e-01
7.220000000000000000e+02 1.125172972679138184e+00 -5.959147930145263672e+00 -8.980566635727882385e-03 -2.517086267471313477e-01 -7.820675522089004517e-02 -1.041106656193733215e-01
7.230000000000000000e+02 1.802332401275634766e+00 -6.826258182525634766e+00 -1.863222382962703705e-02 -2.936753034591674805e-01 -9.369226545095443726e-02 -1.728288233280181885e-01
7.240000000000000000e+02 4.065506756305694580e-01 -2.704172611236572266e+00 -3.747820621356368065e-03 -3.457747027277946472e-02 -1.149758789688348770e-02 -1.552673149853944778e-02
7.250000000000000000e+02 4.100350737571716309e-01 -1.901023983955383301e+00 -3.645797492936253548e-03 -1.107858866453170776e-02 -4.417316056787967682e-03 -8.252196013927459717e-03
7.260000000000000000e+02 4.492083489894866943e-01 -4.200908279418945312e+01 2.366851840633898973e-04 9.145084023475646973e-02 2.750625647604465485e-02 -2.328798582311719656e-04
7.270000000000000000e+02 5.009358525276184082e-01 -4.112607574462890625e+01 2.521241549402475357e-03 9.231942147016525269e-02 2.845219895243644714e-02 -1.541704637929797173e-03
7.280000000000000000e+02 3.791971802711486816e-01 -4.039947128295898438e+01 -2.393889706581830978e-03 9.604724496603012085e-02 2.809600532054901123e-02 -3.348375437781214714e-03
7.290000000000000000e+02 4.961544871330261230e-01 -3.892718887329101562e+01 -3.070921229664236307e-04 1.113051623106002808e-01 3.329942002892494202e-02 -4.485120065510272980e-03
7.300000000000000000e+02 3.766763210296630859e-01 -3.970431137084960938e+01 2.381522674113512039e-03 1.044067740440368652e-01 3.203649073839187622e-02 -2.985300729051232338e-03
7.310000000000000000e+02 4.897302687168121338e-01 -3.727741241455078125e+01 -3.160893684253096581e-03 1.301403641700744629e-01 3.809384256601333618e-02 -6.818538997322320938e-03
7.320000000000000000e+02 4.290195405483245850e-01 -3.567108154296875000e+01 -1.177514554001390934e-03 1.536010801792144775e-01 4.572706669569015503e-02 -6.883795373141765594e-03
7.330000000000000000e+02 4.231171309947967529e-01 -3.486185455322265625e+01 -3.036235284525901079e-04 1.652011871337890625e-01 4.946926981210708618e-02 -5.458429921418428421e-03
7.340000000000000000e+02 4.151457846164703369e-01 -3.404967498779296875e+01 -1.467404305003583431e-03 1.741689592599868774e-01 5.181046575307846069e-02 -3.814726602286100388e-03
7.350000000000000000e+02 4.073940217494964600e-01 -3.323870849609375000e+01 -3.416397667024284601e-04 1.799019575119018555e-01 5.386809259653091431e-02 -1.965168630704283714e-03
7.360000000000000000e+02 4.005803465843200684e-01 -3.243041992187500000e+01 -3.130060154944658279e-03 1.807820200920104980e-01 5.329558625817298889e-02 1.313378103077411652e-03
7.370000000000000000e+02 1.208007335662841797e+00 -3.320369720458984375e+01 -7.778187748044729233e-03 1.037524119019508362e-01 2.879226766526699066e-02 -1.462583662942051888e-03
7.380000000000000000e+02 3.935731947422027588e-01 -3.162436866760253906e+01 -1.091662095859646797e-03 1.739182770252227783e-01 5.184798315167427063e-02 5.752896890044212341e-03
7.390000000000000000e+02 1.097490191459655762e+00 -2.916014099121093750e+01 -1.837885193526744843e-02 -9.019059943966567516e-04 -5.784227512776851654e-03 7.721422612667083740e-02
7.400000000000000000e+02 3.694729804992675781e-01 -2.921191024780273438e+01 -6.289447657763957977e-03 7.797166705131530762e-02 2.150466665625572205e-02 2.677793055772781372e-02
7.410000000000000000e+02 1.083671927452087402e+00 -2.835131072998046875e+01 -2.445216663181781769e-02 -5.746996030211448669e-02 -2.457663789391517639e-02 1.029971241950988770e-01
7.420000000000000000e+02 3.695965409278869629e-01 -2.759342575073242188e+01 -6.723478902131319046e-03 -8.523065596818923950e-02 -2.758624032139778137e-02 4.826681315898895264e-02
7.430000000000000000e+02 6.212861537933349609e+00 -2.517550277709960938e+01 -2.959507144987583160e-02 -1.406953930854797363e-01 -5.108713731169700623e-02 1.186574772000312805e-01
7.440000000000000000e+02 3.578997850418090820e+00 -2.581346893310546875e+01 -1.034814566373825073e-01 -2.003599107265472412e-01 -9.115241467952728271e-02 3.848972022533416748e-01
7.450000000000000000e+02 1.126477718353271484e+00 -2.588542747497558594e+01 -1.324984803795814514e-02 -3.323269784450531006e-01 -1.036730483174324036e-01 1.852875947952270508e-01
7.460000000000000000e+02 1.012806892395019531e+00 -2.034763526916503906e+01 2.353950776159763336e-02 -1.121011137962341309e+00 -3.292414844036102295e-01 1.147635728120803833e-01
7.470000000000000000e+02 6.504100322723388672e+00 -2.103762626647949219e+01 1.380792260169982910e-01 9.526450634002685547e-01 3.272172808647155762e-01 3.466592133045196533e-01
7.480000000000000000e+02 1.066429853439331055e+00 -2.190128135681152344e+01 1.610264740884304047e-02 -9.272778630256652832e-01 -2.733525633811950684e-01 1.699980199337005615e-01
7.490000000000000000e+02 1.789945125579833984e+00 -1.556806087493896484e+01 4.267305880784988403e-02 -9.591102004051208496e-01 -2.749311327934265137e-01 -1.070654094219207764e-01
7.500000000000000000e+02 3.556604385375976562e-01 -1.717959213256835938e+01 1.655639847740530968e-03 -1.535935878753662109e+00 -4.602840542793273926e-01 -6.449973210692405701e-03
7.510000000000000000e+02 3.604810535907745361e-01 -1.556620216369628906e+01 1.086045172996819019e-03 -1.453882455825805664e+00 -4.358389377593994141e-01 -2.828098833560943604e-02
7.520000000000000000e+02 3.599328100681304932e-01 -1.476163482666015625e+01 4.576409235596656799e-03 -1.381764769554138184e+00 -4.131565093994140625e-01 -3.459614887833595276e-02
7.530000000000000000e+02 3.594308793544769287e-01 -1.395807743072509766e+01 1.304403413087129593e-03 -1.294991970062255859e+00 -3.881062567234039307e-01 -4.106291010975837708e-02
7.540000000000000000e+02 3.592574298381805420e-01 -1.315579795837402344e+01 2.709007123485207558e-03 -1.195898771286010742e+00 -3.579569160938262939e-01 -4.552622511982917786e-02
7.550000000000000000e+02 3.586947619915008545e-01 -1.235388660430908203e+01 -5.279675242491066456e-04 -1.089171886444091797e+00 -3.269099593162536621e-01 -4.780727624893188477e-02
7.560000000000000000e+02 3.565704524517059326e-01 -1.155162048339843750e+01 1.553774927742779255e-03 -9.784429669380187988e-01 -2.930667698383331299e-01 -4.891838505864143372e-02
7.570000000000000000e+02 1.795721054077148438e+00 -1.235763835906982422e+01 1.097947452217340469e-02 -7.593472599983215332e-01 -2.245103269815444946e-01 -2.025967389345169067e-01
7.580000000000000000e+02 3.527378439903259277e-01 -1.074999904632568359e+01 -1.346899662166833878e-03 -8.655197620391845703e-01 -2.600599825382232666e-01 -4.895650967955589294e-02
7.590000000000000000e+02 3.495971262454986572e-01 -8.346840858459472656e+00 -4.780650779139250517e-04 -5.356139540672302246e-01 -1.608276069164276123e-01 -4.455575346946716309e-02
7.600000000000000000e+02 3.552700281143188477e-01 -7.542984962463378906e+00 -1.253095222637057304e-03 -4.350464046001434326e-01 -1.308898478746414185e-01 -4.238487407565116882e-02
7.610000000000000000e+02 3.644095361232757568e-01 -6.737411975860595703e+00 -9.203244117088615894e-04 -3.420408666133880615e-01 -1.028883606195449829e-01 -3.990142419934272766e-02
7.620000000000000000e+02 3.755454123020172119e-01 -5.930400371551513672e+00 -2.021189080551266670e-03 -2.583149671554565430e-01 -7.810084521770477295e-02 -3.653451055288314819e-02
7.630000000000000000e+02 3.864880800247192383e-01 -5.123082637786865234e+00 -1.629909616895020008e-03 -1.849316507577896118e-01 -5.596846714615821838e-02 -3.264650329947471619e-02
7.640000000000000000e+02 3.955531716346740723e-01 -4.316011428833007812e+00 -2.927423221990466118e-03 -1.225369423627853394e-01 -3.763930872082710266e-02 -2.784842811524868011e-02
7.650000000000000000e+02 4.020772576332092285e-01 -3.509415864944458008e+00 -2.778556896373629570e-03 -7.207841426134109497e-02 -2.245709300041198730e-02 -2.208203822374343872e-02
7.660000000000000000e+02 7.957582855224609375e+01 -4.206543731689453125e+01 1.711826917016878724e-04 -3.280111402273178101e-02 -9.788978844881057739e-03 1.724512840155512094e-04
7.670000000000000000e+02 7.949769592285156250e+01 -4.123410797119140625e+01 9.833121293922886252e-05 -3.236374631524085999e-02 -9.679624810814857483e-03 4.222076968289911747e-04
7.680000000000000000e+02 5.691567611694335938e+01 -4.123866271972656250e+01 9.551823139190673828e-02 3.441528975963592529e-01 1.319013386964797974e-01 -2.109043113887310028e-02
7.690000000000000000e+02 3.218355560302734375e+01 -3.955892562866210938e+01 -6.144050955772399902e-01 2.235462903976440430e+00 4.863173365592956543e-01 2.772504091262817383e-01
7.700000000000000000e+02 1.037405586242675781e+01 -4.043178558349609375e+01 1.304677873849868774e-02 -1.960202753543853760e-01 -5.489205196499824524e-02 6.278499029576778412e-03
7.710000000000000000e+02 1.608770370483398438e+00 -4.177748489379882812e+01 4.418185446411371231e-03 5.157189816236495972e-02 1.679702475666999817e-02 -5.907850340008735657e-03
7.720000000000000000e+02 7.961526489257812500e+01 -1.518234157562255859e+01 -3.135742372251115739e-05 1.468684331484837458e-05 -5.001174031349364668e-06 -5.101549959363183007e-06
7.730000000000000000e+02 7.806097412109375000e+01 -1.520224857330322266e+01 9.500178634880285244e-07 7.684069714741781354e-06 2.590226131360395811e-06 -3.263996768509969115e-05
7.740000000000000000e+02 7.727858734130859375e+01 -1.522146415710449219e+01 8.116938988678157330e-05 1.936564694915432483e-05 3.016051050508394837e-05 -6.211246363818645477e-05
7.750000000000000000e+02 7.439363098144531250e+01 -1.609314918518066406e+01 8.927493763621896505e-05 -8.352255099453032017e-05 1.725716742839722428e-06 -1.457747839594958350e-05
7.760000000000000000e+02 7.967196655273437500e+01 -1.830181121826171875e+01 -1.068666970240883529e-04 1.993506884900853038e-04 2.774519816739484668e-05 -1.350807997368974611e-05
7.770000000000000000e+02 7.967837524414062500e+01 -1.908242797851562500e+01 1.287761842831969261e-04 3.047791251447051764e-04 1.300665899179875851e-04 -6.472524546552449465e-05
7.780000000000000000e+02 7.968090820312500000e+01 -1.986321258544921875e+01 -1.325835764873772860e-04 4.027524555567651987e-04 8.105066808639094234e-05 -2.238553497591055930e-05
7.790000000000000000e+02 7.967042541503906250e+01 -2.220547866821289062e+01 1.559669763082638383e-04 9.050166117958724499e-04 3.182950604241341352e-04 -1.186483568744733930e-04
7.800000000000000000e+02 7.966426086425781250e+01 -2.298817634582519531e+01 -1.575001369928941131e-04 1.054998254403471947e-03 2.692494308575987816e-04 -3.236679185647517443e-05
7.810000000000000000e+02 7.965842437744140625e+01 -2.377196884155273438e+01 1.650688936933875084e-04 1.286737504415214062e-03 4.355419368948787451e-04 -1.344435440842062235e-04
7.820000000000000000e+02 7.965283203125000000e+01 -2.455814552307128906e+01 -1.778583537088707089e-04 1.413120771758258343e-03 3.705787239596247673e-04 -1.462102954974398017e-05
7.830000000000000000e+02 7.964729309082031250e+01 -2.534745407104492188e+01 1.625012810109183192e-04 1.579787698574364185e-03 5.226866924203932285e-04 -1.026067257043905556e-04
7.840000000000000000e+02 7.896076202392578125e+01 -2.431316375732421875e+01 1.400187175022438169e-04 8.979016565717756748e-04 3.113761194981634617e-04 -2.273446734761819243e-04
7.850000000000000000e+02 7.963511657714843750e+01 -2.693474197387695312e+01 1.525366969872266054e-04 1.532633206807076931e-03 5.055509391240775585e-04 3.775330696953460574e-06
7.860000000000000000e+02 7.961993408203125000e+01 -2.932057571411132812e+01 -2.695755974855273962e-04 4.004931179224513471e-05 -6.885788752697408199e-05 4.538469074759632349e-04
7.870000000000000000e+02 7.961750793457031250e+01 -3.011722183227539062e+01 1.321509189438074827e-04 -9.599198820069432259e-04 -2.483306743670254946e-04 5.012369947507977486e-04
7.880000000000000000e+02 7.961716461181640625e+01 -3.091082000732421875e+01 -3.024121397174894810e-04 -2.361214952543377876e-03 -7.990880985744297504e-04 7.760608568787574768e-04
7.890000000000000000e+02 7.961588287353515625e+01 -3.170171546936035156e+01 1.437150349374860525e-04 -4.044571425765752792e-03 -1.170256873592734337e-03 8.384161628782749176e-04
7.900000000000000000e+02 7.885590362548828125e+01 -3.149342536926269531e+01 -6.586390663869678974e-04 -4.292597062885761261e-03 -1.485370914451777935e-03 2.539614681154489517e-03
7.910000000000000000e+02 7.960383605957031250e+01 -3.329111480712890625e+01 1.571267930557951331e-04 -8.587677963078022003e-03 -2.529165241867303848e-03 1.224861131049692631e-03
7.920000000000000000e+02 7.957317352294921875e+01 -3.566651916503906250e+01 -1.225658488692715764e-04 -1.682517863810062408e-02 -5.084323231130838394e-03 1.499509089626371861e-03
7.930000000000000000e+02 7.955878448486328125e+01 -3.645586776733398438e+01 9.785196016309782863e-05 -1.955179497599601746e-02 -5.836182739585638046e-03 1.494917436502873898e-03
7.940000000000000000e+02 7.954217529296875000e+01 -3.724938583374023438e+01 -2.297189494129270315e-04 -2.238322608172893524e-02 -6.783883087337017059e-03 1.663028146140277386e-03
7.950000000000000000e+02 7.952056121826171875e+01 -3.805013656616210938e+01 2.472743508405983448e-04 -2.509966865181922913e-02 -7.455718237906694412e-03 1.570629072375595570e-03
7.960000000000000000e+02 7.949694061279296875e+01 -3.884811782836914062e+01 -1.648063043830916286e-04 -2.761539816856384277e-02 -8.334062062203884125e-03 1.552887842990458012e-03
7.970000000000000000e+02 7.950281524658203125e+01 -4.044150161743164062e+01 4.245290474500507116e-04 -3.150093182921409607e-02 -9.322920814156532288e-03 7.551044691354036331e-04
7.980000000000000000e+02 7.884125518798828125e+01 -1.518865108489990234e+01 4.686026659328490496e-05 3.095361898886039853e-05 2.334416603844147176e-05 -3.608782571973279119e-05
7.990000000000000000e+02 7.737723541259765625e+01 -1.593958568572998047e+01 1.637817331356927752e-05 -3.001304776262259111e-06 4.013060333818430081e-06 -5.983512528473511338e-05
8.000000000000000000e+02 7.649807739257812500e+01 -1.524658393859863281e+01 4.756956695928238332e-05 -2.509104888304136693e-05 6.743554877175483853e-06 -4.256260581314563751e-05
8.010000000000000000e+02 7.574198913574218750e+01 -1.528307723999023438e+01 1.179555038106627762e-04 -1.084580162569181994e-06 3.506127541186287999e-05 -5.025431164540350437e-05
8.020000000000000000e+02 7.355130004882812500e+01 -1.542845058441162109e+01 8.829093712847679853e-05 -5.601840530289337039e-05 9.681760275270789862e-06 1.415801034454489127e-05
8.030000000000000000e+02 7.427870941162109375e+01 -1.537655925750732422e+01 1.373460981994867325e-04 -1.141855409514391795e-05 3.777826350415125489e-05 -8.736087693250738084e-06
8.040000000000000000e+02 7.306228637695312500e+01 -1.693436431884765625e+01 1.785854547051712871e-04 -5.565502578974701464e-05 3.687912976602092385e-05 5.670309474226087332e-05
8.050000000000000000e+02 7.007593536376953125e+01 -1.592321491241455078e+01 4.248339610057882965e-05 6.079009472159668803e-05 3.098204615525901318e-05 8.018678636290132999e-05
8.060000000000000000e+02 1.412062835693359375e+01 -1.661175727844238281e+01 1.499746322631835938e+00 1.533501893281936646e-01 4.959289729595184326e-01 -4.005699455738067627e-01
8.070000000000000000e+02 1.635506629943847656e+01 -1.751476669311523438e+01 8.854448199272155762e-01 1.387845724821090698e-01 3.072688281536102295e-01 -3.730966448783874512e-01
8.080000000000000000e+02 1.781250762939453125e+01 -1.812494850158691406e+01 7.384402751922607422e-01 6.034824252128601074e-02 2.396365553140640259e-01 -2.490532100200653076e-01
8.090000000000000000e+02 1.855855369567871094e+01 -1.837748336791992188e+01 7.047826647758483887e-01 3.699566796422004700e-02 2.225334942340850830e-01 -1.981828361749649048e-01
8.100000000000000000e+02 2.162393188476562500e+01 -1.895130348205566406e+01 6.233887672424316406e-01 -2.563189901411533356e-02 1.793270707130432129e-01 -1.894249953329563141e-02
8.110000000000000000e+02 2.388570594787597656e+01 -1.817138862609863281e+01 6.400551795959472656e-01 -3.865211457014083862e-02 1.804209202527999878e-01 9.469491243362426758e-02
8.120000000000000000e+02 2.240412139892578125e+01 -1.820434188842773438e+01 6.598227024078369141e-01 -5.144063383340835571e-02 1.825146228075027466e-01 1.252727676182985306e-02
8.130000000000000000e+02 2.473794937133789062e+01 -1.878548812866210938e+01 6.184979677200317383e-01 -2.066327026113867760e-03 1.849294900894165039e-01 1.043418198823928833e-01
8.140000000000000000e+02 2.551223754882812500e+01 -1.866492462158203125e+01 5.900151133537292480e-01 2.199259027838706970e-02 1.836023181676864624e-01 1.219565123319625854e-01
8.150000000000000000e+02 2.706000709533691406e+01 -1.837512207031250000e+01 4.204376935958862305e-01 3.911260142922401428e-02 1.378650963306427002e-01 1.317894309759140015e-01
8.160000000000000000e+02 2.784084320068359375e+01 -1.823850440979003906e+01 2.252418696880340576e-01 9.332770481705665588e-03 7.037239521741867065e-02 1.360807716846466064e-01
8.170000000000000000e+02 2.836169624328613281e+01 -1.742364883422851562e+01 4.489279910922050476e-02 2.133736014366149902e-02 1.986904814839363098e-02 3.658295273780822754e-01
8.180000000000000000e+02 2.939925765991210938e+01 -1.797994041442871094e+01 -3.677788376808166504e-01 -2.495551481842994690e-03 -1.110823228955268860e-01 1.266867369413375854e-01
8.190000000000000000e+02 3.358876800537109375e+01 -1.865866851806640625e+01 -2.020159006118774414e+00 -6.506341695785522461e-02 -6.255667209625244141e-01 7.256033420562744141e-01
8.200000000000000000e+02 3.424316406250000000e+01 -1.915628814697265625e+01 -1.113460302352905273e+00 1.270108699798583984e+00 4.699449986219406128e-02 6.362093985080718994e-02
8.210000000000000000e+02 3.514712524414062500e+01 -2.175933647155761719e+01 7.850912213325500488e-02 7.930586814880371094e+00 2.402728796005249023e+00 1.901559382677078247e-01
8.220000000000000000e+02 3.504436492919921875e+01 -2.332044982910156250e+01 1.694561690092086792e-01 9.179737091064453125e+00 2.804757833480834961e+00 4.919481873512268066e-01
8.230000000000000000e+02 3.498917007446289062e+01 -2.411494064331054688e+01 6.228091716766357422e-01 1.055147171020507812e+01 3.352284193038940430e+00 1.270635128021240234e+00
8.240000000000000000e+02 3.422687149047851562e+01 -2.646422195434570312e+01 1.595694065093994141e+00 6.407938003540039062e+00 2.401089668273925781e+00 3.031464576721191406e+00
8.250000000000000000e+02 3.383348083496093750e+01 -2.721111297607421875e+01 1.851106166839599609e+00 5.561411380767822266e+00 2.223755121231079102e+00 2.878961563110351562e+00
8.260000000000000000e+02 3.337309265136718750e+01 -2.791733741760253906e+01 1.966911792755126953e+00 4.468199253082275391e+00 1.930533289909362793e+00 2.705982208251953125e+00
8.270000000000000000e+02 3.160932922363281250e+01 -2.969388198852539062e+01 1.538004875183105469e+00 1.886200904846191406e+00 1.027261734008789062e+00 1.585151553153991699e+00
8.280000000000000000e+02 3.018597602844238281e+01 -3.055477333068847656e+01 8.139694929122924805e-01 7.010520100593566895e-01 4.545064568519592285e-01 7.561673521995544434e-01
8.290000000000000000e+02 2.698071479797363281e+01 -3.107992553710937500e+01 -5.929313898086547852e-01 2.298491634428501129e-02 -1.709839403629302979e-01 1.043086312711238861e-02
8.300000000000000000e+02 2.459977531433105469e+01 -3.138680839538574219e+01 -6.410934329032897949e-01 -5.555473268032073975e-03 -1.939946711063385010e-01 -6.066581234335899353e-02
8.310000000000000000e+02 2.619216728210449219e+01 -3.117708778381347656e+01 -6.205654740333557129e-01 1.212239637970924377e-02 -1.825329214334487915e-01 -2.210306003689765930e-02
8.320000000000000000e+02 2.211503791809082031e+01 -3.167735099792480469e+01 -6.207484006881713867e-01 -7.791117299348115921e-03 -1.885618567466735840e-01 -5.835042148828506470e-02
8.330000000000000000e+02 2.127495956420898438e+01 -3.166046714782714844e+01 -5.914177894592285156e-01 -1.756308414041996002e-02 -1.826942712068557739e-01 -4.406355321407318115e-02
8.340000000000000000e+02 2.045900726318359375e+01 -3.162016296386718750e+01 -5.406596064567565918e-01 3.448976203799247742e-04 -1.620944142341613770e-01 -2.927595190703868866e-02
8.350000000000000000e+02 1.641205596923828125e+01 -3.162371444702148438e+01 -4.714182913303375244e-01 -1.475147437304258347e-02 -1.458509266376495361e-01 3.322227299213409424e-02
8.360000000000000000e+02 1.711819839477539062e+01 -3.258852005004882812e+01 -4.150920510292053223e-01 -3.438869491219520569e-02 -1.348442286252975464e-01 -8.728995919227600098e-03
8.370000000000000000e+02 1.804570770263671875e+01 -3.167430114746093750e+01 -5.246831178665161133e-01 -1.579672656953334808e-02 -1.621439605951309204e-01 -1.075121387839317322e-02
8.380000000000000000e+02 1.559764003753662109e+01 -3.152050971984863281e+01 -4.458421766757965088e-01 -1.385336741805076599e-02 -1.379086673259735107e-01 4.992876946926116943e-02
8.390000000000000000e+02 1.322781848907470703e+01 -3.105775833129882812e+01 -4.096243679523468018e-01 -2.266036719083786011e-02 -1.296854168176651001e-01 8.619901537895202637e-02
8.400000000000000000e+02 1.164479923248291016e+01 -3.075431632995605469e+01 -4.902466833591461182e-01 -4.873588308691978455e-02 -1.616947650909423828e-01 1.339848041534423828e-01
8.410000000000000000e+02 1.085179328918457031e+01 -3.055693817138671875e+01 -5.787436962127685547e-01 -9.129176288843154907e-02 -2.010106444358825684e-01 1.939718872308731079e-01
8.420000000000000000e+02 7.562930583953857422e+00 -2.821925544738769531e+01 -3.893918693065643311e-01 -4.110535681247711182e-01 -2.401336282491683960e-01 3.992348313331604004e-01
8.430000000000000000e+02 6.942588329315185547e+00 -2.763244438171386719e+01 -3.859896063804626465e-01 -5.486025214195251465e-01 -2.803776562213897705e-01 3.956287801265716553e-01
8.440000000000000000e+02 6.165667533874511719e+00 -2.435794067382812500e+01 2.391951129538938403e-04 1.032748669385910034e-01 3.105421736836433411e-02 1.000587865710258484e-01
8.450000000000000000e+02 6.151151657104492188e+00 -2.269414329528808594e+01 5.736853182315826416e-02 6.128399372100830078e-01 2.010625302791595459e-01 1.798500865697860718e-01
8.460000000000000000e+02 3.381734788417816162e-01 -1.958160400390625000e+01 5.639451555907726288e-03 -1.461930871009826660e+00 -4.368874132633209229e-01 2.830133959650993347e-02
8.470000000000000000e+02 1.036078333854675293e+00 -2.112224006652832031e+01 2.152730524539947510e-02 -1.026869773864746094e+00 -3.016027212142944336e-01 1.459355205297470093e-01
8.480000000000000000e+02 7.100302219390869141e+00 -1.950077629089355469e+01 2.690768539905548096e-01 1.107263922691345215e+00 4.129022359848022461e-01 5.339103341102600098e-01
8.490000000000000000e+02 1.170709800720214844e+01 -1.628735542297363281e+01 1.850674986839294434e+00 1.177140027284622192e-01 5.905166864395141602e-01 1.980374157428741455e-01
8.500000000000000000e+02 5.514154052734375000e+01 -3.050617408752441406e+01 8.990540169179439545e-03 8.437764644622802734e-02 2.801045589148998260e-02 -5.295761674642562866e-02
8.510000000000000000e+02 6.954631805419921875e+01 -1.602073860168457031e+01 -2.468982529535423964e-06 3.236613338231109083e-05 8.969145710580050945e-06 4.778308721142821014e-05
8.520000000000000000e+02 2.035697937011718750e+01 4.856543064117431641e+00 -1.624774995434563607e-05 -2.309932142452453263e-06 -5.567304924625204876e-06 -6.788849077565828338e-06
8.530000000000000000e+02 1.923192787170410156e+01 7.019385337829589844e+00 2.086729728034697473e-05 1.717522536637261510e-06 6.775445854145800695e-06 6.581195975741138682e-06
8.540000000000000000e+02 2.075305557250976562e+01 4.159204959869384766e+00 1.345335749647347257e-05 2.583436753411660902e-06 4.811038252228172496e-06 5.779037564934697002e-06
8.550000000000000000e+02 1.883333015441894531e+01 4.109035968780517578e+00 -6.550673333549639210e-06 2.544530616432894021e-06 -1.201842792397656012e-06 5.665483968186890706e-06
8.560000000000000000e+02 1.075010108947753906e+01 -2.738908529281616211e+00 -4.623135328292846680e-01 5.479349195957183838e-02 -1.222560107707977295e-01 -1.177977100014686584e-01
8.570000000000000000e+02 1.066028785705566406e+01 -3.437197923660278320e+00 -4.238545298576354980e-01 6.594983488321304321e-02 -1.073714047670364380e-01 -1.555989086627960205e-01
8.580000000000000000e+02 1.001876640319824219e+01 -2.666946411132812500e+00 -4.271300435066223145e-01 5.382503569126129150e-02 -1.119915023446083069e-01 -1.262678802013397217e-01
8.590000000000000000e+02 1.427933788299560547e+01 1.901301026344299316e+00 2.943821527878753841e-06 4.325717384290328482e-07 1.012918005471874494e-06 -2.429237611067947000e-07
8.600000000000000000e+02 1.569082546234130859e+01 1.723184108734130859e+00 3.241615786464535631e-06 1.172598672383173835e-06 1.324264303548261523e-06 -9.598958286005654372e-07
8.610000000000000000e+02 1.499120140075683594e+01 1.808353781700134277e+00 -3.518119001455488615e-06 -6.933703389222500846e-07 -1.263446847588056698e-06 4.236350719111214858e-07
8.620000000000000000e+02 1.203811550140380859e+01 1.528625607490539551e+00 1.679026240708481055e-06 -1.616413442206976470e-06 1.878381539199835970e-08 4.012815111309464555e-07
8.630000000000000000e+02 7.282845306396484375e+01 -1.550185775756835938e+01 1.278574636671692133e-04 -4.077846369909821078e-06 3.713388286996632814e-05 4.339464067015796900e-05
8.640000000000000000e+02 7.366809082031250000e+01 -1.615171813964843750e+01 1.577100338181480765e-04 -3.487541835056617856e-05 3.685038609546609223e-05 1.783795232768170536e-05
8.650000000000000000e+02 7.766118621826171875e+01 -1.879687500000000000e+01 -2.278374995512422174e-05 5.475399302667938173e-05 9.591072739567607641e-06 -1.528159773442894220e-04
8.660000000000000000e+02 7.295117950439453125e+01 -1.622648048400878906e+01 8.949893526732921600e-05 -8.058077219175174832e-05 2.675449877642677166e-06 3.752562042791396379e-05
8.670000000000000000e+02 7.223828887939453125e+01 -1.632269859313964844e+01 1.319871662417426705e-04 -8.516647540091071278e-06 3.704115806613117456e-05 8.259397145593538880e-05
8.680000000000000000e+02 7.153711700439453125e+01 -1.643740844726562500e+01 6.800059054512530565e-05 -4.320537482271902263e-05 7.438564807671355084e-06 7.364339398918673396e-05
8.690000000000000000e+02 7.210818481445312500e+01 -1.559821510314941406e+01 7.500701030949130654e-05 -3.820475103566423059e-05 1.104067905544070527e-05 4.716129842563532293e-05
8.700000000000000000e+02 7.964974212646484375e+01 -1.673842620849609375e+01 -6.870831566629931331e-05 7.652807107660919428e-05 2.345927441638195887e-06 -9.466658411838579923e-06
8.710000000000000000e+02 7.036613464355468750e+01 -1.746119117736816406e+01 1.007059327093884349e-04 9.550668619340285659e-05 5.886378494324162602e-05 1.600494433660060167e-04
8.720000000000000000e+02 6.854750823974609375e+01 -1.778198242187500000e+01 -8.851644815877079964e-05 1.592901535332202911e-04 2.123210833815392107e-05 1.599859933776315302e-05
8.730000000000000000e+02 2.153201484680175781e+01 2.744464874267578125e+00 8.390029506699647754e-06 1.699236349850252736e-06 3.026779722858918831e-06 3.727926014107652009e-06
8.740000000000000000e+02 7.321086120605468750e+01 -1.173590087890625000e+01 2.011599950492382050e-02 -4.587016999721527100e-03 4.658694844692945480e-03 3.685790346935391426e-03
8.750000000000000000e+02 6.682172393798828125e+01 -8.196301460266113281e+00 8.548395708203315735e-04 2.684327773749828339e-02 8.309435099363327026e-03 -1.707129739224910736e-02
8.760000000000000000e+02 6.729634094238281250e+01 -8.805700302124023438e+00 5.532613955438137054e-03 1.861881650984287262e-02 7.245429325848817825e-03 -1.734326034784317017e-02
8.770000000000000000e+02 6.871158599853515625e+01 -1.150061225891113281e+01 1.694505475461483002e-02 8.911668555811047554e-04 5.350866355001926422e-03 -1.786508038640022278e-02
8.780000000000000000e+02 7.632286071777343750e+01 -1.151641654968261719e+01 1.157499849796295166e-02 6.028938223607838154e-04 3.653367748484015465e-03 1.343255955725908279e-02
8.790000000000000000e+02 7.475563812255859375e+01 -1.091232681274414062e+01 9.914664551615715027e-03 -4.888416733592748642e-03 1.507874228991568089e-03 1.144368667155504227e-02
8.800000000000000000e+02 7.167567443847656250e+01 -1.121331691741943359e+01 1.545016374439001083e-02 -1.104965619742870331e-02 1.320152310654520988e-03 -4.216649103909730911e-03
8.810000000000000000e+02 7.091709136962890625e+01 -1.129232978820800781e+01 1.690015383064746857e-02 -1.142313145101070404e-02 1.643106457777321339e-03 -8.573072031140327454e-03
8.820000000000000000e+02 7.024060821533203125e+01 -9.258750915527343750e+00 -5.398862995207309723e-03 -1.913928799331188202e-02 -7.361445110291242599e-03 -6.693103350698947906e-03
8.830000000000000000e+02 7.320639038085937500e+01 -1.105703735351562500e+01 1.267916243523359299e-02 -8.108620531857013702e-03 1.371162710711359978e-03 4.325536079704761505e-03
8.840000000000000000e+02 7.553717041015625000e+01 -1.083285903930664062e+01 8.371395990252494812e-03 -2.549676224589347839e-03 1.746515859849750996e-03 1.395176816731691360e-02
8.850000000000000000e+02 1.384264850616455078e+01 -2.437436819076538086e+00 -6.731770038604736328e-01 1.084477826952934265e-02 -1.986996680498123169e-01 -4.632344841957092285e-02
8.860000000000000000e+02 1.451137351989746094e+01 -3.194216251373291016e+00 -6.260840892791748047e-01 8.251105435192584991e-03 -1.853498965501785278e-01 -7.968141883611679077e-02
8.870000000000000000e+02 1.374043560028076172e+01 -3.102786302566528320e+00 -5.962504744529724121e-01 2.233532629907131195e-02 -1.721745431423187256e-01 -8.602941036224365234e-02
8.880000000000000000e+02 1.222080421447753906e+01 -2.916506052017211914e+00 -5.319884419441223145e-01 4.382318630814552307e-02 -1.464495658874511719e-01 -1.023329421877861023e-01
8.890000000000000000e+02 1.297573852539062500e+01 -3.009933471679687500e+00 -5.672625303268432617e-01 3.317081928253173828e-02 -1.602275073528289795e-01 -9.337370097637176514e-02
8.900000000000000000e+02 1.691024589538574219e+01 -3.397330522537231445e+00 -6.972090601921081543e-01 -3.656341508030891418e-02 -2.201317548751831055e-01 -7.764828950166702271e-02
8.910000000000000000e+02 8.109930038452148438e+00 2.517888545989990234e+00 1.241880340785428416e-06 -2.238777597085572779e-06 -2.990691712057014229e-07 2.339469574508257210e-06
8.920000000000000000e+02 1.355189514160156250e+01 1.998230934143066406e+00 -3.096754880971275270e-06 -1.141898877676794655e-07 -9.632833553041564301e-07 -1.876496895647505880e-07
8.930000000000000000e+02 1.127813720703125000e+01 2.297491550445556641e+00 2.755776222329586744e-06 -1.081283699022606015e-06 5.023477456234104466e-07 5.811703545077762101e-07
8.940000000000000000e+02 1.280733966827392578e+01 2.097227811813354492e+00 2.621897237986559048e-06 -1.900152710732072592e-07 7.295645900740055367e-07 1.465816836798694567e-07
8.950000000000000000e+02 5.806931495666503906e+00 1.855445027351379395e+00 -2.535025771521759452e-07 -2.361436600040178746e-06 -7.844816991564584896e-07 2.533811084504122846e-06
8.960000000000000000e+02 7.368947029113769531e+00 1.846919059753417969e+00 3.996942723460961133e-07 -2.788459141811472364e-06 -7.166294722082966473e-07 2.261128429381642491e-06
8.970000000000000000e+02 6.534334182739257812e+00 2.551331043243408203e+00 4.128665977987111546e-07 -2.177079977627727203e-06 -5.292640139487048145e-07 3.038762542928452604e-06
8.980000000000000000e+02 1.785079598426818848e+00 4.134672641754150391e+00 -4.044555225846124813e-06 -8.979056929092621431e-07 -1.482738298363983631e-06 2.913846856245072559e-06
8.990000000000000000e+02 2.626622200012207031e+00 2.602458238601684570e+00 1.846141003625234589e-06 7.534356427640886977e-07 7.798730052854807582e-07 -2.130014536305679940e-06
9.000000000000000000e+02 1.860364317893981934e+00 2.621271371841430664e+00 -2.339294042030815035e-06 -6.079856689211737830e-07 -8.841839189699385315e-07 1.946009888342814520e-06
9.010000000000000000e+02 3.654948770999908447e-01 2.684277296066284180e+00 -2.560441316745709628e-06 -1.096106316822442750e-07 -8.010155738702451345e-07 6.766972546756733209e-07
9.020000000000000000e+02 9.698376655578613281e+00 2.449014663696289062e+00 1.779736862772551831e-06 -1.784334131116338540e-06 -1.379179215277304138e-09 1.308174432779196650e-06
9.030000000000000000e+02 7.321238040924072266e+00 2.537145853042602539e+00 -1.664139972490374930e-06 2.442415961922961287e-06 2.334827513550408185e-07 -2.524181354601751082e-06
9.040000000000000000e+02 1.049417114257812500e+01 2.384602546691894531e+00 -3.211536068192799576e-06 1.518172211945056915e-06 -5.080091227682714816e-07 -1.000205656964681111e-06
9.050000000000000000e+02 4.659779739379882812e+01 1.142590999603271484e+00 -1.147211360931396484e+01 -1.093106865882873535e+00 -3.769566059112548828e+00 8.529395610094070435e-02
9.060000000000000000e+02 4.744891357421875000e+01 1.008970975875854492e+00 -1.015231704711914062e+01 -6.978390812873840332e-01 -3.255046844482421875e+00 1.764935255050659180e+00
9.070000000000000000e+02 2.354962539672851562e+01 -2.115526199340820312e+00 -1.129172444343566895e+00 1.654224246740341187e-01 -2.891249954700469971e-01 -3.287228941917419434e-02
9.080000000000000000e+02 2.359664344787597656e+01 -2.875182628631591797e+00 -1.183884024620056152e+00 1.183808520436286926e-01 -3.196509480476379395e-01 -1.774934828281402588e-01
9.090000000000000000e+02 6.337767410278320312e+01 -3.967824935913085938e+00 -4.152677059173583984e-01 -1.512551605701446533e-01 -1.699568629264831543e-01 2.432580292224884033e-01
9.100000000000000000e+02 6.574668884277343750e+01 -6.184916496276855469e+00 -5.505763739347457886e-02 2.505587227642536163e-02 -9.000529535114765167e-03 2.501935884356498718e-02
9.110000000000000000e+02 5.203630828857421875e+01 3.438972830772399902e-01 -3.859492063522338867e+00 2.444449067115783691e-01 -1.084514141082763672e+00 6.275447607040405273e-01
9.120000000000000000e+02 5.976395797729492188e+01 -1.369121074676513672e+00 -2.054923534393310547e+00 -1.175470426678657532e-01 -6.517412066459655762e-01 2.717348933219909668e-01
9.130000000000000000e+02 6.178192520141601562e+01 -1.858824372291564941e+00 -1.385784268379211426e+00 7.021946657914668322e-05 -4.157142341136932373e-01 1.704870611429214478e-01
9.140000000000000000e+02 5.347864532470703125e+01 -7.817999124526977539e-01 -3.534501552581787109e+00 7.856599055230617523e-03 -1.057993531227111816e+00 4.385967850685119629e-01
9.150000000000000000e+02 4.898363494873046875e+01 5.312373042106628418e-01 -6.639941692352294922e+00 -5.553920269012451172e-01 -2.158600091934204102e+00 1.915627956390380859e+00
9.160000000000000000e+02 6.116817855834960938e+01 -1.742513775825500488e+00 -1.595444202423095703e+00 -3.763575479388237000e-02 -4.899239838123321533e-01 2.038561701774597168e-01
9.170000000000000000e+02 6.042019271850585938e+01 -2.281490802764892578e+00 -1.800832152366638184e+00 -2.428565770387649536e-01 -6.131066083908081055e-01 5.652741789817810059e-01
9.180000000000000000e+02 6.395379257202148438e+01 -3.521815299987792969e+00 -6.304991841316223145e-01 5.327053833752870560e-03 -1.875516325235366821e-01 1.774398684501647949e-01
9.190000000000000000e+02 5.739482116699218750e+01 -1.449768185615539551e+00 -3.076919078826904297e+00 -1.216303408145904541e-01 -9.595648050308227539e-01 5.108599066734313965e-01
9.200000000000000000e+02 6.490579986572265625e+01 -4.798521995544433594e+00 -2.332195490598678589e-01 4.922252614051103592e-03 -6.848918646574020386e-02 9.810204803943634033e-02
9.210000000000000000e+02 6.609960937500000000e+01 -6.877505779266357422e+00 -2.115906216204166412e-02 2.937761694192886353e-02 2.465566620230674744e-03 2.743730146903544664e-04
9.220000000000000000e+02 4.838274002075195312e+01 2.087808847427368164e+00 -5.570549488067626953e+00 -4.280925095081329346e-01 -1.799592614173889160e+00 -1.444423943758010864e-01
9.230000000000000000e+02 5.826492309570312500e+01 -9.833307862281799316e-01 -2.581011533737182617e+00 -8.092762529850006104e-02 -7.985817193984985352e-01 2.544639110565185547e-01
9.240000000000000000e+02 5.056685638427734375e+01 7.306074500083923340e-01 -4.772531509399414062e+00 -2.856616489589214325e-02 -1.440329194068908691e+00 7.317058444023132324e-01
9.250000000000000000e+02 4.982449722290039062e+01 9.590937495231628418e-01 -5.310600280761718750e+00 -1.893578022718429565e-01 -1.649987339973449707e+00 8.838079571723937988e-01
9.260000000000000000e+02 5.901832962036132812e+01 -1.170797348022460938e+00 -2.351143836975097656e+00 -8.258423209190368652e-02 -7.301184535026550293e-01 2.831922173500061035e-01
9.270000000000000000e+02 5.442632675170898438e+01 4.497340321540832520e-02 -3.219476938247680664e+00 6.751511991024017334e-02 -9.455885887145996094e-01 2.580235898494720459e-01
9.280000000000000000e+02 6.694498443603515625e+01 -1.016412925720214844e+01 1.540087815374135971e-02 4.059333726763725281e-02 1.679826341569423676e-02 -2.419850230216979980e-02
9.290000000000000000e+02 7.168005371093750000e+01 -1.051962947845458984e+01 8.585803210735321045e-03 -1.458791550248861313e-02 -1.800633850507438183e-03 -3.594371723011136055e-03
9.300000000000000000e+02 5.130139923095703125e+01 5.203918814659118652e-01 -4.255568504333496094e+00 2.191784232854843140e-01 -1.210917115211486816e+00 7.069517374038696289e-01
9.310000000000000000e+02 5.427176284790039062e+01 -8.774086236953735352e-01 -3.588047266006469727e+00 -3.471724689006805420e-02 -1.086829304695129395e+00 3.807300031185150146e-01
9.320000000000000000e+02 5.524441909790039062e+01 -1.801469177007675171e-01 -3.159667730331420898e+00 -2.023860253393650055e-02 -9.539718627929687500e-01 2.146265357732772827e-01
9.330000000000000000e+02 6.718780517578125000e+01 -1.095366954803466797e+01 1.138478238135576248e-02 3.306673467159271240e-02 1.333545520901679993e-02 -2.015734836459159851e-02
9.340000000000000000e+02 7.900161743164062500e+01 -2.200100135803222656e+01 -1.317641726927831769e-04 5.811241571791470051e-04 1.348079822491854429e-04 -1.754621625877916813e-04
9.350000000000000000e+02 7.967622375488281250e+01 -2.142540550231933594e+01 -1.454937737435102463e-04 6.946861394681036472e-04 1.647577155381441116e-04 -3.195116369170136750e-05
9.360000000000000000e+02 7.963479614257812500e+01 -1.595755386352539062e+01 5.457824590848758817e-05 4.452753637451678514e-05 2.973173468490131199e-05 -2.133579619112424552e-05
9.370000000000000000e+02 7.900385284423828125e+01 -1.821475219726562500e+01 1.087755154003389180e-04 1.764990884112194180e-04 8.558238187106326222e-05 -1.115634513553231955e-04
9.380000000000000000e+02 7.377211761474609375e+01 -1.685951232910156250e+01 9.907183994073420763e-05 -1.249719061888754368e-04 -7.770019692543428391e-06 7.707620170549489558e-06
9.390000000000000000e+02 7.902867126464843750e+01 -2.048730850219726562e+01 -1.134189587901346385e-04 3.866457846015691757e-04 8.196804265026003122e-05 -1.395782019244506955e-04
9.400000000000000000e+02 7.523348236083984375e+01 -1.674793815612792969e+01 8.411576709477230906e-05 -9.921377204591408372e-05 -4.529402758635114878e-06 -5.359519491321407259e-05
9.410000000000000000e+02 7.902346038818359375e+01 -1.897094154357910156e+01 -9.129197860602289438e-05 2.202581963501870632e-04 3.868986823363229632e-05 -9.014773240778595209e-05
9.420000000000000000e+02 7.903161621093750000e+01 -1.972740554809570312e+01 1.404403883498162031e-04 3.182810905855149031e-04 1.376164436805993319e-04 -1.557276700623333454e-04
9.430000000000000000e+02 7.809713745117187500e+01 -2.971882820129394531e+01 -6.553957937285304070e-04 -1.959647750481963158e-03 -7.845130749046802521e-04 2.343872096389532089e-03
9.440000000000000000e+02 7.962436676025390625e+01 -2.852515029907226562e+01 1.341778988717123866e-04 8.127613691613078117e-04 2.840817905962467194e-04 2.087361062876880169e-04
9.450000000000000000e+02 7.775650787353515625e+01 -3.602231597900390625e+01 3.371716302353888750e-04 -1.499653514474630356e-02 -4.397809039801359177e-03 7.031144108623266220e-03
9.460000000000000000e+02 7.958502197265625000e+01 -3.487668609619140625e+01 1.209771508001722395e-04 -1.401594374328851700e-02 -4.168489947915077209e-03 1.465524779632687569e-03
9.470000000000000000e+02 7.894899749755859375e+01 -2.509973907470703125e+01 -2.421965618850663304e-04 8.874862105585634708e-04 1.935868931468576193e-04 -6.950373790459707379e-05
9.480000000000000000e+02 7.891516876220703125e+01 -2.669572448730468750e+01 -3.415869723539799452e-04 6.903219036757946014e-04 1.046204852173104882e-04 2.179878792958334088e-04
9.490000000000000000e+02 7.893356323242187500e+01 -2.589488410949707031e+01 8.688929665368050337e-05 8.788721170276403427e-04 2.897284284699708223e-04 -4.343367982073687017e-05
9.500000000000000000e+02 7.964128875732421875e+01 -2.614001464843750000e+01 -2.016430080402642488e-04 1.575648435391485691e-03 4.122016252949833870e-04 5.356498513719998300e-05
9.510000000000000000e+02 7.889718627929687500e+01 -2.749723434448242188e+01 7.342039680224843323e-06 4.269073542673140764e-04 1.302748132729902864e-04 3.651485312730073929e-04
9.520000000000000000e+02 7.888134002685546875e+01 -2.829840660095214844e+01 -4.816202272195369005e-04 -6.656000914517790079e-05 -1.644540752749890089e-04 7.607669103890657425e-04
9.530000000000000000e+02 7.886611175537109375e+01 -2.910107231140136719e+01 -1.110652083298191428e-04 -7.268440676853060722e-04 -2.513727813493460417e-04 1.075795385986566544e-03
9.540000000000000000e+02 7.739588165283203125e+01 -3.122758102416992188e+01 -2.060587052255868912e-03 -3.865129547193646431e-03 -1.777714933268725872e-03 4.727995023131370544e-03
9.550000000000000000e+02 7.882064056396484375e+01 -3.308802795410156250e+01 -6.263148388825356960e-04 -8.017645217478275299e-03 -2.593187848106026649e-03 3.517775796353816986e-03
9.560000000000000000e+02 7.961119079589843750e+01 -3.249581146240234375e+01 -3.368684847373515368e-04 -6.176580674946308136e-03 -1.954034669324755669e-03 1.147964154370129108e-03
9.570000000000000000e+02 7.879184722900390625e+01 -3.387989425659179688e+01 3.832202855846844614e-05 -1.029737479984760284e-02 -3.077715868130326271e-03 3.926760051399469376e-03
9.580000000000000000e+02 7.871366882324218750e+01 -3.545582199096679688e+01 1.817291195038706064e-04 -1.493828184902667999e-02 -4.426965955644845963e-03 4.393679555505514145e-03
9.590000000000000000e+02 7.844605255126953125e+01 -3.868264770507812500e+01 7.380330935120582581e-04 -2.299101836979389191e-02 -6.675895769149065018e-03 4.298280458897352219e-03
9.600000000000000000e+02 7.863488769531250000e+01 -3.703754425048828125e+01 1.840217155404388905e-04 -1.930333301424980164e-02 -5.735793150961399078e-03 4.336753394454717636e-03
9.610000000000000000e+02 7.763417816162109375e+01 -3.981358337402343750e+01 1.375828636810183525e-03 -2.252731472253799438e-02 -6.345446221530437469e-03 4.965831059962511063e-03
9.620000000000000000e+02 7.847496032714843750e+01 -3.950941467285156250e+01 4.371322283986955881e-04 -2.439628355205059052e-02 -7.187745068222284317e-03 3.683650633320212364e-03
9.630000000000000000e+02 7.949973297119140625e+01 -3.964466094970703125e+01 3.003499296028167009e-04 -2.985075488686561584e-02 -8.865121752023696899e-03 1.392471604049205780e-03
9.640000000000000000e+02 7.851228332519531250e+01 -4.027326202392578125e+01 1.740959705784916878e-03 -2.657927386462688446e-02 -7.451494224369525909e-03 2.913463860750198364e-03
9.650000000000000000e+02 7.853768920898437500e+01 -4.199281311035156250e+01 6.569536635652184486e-04 -2.873753756284713745e-02 -8.424174971878528595e-03 3.579894255381077528e-04
9.660000000000000000e+02 7.512765502929687500e+01 -1.604325103759765625e+01 1.464608212700113654e-04 -2.599503022793214768e-05 3.613973603933118284e-05 -4.605022695614024997e-05
9.670000000000000000e+02 7.813904571533203125e+01 -1.593023014068603516e+01 7.417940651066601276e-05 4.450762571650557220e-05 3.560611003194935620e-05 -7.424453360727056861e-05
9.680000000000000000e+02 7.586633300781250000e+01 -1.599974441528320312e+01 6.317764200503006577e-05 -5.410583980847150087e-05 2.721539203776046634e-06 -5.377767229219898582e-05
9.690000000000000000e+02 7.746736907958984375e+01 -1.666372871398925781e+01 1.067612247425131500e-04 3.818038749159313738e-05 4.348248330643400550e-05 -1.098019056371413171e-04
9.700000000000000000e+02 1.857415008544921875e+01 -2.785371065139770508e+00 -8.517382144927978516e-01 -5.311745032668113708e-02 -2.714566886425018311e-01 -6.413627415895462036e-02
9.710000000000000000e+02 1.776937103271484375e+01 -2.762418031692504883e+00 -8.300452828407287598e-01 -4.696728289127349854e-02 -2.631037533283233643e-01 -6.111563369631767273e-02
9.720000000000000000e+02 1.530014133453369141e+01 -3.279043436050415039e+00 -6.506248712539672852e-01 -6.276722531765699387e-03 -1.970704793930053711e-01 -7.627740502357482910e-02
9.730000000000000000e+02 1.610294532775878906e+01 -3.347376585006713867e+00 -6.779231429100036621e-01 -2.076414600014686584e-02 -2.096061855554580688e-01 -7.451847195625305176e-02
9.740000000000000000e+02 1.772435951232910156e+01 -3.430395603179931641e+00 -7.203711271286010742e-01 -4.769705608487129211e-02 -2.304204553365707397e-01 -7.820289582014083862e-02
9.750000000000000000e+02 3.977547073364257812e+01 6.052853107452392578e+00 1.437327861785888672e+00 1.115728282928466797e+01 3.778383255004882812e+00 3.554001569747924805e+00
9.760000000000000000e+02 5.759152603149414062e+01 -3.343601226806640625e+01 -1.496313661336898804e-01 5.847120657563209534e-02 -2.734804898500442505e-02 -4.173470661044120789e-02
9.770000000000000000e+02 5.631651306152343750e+01 -3.167623519897460938e+01 -1.559066921472549438e-01 1.587730459868907928e-02 -4.200881719589233398e-02 2.444672025740146637e-02
9.780000000000000000e+02 2.995996475219726562e+01 3.716151428222656250e+01 -2.489396333694458008e-01 -4.553962498903274536e-02 -8.834377676248550415e-02 6.302566081285476685e-02
9.790000000000000000e+02 5.871683502197265625e+01 -3.262206268310546875e+01 -3.722088038921356201e-01 -1.381821930408477783e-02 -1.158081069588661194e-01 4.591666907072067261e-02
9.800000000000000000e+02 2.910958862304687500e+01 -1.724832725524902344e+01 -1.732590049505233765e-01 5.686721205711364746e-02 -3.491753712296485901e-02 4.292628169059753418e-01
9.810000000000000000e+02 3.091627693176269531e+01 -1.766620063781738281e+01 -1.782903313636779785e+00 -2.849468886852264404e-01 -6.203550696372985840e-01 5.081073045730590820e-01
9.820000000000000000e+02 5.967266082763671875e+01 -3.381297302246093750e+01 -1.547731906175613403e-01 -1.606232486665248871e-02 -5.125065520405769348e-02 3.069649823009967804e-02
9.830000000000000000e+02 4.221317291259765625e+01 -1.627822303771972656e+01 1.169889688491821289e+00 1.282044315338134766e+01 4.197099685668945312e+00 -2.952346324920654297e+00
9.840000000000000000e+02 6.277122497558593750e+01 -3.182343101501464844e+01 -1.530378460884094238e-01 -2.293764241039752960e-02 -5.279264971613883972e-02 -3.996526449918746948e-02
9.850000000000000000e+02 4.154310226440429688e+01 -7.454729080200195312e+00 9.501662254333496094e-01 1.792522048950195312e+01 5.662616252899169922e+00 1.793937563896179199e+00
9.860000000000000000e+02 6.828260040283203125e+01 -2.612525939941406250e+01 -7.039066404104232788e-04 1.311907428316771984e-03 1.824002247303724289e-04 3.551587287802249193e-04
9.870000000000000000e+02 7.047543334960937500e+01 -2.434453582763671875e+01 -1.470131537644192576e-04 -2.838668879121541977e-04 -1.292640226893126965e-04 1.857017341535538435e-04
9.880000000000000000e+02 4.384594345092773438e+01 -5.891273021697998047e-01 1.372185945510864258e+00 5.655139923095703125e+00 2.108197689056396484e+00 2.782759428024291992e+00
9.890000000000000000e+02 6.949828338623046875e+01 -2.389776420593261719e+01 3.996377927251160145e-04 7.386294309981167316e-04 3.414801612962037325e-04 6.363274296745657921e-04
9.900000000000000000e+02 4.336544799804687500e+01 -1.248761773109436035e+00 2.098082065582275391e+00 9.576594352722167969e+00 3.502403020858764648e+00 4.264682292938232422e+00
9.910000000000000000e+02 4.214300537109375000e+01 -2.392843484878540039e+00 1.396288275718688965e+00 1.226974296569824219e+01 4.099809646606445312e+00 2.661572456359863281e+00
9.920000000000000000e+02 4.156313705444335938e+01 -1.637700653076171875e+01 1.337614536285400391e+00 1.082550811767578125e+01 3.648936748504638672e+00 -1.965737104415893555e+00
9.930000000000000000e+02 3.519697570800781250e+01 -1.632668304443359375e+01 -6.408220529556274414e-02 3.889558792114257812e+00 1.147642970085144043e+00 -1.466968357563018799e-01
9.940000000000000000e+02 4.290778732299804688e+01 -8.894025683403015137e-01 6.532964855432510376e-02 9.777574539184570312e+00 2.952871084213256836e+00 2.045035362243652344e+00
9.950000000000000000e+02 4.342786407470703125e+01 -2.035674005746841431e-01 -1.227337241172790527e+00 7.501536846160888672e+00 1.882259845733642578e+00 1.706580281257629395e+00
9.960000000000000000e+02 4.122714996337890625e+01 -1.469392299652099609e+01 6.865383982658386230e-01 1.208805084228515625e+01 3.832376718521118164e+00 -1.275360822677612305e+00
9.970000000000000000e+02 4.136811065673828125e+01 -1.553070449829101562e+01 8.253744244575500488e-01 1.169134712219238281e+01 3.755016565322875977e+00 -1.779004812240600586e+00
9.980000000000000000e+02 6.313565826416015625e+01 -3.272037506103515625e+01 -1.275900155305862427e-01 1.969452714547514915e-03 -3.768616542220115662e-02 5.063549615442752838e-03
9.990000000000000000e+02 4.105096054077148438e+01 -1.303730106353759766e+01 3.045955002307891846e-01 1.230072498321533203e+01 3.781596183776855469e+00 -1.112520098686218262e+00
1.000000000000000000e+03 6.607949829101562500e+01 -2.941327285766601562e+01 -2.191795781254768372e-02 -8.410861715674400330e-03 -9.098646230995655060e-03 -1.404979918152093887e-02
1.001000000000000000e+03 4.133855819702148438e+01 3.141876029968261719e+01 9.418737888336181641e-01 5.597554206848144531e+00 1.961828351020812988e+00 -1.437256693840026855e+00
1.002000000000000000e+03 5.660200881958007812e+01 -3.307750701904296875e+01 -1.370273977518081665e-01 1.202340722084045410e-01 -5.037994589656591415e-03 -1.006863191723823547e-01
1.003000000000000000e+03 5.862598037719726562e+01 -3.378052902221679688e+01 -1.466445475816726685e-01 1.466339570470154285e-03 -4.355346411466598511e-02 -1.906119054183363914e-03
1.004000000000000000e+03 4.160203170776367188e+01 -3.908942222595214844e+00 6.837807893753051758e-01 1.297191905975341797e+01 4.096710205078125000e+00 2.885640859603881836e+00
1.005000000000000000e+03 4.328311538696289062e+01 -1.850456047058105469e+01 2.092219352722167969e+00 5.806414127349853516e+00 2.369590044021606445e+00 -3.205261230468750000e+00
1.006000000000000000e+03 4.438309860229492188e+01 -2.086300468444824219e+01 8.612861633300781250e-01 2.996337175369262695e+00 1.157287001609802246e+00 -1.617667794227600098e+00
1.007000000000000000e+03 6.418547821044921875e+01 -3.098014450073242188e+01 -7.366155833005905151e-02 -1.768768578767776489e-02 -2.740477398037910461e-02 -2.995737269520759583e-02
1.008000000000000000e+03 6.656694030761718750e+01 -3.004698371887207031e+01 -3.356716036796569824e-02 -9.801024571061134338e-04 -1.036417856812477112e-02 -8.802366442978382111e-03
1.009000000000000000e+03 4.259755325317382812e+01 -1.884018135070800781e+01 9.694598317146301270e-01 6.956370353698730469e+00 2.377748966217041016e+00 -2.062583923339843750e+00
1.010000000000000000e+03 4.183258438110351562e+01 -1.721646499633789062e+01 1.405597209930419922e+00 9.940315246582031250e+00 3.403773546218872070e+00 -1.878340482711791992e+00
1.011000000000000000e+03 4.218008041381835938e+01 -1.803038978576660156e+01 1.142601490020751953e+00 8.726727485656738281e+00 2.960798501968383789e+00 -2.027166843414306641e+00
1.012000000000000000e+03 6.959323883056640625e+01 -2.640736389160156250e+01 -2.739480463787913322e-03 -1.838766766013577580e-04 -8.770071435719728470e-04 -8.815828477963805199e-04
1.013000000000000000e+03 4.154181671142578125e+01 -9.877870559692382812e+00 1.791229993104934692e-01 1.506857395172119141e+01 4.574308872222900391e+00 -5.503516644239425659e-02
1.014000000000000000e+03 4.088686752319335938e+01 -9.827602386474609375e+00 4.731484055519104004e-01 1.361474514007568359e+01 4.226367950439453125e+00 1.456808596849441528e-01
1.015000000000000000e+03 6.596823120117187500e+01 -3.068257331848144531e+01 -4.530569538474082947e-02 5.051533225923776627e-04 -1.344016194343566895e-02 -1.110250223428010941e-02
1.016000000000000000e+03 6.808441162109375000e+01 -2.804713249206542969e+01 -7.907029241323471069e-03 1.115839950216468424e-05 -2.368761226534843445e-03 -4.549120552837848663e-03
1.017000000000000000e+03 6.853675079345703125e+01 -2.742765617370605469e+01 -5.594471935182809830e-03 -4.310951044317334890e-05 -1.691274461336433887e-03 -2.414999762549996376e-03
1.018000000000000000e+03 5.456745910644531250e+01 -2.995093917846679688e+01 5.066519230604171753e-02 1.225426644086837769e-01 5.196235701441764832e-02 -8.340648561716079712e-02
1.019000000000000000e+03 5.518585205078125000e+01 -3.174321746826171875e+01 -5.947768688201904297e-02 1.984472870826721191e-01 4.169087857007980347e-02 -1.029219925403594971e-01
1.020000000000000000e+03 5.641036987304687500e+00 -2.617770767211914062e+01 -1.870148479938507080e-01 -2.764583826065063477e-01 -1.390419751405715942e-01 3.288198709487915039e-01
1.021000000000000000e+03 4.099655914306640625e+01 -1.222953319549560547e+01 3.921507671475410461e-02 1.273827171325683594e+01 3.833245992660522461e+00 -6.378082036972045898e-01
1.022000000000000000e+03 5.060544204711914062e+01 -2.735424423217773438e+01 2.765010893344879150e-01 5.696921348571777344e-01 2.538579702377319336e-01 -4.109377264976501465e-01
1.023000000000000000e+03 4.947092819213867188e+01 -2.615322685241699219e+01 3.673542141914367676e-01 6.930047273635864258e-01 3.181076943874359131e-01 -5.157116055488586426e-01
1.024000000000000000e+03 4.133514785766601562e+01 -4.687444686889648438e+00 4.670578837394714355e-01 1.313608074188232422e+01 4.080941677093505859e+00 2.736289978027343750e+00
1.025000000000000000e+03 4.153712081909179688e+01 -9.076862335205078125e+00 5.046197772026062012e-02 1.517066287994384766e+01 4.566337585449218750e+00 2.352647334337234497e-01
1.026000000000000000e+03 4.020539093017578125e+01 -8.993819236755371094e+00 9.248377680778503418e-01 1.249998474121093750e+01 4.027446746826171875e+00 1.043966293334960938e+00
1.027000000000000000e+03 6.940089416503906250e+01 -2.314072036743164062e+01 -1.841607881942763925e-04 7.819133461453020573e-04 1.793257688404992223e-04 3.458093560766428709e-04
1.028000000000000000e+03 6.532169342041015625e+01 -3.127672386169433594e+01 -6.460003554821014404e-02 9.055342525243759155e-04 -1.910834945738315582e-02 -9.493813849985599518e-03
1.029000000000000000e+03 6.463638305664062500e+01 -3.181940650939941406e+01 -8.445419371128082275e-02 3.695247927680611610e-03 -2.422768436372280121e-02 -9.592138230800628662e-03
1.030000000000000000e+03 4.379439163208007812e+01 -2.025276184082031250e+01 8.931503295898437500e-01 3.933572292327880859e+00 1.448016762733459473e+00 -1.845167636871337891e+00
1.031000000000000000e+03 4.102482604980468750e+01 -5.515573978424072266e+00 7.135561704635620117e-01 1.343657016754150391e+01 4.245038032531738281e+00 2.208084106445312500e+00
1.032000000000000000e+03 4.614058685302734375e+01 -2.370402908325195312e+01 5.859805345535278320e-01 1.702982306480407715e+00 6.866888403892517090e-01 -9.860391020774841309e-01
1.033000000000000000e+03 4.610469436645507812e+01 -2.146167755126953125e+01 8.241609334945678711e-01 1.171623468399047852e+00 5.987353324890136719e-01 -9.688528180122375488e-01
1.034000000000000000e+03 4.185883331298828125e+01 -3.149938106536865234e+00 1.024483203887939453e+00 1.270491790771484375e+01 4.118820190429687500e+00 2.920099973678588867e+00
1.035000000000000000e+03 4.087177658081054688e+01 -9.022073745727539062e+00 3.951877951622009277e-01 1.417470741271972656e+01 4.370968341827392578e+00 6.694684624671936035e-01
1.036000000000000000e+03 5.286101150512695312e+01 -2.950191116333007812e+01 1.165071129798889160e-01 3.596253693103790283e-01 1.428397446870803833e-01 -2.328235507011413574e-01
1.037000000000000000e+03 5.401646804809570312e+01 -3.063302993774414062e+01 4.550035297870635986e-02 2.747059762477874756e-01 9.606189280748367310e-02 -1.620710343122482300e-01
1.038000000000000000e+03 4.891165542602539062e+01 -2.554123687744140625e+01 4.011018872261047363e-01 7.657896280288696289e-01 3.500674664974212646e-01 -5.721668601036071777e-01
1.039000000000000000e+03 5.286933517456054688e+01 -2.826805877685546875e+01 1.539248079061508179e-01 2.291494160890579224e-01 1.149222627282142639e-01 -1.870602220296859741e-01
1.040000000000000000e+03 5.119354629516601562e+01 -2.788244056701660156e+01 2.327950149774551392e-01 5.148939490318298340e-01 2.243066877126693726e-01 -3.698592185974121094e-01
1.041000000000000000e+03 6.140296936035156250e+01 -3.334294509887695312e+01 -1.850634813308715820e-01 -9.981865063309669495e-03 -5.851360410451889038e-02 3.400875627994537354e-02
1.042000000000000000e+03 5.002914047241210938e+01 -2.676822471618652344e+01 3.199791312217712402e-01 6.267477273941040039e-01 2.840180695056915283e-01 -4.651191234588623047e-01
1.043000000000000000e+03 7.166953277587890625e+01 -1.716095924377441406e+01 1.351294195046648383e-04 7.887050742283463478e-06 4.290493961889296770e-05 1.305732002947479486e-04
1.044000000000000000e+03 4.779335403442382812e+01 -2.435375022888183594e+01 5.078713893890380859e-01 9.489415287971496582e-01 4.370438754558563232e-01 -7.076544165611267090e-01
1.045000000000000000e+03 6.857899475097656250e+01 -1.936397743225097656e+01 -1.256839750567451119e-04 3.661949594970792532e-04 7.215329969767481089e-05 2.920351653301622719e-05
1.046000000000000000e+03 7.086257934570312500e+01 -1.656939888000488281e+01 8.658546721562743187e-05 5.098302062833681703e-05 4.127054489799775183e-05 1.192237104987725616e-04
1.047000000000000000e+03 4.780572509765625000e+01 -2.316069602966308594e+01 5.377652049064636230e-01 6.865593194961547852e-01 3.672973811626434326e-01 -6.101071238517761230e-01
1.048000000000000000e+03 4.834832382202148438e+01 -2.494606590270996094e+01 4.479686915874481201e-01 8.576185703277587891e-01 3.916761875152587891e-01 -6.338991522789001465e-01
1.049000000000000000e+03 6.930920410156250000e+01 -2.081545829772949219e+01 2.113118389388546348e-04 5.202105967327952385e-04 2.194567350670695305e-04 3.085289790760725737e-04
1.050000000000000000e+03 6.934906768798828125e+01 -2.236929321289062500e+01 2.852706238627433777e-04 7.992989267222583294e-04 3.253708709962666035e-04 4.649105540011078119e-04
1.051000000000000000e+03 5.177556991577148438e+01 -2.951851463317871094e+01 1.415620893239974976e-01 5.829460620880126953e-01 2.173524349927902222e-01 -3.374363780021667480e-01
1.052000000000000000e+03 6.859087371826171875e+01 -2.015403938293457031e+01 1.687149779172614217e-04 5.373003077693283558e-04 2.118045813404023647e-04 1.068571145879104733e-04
1.053000000000000000e+03 4.724175643920898438e+01 -2.259052276611328125e+01 6.160227060317993164e-01 8.014315962791442871e-01 4.252362847328186035e-01 -6.936184167861938477e-01
1.054000000000000000e+03 4.724310684204101562e+01 -2.375347518920898438e+01 5.678294301033020020e-01 1.078173756599426270e+00 4.938009679317474365e-01 -7.794867753982543945e-01
1.055000000000000000e+03 4.555284881591796875e+01 -2.201419830322265625e+01 7.478179335594177246e-01 1.835467576980590820e+00 7.749856710433959961e-01 -1.159830570220947266e+00
1.056000000000000000e+03 4.612733459472656250e+01 -2.258300209045410156e+01 6.842997074127197266e-01 1.498862266540527344e+00 6.549485921859741211e-01 -1.003342151641845703e+00
1.057000000000000000e+03 3.849871444702148438e+01 3.370583343505859375e+01 1.157761216163635254e+00 2.077878475189208984e+00 9.706919193267822266e-01 -1.450407862663269043e+00
1.058000000000000000e+03 2.803067016601562500e+01 -1.885065555572509766e+00 -3.764073371887207031e+00 -1.393425166606903076e-01 -1.171024680137634277e+00 -2.990488708019256592e-01
1.059000000000000000e+03 2.642859077453613281e+01 -1.857320308685302734e+00 -2.765242815017700195e+00 -1.434123218059539795e-01 -8.725965619087219238e-01 1.421819180250167847e-01
1.060000000000000000e+03 4.048093795776367188e+01 3.100493621826171875e+01 1.176798820495605469e+00 6.151458740234375000e+00 2.198477268218994141e+00 -2.267659664154052734e+00
1.061000000000000000e+03 4.092499160766601562e+01 3.225420761108398438e+01 8.543952107429504395e-01 4.978545188903808594e+00 1.749882221221923828e+00 -1.270959615707397461e+00
1.062000000000000000e+03 4.199963760375976562e+01 1.650766944885253906e+01 2.833452820777893066e-01 9.320220947265625000e+00 2.881069660186767578e+00 8.939836621284484863e-01
1.063000000000000000e+03 2.994830322265625000e+01 -2.952013731002807617e+00 -2.679825782775878906e+00 -8.310112357139587402e-01 -1.053251147270202637e+00 -1.224677681922912598e+00
1.064000000000000000e+03 3.044358444213867188e+01 -1.569522738456726074e+00 -5.424905776977539062e+00 -4.999947547912597656e-01 -1.777470111846923828e+00 -1.412376284599304199e+00
1.065000000000000000e+03 3.144126510620117188e+01 -1.928569912910461426e+00 -4.176918983459472656e+00 -1.141930580139160156e+00 -1.595654845237731934e+00 -1.687525749206542969e+00
1.066000000000000000e+03 4.166214752197265625e+01 3.057444572448730469e+01 7.836769819259643555e-01 6.378067493438720703e+00 2.148523330688476562e+00 -1.422773599624633789e+00
1.067000000000000000e+03 3.340053176879882812e+01 -1.754233551025390625e+01 -9.040548205375671387e-01 7.389690876007080078e-01 -4.952571541070938110e-02 7.308062165975570679e-02
1.068000000000000000e+03 4.212511825561523438e+01 2.793296241760253906e+01 9.168913364410400391e-01 7.580775260925292969e+00 2.549299955368041992e+00 -9.420962333679199219e-01
1.069000000000000000e+03 4.135503768920898438e+01 1.737535285949707031e+01 2.015531361103057861e-01 9.769750595092773438e+00 2.991390943527221680e+00 4.919983446598052979e-01
1.070000000000000000e+03 4.208273315429687500e+01 1.814649963378906250e+01 2.331736981868743896e-01 8.628583908081054688e+00 2.658527374267578125e+00 6.707575321197509766e-01
1.071000000000000000e+03 3.666788101196289062e+01 3.545740127563476562e+01 4.205070436000823975e-02 7.441526055335998535e-01 2.358609884977340698e-01 -4.203882217407226562e-01
1.072000000000000000e+03 3.738273239135742188e+01 3.521954727172851562e+01 3.316645324230194092e-01 1.344878792762756348e+00 5.029630064964294434e-01 -8.439767956733703613e-01
1.073000000000000000e+03 3.450959014892578125e+01 -4.577729701995849609e-01 -3.504358530044555664e+00 -4.512077569961547852e-01 -1.186669945716857910e+00 -1.475494027137756348e+00
1.074000000000000000e+03 3.360148239135742188e+01 3.663115310668945312e+01 -2.341479063034057617e-01 1.470961142331361771e-02 -6.583148986101150513e-02 -4.482883960008621216e-02
1.075000000000000000e+03 3.682256698608398438e+01 3.684134674072265625e+01 -1.323950290679931641e-02 1.248556494712829590e+00 3.705950975418090820e-01 -6.642695665359497070e-01
1.076000000000000000e+03 2.813115310668945312e+01 -2.529958963394165039e+00 -2.966805458068847656e+00 -3.615702688694000244e-01 -9.985127449035644531e-01 -7.073947191238403320e-01
1.077000000000000000e+03 3.708288192749023438e+01 2.860760927200317383e+00 5.265175104141235352e-01 3.456329822540283203e+00 1.194854140281677246e+00 1.623083829879760742e+00
1.078000000000000000e+03 4.296695327758789062e+01 2.509576082229614258e-01 -2.660684108734130859e+00 8.490096092224121094e+00 1.748823642730712891e+00 1.018795132637023926e+00
1.079000000000000000e+03 3.378922271728515625e+01 -9.013149738311767578e-01 -3.847700834274291992e+00 -8.264626860618591309e-01 -1.402248978614807129e+00 -1.720138072967529297e+00
1.080000000000000000e+03 4.185387420654296875e+01 1.487572002410888672e+01 7.013468146324157715e-01 9.729342460632324219e+00 3.129206657409667969e+00 1.511851906776428223e+00
1.081000000000000000e+03 1.056322383880615234e+01 -3.128626632690429688e+01 -4.322898983955383301e-01 -1.888256520032882690e-01 -1.863346695899963379e-01 2.195366322994232178e-01
1.082000000000000000e+03 4.204219436645507812e+01 2.882086372375488281e+01 1.026485562324523926e+00 7.220360279083251953e+00 2.474053859710693359e+00 -9.086700677871704102e-01
1.083000000000000000e+03 4.189209747314453125e+01 2.970990943908691406e+01 7.567912340164184570e-01 6.964822292327880859e+00 2.316483974456787109e+00 -1.063232064247131348e+00
1.084000000000000000e+03 4.216474914550781250e+01 1.231415367126464844e+01 8.650805354118347168e-01 9.565439224243164062e+00 3.129155874252319336e+00 2.293769121170043945e+00
1.085000000000000000e+03 4.019298934936523438e+01 9.424329757690429688e+00 1.111874580383300781e+00 1.369242668151855469e+01 4.441290378570556641e+00 3.479898452758789062e+00
1.086000000000000000e+03 3.825552368164062500e+01 3.500687408447265625e+01 3.290435969829559326e-01 2.030856132507324219e+00 7.079699635505676270e-01 -1.068766832351684570e+00
1.087000000000000000e+03 3.061999511718750000e+01 -2.152801036834716797e+00 -4.013603210449218750e+00 -8.618957996368408203e-01 -1.462649703025817871e+00 -1.503622412681579590e+00
1.088000000000000000e+03 4.402285385131835938e+01 4.020956456661224365e-01 -2.606178283691406250e+00 5.000776290893554688e+00 7.183793187141418457e-01 1.052564501762390137e+00
1.089000000000000000e+03 2.731549453735351562e+01 -2.572798967361450195e+00 -2.661615848541259766e+00 -2.558726668357849121e-01 -8.752465248107910156e-01 -4.598415791988372803e-01
1.090000000000000000e+03 2.979309654235839844e+01 -2.324519634246826172e+00 -3.738836288452148438e+00 -6.044437289237976074e-01 -1.302983999252319336e+00 -1.201574802398681641e+00
1.091000000000000000e+03 4.162621307373046875e+01 1.325303936004638672e+01 5.718412399291992188e-01 1.033755016326904297e+01 3.272817373275756836e+00 1.973164319992065430e+00
1.092000000000000000e+03 3.757944107055664062e+01 2.421374082565307617e+00 -9.941620826721191406e-01 5.372142791748046875e+00 1.313394308090209961e+00 1.157118558883666992e+00
1.093000000000000000e+03 3.303581619262695312e+01 -1.298705101013183594e+00 -4.117269515991210938e+00 -1.089416027069091797e+00 -1.562005639076232910e+00 -1.801796197891235352e+00
1.094000000000000000e+03 4.081381607055664062e+01 1.258374214172363281e+01 4.340519011020660400e-01 1.120237255096435547e+01 3.490927457809448242e+00 2.111451148986816406e+00
1.095000000000000000e+03 4.174973297119140625e+01 1.405995750427246094e+01 6.818208098411560059e-01 1.011630630493164062e+01 3.239438056945800781e+00 1.613079547882080078e+00
1.096000000000000000e+03 4.061568069458007812e+01 8.434206962585449219e+00 1.533090829849243164e+00 1.190977478027343750e+01 4.032859802246093750e+00 3.562429666519165039e+00
1.097000000000000000e+03 4.210274887084960938e+01 1.896018028259277344e+01 9.605716913938522339e-02 8.314606666564941406e+00 2.523199081420898438e+00 4.586903452873229980e-01
1.098000000000000000e+03 4.216207504272460938e+01 2.707318305969238281e+01 4.637077748775482178e-01 7.767251491546630859e+00 2.469287872314453125e+00 -7.052183151245117188e-01
1.099000000000000000e+03 3.993084335327148438e+01 3.387500381469726562e+01 4.330352544784545898e-01 3.668245553970336914e+00 1.230384230613708496e+00 -1.303616523742675781e+00
1.100000000000000000e+03 3.916841125488281250e+01 3.454957962036132812e+01 3.698523044586181641e-01 2.864375114440917969e+00 9.702681899070739746e-01 -1.204174995422363281e+00
1.101000000000000000e+03 4.217378234863281250e+01 2.542061805725097656e+01 1.105485260486602783e-01 7.508596897125244141e+00 2.285743713378906250e+00 -1.999884098768234253e-01
1.102000000000000000e+03 3.704298019409179688e+01 1.781815171241760254e+00 -1.540062665939331055e+00 3.858741760253906250e+00 6.956037878990173340e-01 4.890066683292388916e-01
1.103000000000000000e+03 4.067222595214843750e+01 1.179378318786621094e+01 4.805978834629058838e-01 1.162784099578857422e+01 3.632531642913818359e+00 2.274336099624633789e+00
1.104000000000000000e+03 4.139386749267578125e+01 2.378837776184082031e+01 1.336410362273454666e-02 7.617660522460937500e+00 2.289307355880737305e+00 -8.299813605844974518e-03
1.105000000000000000e+03 4.211962127685546875e+01 2.058021354675292969e+01 5.986272543668746948e-02 7.811581134796142578e+00 2.361433267593383789e+00 2.605138123035430908e-01
1.106000000000000000e+03 4.212542724609375000e+01 2.138901901245117188e+01 5.152105167508125305e-02 7.647815227508544922e+00 2.309800863265991211e+00 1.861512511968612671e-01
1.107000000000000000e+03 4.149051284790039062e+01 1.245150852203369141e+01 6.248943805694580078e-01 1.044863128662109375e+01 3.322057485580444336e+00 2.259627103805541992e+00
1.108000000000000000e+03 4.138992691040039062e+01 2.298806571960449219e+01 8.893126621842384338e-03 7.644799232482910156e+00 2.296107769012451172e+00 1.518570818006992340e-02
1.109000000000000000e+03 4.295462036132812500e+01 2.628041076660156250e+01 4.241336584091186523e-01 7.095572471618652344e+00 2.255911827087402344e+00 -4.549152851104736328e-01
1.110000000000000000e+03 4.101978302001953125e+01 1.004574298858642578e+01 1.219852924346923828e+00 1.140746021270751953e+01 3.788193702697753906e+00 3.096944570541381836e+00
1.111000000000000000e+03 4.134496307373046875e+01 1.165135574340820312e+01 7.289244532585144043e-01 1.073415088653564453e+01 3.438922643661499023e+00 2.505526304244995117e+00
1.112000000000000000e+03 4.138648986816406250e+01 2.218770217895507812e+01 1.081750541925430298e-02 7.719875335693359375e+00 2.319207906723022461e+00 3.652899339795112610e-02
1.113000000000000000e+03 4.457587814331054688e+01 2.548829269409179688e+01 5.451748371124267578e-01 6.185618877410888672e+00 2.019237995147705078e+00 -1.289647966623306274e-01
1.114000000000000000e+03 4.363360595703125000e+01 2.056508255004882812e+01 2.633937597274780273e-01 7.141441345214843750e+00 2.221450567245483398e+00 5.328084826469421387e-01
1.115000000000000000e+03 4.214136123657226562e+01 2.299973869323730469e+01 5.184860154986381531e-02 7.458057403564453125e+00 2.252971887588500977e+00 6.203081086277961731e-02
1.116000000000000000e+03 9.383558273315429688e+00 -1.674359130859375000e+01 1.500035881996154785e+00 4.483629167079925537e-01 5.845196247100830078e-01 6.096248030662536621e-01
1.117000000000000000e+03 7.836469650268554688e+00 -1.805574035644531250e+01 7.294062376022338867e-01 1.163205385208129883e+00 5.677834749221801758e-01 8.175563812255859375e-01
1.118000000000000000e+03 7.946683502197265625e+01 4.120770645141601562e+01 2.793178893625736237e-02 -2.678217649459838867e+00 -7.950857877731323242e-01 1.179869286715984344e-03
1.119000000000000000e+03 7.831440734863281250e+01 3.927686309814453125e+01 -2.028355188667774200e-02 -2.395167112350463867e+00 -7.246352434158325195e-01 -4.713337402790784836e-03
1.120000000000000000e+03 7.861528778076171875e+01 3.775178146362304688e+01 5.798435304313898087e-03 -2.457932472229003906e+00 -7.356402277946472168e-01 6.776661146432161331e-03
1.121000000000000000e+03 7.958869171142578125e+01 3.723067092895507812e+01 5.495348013937473297e-03 -2.666112184524536133e+00 -7.981850504875183105e-01 2.782901749014854431e-03
1.122000000000000000e+03 7.889708709716796875e+01 3.634398269653320312e+01 7.590245455503463745e-03 -2.537566900253295898e+00 -7.589929699897766113e-01 8.117495104670524597e-03
1.123000000000000000e+03 7.867985534667968750e+01 3.490375137329101562e+01 3.166475566104054451e-03 -2.474920034408569336e+00 -7.415260672569274902e-01 2.986910520121455193e-03
1.124000000000000000e+03 7.881642150878906250e+01 3.244971847534179688e+01 1.787010463885962963e-03 -2.479787588119506836e+00 -7.434001564979553223e-01 -1.593271829187870026e-02
1.125000000000000000e+03 7.890698242187500000e+01 1.662625503540039062e+01 4.970083944499492645e-03 -1.688240647315979004e+00 -5.049811601638793945e-01 -1.128829568624496460e-01
1.126000000000000000e+03 7.886244201660156250e+01 2.301446533203125000e+01 6.728202104568481445e-03 -2.191339731216430664e+00 -6.553834676742553711e-01 -6.697949767112731934e-02
1.127000000000000000e+03 7.890062713623046875e+01 2.935067176818847656e+01 3.589139669202268124e-04 -2.441014766693115234e+00 -7.321967482566833496e-01 -2.442069351673126221e-02
1.128000000000000000e+03 7.815801239013671875e+01 2.941003990173339844e+01 5.784660112112760544e-03 -2.282216310501098633e+00 -6.829295158386230469e-01 -4.145086929202079773e-02
1.129000000000000000e+03 7.963533782958984375e+01 3.091198348999023438e+01 1.600321498699486256e-03 -2.645847320556640625e+00 -7.932741045951843262e-01 -4.701563157141208649e-03
1.130000000000000000e+03 7.887542724609375000e+01 2.857826614379882812e+01 3.223720472306013107e-03 -2.420134305953979492e+00 -7.250732183456420898e-01 -2.735914476215839386e-02
1.131000000000000000e+03 7.803652954101562500e+01 2.629388618469238281e+01 1.102807931602001190e-02 -2.167526006698608398e+00 -6.469494104385375977e-01 -6.815954297780990601e-02
1.132000000000000000e+03 7.883625793457031250e+01 2.541484451293945312e+01 5.060590337961912155e-03 -2.305972814559936523e+00 -6.902736425399780273e-01 -4.573272541165351868e-02
1.133000000000000000e+03 7.961862945556640625e+01 2.376326370239257812e+01 1.744426670484244823e-03 -2.399497747421264648e+00 -7.193260192871093750e-01 -1.825367100536823273e-02
1.134000000000000000e+03 7.885253143310546875e+01 2.381540489196777344e+01 5.540104582905769348e-03 -2.233918666839599609e+00 -6.685135364532470703e-01 -5.870065093040466309e-02
1.135000000000000000e+03 7.884332275390625000e+01 2.461489105224609375e+01 5.913581233471632004e-03 -2.271129608154296875e+00 -6.795647740364074707e-01 -5.338471010327339172e-02
1.136000000000000000e+03 7.809556579589843750e+01 2.307673835754394531e+01 1.480338070541620255e-02 -2.036668539047241211e+00 -6.065595149993896484e-01 -1.082509681582450867e-01
1.137000000000000000e+03 7.887850189208984375e+01 2.141711807250976562e+01 6.237391848117113113e-03 -2.092168569564819336e+00 -6.257793307304382324e-01 -7.937991619110107422e-02
1.138000000000000000e+03 7.889916992187500000e+01 1.822460937500000000e+01 5.462666042149066925e-03 -1.839274525642395020e+00 -5.501435399055480957e-01 -1.025935858488082886e-01
1.139000000000000000e+03 7.963475036621093750e+01 1.737602615356445312e+01 1.751828123815357685e-03 -1.882706403732299805e+00 -5.642864108085632324e-01 -3.484537079930305481e-02
1.140000000000000000e+03 7.890312957763671875e+01 1.742634582519531250e+01 3.720334963873028755e-03 -1.765955924987792969e+00 -5.286706686019897461e-01 -1.077940165996551514e-01
1.141000000000000000e+03 7.891052246093750000e+01 1.582726097106933594e+01 3.249507630243897438e-03 -1.607352733612060547e+00 -4.812309741973876953e-01 -1.175142303109169006e-01
1.142000000000000000e+03 7.891373443603515625e+01 1.502992630004882812e+01 4.213002976030111313e-03 -1.523198366165161133e+00 -4.556956291198730469e-01 -1.217599734663963318e-01
1.143000000000000000e+03 7.819275665283203125e+01 1.349442386627197266e+01 5.506551358848810196e-03 -1.274264812469482422e+00 -3.806274831295013428e-01 -2.069565802812576294e-01
1.144000000000000000e+03 7.892327880859375000e+01 1.183916950225830078e+01 1.676019979640841484e-03 -1.163501024246215820e+00 -3.485475182533264160e-01 -1.316103339195251465e-01
1.145000000000000000e+03 7.892774200439453125e+01 1.024332618713378906e+01 1.037807596730999649e-04 -9.774647355079650879e-01 -2.932082712650299072e-01 -1.312659680843353271e-01
1.146000000000000000e+03 7.876486968994140625e+01 3.702599334716796875e+01 -9.732306934893131256e-03 -2.500692605972290039e+00 -7.531274557113647461e-01 1.313174795359373093e-02
1.147000000000000000e+03 7.821583557128906250e+01 -4.854351520538330078e+00 -9.287202730774879456e-03 1.165629457682371140e-02 7.107273559086024761e-04 -7.136205676943063736e-03
1.148000000000000000e+03 7.894557189941406250e+01 2.257614612579345703e+00 -6.539119407534599304e-03 -1.992372125387191772e-01 -6.173289939761161804e-02 -7.275591045618057251e-02
1.149000000000000000e+03 7.892981719970703125e+01 9.444087982177734375e+00 -1.511588110588490963e-03 -8.850776553153991699e-01 -2.659767866134643555e-01 -1.296167224645614624e-01
1.150000000000000000e+03 7.943943786621093750e+01 4.038244628906250000e+01 -1.202933210879564285e-02 -2.669298410415649414e+00 -8.043982982635498047e-01 -1.819022558629512787e-02
1.151000000000000000e+03 7.711318969726562500e+01 3.991757202148437500e+01 -2.322517894208431244e-02 -2.116963386535644531e+00 -6.420565843582153320e-01 1.377030927687883377e-02
1.152000000000000000e+03 7.953765869140625000e+01 3.800470352172851562e+01 -3.675645857583731413e-04 -2.658335447311401367e+00 -7.976109385490417480e-01 6.325113587081432343e-03
1.153000000000000000e+03 7.711199188232421875e+01 3.638994216918945312e+01 3.059294074773788452e-02 -2.121628522872924805e+00 -6.273106336593627930e-01 -1.360587961971759796e-02
1.154000000000000000e+03 7.869766235351562500e+01 3.406441879272460938e+01 4.046292509883642197e-03 -2.470655918121337891e+00 -7.399829030036926270e-01 -6.000359542667865753e-03
1.155000000000000000e+03 7.892558288574218750e+01 1.104133224487304688e+01 -8.178568350558634847e-06 -1.070469141006469727e+00 -3.211432099342346191e-01 -1.320211440324783325e-01
1.156000000000000000e+03 7.822177886962890625e+01 7.906482696533203125e+00 -6.782003212720155716e-03 -6.896837949752807617e-01 -2.089397460222244263e-01 -1.983008384704589844e-01
1.157000000000000000e+03 7.893187713623046875e+01 8.644822120666503906e+00 -1.553674694150686264e-03 -7.940433025360107422e-01 -2.386790961027145386e-01 -1.268530189990997314e-01
1.158000000000000000e+03 7.823647308349609375e+01 3.923153400421142578e+00 -1.538041699677705765e-02 -3.328322172164916992e-01 -1.044637858867645264e-01 -1.472949236631393433e-01
1.159000000000000000e+03 7.893841552734375000e+01 6.250703811645507812e+00 -4.437535069882869720e-03 -5.373313426971435547e-01 -1.625306755304336548e-01 -1.126373559236526489e-01
1.160000000000000000e+03 7.964739990234375000e+01 3.806284904479980469e+00 -1.341143622994422913e-03 -2.945526838302612305e-01 -8.876815438270568848e-02 -3.051948174834251404e-02
1.161000000000000000e+03 7.894361877441406250e+01 3.058184623718261719e+00 -6.510426290333271027e-03 -2.556261122226715088e-01 -7.864096015691757202e-02 -8.199189603328704834e-02
1.162000000000000000e+03 7.894730377197265625e+01 1.460451722145080566e+00 -6.880405824631452560e-03 -1.495891511440277100e-01 -4.694086685776710510e-02 -6.353116035461425781e-02
1.163000000000000000e+03 7.818054199218750000e+01 -5.655288696289062500e+00 -7.696574088186025620e-03 1.536508277058601379e-02 2.300552558153867722e-03 -3.015091933775693178e-04
1.164000000000000000e+03 7.894881439208984375e+01 -9.348673224449157715e-01 -6.312445737421512604e-03 -3.870872035622596741e-02 -1.350635010749101639e-02 -3.609006851911544800e-02
1.165000000000000000e+03 7.964807128906250000e+01 -3.379634857177734375e+00 -1.024434459395706654e-03 5.027156323194503784e-02 1.477413903921842575e-02 -4.090935457497835159e-03
1.166000000000000000e+03 7.893865203857421875e+01 -4.127305030822753906e+00 -4.256517626345157623e-03 2.785569243133068085e-02 7.079752627760171890e-03 -7.404534146189689636e-03
1.167000000000000000e+03 7.887049865722656250e+01 -6.546286106109619141e+00 -2.467507263645529747e-03 3.318057954311370850e-02 9.213922545313835144e-03 5.586221348494291306e-03
1.168000000000000000e+03 7.465985107421875000e+01 -9.561501502990722656e+00 -2.926138928160071373e-03 -1.033622678369283676e-02 -3.978709690272808075e-03 1.086199376732110977e-02
1.169000000000000000e+03 7.746663665771484375e+01 -5.545791625976562500e+00 -1.479239203035831451e-02 1.450306153856217861e-04 -4.394208081066608429e-03 -4.995621740818023682e-03
1.170000000000000000e+03 7.878678131103515625e+01 -8.180575370788574219e+00 -9.716937784105539322e-04 2.542013302445411682e-02 7.334531750530004501e-03 1.032306905835866928e-02
1.171000000000000000e+03 7.958846282958984375e+01 -9.797781944274902344e+00 9.583463543094694614e-05 2.194974943995475769e-02 6.613675504922866821e-03 4.312172997742891312e-03
1.172000000000000000e+03 7.876998901367187500e+01 -1.142226982116699219e+01 2.575248247012495995e-03 6.702703889459371567e-03 2.783385571092367172e-03 8.074370212852954865e-03
1.173000000000000000e+03 7.717326164245605469e+00 -2.940791511535644531e+01 -3.595119416713714600e-01 -3.468949496746063232e-01 -2.119220644235610962e-01 3.277774751186370850e-01
1.174000000000000000e+03 9.001629829406738281e+00 -3.046202659606933594e+01 -4.471195340156555176e-01 -3.015945553779602051e-01 -2.246142178773880005e-01 2.484650313854217529e-01
1.175000000000000000e+03 3.457943725585937500e+01 -2.570401763916015625e+01 1.642822861671447754e+00 8.227556228637695312e+00 2.961113691329956055e+00 3.189361333847045898e+00
1.176000000000000000e+03 3.637470245361328125e+01 -2.391264152526855469e+01 1.127727508544921875e+00 7.314471721649169922e+00 2.532659769058227539e+00 1.245094418525695801e+00
1.177000000000000000e+03 3.643834304809570312e+01 -2.086452293395996094e+01 1.017018705606460571e-01 6.757461071014404297e+00 2.057748794555664062e+00 1.011636853218078613e+00
1.178000000000000000e+03 1.333176422119140625e+01 -1.640384674072265625e+01 1.739514589309692383e+00 1.133188456296920776e-01 5.558500289916992188e-01 -3.265134394168853760e-01
1.179000000000000000e+03 8.700789451599121094e+00 -1.573746395111083984e+01 8.449450731277465820e-01 4.717849493026733398e-01 3.950190246105194092e-01 2.081444412469863892e-01
1.180000000000000000e+03 1.261395168304443359e+01 -1.566508579254150391e+01 1.451880216598510742e+00 2.457305192947387695e-01 5.092832446098327637e-01 -4.358039051294326782e-02
1.181000000000000000e+03 1.091979694366455078e+01 -1.564415264129638672e+01 1.362387180328369141e+00 1.993550658226013184e-01 4.685226678848266602e-01 1.549820303916931152e-01
1.182000000000000000e+03 2.858609390258789062e+01 -3.093444252014160156e+01 -1.713172793388366699e-01 1.118488162755966187e-01 -1.784054003655910492e-02 1.603220999240875244e-01
1.183000000000000000e+03 3.556000590324401855e-01 -2.436753845214843750e+01 -3.209565998986363411e-03 -6.461380124092102051e-01 -1.948042660951614380e-01 7.498139142990112305e-02
1.184000000000000000e+03 3.595832824707031250e+01 -2.211760330200195312e+01 3.078739941120147705e-01 7.366288661956787109e+00 2.302248716354370117e+00 6.019461154937744141e-01
1.185000000000000000e+03 2.240118026733398438e+01 -1.895182800292968750e+01 6.592114567756652832e-01 -1.054246909916400909e-02 1.946007013320922852e-01 2.023461833596229553e-02
1.186000000000000000e+03 2.093614959716796875e+01 -1.810287475585937500e+01 6.913329362869262695e-01 -6.316164135932922363e-02 1.884513795375823975e-01 -5.068394914269447327e-02
1.187000000000000000e+03 3.212317657470703125e+01 -1.684654998779296875e+01 -3.564271926879882812e-01 -2.065161466598510742e-01 -1.688829958438873291e-01 5.569109320640563965e-01
1.188000000000000000e+03 3.159146690368652344e+01 -1.734584999084472656e+01 -1.410653114318847656e+00 -4.619116187095642090e-01 -5.617694258689880371e-01 6.889799237251281738e-01
1.189000000000000000e+03 3.522285842895507812e+01 -2.605997467041015625e+01 1.180926799774169922e+00 7.425353050231933594e+00 2.581883907318115234e+00 1.730044364929199219e+00
1.190000000000000000e+03 3.354583740234375000e+01 -2.936505126953125000e+01 8.527865409851074219e-01 3.957045793533325195e+00 1.442949771881103516e+00 1.685756206512451172e+00
1.191000000000000000e+03 3.283400726318359375e+01 -2.855578613281250000e+01 1.815469741821289062e+00 3.313049316406250000e+00 1.538555741310119629e+00 2.312445402145385742e+00
1.192000000000000000e+03 3.389599025249481201e-01 -2.037808799743652344e+01 4.772571846842765808e-03 -1.379119753837585449e+00 -4.123041629791259766e-01 4.083731397986412048e-02
1.193000000000000000e+03 3.286650466918945312e+01 -2.998779869079589844e+01 7.871627211570739746e-01 3.210910081863403320e+00 1.199421763420104980e+00 1.559564590454101562e+00
1.194000000000000000e+03 3.136989021301269531e+01 -3.106313133239746094e+01 4.955310821533203125e-01 1.887108683586120605e+00 7.147918939590454102e-01 1.183126449584960938e+00
1.195000000000000000e+03 3.493174743652343750e+01 -2.692243957519531250e+01 1.165794014930725098e+00 6.455256938934326172e+00 2.286315441131591797e+00 1.989779829978942871e+00
1.196000000000000000e+03 1.345491123199462891e+01 -1.581249141693115234e+01 1.464519739151000977e+00 1.807650774717330933e-01 4.935854375362396240e-01 -1.377627551555633545e-01
1.197000000000000000e+03 1.062211394309997559e+00 -1.719253540039062500e+01 2.970017865300178528e-02 -1.251085877418518066e+00 -3.664157092571258545e-01 -1.604023948311805725e-02
1.198000000000000000e+03 3.751360476016998291e-01 -2.678339195251464844e+01 -2.669101813808083534e-03 -1.999035179615020752e-01 -6.077178567647933960e-02 5.895433202385902405e-02
1.199000000000000000e+03 1.748430061340332031e+01 -1.640392303466796875e+01 8.975584506988525391e-01 -3.338833525776863098e-02 2.592510282993316650e-01 -1.741928756237030029e-01
1.200000000000000000e+03 1.427110767364501953e+01 -1.601235961914062500e+01 1.337344527244567871e+00 1.408934742212295532e-01 4.434714019298553467e-01 -2.509761750698089600e-01
1.201000000000000000e+03 3.740818202495574951e-01 -2.597718429565429688e+01 -4.368964117020368576e-03 -3.325330018997192383e-01 -1.010705903172492981e-01 6.621821224689483643e-02
1.202000000000000000e+03 2.862249183654785156e+01 -1.812086868286132812e+01 -2.466678991913795471e-02 3.539413213729858398e-02 3.218203317373991013e-03 1.089916080236434937e-01
1.203000000000000000e+03 2.462647247314453125e+01 -1.810721397399902344e+01 6.078276634216308594e-01 -1.784066855907440186e-02 1.769960969686508179e-01 1.185805127024650574e-01
1.204000000000000000e+03 2.382722854614257812e+01 -1.748208045959472656e+01 6.358491778373718262e-01 -6.098526343703269958e-02 1.724591851234436035e-01 1.042684912681579590e-01
1.205000000000000000e+03 1.707773590087890625e+01 -1.783639335632324219e+01 7.875518202781677246e-01 9.897944331169128418e-02 2.659593820571899414e-01 -3.012939095497131348e-01
1.206000000000000000e+03 1.582713603973388672e+01 -1.653086662292480469e+01 1.076664924621582031e+00 9.131580591201782227e-02 3.503942191600799561e-01 -2.700133621692657471e-01
1.207000000000000000e+03 1.965797042846679688e+01 -3.160585021972656250e+01 -5.103656649589538574e-01 -8.596234256401658058e-04 -1.533675789833068848e-01 -3.026019781827926636e-02
1.208000000000000000e+03 2.777812957763671875e+01 -3.100559997558593750e+01 -4.609098732471466064e-01 2.277233451604843140e-02 -1.314412653446197510e-01 5.750222504138946533e-02
1.209000000000000000e+03 2.875783729553222656e+01 -3.166599655151367188e+01 5.290597304701805115e-02 3.321602642536163330e-01 1.155198737978935242e-01 4.763663411140441895e-01
1.210000000000000000e+03 1.946805000305175781e+01 -1.782673072814941406e+01 7.263261675834655762e-01 -3.279232978820800781e-02 2.080601602792739868e-01 -1.332106590270996094e-01
1.211000000000000000e+03 2.008147430419921875e+01 -1.875578117370605469e+01 6.646391749382019043e-01 3.054192988201975822e-03 2.003080099821090698e-01 -1.140837967395782471e-01
1.212000000000000000e+03 2.645951080322265625e+01 -3.203799057006835938e+01 -3.395365178585052490e-01 8.818451315164566040e-02 -7.540559768676757812e-02 7.311045378446578979e-02
1.213000000000000000e+03 1.931588745117187500e+01 -1.858678054809570312e+01 6.856619715690612793e-01 1.407476048916578293e-02 2.099210321903228760e-01 -1.556425839662551880e-01
1.214000000000000000e+03 1.656520843505859375e+01 -1.682461929321289062e+01 9.795483946800231934e-01 5.051280558109283447e-02 3.090183436870574951e-01 -2.654755711555480957e-01
1.215000000000000000e+03 2.033524703979492188e+01 -3.253422164916992188e+01 -4.653120934963226318e-01 -1.174512505531311035e-02 -1.431171596050262451e-01 -6.115888431668281555e-02
1.216000000000000000e+03 9.407294273376464844e+00 -1.582000637054443359e+01 9.785254001617431641e-01 4.577331244945526123e-01 4.308775663375854492e-01 3.115186989307403564e-01
1.217000000000000000e+03 1.506706714630126953e+01 -3.335384368896484375e+01 -3.290464282035827637e-01 -5.707412585616111755e-02 -1.158361658453941345e-01 2.493728511035442352e-02
1.218000000000000000e+03 3.532472848892211914e-01 -2.196957397460937500e+01 3.596999682486057281e-03 -1.131533384323120117e+00 -3.383809328079223633e-01 6.403362005949020386e-02
1.219000000000000000e+03 3.615123367309570312e+01 -2.146394729614257812e+01 3.418660759925842285e-01 6.780399799346923828e+00 2.136679649353027344e+00 8.354765176773071289e-01
1.220000000000000000e+03 3.455340862274169922e-01 -2.117414855957031250e+01 5.839917808771133423e-03 -1.267484188079833984e+00 -3.784932792186737061e-01 5.324710905551910400e-02
1.221000000000000000e+03 1.873752403259277344e+01 -1.762560272216796875e+01 7.593690156936645508e-01 -2.241570688784122467e-02 2.210859805345535278e-01 -1.752681136131286621e-01
1.222000000000000000e+03 2.365139770507812500e+01 -3.401785659790039062e+01 -2.162517458200454712e-01 5.044786632061004639e-02 -4.974116384983062744e-02 1.339439023286104202e-02
1.223000000000000000e+03 2.719278144836425781e+01 -3.180137252807617188e+01 -2.975216805934906006e-01 9.233031421899795532e-02 -6.155740842223167419e-02 1.376152932643890381e-01
1.224000000000000000e+03 1.131835937500000000e+01 -1.453496551513671875e+01 9.649608731269836426e-01 3.224092125892639160e-01 3.862110078334808350e-01 2.183545753359794617e-02
1.225000000000000000e+03 1.012714385986328125e+01 -1.577761459350585938e+01 1.244219541549682617e+00 3.119330406188964844e-01 4.668457806110382080e-01 3.433780968189239502e-01
1.226000000000000000e+03 2.102265739440917969e+01 -1.735084152221679688e+01 7.170218229293823242e-01 -9.869560599327087402e-02 1.854978650808334351e-01 -4.187817871570587158e-02
1.227000000000000000e+03 1.890681266784667969e+01 -1.689790534973144531e+01 7.911385297775268555e-01 -6.814653426408767700e-02 2.168975919485092163e-01 -1.359034776687622070e-01
1.228000000000000000e+03 3.268454360961914062e+01 -1.723442649841308594e+01 -6.214525103569030762e-01 1.802802272140979767e-02 -1.810273379087448120e-01 3.278296291828155518e-01
1.229000000000000000e+03 3.647510111331939697e-01 -2.517206954956054688e+01 -9.395422966917976737e-05 -4.818450808525085449e-01 -1.445817053318023682e-01 7.171512395143508911e-02
1.230000000000000000e+03 1.139227867126464844e+01 -3.154424667358398438e+01 -4.205126166343688965e-01 -1.126484125852584839e-01 -1.599483042955398560e-01 1.726700067520141602e-01
1.231000000000000000e+03 1.454156875610351562e+01 -3.222190093994140625e+01 -3.854499757289886475e-01 -3.425465896725654602e-02 -1.259113848209381104e-01 5.003746226429939270e-02
1.232000000000000000e+03 1.479953193664550781e+01 -3.137902259826660156e+01 -4.251421391963958740e-01 -1.943554356694221497e-02 -1.333733052015304565e-01 6.309657543897628784e-02
1.233000000000000000e+03 1.535926055908203125e+01 -3.241666412353515625e+01 -3.917765617370605469e-01 -3.309985250234603882e-02 -1.274629235267639160e-01 2.732877247035503387e-02
1.234000000000000000e+03 2.794668388366699219e+01 -3.168413162231445312e+01 -1.679683029651641846e-01 1.515276134014129639e-01 -4.932209849357604980e-03 2.662159502506256104e-01
1.235000000000000000e+03 1.956063461303710938e+01 -3.244831466674804688e+01 -4.629751443862915039e-01 -5.202230531722307205e-03 -1.404532194137573242e-01 -4.000318422913551331e-02
1.236000000000000000e+03 1.876807594299316406e+01 -3.245335388183593750e+01 -4.469169080257415771e-01 -2.196933515369892120e-02 -1.406658738851547241e-01 -2.316124550998210907e-02
1.237000000000000000e+03 1.050504565238952637e+00 -2.347731590270996094e+01 4.111835733056068420e-03 -6.957056522369384766e-01 -2.074781358242034912e-01 2.019373774528503418e-01
1.238000000000000000e+03 1.623328399658203125e+01 -3.254941558837890625e+01 -4.032501578330993652e-01 -2.917101420462131500e-02 -1.297263503074645996e-01 8.678691461682319641e-03
1.239000000000000000e+03 1.300690841674804688e+01 -3.183713150024414062e+01 -3.921730220317840576e-01 -4.867992550134658813e-02 -1.322558820247650146e-01 1.000333353877067566e-01
1.240000000000000000e+03 1.243795680999755859e+01 -3.091297149658203125e+01 -4.381405711174011230e-01 -3.201772645115852356e-02 -1.410474926233291626e-01 1.033723503351211548e-01
1.241000000000000000e+03 2.760565948486328125e+01 -1.757625961303710938e+01 2.520537674427032471e-01 4.471825435757637024e-02 8.903160691261291504e-02 2.787266671657562256e-01
1.242000000000000000e+03 2.536391067504882812e+01 -1.800430107116699219e+01 5.569928884506225586e-01 -1.216388680040836334e-02 1.634487062692642212e-01 1.611307263374328613e-01
1.243000000000000000e+03 8.334295272827148438e+00 -2.994009780883789062e+01 -4.218277335166931152e-01 -3.241694867610931396e-01 -2.237991690635681152e-01 2.989824116230010986e-01
1.244000000000000000e+03 2.378166770935058594e+01 -3.148496055603027344e+01 -6.320576667785644531e-01 2.888082293793559074e-03 -1.887508779764175415e-01 -7.013316452503204346e-02
1.245000000000000000e+03 2.566741943359375000e+01 -3.234348678588867188e+01 -3.590588569641113281e-01 6.510364264249801636e-02 -8.818656206130981445e-02 4.040118306875228882e-02
1.246000000000000000e+03 7.093237400054931641e+00 -2.889116668701171875e+01 -3.097193837165832520e-01 -4.135603606700897217e-01 -2.169839292764663696e-01 3.169110715389251709e-01
1.247000000000000000e+03 3.430145680904388428e-01 -1.878429412841796875e+01 3.530729562044143677e-03 -1.515738725662231445e+00 -4.536623954772949219e-01 1.755726151168346405e-02
1.248000000000000000e+03 3.581533050537109375e+01 -2.284101867675781250e+01 3.291514515876770020e-01 8.037371635437011719e+00 2.509957075119018555e+00 8.740634918212890625e-01
1.249000000000000000e+03 3.570627593994140625e+01 -2.359867477416992188e+01 7.410497069358825684e-01 8.380579948425292969e+00 2.736488819122314453e+00 1.258387327194213867e+00
1.250000000000000000e+03 2.628470802307128906e+01 -1.852451324462890625e+01 5.241867899894714355e-01 1.465740427374839783e-02 1.616532504558563232e-01 1.395639777183532715e-01
1.251000000000000000e+03 2.166824722290039062e+01 -1.817406845092773438e+01 6.829169392585754395e-01 -6.249336153268814087e-02 1.861270666122436523e-01 -2.571654878556728363e-02
1.252000000000000000e+03 2.295622062683105469e+01 -3.161304473876953125e+01 -6.252308487892150879e-01 -1.762478053569793701e-02 -1.928566843271255493e-01 -6.655941903591156006e-02
1.253000000000000000e+03 2.399234199523925781e+01 -3.250818634033203125e+01 -4.244825541973114014e-01 6.660391110926866531e-03 -1.253466457128524780e-01 -3.462318331003189087e-02
1.254000000000000000e+03 1.377367687225341797e+01 -3.200437927246093750e+01 -3.873946964740753174e-01 -3.690469637513160706e-02 -1.272898167371749878e-01 7.107988744974136353e-02
1.255000000000000000e+03 2.609961509704589844e+01 -1.787095642089843750e+01 4.957835376262664795e-01 1.996477693319320679e-02 1.547244936227798462e-01 1.885212659835815430e-01
1.256000000000000000e+03 1.221266269683837891e+01 -3.171317481994628906e+01 -4.025578200817108154e-01 -7.165190577507019043e-02 -1.422629207372665405e-01 1.319446265697479248e-01
1.257000000000000000e+03 2.115912055969238281e+01 -3.268111419677734375e+01 -4.376935362815856934e-01 -1.745532639324665070e-02 -1.365446597337722778e-01 -6.354456394910812378e-02
1.258000000000000000e+03 2.311760330200195312e+01 -3.283906555175781250e+01 -4.007072746753692627e-01 5.672178696841001511e-03 -1.185105293989181519e-01 -4.772385954856872559e-02
1.259000000000000000e+03 1.962204933166503906e+01 3.324894714355468750e+01 2.065079286694526672e-03 1.706322771497070789e-03 1.131420605815947056e-03 1.088737859390676022e-03
1.260000000000000000e+03 4.213600754737854004e-01 3.397738265991210938e+01 -1.599724055267870426e-04 3.785924636758863926e-04 6.558601307915523648e-05 7.144905794120859355e-06
1.261000000000000000e+03 2.222285270690917969e+00 3.604602813720703125e+01 1.088105636881664395e-04 2.951661008410155773e-04 1.211929920827969909e-04 -1.369786332361400127e-04
1.262000000000000000e+03 3.739495277404785156e-01 2.753923034667968750e+01 -2.508758188923820853e-05 4.691373396781273186e-05 6.547845259774476290e-06 7.445943538186838850e-06
1.263000000000000000e+03 1.936199069023132324e+00 2.965287780761718750e+01 3.268094951636157930e-05 9.709018922876566648e-05 3.893134271493181586e-05 -1.298083516303449869e-04
1.264000000000000000e+03 3.617157936096191406e-01 2.110820579528808594e+01 4.656278179027140141e-05 -1.388046985084656626e-05 9.804693945625331253e-06 -7.973685569595545530e-06
1.265000000000000000e+03 1.085762858390808105e+00 2.174710845947265625e+01 4.512652594712562859e-05 -7.083126092766178772e-06 1.141301981988362968e-05 9.095763289224123582e-07
1.266000000000000000e+03 1.098958730697631836e+00 2.496133232116699219e+01 2.901095285778865218e-05 1.068003621185198426e-05 1.190729653899325058e-05 5.890164175070822239e-06
1.267000000000000000e+03 1.110711574554443359e+00 2.656726264953613281e+01 1.194726064568385482e-05 3.483586988295428455e-05 1.403493934049038216e-05 6.059332008589990437e-06
1.268000000000000000e+03 1.103351116180419922e+00 2.576434707641601562e+01 -1.426694416295504197e-05 2.149047395505476743e-05 2.167058710256242193e-06 -3.914795524906367064e-05
1.269000000000000000e+03 3.676429986953735352e-01 2.592990493774414062e+01 2.356173581574694254e-06 1.374929433950455859e-05 4.831640580960083753e-06 3.422240524741937406e-06
1.270000000000000000e+03 1.121682643890380859e+00 2.737416076660156250e+01 8.408138455706648529e-06 5.133081504027359188e-05 1.792168586689513177e-05 -5.909115134272724390e-05
1.271000000000000000e+03 1.133615255355834961e+00 2.818090248107910156e+01 -1.150113439507549629e-05 7.387834921246394515e-05 1.871316271717660129e-05 2.233773329862742685e-06
1.272000000000000000e+03 1.145922183990478516e+00 2.898217773437500000e+01 3.631530125858262181e-05 9.322247206000611186e-05 3.886133345076814294e-05 -8.034007623791694641e-05
1.273000000000000000e+03 2.799650669097900391e+00 3.114914703369140625e+01 4.628224814950954169e-06 1.740575535222887993e-04 5.360573049983941019e-05 -5.449734817375428975e-05
1.274000000000000000e+03 1.253847241401672363e+00 3.302293395996093750e+01 -9.779723040992394090e-05 2.927136083599179983e-04 5.847491047461517155e-05 -3.395141902728937566e-05
1.275000000000000000e+03 4.091001451015472412e-01 3.237135314941406250e+01 -1.277036790270358324e-04 2.669607638381421566e-04 4.177712980890646577e-05 1.094585513783385977e-05
1.276000000000000000e+03 1.275550842285156250e+00 3.382069396972656250e+01 1.175698635051958263e-04 3.010021464433521032e-04 1.255716051673516631e-04 -1.216346790897659957e-04
1.277000000000000000e+03 1.297472000122070312e+00 3.541065979003906250e+01 1.241858699358999729e-04 3.812399227172136307e-04 1.516277407063171268e-04 -1.020674681058153510e-04
1.278000000000000000e+03 1.579414844512939453e+00 3.863761520385742188e+01 4.216385423205792904e-05 5.780215724371373653e-04 1.860556221799924970e-04 -1.229438785230740905e-04
1.279000000000000000e+03 1.371137499809265137e+00 3.699401855468750000e+01 9.320415119873359799e-05 4.958600620739161968e-04 1.767192734405398369e-04 -8.366732799913734198e-05
1.280000000000000000e+03 2.402078151702880859e+00 3.979108810424804688e+01 5.887372026336379349e-05 7.037994801066815853e-04 2.288019604748114944e-04 -1.797453587641939521e-04
1.281000000000000000e+03 1.548196554183959961e+00 3.947338485717773438e+01 -1.397984597133472562e-04 5.006372230127453804e-04 1.082516246242448688e-04 4.001046909252181649e-05
1.282000000000000000e+03 5.066568851470947266e-01 3.960379791259765625e+01 1.867009123088791966e-04 8.238702430389821529e-04 3.031713422387838364e-04 -1.118834770750254393e-04
1.283000000000000000e+03 1.505711197853088379e+00 4.024845123291015625e+01 -8.831232116790488362e-05 6.750455941073596478e-04 1.760199811542406678e-04 -1.563754049129784107e-04
1.284000000000000000e+03 1.467335820198059082e+00 4.198942947387695312e+01 7.032239227555692196e-05 7.500359788537025452e-04 2.461075200699269772e-04 2.832655736710876226e-04
1.285000000000000000e+03 5.359281897544860840e-01 -3.809285354614257812e+01 3.159864805638790131e-03 1.197624206542968750e-01 3.687668591737747192e-02 -6.789798382669687271e-03
1.286000000000000000e+03 1.472303152084350586e+00 -3.718420410156250000e+01 1.448983559384942055e-03 7.369726151227951050e-02 2.254387363791465759e-02 -1.444106455892324448e-02
1.287000000000000000e+03 3.603703677654266357e-01 1.949757957458496094e+01 4.866917151957750320e-05 -1.196894118038471788e-05 1.101006910175783560e-05 -1.010929463518550619e-05
1.288000000000000000e+03 3.586812615394592285e-01 1.387122154235839844e+01 -3.146692324662581086e-05 -8.746604180487338454e-06 -1.206405886478023604e-05 9.367026905238162726e-06
1.289000000000000000e+03 1.075930595397949219e+00 1.451060676574707031e+01 -2.958185723400674760e-05 -9.865207175607793033e-06 -1.183411859528860077e-05 1.064536081685218960e-05
1.290000000000000000e+03 1.038670420646667480e+00 7.311892032623291016e+00 1.005304966383846477e-05 1.082024255083524622e-06 3.340522198413964361e-06 -3.606381142162717879e-06
1.291000000000000000e+03 3.429508209228515625e-01 7.455052852630615234e+00 -1.261288525711279362e-05 -1.916345127028762363e-06 -4.358769274404039606e-06 3.524601197568699718e-06
1.292000000000000000e+03 3.546877801418304443e-01 -2.276487350463867188e+01 5.524236476048827171e-04 -9.815237522125244141e-01 -2.942913770675659180e-01 6.823825836181640625e-02
1.293000000000000000e+03 1.078500509262084961e+00 -1.556413078308105469e+01 1.950594969093799591e-02 -1.190359950065612793e+00 -3.512562215328216553e-01 -7.381025701761245728e-02
1.294000000000000000e+03 5.756134033203125000e+00 -2.710455703735351562e+01 -3.078666329383850098e-01 -3.045864701271057129e-01 -1.837359219789505005e-01 2.967724800109863281e-01
1.295000000000000000e+03 1.275637984275817871e+00 -3.568286895751953125e+01 -3.569422406144440174e-04 9.833039343357086182e-02 2.939203567802906036e-02 -1.245393138378858566e-02
1.296000000000000000e+03 1.746982336044311523e+00 -7.623409271240234375e+00 -1.621889136731624603e-02 -3.589789271354675293e-01 -1.125593408942222595e-01 -1.825428605079650879e-01
1.297000000000000000e+03 3.408913612365722656e-01 5.067569732666015625e+00 7.378840109595330432e-06 2.045642446546480642e-07 2.275021415698574856e-06 -1.755477569531649351e-06
1.298000000000000000e+03 1.752363801002502441e+00 7.185910224914550781e+00 -8.383551175938919187e-06 -2.886215725084184669e-06 -3.380929911145358346e-06 4.681131031247787178e-06
1.299000000000000000e+03 1.030263900756835938e+00 5.748656749725341797e+00 7.218724022095557302e-06 7.455880108864221256e-07 2.389293513260781765e-06 -2.794995907606789842e-06
1.300000000000000000e+03 1.068792343139648438e+00 1.049575996398925781e+01 1.691783290880266577e-05 8.067408998613245785e-07 5.317372142599197105e-06 -5.217235411691945046e-06
1.301000000000000000e+03 1.064092755317687988e+00 9.691092491149902344e+00 -1.511876689619384706e-05 -4.051956238981802016e-06 -5.751217031502164900e-06 5.911517291679047048e-06
1.302000000000000000e+03 1.072782993316650391e+00 1.289921379089355469e+01 -2.425428465357981622e-05 -7.687956895097158849e-06 -9.582672646502032876e-06 9.024118298839312047e-06
1.303000000000000000e+03 1.071237087249755859e+00 1.209730529785156250e+01 2.134487112925853580e-05 5.058891474618576467e-07 6.555228083016118035e-06 -6.126902462710859254e-06
1.304000000000000000e+03 3.570584654808044434e-01 1.226302337646484375e+01 -2.569906791904941201e-05 -6.286609732342185453e-06 -9.595702977094333619e-06 7.697545697737950832e-06
1.305000000000000000e+03 2.500442504882812500e+00 1.668191528320312500e+01 2.918900827353354543e-05 1.634690534046967514e-06 9.247110028809402138e-06 -5.657033398165367544e-06
1.306000000000000000e+03 1.077747702598571777e+00 1.691730690002441406e+01 3.782513522310182452e-05 -3.740050715350662358e-06 1.022552532958798110e-05 -7.465142061846563593e-06
1.307000000000000000e+03 1.077713370323181152e+00 1.772304153442382812e+01 -4.084233660250902176e-05 -1.310908010054845363e-05 -1.618542410142254084e-05 1.047199384629493579e-05
1.308000000000000000e+03 1.077845454216003418e+00 1.852572250366210938e+01 4.347657886683009565e-05 -6.184089215821586549e-06 1.118774616770679131e-05 -5.801793122373055667e-06
1.309000000000000000e+03 1.079581856727600098e+00 1.932950973510742188e+01 -4.423394420882686973e-05 -1.345138753094943240e-05 -1.730559961288236082e-05 6.899178060848498717e-06
1.310000000000000000e+03 1.087066292762756348e+00 2.254617118835449219e+01 -4.001205161330290139e-05 -7.874259608797729015e-06 -1.436589354852912948e-05 -9.083481927518732846e-06
1.311000000000000000e+03 1.513175964355468750e+00 -3.912060165405273438e+01 3.226460190489888191e-03 6.384142488241195679e-02 2.012036554515361786e-02 -1.507878489792346954e-02
1.312000000000000000e+03 1.679866433143615723e+00 -3.807306289672851562e+01 4.060054488945752382e-04 6.367051601409912109e-02 1.922295615077018738e-02 -1.484952587634325027e-02
1.313000000000000000e+03 1.192149519920349121e+00 -3.238714981079101562e+01 -8.167590014636516571e-03 9.884533286094665527e-02 2.720332331955432892e-02 7.910897023975849152e-03
1.314000000000000000e+03 6.425011634826660156e+00 -2.838971519470214844e+01 -2.886911928653717041e-01 -3.922508955001831055e-01 -2.042826265096664429e-01 2.609831690788269043e-01
1.315000000000000000e+03 3.852277696132659912e-01 -3.082001113891601562e+01 -4.523656331002712250e-03 1.567721813917160034e-01 4.567455872893333435e-02 1.128651667386293411e-02
1.316000000000000000e+03 1.152442812919616699e+00 -3.076731109619140625e+01 -1.326378993690013885e-02 6.909234821796417236e-02 1.674856804311275482e-02 3.591282293200492859e-02
1.317000000000000000e+03 1.123762369155883789e+00 -2.996396064758300781e+01 -1.933997310698032379e-02 4.084205254912376404e-02 6.450623273849487305e-03 5.491654202342033386e-02
1.318000000000000000e+03 5.693363666534423828e+00 -2.808542633056640625e+01 -2.860513031482696533e-01 -2.984168231487274170e-01 -1.753404438495635986e-01 2.389675378799438477e-01
1.319000000000000000e+03 1.904083490371704102e+00 -2.577829170227050781e+01 -3.952694311738014221e-02 -3.060464262962341309e-01 -1.036720052361488342e-01 2.808542549610137939e-01
1.320000000000000000e+03 1.094058156013488770e+00 -2.753099250793457031e+01 -2.075526863336563110e-02 -1.355432122945785522e-01 -4.688954353332519531e-02 1.347950398921966553e-01
1.321000000000000000e+03 5.475220680236816406e+00 -2.448519325256347656e+01 -1.789152622222900391e-02 3.706540155690163374e-04 -5.256261676549911499e-03 2.707975208759307861e-01
1.322000000000000000e+03 1.090428829193115234e+00 -2.507412910461425781e+01 -1.265602558851242065e-02 -4.478477835655212402e-01 -1.381511390209197998e-01 1.973983496427536011e-01
1.323000000000000000e+03 3.525216281414031982e-01 -2.356424140930175781e+01 4.544598981738090515e-03 -8.174262642860412598e-01 -2.438644915819168091e-01 7.461246848106384277e-02
1.324000000000000000e+03 5.334043502807617188e+00 -2.269443511962890625e+01 1.076496839523315430e-01 2.424454092979431152e-01 1.050285249948501587e-01 3.210381567478179932e-01
1.325000000000000000e+03 2.843172550201416016e+00 -2.313301658630371094e+01 4.028335958719253540e-02 -3.813967406749725342e-01 -1.023340150713920593e-01 3.815844655036926270e-01
1.326000000000000000e+03 6.468913078308105469e+00 -1.921998786926269531e+01 3.646802902221679688e-01 7.728222608566284180e-01 3.412507474422454834e-01 4.476819932460784912e-01
1.327000000000000000e+03 2.298276662826538086e+00 -1.961881065368652344e+01 9.553524851799011230e-02 -7.432408928871154785e-01 -1.943116933107376099e-01 1.715465039014816284e-01
1.328000000000000000e+03 1.029736161231994629e+00 -1.879221534729003906e+01 2.493284270167350769e-02 -1.229513645172119141e+00 -3.613742291927337646e-01 4.807081446051597595e-02
1.329000000000000000e+03 1.777392506599426270e+00 -1.639024925231933594e+01 5.451315641403198242e-02 -9.842420816421508789e-01 -2.789186835289001465e-01 -6.499294191598892212e-02
1.330000000000000000e+03 1.049160480499267578e+00 -1.800115585327148438e+01 2.202372252941131592e-02 -1.248082518577575684e+00 -3.678176403045654297e-01 2.217262610793113708e-02
1.331000000000000000e+03 1.787498354911804199e+00 -1.475470161437988281e+01 4.240218549966812134e-02 -9.208331704139709473e-01 -2.635293006896972656e-01 -1.421135514974594116e-01
1.332000000000000000e+03 1.077594399452209473e+00 -1.395371341705322266e+01 1.352984644472599030e-02 -1.075539827346801758e+00 -3.186030089855194092e-01 -1.154159829020500183e-01
1.333000000000000000e+03 1.069677352905273438e+00 -1.155514526367187500e+01 7.651363266631960869e-04 -8.350405097007751465e-01 -2.502826154232025146e-01 -1.395471692085266113e-01
1.334000000000000000e+03 1.076666235923767090e+00 -1.235602951049804688e+01 6.341740489006042480e-03 -9.211102724075317383e-01 -2.744305431842803955e-01 -1.352639794349670410e-01
1.335000000000000000e+03 3.486609458923339844e-01 -9.949783325195312500e+00 2.218035224359482527e-04 -7.528761625289916992e-01 -2.257963120937347412e-01 -4.762475937604904175e-02
1.336000000000000000e+03 1.044505476951599121e+00 -9.964477539062500000e+00 -3.012079512700438499e-03 -6.598476171493530273e-01 -1.988579183816909790e-01 -1.365671455860137939e-01
1.337000000000000000e+03 1.042091965675354004e+00 -8.377156257629394531e+00 -5.080769304186105728e-03 -4.848385751247406006e-01 -1.469758003950119019e-01 -1.261547803878784180e-01
1.338000000000000000e+03 1.874393701553344727e+00 -6.014822959899902344e+00 -2.405684813857078552e-02 -2.331868857145309448e-01 -7.717312127351760864e-02 -1.604331880807876587e-01
1.339000000000000000e+03 2.851221323013305664e+00 -2.705372333526611328e+00 -6.907646358013153076e-02 -5.327567458152770996e-02 -3.670563921332359314e-02 -1.047428920865058899e-01
1.340000000000000000e+03 2.869172811508178711e+00 -1.896575093269348145e+00 -6.940396130084991455e-02 -2.997040562331676483e-02 -2.981230989098548889e-02 -7.411654293537139893e-02
1.341000000000000000e+03 2.627696275711059570e+00 -6.111860752105712891e+00 -4.110242426395416260e-02 -2.060835510492324829e-01 -7.415579259395599365e-02 -2.092202007770538330e-01
1.342000000000000000e+03 1.230101108551025391e+00 -1.899625420570373535e+00 -1.741173304617404938e-02 -3.007755428552627563e-02 -1.424678601324558258e-02 -2.816381864249706268e-02
1.343000000000000000e+03 1.220942735671997070e+00 -2.703774452209472656e+00 -1.658170670270919800e-02 -5.657791718840599060e-02 -2.194788679480552673e-02 -4.669297859072685242e-02
1.344000000000000000e+03 1.011412858963012695e+00 -1.957273483276367188e+01 2.408824488520622253e-02 -1.192022919654846191e+00 -3.503803908824920654e-01 8.308737725019454956e-02
1.345000000000000000e+03 2.217663764953613281e+01 3.526857757568359375e+01 7.836936973035335541e-03 8.833339437842369080e-03 5.001083016395568848e-03 -3.761699423193931580e-03
1.346000000000000000e+03 2.536003494262695312e+01 3.663164901733398438e+01 -2.377525344491004944e-02 -3.399566339794546366e-04 -7.234563119709491730e-03 -7.551264716312289238e-04
1.347000000000000000e+03 2.300248527526855469e+01 3.750453567504882812e+01 3.311133943498134613e-03 -9.771705605089664459e-03 -1.938171335496008396e-03 1.071736495941877365e-02
1.348000000000000000e+03 1.480689716339111328e+01 2.436712074279785156e+01 -1.970321318367496133e-04 5.773015345766907558e-06 -5.737773608416318893e-05 6.642688094871118665e-05
1.349000000000000000e+03 1.497053241729736328e+01 2.521891021728515625e+01 2.866247377824038267e-04 5.675684951711446047e-05 1.030144776450470090e-04 3.354871296323835850e-05
1.350000000000000000e+03 2.100971031188964844e+01 1.087336421012878418e+00 3.640253908088197932e-06 1.595863977854605764e-06 1.570835365782841109e-06 1.302329224017739762e-06
1.351000000000000000e+03 2.609380722045898438e+01 3.676578521728515625e+01 -4.901229217648506165e-02 -7.672003470361232758e-03 -1.700528897345066071e-02 9.288337081670761108e-03
1.352000000000000000e+03 2.444521522521972656e+01 3.791879653930664062e+01 -1.478568185120820999e-02 3.852914553135633469e-03 -3.279830096289515495e-03 2.676325105130672455e-02
1.353000000000000000e+03 1.610774040222167969e+01 2.667618942260742188e+01 -3.678092616610229015e-04 1.057199624483473599e-04 -7.862678467063233256e-05 1.757336867740377784e-04
1.354000000000000000e+03 1.519077491760253906e+01 2.605388832092285156e+01 -2.363174571655690670e-04 5.872523979633115232e-05 -5.327766484697349370e-05 9.658366616349667311e-05
1.355000000000000000e+03 1.555266284942626953e+01 1.856817817687988281e+01 -1.710736396489664912e-04 -2.000814129132777452e-05 -5.732453064410947263e-05 -1.930805228766985238e-05
1.356000000000000000e+03 1.492030048370361328e+01 1.765956687927246094e+01 -1.101725356420502067e-04 -4.885328507953090593e-06 -3.451735756243579090e-05 -3.077549990848638117e-05
1.357000000000000000e+03 1.818530464172363281e+01 3.118680000305175781e+01 1.292478409595787525e-04 4.968975554220378399e-04 1.878436160041019320e-04 9.430639329366385937e-04
1.358000000000000000e+03 1.658546257019042969e+01 3.227724838256835938e+01 3.226511762477457523e-04 2.325213245057966560e-05 1.037709953379817307e-04 5.968524492345750332e-04
1.359000000000000000e+03 1.652804756164550781e+01 3.011993026733398438e+01 8.137045660987496376e-04 2.289828262291848660e-04 3.128062235191464424e-04 1.596051297383382916e-04
1.360000000000000000e+03 1.480263137817382812e+01 1.849113273620605469e+01 1.242996222572401166e-04 6.078600449654913973e-07 3.747224764083512127e-05 2.174455585191026330e-05
1.361000000000000000e+03 2.001866912841796875e+01 3.526078796386718750e+01 -5.435214843600988388e-04 1.290607382543385029e-03 2.241257752757519484e-04 -5.720442277379333973e-04
1.362000000000000000e+03 1.785868835449218750e+01 3.255430221557617188e+01 6.893365061841905117e-04 8.384091051993891597e-05 2.319532213732600212e-04 1.081788213923573494e-03
1.363000000000000000e+03 2.929528808593750000e+01 3.913630294799804688e+01 2.154698362573981285e-03 -3.873668983578681946e-02 -1.097459718585014343e-02 7.239052653312683105e-02
1.364000000000000000e+03 2.022036552429199219e+01 3.978410243988037109e+00 -8.960520062828436494e-06 -3.900783212884562090e-06 -3.858390755340224132e-06 -6.641357686021365225e-06
1.365000000000000000e+03 1.958845138549804688e+01 6.282258510589599609e+00 -1.958726716111414135e-05 -2.168757191611803137e-06 -6.526807283080415800e-06 -6.552163995365845039e-06
1.366000000000000000e+03 1.545709705352783203e+01 2.101303863525390625e+01 2.517499378882348537e-04 -2.101334757753647864e-05 6.922097963979467750e-05 2.005052192544098943e-05
1.367000000000000000e+03 1.476191043853759766e+01 1.933642768859863281e+01 -1.386937801726162434e-04 -2.487547317286953330e-05 -4.907077527604997158e-05 -3.578351606847718358e-05
1.368000000000000000e+03 1.639218711853027344e+01 2.744334220886230469e+01 5.387393175624310970e-04 2.221374306827783585e-04 2.282630157424136996e-04 -1.574780253577046096e-05
1.369000000000000000e+03 1.790082931518554688e+01 8.369905471801757812e+00 -2.352554110984783620e-05 -4.330877345637418330e-06 -8.356925718544516712e-06 -1.011994390864856541e-05
1.370000000000000000e+03 1.822581672668457031e+01 7.590947628021240234e+00 1.986744609894230962e-05 3.571616161934798583e-06 7.031718723737867549e-06 8.254185559053439647e-06
1.371000000000000000e+03 1.543750858306884766e+01 2.686350631713867188e+01 4.271580837666988373e-04 9.362809214508160949e-05 1.562358520459383726e-04 8.065086149144917727e-05
1.372000000000000000e+03 1.714383888244628906e+01 1.230364036560058594e+01 -5.518846592167392373e-05 -5.677423359884414822e-06 -1.825976687541697174e-05 -1.226837866852292791e-05
1.373000000000000000e+03 1.700519752502441406e+01 1.065857791900634766e+01 3.520920290611684322e-05 2.706842906263773330e-06 1.137481376645155251e-05 1.298854476772248745e-05
1.374000000000000000e+03 1.475728511810302734e+01 2.100182342529296875e+01 -1.769611262716352940e-04 -1.919728128996212035e-05 -5.884752317797392607e-05 -4.620072286343201995e-05
1.375000000000000000e+03 1.917853546142578125e+01 1.559706568717956543e+00 -2.223785031674196944e-06 -2.725316562646185048e-06 -1.484730546508217230e-06 -7.342931667153607123e-07
1.376000000000000000e+03 1.578660774230957031e+01 1.452102375030517578e+01 -6.122719059931114316e-05 -1.964882358151953667e-05 -2.426280479994602501e-05 -3.354761793161742389e-05
1.377000000000000000e+03 2.060381317138671875e+01 3.281912088394165039e+00 7.529844879172742367e-06 3.939127509511308745e-06 3.440691671130480245e-06 5.407119715528097004e-06
1.378000000000000000e+03 1.622325134277343750e+01 2.928170967102050781e+01 -3.783031570492312312e-05 2.332662406843155622e-04 5.863077967660501599e-05 3.902840253431349993e-04
1.379000000000000000e+03 1.569511795043945312e+01 2.765988349914550781e+01 -2.076043601846322417e-04 1.351310493191704154e-04 -2.174199471483007073e-05 1.930256985360756516e-04
1.380000000000000000e+03 1.600996589660644531e+01 1.374666023254394531e+01 5.499269900610670447e-05 1.181196694233221933e-05 2.004139969358220696e-05 2.745354322541970760e-05
1.381000000000000000e+03 1.647449302673339844e+01 1.218309402465820312e+01 4.438318137545138597e-05 6.959237452974775806e-06 1.540272569400258362e-05 1.647058707021642476e-05
1.382000000000000000e+03 1.896359825134277344e+01 6.051124572753906250e+00 1.608804450370371342e-05 1.385088353345054202e-06 5.241939561528852209e-06 6.819660029577789828e-06
1.383000000000000000e+03 1.706488990783691406e+01 1.599650502204895020e+00 2.428240350127452984e-06 2.253958200526540168e-06 1.404659542458830401e-06 -9.817039199333521537e-07
1.384000000000000000e+03 1.662697410583496094e+01 9.757294654846191406e+00 2.427683648420497775e-05 4.448211257113143802e-06 8.617514140496496111e-06 1.360712394671281800e-05
1.385000000000000000e+03 1.737907218933105469e+01 3.175143432617187500e+01 1.242417725734412670e-03 3.507891378831118345e-04 4.779620503541082144e-04 2.677120210137218237e-04
1.386000000000000000e+03 1.475629901885986328e+01 2.017729949951171875e+01 1.624767755856737494e-04 -9.042952342497301288e-07 4.847174568567425013e-05 4.187261583865620196e-05
1.387000000000000000e+03 1.473633575439453125e+01 2.351311492919921875e+01 2.251043188152834773e-04 -3.597593968152068555e-05 5.673851046594791114e-05 -2.458406470395857468e-06
1.388000000000000000e+03 1.473584270477294922e+01 2.266252517700195312e+01 -1.994515769183635712e-04 3.122417183476500213e-05 -5.046822116128169000e-05 -2.004202542593702674e-05
1.389000000000000000e+03 1.837130737304687500e+01 3.332569122314453125e+01 1.560905133374035358e-03 7.934823515824973583e-04 7.063162629492580891e-04 2.237785083707422018e-04
1.390000000000000000e+03 2.275526046752929688e+01 -3.030426979064941406e+00 -1.027447581291198730e+00 8.771188557147979736e-02 -2.819207310676574707e-01 -1.302630603313446045e-01
1.391000000000000000e+03 2.184565925598144531e+01 -2.504148483276367188e+00 -9.744049310684204102e-01 4.999446868896484375e-02 -2.773231565952301025e-01 -6.059692054986953735e-02
1.392000000000000000e+03 2.190258407592773438e+01 -3.174458980560302734e+00 -9.293935298919677734e-01 2.823457494378089905e-02 -2.703476846218109131e-01 -1.176265403628349304e-01
1.393000000000000000e+03 1.855131912231445312e+01 -3.441253662109375000e+00 -7.409898042678833008e-01 -5.872336030006408691e-02 -2.399139553308486938e-01 -8.448067307472229004e-02
1.394000000000000000e+03 1.938761901855468750e+01 -3.419200897216796875e+00 -7.697519063949584961e-01 -5.352322757244110107e-02 -2.469825446605682373e-01 -8.437965065240859985e-02
1.395000000000000000e+03 7.795138549804687500e+01 -1.144977283477783203e+01 5.501814186573028564e-03 4.657037090510129929e-03 3.047655336558818817e-03 1.133062876760959625e-02
1.396000000000000000e+03 7.876281738281250000e+01 -9.813698768615722656e+00 4.518447385635226965e-04 1.584402099251747131e-02 4.888759460300207138e-03 1.122530177235603333e-02
1.397000000000000000e+03 7.397890472412109375e+01 -1.098560047149658203e+01 1.125765964388847351e-02 -6.402248982340097427e-03 1.456623314879834652e-03 7.923111319541931152e-03
1.398000000000000000e+03 7.775499820709228516e+00 -1.857201695442199707e+00 -3.173117637634277344e-01 1.633061654865741730e-02 -9.029434621334075928e-02 -1.084419563412666321e-01
1.399000000000000000e+03 9.268011093139648438e+00 -2.617563009262084961e+00 -3.860630393028259277e-01 4.860690981149673462e-02 -1.012368351221084595e-01 -1.319337785243988037e-01
1.400000000000000000e+03 6.886168479919433594e+00 -2.561530590057373047e+00 -2.573652863502502441e-01 1.080673001706600189e-02 -7.396756112575531006e-02 -1.552282869815826416e-01
1.401000000000000000e+03 7.687900066375732422e+00 -2.573362827301025391e+00 -3.005431294441223145e-01 2.509656362235546112e-02 -8.263397216796875000e-02 -1.491336971521377563e-01
1.402000000000000000e+03 8.487072944641113281e+00 -2.591037750244140625e+00 -3.432642221450805664e-01 3.662119060754776001e-02 -9.199290722608566284e-02 -1.414736062288284302e-01
1.403000000000000000e+03 6.139231681823730469e+00 -1.858283042907714844e+00 -2.270667105913162231e-01 -8.849694277159869671e-04 -6.838550418615341187e-02 -1.198774203658103943e-01
1.404000000000000000e+03 6.083901405334472656e+00 -2.573346376419067383e+00 -2.158979177474975586e-01 -1.839257893152534962e-03 -6.532115489244461060e-02 -1.577283442020416260e-01
1.405000000000000000e+03 5.279448509216308594e+00 -2.614647388458251953e+00 -1.744761466979980469e-01 -1.683628000319004059e-02 -5.739372596144676208e-02 -1.540817171335220337e-01
1.406000000000000000e+03 4.473089694976806641e+00 -2.662548780441284180e+00 -1.369240134954452515e-01 -2.958110347390174866e-02 -4.995153471827507019e-02 -1.435548216104507446e-01
1.407000000000000000e+03 2.049953699111938477e+00 -1.898585796356201172e+00 -3.992407396435737610e-02 -3.321894630789756775e-02 -2.194290608167648315e-02 -5.122689157724380493e-02
1.408000000000000000e+03 1.190167903900146484e+00 -4.330092430114746094e+00 -1.268144324421882629e-02 -1.363252252340316772e-01 -4.470200091600418091e-02 -8.018635958433151245e-02
1.409000000000000000e+03 1.209386348724365234e+00 -3.515354394912719727e+00 -1.550272572785615921e-02 -9.186573326587677002e-02 -3.221054002642631531e-02 -6.467330455780029297e-02
1.410000000000000000e+03 2.362216758728027344e+01 -3.640904903411865234e+00 -1.077124238014221191e+00 3.529608994722366333e-02 -3.125484287738800049e-01 -3.042473196983337402e-01
1.411000000000000000e+03 2.440033340454101562e+01 -2.747038602828979492e+00 -1.386032223701477051e+00 9.711162000894546509e-02 -3.866761624813079834e-01 -2.134818285703659058e-01
1.412000000000000000e+03 2.015612220764160156e+01 9.831260442733764648e-01 -2.298853132742806338e-06 -1.967055368368164636e-06 -1.279772618545393925e-06 -1.149908030129154213e-06
1.413000000000000000e+03 4.002610397338867188e+01 4.943372249603271484e+00 2.075657248497009277e-01 9.842532157897949219e+00 3.015029430389404297e+00 2.444787979125976562e+00
1.414000000000000000e+03 3.764743804931640625e+00 -4.166514205932617188e+01 1.295187976211309433e-02 -2.513332851231098175e-02 -3.654434578493237495e-03 -1.148078939877450466e-03
1.415000000000000000e+03 1.567442321777343750e+01 2.411800622940063477e+00 -4.898458428215235472e-06 -1.886213908619538415e-06 -2.035401621469645761e-06 9.189732281811302528e-07
1.416000000000000000e+03 1.637959289550781250e+01 1.652577877044677734e+00 -2.997287992911878973e-06 -1.800903646653750911e-06 -1.439457491869688965e-06 9.224580139743920881e-07
1.417000000000000000e+03 9.928165435791015625e+00 -3.379091739654541016e+00 -3.901285231113433838e-01 6.400170177221298218e-02 -9.783804416656494141e-02 -1.630770713090896606e-01
1.418000000000000000e+03 6.742275238037109375e+01 -1.171131420135498047e+01 9.509433060884475708e-03 2.451203390955924988e-02 1.020643953233957291e-02 -1.458082627505064011e-02
1.419000000000000000e+03 7.016193389892578125e+01 -1.136503124237060547e+01 1.745522022247314453e-02 -1.030388567596673965e-02 2.145400270819664001e-03 -1.216122973710298538e-02
1.420000000000000000e+03 6.783717346191406250e+01 -9.981113433837890625e+00 1.480794697999954224e-02 1.118269376456737518e-02 7.797192316502332687e-03 -2.066024020314216614e-02
1.421000000000000000e+03 6.809567260742187500e+01 -1.239101696014404297e+01 1.002577599138021469e-02 8.169369772076606750e-03 5.458543542772531509e-03 -1.209871284663677216e-02
1.422000000000000000e+03 1.801987528800964355e+00 -2.909322738647460938e+01 -4.970307648181915283e-02 -5.414547398686408997e-02 -3.115456551313400269e-02 1.203150600194931030e-01
1.423000000000000000e+03 5.170875072479248047e+00 -2.990792465209960938e+01 -1.943016648292541504e-01 -2.117162495851516724e-01 -1.218053698539733887e-01 1.595968455076217651e-01
1.424000000000000000e+03 6.975077056884765625e+01 -1.759357452392578125e+01 -2.712234709179028869e-05 7.787818321958184242e-05 1.522675029264064506e-05 8.289255492854863405e-05
1.425000000000000000e+03 5.209307861328125000e+01 1.170159578323364258e+00 -3.787594318389892578e+00 3.946730792522430420e-01 -1.017876386642456055e+00 2.489876300096511841e-01
1.426000000000000000e+03 1.844923019409179688e+01 1.544923901557922363e+00 2.424019839963875711e-06 2.830099447237444110e-06 1.576235717948293313e-06 1.563402065585250966e-07
1.427000000000000000e+03 1.921762657165527344e+01 3.607228755950927734e+00 5.430334795164526440e-07 -7.483289664378389716e-06 -2.082076889564632438e-06 -2.034157887464971282e-06
1.428000000000000000e+03 1.994661140441894531e+01 1.625720739364624023e+00 2.672901246114633977e-06 2.688348786250571720e-06 1.608374986972194165e-06 1.324175400441163220e-06
1.429000000000000000e+03 2.037779045104980469e+01 2.422591447830200195e+00 3.844563707389170304e-06 3.682063834276050329e-06 2.257988171550096013e-06 2.992225063280784525e-06
1.430000000000000000e+03 1.961318397521972656e+01 -1.709056091308593750e+01 7.576509118080139160e-01 -8.394645899534225464e-02 2.021113485097885132e-01 -1.064739897847175598e-01
1.431000000000000000e+03 2.032491493225097656e+01 3.635970687866210938e+01 -5.575256072916090488e-04 -2.908115508034825325e-03 -1.039692317135632038e-03 1.474522752687335014e-03
1.432000000000000000e+03 1.139350223541259766e+01 -3.511109113693237305e+00 -4.511043131351470947e-01 6.360352039337158203e-02 -1.162502318620681763e-01 -1.460115760564804077e-01
1.433000000000000000e+03 9.181008338928222656e+00 -3.340522289276123047e+00 -3.561335802078247070e-01 5.654004588723182678e-02 -8.987806737422943115e-02 -1.730885952711105347e-01
1.434000000000000000e+03 1.355017566680908203e+01 2.678859472274780273e+00 3.572861487555201165e-06 1.312117660745570902e-06 1.465493710384180304e-06 -1.657013228850701125e-07
1.435000000000000000e+03 1.204803562164306641e+01 2.198537349700927734e+00 -3.227808520023245364e-06 6.663533440587343648e-07 -7.684365641580370720e-07 -6.130209158072830178e-07
1.436000000000000000e+03 2.984155654907226562e+01 -1.703390693664550781e+01 -4.741253852844238281e-01 -4.928302392363548279e-02 -1.570225208997726440e-01 7.239860296249389648e-01
1.437000000000000000e+03 7.834868621826171875e+01 -1.887346649169921875e+01 1.426320959581062198e-04 1.596566580701619387e-04 9.068662620848044753e-05 -1.798721932573243976e-04
1.438000000000000000e+03 7.005133819580078125e+01 -2.067718696594238281e+01 -5.371579027269035578e-05 1.838909229263663292e-04 3.905254197889007628e-05 2.418673830106854439e-04
1.439000000000000000e+03 7.897455596923828125e+01 -1.745622825622558594e+01 -6.185498932609334588e-05 1.039051567204296589e-04 1.261505076399771497e-05 -5.392392631620168686e-05
1.440000000000000000e+03 6.965636444091796875e+01 -1.682118606567382812e+01 6.786641461076214910e-05 9.499896259512752295e-05 4.885961607214994729e-05 9.763003617990761995e-05
1.441000000000000000e+03 2.452499389648437500e+01 -1.744335365295410156e+01 6.113042235374450684e-01 -6.321950256824493408e-02 1.644254028797149658e-01 1.549960374832153320e-01
1.442000000000000000e+03 2.172240638732910156e+01 -1.742386054992675781e+01 6.968443393707275391e-01 -9.789814800024032593e-02 1.796838492155075073e-01 -2.083838218823075294e-03
1.443000000000000000e+03 7.754573822021484375e+01 -1.738484382629394531e+01 9.413741963726351969e-07 1.474585860705701634e-05 4.706169875134946778e-06 -1.025210876832716167e-04
1.444000000000000000e+03 4.036893463134765625e+01 -1.302099418640136719e+01 4.939451515674591064e-01 1.131982994079589844e+01 3.544132709503173828e+00 -6.678566336631774902e-01
1.445000000000000000e+03 4.193424987792968750e+01 1.569333553314208984e+01 4.162474572658538818e-01 9.670739173889160156e+00 3.026096105575561523e+00 1.336325168609619141e+00
1.446000000000000000e+03 4.269831848144531250e+01 1.642676353454589844e+01 5.644934177398681641e-01 8.551544189453125000e+00 2.734811305999755859e+00 1.224052906036376953e+00
1.447000000000000000e+03 1.600748825073242188e+01 -1.585259056091308594e+01 1.023630380630493164e+00 5.357190221548080444e-02 3.231606781482696533e-01 -1.705269664525985718e-01
1.448000000000000000e+03 4.100985717773437500e+01 7.390460491180419922e+00 1.499864816665649414e+00 1.028642272949218750e+01 3.535886287689208984e+00 3.190099716186523438e+00
1.449000000000000000e+03 5.362591934204101562e+01 1.025126814842224121e+00 -3.219867467880249023e+00 2.835502922534942627e-01 -8.808951377868652344e-01 1.573985964059829712e-01
1.450000000000000000e+03 1.819855117797851562e+01 -1.666580581665039062e+01 8.337603211402893066e-01 -5.720552429556846619e-02 2.329664379358291626e-01 -1.662444025278091431e-01
1.451000000000000000e+03 1.801150321960449219e+01 -1.738539505004882812e+01 8.034546971321105957e-01 -5.231971153989434242e-04 2.408794462680816650e-01 -2.107718884944915771e-01
1.452000000000000000e+03 2.312627029418945312e+01 -1.677453231811523438e+01 6.771035194396972656e-01 -1.201966255903244019e-01 1.670720726251602173e-01 8.766371011734008789e-02
1.453000000000000000e+03 2.623556900024414062e+01 -3.333605194091796875e+01 -1.557110249996185303e-01 2.041428685188293457e-01 1.452955137938261032e-02 1.774952113628387451e-01
1.454000000000000000e+03 2.379783439636230469e+01 -1.680235099792480469e+01 6.514592766761779785e-01 -1.113504990935325623e-01 1.620326340198516846e-01 1.395924538373947144e-01
1.455000000000000000e+03 2.314498138427734375e+01 -1.820238494873046875e+01 6.477244496345520020e-01 -3.405518084764480591e-02 1.841007918119430542e-01 5.436007678508758545e-02
1.456000000000000000e+03 4.118916320800781250e+01 1.084975433349609375e+01 9.255621433258056641e-01 1.109639453887939453e+01 3.606586933135986328e+00 2.816320419311523438e+00
1.457000000000000000e+03 2.020238685607910156e+01 -1.798634147644042969e+01 7.011144161224365234e-01 -4.951453208923339844e-02 1.954799592494964600e-01 -9.154010564088821411e-02
1.458000000000000000e+03 4.263887023925781250e+01 3.090752029418945312e+01 7.253146767616271973e-01 5.726644992828369141e+00 1.935588002204895020e+00 -6.335563063621520996e-01
1.459000000000000000e+03 4.281137466430664062e+01 2.992557334899902344e+01 8.517124056816101074e-01 6.102018833160400391e+00 2.086119413375854492e+00 -6.179593205451965332e-01
1.460000000000000000e+03 2.211013031005859375e+01 -3.288452529907226562e+01 -3.983248770236968994e-01 -1.798697188496589661e-02 -1.248935535550117493e-01 -5.902070552110671997e-02
1.461000000000000000e+03 7.243794250488281250e+01 -1.113334083557128906e+01 1.409781351685523987e-02 -9.538678452372550964e-03 1.367740565910935402e-03 -1.184034044854342937e-04
1.462000000000000000e+03 6.775891876220703125e+01 -8.184862136840820312e+00 -1.135836355388164520e-02 -3.143633075524121523e-04 -3.501818049699068069e-03 -7.642128970474004745e-03
1.463000000000000000e+03 6.797663116455078125e+01 -9.160919189453125000e+00 5.724560935050249100e-03 3.299981821328401566e-03 2.707362873479723930e-03 -1.624383963644504547e-02
1.464000000000000000e+03 7.395761871337890625e+01 -1.030523300170898438e+01 4.320197738707065582e-03 -9.673565626144409180e-03 -1.606010482646524906e-03 8.376645855605602264e-03
1.465000000000000000e+03 7.319374084472656250e+01 -1.037700843811035156e+01 5.358160007745027542e-03 -1.145654264837503433e-02 -1.829514862038195133e-03 4.461499396711587906e-03
1.466000000000000000e+03 7.632892608642578125e+01 -1.075620460510253906e+01 6.644019857048988342e-03 1.198578174808062613e-04 2.029163297265768051e-03 1.539672631770372391e-02
1.467000000000000000e+03 7.472611236572265625e+01 -1.022136211395263672e+01 3.374316729605197906e-03 -7.468500640243291855e-03 -1.228255103342235088e-03 1.136860344558954239e-02
1.468000000000000000e+03 6.876151275634765625e+01 -9.251732826232910156e+00 2.800316549837589264e-03 -8.216314949095249176e-03 -1.624799449928104877e-03 -1.228743232786655426e-02
1.469000000000000000e+03 6.942404174804687500e+01 -1.143126010894775391e+01 1.820463314652442932e-02 -6.799200084060430527e-03 3.421629779040813446e-03 -1.562310568988323212e-02
1.470000000000000000e+03 1.443654346466064453e+01 -3.860008955001831055e+00 -5.464038848876953125e-01 1.855821907520294189e-02 -1.583537012338638306e-01 -1.092364788055419922e-01
1.471000000000000000e+03 1.289503669738769531e+01 -3.683739662170410156e+00 -5.035153627395629883e-01 4.718252271413803101e-02 -1.368998587131500244e-01 -1.268193274736404419e-01
1.472000000000000000e+03 5.461417388916015625e+01 -3.228398895263671875e+01 -5.176185443997383118e-02 3.132183551788330078e-01 7.843694835901260376e-02 -1.722348630428314209e-01
1.473000000000000000e+03 1.204232501983642578e+01 2.865427732467651367e+00 3.610451130953151733e-06 3.181925762874016073e-07 1.178593151962559205e-06 -2.362478035422554967e-08
1.474000000000000000e+03 1.047786426544189453e+01 3.033146381378173828e+00 3.243592118451488204e-06 -7.149149041651980951e-07 7.586031074424681719e-07 5.922460672991292085e-07
1.475000000000000000e+03 3.477802276611328125e+01 -2.829352140426635742e+00 -1.242228031158447266e+00 1.479241132736206055e+00 7.110392302274703979e-02 -2.827225625514984131e-02
1.476000000000000000e+03 4.124127197265625000e+01 -2.768082857131958008e+00 6.823776960372924805e-01 1.124282741546630859e+01 3.577561616897583008e+00 1.986054778099060059e+00
1.477000000000000000e+03 1.280340003967285156e+01 2.772165536880493164e+00 -3.935644599550869316e-06 -8.376948130717210006e-07 -1.432001795365067665e-06 -1.939375522397313034e-07
1.478000000000000000e+03 4.027377319335937500e+01 -1.140188312530517578e+01 5.307720899581909180e-01 1.177199268341064453e+01 3.690829277038574219e+00 -3.561225906014442444e-02
1.479000000000000000e+03 6.701108551025390625e+01 -7.096007823944091797e+00 -3.728799149394035339e-02 8.324135094881057739e-03 -8.689156733453273773e-03 5.533461458981037140e-03
1.480000000000000000e+03 5.412818908691406250e+01 -3.179065704345703125e+01 -8.375892415642738342e-03 3.752059340476989746e-01 1.100490093231201172e-01 -1.940439492464065552e-01
1.481000000000000000e+03 4.914625549316406250e+01 1.874147653579711914e+00 -5.279135704040527344e+00 -1.014480665326118469e-01 -1.614175081253051758e+00 1.449528783559799194e-01
1.482000000000000000e+03 4.907183456420898438e+01 1.191713690757751465e+00 -6.139659881591796875e+00 -3.303532004356384277e-01 -1.941003918647766113e+00 9.371303319931030273e-01
1.483000000000000000e+03 4.084497451782226562e+01 -6.433767318725585938e+00 1.305272698402404785e+00 1.353614330291748047e+01 4.452425003051757812e+00 1.734888434410095215e+00
1.484000000000000000e+03 6.932482910156250000e+01 -2.159301376342773438e+01 -1.511963055236265063e-04 5.755990277975797653e-04 1.273208181373775005e-04 2.177055866923183203e-04
1.485000000000000000e+03 4.887612533569335938e+01 -2.683124160766601562e+01 3.505755662918090820e-01 9.670758247375488281e-01 3.952954113483428955e-01 -6.192455291748046875e-01
1.486000000000000000e+03 6.282808303833007812e+01 -1.646577119827270508e+00 -1.165102481842041016e+00 6.578803807497024536e-02 -3.297943174839019775e-01 1.164499390870332718e-02
1.487000000000000000e+03 6.053213119506835938e+01 -8.239666819572448730e-01 -1.788375139236450195e+00 7.691822247579693794e-04 -5.362817645072937012e-01 3.233153838664293289e-03
1.488000000000000000e+03 1.943734359741210938e+01 -3.323550796508789062e+01 -3.954822719097137451e-01 -2.745326049625873566e-02 -1.268806606531143188e-01 -4.579567909240722656e-02
1.489000000000000000e+03 5.748848915100097656e+00 2.562315464019775391e+00 -4.110969769044459099e-07 2.038158072537044063e-06 4.881183031102409586e-07 -2.898298362197238021e-06
1.490000000000000000e+03 4.871873855590820312e+00 3.987351655960083008e+00 -1.190194211631023791e-06 -1.249297952199412975e-06 -7.318476491491310298e-07 4.403610091685550287e-06
1.491000000000000000e+03 4.125798225402832031e+00 3.293916940689086914e+00 -1.692327259661396965e-06 -1.203078568323689979e-06 -8.686217825015773997e-07 3.670009391498751938e-06
1.492000000000000000e+03 4.912125110626220703e+00 3.278599977493286133e+00 4.098562556009710534e-07 1.456584413972450420e-06 5.599321752924879547e-07 -3.412643764022504911e-06
1.493000000000000000e+03 2.536419153213500977e+00 4.082195281982421875e+00 3.298774799986858852e-06 6.610771379200741649e-07 1.187955604109447449e-06 -2.925501803474617191e-06
1.494000000000000000e+03 8.901560783386230469e+00 2.490449905395507812e+00 -2.229234269179869443e-06 2.207834768341854215e-06 -6.419888620712299598e-09 -1.859305370999209117e-06
1.495000000000000000e+03 6.490779399871826172e+00 3.246049404144287109e+00 -1.664803221501642838e-06 2.051015371762332506e-06 1.158636351306085999e-07 -3.173785216858959757e-06
1.496000000000000000e+03 7.282970905303955078e+00 3.223098278045654297e+00 1.613176891623879783e-06 -1.872312168416101485e-06 -7.774058730092292535e-08 2.985488436024752446e-06
1.497000000000000000e+03 8.078125000000000000e+00 3.193024158477783203e+00 -2.896311343647539616e-06 1.966413492482388392e-06 -2.789693667182291392e-07 -2.249209046567557380e-06
1.498000000000000000e+03 9.678375244140625000e+00 3.099533796310424805e+00 -3.614319439293467440e-06 1.265992182197805960e-06 -7.044981771286984440e-07 -1.227909706358332187e-06
1.499000000000000000e+03 5.283819198608398438e+01 1.074003815650939941e+00 -3.483868122100830078e+00 3.395478725433349609e-01 -9.432960748672485352e-01 2.042900174856185913e-01
1.500000000000000000e+03 1.556346702575683594e+01 1.283308887481689453e+01 3.030656080227345228e-05 1.886470090539660305e-05 1.475137833040207624e-05 2.012420918617863208e-05
1.501000000000000000e+03 6.644365692138671875e+01 -7.549040794372558594e+00 -7.401145063340663910e-03 3.041926957666873932e-02 6.905437447130680084e-03 -1.215385366231203079e-02
1.502000000000000000e+03 3.668688964843750000e+01 -2.250558090209960938e+01 5.097558498382568359e-01 7.079583168029785156e+00 2.276801586151123047e+00 1.128646254539489746e+00
1.503000000000000000e+03 7.912848472595214844e+00 -3.059286880493164062e+01 -3.310310244560241699e-01 -2.955475747585296631e-01 -1.879735887050628662e-01 2.120627909898757935e-01
1.504000000000000000e+03 3.445697021484375000e+01 -2.132759332656860352e+00 -1.997946739196777344e+00 7.761334776878356934e-01 -3.665439486503601074e-01 -3.849300146102905273e-01
1.505000000000000000e+03 6.792340087890625000e+01 -1.079496955871582031e+01 1.638263463973999023e-02 1.391695253551006317e-02 9.089875966310501099e-03 -2.117740549147129059e-02
1.506000000000000000e+03 7.092848205566406250e+01 -1.058790969848632812e+01 1.044991333037614822e-02 -1.522589847445487976e-02 -1.432795543223619461e-03 -7.352715358138084412e-03
1.507000000000000000e+03 6.914581298828125000e+01 -1.770046424865722656e+01 9.541213512420654297e-05 1.542133977636694908e-04 7.488766277674585581e-05 9.927890641847625375e-05
1.508000000000000000e+03 6.919696044921875000e+01 -1.847998809814453125e+01 -7.951530278660356998e-05 1.898961490951478481e-04 3.311425462015904486e-05 7.945170364109799266e-05
1.509000000000000000e+03 4.286397171020507812e+01 1.974964332580566406e+01 1.812745332717895508e-01 7.686031818389892578e+00 2.360191822052001953e+00 5.378412604331970215e-01
1.510000000000000000e+03 2.520527267456054688e+01 -1.733777427673339844e+01 5.715292692184448242e-01 -3.746430203318595886e-02 1.602194905281066895e-01 1.950470656156539917e-01
1.511000000000000000e+03 4.259467315673828125e+01 -2.121244430541992188e+01 2.190288752317428589e-01 5.251765727996826172e+00 1.641238331794738770e+00 -1.003503680229187012e+00
1.512000000000000000e+03 4.805519104003906250e+01 -2.907446861267089844e+01 2.308110445737838745e-01 1.458543896675109863e+00 5.068064928054809570e-01 -7.464590072631835938e-01
1.513000000000000000e+03 5.301361846923828125e+01 -3.230990600585937500e+01 -2.764052012935280800e-03 5.918669700622558594e-01 1.767308712005615234e-01 -2.978004515171051025e-01
1.514000000000000000e+03 5.750798797607421875e+01 -8.128063678741455078e-01 -2.812861204147338867e+00 -7.807014137506484985e-02 -8.672794103622436523e-01 2.534080147743225098e-01
1.515000000000000000e+03 7.820806884765625000e+01 -1.666953277587890625e+01 -2.077481258311308920e-05 3.932648178306408226e-05 5.565500487136887386e-06 -6.579573528142645955e-05
1.516000000000000000e+03 7.833704376220703125e+01 -2.106830215454101562e+01 -9.846371540334075689e-05 2.755221212282776833e-04 5.311751738190650940e-05 -2.422540856059640646e-04
1.517000000000000000e+03 7.901732635498046875e+01 -2.124413490295410156e+01 1.567040744703263044e-04 5.169674986973404884e-04 2.021014806814491749e-04 -2.074444782920181751e-04
1.518000000000000000e+03 7.532691955566406250e+01 -1.743794441223144531e+01 1.887141261249780655e-04 -7.187422306742519140e-05 3.505196946207433939e-05 -8.389160211663693190e-05
1.519000000000000000e+03 7.829528045654296875e+01 -2.255549430847167969e+01 -1.324264303548261523e-04 3.581369237508624792e-04 6.771314656361937523e-05 -2.653431438375264406e-04
1.520000000000000000e+03 7.835772705078125000e+01 -2.033473014831542969e+01 1.712755183689296246e-04 2.528936020098626614e-04 1.272507361136376858e-04 -2.352387382416054606e-04
1.521000000000000000e+03 7.828474426269531250e+01 -2.331653022766113281e+01 1.318424765486270189e-04 4.569962038658559322e-04 1.766516070347279310e-04 -3.085493808612227440e-04
1.522000000000000000e+03 7.898626708984375000e+01 -2.276666450500488281e+01 1.541835808893665671e-04 7.357544382102787495e-04 2.669813984539359808e-04 -2.511550264898687601e-04
1.523000000000000000e+03 7.753942871093750000e+01 -2.627586555480957031e+01 -7.911644061096012592e-04 -2.068758039968088269e-04 -2.994120586663484573e-04 3.934583219233900309e-04
1.524000000000000000e+03 7.748795318603515625e+01 -3.833410263061523438e+01 8.176741539500653744e-04 -1.992344483733177185e-02 -5.731731187552213669e-03 6.720242556184530258e-03
1.525000000000000000e+03 7.885543823242187500e+01 -2.990824699401855469e+01 -5.762396613135933876e-04 -1.695995451882481575e-03 -6.816704990342259407e-04 1.585281803272664547e-03
1.526000000000000000e+03 7.810848236083984375e+01 -3.210235595703125000e+01 -1.276666414923965931e-03 -5.630434490740299225e-03 -2.072130329906940460e-03 4.562181886285543442e-03
1.527000000000000000e+03 7.867149353027343750e+01 -3.624034500122070312e+01 -8.344326488440856338e-05 -1.736211776733398438e-02 -5.233668256551027298e-03 4.444409627467393875e-03
1.528000000000000000e+03 7.773112487792968750e+01 -3.684002685546875000e+01 2.367358683841302991e-04 -1.724759303033351898e-02 -5.103257484734058380e-03 6.863198708742856979e-03
1.529000000000000000e+03 7.825170135498046875e+01 -2.567371940612792969e+01 -4.273132944945245981e-04 3.309523162897676229e-04 -2.890829819079954177e-05 6.444027530960738659e-05
1.530000000000000000e+03 7.884547424316406250e+01 -3.228966903686523438e+01 -1.473581214668229222e-04 -6.037953309714794159e-03 -1.855593407526612282e-03 2.960968296974897385e-03
1.531000000000000000e+03 7.808908843994140625e+01 -3.053001213073730469e+01 -1.155604375526309013e-03 -3.025899641215801239e-03 -1.254451228305697441e-03 3.048610873520374298e-03
1.532000000000000000e+03 7.875635528564453125e+01 -3.467166900634765625e+01 -3.601174685172736645e-04 -1.259489916265010834e-02 -3.886505030095577240e-03 4.128553904592990875e-03
1.533000000000000000e+03 7.761980438232421875e+01 -2.391419601440429688e+01 4.495216853683814406e-05 1.489262067480012774e-04 5.816351404064334929e-05 -2.714585280045866966e-04
1.534000000000000000e+03 7.828054809570312500e+01 -2.409254646301269531e+01 -2.320204512216150761e-04 4.220396804157644510e-04 5.700577094103209674e-05 -1.897454494610428810e-04
1.535000000000000000e+03 7.827290344238281250e+01 -2.487811470031738281e+01 5.293793219607323408e-05 4.426147788763046265e-04 1.486658147769048810e-04 -1.776717253960669041e-04
1.536000000000000000e+03 7.815547943115234375e+01 -2.808786582946777344e+01 -3.773912321776151657e-04 -5.340917268767952919e-04 -2.734448935370892286e-04 1.037482637912034988e-03
1.537000000000000000e+03 7.804916381835937500e+01 -3.288984298706054688e+01 -5.093635991215705872e-04 -7.424974814057350159e-03 -2.380301477387547493e-03 5.236263852566480637e-03
1.538000000000000000e+03 7.811469268798828125e+01 -3.131749343872070312e+01 -7.237191894091665745e-04 -4.069528076797723770e-03 -1.437974162399768829e-03 3.645138349384069443e-03
1.539000000000000000e+03 7.793773651123046875e+01 -3.445598983764648438e+01 -5.973381121293641627e-05 -1.123110298067331314e-02 -3.387251170352101326e-03 6.641950458288192749e-03
1.540000000000000000e+03 7.839468383789062500e+01 -4.105749130249023438e+01 1.553416601382195950e-03 -2.749673835933208466e-02 -7.782996632158756256e-03 1.357853878289461136e-03
1.541000000000000000e+03 7.661611938476562500e+01 -1.596362686157226562e+01 1.136151040554977953e-04 6.848636530776275322e-06 3.613912122091278434e-05 -8.260695176431909204e-05
1.542000000000000000e+03 7.597540283203125000e+01 -1.670703125000000000e+01 1.498735073255375028e-04 -2.341252911719493568e-05 3.793829455389641225e-05 -9.147030505118891597e-05
1.543000000000000000e+03 7.672091674804687500e+01 -1.667751121520996094e+01 3.786119123105891049e-05 -3.407705662539228797e-05 1.135240268013149034e-06 -8.288637036457657814e-05
1.544000000000000000e+03 3.692480087280273438e+01 -2.189642715454101562e+01 2.937208116054534912e-01 6.960110187530517578e+00 2.176149129867553711e+00 1.044772028923034668e+00
1.545000000000000000e+03 5.404424190521240234e+00 -2.362921905517578125e+01 3.096627071499824524e-02 1.382962465286254883e-01 5.077875405550003052e-02 2.861788570880889893e-01
1.546000000000000000e+03 4.322440719604492188e+01 -2.074328422546386719e+01 4.863407313823699951e-01 4.709604263305664062e+00 1.558783531188964844e+00 -1.522142887115478516e+00
1.547000000000000000e+03 1.283127689361572266e+01 -3.261110305786132812e+01 -3.448527753353118896e-01 -8.302669972181320190e-02 -1.283638477325439453e-01 1.019661054015159607e-01
1.548000000000000000e+03 1.604832839965820312e+01 -4.011961936950683594e+00 -5.813553929328918457e-01 -1.811315678060054779e-02 -1.798405647277832031e-01 -9.932678192853927612e-02
1.549000000000000000e+03 1.769413185119628906e+01 -4.099608421325683594e+00 -6.146809458732604980e-01 -5.115726217627525330e-02 -1.997514665126800537e-01 -9.953517466783523560e-02
1.550000000000000000e+03 2.022313308715820312e+01 -3.365437746047973633e+00 -8.041244745254516602e-01 -4.427334666252136230e-02 -2.545193433761596680e-01 -9.377929568290710449e-02
1.551000000000000000e+03 1.767937850952148438e+01 -4.774435043334960938e+00 -5.152142643928527832e-01 -5.005943402647972107e-02 -1.695821136236190796e-01 -1.114835366606712341e-01
1.552000000000000000e+03 1.729537582397460938e+01 9.901339530944824219e+00 -3.113895218120887876e-05 -4.936679943057242781e-06 -1.082268954633036628e-05 -1.236774460267042741e-05
1.553000000000000000e+03 1.604296302795410156e+01 3.141489791870117188e+01 1.185801695100963116e-03 3.381714486749842763e-05 3.658856439869850874e-04 3.278903022874146700e-04
1.554000000000000000e+03 4.775325012207031250e+01 -2.558821487426757812e+01 4.489993453025817871e-01 1.171563982963562012e+00 4.861690104007720947e-01 -7.669392824172973633e-01
1.555000000000000000e+03 5.222949600219726562e+01 -3.016483306884765625e+01 1.124592721462249756e-01 5.331251025199890137e-01 1.936753094196319580e-01 -3.132608532905578613e-01
1.556000000000000000e+03 5.342356109619140625e+01 -3.008838462829589844e+01 8.337876200675964355e-02 3.075270354747772217e-01 1.172717437148094177e-01 -1.974663585424423218e-01
1.557000000000000000e+03 6.711507415771484375e+01 -2.938171958923339844e+01 -2.143072150647640228e-02 -5.154624232091009617e-04 -6.583855021744966507e-03 -8.367090485990047455e-03
1.558000000000000000e+03 6.900930023193359375e+01 -2.687984848022460938e+01 -3.279283409938216209e-03 2.491393825039267540e-04 -9.090432431548833847e-04 -2.227384364232420921e-03
1.559000000000000000e+03 4.084029769897460938e+01 -7.358618736267089844e+00 1.624456048011779785e+00 1.396036148071289062e+01 4.675445079803466797e+00 1.820177316665649414e+00
1.560000000000000000e+03 4.559051895141601562e+01 -2.312535667419433594e+01 6.105772852897644043e-01 2.007771968841552734e+00 7.855047583580017090e-01 -1.090296030044555664e+00
1.561000000000000000e+03 6.990804290771484375e+01 -2.530235481262207031e+01 -7.201064727269113064e-04 -1.945149124367162585e-04 -2.743864315561950207e-04 -1.979320950340479612e-04
1.562000000000000000e+03 7.246971130371093750e+01 -1.771778488159179688e+01 1.937169727170839906e-04 -6.285039853537455201e-05 3.925997225451283157e-05 1.043475858750753105e-04
1.563000000000000000e+03 1.397967243194580078e+01 1.839805221557617188e+01 -9.024201426655054092e-05 -2.616413257783278823e-05 -3.492184623610228300e-05 -3.406104951864108443e-05
1.564000000000000000e+03 1.510715198516845703e+01 1.684018325805664062e+01 8.985424938146024942e-05 -8.710924703336786479e-06 2.434299676679074764e-05 3.668146746349520981e-05
1.565000000000000000e+03 6.761877441406250000e+01 -2.870805168151855469e+01 -1.429049391299486160e-02 -6.974691059440374374e-04 -4.496388603001832962e-03 -5.537070799618959427e-03
1.566000000000000000e+03 6.909485626220703125e+01 -2.806128692626953125e+01 -9.008649736642837524e-03 1.081018475815653801e-03 -2.378289354965090752e-03 -3.296114737167954445e-03
1.567000000000000000e+03 4.667213058471679688e+01 -2.432227706909179688e+01 5.434967279434204102e-01 1.485338091850280762e+00 6.086504459381103516e-01 -8.956896662712097168e-01
1.568000000000000000e+03 7.179260253906250000e+01 -1.785632133483886719e+01 1.002439821604639292e-04 -1.193210191559046507e-04 -5.723110461985925213e-06 1.196895900648087263e-04
1.569000000000000000e+03 6.924452209472656250e+01 -1.926075553894042969e+01 1.475251046940684319e-04 3.007406194228678942e-04 1.344797201454639435e-04 1.843722275225445628e-04
1.570000000000000000e+03 7.000989532470703125e+01 -1.990175437927246094e+01 2.029891329584643245e-04 2.372134913457557559e-04 1.320607843808829784e-04 3.115480067208409309e-04
1.571000000000000000e+03 5.067792129516601562e+01 -2.868968200683593750e+01 2.237459421157836914e-01 7.106264233589172363e-01 2.803117036819458008e-01 -4.569892287254333496e-01
1.572000000000000000e+03 7.013566589355468750e+01 -2.295558547973632812e+01 3.321160038467496634e-04 2.487342280801385641e-04 1.742550666676834226e-04 5.762493819929659367e-04
1.573000000000000000e+03 7.007569122314453125e+01 -2.221728897094726562e+01 -7.887078390922397375e-05 2.032261982094496489e-04 3.730662865564227104e-05 3.355833468958735466e-04
1.574000000000000000e+03 4.216484832763671875e+01 2.461011886596679688e+01 8.157371729612350464e-02 7.441572666168212891e+00 2.256943941116333008e+00 -9.215406328439712524e-02
1.575000000000000000e+03 4.291772079467773438e+01 2.381866645812988281e+01 1.474506705999374390e-01 7.148702621459960938e+00 2.188846111297607422e+00 5.851171910762786865e-03
1.576000000000000000e+03 3.759863662719726562e+01 -1.304199314117431641e+01 1.093117117881774902e+00 7.029417991638183594e+00 2.436760425567626953e+00 1.067368760704994202e-01
1.577000000000000000e+03 4.086506271362304688e+01 -1.647037696838378906e+01 1.041031122207641602e+00 9.860568046569824219e+00 3.270479917526245117e+00 -1.075229406356811523e+00
1.578000000000000000e+03 3.519811630249023438e+01 3.341240435838699341e-02 -3.139917135238647461e+00 2.135277986526489258e-01 -8.779168128967285156e-01 -1.076439261436462402e+00
1.579000000000000000e+03 3.585416412353515625e+01 5.766013860702514648e-01 -2.726236581802368164e+00 1.246186971664428711e+00 -4.440148770809173584e-01 -6.172362565994262695e-01
1.580000000000000000e+03 4.215312957763671875e+01 2.380413818359375000e+01 5.680033564567565918e-02 7.427591800689697266e+00 2.245317697525024414e+00 -5.992462858557701111e-03
1.581000000000000000e+03 4.375046157836914062e+01 2.547206306457519531e+01 4.170262217521667480e-01 6.651869773864746094e+00 2.120668888092041016e+00 -2.258033603429794312e-01
1.582000000000000000e+03 1.349342727661132812e+01 -3.276367950439453125e+01 -3.426142632961273193e-01 -6.582481414079666138e-02 -1.225317269563674927e-01 7.132549583911895752e-02
1.583000000000000000e+03 4.289766693115234375e+01 2.301158523559570312e+01 1.242863759398460388e-01 7.195047855377197266e+00 2.195800304412841797e+00 1.096151694655418396e-01
1.584000000000000000e+03 3.808926773071289062e+01 3.092733860015869141e+00 -4.231892526149749756e-01 6.944359779357910156e+00 1.956351161003112793e+00 1.759143948554992676e+00
1.585000000000000000e+03 3.857216262817382812e+01 3.800672769546508789e+00 2.501932084560394287e-01 8.292609214782714844e+00 2.562840700149536133e+00 2.331234693527221680e+00
1.586000000000000000e+03 4.287568664550781250e+01 2.139112091064453125e+01 1.266313791275024414e-01 7.374995708465576172e+00 2.250488281250000000e+00 3.041931986808776855e-01
1.587000000000000000e+03 4.213221359252929688e+01 2.219515800476074219e+01 4.662570729851722717e-02 7.532258033752441406e+00 2.273665189743041992e+00 1.243251189589500427e-01
1.588000000000000000e+03 4.211445236206054688e+01 1.977026176452636719e+01 8.044844120740890503e-02 8.012141227722167969e+00 2.427776813507080078e+00 3.415073156356811523e-01
1.589000000000000000e+03 4.284635162353515625e+01 1.892540931701660156e+01 2.708394527435302734e-01 7.876579761505126953e+00 2.444225788116455078e+00 7.077825665473937988e-01
1.590000000000000000e+03 4.283874130249023438e+01 1.216884899139404297e+01 1.115622401237487793e+00 8.600442886352539062e+00 2.914819717407226562e+00 2.269175767898559570e+00
1.591000000000000000e+03 4.286912536621093750e+01 2.057211685180664062e+01 1.531206518411636353e-01 7.507901191711425781e+00 2.298306465148925781e+00 4.107234477996826172e-01
1.592000000000000000e+03 7.738562774658203125e+01 1.995137786865234375e+01 2.376417070627212524e-02 -1.714443683624267578e+00 -5.072038173675537109e-01 -2.009346932172775269e-01
1.593000000000000000e+03 7.707442474365234375e+01 3.889410400390625000e+01 -1.349906157702207565e-02 -2.122172355651855469e+00 -6.407014131546020508e-01 2.759208716452121735e-02
1.594000000000000000e+03 7.884049987792968750e+01 2.700937461853027344e+01 3.764449153095483780e-03 -2.365432739257812500e+00 -7.085005044937133789e-01 -3.525780141353607178e-02
1.595000000000000000e+03 7.804419708251953125e+01 2.548595237731933594e+01 1.271817740052938461e-02 -2.137609481811523438e+00 -6.374673843383789062e-01 -7.875683903694152832e-02
1.596000000000000000e+03 7.888433837890625000e+01 2.061980056762695312e+01 4.239343572407960892e-03 -2.035678625106811523e+00 -6.094318032264709473e-01 -8.537359535694122314e-02
1.597000000000000000e+03 7.813186645507812500e+01 2.068282890319824219e+01 1.354386098682880402e-02 -1.897399663925170898e+00 -5.651567578315734863e-01 -1.389144510030746460e-01
1.598000000000000000e+03 7.752876281738281250e+01 3.569048309326171875e+01 8.484486490488052368e-03 -2.237913131713867188e+00 -6.688286066055297852e-01 -5.717858672142028809e-03
1.599000000000000000e+03 7.686903381347656250e+01 3.384259796142578125e+01 1.639437116682529449e-02 -2.044847011566162109e+00 -6.085357666015625000e-01 -3.413126617670059204e-02
1.600000000000000000e+03 7.892180633544921875e+01 3.011489105224609375e+01 4.426064435392618179e-03 -2.463720560073852539e+00 -7.377883195877075195e-01 -2.308514900505542755e-02
1.601000000000000000e+03 7.887621307373046875e+01 3.166215896606445312e+01 2.503109397366642952e-03 -2.479446172714233398e+00 -7.430828809738159180e-01 -1.671564206480979919e-02
1.602000000000000000e+03 7.810584259033203125e+01 2.865295600891113281e+01 5.718531552702188492e-03 -2.247787714004516602e+00 -6.726207137107849121e-01 -4.833468794822692871e-02
1.603000000000000000e+03 7.806788635253906250e+01 2.787875938415527344e+01 7.457834668457508087e-03 -2.221991300582885742e+00 -6.643600463867187500e-01 -5.236717686057090759e-02
1.604000000000000000e+03 7.810990905761718750e+01 2.227725219726562500e+01 1.471922174096107483e-02 -1.995046257972717285e+00 -5.940980911254882812e-01 -1.197843775153160095e-01
1.605000000000000000e+03 7.812163543701171875e+01 2.148015213012695312e+01 1.299599930644035339e-02 -1.948130726814270020e+00 -5.805404186248779297e-01 -1.292769759893417358e-01
1.606000000000000000e+03 7.887135314941406250e+01 2.221457862854003906e+01 4.712808411568403244e-03 -2.144025087356567383e+00 -6.417936682701110840e-01 -7.274437695741653442e-02
1.607000000000000000e+03 7.773497772216796875e+01 3.742166900634765625e+01 -1.353908982127904892e-02 -2.288607120513916016e+00 -6.906439065933227539e-01 1.548826415091753006e-02
1.608000000000000000e+03 7.779114532470703125e+01 3.398511123657226562e+01 1.261026784777641296e-02 -2.266855239868164062e+00 -6.762734651565551758e-01 -1.523173041641712189e-02
1.609000000000000000e+03 7.791308593750000000e+01 3.315490722656250000e+01 9.472093544900417328e-03 -2.279376029968261719e+00 -6.809711456298828125e-01 -2.201778069138526917e-02
1.610000000000000000e+03 7.816713714599609375e+01 1.748621559143066406e+01 1.183038111776113510e-02 -1.654289007186889648e+00 -4.927375912666320801e-01 -1.745969057083129883e-01
1.611000000000000000e+03 7.891853332519531250e+01 1.343486404418945312e+01 3.040756098926067352e-03 -1.346983909606933594e+00 -4.031829535961151123e-01 -1.282608509063720703e-01
1.612000000000000000e+03 7.750325012207031250e+01 8.767896652221679688e+00 -9.379602968692779541e-03 -7.437059879302978516e-01 -2.259256839752197266e-01 -2.754262983798980713e-01
1.613000000000000000e+03 7.818028259277343750e+01 1.588728523254394531e+01 1.037356164306402206e-02 -1.510691881179809570e+00 -4.500955045223236084e-01 -1.900232732295989990e-01
1.614000000000000000e+03 7.818515777587890625e+01 1.508953094482421875e+01 8.167452178895473480e-03 -1.434396147727966309e+00 -4.278686344623565674e-01 -1.966080367565155029e-01
1.615000000000000000e+03 7.891621398925781250e+01 1.423320198059082031e+01 2.442613709717988968e-03 -1.436427593231201172e+00 -4.301954805850982666e-01 -1.252942085266113281e-01
1.616000000000000000e+03 7.818888854980468750e+01 1.429285907745361328e+01 7.995184510946273804e-03 -1.355437517166137695e+00 -4.042326807975769043e-01 -2.023476809263229370e-01
1.617000000000000000e+03 7.821080017089843750e+01 1.030309581756591797e+01 -1.550868386402726173e-03 -9.381990432739257812e-01 -2.819249927997589111e-01 -2.113838791847229004e-01
1.618000000000000000e+03 7.821463012695312500e+01 9.504148483276367188e+00 -2.781278453767299652e-03 -8.539057970046997070e-01 -2.570061087608337402e-01 -2.085666358470916748e-01
1.619000000000000000e+03 7.821824645996093750e+01 8.705074310302734375e+00 -5.453319288790225983e-03 -7.709382772445678711e-01 -2.329174727201461792e-01 -2.043687999248504639e-01
1.620000000000000000e+03 7.894902038574218750e+01 -1.733197689056396484e+00 -5.851025693118572235e-03 -1.417033467441797256e-02 -6.006408017128705978e-03 -2.788661234080791473e-02
1.621000000000000000e+03 7.753270721435546875e+01 -3.973082304000854492e+00 -2.042041346430778503e-02 -1.354346517473459244e-02 -1.018916349858045578e-02 -2.506466954946517944e-02
1.622000000000000000e+03 7.894010162353515625e+01 5.454023361206054688e+00 -4.605271387845277786e-03 -4.593354463577270508e-01 -1.391822099685668945e-01 -1.060131415724754333e-01
1.623000000000000000e+03 7.753367614746093750e+01 3.191675901412963867e+00 -3.039871342480182648e-02 -2.845698297023773193e-01 -9.449055790901184082e-02 -1.826730966567993164e-01
1.624000000000000000e+03 7.628613281250000000e+01 -9.966641426086425781e+00 2.045076340436935425e-03 -7.046698010526597500e-04 4.021219501737505198e-04 1.585192419588565826e-02
1.625000000000000000e+03 7.738935852050781250e+01 2.954987907409667969e+01 1.048875134438276291e-02 -2.105654716491699219e+00 -6.285498142242431641e-01 -5.387248471379280090e-02
1.626000000000000000e+03 7.893627166748046875e+01 7.048076152801513672e+00 -3.159343497827649117e-03 -6.195174455642700195e-01 -1.868030279874801636e-01 -1.183119416236877441e-01
1.627000000000000000e+03 7.822821044921875000e+01 6.311672210693359375e+00 -1.054694037884473801e-02 -5.354971289634704590e-01 -1.638132184743881226e-01 -1.818634420633316040e-01
1.628000000000000000e+03 7.894844818115234375e+01 -1.357884109020233154e-01 -6.621070671826601028e-03 -6.940813362598419189e-02 -2.280876226723194122e-02 -4.501985386013984680e-02
1.629000000000000000e+03 7.824664306640625000e+01 -8.743209242820739746e-01 -1.608688756823539734e-02 -6.619924306869506836e-02 -2.468583919107913971e-02 -6.117833778262138367e-02
1.630000000000000000e+03 7.892575073242187500e+01 -4.928951740264892578e+00 -3.557380987331271172e-03 3.285158798098564148e-02 8.788261562585830688e-03 -2.281363587826490402e-03
1.631000000000000000e+03 7.881967926025390625e+01 3.567295837402343750e+01 3.466459689661860466e-03 -2.502039432525634766e+00 -7.495718598365783691e-01 -1.714165322482585907e-03
1.632000000000000000e+03 7.807769775390625000e+01 2.387887382507324219e+01 1.566733419895172119e-02 -2.074341535568237305e+00 -6.176022291183471680e-01 -9.918507933616638184e-02
1.633000000000000000e+03 7.821953582763671875e+01 3.013411140441894531e+01 7.584495935589075089e-03 -2.302034139633178711e+00 -6.883349418640136719e-01 -3.298641741275787354e-02
1.634000000000000000e+03 7.804404449462890625e+01 2.709360504150390625e+01 8.675385266542434692e-03 -2.194718122482299805e+00 -6.558127999305725098e-01 -6.113236770033836365e-02
1.635000000000000000e+03 7.733600616455078125e+01 2.235278320312500000e+01 2.642218396067619324e-02 -1.849459052085876465e+00 -5.469110608100891113e-01 -1.618355959653854370e-01
1.636000000000000000e+03 7.814183807373046875e+01 1.988348960876464844e+01 1.231923978775739670e-02 -1.842778921127319336e+00 -5.491378903388977051e-01 -1.485025286674499512e-01
1.637000000000000000e+03 7.815128326416015625e+01 1.908389854431152344e+01 1.275272388011217117e-02 -1.783323884010314941e+00 -5.311713218688964844e-01 -1.576088666915893555e-01
1.638000000000000000e+03 7.824353027343750000e+01 -3.261025905609130859e+00 -1.233224757015705109e-02 -6.332425400614738464e-03 -5.599401891231536865e-03 -2.488121949136257172e-02
1.639000000000000000e+03 7.824181365966796875e+01 2.320517063140869141e+00 -1.704367808997631073e-02 -2.211742699146270752e-01 -7.146538794040679932e-02 -1.192047074437141418e-01
1.640000000000000000e+03 7.893395233154296875e+01 7.846796512603759766e+00 -3.020588541403412819e-03 -7.054882645606994629e-01 -2.125526517629623413e-01 -1.231864914298057556e-01
1.641000000000000000e+03 7.769620513916015625e+01 3.485456466674804688e+01 1.041988003998994827e-02 -2.261855363845825195e+00 -6.754306554794311523e-01 -1.067033689469099045e-02
1.642000000000000000e+03 7.894225311279296875e+01 3.859917640686035156e+00 -5.771585274487733841e-03 -3.182109594345092773e-01 -9.719476103782653809e-02 -9.065279364585876465e-02
1.643000000000000000e+03 7.823107910156250000e+01 5.516140460968017578e+00 -1.267701201140880585e-02 -4.637321829795837402e-01 -1.429227590560913086e-01 -1.716513931751251221e-01
1.644000000000000000e+03 7.824388122558593750e+01 1.522751808166503906e+00 -1.720825023949146271e-02 -1.738320887088775635e-01 -5.731210112571716309e-02 -1.043563112616539001e-01
1.645000000000000000e+03 7.894808959960937500e+01 6.633636951446533203e-01 -6.709276232868432999e-03 -1.062716767191886902e-01 -3.389428555965423584e-02 -5.409330129623413086e-02
1.646000000000000000e+03 7.824513244628906250e+01 7.254049777984619141e-01 -1.731825806200504303e-02 -1.324247419834136963e-01 -4.492289945483207703e-02 -8.980118483304977417e-02
1.647000000000000000e+03 7.894518280029296875e+01 -3.326770305633544922e+00 -4.769534803926944733e-03 1.858253963291645050e-02 4.143901169300079346e-03 -1.345685496926307678e-02
1.648000000000000000e+03 7.824723815917968750e+01 -1.672480463981628418e+00 -1.504286006093025208e-02 -4.121163859963417053e-02 -1.687634922564029694e-02 -4.783154278993606567e-02
1.649000000000000000e+03 7.794505310058593750e+01 -1.065148925781250000e+01 3.233752213418483734e-03 7.105405908077955246e-03 3.101747483015060425e-03 1.375377550721168518e-02
1.650000000000000000e+03 7.792816925048828125e+01 -9.829618453979492188e+00 8.564905729144811630e-04 9.391909465193748474e-03 3.074520034715533257e-03 1.489576697349548340e-02
1.651000000000000000e+03 7.876516723632812500e+01 -8.997501373291015625e+00 -3.194986493326723576e-04 2.073037996888160706e-02 6.123264785856008530e-03 1.112856063991785049e-02
1.652000000000000000e+03 7.738031768798828125e+01 3.806898498535156250e+01 4.199234303086996078e-03 -2.195227146148681641e+00 -6.573083996772766113e-01 1.766461879014968872e-02
1.653000000000000000e+03 7.770253658294677734e+00 -1.630630302429199219e+01 7.247354984283447266e-01 5.657697916030883789e-01 3.871515989303588867e-01 2.254681736230850220e-01
1.654000000000000000e+03 7.502366065979003906e+00 -1.703103828430175781e+01 7.830784916877746582e-01 5.987455248832702637e-01 4.145472049713134766e-01 3.074157834053039551e-01
1.655000000000000000e+03 4.380345535278320312e+01 -2.138847351074218750e+01 5.396429896354675293e-01 3.800927400588989258e+00 1.302171111106872559e+00 -1.441386103630065918e+00
1.656000000000000000e+03 4.441350555419921875e+01 -2.198547172546386719e+01 6.027450561523437500e-01 3.025834560394287109e+00 1.088573932647705078e+00 -1.332923173904418945e+00
1.657000000000000000e+03 4.833087539672851562e+01 -2.618541526794433594e+01 4.069070518016815186e-01 1.074322342872619629e+00 4.443688094615936279e-01 -6.907966732978820801e-01
1.658000000000000000e+03 4.501507186889648438e+01 -2.255835151672363281e+01 6.253488659858703613e-01 2.411907672882080078e+00 9.111769199371337891e-01 -1.211426019668579102e+00
1.659000000000000000e+03 4.201319122314453125e+01 1.150191688537597656e+01 9.971947669982910156e-01 9.717884063720703125e+00 3.214523553848266602e+00 2.585557699203491211e+00
1.660000000000000000e+03 7.061551666259765625e+01 -1.896135711669921875e+01 1.697064726613461971e-04 1.005234735202975571e-04 8.106898167170584202e-05 2.682717458810657263e-04
1.661000000000000000e+03 1.474985408782958984e+01 2.182522010803222656e+01 1.908900012494996190e-04 -1.562952093081548810e-05 5.257814336800947785e-05 4.723332676803693175e-05
1.662000000000000000e+03 1.406311798095703125e+01 2.097650718688964844e+01 1.061896909959614277e-04 1.061314196704188362e-05 3.504085179883986712e-05 4.281981819076463580e-05
1.663000000000000000e+03 4.024482345581054688e+01 -1.059938335418701172e+01 6.786651611328125000e-01 1.194692802429199219e+01 3.787678003311157227e+00 2.546618282794952393e-01
1.664000000000000000e+03 4.091065979003906250e+01 -1.063360786437988281e+01 5.712187290191650391e-01 1.313428115844726562e+01 4.111649990081787109e+00 -7.770322263240814209e-02
1.665000000000000000e+03 2.463277816772460938e+01 -3.508612823486328125e+01 -1.052388623356819153e-01 2.086904197931289673e-01 3.103546611964702606e-02 9.799644351005554199e-02
1.666000000000000000e+03 2.480673217773437500e+01 -3.242974853515625000e+01 -3.911512196063995361e-01 5.420214310288429260e-02 -1.010847240686416626e-01 -2.467558952048420906e-03
1.667000000000000000e+03 1.701663589477539062e+01 2.266795158386230469e+00 -3.070295406359946355e-06 -3.457934781181393191e-06 -1.958469056262401864e-06 1.255299139302223921e-06
1.668000000000000000e+03 1.857393455505371094e+01 6.810230255126953125e+00 -1.776285716914571822e-05 -3.189794369973242283e-06 -6.285795279836747795e-06 -6.359297913149930537e-06
1.669000000000000000e+03 1.672903060913085938e+01 1.141833686828613281e+01 -3.981063491664826870e-05 -7.514579465350834653e-06 -1.419756426912499592e-05 -1.394701666868058965e-05
1.670000000000000000e+03 1.555597496032714844e+01 1.528339767456054688e+01 6.893646059324964881e-05 6.724657396262045950e-06 2.269833566970191896e-05 3.558455136953853071e-05
1.671000000000000000e+03 1.512736320495605469e+01 1.439270210266113281e+01 3.144560469081625342e-05 1.717845952953211963e-05 1.458721999370027333e-05 3.158697654725983739e-05
1.672000000000000000e+03 2.947327613830566406e+01 -1.629454421997070312e+01 2.824788391590118408e-01 -1.570601761341094971e-01 3.762560337781906128e-02 7.813150882720947266e-01
1.673000000000000000e+03 4.047681045532226562e+01 3.308038711547851562e+01 5.712794661521911621e-01 4.337533473968505859e+00 1.472643971443176270e+00 -1.284227609634399414e+00
1.674000000000000000e+03 3.853274536132812500e+01 3.600398254394531250e+01 -3.545577451586723328e-02 2.314694166183471680e+00 6.837714910507202148e-01 -9.266346096992492676e-01
1.675000000000000000e+03 5.282080078125000000e+01 -3.082061767578125000e+01 7.683316618204116821e-02 4.954117536544799805e-01 1.716734766960144043e-01 -2.747793495655059814e-01
1.676000000000000000e+03 2.511470794677734375e+01 -2.664092302322387695e+00 -1.673955798149108887e+00 1.053390372544527054e-02 -4.990265965461730957e-01 -3.162534832954406738e-01
1.677000000000000000e+03 2.684716987609863281e+01 -1.772485542297363281e+01 3.801604807376861572e-01 1.785063743591308594e-02 1.194033399224281311e-01 2.436318248510360718e-01
1.678000000000000000e+03 2.588866233825683594e+01 -1.718877410888671875e+01 5.013912916183471680e-01 -3.163461387157440186e-02 1.409270167350769043e-01 2.585117518901824951e-01
1.679000000000000000e+03 3.752652740478515625e+01 1.294601798057556152e+00 -2.304318904876708984e+00 5.413380622863769531e+00 9.327184557914733887e-01 4.275875389575958252e-01
1.680000000000000000e+03 3.547268807888031006e-01 3.478424787521362305e+00 4.018172603537095711e-06 7.210925900835718494e-08 1.227084567290148698e-06 -9.689191529105301015e-07
1.681000000000000000e+03 2.562181949615478516e+00 3.829087829589843750e+01 1.203426472784485668e-05 5.236853612586855888e-04 1.607158774277195334e-04 -1.632635976420715451e-04
1.682000000000000000e+03 1.326106309890747070e+00 3.620438003540039062e+01 -1.193406205857172608e-04 5.024412530474364758e-04 1.149301897385157645e-04 -1.009142433758825064e-04
1.683000000000000000e+03 2.285692453384399414e+00 3.681636810302734375e+01 -8.793225424597039819e-05 4.508236597757786512e-04 1.088674180209636688e-04 -2.056040248135104775e-04
1.684000000000000000e+03 1.162497282028198242e+00 2.978950881958007812e+01 -3.922923860955052078e-05 1.295421825489029288e-04 2.709388172661419958e-05 -6.692249371553771198e-06
1.685000000000000000e+03 2.052804946899414062e+00 3.208010482788085938e+01 -3.735637801582925022e-05 2.170491352444514632e-04 5.390782825998030603e-05 -5.892738772672601044e-05
1.686000000000000000e+03 2.602034330368041992e+00 2.632120323181152344e+01 6.171322456793859601e-05 3.443969399086199701e-05 2.884587593143805861e-05 6.983967978158034384e-06
1.687000000000000000e+03 1.842065691947937012e+00 2.562874794006347656e+01 4.161299875704571605e-05 2.363255771342664957e-05 1.957366657734382898e-05 7.795403689669910818e-06
1.688000000000000000e+03 1.229573369026184082e+00 3.221950912475585938e+01 9.209968993673101068e-05 2.263735659653320909e-04 9.554197458783164620e-05 -1.203108404297381639e-04
1.689000000000000000e+03 1.228745102882385254e+00 -3.402751922607421875e+01 -2.383657265454530716e-03 1.026412397623062134e-01 3.007727675139904022e-02 -7.988953031599521637e-03
1.690000000000000000e+03 1.287922620773315430e+00 3.461594390869140625e+01 -1.180879917228594422e-04 3.969483659602701664e-04 8.365810936084017158e-05 -6.566633237525820732e-05
1.691000000000000000e+03 1.966781497001647949e+00 3.045989418029785156e+01 -1.687598705757409334e-05 1.537725911475718021e-04 4.106897904421202838e-05 -2.843173569999635220e-05
1.692000000000000000e+03 1.084778547286987305e+00 2.094505119323730469e+01 -4.381185135571286082e-05 -1.188763417303562164e-05 -1.670984602242242545e-05 4.298600799756968627e-07
1.693000000000000000e+03 1.820181488990783691e+00 2.321019172668457031e+01 -3.838698103209026158e-05 1.785107087926007807e-06 -1.098056236514821649e-05 -2.596963895484805107e-05
1.694000000000000000e+03 2.564572811126708984e+00 2.391428375244140625e+01 -3.645210745162330568e-05 9.726826647238340229e-06 -8.017584150366019458e-06 -4.413899659994058311e-05
1.695000000000000000e+03 1.834388375282287598e+00 2.482737350463867188e+01 -3.065103010158054531e-05 1.426161543349735439e-05 -4.916824764222837985e-06 -4.636227095033973455e-05
1.696000000000000000e+03 1.891175746917724609e+00 2.804508018493652344e+01 6.138172466307878494e-06 5.897472146898508072e-05 1.953386708919424564e-05 -1.015635643852874637e-04
1.697000000000000000e+03 2.108256816864013672e+00 3.288196182250976562e+01 7.315618131542578340e-05 2.020718384301289916e-04 8.256841101683676243e-05 -1.776949939085170627e-04
1.698000000000000000e+03 2.178424119949340820e+00 3.448085021972656250e+01 9.813401993596926332e-05 2.431898319628089666e-04 1.023971562972292304e-04 -1.509983703726902604e-04
1.699000000000000000e+03 2.161276578903198242e+00 3.367993545532226562e+01 -7.291602378245443106e-05 3.166211827192455530e-04 7.311154331546276808e-05 -8.753497968427836895e-05
1.700000000000000000e+03 2.316797256469726562e+00 3.758790206909179688e+01 1.253296704817330465e-05 4.740153090097010136e-04 1.459644845454022288e-04 -1.083739916794002056e-04
1.701000000000000000e+03 1.618889212608337402e+00 4.104498291015625000e+01 -1.750440278556197882e-04 1.076985849067568779e-03 2.705825609154999256e-04 -1.299107134400401264e-05
1.702000000000000000e+03 1.273685097694396973e+00 -3.646271896362304688e+01 -5.422739195637404919e-04 9.344363212585449219e-02 2.787040732800960541e-02 -1.576702669262886047e-02
1.703000000000000000e+03 3.034153223037719727e+00 -3.809224700927734375e+01 6.249772850424051285e-03 -1.345080416649580002e-02 -2.160309348255395889e-03 -1.475887000560760498e-02
1.704000000000000000e+03 2.045643568038940430e+00 -3.484651947021484375e+01 -3.185499692335724831e-03 4.132886230945587158e-02 1.144300866872072220e-02 -1.200613658875226974e-02
1.705000000000000000e+03 1.082383513450622559e+00 2.013699531555175781e+01 4.537791392067447305e-05 -8.077446182142011821e-06 1.119014086725655943e-05 -2.746610334725119174e-06
1.706000000000000000e+03 1.813051819801330566e+00 2.161171150207519531e+01 -4.206318408250808716e-05 -4.243131570547120646e-06 -1.389189492329023778e-05 -1.107461503124795854e-05
1.707000000000000000e+03 1.075894594192504883e+00 1.531070232391357422e+01 3.230061702197417617e-05 -1.521441731711092871e-06 9.233753189619164914e-06 -7.822818588465452194e-06
1.708000000000000000e+03 1.792438507080078125e+00 1.758817672729492188e+01 3.712527905008755624e-05 -2.051259571089758538e-06 1.052220613928511739e-05 -4.668377641792176291e-06
1.709000000000000000e+03 1.786594748497009277e+00 1.276330947875976562e+01 1.995592901948839426e-05 2.308826196895097382e-06 6.679426405753474683e-06 -6.019532975187757984e-06
1.710000000000000000e+03 2.515629291534423828e+00 -1.235473728179931641e+01 2.658451162278652191e-02 -6.067070960998535156e-01 -1.740367710590362549e-01 -2.527021169662475586e-01
1.711000000000000000e+03 1.037640571594238281e+00 4.973152160644531250e+00 -5.961472652415977791e-06 -1.124905224969552364e-06 -2.125913397321710363e-06 2.741352318480494432e-06
1.712000000000000000e+03 5.664571762084960938e+00 3.968907594680786133e+00 -9.604258366380236112e-07 1.650333615543786436e-06 2.069723308295579045e-07 -3.874979938700562343e-06
1.713000000000000000e+03 1.785660028457641602e+00 1.196429538726806641e+01 -1.826254992920439690e-05 -6.601492714253254235e-06 -7.459213065885705873e-06 8.370946488867048174e-06
1.714000000000000000e+03 1.059415936470031738e+00 -7.576628684997558594e+00 -5.667387507855892181e-03 -4.006701707839965820e-01 -1.219012662768363953e-01 -1.202858984470367432e-01
1.715000000000000000e+03 2.505178451538085938e+00 -6.915341377258300781e+00 -3.379996120929718018e-02 -2.594768404960632324e-01 -8.798303455114364624e-02 -2.220815122127532959e-01
1.716000000000000000e+03 2.363935470581054688e+00 -8.443163871765136719e+00 -2.159951068460941315e-02 -3.677967190742492676e-01 -1.168188676238059998e-01 -2.416115701198577881e-01
1.717000000000000000e+03 1.161301732063293457e+00 -5.144989967346191406e+00 -1.169653143733739853e-02 -1.894198358058929443e-01 -6.033491343259811401e-02 -9.324502944946289062e-02
1.718000000000000000e+03 5.550887584686279297e+00 -2.532177352905273438e+01 -7.173190265893936157e-02 -1.541837304830551147e-01 -6.777469068765640259e-02 2.791029810905456543e-01
1.719000000000000000e+03 1.123913645744323730e+00 -2.670536613464355469e+01 -2.110461145639419556e-02 -2.306740134954452515e-01 -7.553359121084213257e-02 1.636074036359786987e-01
1.720000000000000000e+03 1.805644392967224121e+00 -2.494186019897460938e+01 -1.621364057064056396e-02 -4.037566781044006348e-01 -1.259910911321640015e-01 2.937893271446228027e-01
1.721000000000000000e+03 1.057245612144470215e+00 -2.427368164062500000e+01 -2.434415975585579872e-03 -5.714327096939086914e-01 -1.721601337194442749e-01 2.025317698717117310e-01
1.722000000000000000e+03 1.068238139152526855e+00 -2.268493270874023438e+01 1.508472859859466553e-02 -8.184515833854675293e-01 -2.410100549459457397e-01 1.952402442693710327e-01
1.723000000000000000e+03 4.469013214111328125e+00 -2.009214401245117188e+01 2.419925928115844727e-01 -1.311472058296203613e-02 6.866335868835449219e-02 2.957941293716430664e-01
1.724000000000000000e+03 1.078294992446899414e+00 -1.315468215942382812e+01 5.401868838816881180e-03 -1.001535296440124512e+00 -2.988400459289550781e-01 -1.272265017032623291e-01
1.725000000000000000e+03 1.781197309494018555e+00 -1.155310058593750000e+01 7.767661474645137787e-03 -6.961154937744140625e-01 -2.065043598413467407e-01 -2.094436287879943848e-01
1.726000000000000000e+03 1.105338692665100098e+00 2.647498130798339844e+00 2.576525503172888421e-06 1.818812478404652211e-07 8.275220011455530766e-07 -1.324937898061762098e-06
1.727000000000000000e+03 1.073507666587829590e+00 -1.637608909606933594e+01 1.998283341526985168e-02 -1.226007699966430664e+00 -3.618074655532836914e-01 -5.007397755980491638e-02
1.728000000000000000e+03 4.105497360229492188e+00 -2.213092803955078125e+01 1.214776933193206787e-01 -8.958463370800018311e-02 9.567918255925178528e-03 3.762320578098297119e-01
1.729000000000000000e+03 2.509199142456054688e+00 -2.157910728454589844e+01 8.023106306791305542e-02 -5.569833517074584961e-01 -1.430256962776184082e-01 2.954350709915161133e-01
1.730000000000000000e+03 1.735791921615600586e+00 -2.416467857360839844e+01 -7.137931417673826218e-03 -4.968559741973876953e-01 -1.511981785297393799e-01 2.885078489780426025e-01
1.731000000000000000e+03 1.074958562850952148e+00 1.370494651794433594e+01 2.605921872600447387e-05 -2.111505921220668824e-07 7.754420039418619126e-06 -7.094864940881961957e-06
1.732000000000000000e+03 1.790593743324279785e+00 1.597774124145507812e+01 3.063611802645027637e-05 2.217918506630667252e-07 9.257372767024207860e-06 -6.466715603892225772e-06
1.733000000000000000e+03 1.761487364768981934e+00 7.969880104064941406e+00 9.343277270090766251e-06 1.749843477227841504e-06 3.327936155983479694e-06 -4.130326033191522583e-06
1.734000000000000000e+03 1.799455046653747559e+00 -1.315552330017089844e+01 2.120351605117321014e-02 -8.200272321701049805e-01 -2.396471202373504639e-01 -1.888549476861953735e-01
1.735000000000000000e+03 1.077606558799743652e+00 -1.475690937042236328e+01 1.373414136469364166e-02 -1.141589999198913574e+00 -3.383567631244659424e-01 -9.805219620466232300e-02
1.736000000000000000e+03 1.037100195884704590e+00 -9.173092842102050781e+00 -2.895767334848642349e-03 -5.715916156768798828e-01 -1.723462045192718506e-01 -1.310587376356124878e-01
1.737000000000000000e+03 1.770323872566223145e+00 8.758512496948242188e+00 -1.127878203988075256e-05 -3.802728770097019151e-06 -4.524453288468066603e-06 5.874469479749677703e-06
1.738000000000000000e+03 1.783363223075866699e+00 1.036375904083251953e+01 -1.445805537514388561e-05 -4.822211394639452919e-06 -5.784080258308677003e-06 6.911070158821530640e-06
1.739000000000000000e+03 2.500581741333007812e+00 1.187006282806396484e+01 1.435761714674299583e-05 3.669073521450627595e-06 5.408006927609676495e-06 -5.185970621823798865e-06
1.740000000000000000e+03 1.788736939430236816e+00 1.356935787200927734e+01 -2.235905958514194936e-05 -8.432808499492239207e-06 -9.237560334440786391e-06 9.971086001314688474e-06
1.741000000000000000e+03 1.785435199737548828e+00 1.116485881805419922e+01 1.588361919857561588e-05 1.984393520615412854e-06 5.360403974918881431e-06 -5.255181349639315158e-06
1.742000000000000000e+03 1.790271997451782227e+00 1.437770652770996094e+01 2.469147875672206283e-05 1.785107883733871859e-06 7.942976480990182608e-06 -6.682544608338503167e-06
1.743000000000000000e+03 1.791250705718994141e+00 1.678337287902832031e+01 -3.398331318749114871e-05 -1.000802421913249418e-05 -1.319740113103762269e-05 1.063896161213051528e-05
1.744000000000000000e+03 1.794104576110839844e+00 1.838753700256347656e+01 -3.922729592886753380e-05 -9.187622708850540221e-06 -1.452447577321436256e-05 7.307038231374463066e-06
1.745000000000000000e+03 1.797194719314575195e+00 1.918939781188964844e+01 4.236422682879492640e-05 -4.105052994418656453e-06 1.147775310528231785e-05 -1.103337012864358258e-06
1.746000000000000000e+03 2.515933990478515625e+00 1.907791519165039062e+01 -3.766142981476150453e-05 -3.568463853298453614e-06 -1.236896787304431200e-05 2.935580596385989338e-06
1.747000000000000000e+03 1.815991163253784180e+00 2.240907287597656250e+01 4.778499351232312620e-05 -3.144012055145140039e-07 1.424117726855911314e-05 6.936003956070635468e-06
1.748000000000000000e+03 1.808510541915893555e+00 2.080799865722656250e+01 4.607217488228343427e-05 -4.419956439960515127e-06 1.249566503247478977e-05 3.246513642807258293e-06
1.749000000000000000e+03 1.175384163856506348e+00 -3.157506942749023438e+01 -1.334174443036317825e-02 8.770481497049331665e-02 2.230892144143581390e-02 2.059696987271308899e-02
1.750000000000000000e+03 3.929041862487792969e+00 -2.929388999938964844e+01 -1.584281921386718750e-01 -1.505342125892639160e-01 -9.268872439861297607e-02 1.655524522066116333e-01
1.751000000000000000e+03 3.123090267181396484e+00 -2.886136245727539062e+01 -1.233631446957588196e-01 -1.237746402621269226e-01 -7.414133846759796143e-02 1.851806044578552246e-01
1.752000000000000000e+03 1.763504981994628906e+00 -2.829792213439941406e+01 -4.678364098072052002e-02 -9.956159442663192749e-02 -4.390357062220573425e-02 1.546970009803771973e-01
1.753000000000000000e+03 1.749325633049011230e+00 -1.803589820861816406e+01 6.481517106294631958e-02 -9.943325519561767578e-01 -2.788552045822143555e-01 3.552455827593803406e-02
1.754000000000000000e+03 2.500832080841064453e+00 -1.395745182037353516e+01 5.542272701859474182e-02 -6.919198632240295410e-01 -1.909491270780563354e-01 -2.060928940773010254e-01
1.755000000000000000e+03 1.792692303657531738e+00 -1.395192241668701172e+01 2.496284805238246918e-02 -8.754560947418212891e-01 -2.551479637622833252e-01 -1.701591163873672485e-01
1.756000000000000000e+03 1.714825272560119629e+00 -9.192881584167480469e+00 -8.446543477475643158e-03 -4.980320930480957031e-01 -1.519435942173004150e-01 -1.992263942956924438e-01
1.757000000000000000e+03 1.761607289314270020e+00 -1.075355911254882812e+01 -1.778631005436182022e-03 -6.287291049957275391e-01 -1.891523152589797974e-01 -2.118222415447235107e-01
1.758000000000000000e+03 1.716915130615234375e+00 -8.411126136779785156e+00 -1.054650079458951950e-02 -4.272824525833129883e-01 -1.313486844301223755e-01 -1.919143944978713989e-01
1.759000000000000000e+03 6.131777763366699219e+00 -1.999336433410644531e+01 2.598557174205780029e-01 6.869227290153503418e-01 2.840335369110107422e-01 3.793827593326568604e-01
1.760000000000000000e+03 1.672410011291503906e+00 -1.957802581787109375e+01 6.508120894432067871e-02 -9.459778666496276855e-01 -2.642689943313598633e-01 1.254828870296478271e-01
1.761000000000000000e+03 2.036333560943603516e+00 -2.706110954284667969e+00 -4.028565809130668640e-02 -6.015475466847419739e-02 -3.013212420046329498e-02 -7.760214060544967651e-02
1.762000000000000000e+03 1.977008938789367676e+00 -3.316734695434570312e+01 -1.469694636762142181e-02 3.881645202636718750e-02 7.235852070152759552e-03 4.015844780951738358e-03
1.763000000000000000e+03 1.962423086166381836e+00 -3.234514617919921875e+01 -2.442827448248863220e-02 3.091187961399555206e-02 1.945081865414977074e-03 1.847497001290321350e-02
1.764000000000000000e+03 2.003050088882446289e+00 -3.399842834472656250e+01 -1.149670034646987915e-02 4.284644499421119690e-02 9.404922835528850555e-03 -6.383195519447326660e-03
1.765000000000000000e+03 2.087092876434326172e+00 -3.572318267822265625e+01 -3.888975596055388451e-03 3.531615436077117920e-02 9.428153745830059052e-03 -1.378532126545906067e-02
1.766000000000000000e+03 1.506269550323486328e+01 -1.625442504882812500e+01 1.197492003440856934e+00 1.447186022996902466e-01 4.026632010936737061e-01 -2.708318233489990234e-01
1.767000000000000000e+03 9.467925071716308594e+00 -1.502402400970458984e+01 8.648951649665832520e-01 3.721717298030853271e-01 3.711200654506683350e-01 1.214249134063720703e-01
1.768000000000000000e+03 1.954224205017089844e+01 3.457571411132812500e+01 4.960542079061269760e-03 -1.045838944264687598e-04 1.456787460483610630e-03 3.082111652474850416e-04
1.769000000000000000e+03 3.901755905151367188e+01 4.537141799926757812e+00 7.725920677185058594e-01 9.455236434936523438e+00 3.068348646163940430e+00 2.974561929702758789e+00
1.770000000000000000e+03 4.465104675292968750e+01 9.517213702201843262e-01 -5.000264167785644531e+00 3.058468818664550781e+00 -5.825386643409729004e-01 6.327530145645141602e-01
1.771000000000000000e+03 5.770644760131835938e+01 5.532710552215576172e-01 -2.324049472808837891e+00 1.402381341904401779e-02 -6.930077075958251953e-01 -1.642092168331146240e-01
1.772000000000000000e+03 1.623614120483398438e+01 1.296180820465087891e+01 -4.853374775848351419e-05 -1.492589490226237103e-05 -1.903789234347641468e-05 -2.142057019227650017e-05
1.773000000000000000e+03 1.981604957580566406e+01 4.652161598205566406e+00 1.072928625944769010e-05 3.271631612733472139e-06 4.200275270704878494e-06 7.653507054783403873e-06
1.774000000000000000e+03 1.902511978149414062e+01 2.236927747726440430e+00 2.768799049590597861e-06 3.608157385315280408e-06 1.913086862259660847e-06 6.434645456465659663e-07
1.775000000000000000e+03 3.116738891601562500e+01 -1.646301841735839844e+01 1.152448207139968872e-01 -2.843439579010009766e-01 -5.072974413633346558e-02 7.327867150306701660e-01
1.776000000000000000e+03 3.728119659423828125e+01 3.592742919921875000e+01 1.033935993909835815e-01 1.390457391738891602e+00 4.481552839279174805e-01 -8.152884840965270996e-01
1.777000000000000000e+03 6.048723602294921875e+01 -1.568736195564270020e+00 -1.810272812843322754e+00 -7.873192429542541504e-02 -5.667014122009277344e-01 2.180898189544677734e-01
1.778000000000000000e+03 3.457193374633789062e+01 -2.779178047180175781e+01 1.162663698196411133e+00 5.342755317687988281e+00 1.951625704765319824e+00 1.834779500961303711e+00
1.779000000000000000e+03 3.569030761718750000e+01 -2.731504058837890625e+01 8.737263083457946777e-01 5.974925994873046875e+00 2.054595708847045898e+00 1.093286275863647461e+00
1.780000000000000000e+03 3.409517288208007812e+01 -3.203955078125000000e+01 -2.340034842491149902e-01 3.433757066726684570e+00 9.599260687828063965e-01 8.323307037353515625e-01
1.781000000000000000e+03 3.438122940063476562e+01 -3.028562355041503906e+01 1.797777414321899414e-01 4.079051017761230469e+00 1.277648687362670898e+00 1.005432963371276855e+00
1.782000000000000000e+03 6.586450195312500000e+01 -3.207567214965820312e+01 -6.095968186855316162e-02 9.373405948281288147e-03 -1.547588314861059189e-02 4.608887247741222382e-03
1.783000000000000000e+03 2.086300468444824219e+01 -3.462638473510742188e+01 -2.244262248277664185e-01 -1.420889422297477722e-02 -7.159053534269332886e-02 -4.290402308106422424e-02
1.784000000000000000e+03 2.259451484680175781e+01 -3.486630249023437500e+01 -1.811949312686920166e-01 4.692367464303970337e-02 -4.028137773275375366e-02 -8.395644836127758026e-03
1.785000000000000000e+03 1.087198543548583984e+01 -3.335945510864257812e+01 -2.357729226350784302e-01 -1.914644390344619751e-01 -1.281712055206298828e-01 1.243321523070335388e-01
1.786000000000000000e+03 2.109215545654296875e+01 -3.971906185150146484e+00 -7.617259025573730469e-01 -3.168253973126411438e-02 -2.380225360393524170e-01 -1.435775607824325562e-01
1.787000000000000000e+03 2.279495048522949219e+01 -3.755057811737060547e+00 -9.510540366172790527e-01 3.010449558496475220e-02 -2.762848436832427979e-01 -2.327674031257629395e-01
1.788000000000000000e+03 1.784506225585937500e+01 5.422791481018066406e+00 -5.740045025959261693e-07 -1.490329509579169098e-06 -6.193002377585798968e-07 2.812056663969997317e-06
1.789000000000000000e+03 4.942364120483398438e+01 -2.751134300231933594e+01 3.078120648860931396e-01 8.843863010406494141e-01 3.576595187187194824e-01 -5.620099306106567383e-01
1.790000000000000000e+03 1.113310909271240234e+01 -3.240627288818359375e+01 -3.268096446990966797e-01 -1.617446243762969971e-01 -1.465662866830825806e-01 1.598416864871978760e-01
1.791000000000000000e+03 3.647057723999023438e+01 1.165153145790100098e+00 -2.170200109481811523e+00 2.502913236618041992e+00 9.981394559144973755e-02 -1.388041675090789795e-01
1.792000000000000000e+03 3.692230224609375000e+01 6.646872162818908691e-01 -2.533699989318847656e+00 4.102161407470703125e+00 4.705383479595184326e-01 1.373895108699798584e-01
1.793000000000000000e+03 5.003353881835937500e+01 -2.815781593322753906e+01 2.657281756401062012e-01 7.993934750556945801e-01 3.195365071296691895e-01 -5.109439492225646973e-01
1.794000000000000000e+03 3.559721374511718750e+01 -2.438180923461914062e+01 1.360617399215698242e+00 8.403573989868164062e+00 2.929257392883300781e+00 1.537982702255249023e+00
1.795000000000000000e+03 7.243422698974609375e+01 -1.044841957092285156e+01 6.778317037969827652e-03 -1.345289126038551331e-02 -2.002372173592448235e-03 7.103997631929814816e-04
1.796000000000000000e+03 1.595499897003173828e+01 2.846076393127441406e+01 5.640569142997264862e-04 1.501258229836821556e-04 2.142548182746395469e-04 1.557721261633560061e-04
1.797000000000000000e+03 1.497305011749267578e+01 2.783886337280273438e+01 3.772485652007162571e-04 6.112946721259504557e-05 1.315134140895679593e-04 1.589869934832677245e-04
1.798000000000000000e+03 1.473819446563720703e+01 2.703269767761230469e+01 -6.654878234257921576e-05 4.613479541148990393e-05 -6.124196261225733906e-06 1.254839880857616663e-04
1.799000000000000000e+03 6.815320014953613281e+00 -1.846605491638183594e+01 5.058063268661499023e-01 7.636757493019104004e-01 3.808446228504180908e-01 4.987983703613281250e-01
1.800000000000000000e+03 7.169112205505371094e+00 -1.772984695434570312e+01 7.457955479621887207e-01 6.865686178207397461e-01 4.297092258930206299e-01 4.687321484088897705e-01
1.801000000000000000e+03 1.630264282226562500e+01 8.833641052246093750e+00 1.426391736458754167e-05 7.296366675291210413e-06 6.468085302913095802e-06 1.149183117377106100e-05
1.802000000000000000e+03 5.800454139709472656e+00 -2.080900764465332031e+01 2.265114337205886841e-01 5.591977834701538086e-01 2.357127666473388672e-01 3.460951447486877441e-01
1.803000000000000000e+03 4.149697875976562500e+01 3.363803100585937500e+01 1.564302295446395874e-01 4.475320339202880859e+00 1.389525175094604492e+00 -7.212536334991455078e-01
1.804000000000000000e+03 1.470771408081054688e+01 -3.432972717285156250e+01 -2.570572197437286377e-01 -8.808112144470214844e-02 -1.035415008664131165e-01 1.859120465815067291e-02
1.805000000000000000e+03 7.713166046142578125e+01 -1.069406700134277344e+01 4.976939409971237183e-03 3.462672699242830276e-03 2.531883772462606430e-03 1.523735467344522476e-02
1.806000000000000000e+03 7.795415496826171875e+01 -8.138093948364257812e+00 -2.831968478858470917e-03 1.373833511024713516e-02 3.271909896284341812e-03 1.292851660400629044e-02
1.807000000000000000e+03 7.812290191650390625e+01 -6.468371868133544922e+00 -6.388750392943620682e-03 1.648386567831039429e-02 3.028534585610032082e-03 5.262027494609355927e-03
1.808000000000000000e+03 1.757533454895019531e+01 3.409299087524414062e+01 9.131613187491893768e-04 -6.334781064651906490e-04 8.390496077481657267e-05 8.313704165630042553e-04
1.809000000000000000e+03 3.968991851806640625e+01 -4.524191856384277344e+00 5.699699521064758301e-01 9.870969772338867188e+00 3.132281780242919922e+00 1.500663876533508301e+00
1.810000000000000000e+03 4.029233551025390625e+01 -5.058097839355468750e+00 7.382128238677978516e-01 1.150171470642089844e+01 3.671978473663330078e+00 1.742971539497375488e+00
1.811000000000000000e+03 1.393397617340087891e+01 2.353354644775390625e+01 -7.444424409186467528e-05 1.099630171665921807e-04 1.065563355950871482e-05 7.024151273071765900e-06
1.812000000000000000e+03 6.453591156005859375e+01 -3.100009679794311523e+00 -6.719647645950317383e-01 8.749406784772872925e-02 -1.753412187099456787e-01 6.920016556978225708e-02
1.813000000000000000e+03 2.807809638977050781e+01 -1.672997474670410156e+01 2.515814006328582764e-01 -5.147034302353858948e-03 7.393031567335128784e-02 4.926644861698150635e-01
1.814000000000000000e+03 3.663919925689697266e+00 -2.694128036499023438e+00 -1.020603254437446594e-01 -4.280637204647064209e-02 -4.346001148223876953e-02 -1.276775300502777100e-01
1.815000000000000000e+03 1.945980548858642578e+00 -5.192638397216796875e+00 -2.723594009876251221e-02 -1.800110191106796265e-01 -6.217408925294876099e-02 -1.454212367534637451e-01
1.816000000000000000e+03 7.610321998596191406e+00 -3.297075033187866211e+00 -2.794683277606964111e-01 2.878399565815925598e-02 -7.520529627799987793e-02 -1.868353039026260376e-01
1.817000000000000000e+03 6.072338104248046875e+00 -3.273447513580322266e+00 -2.043257206678390503e-01 -4.681240767240524292e-03 -6.270208954811096191e-02 -1.922537833452224731e-01
1.818000000000000000e+03 5.295567512512207031e+00 -3.368074655532836914e+00 -1.671556085348129272e-01 -2.474327944219112396e-02 -5.756966397166252136e-02 -1.893115341663360596e-01
1.819000000000000000e+03 3.673442840576171875e+00 -3.546002864837646484e+00 -9.790839254856109619e-02 -6.424870342016220093e-02 -4.864712804555892944e-02 -1.629881411790847778e-01
1.820000000000000000e+03 4.494239330291748047e+00 -3.482059478759765625e+00 -1.311113983392715454e-01 -4.593871533870697021e-02 -5.311503633856773376e-02 -1.800268739461898804e-01
1.821000000000000000e+03 1.401303100585937500e+01 2.263562202453613281e+01 8.504327706759795547e-05 -3.293514237157069147e-05 1.563244040880817920e-05 5.472893462865613401e-05
1.822000000000000000e+03 8.404830932617187500e+00 -3.318696260452270508e+00 -3.173727095127105713e-01 4.501029103994369507e-02 -8.170872926712036133e-02 -1.806845366954803467e-01
1.823000000000000000e+03 2.760096931457519531e+01 -3.336550521850585938e+01 -3.599558025598526001e-02 4.523489773273468018e-01 1.249060183763504028e-01 4.308445453643798828e-01
1.824000000000000000e+03 4.348651123046875000e+01 1.717138481140136719e+01 6.361882090568542480e-01 7.687046051025390625e+00 2.496970415115356445e+00 1.159147143363952637e+00
1.825000000000000000e+03 5.063292694091796875e+01 1.475348472595214844e+00 -4.447769641876220703e+00 2.111291587352752686e-01 -1.270992159843444824e+00 2.402938455343246460e-01
1.826000000000000000e+03 5.688906478881835938e+01 -9.668931365013122559e-03 -2.713822841644287109e+00 -3.904326260089874268e-02 -8.258598446846008301e-01 4.571427777409553528e-02
1.827000000000000000e+03 5.626834487915039062e+01 6.916794776916503906e-01 -2.600048780441284180e+00 3.951757773756980896e-02 -7.681593894958496094e-01 -9.748490154743194580e-02
1.828000000000000000e+03 4.125797271728515625e+01 8.220593452453613281e+00 1.571899294853210449e+00 1.027846050262451172e+01 3.555107831954956055e+00 3.218767642974853516e+00
1.829000000000000000e+03 1.693646240234375000e+01 8.994392395019531250e+00 -2.154525100195314735e-05 -6.616121936531271785e-06 -8.448411790595855564e-06 -1.279123716813046485e-05
1.830000000000000000e+03 1.725395774841308594e+01 8.218246459960937500e+00 1.985150083783082664e-05 5.110625352244824171e-06 7.488637947972165421e-06 1.111689289245987311e-05
1.831000000000000000e+03 1.419386482238769531e+01 -3.309009552001953125e+01 -3.396212756633758545e-01 -5.916534736752510071e-02 -1.196359843015670776e-01 4.676697030663490295e-02
1.832000000000000000e+03 6.108465576171875000e+01 -3.421924209594726562e+01 -1.116063669323921204e-01 -2.809782698750495911e-02 -4.191125929355621338e-02 5.339642241597175598e-02
1.833000000000000000e+03 6.391009902954101562e+01 -3.228004455566406250e+01 -1.083757355809211731e-01 1.290113432332873344e-03 -3.212568536400794983e-02 -1.358550740405917168e-03
1.834000000000000000e+03 3.332600402832031250e+01 -1.892901539802551270e+00 -2.918085098266601562e+00 -5.739899873733520508e-01 -1.047622561454772949e+00 -1.116141438484191895e+00
1.835000000000000000e+03 1.796094131469726562e+01 -3.252565383911132812e+01 -4.289114773273468018e-01 -2.604954130947589874e-02 -1.364883035421371460e-01 -1.546402834355831146e-02
1.836000000000000000e+03 1.732171058654785156e+01 5.794974327087402344e+00 2.405083614576142281e-05 3.981608188041718677e-06 8.409732799918856472e-06 2.903863560277386568e-06
1.837000000000000000e+03 6.647714233398437500e+01 -3.286904525756835938e+01 -5.634643882513046265e-02 1.310348510742187500e-02 -1.297288667410612106e-02 1.735497638583183289e-02
1.838000000000000000e+03 1.834923553466796875e+01 5.781640052795410156e+00 -8.455869647150393575e-06 -2.697204990909085609e-06 -3.345922323205741122e-06 -7.740534783806651831e-06
1.839000000000000000e+03 1.883974075317382812e+01 5.055105209350585938e+00 6.481389846157981083e-06 2.383283799645141698e-06 2.659402071003569290e-06 7.395922693831380457e-06
1.840000000000000000e+03 1.632341194152832031e+01 1.051665019989013672e+01 -2.650662281666882336e-05 -6.767012109776260331e-06 -9.982089977711439133e-06 -1.461163992644287646e-05
1.841000000000000000e+03 2.896101760864257812e+01 -2.449838161468505859e+00 -3.362644195556640625e+00 -4.829154610633850098e-01 -1.153667926788330078e+00 -8.997591137886047363e-01
1.842000000000000000e+03 2.909391212463378906e+01 -3.097507238388061523e+00 -2.476267576217651367e+00 -6.747640371322631836e-01 -9.453094601631164551e-01 -1.068784713745117188e+00
1.843000000000000000e+03 4.184920501708984375e+01 1.068702030181884766e+01 1.202195644378662109e+00 9.873270034790039062e+00 3.322639942169189453e+00 2.826784610748291016e+00
1.844000000000000000e+03 3.903295135498046875e+01 -2.570485830307006836e+00 -6.060485839843750000e-01 8.196947097778320312e+00 2.277269363403320312e+00 7.832041978836059570e-01
1.845000000000000000e+03 1.758062171936035156e+01 7.424087047576904297e+00 -1.779834019544068724e-05 -6.173035217216238379e-06 -7.191412350948667154e-06 -1.010364303510868922e-05
1.846000000000000000e+03 2.691088867187500000e+01 -3.280237579345703125e+01 -1.565281599760055542e-01 2.159215658903121948e-01 1.781802065670490265e-02 2.316376119852066040e-01
1.847000000000000000e+03 2.746752548217773438e+01 -3.241852569580078125e+01 -1.190682649612426758e-01 2.199037224054336548e-01 3.025064058601856232e-02 2.811621725559234619e-01
1.848000000000000000e+03 1.176088523864746094e+01 -1.558043861389160156e+01 1.398534655570983887e+00 2.581380605697631836e-01 4.970018267631530762e-01 2.953969500958919525e-02
1.849000000000000000e+03 1.224875068664550781e+01 -1.405115795135498047e+01 8.253332972526550293e-01 3.130579292774200439e-01 3.415173590183258057e-01 -3.119361959397792816e-02
1.850000000000000000e+03 4.066226959228515625e+01 -4.287810325622558594e+00 4.936998784542083740e-01 1.177439594268798828e+01 3.680428743362426758e+00 2.122488975524902344e+00
1.851000000000000000e+03 1.523390960693359375e+01 -3.942081212997436523e+00 -5.662876367568969727e-01 1.145005342550575733e-03 -1.695427894592285156e-01 -1.016525924205780029e-01
1.852000000000000000e+03 2.992372989654541016e+00 -1.728918457031250000e+01 1.351022124290466309e-01 -6.185695528984069824e-01 -1.450401991605758667e-01 -4.084537737071514130e-03
1.853000000000000000e+03 1.674499630928039551e+00 -2.031004142761230469e+01 4.980338737368583679e-02 -8.959279656410217285e-01 -2.538373768329620361e-01 1.743531823158264160e-01
1.854000000000000000e+03 5.728656387329101562e+01 -3.442440795898437500e+01 -7.231894880533218384e-02 1.325478553771972656e-01 1.806866936385631561e-02 -1.012524291872978210e-01
1.855000000000000000e+03 5.728686141967773438e+01 -3.543834304809570312e+01 -1.339057576842606068e-03 2.047991901636123657e-01 6.103803962469100952e-02 -9.594009071588516235e-02
1.856000000000000000e+03 4.253053283691406250e+01 1.476928329467773438e+01 7.933830618858337402e-01 8.999861717224121094e+00 2.937973499298095703e+00 1.595105767250061035e+00
1.857000000000000000e+03 1.442588329315185547e+01 -1.537566661834716797e+01 1.158124685287475586e+00 1.559466868638992310e-01 3.942214250564575195e-01 -1.209318414330482483e-01
1.858000000000000000e+03 4.316049194335937500e+01 -1.959399223327636719e+01 8.997330069541931152e-01 5.386021137237548828e+00 1.885726332664489746e+00 -1.959324955940246582e+00
1.859000000000000000e+03 4.112370300292968750e+01 -1.386307811737060547e+01 7.061393857002258301e-01 1.201487541198730469e+01 3.816304445266723633e+00 -1.130421996116638184e+00
1.860000000000000000e+03 4.054188156127929688e+01 -1.471177673339843750e+01 8.472324609756469727e-01 1.071576309204101562e+01 3.468898534774780273e+00 -1.004171013832092285e+00
1.861000000000000000e+03 1.705221748352050781e+01 3.317656326293945312e+01 1.466610701754689217e-03 -2.754572196863591671e-04 3.573460271582007408e-04 -1.679264096310362220e-04
1.862000000000000000e+03 2.742690467834472656e+01 -3.282711982727050781e+00 -1.967170238494873047e+00 -4.581166207790374756e-01 -7.275860905647277832e-01 -7.431967854499816895e-01
1.863000000000000000e+03 4.989316177368164062e+01 1.667536139488220215e+00 -4.893655300140380859e+00 3.024618700146675110e-02 -1.459022641181945801e+00 1.963839530944824219e-01
1.864000000000000000e+03 2.734719657897949219e+01 -1.689482307434082031e+01 3.290180265903472900e-01 -1.756156608462333679e-02 9.343694150447845459e-02 4.155688881874084473e-01
1.865000000000000000e+03 1.562454986572265625e+01 3.047952461242675781e+01 3.939731395803391933e-04 1.215525917359627783e-04 1.546577113913372159e-04 2.925246080849319696e-04
1.866000000000000000e+03 3.017871284484863281e+01 4.075269699096679688e+01 1.066566780209541321e-01 7.918662391602993011e-03 3.437260165810585022e-02 7.796358317136764526e-02
1.867000000000000000e+03 2.908057403564453125e+01 3.790802001953125000e+01 -1.237403899431228638e-01 -2.997375093400478363e-02 -4.611423984169960022e-02 9.288880228996276855e-02
1.868000000000000000e+03 6.964815521240234375e+01 -2.460839271545410156e+01 -4.308724601287394762e-04 9.495791891822591424e-05 -1.007743558147922158e-04 4.553459802991710603e-05
1.869000000000000000e+03 7.026622009277343750e+01 -2.366632270812988281e+01 -1.884211960714310408e-04 -1.903984957607463002e-04 -1.136459104600362480e-04 2.000675158342346549e-04
1.870000000000000000e+03 1.872477340698242188e+01 -3.323156738281250000e+01 -3.883497416973114014e-01 -2.709154039621353149e-02 -1.246323883533477783e-01 -3.903472051024436951e-02
1.871000000000000000e+03 4.262074279785156250e+01 1.559835052490234375e+01 6.996456384658813477e-01 8.752657890319824219e+00 2.835690975189208984e+00 1.385386228561401367e+00
1.872000000000000000e+03 6.535086822509765625e+01 -5.483251094818115234e+00 -1.205848008394241333e-01 1.760665513575077057e-02 -3.089344501495361328e-02 5.858561769127845764e-02
1.873000000000000000e+03 6.543618774414062500e+01 -4.412338733673095703e+00 -3.251093626022338867e-01 3.755578398704528809e-02 -8.626607060432434082e-02 9.263793379068374634e-02
1.874000000000000000e+03 1.360330104827880859e+01 -1.517435073852539062e+01 1.171571731567382812e+00 2.175848782062530518e-01 4.167470037937164307e-01 -7.822808623313903809e-02
1.875000000000000000e+03 4.196829986572265625e+01 -1.982191467285156250e+01 2.773550450801849365e-01 6.676928997039794922e+00 2.086285352706909180e+00 -1.010956406593322754e+00
1.876000000000000000e+03 1.604896736145019531e+01 -3.354033279418945312e+01 -3.221829831600189209e-01 -5.449653416872024536e-02 -1.130038574337959290e-01 -3.493904136121273041e-03
1.877000000000000000e+03 1.854577445983886719e+01 -3.397929000854492188e+01 -3.107332289218902588e-01 -4.204380512237548828e-02 -1.058331057429313660e-01 -4.080889001488685608e-02
1.878000000000000000e+03 3.504840087890625000e+01 -2.939014816284179688e+01 3.257225751876831055e-01 4.681062221527099609e+00 1.502035498619079590e+00 9.981473088264465332e-01
1.879000000000000000e+03 6.058183288574218750e+01 -3.347869873046875000e+01 -1.909941583871841431e-01 -2.747482992708683014e-02 -6.554070115089416504e-02 5.174228176474571228e-02
1.880000000000000000e+03 6.815065765380859375e+01 -2.930008316040039062e+01 -1.910071447491645813e-02 2.589638810604810715e-03 -4.953322466462850571e-03 -4.717164207249879837e-03
1.881000000000000000e+03 2.069683837890625000e+01 1.738742709159851074e+00 -4.023012479592580348e-06 -2.414683194729150273e-06 -1.931308815983356908e-06 -2.332661779291811399e-06
1.882000000000000000e+03 4.012816238403320312e+01 -7.350336074829101562e+00 1.564671397209167480e+00 1.205644130706787109e+01 4.086333751678466797e+00 1.492681145668029785e+00
1.883000000000000000e+03 1.878793239593505859e+00 -2.665034294128417969e+01 -4.690009355545043945e-02 -2.274792641401290894e-01 -8.231380581855773926e-02 2.480555623769760132e-01
1.884000000000000000e+03 1.519563579559326172e+01 2.865567207336425781e+01 1.512315066065639257e-04 7.774263940518721938e-05 6.869224307592958212e-05 2.138552372343838215e-04
1.885000000000000000e+03 3.225066757202148438e+01 -1.643710613250732422e+00 -4.233106136322021484e+00 -1.221155643463134766e+00 -1.636278629302978516e+00 -1.772514462471008301e+00
1.886000000000000000e+03 3.413764953613281250e+01 -1.800388717651367188e+01 -1.030677318572998047e+00 1.761435031890869141e+00 2.192272990942001343e-01 -2.834295332431793213e-01
1.887000000000000000e+03 3.370425796508789062e+01 -1.669726181030273438e+01 -5.640488862991333008e-02 1.474288821220397949e+00 4.253651797771453857e-01 -1.151421591639518738e-01
1.888000000000000000e+03 3.080126762390136719e+01 -2.763348340988159180e+00 -2.794258356094360352e+00 -9.987570047378540039e-01 -1.137904644012451172e+00 -1.349267244338989258e+00
1.889000000000000000e+03 3.213165283203125000e+01 -3.054624557495117188e+01 6.415706872940063477e-01 2.523602008819580078e+00 9.495517611503601074e-01 1.336609840393066406e+00
1.890000000000000000e+03 3.299073410034179688e+01 -3.252066040039062500e+01 -2.294323444366455078e-01 2.942388057708740234e+00 8.138867020606994629e-01 9.974257349967956543e-01
1.891000000000000000e+03 4.230246353149414062e+01 1.312697505950927734e+01 8.504538536071777344e-01 9.380640983581542969e+00 3.069328546524047852e+00 1.978862524032592773e+00
1.892000000000000000e+03 4.242447662353515625e+01 1.394399738311767578e+01 8.690050244331359863e-01 9.142928123474121094e+00 3.003579854965209961e+00 1.783937931060791016e+00
1.893000000000000000e+03 6.862472534179687500e+01 -2.865176010131835938e+01 -1.396467257291078568e-02 1.642093877308070660e-03 -3.696773666888475418e-03 -3.511435817927122116e-03
1.894000000000000000e+03 4.265170288085937500e+01 -2.009078598022460938e+01 4.386090040206909180e-01 5.849430084228515625e+00 1.886411666870117188e+00 -1.396730184555053711e+00
1.895000000000000000e+03 4.044372558593750000e+01 -1.385946655273437500e+01 6.706371307373046875e-01 1.102142620086669922e+01 3.507619142532348633e+00 -9.170976877212524414e-01
1.896000000000000000e+03 5.910495376586914062e+01 -3.585884094238281250e+01 1.200362201780080795e-02 6.072688847780227661e-02 2.181915380060672760e-02 -3.885768353939056396e-03
1.897000000000000000e+03 6.514569854736328125e+01 -3.275995635986328125e+01 -7.699423283338546753e-02 1.063497457653284073e-02 -1.990777812898159027e-02 1.738045364618301392e-02
1.898000000000000000e+03 3.063809394836425781e+00 -2.373504447937011719e+01 1.623951829969882965e-02 -3.219433426856994629e-01 -9.171114116907119751e-02 3.945242464542388916e-01
1.899000000000000000e+03 2.824912643432617188e+01 -3.204647064208984375e+00 -2.268688917160034180e+00 -5.450795292854309082e-01 -8.441305160522460938e-01 -8.813608884811401367e-01
1.900000000000000000e+03 2.413381004333496094e+01 3.954568099975585938e+01 1.167453452944755554e-02 -2.192313596606254578e-02 -3.074580337852239609e-03 1.869721896946430206e-02
1.901000000000000000e+03 2.565683937072753906e+01 3.761611557006835938e+01 -3.905812650918960571e-02 -8.451313711702823639e-03 -1.425283215939998627e-02 2.415856160223484039e-02
1.902000000000000000e+03 6.188178634643554688e+01 -3.493738174438476562e+01 -6.402226537466049194e-02 -1.510894577950239182e-02 -2.373936399817466736e-02 6.136985868215560913e-02
1.903000000000000000e+03 6.278546524047851562e+01 -3.422145080566406250e+01 -9.524450451135635376e-02 -1.900607021525502205e-03 -2.914353460073471069e-02 5.034689605236053467e-02
1.904000000000000000e+03 5.488128662109375000e+00 -1.969075393676757812e+01 3.034700751304626465e-01 3.725368976593017578e-01 2.028020918369293213e-01 3.395930826663970947e-01
1.905000000000000000e+03 1.675667190551757812e+01 -1.612627410888671875e+01 9.514343738555908203e-01 3.391749050933867693e-04 2.855320870876312256e-01 -1.796016246080398560e-01
1.906000000000000000e+03 3.374945068359375000e+01 3.796368408203125000e+01 1.837671152316033840e-03 2.673303186893463135e-01 8.075039088726043701e-02 -1.113243103027343750e-01
1.907000000000000000e+03 3.165248680114746094e+01 -2.527370214462280273e+00 -2.874832391738891602e+00 -1.074569821357727051e+00 -1.184820652008056641e+00 -1.349879980087280273e+00
1.908000000000000000e+03 4.248513793945312500e+01 -1.634526610374450684e+00 9.477484822273254395e-01 1.140863323211669922e+01 3.706914663314819336e+00 2.333007097244262695e+00
1.909000000000000000e+03 1.126813793182373047e+01 2.954380989074707031e+00 -4.200582679914077744e-06 3.440903810769668780e-07 -1.156947746494552121e-06 -5.420175170911534224e-07
1.910000000000000000e+03 8.876851081848144531e+00 3.152713298797607422e+00 2.382174443482654169e-06 -1.419671662006294355e-06 2.887508117055404000e-07 1.760460463628987782e-06
1.911000000000000000e+03 6.411659240722656250e+01 -2.471824645996093750e+00 -8.339431881904602051e-01 9.314927458763122559e-02 -2.222381681203842163e-01 3.486861661076545715e-02
1.912000000000000000e+03 6.314112854003906250e+01 -2.289888858795166016e+00 -9.889735579490661621e-01 3.363399952650070190e-02 -2.866018712520599365e-01 7.147563248872756958e-02
1.913000000000000000e+03 6.587364196777343750e+01 -5.099556446075439453e+00 -2.067758888006210327e-01 2.576368860900402069e-02 -5.430366098880767822e-02 7.070423662662506104e-02
1.914000000000000000e+03 3.054158401489257812e+01 -3.146588706970214844e+01 3.516556024551391602e-01 1.344444036483764648e+00 5.088298916816711426e-01 1.063995242118835449e+00
1.915000000000000000e+03 3.194893264770507812e+01 -3.206085586547851562e+01 2.693425491452217102e-02 2.372219800949096680e+00 7.197462320327758789e-01 1.092722654342651367e+00
1.916000000000000000e+03 1.268853950500488281e+01 2.401926422119140625e+01 2.911457559093832970e-04 1.750154333421960473e-04 1.398483582306653261e-04 6.388035558302362915e-07
1.917000000000000000e+03 1.449510669708251953e+01 2.621442413330078125e+01 3.139277105219662189e-04 5.241652979748323560e-05 1.099032742786221206e-04 9.170586417894810438e-05
1.918000000000000000e+03 7.013867950439453125e+01 -2.707623100280761719e+01 -5.053892731666564941e-03 3.826609172392636538e-04 -1.401369459927082062e-03 -1.732246833853423595e-03
1.919000000000000000e+03 7.030489349365234375e+01 -2.600508880615234375e+01 -2.098162658512592316e-03 -6.270526500884443521e-05 -6.482604076154530048e-04 -9.578418685123324394e-04
1.920000000000000000e+03 4.179349517822265625e+01 -1.905685234069824219e+01 4.254669249057769775e-01 7.512073993682861328e+00 2.381262302398681641e+00 -1.033616304397583008e+00
1.921000000000000000e+03 8.808497428894042969e+00 -1.493617057800292969e+01 7.017189264297485352e-01 4.165213704109191895e-01 3.354720771312713623e-01 9.105785191059112549e-02
1.922000000000000000e+03 3.820687770843505859e+00 -1.964634895324707031e+01 2.099230438470840454e-01 -2.482986003160476685e-01 -1.151266414672136307e-02 2.402416020631790161e-01
1.923000000000000000e+03 4.705320835113525391e+00 -2.136714172363281250e+01 1.892284899950027466e-01 9.313616156578063965e-02 8.470939844846725464e-02 3.476753234863281250e-01
1.924000000000000000e+03 4.179530334472656250e+01 3.272650527954101562e+01 4.292178750038146973e-01 4.974627971649169922e+00 1.621153712272644043e+00 -7.963816523551940918e-01
1.925000000000000000e+03 3.723218154907226562e+01 -2.132844924926757812e+01 2.312461733818054199e-01 6.710805416107177734e+00 2.082615375518798828e+00 1.052544951438903809e+00
1.926000000000000000e+03 6.665574645996093750e+01 -6.457926750183105469e+00 -6.824273616075515747e-02 1.135413069278001785e-02 -1.706658117473125458e-02 2.248997427523136139e-02
1.927000000000000000e+03 6.642140197753906250e+01 -4.692548274993896484e+00 -2.718796133995056152e-01 4.003239795565605164e-02 -6.955416500568389893e-02 5.690813809633255005e-02
1.928000000000000000e+03 2.793482971191406250e+01 -3.281308364868164062e+01 -3.271364048123359680e-02 4.207678139209747314e-01 1.164162456989288330e-01 4.484734237194061279e-01
1.929000000000000000e+03 2.880317115783691406e+01 -3.239604568481445312e+01 4.701305553317070007e-02 5.280821919441223145e-01 1.725285649299621582e-01 6.260835528373718262e-01
1.930000000000000000e+03 1.853748893737792969e+01 -4.109126567840576172e+00 -6.365597248077392578e-01 -5.873399600386619568e-02 -2.085881233215332031e-01 -9.877238422632217407e-02
1.931000000000000000e+03 1.939015197753906250e+01 -4.089760303497314453e+00 -6.643700003623962402e-01 -6.322707235813140869e-02 -2.182791233062744141e-01 -1.095177382230758667e-01
1.932000000000000000e+03 3.860569000244140625e+01 2.653757333755493164e+00 -1.562789201736450195e+00 7.770757675170898438e+00 1.862390518188476562e+00 1.112308859825134277e+00
1.933000000000000000e+03 4.239658355712890625e+01 -4.729370474815368652e-01 -1.531569838523864746e+00 9.828289985656738281e+00 2.489016056060791016e+00 9.353728294372558594e-01
1.934000000000000000e+03 4.195274353027343750e+01 -1.260986924171447754e+00 -1.737364083528518677e-01 1.057275199890136719e+01 3.119704723358154297e+00 1.198227167129516602e+00
1.935000000000000000e+03 2.441300964355468750e+01 -3.547091484069824219e+00 -1.235307455062866211e+00 -1.320908591151237488e-02 -3.745549619197845459e-01 -4.191937744617462158e-01
1.936000000000000000e+03 1.203100299835205078e+01 -3.258257293701171875e+01 -3.400937616825103760e-01 -1.130285263061523438e-01 -1.359366774559020996e-01 1.322277635335922241e-01
1.937000000000000000e+03 5.822288894653320312e+01 -3.485876846313476562e+01 -3.842798992991447449e-02 7.626553624868392944e-02 1.135126408189535141e-02 -2.759169228374958038e-02
1.938000000000000000e+03 4.009294891357421875e+01 6.837007045745849609e+00 1.722663760185241699e+00 1.156658649444580078e+01 3.986774921417236328e+00 3.747814416885375977e+00
1.939000000000000000e+03 4.293864822387695312e+01 2.713256835937500000e+01 7.071334719657897949e-01 6.956632137298583984e+00 2.299129724502563477e+00 -6.145488619804382324e-01
1.940000000000000000e+03 4.290573883056640625e+01 2.801493644714355469e+01 9.292756915092468262e-01 6.722902774810791016e+00 2.295653581619262695e+00 -6.234416365623474121e-01
1.941000000000000000e+03 6.371919250488281250e+01 -1.836926579475402832e+00 -9.899628758430480957e-01 1.201377287507057190e-01 -2.609475553035736084e-01 -3.375437483191490173e-02
1.942000000000000000e+03 6.233327484130859375e+01 -1.879627943038940430e+00 -1.274225115776062012e+00 3.536495566368103027e-02 -3.716580271720886230e-01 1.224886849522590637e-01
1.943000000000000000e+03 2.974730300903320312e+01 -3.264022445678710938e+01 4.891834408044815063e-02 1.121637463569641113e+00 3.511667549610137939e-01 8.438174724578857422e-01
1.944000000000000000e+03 4.112206649780273438e+01 -1.735679244995117188e+01 9.957974553108215332e-01 9.179276466369628906e+00 3.052522182464599609e+00 -9.705418944358825684e-01
1.945000000000000000e+03 1.817039966583251953e+00 3.376016139984130859e+00 3.050840859941672534e-06 4.171444913936284138e-07 1.040395545715000480e-06 -2.227210643468424678e-06
1.946000000000000000e+03 1.075908541679382324e+00 3.421912908554077148e+00 -3.592715529521228746e-06 -4.681860445998609066e-07 -1.218270426761591807e-06 1.918380803545005620e-06
1.947000000000000000e+03 4.040045928955078125e+01 5.743585586547851562e+00 7.611781358718872070e-01 1.011858272552490234e+01 3.263928413391113281e+00 2.781858682632446289e+00
1.948000000000000000e+03 7.095745849609375000e+01 -2.344515037536621094e+01 8.056859951466321945e-05 -2.630032540764659643e-04 -5.473039709613658488e-05 3.425314498599618673e-04
1.949000000000000000e+03 3.716606903076171875e+01 -2.352022552490234375e+01 9.268156290054321289e-01 6.671914577484130859e+00 2.279618978500366211e+00 1.107480645179748535e+00
1.950000000000000000e+03 7.893788146972656250e+01 -1.669462394714355469e+01 7.445942901540547609e-05 8.356403850484639406e-05 4.740704025607556105e-05 -7.120423833839595318e-05
1.951000000000000000e+03 3.592528915405273438e+01 -2.638598442077636719e+01 1.123100280761718750e+00 6.589263439178466797e+00 2.313709020614624023e+00 1.105049014091491699e+00
1.952000000000000000e+03 3.611243820190429688e+01 -2.550711250305175781e+01 1.314681053161621094e+00 6.968453407287597656e+00 2.484940290451049805e+00 1.059477448463439941e+00
1.953000000000000000e+03 2.409949779510498047e+00 -2.822969818115234375e+01 -8.295805007219314575e-02 -1.254639923572540283e-01 -6.252661347389221191e-02 1.980959326028823853e-01
1.954000000000000000e+03 4.529819107055664062e+01 1.486301422119140625e+00 -6.084387302398681641e+00 1.208054780960083008e+00 -1.462899804115295410e+00 1.203576922416687012e+00
1.955000000000000000e+03 4.503949737548828125e+01 2.469720602035522461e+00 -4.086116790771484375e+00 2.671157360076904297e+00 -4.244877994060516357e-01 2.057764768600463867e+00
1.956000000000000000e+03 2.023482561111450195e+00 -3.531301021575927734e+00 -3.621712699532508850e-02 -9.399658441543579102e-02 -3.906411305069923401e-02 -1.030801683664321899e-01
1.957000000000000000e+03 4.575812911987304688e+01 2.105189561843872070e+00 -5.116348743438720703e+00 2.887687981128692627e-01 -1.448273897171020508e+00 1.512151002883911133e+00
1.958000000000000000e+03 7.791631317138671875e+01 -8.986433029174804688e+00 -1.038335380144417286e-03 1.157280430197715759e-02 3.160340711474418640e-03 1.467431802302598953e-02
1.959000000000000000e+03 2.965468406677246094e+01 -1.527426910400390625e+01 7.349248528480529785e-01 -2.057280242443084717e-01 1.587590426206588745e-01 8.193016648292541504e-01
1.960000000000000000e+03 3.478894424438476562e+01 -1.861197471618652344e+01 -1.404421091079711914e+00 3.818171977996826172e+00 7.241252660751342773e-01 -2.461946904659271240e-01
1.961000000000000000e+03 6.737317657470703125e+01 -7.687667369842529297e+00 -2.046114951372146606e-02 6.087275687605142593e-03 -4.312161821871995926e-03 -3.282984718680381775e-03
1.962000000000000000e+03 1.082263851165771484e+01 -1.495319557189941406e+01 1.055597066879272461e+00 3.228392004966735840e-01 4.135308861732482910e-01 8.005505055189132690e-02
1.963000000000000000e+03 5.505276489257812500e+01 -3.302589035034179688e+01 -7.415082305669784546e-02 2.998685538768768311e-01 6.771532446146011353e-02 -1.820385158061981201e-01
1.964000000000000000e+03 5.510274887084960938e+01 -3.397377777099609375e+01 -3.608319163322448730e-02 3.584235906600952148e-01 9.670212119817733765e-02 -2.199590504169464111e-01
1.965000000000000000e+03 7.966560363769531250e+00 -1.552309513092041016e+01 6.894961595535278320e-01 4.767328500747680664e-01 3.498687148094177246e-01 1.111226156353950500e-01
1.966000000000000000e+03 2.194619369506835938e+01 -3.871968507766723633e+00 -8.369250893592834473e-01 3.231585957109928131e-03 -2.501080632209777832e-01 -1.695128828287124634e-01
1.967000000000000000e+03 2.197772216796875000e+01 -4.582026958465576172e+00 -7.179412245750427246e-01 -4.837703332304954529e-02 -2.298954725265502930e-01 -2.353417873382568359e-01
1.968000000000000000e+03 8.588881492614746094e+00 -3.114045715332031250e+01 -3.274506926536560059e-01 -2.969534099102020264e-01 -1.873212307691574097e-01 1.927456259727478027e-01
1.969000000000000000e+03 9.368634223937988281e+00 -3.165306472778320312e+01 -3.187635242938995361e-01 -2.680822312831878662e-01 -1.760537326335906982e-01 1.809608787298202515e-01
1.970000000000000000e+03 3.299479675292968750e+01 -1.651900291442871094e+01 4.459155723452568054e-02 5.527622103691101074e-01 1.792061328887939453e-01 1.704493463039398193e-01
1.971000000000000000e+03 3.180131530761718750e+01 -1.623199653625488281e+01 1.730305552482604980e-01 -2.322857081890106201e-01 -1.777654513716697693e-02 5.952752232551574707e-01
1.972000000000000000e+03 7.889427947998046875e+01 -1.593555068969726562e+01 -3.330420076963491738e-05 3.759781975531950593e-05 1.288085627493273932e-06 -2.973391747218556702e-05
1.973000000000000000e+03 4.415496826171875000e+01 2.290251493453979492e+00 -4.120763778686523438e+00 5.079474925994873047e+00 2.876132428646087646e-01 2.026342391967773438e+00
1.974000000000000000e+03 4.012207794189453125e+01 -1.655205154418945312e+01 8.027975559234619141e-01 9.016361236572265625e+00 2.945747852325439453e+00 -4.633026123046875000e-01
1.975000000000000000e+03 3.482362747192382812e+01 -1.741748428344726562e+01 -7.633625268936157227e-01 3.411571741104125977e+00 7.944628000259399414e-01 -2.629129886627197266e-01
1.976000000000000000e+03 2.578295898437500000e+01 -2.623240470886230469e+00 -1.785256028175354004e+00 -1.658795028924942017e-01 -5.853406786918640137e-01 -3.821932673454284668e-01
1.977000000000000000e+03 4.343776226043701172e+00 -3.994316864013671875e+01 1.446576509624719620e-02 -6.173478811979293823e-02 -1.418070681393146515e-02 -1.105159707367420197e-02
1.978000000000000000e+03 1.640423297882080078e+00 -4.063578033447265625e+01 2.968124113976955414e-03 5.212249979376792908e-02 1.652718707919120789e-02 -8.691361173987388611e-03
1.979000000000000000e+03 2.808571434020996094e+01 3.770508193969726562e+01 -7.424472272396087646e-02 -1.340646296739578247e-03 -2.267561107873916626e-02 5.669844895601272583e-02
1.980000000000000000e+03 3.161330223083496094e+01 3.953625488281250000e+01 4.741844534873962402e-02 1.809761822223663330e-01 6.851839274168014526e-02 -1.473338715732097626e-02
1.981000000000000000e+03 3.190997886657714844e+01 3.792656326293945312e+01 -1.509719043970108032e-01 1.339804828166961670e-01 -5.097423680126667023e-03 -2.709317486733198166e-03
1.982000000000000000e+03 3.605322647094726562e+01 3.803462219238281250e+01 -4.225566610693931580e-02 9.860424399375915527e-01 2.831360399723052979e-01 -4.228779971599578857e-01
1.983000000000000000e+03 4.072619247436523438e+01 6.562442302703857422e+00 1.202967166900634766e+00 1.023782920837402344e+01 3.432239055633544922e+00 3.026802778244018555e+00
1.984000000000000000e+03 4.147671127319335938e+01 9.048095703125000000e+00 1.540479779243469238e+00 1.018370056152343750e+01 3.517254352569580078e+00 3.146701574325561523e+00
1.985000000000000000e+03 1.768764877319335938e+01 2.225881814956665039e+00 2.606096813906333409e-06 3.426604962442070246e-06 1.809810555641888641e-06 -6.063393129807082005e-07
1.986000000000000000e+03 1.835272407531738281e+01 2.215919733047485352e+00 -2.758860318863298744e-06 -3.706811639858642593e-06 -1.939701633091317490e-06 -7.575091842682013521e-08
1.987000000000000000e+03 9.880164146423339844e+00 -4.080732345581054688e+00 -3.560453653335571289e-01 7.413481920957565308e-02 -8.457316458225250244e-02 -1.960715353488922119e-01
1.988000000000000000e+03 1.060664844512939453e+01 -4.133081912994384766e+00 -3.806679844856262207e-01 7.746366411447525024e-02 -9.096129983663558960e-02 -1.852548271417617798e-01
1.989000000000000000e+03 5.136590194702148438e+01 1.307402610778808594e+00 -4.134502887725830078e+00 3.117279708385467529e-01 -1.146832585334777832e+00 2.138276100158691406e-01
1.990000000000000000e+03 2.178154373168945312e+01 -1.668889045715332031e+01 7.163229584693908691e-01 -1.359696090221405029e-01 1.741060018539428711e-01 1.229065470397472382e-02
1.991000000000000000e+03 2.242274856567382812e+01 -1.746722030639648438e+01 6.827360987663269043e-01 -8.937300741672515869e-02 1.780089288949966431e-01 2.893085591495037079e-02
1.992000000000000000e+03 1.634907150268554688e+01 2.332782268524169922e+00 4.031434400530997664e-06 2.614969844216830097e-06 1.993921159737510607e-06 -1.763350610417546704e-06
1.993000000000000000e+03 1.868326950073242188e+01 3.595314979553222656e+00 6.678586942143738270e-06 5.379626600188203156e-06 3.617464017224847339e-06 -1.435406147720641457e-06
1.994000000000000000e+03 1.425567722320556641e+01 3.279518365859985352e+00 4.512853593041654676e-06 2.979516921186586842e-06 2.247711108793737367e-06 -3.028648052350035869e-07
1.995000000000000000e+03 1.498308944702148438e+01 2.497904539108276367e+00 4.391038601170293987e-06 1.762560827955894638e-06 1.846079726419702638e-06 -5.118962462802301161e-07
1.996000000000000000e+03 1.906974220275878906e+01 -1.619145584106445312e+01 7.978751063346862793e-01 -1.108111590147018433e-01 2.061191946268081665e-01 -1.021398901939392090e-01
1.997000000000000000e+03 7.235932159423828125e+01 -1.703354072570800781e+01 9.350012260256335139e-05 -1.041637733578681946e-04 -3.199095090167247690e-06 7.475150050595402718e-05
1.998000000000000000e+03 1.427616596221923828e+01 2.587053775787353516e+00 -4.194668690615799278e-06 -1.609476157682365738e-06 -1.741243409014714416e-06 2.004871468841429305e-08
1.999000000000000000e+03 1.353078842163085938e+01 3.361866235733032227e+00 -4.514680313150165603e-06 -2.601241476440918632e-06 -2.134776650564162992e-06 2.568862669249938335e-07
2.000000000000000000e+03 1.133643627166748047e+01 -4.200945854187011719e+00 -4.056342244148254395e-01 7.619153708219528198e-02 -9.883280843496322632e-02 -1.755396872758865356e-01
2.001000000000000000e+03 7.836366271972656250e+01 -1.960050773620605469e+01 -7.390422251773998141e-05 1.872107968665659428e-04 3.399197157705202699e-05 -1.692851074039936066e-04
2.002000000000000000e+03 7.449625396728515625e+01 -1.679895210266113281e+01 1.784955529728904366e-04 -6.211142317624762654e-05 3.491523966658860445e-05 -2.513809522497467697e-05
2.003000000000000000e+03 1.838068771362304688e+01 -1.596347999572753906e+01 8.358594179153442383e-01 -9.166482836008071899e-02 2.232583761215209961e-01 -1.119692549109458923e-01
2.004000000000000000e+03 3.968315887451171875e+01 -1.301371383666992188e+01 6.793782114982604980e-01 1.020215129852294922e+01 3.264458656311035156e+00 -4.071165323257446289e-01
2.005000000000000000e+03 1.213719844818115234e+01 -3.595139265060424805e+00 -4.803539812564849854e-01 5.681129172444343567e-02 -1.270627975463867188e-01 -1.366778612136840820e-01
2.006000000000000000e+03 7.393443298339843750e+01 -1.824469947814941406e+01 1.157321312348358333e-04 -2.237675944343209267e-04 -3.241064041503705084e-05 -7.579746579722268507e-06
2.007000000000000000e+03 1.496131420135498047e+01 3.197585582733154297e+00 -5.597652034339262173e-06 -3.073991365454276092e-06 -2.601492951725958847e-06 1.053604634648763749e-07
2.008000000000000000e+03 2.184075355529785156e+01 -1.595653343200683594e+01 7.237379550933837891e-01 -1.764496266841888428e-01 1.641865074634552002e-01 3.874484077095985413e-02
2.009000000000000000e+03 9.138116836547851562e+00 -4.047932624816894531e+00 -3.254471123218536377e-01 6.631944328546524048e-02 -7.773829996585845947e-02 -2.051237970590591431e-01
2.010000000000000000e+03 7.315957641601562500e+01 -1.762502670288085938e+01 1.050749560818076134e-04 -1.685692550381645560e-04 -1.904828968690708280e-05 4.841194095206446946e-05
2.011000000000000000e+03 7.100370025634765625e+01 -1.731012535095214844e+01 5.448180309031158686e-05 -3.273111360613256693e-05 6.525206572405295447e-06 1.022584547172300518e-04
2.012000000000000000e+03 7.084601593017578125e+01 -2.054881477355957031e+01 3.009361680597066879e-04 2.334219425392802805e-05 9.728351142257452011e-05 3.841283032670617104e-04
2.013000000000000000e+03 2.031918334960937500e+01 -1.724075126647949219e+01 7.365614771842956543e-01 -9.404913336038589478e-02 1.927537024021148682e-01 -7.029479742050170898e-02
2.014000000000000000e+03 2.110970878601074219e+01 -1.661974143981933594e+01 7.315356135368347168e-01 -1.369570791721343994e-01 1.783735603094100952e-01 -1.504383422434329987e-02
2.015000000000000000e+03 2.845439147949218750e+01 -1.583585166931152344e+01 5.196846723556518555e-01 -1.530519425868988037e-01 1.099898219108581543e-01 6.779946684837341309e-01
2.016000000000000000e+03 2.009452247619628906e+01 -3.342694473266601562e+01 -3.612942993640899658e-01 -2.138459868729114532e-02 -1.148036718368530273e-01 -5.235503986477851868e-02
2.017000000000000000e+03 2.499248123168945312e+01 -1.667515754699707031e+01 5.969425439834594727e-01 -1.003008112311363220e-01 1.489925235509872437e-01 2.322872579097747803e-01
2.018000000000000000e+03 7.017732238769531250e+01 -1.064637851715087891e+01 1.281951460987329483e-02 -1.360513456165790558e-02 -2.356858749408274889e-04 -1.146270800381898880e-02
2.019000000000000000e+03 2.718705368041992188e+01 -3.407722091674804688e+01 -6.673283129930496216e-02 4.966081380844116211e-01 1.289625912904739380e-01 3.866543769836425781e-01
2.020000000000000000e+03 5.389001083374023438e+01 -3.257579421997070312e+01 -2.469265460968017578e-02 4.724732041358947754e-01 1.343341618776321411e-01 -2.434870898723602295e-01
2.021000000000000000e+03 5.348476409912109375e+01 -3.138273048400878906e+01 3.351042047142982483e-02 4.176178872585296631e-01 1.353385001420974731e-01 -2.383346408605575562e-01
2.022000000000000000e+03 2.660899925231933594e+01 -1.704386138916015625e+01 4.452992379665374756e-01 -1.073136180639266968e-02 1.303703635931015015e-01 3.121302425861358643e-01
2.023000000000000000e+03 1.767533302307128906e+01 -1.570102024078369141e+01 8.643276095390319824e-01 -6.744555383920669556e-02 2.390646189451217651e-01 -1.206537559628486633e-01
2.024000000000000000e+03 4.095526504516601562e+01 -3.525687456130981445e+00 5.244963169097900391e-01 1.149411010742187500e+01 3.605581998825073242e+00 2.228012800216674805e+00
2.025000000000000000e+03 2.312576675415039062e+01 -1.748675155639648438e+01 6.609818935394287109e-01 -8.240392059087753296e-02 1.735734045505523682e-01 7.188676297664642334e-02
2.026000000000000000e+03 7.392307281494140625e+01 -9.634428024291992188e+00 -2.949348418042063713e-03 -1.248059887439012527e-02 -4.628984257578849792e-03 7.766392081975936890e-03
2.027000000000000000e+03 3.559831237792968750e+01 -5.164229273796081543e-01 -2.752742767333984375e+00 1.606535434722900391e+00 -3.438621461391448975e-01 -3.859254717826843262e-01
2.028000000000000000e+03 4.822274780273437500e+01 -2.745004653930664062e+01 3.328981697559356689e-01 1.258255124092102051e+00 4.773460030555725098e-01 -7.198958992958068848e-01
2.029000000000000000e+03 7.425879669189453125e+01 -1.962010192871093750e+01 1.909387501655146480e-04 -3.262973914388567209e-04 -4.060758874402381480e-05 -8.278956374851986766e-05
2.030000000000000000e+03 1.366140079498291016e+01 -3.772930383682250977e+00 -5.277073383331298828e-01 3.372950851917266846e-02 -1.481933593750000000e-01 -1.166657209396362305e-01
2.031000000000000000e+03 7.094540405273437500e+01 -9.892837524414062500e+00 2.380879363045096397e-03 -1.803335174918174744e-02 -4.695741925388574600e-03 -5.932923406362533569e-03
2.032000000000000000e+03 9.659649848937988281e+00 3.759670257568359375e+00 3.817870947386836633e-06 -4.855273232351464685e-07 9.997030474551138468e-07 8.343865829374408349e-07
2.033000000000000000e+03 3.650860595703125000e+01 -2.318351364135742188e+01 7.721982002258300781e-01 7.260263919830322266e+00 2.409738540649414062e+00 1.145817279815673828e+00
2.034000000000000000e+03 3.759492492675781250e+01 -2.231514739990234375e+01 4.943527877330780029e-01 6.625717163085937500e+00 2.136020898818969727e+00 1.087087750434875488e+00
2.035000000000000000e+03 6.824133300781250000e+01 -7.789177417755126953e+00 -3.025564737617969513e-02 -7.786137051880359650e-03 -1.141253486275672913e-02 -1.375890686176717281e-03
2.036000000000000000e+03 1.535090541839599609e+01 1.362189197540283203e+01 -3.028509854630101472e-05 -2.736093847488518804e-05 -1.729381074255798012e-05 -2.819845212798099965e-05
2.037000000000000000e+03 4.713248062133789062e+01 -2.627593612670898438e+01 4.089459776878356934e-01 1.506028056144714355e+00 5.744922161102294922e-01 -8.371888399124145508e-01
2.038000000000000000e+03 1.762151479721069336e+00 4.892135143280029297e+00 4.892596280114958063e-06 7.878945780248614028e-07 1.704147166492475662e-06 -2.863954705389915034e-06
2.039000000000000000e+03 2.574653625488281250e+00 3.340324163436889648e+00 -2.768516424112021923e-06 -8.281485293082369026e-07 -1.078999503079103306e-06 2.959235644084401429e-06
2.040000000000000000e+03 2.483498096466064453e+00 6.324115753173828125e+00 -6.002840564178768545e-06 -2.567138380982214585e-06 -2.570993729023030028e-06 4.568027179630007595e-06
2.041000000000000000e+03 7.253766536712646484e+00 3.911715030670166016e+00 -3.427063575145439245e-06 1.895361378956295084e-06 -4.595106304350338178e-07 -2.714435140660498291e-06
2.042000000000000000e+03 8.054135322570800781e+00 3.870743989944458008e+00 2.986970230267615989e-06 -1.240868641616543755e-06 5.238304652266378980e-07 2.235990905319340527e-06
2.043000000000000000e+03 1.749230027198791504e+00 5.650366783142089844e+00 -6.024944013915956020e-06 -1.757056224960251711e-06 -2.334600139874964952e-06 3.701288960655801930e-06
2.044000000000000000e+03 3.256637573242187500e+00 5.516962051391601562e+00 -4.205917321087326854e-06 -1.813253334148612339e-06 -1.805751139727362897e-06 4.335130142862908542e-06
2.045000000000000000e+03 4.053409099578857422e+00 4.733144283294677734e+00 -2.699015794860315509e-06 -1.091158196686592419e-06 -1.137052208832756151e-06 4.523006737144896761e-06
2.046000000000000000e+03 3.345893859863281250e+00 3.313841819763183594e+00 1.919224814628250897e-06 8.604547474533319473e-07 8.339038686244748533e-07 -2.950242560473270714e-06
2.047000000000000000e+03 1.360754299163818359e+01 -4.449779987335205078e+00 -4.579727649688720703e-01 4.643513262271881104e-02 -1.234612837433815002e-01 -1.414294540882110596e-01
2.048000000000000000e+03 2.005266189575195312e+01 3.116539955139160156e+00 -3.641700459411367774e-06 -5.203327418712433428e-06 -2.653508317962405272e-06 -3.943022420571651310e-06
2.049000000000000000e+03 1.970588302612304688e+01 3.788122892379760742e+00 3.558223852451192215e-06 5.777665592177072540e-06 2.800766878863214515e-06 6.076974841562332585e-06
2.050000000000000000e+03 1.278397178649902344e+01 3.446973562240600586e+00 4.254798113834112883e-06 1.832986185945628677e-06 1.826335278565238696e-06 -7.570691877845092677e-07
2.051000000000000000e+03 4.319554138183593750e+01 -2.193262100219726562e+01 3.309647142887115479e-01 4.354050636291503906e+00 1.405504703521728516e+00 -1.136537909507751465e+00
2.052000000000000000e+03 4.017670059204101562e+01 -8.187101364135742188e+00 1.362927913665771484e+00 1.230711936950683594e+01 4.101014137268066406e+00 1.397911071777343750e+00
2.053000000000000000e+03 3.957359695434570312e+01 -1.058161258697509766e+01 9.009760022163391113e-01 1.072792530059814453e+01 3.488670349121093750e+00 4.420570135116577148e-01
2.054000000000000000e+03 7.028717803955078125e+01 -7.916436195373535156e+00 -3.616575524210929871e-02 -2.153859660029411316e-02 -1.731130480766296387e-02 -2.283292822539806366e-03
2.055000000000000000e+03 4.276356124877929688e+01 1.726002311706542969e+01 4.401982724666595459e-01 8.338273048400878906e+00 2.633541345596313477e+00 9.845435619354248047e-01
2.056000000000000000e+03 6.983893585205078125e+01 -1.835966873168945312e+01 1.282424927921965718e-04 1.621057308511808515e-04 8.710446854820474982e-05 1.904401433421298862e-04
2.057000000000000000e+03 6.992750549316406250e+01 -1.913027763366699219e+01 -3.987488526036031544e-05 1.363373885396867990e-04 2.893874989240430295e-05 1.502459053881466389e-04
2.058000000000000000e+03 4.506735610961914062e+01 -2.365770530700683594e+01 5.322967171669006348e-01 2.423125028610229492e+00 8.866265416145324707e-01 -1.097310900688171387e+00
2.059000000000000000e+03 5.108312988281250000e+01 -2.988699531555175781e+01 1.474688798189163208e-01 7.846879959106445312e-01 2.796470820903778076e-01 -4.434260427951812744e-01
2.060000000000000000e+03 1.294971656799316406e+01 -3.339538955688476562e+01 -2.941173315048217773e-01 -1.032239869236946106e-01 -1.192023977637290955e-01 8.440723270177841187e-02
2.061000000000000000e+03 4.363537979125976562e+01 1.972356986999511719e+01 3.338605165481567383e-01 7.255380153656005859e+00 2.276772260665893555e+00 6.863110065460205078e-01
2.062000000000000000e+03 4.281216812133789062e+01 1.809594917297363281e+01 3.826808929443359375e-01 8.040431022644042969e+00 2.526933431625366211e+00 8.313588500022888184e-01
2.063000000000000000e+03 1.853447532653808594e+01 -4.784742355346679688e+00 -5.322827696800231934e-01 -6.556554883718490601e-02 -1.793544888496398926e-01 -1.199585199356079102e-01
2.064000000000000000e+03 1.686701202392578125e+01 -4.065242290496826172e+00 -5.992662906646728516e-01 -3.404307365417480469e-02 -1.899928003549575806e-01 -9.555692225694656372e-02
2.065000000000000000e+03 4.384064483642578125e+01 3.004269790649414062e+01 7.781368494033813477e-01 5.555937767028808594e+00 1.900222420692443848e+00 -2.241021692752838135e-01
2.066000000000000000e+03 4.378388214111328125e+01 3.122088050842285156e+01 5.812866687774658203e-01 5.266620635986328125e+00 1.754372119903564453e+00 -1.739519536495208740e-01
2.067000000000000000e+03 1.207908153533935547e+01 -4.279540061950683594e+00 -4.245719313621520996e-01 7.049994915723800659e-02 -1.062215939164161682e-01 -1.641211807727813721e-01
2.068000000000000000e+03 1.283685207366943359e+01 -4.363759040832519531e+00 -4.437282085418701172e-01 6.058220192790031433e-02 -1.149438023567199707e-01 -1.521062254905700684e-01
2.069000000000000000e+03 4.375923156738281250e+01 2.631977081298828125e+01 5.876544117927551270e-01 6.525334358215332031e+00 2.133896589279174805e+00 -3.577569723129272461e-01
2.070000000000000000e+03 4.295261383056640625e+01 2.544780349731445312e+01 2.629789113998413086e-01 7.125809192657470703e+00 2.216636419296264648e+00 -2.646129429340362549e-01
2.071000000000000000e+03 2.561993026733398438e+01 -1.646029472351074219e+01 5.835038423538208008e-01 -9.150517731904983521e-02 1.475996077060699463e-01 2.862177789211273193e-01
2.072000000000000000e+03 7.812657165527343750e+01 -2.889834213256835938e+01 -1.018912415020167828e-03 -1.138596213422715664e-03 -6.472526001743972301e-04 1.672612852416932583e-03
2.073000000000000000e+03 7.783352661132812500e+01 -3.523054885864257812e+01 -3.110280376859009266e-04 -1.329444814473390579e-02 -4.081642720848321915e-03 6.787142250686883926e-03
2.074000000000000000e+03 7.456990814208984375e+01 -3.697410583496093750e+01 3.699584398418664932e-03 -1.184849347919225693e-02 -2.444672631099820137e-03 1.450400240719318390e-02
2.075000000000000000e+03 7.831334686279296875e+01 -2.180405616760253906e+01 1.676552783465012908e-04 3.702422254718840122e-04 1.613692438695579767e-04 -2.919120015576481819e-04
2.076000000000000000e+03 7.821694946289062500e+01 -2.647742462158203125e+01 -1.253574737347662449e-04 1.806868240237236023e-04 1.659880581428296864e-05 2.490321348886936903e-04
2.077000000000000000e+03 7.818249511718750000e+01 -2.728244400024414062e+01 -6.768307066522538662e-04 -1.366518117720261216e-04 -2.440447569824755192e-04 6.602957146242260933e-04
2.078000000000000000e+03 7.740985870361328125e+01 -2.870902061462402344e+01 -1.064333366230130196e-03 -1.275377580896019936e-03 -7.019132608547806740e-04 2.002439927309751511e-03
2.079000000000000000e+03 7.760369873046875000e+01 -2.162347030639648438e+01 -8.214636909542605281e-05 7.911252760095521808e-05 -9.101524938159855083e-07 -3.077739092987030745e-04
2.080000000000000000e+03 7.747784423828125000e+01 -2.708258247375488281e+01 -5.531161441467702389e-04 -4.207462188787758350e-04 -2.921587147284299135e-04 7.491228170692920685e-04
2.081000000000000000e+03 7.609512329101562500e+01 -2.765217208862304688e+01 -2.241281094029545784e-03 -9.353772620670497417e-04 -9.529975359328091145e-04 1.594979665242135525e-03
2.082000000000000000e+03 7.762914276123046875e+01 -2.469534683227539062e+01 -3.970134130213409662e-04 6.084017877583391964e-05 -1.008519684546627104e-04 -8.778821211308240891e-05
2.083000000000000000e+03 7.831489562988281250e+01 -1.814453697204589844e+01 -4.460678974282927811e-05 9.767145820660516620e-05 1.591939872014336288e-05 -1.070477883331477642e-04
2.084000000000000000e+03 7.826704406738281250e+01 -1.741020965576171875e+01 1.028660044539719820e-04 9.306344873039051890e-05 5.877883813809603453e-05 -1.234508381457999349e-04
2.085000000000000000e+03 7.681277465820312500e+01 -1.738301467895507812e+01 1.462477666791528463e-04 6.455980383179849014e-06 4.581112443702295423e-05 -1.364101481158286333e-04
2.086000000000000000e+03 7.540959930419921875e+01 -1.810708427429199219e+01 9.531362593406811357e-05 -1.650648046052083373e-04 -2.092535578412935138e-05 -9.010986832436174154e-05
2.087000000000000000e+03 7.763562011718750000e+01 -2.089973640441894531e+01 2.136495895683765411e-04 1.146974318544380367e-04 9.850410424405708909e-05 -2.816682099364697933e-04
2.088000000000000000e+03 7.697972106933593750e+01 -2.379524612426757812e+01 -3.158142208121716976e-04 -1.896180619951337576e-04 -1.516296906629577279e-04 -2.159433643100783229e-04
2.089000000000000000e+03 7.760233306884765625e+01 -2.313871765136718750e+01 -1.832146808737888932e-04 8.150217763613909483e-05 -3.051375279028434306e-05 -2.800136862788349390e-04
2.090000000000000000e+03 7.800310516357421875e+01 -3.367354202270507812e+01 -1.021917327307164669e-03 -8.982713334262371063e-03 -3.001389093697071075e-03 5.866196472197771072e-03
2.091000000000000000e+03 7.598025512695312500e+01 -3.453217315673828125e+01 -1.873102388344705105e-03 -8.387114852666854858e-03 -3.078065114095807076e-03 1.134915929287672043e-02
2.092000000000000000e+03 7.646388244628906250e+01 -3.021743011474609375e+01 -3.053838387131690979e-03 -2.399446209892630577e-03 -1.635985332541167736e-03 4.555590450763702393e-03
2.093000000000000000e+03 7.721561431884765625e+01 -3.350132369995117188e+01 -1.162183471024036407e-03 -7.826488465070724487e-03 -2.696601673960685730e-03 7.637603674083948135e-03
2.094000000000000000e+03 7.654264831542968750e+01 -3.375990676879882812e+01 -1.741353422403335571e-03 -7.694762200117111206e-03 -2.830834593623876572e-03 9.181554429233074188e-03
2.095000000000000000e+03 7.724626159667968750e+01 -3.269547653198242188e+01 -1.928281853906810284e-03 -6.344185210764408112e-03 -2.481739968061447144e-03 6.688913796097040176e-03
2.096000000000000000e+03 7.729309844970703125e+01 -3.041194152832031250e+01 -1.481849700212478638e-03 -2.823006594553589821e-03 -1.291456865146756172e-03 3.976223990321159363e-03
2.097000000000000000e+03 7.669618225097656250e+01 -4.182495117187500000e+01 4.188103601336479187e-03 -2.294682711362838745e-02 -5.627616774290800095e-03 1.186871435493230820e-03
2.098000000000000000e+03 7.695165252685546875e+01 -3.764186477661132812e+01 1.142737921327352524e-03 -1.718502305448055267e-02 -4.812685307115316391e-03 8.369618095457553864e-03
2.099000000000000000e+03 7.678076171875000000e+01 -3.675031280517578125e+01 9.253954631276428699e-04 -1.486680097877979279e-02 -4.182421602308750153e-03 9.155344218015670776e-03
2.100000000000000000e+03 4.298418045043945312e+01 1.299083709716796875e+01 1.063290357589721680e+00 8.460334777832031250e+00 2.857087612152099609e+00 2.045096874237060547e+00
2.101000000000000000e+03 2.137827873229980469e+01 -3.572727966308593750e+01 -1.417388170957565308e-01 1.422661077231168747e-02 -3.825366124510765076e-02 -1.362404040992259979e-02
2.102000000000000000e+03 2.589478111267089844e+01 -3.610442733764648438e+01 -7.154925167560577393e-02 4.839065074920654297e-01 1.237071827054023743e-01 2.321254611015319824e-01
2.103000000000000000e+03 4.559862136840820312e+01 -2.421414756774902344e+01 5.272828340530395508e-01 2.115919351577758789e+00 7.929606437683105469e-01 -1.031695365905761719e+00
2.104000000000000000e+03 4.655200576782226562e+01 -2.558216667175292969e+01 4.457124769687652588e-01 1.690387487411499023e+00 6.408299803733825684e-01 -9.045113921165466309e-01
2.105000000000000000e+03 4.719933319091796875e+01 -2.496959877014160156e+01 4.936145842075347900e-01 1.301536083221435547e+00 5.385451912879943848e-01 -8.227756023406982422e-01
2.106000000000000000e+03 2.024129867553710938e+01 -4.044046878814697266e+00 -7.035439610481262207e-01 -4.910417646169662476e-02 -2.257944345474243164e-01 -1.153826415538787842e-01
2.107000000000000000e+03 2.364132881164550781e+01 -4.393630027770996094e+00 -8.961676955223083496e-01 -6.888985633850097656e-02 -2.895172536373138428e-01 -4.039392769336700439e-01
2.108000000000000000e+03 7.005769348144531250e+01 -2.145444679260253906e+01 2.733761211857199669e-04 3.124470822513103485e-04 1.757469581207260489e-04 4.578776715788990259e-04
2.109000000000000000e+03 7.323648071289062500e+01 -1.830560874938964844e+01 2.583239984232932329e-04 -1.396757288603112102e-04 3.559447941370308399e-05 5.166101982467807829e-05
2.110000000000000000e+03 5.836271667480468750e+01 -3.084455430507659912e-01 -2.386703729629516602e+00 -2.749552763998508453e-02 -7.242597341537475586e-01 3.090616688132286072e-02
2.111000000000000000e+03 7.078909301757812500e+01 -2.135104179382324219e+01 -2.320873863936867565e-05 -8.394320320803672075e-05 -3.214558091713115573e-05 2.952986687887459993e-04
2.112000000000000000e+03 6.958333587646484375e+01 -2.754028129577636719e+01 -7.135675288736820221e-03 5.186671041883528233e-04 -1.985102426260709763e-03 -1.778368372470140457e-03
2.113000000000000000e+03 7.148678588867187500e+01 -2.133039474487304688e+01 3.566823725122958422e-04 -2.202526811743155122e-04 4.092890594620257616e-05 3.261203819420188665e-04
2.114000000000000000e+03 5.983212280273437500e+01 -6.631675958633422852e-01 -1.986418247222900391e+00 -1.323229819536209106e-02 -5.998951792716979980e-01 1.298427768051624298e-02
2.115000000000000000e+03 4.250454330444335938e+01 1.051875114440917969e+01 1.363460659980773926e+00 8.764718055725097656e+00 3.038453578948974609e+00 2.726632595062255859e+00
2.116000000000000000e+03 1.684195518493652344e+01 -4.738826751708984375e+00 -5.022593736648559570e-01 -3.376939147710800171e-02 -1.608086377382278442e-01 -1.144830882549285889e-01
2.117000000000000000e+03 6.242031860351562500e+01 -1.190101504325866699e+00 -1.319598555564880371e+00 1.018394753336906433e-01 -3.653277158737182617e-01 -6.123493984341621399e-02
2.118000000000000000e+03 6.183736419677734375e+01 -1.015684604644775391e+00 -1.469201803207397461e+00 8.252047002315521240e-02 -4.160043895244598389e-01 -6.434335559606552124e-02
2.119000000000000000e+03 5.910515594482421875e+01 -4.847325086593627930e-01 -2.177836894989013672e+00 -3.760794550180435181e-02 -6.646335124969482422e-01 2.221335098147392273e-02
2.120000000000000000e+03 4.369324874877929688e+01 2.383150863647460938e+01 2.540786266326904297e-01 6.800146102905273438e+00 2.116267442703247070e+00 4.326739534735679626e-02
2.121000000000000000e+03 4.331165695190429688e+01 1.548565483093261719e+01 8.631884455680847168e-01 8.035145759582519531e+00 2.669500350952148438e+00 1.505656599998474121e+00
2.122000000000000000e+03 4.364228057861328125e+01 2.221642112731933594e+01 2.204932868480682373e-01 6.941706657409667969e+00 2.148659944534301758e+00 2.768035531044006348e-01
2.123000000000000000e+03 4.288448333740234375e+01 2.220411300659179688e+01 1.226644739508628845e-01 7.268468379974365234e+00 2.217339754104614258e+00 2.049873173236846924e-01
2.124000000000000000e+03 4.363213348388671875e+01 2.139721107482910156e+01 2.358189821243286133e-01 7.029548168182373047e+00 2.179610252380371094e+00 4.012654423713684082e-01
2.125000000000000000e+03 4.438550949096679688e+01 2.141324806213378906e+01 3.520849645137786865e-01 6.647743701934814453e+00 2.099948644638061523e+00 4.687169492244720459e-01
2.126000000000000000e+03 7.795433044433593750e+01 3.672782897949218750e+01 9.126789867877960205e-03 -2.329002857208251953e+00 -6.959628462791442871e-01 1.271323300898075104e-02
2.127000000000000000e+03 7.664418029785156250e+01 3.572282409667968750e+01 1.451042294502258301e-02 -2.017026662826538086e+00 -6.007548570632934570e-01 -2.089781314134597778e-02
2.128000000000000000e+03 7.683098602294921875e+01 3.128691673278808594e+01 1.444821618497371674e-02 -2.010315656661987305e+00 -5.987602472305297852e-01 -4.429391399025917053e-02
2.129000000000000000e+03 7.735250854492187500e+01 2.155478668212890625e+01 2.496761269867420197e-02 -1.809329390525817871e+00 -5.353085398674011230e-01 -1.747214198112487793e-01
2.130000000000000000e+03 7.817402648925781250e+01 1.668646240234375000e+01 1.006218697875738144e-02 -1.584409117698669434e+00 -4.723040759563446045e-01 -1.825374066829681396e-01
2.131000000000000000e+03 7.745079040527343750e+01 1.515382766723632812e+01 1.664587482810020447e-02 -1.348068475723266602e+00 -3.994267880916595459e-01 -2.651778459548950195e-01
2.132000000000000000e+03 7.748465728759765625e+01 1.116212749481201172e+01 9.149721008725464344e-04 -9.738835096359252930e-01 -2.918905615806579590e-01 -2.863858044147491455e-01
2.133000000000000000e+03 7.822901916503906250e+01 3.085354423522949219e+01 5.418572574853897095e-03 -2.314731836318969727e+00 -6.927939653396606445e-01 -3.202569857239723206e-02
2.134000000000000000e+03 7.731915283203125000e+01 2.877485275268554688e+01 1.357149984687566757e-02 -2.083203792572021484e+00 -6.208896636962890625e-01 -6.206607818603515625e-02
2.135000000000000000e+03 7.823468017578125000e+01 -4.056880950927734375e+00 -1.070970948785543442e-02 4.455564543604850769e-03 -1.876243390142917633e-03 -1.535715721547603607e-02
2.136000000000000000e+03 7.726028442382812500e+01 -7.171908378601074219e+00 -9.730393067002296448e-03 3.471875330433249474e-03 -1.877555274404585361e-03 8.178746327757835388e-03
2.137000000000000000e+03 7.823925781250000000e+01 3.121439933776855469e+00 -1.609444245696067810e-02 -2.742065787315368652e-01 -8.709030598402023315e-02 -1.334269344806671143e-01
2.138000000000000000e+03 7.753976440429687500e+01 1.593216538429260254e+00 -3.238098323345184326e-02 -1.896414756774902344e-01 -6.660673767328262329e-02 -1.442775577306747437e-01
2.139000000000000000e+03 7.754138946533203125e+01 7.944217920303344727e-01 -3.222212567925453186e-02 -1.497839838266372681e-01 -5.460183322429656982e-02 -1.244306415319442749e-01
2.140000000000000000e+03 7.825520324707031250e+01 3.604632186889648438e+01 1.358075160533189774e-02 -2.380341768264770508e+00 -7.100282907485961914e-01 4.366025328636169434e-03
2.141000000000000000e+03 7.538606262207031250e+01 -9.405439376831054688e+00 -3.426592797040939331e-03 -7.523233070969581604e-03 -3.284947713837027550e-03 1.300757564604282379e-02
2.142000000000000000e+03 7.750821685791015625e+01 7.969726085662841797e+00 -1.356631703674793243e-02 -6.692875623703002930e-01 -2.048561722040176392e-01 -2.678721547126770020e-01
2.143000000000000000e+03 7.824687194824218750e+01 -2.467988967895507812e+00 -1.367348153144121170e-02 -2.155311219394207001e-02 -1.056797802448272705e-02 -3.582055494189262390e-02
2.144000000000000000e+03 7.611595153808593750e+01 -4.549969673156738281e+00 -4.136965796351432800e-02 -2.714270353317260742e-02 -2.055370807647705078e-02 -3.159573301672935486e-02
2.145000000000000000e+03 7.754236602783203125e+01 -6.699085235595703125e-03 -3.165299445390701294e-02 -1.152267009019851685e-01 -4.406390711665153503e-02 -1.052462011575698853e-01
2.146000000000000000e+03 7.823377990722656250e+01 4.720596790313720703e+00 -1.374826952815055847e-02 -3.960086703300476074e-01 -1.229270771145820618e-01 -1.599229127168655396e-01
2.147000000000000000e+03 7.751239776611328125e+01 7.172457695007324219e+00 -1.656932011246681213e-02 -5.968513488769531250e-01 -1.840261965990066528e-01 -2.579688727855682373e-01
2.148000000000000000e+03 7.820661163330078125e+01 1.110126590728759766e+01 1.191609539091587067e-03 -1.022828698158264160e+00 -3.064911365509033203e-01 -2.124204933643341064e-01
2.149000000000000000e+03 7.749752044677734375e+01 9.566109657287597656e+00 -6.318584550172090530e-03 -8.197538256645202637e-01 -2.478217333555221558e-01 -2.812710106372833252e-01
2.150000000000000000e+03 7.754389953613281250e+01 -1.605452775955200195e+00 -2.824778296053409576e-02 -6.110054999589920044e-02 -2.680449932813644409e-02 -6.875772774219512939e-02
2.151000000000000000e+03 7.683673858642578125e+01 -3.109642982482910156e+00 -3.736763074994087219e-02 -3.891084343194961548e-02 -2.288354188203811646e-02 -5.160781741142272949e-02
2.152000000000000000e+03 7.754409790039062500e+01 -2.398627519607543945e+00 -2.585673518478870392e-02 -4.100703448057174683e-02 -2.005913108587265015e-02 -5.235795676708221436e-02
2.153000000000000000e+03 7.754148864746093750e+01 -3.186414241790771484e+00 -2.310553938150405884e-02 -2.556098252534866333e-02 -1.459995657205581665e-02 -3.793411701917648315e-02
2.154000000000000000e+03 7.820177459716796875e+01 1.189895820617675781e+01 2.207614947110414505e-03 -1.107465386390686035e+00 -3.315773308277130127e-01 -2.121957242488861084e-01
2.155000000000000000e+03 7.752072143554687500e+01 5.583037376403808594e+00 -2.307663857936859131e-02 -4.609544575214385986e-01 -1.452093273401260376e-01 -2.327031791210174561e-01
2.156000000000000000e+03 7.753720855712890625e+01 2.391718864440917969e+00 -3.143654391169548035e-02 -2.344949245452880859e-01 -7.977943867444992065e-02 -1.634988039731979370e-01
2.157000000000000000e+03 7.752949523925781250e+01 3.991481065750122070e+00 -2.820246480405330658e-02 -3.392255902290344238e-01 -1.102284118533134460e-01 -2.005784660577774048e-01
2.158000000000000000e+03 7.752498626708984375e+01 4.788595199584960938e+00 -2.619985863566398621e-02 -3.983304798603057861e-01 -1.273590922355651855e-01 -2.175950109958648682e-01
2.159000000000000000e+03 7.683272552490234375e+01 2.463130474090576172e+00 -5.018917098641395569e-02 -2.400644421577453613e-01 -8.707608282566070557e-02 -2.063336521387100220e-01
2.160000000000000000e+03 7.819700622558593750e+01 1.269605827331542969e+01 4.848971962928771973e-03 -1.191337585449218750e+00 -3.559465706348419189e-01 -2.102153450250625610e-01
2.161000000000000000e+03 7.745546722412109375e+01 1.435539817810058594e+01 1.328838616609573364e-02 -1.276171684265136719e+00 -3.788649737834930420e-01 -2.729696333408355713e-01
2.162000000000000000e+03 7.747638702392578125e+01 1.195873737335205078e+01 5.118346773087978363e-03 -1.050690889358520508e+00 -3.136717677116394043e-01 -2.857632935047149658e-01
2.163000000000000000e+03 7.815990447998046875e+01 1.828477478027343750e+01 1.113694626837968826e-02 -1.721064805984497070e+00 -5.129783749580383301e-01 -1.661489307880401611e-01
2.164000000000000000e+03 7.743408966064453125e+01 1.675105094909667969e+01 2.028867043554782867e-02 -1.483652472496032715e+00 -4.390091300010681152e-01 -2.464193999767303467e-01
2.165000000000000000e+03 7.736963653564453125e+01 2.075394248962402344e+01 2.533363550901412964e-02 -1.764318585395812988e+00 -5.216954946517944336e-01 -1.881397217512130737e-01
2.166000000000000000e+03 7.805928039550781250e+01 2.468112564086914062e+01 1.438853051513433456e-02 -2.108770847320556641e+00 -6.283146739006042480e-01 -8.669975399971008301e-02
2.167000000000000000e+03 7.731999969482421875e+01 2.314929580688476562e+01 2.882850356400012970e-02 -1.888486027717590332e+00 -5.578972697257995605e-01 -1.490984708070755005e-01
2.168000000000000000e+03 7.457708740234375000e+01 -8.950560569763183594e+00 -9.494589641690254211e-03 -1.286277547478675842e-02 -6.707209162414073944e-03 9.226734749972820282e-03
2.169000000000000000e+03 7.804109954833984375e+01 -7.297453880310058594e+00 -4.852319601923227310e-03 1.547061279416084290e-02 3.185488050803542137e-03 9.780492633581161499e-03
2.170000000000000000e+03 7.746071624755859375e+01 1.355560111999511719e+01 1.149793714284896851e-02 -1.202102541923522949e+00 -3.571813702583312988e-01 -2.791434228420257568e-01
2.171000000000000000e+03 7.746760559082031250e+01 1.275608634948730469e+01 7.529474794864654541e-03 -1.126875042915344238e+00 -3.358036577701568604e-01 -2.836252748966217041e-01
2.172000000000000000e+03 7.668378448486328125e+01 1.681023025512695312e+01 3.147666528820991516e-02 -1.385234713554382324e+00 -4.061273932456970215e-01 -3.048086762428283691e-01
2.173000000000000000e+03 7.741342926025390625e+01 1.834947204589843750e+01 2.237155474722385406e-02 -1.606556415557861328e+00 -4.752554595470428467e-01 -2.242738902568817139e-01
2.174000000000000000e+03 7.742363739013671875e+01 1.755038833618164062e+01 2.073034457862377167e-02 -1.547103404998779297e+00 -4.579119086265563965e-01 -2.356324940919876099e-01
2.175000000000000000e+03 7.744417572021484375e+01 1.595210361480712891e+01 1.776140555739402771e-02 -1.417657375335693359e+00 -4.199687838554382324e-01 -2.561095654964447021e-01
2.176000000000000000e+03 7.651351165771484375e+01 2.401707267761230469e+01 4.600307717919349670e-02 -1.771948695182800293e+00 -5.177836418151855469e-01 -1.658170074224472046e-01
2.177000000000000000e+03 7.729515075683593750e+01 2.394959640502929688e+01 2.873840741813182831e-02 -1.920807838439941406e+00 -5.676208138465881348e-01 -1.324007064104080200e-01
2.178000000000000000e+03 7.721874237060546875e+01 2.639357948303222656e+01 2.176024951040744781e-02 -1.999655365943908691e+00 -5.933685302734375000e-01 -9.620276093482971191e-02
2.179000000000000000e+03 7.725782012939453125e+01 2.800185012817382812e+01 1.346920058131217957e-02 -2.053346395492553711e+00 -6.119631528854370117e-01 -7.342241704463958740e-02
2.180000000000000000e+03 7.709654235839843750e+01 -9.868150711059570312e+00 1.474546734243631363e-03 3.742681583389639854e-03 1.565168495289981365e-03 1.619823649525642395e-02
2.181000000000000000e+03 7.702032470703125000e+01 -8.974672317504882812e+00 -2.591792726889252663e-03 2.944902284070849419e-03 1.059328933479264379e-04 1.520055346190929413e-02
2.182000000000000000e+03 7.722264099121093750e+01 2.720947265625000000e+01 1.843536458909511566e-02 -2.026426076889038086e+00 -6.023972034454345703e-01 -8.224710822105407715e-02
2.183000000000000000e+03 7.760289001464843750e+01 3.082055473327636719e+01 3.633075859397649765e-03 -2.185432434082031250e+00 -6.545397639274597168e-01 -4.217773675918579102e-02
2.184000000000000000e+03 7.754133605957031250e+01 3.022574806213378906e+01 1.405486557632684708e-02 -2.151731491088867188e+00 -6.413030028343200684e-01 -4.984781891107559204e-02
2.185000000000000000e+03 4.450251770019531250e+01 -2.309711647033691406e+01 5.025245547294616699e-01 2.898077011108398438e+00 1.020180463790893555e+00 -1.156489491462707520e+00
2.186000000000000000e+03 7.804410552978515625e+01 3.235845184326171875e+01 8.458533324301242828e-03 -2.299843549728393555e+00 -6.874154806137084961e-01 -2.440288290381431580e-02
2.187000000000000000e+03 7.815785980224609375e+01 3.159391021728515625e+01 3.579428652301430702e-03 -2.316592216491699219e+00 -6.939038038253784180e-01 -3.016494028270244598e-02
2.188000000000000000e+03 7.708384704589843750e+01 3.299594116210937500e+01 1.391795091331005096e-02 -2.084384918212890625e+00 -6.211400628089904785e-01 -3.101828880608081818e-02
2.189000000000000000e+03 4.293844604492187500e+01 2.462946128845214844e+01 1.825534105300903320e-01 7.123972415924072266e+00 2.191957712173461914e+00 -1.085487529635429382e-01
2.190000000000000000e+03 4.609024810791015625e+01 -2.483437347412109375e+01 5.020629167556762695e-01 1.864441156387329102e+00 7.099512219429016113e-01 -9.636583924293518066e-01
2.191000000000000000e+03 4.777908325195312500e+01 -2.679925727844238281e+01 3.798434138298034668e-01 1.320205211639404297e+00 5.100145936012268066e-01 -7.710798382759094238e-01
2.192000000000000000e+03 4.528623962402343750e+01 2.382562637329101562e+01 4.908054769039154053e-01 5.993539810180664062e+00 1.945303559303283691e+00 1.709325760602951050e-01
2.193000000000000000e+03 2.473508358001708984e+00 -1.642181205749511719e+01 9.452920407056808472e-02 -7.615740895271301270e-01 -2.001134604215621948e-01 -7.074674963951110840e-02
2.194000000000000000e+03 7.549947357177734375e+01 -1.010453319549560547e+01 2.682702150195837021e-03 -4.984719213098287582e-03 -6.906050839461386204e-04 1.429171953350305557e-02
2.195000000000000000e+03 4.943635940551757812e+01 -2.902108383178710938e+01 2.097007334232330322e-01 1.072605729103088379e+00 3.846919238567352295e-01 -5.788117051124572754e-01
2.196000000000000000e+03 4.167173767089843750e+01 9.869215965270996094e+00 1.403268694877624512e+00 1.003580093383789062e+01 3.431720733642578125e+00 3.012619495391845703e+00
2.197000000000000000e+03 4.351620483398437500e+01 1.201077461242675781e+01 1.302320957183837891e+00 7.665569305419921875e+00 2.690366983413696289e+00 2.221350193023681641e+00
2.198000000000000000e+03 4.017496490478515625e+01 3.753681898117065430e+00 -1.324936032295227051e+00 9.282510757446289062e+00 2.387272357940673828e+00 1.518805742263793945e+00
2.199000000000000000e+03 3.695284843444824219e+00 -2.869169044494628906e+01 -1.535325348377227783e-01 -1.415058821439743042e-01 -8.851151913404464722e-02 2.052940875291824341e-01
2.200000000000000000e+03 1.774834513664245605e+00 -2.749307060241699219e+01 -5.385306105017662048e-02 -1.522709131240844727e-01 -6.183719262480735779e-02 1.937799602746963501e-01
2.201000000000000000e+03 7.563552093505859375e+01 3.873684310913085938e+01 1.208367664366960526e-02 -1.873366236686706543e+00 -5.583847761154174805e-01 -1.347313635051250458e-02
2.202000000000000000e+03 4.388347625732421875e+01 -2.253218269348144531e+01 4.445180296897888184e-01 3.498937845230102539e+00 1.183036804199218750e+00 -1.183901548385620117e+00
2.203000000000000000e+03 4.361319732666015625e+01 1.887704658508300781e+01 4.231231808662414551e-01 7.371436119079589844e+00 2.338367700576782227e+00 8.320917487144470215e-01
2.204000000000000000e+03 7.082997131347656250e+01 -2.278934097290039062e+01 -7.093989552231505513e-05 -3.401570720598101616e-04 -1.233290968229994178e-04 2.483162679709494114e-04
2.205000000000000000e+03 1.853372693061828613e+00 2.642861175537109375e+01 -1.591512227605562657e-05 3.257313801441341639e-05 4.997404630557866767e-06 -7.302898302441462874e-05
2.206000000000000000e+03 2.173922538757324219e+00 3.527437210083007812e+01 -8.754627924645319581e-05 3.955230931751430035e-04 9.239304199581965804e-05 -1.351709215668961406e-04
2.207000000000000000e+03 1.911559224128723145e+00 2.884704017639160156e+01 8.535434972145594656e-06 9.640557254897430539e-05 3.148230098304338753e-05 -9.647746992413885891e-06
2.208000000000000000e+03 3.102691173553466797e+00 3.355815505981445312e+01 5.733912985306233168e-05 1.376436412101611495e-04 5.849483204656280577e-05 -2.396113704890012741e-04
2.209000000000000000e+03 2.756216049194335938e+00 -5.276203632354736328e+00 -5.089895427227020264e-02 -1.586224734783172607e-01 -6.285642832517623901e-02 -1.903833597898483276e-01
2.210000000000000000e+03 2.527574777603149414e+00 -1.315944480895996094e+01 3.426389396190643311e-02 -6.494789123535156250e-01 -1.845645010471343994e-01 -2.360793054103851318e-01
2.211000000000000000e+03 2.034801483154296875e+00 -3.662928771972656250e+01 7.885008817538619041e-04 4.374353215098381042e-02 1.335960999131202698e-02 -1.377620175480842590e-02
2.212000000000000000e+03 2.475793123245239258e+00 -1.475268077850341797e+01 6.385535746812820435e-02 -7.286283969879150391e-01 -1.994319111108779907e-01 -1.732325255870819092e-01
2.213000000000000000e+03 2.882348775863647461e+00 -3.571721267700195312e+01 -3.093456616625189781e-03 -8.604747243225574493e-03 -3.509461181238293648e-03 -1.595570333302021027e-02
2.214000000000000000e+03 6.075940608978271484e+00 -2.927064895629882812e+01 -2.538240253925323486e-01 -2.895854413509368896e-01 -1.630228310823440552e-01 2.151723504066467285e-01
2.215000000000000000e+03 1.754705667495727539e+00 -1.721793746948242188e+01 6.431276351213455200e-02 -9.905066490173339844e-01 -2.778581678867340088e-01 -1.686709560453891754e-02
2.216000000000000000e+03 2.497441053390502930e+00 -1.557552242279052734e+01 8.921694755554199219e-02 -7.452830076217651367e-01 -1.968198269605636597e-01 -1.258571296930313110e-01
2.217000000000000000e+03 1.719743967056274414e+00 -2.104418182373046875e+01 4.777278751134872437e-02 -8.276153206825256348e-01 -2.339527606964111328e-01 2.074761241674423218e-01
2.218000000000000000e+03 1.806799054145812988e+00 -2.181545639038085938e+01 5.005376785993576050e-02 -7.177078723907470703e-01 -2.002962380647659302e-01 2.613859176635742188e-01
2.219000000000000000e+03 1.798926115036010742e+00 -2.261727714538574219e+01 2.890402637422084808e-02 -6.422368884086608887e-01 -1.839998662471771240e-01 2.815495729446411133e-01
2.220000000000000000e+03 2.463461399078369141e+00 -1.807723808288574219e+01 1.137482225894927979e-01 -7.393629550933837891e-01 -1.876844167709350586e-01 5.841986462473869324e-02
2.221000000000000000e+03 2.410218954086303711e+00 -1.724883460998535156e+01 1.105547398328781128e-01 -7.824547886848449707e-01 -2.015700191259384155e-01 -1.104708481580018997e-02
2.222000000000000000e+03 2.448213338851928711e+00 -1.889872741699218750e+01 1.125338822603225708e-01 -7.300907969474792480e-01 -1.852670609951019287e-01 1.153967306017875671e-01
2.223000000000000000e+03 1.722130417823791504e+00 -1.882249069213867188e+01 5.261734873056411743e-02 -9.779502153396606445e-01 -2.775998413562774658e-01 8.645386993885040283e-02
2.224000000000000000e+03 4.582054138183593750e+00 -1.824842262268066406e+01 3.028897345066070557e-01 -8.154992014169692993e-02 6.640194356441497803e-02 1.478186845779418945e-01
2.225000000000000000e+03 5.125031948089599609e+00 -2.049458312988281250e+01 2.354128211736679077e-01 2.675647437572479248e-01 1.508932709693908691e-01 3.260554969310760498e-01
2.226000000000000000e+03 1.802381753921508789e+00 1.999752616882324219e+01 -4.185978832538239658e-05 -7.174271559051703662e-06 -1.471021823817864060e-05 7.760122322508777870e-09
2.227000000000000000e+03 2.546416521072387695e+00 2.150181961059570312e+01 5.013787813368253410e-05 -3.678911397742012923e-08 1.503032672189874575e-05 7.228194590425118804e-06
2.228000000000000000e+03 2.425361633300781250e+00 -9.955410957336425781e+00 -8.897010236978530884e-03 -4.698154032230377197e-01 -1.436137259006500244e-01 -2.602282464504241943e-01
2.229000000000000000e+03 1.790442705154418945e+00 1.517700386047363281e+01 -2.792896339087747037e-05 -9.766496077645570040e-06 -1.130863802245585248e-05 1.137346589530352503e-05
2.230000000000000000e+03 2.525170326232910156e+00 1.988470077514648438e+01 4.350742528913542628e-05 -2.801095433824229985e-06 1.221189904754282907e-05 2.661601911313482560e-06
2.231000000000000000e+03 3.253489732742309570e+00 1.979281425476074219e+01 -3.498614751151762903e-05 3.516757715260609984e-06 -9.440816938877105713e-06 -2.640827688082936220e-06
2.232000000000000000e+03 4.675208091735839844e+00 -2.382089042663574219e+01 2.936978451907634735e-02 -2.367589622735977173e-02 1.708166790194809437e-03 3.778544664382934570e-01
2.233000000000000000e+03 1.717537283897399902e+00 -2.340379524230957031e+01 1.059364620596170425e-02 -5.774598121643066406e-01 -1.700598448514938354e-01 2.887097299098968506e-01
2.234000000000000000e+03 2.670413017272949219e+00 -2.551675415039062500e+01 -5.513544008135795593e-02 -2.716484069824218750e-01 -9.803515672683715820e-02 3.515157103538513184e-01
2.235000000000000000e+03 2.464883804321289062e+00 -1.073396682739257812e+01 -2.118668518960475922e-03 -5.120501518249511719e-01 -1.542506515979766846e-01 -2.629971802234649658e-01
2.236000000000000000e+03 1.735980868339538574e+00 -9.970067977905273438e+00 -5.065677687525749207e-03 -5.631547570228576660e-01 -1.704661250114440918e-01 -2.051907926797866821e-01
2.237000000000000000e+03 3.052942991256713867e+00 -7.779663562774658203e+00 -3.879509121179580688e-02 -2.675524353981018066e-01 -9.190425276756286621e-02 -2.704310417175292969e-01
2.238000000000000000e+03 2.500356435775756836e+00 1.347032070159912109e+01 1.760535815265029669e-05 4.343026830611051992e-06 6.584515631402609870e-06 -5.884276106371544302e-06
2.239000000000000000e+03 2.500690698623657227e+00 1.107157135009765625e+01 -1.381495258101494983e-05 -5.499628059624228626e-06 -5.794373919343343005e-06 7.836825716367457062e-06
2.240000000000000000e+03 4.791910648345947266e+00 -2.465413665771484375e+01 -3.767437860369682312e-02 -8.782033622264862061e-02 -3.764841333031654358e-02 3.642375171184539795e-01
2.241000000000000000e+03 2.504158020019531250e+00 1.748314476013183594e+01 -3.228607238270342350e-05 -6.664256943622604012e-06 -1.168509879789780825e-05 9.580321602697949857e-06
2.242000000000000000e+03 2.499678373336791992e+00 1.508156394958496094e+01 2.318865517736412585e-05 3.669440957310143858e-06 8.057429113250691444e-06 -6.651114290434634313e-06
2.243000000000000000e+03 3.585968255996704102e+00 -2.721062660217285156e+01 -1.550333499908447266e-01 -1.607372313737869263e-01 -9.473117440938949585e-02 3.007551431655883789e-01
2.244000000000000000e+03 1.777852892875671387e+00 9.556266784667968750e+00 1.229879762831842527e-05 1.770772882991877850e-06 4.220871232973877341e-06 -4.677874585468089208e-06
2.245000000000000000e+03 2.500107526779174805e+00 1.266587162017822266e+01 -1.720177715469617397e-05 -7.636454938619863242e-06 -7.451469627994811162e-06 9.519438208371866494e-06
2.246000000000000000e+03 4.966206073760986328e+00 -2.629637908935546875e+01 -2.114428430795669556e-01 -1.843835264444351196e-01 -1.187479048967361450e-01 3.467470109462738037e-01
2.247000000000000000e+03 1.870739340782165527e+00 2.723554611206054688e+01 2.854632475646212697e-05 5.230797614785842597e-05 2.425628917990252376e-05 2.036760633927769959e-06
2.248000000000000000e+03 2.679831743240356445e+00 2.874249267578125000e+01 7.028961590549442917e-06 5.560904901358298957e-05 1.879140290839131922e-05 -1.462462678318843246e-04
2.249000000000000000e+03 2.498163223266601562e+00 1.026580905914306641e+01 1.125664402934489772e-05 2.647260544108576141e-06 4.171171440248144791e-06 -4.853567588725127280e-06
2.250000000000000000e+03 5.009957790374755859e+00 -2.714034080505371094e+01 -2.439033836126327515e-01 -2.082857787609100342e-01 -1.356567442417144775e-01 2.988845407962799072e-01
2.251000000000000000e+03 2.493077993392944336e+00 9.456409454345703125e+00 -1.064713887899415568e-05 -4.198980150249553844e-06 -4.453835572348907590e-06 6.819125701440498233e-06
2.252000000000000000e+03 1.860095500946044922e+00 -2.989380073547363281e+01 -4.132026433944702148e-02 -2.278094552457332611e-02 -1.923036389052867889e-02 8.808366209268569946e-02
2.253000000000000000e+03 3.032108306884765625e+00 -2.811231231689453125e+01 -1.201208680868148804e-01 -1.391853988170623779e-01 -7.779188454151153564e-02 2.287064045667648315e-01
2.254000000000000000e+03 2.624480485916137695e+00 2.712607955932617188e+01 -1.485687971580773592e-05 3.610349813243374228e-05 6.373985797836212441e-06 -1.098893844755366445e-04
2.255000000000000000e+03 4.162860393524169922e+00 2.698387336730957031e+01 -2.818912798829842359e-05 1.395259187120245770e-05 -4.270960744179319590e-06 -1.476504694437608123e-04
2.256000000000000000e+03 2.575146436691284180e+00 2.472344970703125000e+01 6.116506119724363089e-05 1.547121064504608512e-05 2.299088009749539196e-05 8.747035280975978822e-06
2.257000000000000000e+03 1.747003197669982910e+00 6.414173126220703125e+00 6.996524916758062318e-06 1.405027887813048437e-06 2.520465841371333227e-06 -3.457940920270630158e-06
2.258000000000000000e+03 2.484656095504760742e+00 7.868020057678222656e+00 -7.972073035489302129e-06 -3.575412847567349672e-06 -3.464245764916995540e-06 5.677782155544264242e-06
2.259000000000000000e+03 1.827209830284118652e+00 2.402007675170898438e+01 4.672969589591957629e-05 7.650607585674151778e-06 1.631409031688235700e-05 8.057675586314871907e-06
2.260000000000000000e+03 2.557542800903320312e+00 2.310587120056152344e+01 5.586548286373727024e-05 6.194005891302367672e-06 1.861784585344139487e-05 9.400468115927651525e-06
2.261000000000000000e+03 4.083285331726074219e+00 4.008951663970947266e+00 1.621270712348632514e-06 1.032963268698949832e-06 7.962702284203260206e-07 -3.647838411779957823e-06
2.262000000000000000e+03 2.845949888229370117e+00 -3.548394918441772461e+00 -6.559233367443084717e-02 -8.315325528383255005e-02 -4.462367668747901917e-02 -1.379491388797760010e-01
2.263000000000000000e+03 2.831685304641723633e+00 -4.415476799011230469e+00 -5.715027451515197754e-02 -1.196846887469291687e-01 -5.305048823356628418e-02 -1.672970950603485107e-01
2.264000000000000000e+03 1.997473835945129395e+00 -4.363770961761474609e+00 -3.290059790015220642e-02 -1.335847228765487671e-01 -4.994559660553932190e-02 -1.262717843055725098e-01
2.265000000000000000e+03 1.913731336593627930e+00 -3.070210647583007812e+01 -3.774480149149894714e-02 1.954508916242048144e-04 -1.126480475068092346e-02 6.132065132260322571e-02
2.266000000000000000e+03 2.675388813018798828e+00 -3.062480545043945312e+01 -6.368725746870040894e-02 -5.555791035294532776e-02 -3.577354922890663147e-02 8.419198542833328247e-02
2.267000000000000000e+03 1.945844650268554688e+00 -3.152214050292968750e+01 -2.827187441289424896e-02 1.798266358673572540e-02 -3.086762968450784683e-03 3.772686049342155457e-02
2.268000000000000000e+03 6.708024501800537109e+00 -2.961304473876953125e+01 -2.715885937213897705e-01 -3.195520937442779541e-01 -1.773422062397003174e-01 2.272325307130813599e-01
2.269000000000000000e+03 3.453210115432739258e+00 -3.145821952819824219e+01 -7.778698951005935669e-02 -8.910623192787170410e-02 -5.006796866655349731e-02 6.732823699712753296e-02
2.270000000000000000e+03 2.866816997528076172e+00 3.194702911376953125e+01 6.002373629598878324e-05 1.127464201999828219e-04 5.183104804018512368e-05 -1.978831569431349635e-04
2.271000000000000000e+03 2.004989624023437500e+00 3.126958847045898438e+01 5.965961463516578078e-05 1.441110216546803713e-04 6.113119161454960704e-05 -1.529415749246254563e-04
2.272000000000000000e+03 3.118765115737915039e+00 3.440979766845703125e+01 -6.454972753999754786e-05 3.437865816522389650e-04 8.377106132684275508e-05 -1.746678462950512767e-04
2.273000000000000000e+03 3.964047670364379883e+00 3.458649444580078125e+01 1.669523189775645733e-04 -5.100871931063011289e-05 3.478307917248457670e-05 -1.522172387922182679e-04
2.274000000000000000e+03 2.792741537094116211e+00 -3.480941009521484375e+01 -1.068440731614828110e-02 -6.429536268115043640e-03 -5.134182982146739960e-03 -1.075472030788660049e-02
2.275000000000000000e+03 2.750199556350708008e+00 3.034951019287109375e+01 3.412655860302038491e-05 8.163922757375985384e-05 3.472973548923619092e-05 -1.824201754061505198e-04
2.276000000000000000e+03 1.277944755554199219e+01 1.762588882446289062e+01 -1.177667800220660865e-04 -4.138006988796405494e-05 -4.774405533680692315e-05 1.869401967269368470e-05
2.277000000000000000e+03 2.737413883209228516e+00 -3.396200942993164062e+01 -1.803001575171947479e-02 -8.246859535574913025e-03 -7.883062586188316345e-03 -1.064356765709817410e-03
2.278000000000000000e+03 3.318551778793334961e+00 4.182727050781250000e+01 -5.170774966245517135e-05 8.022388792596757412e-04 2.251593396067619324e-04 -2.157756243832409382e-04
2.279000000000000000e+03 1.053582310676574707e+00 4.198243618011474609e+00 4.664155767386546358e-06 3.753094404146395391e-07 1.511839627710287459e-06 -2.111132062054821290e-06
2.280000000000000000e+03 3.277138948440551758e+00 3.669829177856445312e+01 8.843132673064246774e-05 2.006560680456459522e-04 8.672622061567381024e-05 -9.081375173991546035e-05
2.281000000000000000e+03 3.973526954650878906e+00 -3.633517074584960938e+01 -4.932192154228687286e-03 -6.073693558573722839e-02 -1.970073767006397247e-02 -1.094844751060009003e-02
2.282000000000000000e+03 6.778704643249511719e+00 -1.671070861816406250e+01 5.951326489448547363e-01 4.161039888858795166e-01 3.033709824085235596e-01 1.645491570234298706e-01
2.283000000000000000e+03 1.438495826721191406e+01 1.666558456420898438e+01 -2.866061913664452732e-05 -2.568123272794764489e-05 -1.630255610507447273e-05 -4.138712756684981287e-05
2.284000000000000000e+03 2.548221206665039062e+01 -3.412769699096679688e+01 -1.477201879024505615e-01 2.192555963993072510e-01 2.146062441170215607e-02 1.474351733922958374e-01
2.285000000000000000e+03 2.443370437622070312e+01 -4.311824798583984375e+00 -9.663466811180114746e-01 -1.332433223724365234e-01 -3.298769891262054443e-01 -4.974632859230041504e-01
2.286000000000000000e+03 2.587683868408203125e+01 -3.414819240570068359e+00 -1.547392845153808594e+00 -2.150383740663528442e-01 -5.287293791770935059e-01 -5.433691143989562988e-01
2.287000000000000000e+03 1.792119789123535156e+01 6.592376708984375000e+00 1.371650887449504808e-05 5.855365998286288232e-06 5.871562279935460538e-06 7.709450073889456689e-06
2.288000000000000000e+03 1.631345939636230469e+01 3.734154701232910156e+00 7.459930202458053827e-06 4.935358902002917603e-06 3.718586640388821252e-06 -1.954884737642714754e-06
2.289000000000000000e+03 1.022814464569091797e+01 -3.208525466918945312e+01 -3.111850321292877197e-01 -2.281587570905685425e-01 -1.618031412363052368e-01 1.752106845378875732e-01
2.290000000000000000e+03 1.470185661315917969e+01 1.348606491088867188e+01 1.214646817970788106e-05 2.836968815245199949e-05 1.215484644490061328e-05 1.738971695885993540e-05
2.291000000000000000e+03 1.583673000335693359e+01 3.275411224365234375e+01 1.207879511639475822e-03 -5.295545561239123344e-04 2.034974750131368637e-04 -1.632384373806416988e-04
2.292000000000000000e+03 1.487816333770751953e+01 1.513866901397705078e+01 -3.354002546984702349e-05 -1.596018591953907162e-05 -1.485006396251264960e-05 -3.666430711746215820e-05
2.293000000000000000e+03 1.365452384948730469e+01 -3.400468826293945312e+01 -2.667897045612335205e-01 -1.051495149731636047e-01 -1.115817651152610779e-01 5.655576661229133606e-02
2.294000000000000000e+03 1.420888805389404297e+01 1.493301296234130859e+01 -1.563261434966989327e-06 5.302470526657998562e-06 1.121762693401251454e-06 2.918831160059198737e-05
2.295000000000000000e+03 6.867568969726562500e+01 -1.073142242431640625e+01 1.679287478327751160e-02 -1.706042210571467876e-03 4.526049364358186722e-03 -1.820955984294414520e-02
2.296000000000000000e+03 3.959656906127929688e+01 -1.138364791870117188e+01 7.800890803337097168e-01 1.055662918090820312e+01 3.401015520095825195e+00 1.603609174489974976e-01
2.297000000000000000e+03 1.336949348449707031e+01 2.094408607482910156e+01 -4.671396163757890463e-05 -1.583206721988972276e-05 -1.876380883913952857e-05 -8.320112101500853896e-06
2.298000000000000000e+03 1.405351257324218750e+01 2.179440879821777344e+01 -8.301639172714203596e-05 2.760599727480439469e-06 -2.407673855486791581e-05 -3.462590757408179343e-05
2.299000000000000000e+03 5.564706039428710938e+01 4.567094147205352783e-01 -2.850015163421630859e+00 3.251207619905471802e-02 -8.452509045600891113e-01 3.995085135102272034e-02
2.300000000000000000e+03 1.374411678314208984e+01 2.969306373596191406e+01 2.074551448458805680e-04 -2.349383285036310554e-04 -8.244955097325146198e-06 -1.595239446032792330e-04
2.301000000000000000e+03 2.026172256469726562e+01 -4.727172374725341797e+00 -5.962837934494018555e-01 -7.032208889722824097e-02 -1.999817490577697754e-01 -1.509437263011932373e-01
2.302000000000000000e+03 7.168547821044921875e+01 -9.826394081115722656e+00 9.627247891330625862e-06 -1.823248900473117828e-02 -5.466858390718698502e-03 -2.462449250742793083e-03
2.303000000000000000e+03 7.317680358886718750e+01 -9.693293571472167969e+00 -2.422025892883539200e-03 -1.496686507016420364e-02 -5.216667428612709045e-03 4.848373122513294220e-03
2.304000000000000000e+03 5.022922897338867188e+01 -2.968595123291015625e+01 1.641304045915603638e-01 9.108770489692687988e-01 3.225022554397583008e-01 -5.150080919265747070e-01
2.305000000000000000e+03 3.802246093750000000e+01 7.637544274330139160e-01 -2.639387845993041992e+00 6.553050041198730469e+00 1.174098730087280273e+00 3.509395122528076172e-01
2.306000000000000000e+03 5.000606536865234375e+01 3.082627534866333008e+00 -3.340233087539672852e+00 1.566858142614364624e-01 -9.550641775131225586e-01 -5.111230611801147461e-01
2.307000000000000000e+03 4.759023284912109375e+01 2.303780555725097656e+00 -5.028880596160888672e+00 -9.565843939781188965e-01 -1.795639514923095703e+00 -5.000603199005126953e-02
2.308000000000000000e+03 6.099386215209960938e+00 -5.386188507080078125e+00 -1.630716025829315186e-01 -1.452405378222465515e-02 -5.327869951725006104e-02 -2.768144905567169189e-01
2.309000000000000000e+03 6.833779811859130859e+00 -3.261097431182861328e+00 -2.440406233072280884e-01 1.489770878106355667e-02 -6.874287873506546021e-02 -1.904433071613311768e-01
2.310000000000000000e+03 7.526319980621337891e+00 -4.051212310791015625e+00 -2.542075812816619873e-01 3.263559564948081970e-02 -6.647159904241561890e-02 -2.230192273855209351e-01
2.311000000000000000e+03 6.122306823730468750e+00 -3.918740987777709961e+00 -1.963075399398803711e-01 -6.247045006603002548e-03 -6.076637655496597290e-02 -2.175229489803314209e-01
2.312000000000000000e+03 4.608479499816894531e+00 -4.361802577972412109e+00 -1.259228289127349854e-01 -5.965517833828926086e-02 -5.567340180277824402e-02 -2.214234173297882080e-01
2.313000000000000000e+03 6.770936489105224609e+00 -3.949425697326660156e+00 -2.248922437429428101e-01 1.370413322001695633e-02 -6.335642933845520020e-02 -2.230269908905029297e-01
2.314000000000000000e+03 4.156883621215820312e+01 -2.013331651687622070e+00 4.434909820556640625e-01 1.095201969146728516e+01 3.418653249740600586e+00 1.575525283813476562e+00
2.315000000000000000e+03 3.808426284790039062e+01 1.953456044197082520e+00 -1.982662320137023926e+00 6.653142929077148438e+00 1.401144146919250488e+00 7.537246346473693848e-01
2.316000000000000000e+03 4.133917617797851562e+01 1.940457701683044434e+00 -3.502190828323364258e+00 9.226384162902832031e+00 1.717258095741271973e+00 7.652113437652587891e-01
2.317000000000000000e+03 4.995007705688476562e+01 2.378481388092041016e+00 -4.126811027526855469e+00 1.278357058763504028e-01 -1.199692606925964355e+00 -2.448696196079254150e-01
2.318000000000000000e+03 7.120235443115234375e+01 -2.407814216613769531e+01 -5.777293117716908455e-04 -5.159375141374766827e-04 -3.281000535935163498e-04 -5.009007145417854190e-05
2.319000000000000000e+03 3.959363555908203125e+01 4.160919189453125000e+00 -3.812124431133270264e-01 9.407900810241699219e+00 2.708006381988525391e+00 2.045441150665283203e+00
2.320000000000000000e+03 4.418418121337890625e+01 1.386638164520263672e+00 -4.765165805816650391e+00 4.970305919647216797e+00 6.154206395149230957e-02 1.674607396125793457e+00
2.321000000000000000e+03 1.603757286071777344e+01 1.127831745147705078e+01 2.958618824777659029e-05 6.971093625907087699e-06 1.096718460757983848e-05 1.406839965056860819e-05
2.322000000000000000e+03 1.564275074005126953e+01 1.034169292449951172e+01 1.678992521192412823e-05 5.020779099140781909e-06 6.543211384268943220e-06 1.432988756278064102e-05
2.323000000000000000e+03 1.198271179199218750e+01 -3.359552764892578125e+01 -2.621649205684661865e-01 -1.415896713733673096e-01 -1.211263760924339294e-01 1.016475185751914978e-01
2.324000000000000000e+03 3.649254608154296875e+01 -2.762855911254882812e+01 6.546241044998168945e-01 5.626704216003417969e+00 1.884398579597473145e+00 6.017314791679382324e-01
2.325000000000000000e+03 1.400344848632812500e+01 2.719236946105957031e+01 2.762003277894109488e-04 2.766874240478500724e-05 9.116072033066302538e-05 1.012080683722160757e-04
2.326000000000000000e+03 7.707690429687500000e+01 -8.049771308898925781e+00 -6.325509399175643921e-03 2.616339363157749176e-03 -1.112750964239239693e-03 1.273179892450571060e-02
2.327000000000000000e+03 1.518961906433105469e+01 -4.613452911376953125e+00 -4.817321300506591797e-01 8.623603731393814087e-03 -1.419325619935989380e-01 -1.228980198502540588e-01
2.328000000000000000e+03 1.601296997070312500e+01 -4.684049129486083984e+00 -4.930017292499542236e-01 -1.180819049477577209e-02 -1.514429748058319092e-01 -1.145991161465644836e-01
2.329000000000000000e+03 1.930015945434570312e+01 4.412446975708007812e+00 -4.598571194946998730e-06 -3.737048928087460808e-06 -2.500686150597175583e-06 -8.438374607067089528e-06
2.330000000000000000e+03 1.822952079772949219e+01 2.893305301666259766e+00 3.634461563706281595e-06 4.263742539478698745e-06 2.369461299167596735e-06 7.933115284686209634e-07
2.331000000000000000e+03 3.488248825073242188e+01 -1.033306479454040527e+00 -2.815843343734741211e+00 6.906518340110778809e-01 -6.375574469566345215e-01 -6.751621961593627930e-01
2.332000000000000000e+03 3.984031677246093750e+01 -1.472187519073486328e+01 8.243907690048217773e-01 9.703591346740722656e+00 3.158394575119018555e+00 -6.601659059524536133e-01
2.333000000000000000e+03 4.872705078125000000e+01 -2.825238800048828125e+01 2.724598050117492676e-01 1.202195048332214355e+00 4.423964619636535645e-01 -6.711967587471008301e-01
2.334000000000000000e+03 6.698489379882812500e+01 -4.271474838256835938e+00 -3.256500363349914551e-01 5.455122143030166626e-02 -8.132965117692947388e-02 3.141000494360923767e-02
2.335000000000000000e+03 3.927006530761718750e+01 -6.655849456787109375e+00 1.437344431877136230e+00 9.708363533020019531e+00 3.343712329864501953e+00 1.299002528190612793e+00
2.336000000000000000e+03 3.948970794677734375e+01 -8.211508750915527344e+00 1.459072470664978027e+00 1.070230102539062500e+01 3.648412227630615234e+00 1.265992045402526855e+00
2.337000000000000000e+03 5.761730957031250000e+01 -1.479819118976593018e-01 -2.564414024353027344e+00 -4.289613291621208191e-02 -7.821930646896362305e-01 1.674816757440567017e-02
2.338000000000000000e+03 5.618231964111328125e+01 1.374998331069946289e+00 -2.404582500457763672e+00 8.472195267677307129e-02 -6.959581971168518066e-01 -2.258564382791519165e-01
2.339000000000000000e+03 1.421658134460449219e+01 2.798872947692871094e+01 2.050637122010812163e-04 -1.576294744154438376e-05 5.679023161064833403e-05 1.827630476327612996e-04
2.340000000000000000e+03 1.540798377990722656e+01 2.951868057250976562e+01 4.903550143353641033e-04 -2.196922650909982622e-05 1.405157381668686867e-04 2.577084233053028584e-04
2.341000000000000000e+03 1.336113452911376953e+01 2.172928047180175781e+01 3.095004285569302738e-05 -6.060912710381671786e-06 7.466739589290227741e-06 1.190148122987011448e-05
2.342000000000000000e+03 3.955595779418945312e+01 -9.783365249633789062e+00 1.054532170295715332e+00 1.084473419189453125e+01 3.569779872894287109e+00 7.800329923629760742e-01
2.343000000000000000e+03 3.734442901611328125e+01 -2.288081932067871094e+01 6.601692438125610352e-01 6.710148811340332031e+00 2.211095333099365234e+00 1.078654527664184570e+00
2.344000000000000000e+03 9.547279357910156250e+00 -1.428533744812011719e+01 6.596508622169494629e-01 3.761371076107025146e-01 3.107363879680633545e-01 5.094652064144611359e-03
2.345000000000000000e+03 4.166038131713867188e+01 7.146908760070800781e+00 1.179291129112243652e+00 9.020192146301269531e+00 3.059844970703125000e+00 2.772902250289916992e+00
2.346000000000000000e+03 1.611361503601074219e+01 5.536674976348876953e+00 -4.162837186072465556e-08 8.197144779842346907e-06 2.446654889354249462e-06 3.484951548671233468e-06
2.347000000000000000e+03 2.086557006835937500e+01 -3.366314315795898438e+01 -3.446492552757263184e-01 -2.334809117019176483e-02 -1.103992015123367310e-01 -6.140454113483428955e-02
2.348000000000000000e+03 4.267642593383789062e+01 1.134633731842041016e+01 1.221725821495056152e+00 8.684430122375488281e+00 2.971846818923950195e+00 2.527822256088256836e+00
2.349000000000000000e+03 2.636259460449218750e+01 -1.633950805664062500e+01 5.185338258743286133e-01 -9.174142777919769287e-02 1.280377060174942017e-01 3.848947584629058838e-01
2.350000000000000000e+03 1.578605651855468750e+01 1.204732322692871094e+01 -3.065063719986937940e-05 -1.719195097393821925e-05 -1.435277590644545853e-05 -1.660995621932670474e-05
2.351000000000000000e+03 1.487628269195556641e+01 1.269856929779052734e+01 -1.715307189442683011e-05 -2.843817128450609744e-05 -1.367737240798305720e-05 -1.568495645187795162e-05
2.352000000000000000e+03 3.598833847045898438e+01 -1.862373733520507812e+01 -9.631901383399963379e-01 5.541409492492675781e+00 1.373465776443481445e+00 4.563020765781402588e-01
2.353000000000000000e+03 6.711995697021484375e+01 -3.070298385620117188e+01 -3.740727528929710388e-02 5.620757117867469788e-03 -9.535955265164375305e-03 -3.184962086379528046e-03
2.354000000000000000e+03 6.765535736083984375e+01 -2.998902893066406250e+01 -2.834486775100231171e-02 3.950566053390502930e-03 -7.318290881812572479e-03 -3.857955802232027054e-03
2.355000000000000000e+03 2.663224220275878906e+01 -3.349145889282226562e+00 -1.763251185417175293e+00 -3.270604014396667480e-01 -6.270934939384460449e-01 -6.694298982620239258e-01
2.356000000000000000e+03 1.437493991851806641e+01 -3.536904525756835938e+01 -1.923764050006866455e-01 -1.207146048545837402e-01 -9.392730891704559326e-02 2.186817303299903870e-02
2.357000000000000000e+03 6.717481994628906250e+01 -3.219493484497070312e+01 -4.702391102910041809e-02 1.139275543391704559e-02 -1.068934611976146698e-02 1.121108140796422958e-02
2.358000000000000000e+03 1.579235935211181641e+01 -3.458648681640625000e+01 -2.520473599433898926e-01 -7.401622831821441650e-02 -9.781908243894577026e-02 -2.316017402336001396e-03
2.359000000000000000e+03 1.709908294677734375e+01 -3.362351608276367188e+01 -3.300791978836059570e-01 -4.543581232428550720e-02 -1.126544997096061707e-01 -1.991366408765316010e-02
2.360000000000000000e+03 3.822282791137695312e+01 -4.301578521728515625e+00 3.311901390552520752e-01 7.369248390197753906e+00 2.310131549835205078e+00 9.977305531501770020e-01
2.361000000000000000e+03 6.429888916015625000e+01 -3.422478866577148438e+01 -6.826381385326385498e-02 6.397649645805358887e-03 -1.855984888970851898e-02 4.633834585547447205e-02
2.362000000000000000e+03 6.582888031005859375e+01 -3.357387924194335938e+01 -5.954790115356445312e-02 1.081991940736770630e-02 -1.461839489638805389e-02 3.071160614490509033e-02
2.363000000000000000e+03 1.662134742736816406e+01 8.066258430480957031e+00 -1.369827532471390441e-05 -7.895871931395959109e-06 -6.478243903984548524e-06 -9.993553248932585120e-06
2.364000000000000000e+03 1.971348762512207031e+01 2.303865671157836914e+00 -2.780051090667257085e-06 -3.585400008887518197e-06 -1.909635329866432585e-06 -1.477780642744619399e-06
2.365000000000000000e+03 5.833826541900634766e+00 -1.892111778259277344e+01 3.769460916519165039e-01 4.302938580513000488e-01 2.421719878911972046e-01 3.383935987949371338e-01
2.366000000000000000e+03 6.171195983886718750e+00 -1.816738891601562500e+01 5.085382461547851562e-01 4.428614974021911621e-01 2.854199111461639404e-01 3.274704515933990479e-01
2.367000000000000000e+03 4.060731887817382812e+01 -2.361975908279418945e+00 -7.258703559637069702e-02 1.012200260162353516e+01 3.014824628829956055e+00 1.216986536979675293e+00
2.368000000000000000e+03 3.024831581115722656e+01 -4.266788959503173828e+00 -9.911082983016967773e-01 -8.913761973381042480e-01 -5.647453665733337402e-01 -9.986822605133056641e-01
2.369000000000000000e+03 3.010227012634277344e+01 -3.601475715637207031e+00 -1.752193331718444824e+00 -9.109284877777099609e-01 -7.989365458488464355e-01 -1.149218678474426270e+00
2.370000000000000000e+03 4.598986053466796875e+01 2.798667192459106445e+00 -3.661850929260253906e+00 4.643144607543945312e-01 -9.592609405517578125e-01 1.417213559150695801e+00
2.371000000000000000e+03 1.824986457824707031e+01 3.491255569458007812e+01 1.582343131303787231e-03 9.359218529425561428e-04 7.554795010946691036e-04 8.337023609783500433e-05
2.372000000000000000e+03 1.664496231079101562e+01 3.485019302368164062e+01 9.198611951433122158e-04 -7.759996806271374226e-04 4.315845944802276790e-05 -4.228149482514709234e-04
2.373000000000000000e+03 4.310908508300781250e+01 1.381695079803466797e+01 1.018899083137512207e+00 8.334288597106933594e+00 2.805956125259399414e+00 1.828640580177307129e+00
2.374000000000000000e+03 4.502618312835693359e+00 -2.292641448974609375e+01 9.072922915220260620e-02 -1.106473803520202637e-02 2.389934845268726349e-02 3.769170343875885010e-01
2.375000000000000000e+03 4.190684127807617188e+01 8.008463859558105469e+00 1.462629556655883789e+00 8.943859100341796875e+00 3.121946573257446289e+00 2.908825397491455078e+00
2.376000000000000000e+03 3.904622650146484375e+01 -1.386199092864990234e+01 8.084052205085754395e-01 8.938314437866210938e+00 2.924015760421752930e+00 -3.150015473365783691e-01
2.377000000000000000e+03 2.778635406494140625e+01 -1.603743743896484375e+01 4.274482727050781250e-01 -1.028404384851455688e-01 9.738235175609588623e-02 5.918095707893371582e-01
2.378000000000000000e+03 2.805581092834472656e+01 -3.229210281372070312e+01 -5.079667642712593079e-02 3.130198717117309570e-01 7.866696268320083618e-02 4.104402065277099609e-01
2.379000000000000000e+03 1.424740886688232422e+01 2.536705398559570312e+01 -1.441139465896412730e-04 3.434233121879515238e-06 -4.220391565468162298e-05 5.818846693728119135e-05
2.380000000000000000e+03 7.426654338836669922e+00 -3.125204467773437500e+01 -2.492619305849075317e-01 -2.836422324180603027e-01 -1.598712503910064697e-01 1.591233611106872559e-01
2.381000000000000000e+03 7.310482501983642578e+00 -3.006146621704101562e+01 -3.058640062808990479e-01 -3.231891393661499023e-01 -1.887159496545791626e-01 2.412290126085281372e-01
2.382000000000000000e+03 3.350725173950195312e+01 -3.093210601806640625e+01 1.532381623983383179e-01 3.408607244491577148e+00 1.068553686141967773e+00 1.165700793266296387e+00
2.383000000000000000e+03 3.617181015014648438e+01 -2.985400390625000000e+01 2.677951753139495850e-02 4.657411575317382812e+00 1.405257344245910645e+00 4.828831255435943604e-01
2.384000000000000000e+03 3.539519500732421875e+01 -1.919752693176269531e+01 -1.159220337867736816e+00 5.285081863403320312e+00 1.237758398056030273e+00 5.485646128654479980e-01
2.385000000000000000e+03 3.683662033081054688e+01 -2.027198410034179688e+01 -5.977600067853927612e-02 6.622400760650634766e+00 1.968787431716918945e+00 1.042257070541381836e+00
2.386000000000000000e+03 1.466524696350097656e+01 3.060283088684082031e+01 6.955254502827301621e-05 -3.503920743241906166e-04 -8.425185660598799586e-05 5.935133231105282903e-05
2.387000000000000000e+03 3.313130950927734375e+01 -1.575176239013671875e+01 6.144812107086181641e-01 1.054763555526733398e+00 5.007734298706054688e-01 1.083186268806457520e-01
2.388000000000000000e+03 5.067826461791992188e+01 2.210942745208740234e+00 -3.968903303146362305e+00 2.668251991271972656e-01 -1.110623478889465332e+00 -2.066814452409744263e-01
2.389000000000000000e+03 4.340112686157226562e+01 1.632473754882812500e+01 7.475516796112060547e-01 7.872937202453613281e+00 2.586146593093872070e+00 1.313062787055969238e+00
2.390000000000000000e+03 5.429817676544189453e+00 -2.902413558959960938e+01 -2.355424761772155762e-01 -2.581729590892791748e-01 -1.481146365404129028e-01 2.077312469482421875e-01
2.391000000000000000e+03 3.660487747192382812e+01 -3.302166748046875000e+01 -5.791493058204650879e-01 3.824334144592285156e+00 9.735554456710815430e-01 2.110641747713088989e-01
2.392000000000000000e+03 2.711476564407348633e+00 -3.231731414794921875e+01 -3.823830187320709229e-02 -2.656719088554382324e-02 -1.944164745509624481e-02 2.984378859400749207e-02
2.393000000000000000e+03 1.124756336212158203e+01 3.614894628524780273e+00 4.421546236699214205e-06 4.787994498656189535e-07 1.470103711653791834e-06 -2.765959266071149614e-07
2.394000000000000000e+03 1.618651390075683594e+01 -1.514151096343994141e+01 9.315078258514404297e-01 2.419832907617092133e-02 2.867118418216705322e-01 -1.037846729159355164e-01
2.395000000000000000e+03 1.523032951354980469e+01 -1.560021495819091797e+01 1.085568308830261230e+00 9.760860353708267212e-02 3.549530506134033203e-01 -1.613386273384094238e-01
2.396000000000000000e+03 6.511097717285156250e+01 -2.687059402465820312e+00 -6.880535483360290527e-01 1.174706593155860901e-01 -1.711748689413070679e-01 9.581912308931350708e-03
2.397000000000000000e+03 8.040714263916015625e+00 4.554126739501953125e+00 -5.062835043645463884e-06 1.280914943890820723e-06 -1.134576109507179353e-06 -1.684843482507858425e-06
2.398000000000000000e+03 1.531370925903320312e+01 3.204667663574218750e+01 -4.506213008426129818e-05 -6.135646253824234009e-04 -1.975880149984732270e-04 1.974657061509788036e-04
2.399000000000000000e+03 1.505587577819824219e+01 3.293740463256835938e+01 1.406426192261278629e-03 -8.306833478854969144e-05 3.970073594246059656e-04 2.764311211649328470e-04
2.400000000000000000e+03 5.422466659545898438e+01 -3.346777725219726562e+01 -1.688842661678791046e-02 4.658829569816589355e-01 1.346983611583709717e-01 -2.533035278320312500e-01
2.401000000000000000e+03 4.286947631835937500e+01 2.894895744323730469e+01 9.287703633308410645e-01 6.475285053253173828e+00 2.221216678619384766e+00 -5.896643996238708496e-01
2.402000000000000000e+03 4.369085311889648438e+01 2.898821258544921875e+01 9.045385718345642090e-01 5.926379203796386719e+00 2.049275398254394531e+00 -3.670592606067657471e-01
2.403000000000000000e+03 1.404785442352294922e+01 2.015514373779296875e+01 -1.106717318180017173e-04 -2.448354644002392888e-05 -4.054658347740769386e-05 -3.933052357751876116e-05
2.404000000000000000e+03 3.249839782714843750e+01 -2.238420486450195312e+00 -2.915438652038574219e+00 -9.492502212524414062e-01 -1.159406661987304688e+00 -1.249920845031738281e+00
2.405000000000000000e+03 1.830676078796386719e+01 -3.501372909545898438e+01 -2.295029610395431519e-01 -5.003909021615982056e-02 -8.386261016130447388e-02 -3.653751686215400696e-02
2.406000000000000000e+03 1.458449077606201172e+01 -1.470831871032714844e+01 9.706841111183166504e-01 1.543718725442886353e-01 3.375167846679687500e-01 -6.662280112504959106e-02
2.407000000000000000e+03 6.246023941040039062e+01 -3.600571823120117188e+01 -2.224079100415110588e-03 -4.749308340251445770e-03 -2.092016162350773811e-03 5.706402286887168884e-02
2.408000000000000000e+03 3.791948318481445312e+01 -2.179553031921386719e+01 2.828530669212341309e-01 6.655297756195068359e+00 2.081445217132568359e+00 1.087736606597900391e+00
2.409000000000000000e+03 7.074504089355468750e+01 -2.500897598266601562e+01 -1.345447148196399212e-03 -2.722171193454414606e-04 -4.852993006352335215e-04 -2.788667334243655205e-04
2.410000000000000000e+03 1.939941596984863281e+01 -4.767076492309570312e+00 -5.578249096870422363e-01 -6.977624446153640747e-02 -1.882803440093994141e-01 -1.252653300762176514e-01
2.411000000000000000e+03 1.381418132781982422e+01 3.048185920715332031e+01 7.544972468167543411e-04 1.714111131150275469e-04 2.777725167106837034e-04 5.093297804705798626e-04
2.412000000000000000e+03 6.426461791992187500e+01 4.205103814601898193e-01 -1.037441611289978027e+00 1.926888078451156616e-01 -2.534258365631103516e-01 -3.871631622314453125e-01
2.413000000000000000e+03 6.331119155883789062e+01 -1.189506649971008301e+00 -1.122445464134216309e+00 1.316839307546615601e-01 -2.972284555435180664e-01 -1.071873232722282410e-01
2.414000000000000000e+03 1.947703170776367188e+01 -3.397360229492187500e+01 -3.079623878002166748e-01 -3.207342699170112610e-02 -1.020107418298721313e-01 -4.864544421434402466e-02
2.415000000000000000e+03 1.400269412994384766e+01 2.446720886230468750e+01 1.979570224648341537e-04 6.377849058480933309e-05 7.852065755287185311e-05 4.617311424226500094e-05
2.416000000000000000e+03 2.837138175964355469e+01 -3.898746013641357422e+00 -1.546789407730102539e+00 -6.922436952590942383e-01 -6.717098951339721680e-01 -9.782843589782714844e-01
2.417000000000000000e+03 6.791580963134765625e+01 -7.231180667877197266e+00 -4.839156568050384521e-02 -6.210250779986381531e-03 -1.638054475188255310e-02 5.603173281997442245e-03
2.418000000000000000e+03 1.882022285461425781e+01 3.668915939331054688e+01 1.880860654637217522e-03 7.492939475923776627e-04 7.890463457442820072e-04 3.242169987061060965e-05
2.419000000000000000e+03 2.112096977233886719e+01 -4.666159152984619141e+00 -6.447562575340270996e-01 -5.858061462640762329e-02 -2.110010534524917603e-01 -1.770893037319183350e-01
2.420000000000000000e+03 2.570349216461181641e+00 -2.681998062133789062e+01 -8.690337836742401123e-02 -1.975961774587631226e-01 -8.534986525774002075e-02 2.895116209983825684e-01
2.421000000000000000e+03 4.889803886413574219e+00 -2.547141838073730469e+01 -1.109773740172386169e-01 -1.546884328126907349e-01 -7.969973981380462646e-02 3.744533360004425049e-01
2.422000000000000000e+03 6.358692550659179688e+01 -3.359959793090820312e+01 -1.003748029470443726e-01 6.567422300577163696e-03 -2.814221382141113281e-02 3.635165095329284668e-02
2.423000000000000000e+03 2.754024505615234375e+01 -4.002456188201904297e+00 -1.436151027679443359e+00 -5.650066137313842773e-01 -6.003472805023193359e-01 -8.860215544700622559e-01
2.424000000000000000e+03 4.206674575805664062e+00 -1.894352149963378906e+01 2.663259804248809814e-01 -1.579674482345581055e-01 3.250756114721298218e-02 2.068690657615661621e-01
2.425000000000000000e+03 1.694564437866210938e+01 -1.541852951049804688e+01 9.068008065223693848e-01 -2.738446556031703949e-02 2.638249099254608154e-01 -1.119956299662590027e-01
2.426000000000000000e+03 1.560659122467041016e+01 -1.282418441772460938e+01 5.940515995025634766e-01 7.360878586769104004e-02 2.002981305122375488e-01 -3.347515687346458435e-02
2.427000000000000000e+03 6.469062042236328125e+01 -2.042642593383789062e+00 -8.325231075286865234e-01 1.453324854373931885e-01 -2.061571925878524780e-01 -5.448506399989128113e-02
2.428000000000000000e+03 2.933935165405273438e+00 -2.213571166992187500e+01 8.200692385435104370e-02 -4.216965734958648682e-01 -1.019068956375122070e-01 3.472328782081604004e-01
2.429000000000000000e+03 6.357743835449218750e+01 -3.521108627319335938e+01 -3.257497027516365051e-02 8.066232840064913034e-05 -9.748292155563831329e-03 6.012331694364547729e-02
2.430000000000000000e+03 4.143928527832031250e+01 -1.821405410766601562e+01 7.333413958549499512e-01 8.457404136657714844e+00 2.757223844528198242e+00 -9.357066154479980469e-01
2.431000000000000000e+03 4.216213226318359375e+01 -2.048573112487792969e+01 2.098834812641143799e-01 5.978917121887207031e+00 1.856640100479125977e+00 -8.813408017158508301e-01
2.432000000000000000e+03 3.630318450927734375e+01 -2.867142677307128906e+01 3.753955662250518799e-01 5.164767742156982422e+00 1.662049055099487305e+00 5.659679770469665527e-01
2.433000000000000000e+03 1.180648708343505859e+01 -3.481034851074218750e+01 -1.815379559993743896e-01 -1.682219356298446655e-01 -1.049279719591140747e-01 7.364232093095779419e-02
2.434000000000000000e+03 6.794374084472656250e+01 -3.282296752929687500e+01 -4.013253748416900635e-02 1.274994108825922012e-02 -8.214779198169708252e-03 1.921711862087249756e-02
2.435000000000000000e+03 4.003600311279296875e+01 -3.867154836654663086e+00 3.339770138263702393e-01 1.022129440307617188e+01 3.166581392288208008e+00 1.540587782859802246e+00
2.436000000000000000e+03 4.228165054321289062e+01 3.186212539672851562e+01 5.719667673110961914e-01 5.353842735290527344e+00 1.777742862701416016e+00 -7.319432497024536133e-01
2.437000000000000000e+03 3.095631790161132812e+01 -3.263886642456054688e+01 -9.505279362201690674e-03 1.817592382431030273e+00 5.424261689186096191e-01 1.046435236930847168e+00
2.438000000000000000e+03 3.360870361328125000e+01 -2.535383224487304688e+00 -1.930400490760803223e+00 -2.204196155071258545e-02 -5.857327580451965332e-01 -6.146401762962341309e-01
2.439000000000000000e+03 1.376901626586914062e+01 2.638939666748046875e+01 -7.262288363563129678e-06 -2.592464261397253722e-05 -9.956079338735435158e-06 1.085756302927620709e-04
2.440000000000000000e+03 3.097742271423339844e+01 -3.399381637573242188e+00 -1.808839559555053711e+00 -9.689047932624816895e-01 -8.333232998847961426e-01 -1.131036162376403809e+00
2.441000000000000000e+03 3.185524749755859375e+01 -3.158567428588867188e+00 -1.820136666297912598e+00 -8.877851963043212891e-01 -8.123765587806701660e-01 -1.041072607040405273e+00
2.442000000000000000e+03 6.554621124267578125e+01 -3.340871810913085938e+00 -5.407766699790954590e-01 9.721165150403976440e-02 -1.330695003271102905e-01 3.913985192775726318e-02
2.443000000000000000e+03 7.707389068603515625e+01 -4.065950775146484375e+01 4.162611905485391617e-03 -2.204765006899833679e-02 -5.365511402487754822e-03 3.906641621142625809e-03
2.444000000000000000e+03 4.120198822021484375e+01 -1.995122146606445312e+01 9.134534001350402832e-02 7.060122013092041016e+00 2.145440340042114258e+00 -3.514975011348724365e-01
2.445000000000000000e+03 3.971665573120117188e+01 -5.639391899108886719e+00 1.040299892425537109e+00 1.056662845611572266e+01 3.482078552246093750e+00 1.435745596885681152e+00
2.446000000000000000e+03 6.435256958007812500e+01 -3.321203231811523438e+01 -8.502335101366043091e-02 1.019093208014965057e-02 -2.244972623884677887e-02 2.244577743113040924e-02
2.447000000000000000e+03 4.104724121093750000e+01 5.421301841735839844e+00 4.807303100824356079e-02 9.234560012817382812e+00 2.784790039062500000e+00 2.284147500991821289e+00
2.448000000000000000e+03 4.374012756347656250e+01 2.718777656555175781e+01 7.703885436058044434e-01 6.366599559783935547e+00 2.141096353530883789e+00 -4.209108650684356689e-01
2.449000000000000000e+03 4.368796157836914062e+01 2.806297874450683594e+01 8.813069462776184082e-01 6.196793079376220703e+00 2.123430013656616211e+00 -4.173654019832611084e-01
2.450000000000000000e+03 3.505535125732421875e+01 -3.145639228820800781e+01 -2.334773689508438110e-01 4.026319503784179688e+00 1.137852668762207031e+00 6.584901213645935059e-01
2.451000000000000000e+03 3.993696212768554688e+01 -1.562115669250488281e+01 8.606406450271606445e-01 9.338636398315429688e+00 3.059782981872558594e+00 -5.885686278343200684e-01
2.452000000000000000e+03 4.063097000122070312e+01 -1.837779235839843750e+01 4.131622016429901123e-01 8.109664916992187500e+00 2.556848049163818359e+00 -1.917617470026016235e-01
2.453000000000000000e+03 3.632859802246093750e+01 -3.129733276367187500e+01 -2.946826815605163574e-01 4.243658065795898438e+00 1.184692621231079102e+00 3.553015589714050293e-01
2.454000000000000000e+03 2.960340261459350586e+00 4.065563964843750000e+01 -2.645097847562283278e-04 2.663376217242330313e-04 5.483450991050631274e-07 -1.487413828726857901e-04
2.455000000000000000e+03 4.179934310913085938e+01 -1.443329900503158569e-01 -2.307663679122924805e+00 9.822272300720214844e+00 2.254382610321044922e+00 4.743703603744506836e-01
2.456000000000000000e+03 4.360256576538085938e+01 8.451008200645446777e-01 -3.920146703720092773e+00 6.685296058654785156e+00 8.295447826385498047e-01 1.189208030700683594e+00
2.457000000000000000e+03 5.620901870727539062e+01 -3.419602584838867188e+01 -5.559069663286209106e-02 2.358069121837615967e-01 5.406486615538597107e-02 -1.547083556652069092e-01
2.458000000000000000e+03 5.600122833251953125e+01 -3.549940490722656250e+01 -5.066112615168094635e-03 3.415273725986480713e-01 1.009383797645568848e-01 -1.836576610803604126e-01
2.459000000000000000e+03 3.625447082519531250e+01 -2.468229675292968750e+01 1.411123633384704590e+00 7.160202503204345703e+00 2.571397781372070312e+00 1.144077777862548828e+00
2.460000000000000000e+03 3.052616310119628906e+01 -1.678532600402832031e+01 -1.148001253604888916e-01 -2.476835399866104126e-01 -1.087450981140136719e-01 8.839395046234130859e-01
2.461000000000000000e+03 4.222413635253906250e+01 3.582224273681640625e+01 -4.089840948581695557e-01 4.083745002746582031e+00 1.102428317070007324e+00 -3.341292142868041992e-01
2.462000000000000000e+03 3.985226440429687500e+01 3.557865524291992188e+01 -1.573689281940460205e-01 3.245036363601684570e+00 9.263002276420593262e-01 -8.942893147468566895e-01
2.463000000000000000e+03 1.275301742553710938e+01 2.582438850402832031e+01 4.574161357595585287e-05 -1.173439668491482735e-04 -2.148070598195772618e-05 9.470744407735764980e-05
2.464000000000000000e+03 2.519895935058593750e+01 -4.240280151367187500e+00 -1.086277127265930176e+00 -2.100827991962432861e-01 -3.889079689979553223e-01 -5.963983535766601562e-01
2.465000000000000000e+03 7.702169799804687500e+01 -2.456042289733886719e+01 -1.468502741772681475e-04 -1.382264454150572419e-04 -8.552301005693152547e-05 -1.378780289087444544e-04
2.466000000000000000e+03 4.138271713256835938e+01 -8.685575127601623535e-01 -1.264988660812377930e+00 1.008822631835937500e+01 2.646971225738525391e+00 5.669667720794677734e-01
2.467000000000000000e+03 6.598899841308593750e+01 -4.011573314666748047e+00 -4.003571867942810059e-01 6.724660098552703857e-02 -9.993317723274230957e-02 6.350758671760559082e-02
2.468000000000000000e+03 3.818313598632812500e+01 -2.272633171081542969e+01 5.322009325027465820e-01 6.393469810485839844e+00 2.077701091766357422e+00 9.594551920890808105e-01
2.469000000000000000e+03 2.940654993057250977e+00 -2.737567520141601562e+01 -1.156725138425827026e-01 -1.662467271089553833e-01 -8.457577228546142578e-02 2.771733105182647705e-01
2.470000000000000000e+03 4.921896362304687500e+01 2.570424318313598633e+00 -4.251755237579345703e+00 -7.826343178749084473e-02 -1.299005627632141113e+00 -3.564261198043823242e-01
2.471000000000000000e+03 4.847242355346679688e+01 2.778874158859252930e+00 -3.946629047393798828e+00 -4.304502010345458984e-01 -1.313123822212219238e+00 -3.275003135204315186e-01
2.472000000000000000e+03 1.277604007720947266e+01 -1.498964214324951172e+01 1.156369328498840332e+00 2.777566313743591309e-01 4.302377998828887939e-01 -3.305365890264511108e-02
2.473000000000000000e+03 3.306477737426757812e+01 -3.391595077514648438e+01 -4.081032872200012207e-01 2.833383321762084961e+00 7.275840640068054199e-01 8.477665185928344727e-01
2.474000000000000000e+03 3.658270645141601562e+01 -1.917488479614257812e+01 -6.950044035911560059e-01 6.287445068359375000e+00 1.677732110023498535e+00 8.756212592124938965e-01
2.475000000000000000e+03 3.239791107177734375e+01 -1.630349159240722656e+01 2.241204530000686646e-01 2.195350229740142822e-01 1.330966502428054810e-01 3.862856030464172363e-01
2.476000000000000000e+03 2.282132720947265625e+01 -4.485979080200195312e+00 -7.971255779266357422e-01 -4.416516423225402832e-02 -2.523872256278991699e-01 -3.015608191490173340e-01
2.477000000000000000e+03 7.078071594238281250e+01 -2.665575027465820312e+01 -4.121927544474601746e-03 -1.070477374014444649e-04 -1.268692663870751858e-03 -5.100481794215738773e-04
2.478000000000000000e+03 7.102179718017578125e+01 -2.566699600219726562e+01 -1.809990149922668934e-03 -5.285092629492282867e-04 -7.015498122200369835e-04 -3.216937184333801270e-04
2.479000000000000000e+03 3.603342437744140625e+01 -1.749848747253417969e+01 -6.222614645957946777e-01 5.251393318176269531e+00 1.388739466667175293e+00 1.336652487516403198e-01
2.480000000000000000e+03 3.376138687133789062e+01 -1.582104969024658203e+01 4.682756960391998291e-01 1.834210634231567383e+00 6.907458901405334473e-01 -1.799577102065086365e-02
2.481000000000000000e+03 4.329680633544921875e+01 3.239986038208007812e+01 3.098488748073577881e-01 4.965139389038085938e+00 1.582496523857116699e+00 -2.182639986276626587e-01
2.482000000000000000e+03 4.252455902099609375e+01 3.342735671997070312e+01 9.438960254192352295e-02 4.692022323608398438e+00 1.435923576354980469e+00 -4.007573425769805908e-01
2.483000000000000000e+03 2.974487686157226562e+01 -3.445045471191406250e+01 -1.234854832291603088e-01 1.354325890541076660e+00 3.692521154880523682e-01 7.797539830207824707e-01
2.484000000000000000e+03 6.017783355712890625e+01 -3.496392059326171875e+01 -4.496481642127037048e-02 -1.905925339087843895e-03 -1.406122185289859772e-02 4.249545559287071228e-02
2.485000000000000000e+03 6.119404602050781250e+01 -3.591546249389648438e+01 1.890762359835207462e-03 -7.249230518937110901e-03 -1.607540412805974483e-03 4.924727231264114380e-02
2.486000000000000000e+03 2.515477561950683594e+01 -3.477189302444458008e+00 -1.328645706176757812e+00 -1.268450468778610229e-01 -4.366472363471984863e-01 -4.990980625152587891e-01
2.487000000000000000e+03 4.468847274780273438e+01 1.910062313079833984e+00 -4.601784229278564453e+00 3.538527488708496094e+00 -3.189769387245178223e-01 1.913043022155761719e+00
2.488000000000000000e+03 4.205068969726562500e+01 6.009910106658935547e+00 2.634088099002838135e-01 8.114180564880371094e+00 2.513277053833007812e+00 2.310602664947509766e+00
2.489000000000000000e+03 6.867530822753906250e+01 -9.986343383789062500e+00 1.088597998023033142e-02 -5.559884943068027496e-03 1.597828464582562447e-03 -1.579344272613525391e-02
2.490000000000000000e+03 8.130371093750000000e+00 -1.475394439697265625e+01 5.458338260650634766e-01 3.839960098266601562e-01 2.789489626884460449e-01 -5.294648930430412292e-03
2.491000000000000000e+03 5.524884414672851562e+01 2.002414703369140625e+00 -2.440239429473876953e+00 2.033358663320541382e-01 -6.710711121559143066e-01 -2.866014838218688965e-01
2.492000000000000000e+03 1.299045085906982422e+01 -1.429178524017333984e+01 9.052720069885253906e-01 2.780760228633880615e-01 3.550044000148773193e-01 -3.302470967173576355e-02
2.493000000000000000e+03 3.668372344970703125e+01 -2.668174362182617188e+01 9.358059763908386230e-01 5.945092678070068359e+00 2.064269542694091797e+00 6.256973147392272949e-01
2.494000000000000000e+03 3.683801269531250000e+01 -2.579756355285644531e+01 1.162142992019653320e+00 6.225349903106689453e+00 2.216247797012329102e+00 7.155287265777587891e-01
2.495000000000000000e+03 8.105806350708007812e+00 -3.186923027038574219e+01 -2.394231110811233521e-01 -2.701808810234069824e-01 -1.528811901807785034e-01 1.423017531633377075e-01
2.496000000000000000e+03 9.849328041076660156e+00 -3.295314788818359375e+01 -2.294597178697586060e-01 -2.304861247539520264e-01 -1.379837542772293091e-01 1.351510882377624512e-01
2.497000000000000000e+03 3.069775772094726562e+01 -1.563324451446533203e+01 5.466317534446716309e-01 -1.730324029922485352e-01 1.120797991752624512e-01 8.087302446365356445e-01
2.498000000000000000e+03 3.010498237609863281e+01 -1.599956989288330078e+01 3.147242069244384766e-01 -2.008488476276397705e-01 3.416260704398155212e-02 7.742313146591186523e-01
2.499000000000000000e+03 3.260210418701171875e+01 4.165824890136718750e+01 1.574003398418426514e-01 2.796066999435424805e-01 1.311021149158477783e-01 -5.200796574354171753e-02
2.500000000000000000e+03 3.860145568847656250e+01 3.727650451660156250e+01 -2.578998804092407227e-01 2.342637062072753906e+00 6.254211664199829102e-01 -7.748012542724609375e-01
2.501000000000000000e+03 1.706845092773437500e+01 4.135487747192382812e+01 -1.416850020177662373e-03 -3.814987838268280029e-03 -1.569551415741443634e-03 4.819599562324583530e-04
2.502000000000000000e+03 3.305550384521484375e+01 4.019385528564453125e+01 1.081536114215850830e-01 1.537131220102310181e-01 7.856002449989318848e-02 -1.051067188382148743e-01
2.503000000000000000e+03 3.836878204345703125e+01 3.897396087646484375e+01 -3.021607398986816406e-01 2.137256622314453125e+00 5.505287647247314453e-01 -5.506635904312133789e-01
2.504000000000000000e+03 2.314446258544921875e+01 4.147429656982421875e+01 4.684439394623041153e-03 -1.813750341534614563e-02 -4.035919439047574997e-03 6.400879938155412674e-04
2.505000000000000000e+03 2.203565025329589844e+01 3.883018493652343750e+01 -5.480757914483547211e-03 -8.012722246348857880e-03 -4.048044327646493912e-03 -6.272432801779359579e-05
2.506000000000000000e+03 2.722081565856933594e+01 4.152823257446289062e+01 7.460745424032211304e-02 -6.396796554327011108e-02 3.191846655681729317e-03 2.610445953905582428e-02
2.507000000000000000e+03 2.690043449401855469e+01 3.962303161621093750e+01 7.594189606606960297e-03 -2.705102972686290741e-02 -5.837051663547754288e-03 5.873787030577659607e-02
2.508000000000000000e+03 2.029784774780273438e+01 4.038277053833007812e+01 1.273050293093547225e-04 3.633256419561803341e-04 1.471892028348520398e-04 2.847656141966581345e-03
2.509000000000000000e+03 1.760771751403808594e+01 2.880666971206665039e+00 -1.925254991874680854e-06 -5.365695869841147214e-06 -2.187285190302645788e-06 3.757757269795547472e-07
2.510000000000000000e+03 2.119236946105957031e+01 -1.590252971649169922e+01 7.407323718070983887e-01 -1.737810224294662476e-01 1.700854003429412842e-01 -1.549434527987614274e-04
2.511000000000000000e+03 2.245215797424316406e+01 -1.673754119873046875e+01 6.954026222229003906e-01 -1.325817406177520752e-01 1.688462644815444946e-01 5.509224906563758850e-02
2.512000000000000000e+03 3.303944349288940430e+00 4.040379524230957031e+00 -2.902994083342491649e-06 -1.018909756567154545e-06 -1.176571117866842542e-06 3.847658263111952692e-06
2.513000000000000000e+03 1.058047199249267578e+01 -4.835947036743164062e+00 -3.396271765232086182e-01 8.998398482799530029e-02 -7.489295303821563721e-02 -2.109586298465728760e-01
2.514000000000000000e+03 1.130394554138183594e+01 -4.901112079620361328e+00 -3.552553355693817139e-01 8.983297646045684814e-02 -7.962670177221298218e-02 -1.981647610664367676e-01
2.515000000000000000e+03 8.358722686767578125e+00 -4.039768695831298828e+00 -2.923040390014648438e-01 5.251875147223472595e-02 -7.193557918071746826e-02 -2.163439393043518066e-01
2.516000000000000000e+03 9.862088203430175781e+00 -4.778718471527099609e+00 -3.182266056537628174e-01 8.566107600927352905e-02 -6.976965814828872681e-02 -2.213724851608276367e-01
2.517000000000000000e+03 4.770615005493164062e+01 2.999583244323730469e+00 -3.495507001876831055e+00 -4.459374248981475830e-01 -1.182433247566223145e+00 7.256718724966049194e-02
2.518000000000000000e+03 4.677557754516601562e+01 2.530613422393798828e+00 -4.265308380126953125e+00 -5.363388061523437500e-01 -1.440494060516357422e+00 6.736646890640258789e-01
2.519000000000000000e+03 3.540211105346679688e+01 -1.805714797973632812e+01 -1.064803123474121094e+00 4.581871509552001953e+00 1.055120587348937988e+00 9.928856790065765381e-02
2.520000000000000000e+03 1.564979553222656250e+01 3.112708806991577148e+00 6.084821052354527637e-06 3.051879502891097218e-06 2.741010121098952368e-06 -8.846751597957336344e-07
2.521000000000000000e+03 3.762456893920898438e+01 -2.075825309753417969e+01 4.252774640917778015e-02 6.723158836364746094e+00 2.029706001281738281e+00 1.131146192550659180e+00
2.522000000000000000e+03 4.035137939453125000e+01 -1.748547935485839844e+01 6.297932863235473633e-01 8.580778121948242188e+00 2.763171434402465820e+00 -2.798311114311218262e-01
2.523000000000000000e+03 2.315106582641601562e+01 -1.606439399719238281e+01 6.957884430885314941e-01 -1.714948713779449463e-01 1.572880744934082031e-01 1.163785755634307861e-01
2.524000000000000000e+03 1.988348770141601562e+01 -1.568632411956787109e+01 7.684723734855651855e-01 -1.553081572055816650e-01 1.839492619037628174e-01 -5.304691195487976074e-02
2.525000000000000000e+03 2.043193435668945312e+01 -1.651802062988281250e+01 7.505760192871093750e-01 -1.321373134851455688e-01 1.855316162109375000e-01 -5.118347704410552979e-02
2.526000000000000000e+03 7.547914123535156250e+01 -1.875102424621582031e+01 2.291208365932106972e-04 -1.212978750118054450e-04 3.234688847442157567e-05 -1.559120428282767534e-04
2.527000000000000000e+03 1.696778106689453125e+01 2.927609682083129883e+00 3.563312930054962635e-06 4.444070782483322546e-06 2.402215159236220643e-06 -2.690799647098174319e-06
2.528000000000000000e+03 1.808207321166992188e+01 3.605409145355224609e+00 -3.944639502151403576e-06 -5.029695330449612811e-06 -2.692300313356099650e-06 -2.066905608444358222e-06
2.529000000000000000e+03 1.751320075988769531e+01 3.493313789367675781e+00 4.256881425135361496e-07 5.810632046632235870e-06 1.870896085165441036e-06 -2.508247121113527101e-07
2.530000000000000000e+03 1.776384544372558594e+01 4.314489364624023438e+00 1.167184564110357314e-06 -1.048160243044549134e-06 3.570731621493905550e-08 4.288832315069157630e-06
2.531000000000000000e+03 4.137787246704101562e+01 6.282746791839599609e+00 7.368618249893188477e-01 9.106475830078125000e+00 2.953001499176025391e+00 2.577178478240966797e+00
2.532000000000000000e+03 1.975131607055664062e+01 -1.637665939331054688e+01 7.741320133209228516e-01 -1.226193830370903015e-01 1.954537928104400635e-01 -7.523211091756820679e-02
2.533000000000000000e+03 1.923188591003417969e+01 -1.550364685058593750e+01 7.913740873336791992e-01 -1.403903663158416748e-01 1.952951103448867798e-01 -6.475604325532913208e-02
2.534000000000000000e+03 2.053739547729492188e+01 -1.581845760345458984e+01 7.546996474266052246e-01 -1.673870384693145752e-01 1.761937886476516724e-01 -2.459062635898590088e-02
2.535000000000000000e+03 1.856686592102050781e+01 -1.527537155151367188e+01 8.031197190284729004e-01 -1.198706701397895813e-01 2.049747109413146973e-01 -7.858215272426605225e-02
2.536000000000000000e+03 1.258427619934082031e+01 2.233556175231933594e+01 2.099693665513768792e-05 -9.017379488795995712e-05 -2.075305746984668076e-05 -3.271871901233680546e-05
2.537000000000000000e+03 7.458477020263671875e+01 -1.749009132385253906e+01 1.063706586137413979e-04 -1.588872546562924981e-04 -1.575497662997804582e-05 -3.855536124319769442e-05
2.538000000000000000e+03 7.466255187988281250e+01 -1.816087722778320312e+01 2.258700696984305978e-04 -1.326266792602837086e-04 2.797301749524194747e-05 -5.133457307238131762e-05
2.539000000000000000e+03 1.492712116241455078e+01 3.912420034408569336e+00 5.735590093536302447e-06 4.799172529601491988e-06 3.160428832416073419e-06 1.414939898580769295e-08
2.540000000000000000e+03 7.256601715087890625e+01 -1.836192321777343750e+01 1.171765179606154561e-04 -2.140905708074569702e-04 -2.907421730924397707e-05 1.117766078095883131e-04
2.541000000000000000e+03 7.386057281494140625e+01 -1.755444908142089844e+01 2.153839450329542160e-04 -1.024412122205831110e-04 3.388282129890285432e-05 1.247821910510538146e-05
2.542000000000000000e+03 1.421798133850097656e+01 3.981317043304443359e+00 -4.768089638673700392e-06 -4.769805855175945908e-06 -2.861368784579099156e-06 4.934381649945862591e-07
2.543000000000000000e+03 2.443552207946777344e+01 -1.682207107543945312e+01 6.226033568382263184e-01 -8.741816878318786621e-02 1.605555564165115356e-01 1.656086891889572144e-01
2.544000000000000000e+03 1.787657737731933594e+01 -1.500759601593017578e+01 8.263545036315917969e-01 -8.967122435569763184e-02 2.210049778223037720e-01 -7.528984546661376953e-02
2.545000000000000000e+03 2.811392974853515625e+01 -1.514389610290527344e+01 6.782228946685791016e-01 -2.154820114374160767e-01 1.388222575187683105e-01 6.475720405578613281e-01
2.546000000000000000e+03 2.908156013488769531e+01 -1.558299541473388672e+01 5.191016793251037598e-01 -1.763382852077484131e-01 1.028290241956710815e-01 7.413148283958435059e-01
2.547000000000000000e+03 1.349153995513916016e+01 4.051854610443115234e+00 4.668986548495013267e-06 3.640665227067074738e-06 2.492895418981788680e-06 -1.590455894984188490e-06
2.548000000000000000e+03 2.382925605773925781e+01 -1.613856315612792969e+01 6.770957112312316895e-01 -1.583621203899383545e-01 1.556200683116912842e-01 1.562284976243972778e-01
2.549000000000000000e+03 7.615682220458984375e+01 -1.808197402954101562e+01 1.901925134006887674e-04 -5.094424705021083355e-05 4.177448136033490300e-05 -1.483230880694463849e-04
2.550000000000000000e+03 7.607147216796875000e+01 -1.740253067016601562e+01 6.496089918073266745e-05 -8.798188355285674334e-05 -6.906295311637222767e-06 -9.529695671517401934e-05
2.551000000000000000e+03 4.031846618652343750e+01 -3.135155916213989258e+00 2.038844078779220581e-01 1.023546600341796875e+01 3.131805181503295898e+00 1.515256285667419434e+00
2.552000000000000000e+03 6.892154693603515625e+01 -8.509380340576171875e+00 -1.418490242213010788e-02 -1.340115442872047424e-02 -8.275817148387432098e-03 -6.413285154849290848e-03
2.553000000000000000e+03 6.721665954589843750e+01 -6.022317886352539062e+00 -1.165517643094062805e-01 7.628954946994781494e-03 -3.267684206366539001e-02 2.931103669106960297e-02
2.554000000000000000e+03 2.541934776306152344e+01 -1.570167255401611328e+01 6.448633074760437012e-01 -1.736955940723419189e-01 1.413502991199493408e-01 3.190122544765472412e-01
2.555000000000000000e+03 3.898950958251953125e+01 -1.301536178588867188e+01 8.537048101425170898e-01 9.126278877258300781e+00 2.993995189666748047e+00 -1.622126400470733643e-01
2.556000000000000000e+03 3.963091659545898438e+01 -1.218876266479492188e+01 6.949395537376403809e-01 1.041918468475341797e+01 3.334237337112426758e+00 -1.251480281352996826e-01
2.557000000000000000e+03 4.746289062500000000e+01 -2.755953407287597656e+01 3.258495628833770752e-01 1.502977013587951660e+00 5.486479997634887695e-01 -7.963480353355407715e-01
2.558000000000000000e+03 7.676673126220703125e+01 -3.581730651855468750e+01 1.227233005920425057e-04 -1.328663434833288193e-02 -3.949173260480165482e-03 9.353177621960639954e-03
2.559000000000000000e+03 7.579503631591796875e+01 -3.973619842529296875e+01 4.422347526997327805e-03 -1.938159763813018799e-02 -4.487775266170501709e-03 7.324741221964359283e-03
2.560000000000000000e+03 3.621252298355102539e+00 -3.555486679077148438e+01 -1.049423869699239731e-02 -4.062247276306152344e-02 -1.533501315861940384e-02 -9.769504889845848083e-03
2.561000000000000000e+03 3.025145053863525391e+00 -3.677534484863281250e+01 -2.049305243417620659e-03 -1.424329169094562531e-02 -4.887779243290424347e-03 -1.853959262371063232e-02
2.562000000000000000e+03 6.942699432373046875e+01 -1.069118499755859375e+01 1.442133262753486633e-02 -9.930200874805450439e-03 1.347339362837374210e-03 -1.454974990338087082e-02
2.563000000000000000e+03 3.140939712524414062e+00 3.589042663574218750e+01 -8.509794133715331554e-05 4.148929729126393795e-04 9.893850801745429635e-05 -1.434983569197356701e-04
2.564000000000000000e+03 4.279614448547363281e+00 3.974179077148437500e+01 -4.594130223267711699e-05 5.767645197920501232e-04 1.592469780007377267e-04 -2.115914394380524755e-04
2.565000000000000000e+03 1.274833106994628906e+01 4.127107620239257812e+00 -5.616038379230303690e-06 -2.678818873391719535e-06 -2.488457084837136790e-06 1.121658556257898454e-06
2.566000000000000000e+03 1.202268218994140625e+01 3.532554388046264648e+00 -5.088728812552290037e-06 -1.033208263834239915e-06 -1.836581077441223897e-06 1.883959583892647061e-07
2.567000000000000000e+03 7.651309967041015625e+01 -6.957570552825927734e+00 -1.592732034623622894e-02 -6.223813630640506744e-03 -6.645340472459793091e-03 4.213666543364524841e-03
2.568000000000000000e+03 3.836603546142578125e+01 -2.402348136901855469e+01 8.452430963516235352e-01 5.975738525390625000e+00 2.046294450759887695e+00 6.921934485435485840e-01
2.569000000000000000e+03 1.436328697204589844e+01 -5.216807365417480469e+00 -3.959150910377502441e-01 4.004914686083793640e-02 -1.067597866058349609e-01 -1.464809626340866089e-01
2.570000000000000000e+03 1.438793182373046875e+01 -4.533556938171386719e+00 -4.719673693180084229e-01 2.949529886245727539e-02 -1.327416151762008667e-01 -1.295983940362930298e-01
2.571000000000000000e+03 4.820814132690429688e+00 5.450065612792968750e+00 -2.255321987831848674e-06 -1.007092464533343446e-06 -9.787244152903440408e-07 4.919833372696302831e-06
2.572000000000000000e+03 6.457634925842285156e+00 3.944515228271484375e+00 1.657656639508786611e-06 -1.676497277003363706e-06 -5.652179613235830402e-09 3.831802587228594348e-06
2.573000000000000000e+03 4.842489719390869141e+00 4.707856178283691406e+00 8.031443599065823946e-07 1.201148620566527825e-06 6.012879225636424962e-07 -4.209948201605584472e-06
2.574000000000000000e+03 2.510245800018310547e+00 4.826831340789794922e+00 -4.334660388849442825e-06 -1.326460278505692258e-06 -1.698336291156010702e-06 3.722741439560195431e-06
2.575000000000000000e+03 8.857129096984863281e+00 3.820325136184692383e+00 -4.321999767853412777e-06 1.230079647029924672e-06 -9.275760817217815202e-07 -1.507715865045611281e-06
2.576000000000000000e+03 7.236485958099365234e+00 4.609158039093017578e+00 3.675345396914053708e-06 -1.274394207939621992e-06 7.202853566923295148e-07 2.797801926135434769e-06
2.577000000000000000e+03 5.638370990753173828e+00 4.688403129577636719e+00 5.609915092463779729e-07 -1.437533114767575171e-06 -2.629624873407010455e-07 4.816291948372963816e-06
2.578000000000000000e+03 6.435506343841552734e+00 4.656340599060058594e+00 -3.634203949332004413e-06 1.915273969643749297e-06 -5.156789484317414463e-07 -3.458822448010323569e-06
2.579000000000000000e+03 1.204369449615478516e+01 -4.974836826324462891e+00 -3.704035282135009766e-01 8.466302603483200073e-02 -8.572214841842651367e-02 -1.853204816579818726e-01
2.580000000000000000e+03 1.280097007751464844e+01 -5.052978038787841797e+00 -3.814772069454193115e-01 7.480238378047943115e-02 -9.200244396924972534e-02 -1.721667796373367310e-01
2.581000000000000000e+03 1.045782947540283203e+01 3.690730333328247070e+00 -4.990073648514226079e-06 2.816312303366430569e-07 -1.412532810718403198e-06 -5.179911681807425339e-07
2.582000000000000000e+03 8.844354629516601562e+00 4.493802070617675781e+00 4.365505446912720799e-06 -2.670019796369160758e-07 1.229551003234519158e-06 1.159169300990470219e-06
2.583000000000000000e+03 2.808022308349609375e+01 -3.561820602416992188e+01 -1.028708294034004211e-01 9.169781804084777832e-01 2.442321926355361938e-01 4.903790652751922607e-01
2.584000000000000000e+03 1.199159812927246094e+01 4.205191612243652344e+00 5.447916009870823473e-06 1.840011577769473661e-06 2.186378196711302735e-06 -1.419683826497930568e-06
2.585000000000000000e+03 4.714734649658203125e+01 -2.855743598937988281e+01 2.588725090026855469e-01 1.682684421539306641e+00 5.824670791625976562e-01 -8.128095269203186035e-01
2.586000000000000000e+03 9.134291648864746094e+00 -4.737584590911865234e+00 -2.958352863788604736e-01 7.616737484931945801e-02 -6.590037047863006592e-02 -2.329614013433456421e-01
2.587000000000000000e+03 6.827307128906250000e+01 -8.412871360778808594e+00 -1.129225175827741623e-02 -5.821740254759788513e-03 -5.134197883307933807e-03 -7.755442056804895401e-03
2.588000000000000000e+03 7.734404754638671875e+01 -2.954372024536132812e+01 -1.898256945423781872e-03 -1.926532713696360588e-03 -1.147436909377574921e-03 2.937976270914077759e-03
2.589000000000000000e+03 7.544773864746093750e+01 -3.130331611633300781e+01 -4.185434430837631226e-03 -2.804096322506666183e-03 -2.096859272569417953e-03 7.482794579118490219e-03
2.590000000000000000e+03 7.078617095947265625e+01 -1.973494529724121094e+01 3.217835183022543788e-05 -3.334351276862435043e-05 -3.495488272164948285e-07 1.902215735753998160e-04
2.591000000000000000e+03 7.168544006347656250e+01 -9.129544258117675781e+00 -1.027787849307060242e-02 -2.080922760069370270e-02 -9.326132014393806458e-03 -1.736667938530445099e-03
2.592000000000000000e+03 6.281720352172851562e+01 -5.766092538833618164e-01 -1.267967581748962402e+00 1.415077447891235352e-01 -3.379379510879516602e-01 -1.968841105699539185e-01
2.593000000000000000e+03 7.686808013916015625e+01 -3.155854415893554688e+01 -2.424869686365127563e-03 -4.061159212142229080e-03 -1.945808646269142628e-03 5.889107473194599152e-03
2.594000000000000000e+03 7.742893981933593750e+01 -3.193779563903808594e+01 -1.288376282900571823e-03 -5.148501135408878326e-03 -1.931063132360577583e-03 5.587982479482889175e-03
2.595000000000000000e+03 1.405627727508544922e+01 1.336931324005126953e+01 -1.309243361902190372e-05 -3.113217462669126689e-05 -1.326738220086554065e-05 -4.806397100765025243e-06
2.596000000000000000e+03 1.449447822570800781e+01 1.423571205139160156e+01 -3.181765578119666316e-06 -3.037867463717702776e-05 -1.006813272397266701e-05 -2.649474117788486183e-05
2.597000000000000000e+03 7.761137390136718750e+01 -1.809644126892089844e+01 1.427758252248167992e-04 6.604396185139194131e-05 6.264593685045838356e-05 -1.715016405796632171e-04
2.598000000000000000e+03 7.759535980224609375e+01 -2.237684059143066406e+01 1.567316940054297447e-04 1.524547697044909000e-04 9.275593765778467059e-05 -3.220140933990478516e-04
2.599000000000000000e+03 7.700530242919921875e+01 -2.530961799621582031e+01 -6.816247478127479553e-04 -2.630256640259176493e-04 -2.833951439242810011e-04 1.323559408774599433e-04
2.600000000000000000e+03 4.321640777587890625e+01 1.464952468872070312e+01 9.720760583877563477e-01 8.160132408142089844e+00 2.739662408828735352e+00 1.655468940734863281e+00
2.601000000000000000e+03 4.432407760620117188e+01 1.792633056640625000e+01 6.818729043006896973e-01 6.954789638519287109e+00 2.290998697280883789e+00 1.080987572669982910e+00
2.602000000000000000e+03 4.459863662719726562e+01 2.635489273071289062e+01 6.638720035552978516e-01 6.024756431579589844e+00 2.006588459014892578e+00 -1.965492963790893555e-01
2.603000000000000000e+03 4.372676467895507812e+01 2.464592552185058594e+01 3.158789277076721191e-01 6.737586498260498047e+00 2.116039514541625977e+00 -8.856625109910964966e-02
2.604000000000000000e+03 7.686276245117187500e+01 -2.606747055053710938e+01 -5.900339456275105476e-04 -4.331994568929076195e-04 -3.069700323976576328e-04 3.673394385259598494e-04
2.605000000000000000e+03 7.760559082031250000e+01 -2.548096275329589844e+01 -1.658709225011989474e-04 -1.032128602673765272e-05 -5.285766383167356253e-05 2.082007267745211720e-05
2.606000000000000000e+03 7.658664703369140625e+01 -2.933351707458496094e+01 -2.125558909028768539e-03 -1.701692934148013592e-03 -1.148175564594566822e-03 3.246836597099900246e-03
2.607000000000000000e+03 7.744757843017578125e+01 -2.789331817626953125e+01 -1.287127030082046986e-03 -7.765403133817017078e-04 -6.191002321429550648e-04 1.350507140159606934e-03
2.608000000000000000e+03 7.767545318603515625e+01 -2.019132232666015625e+01 -5.417038846644572914e-05 9.474904072703793645e-05 1.217359567817766219e-05 -2.353042946197092533e-04
2.609000000000000000e+03 7.768633270263671875e+01 -1.948786735534667969e+01 1.926975528476759791e-04 8.375788456760346889e-05 8.293663267977535725e-05 -2.352128067286685109e-04
2.610000000000000000e+03 7.400589752197265625e+01 -1.895633125305175781e+01 2.619183505885303020e-04 -1.945640979101881385e-04 2.020627835008781403e-05 1.964760849659796804e-05
2.611000000000000000e+03 7.675994110107421875e+01 -2.773069763183593750e+01 -1.267376705072820187e-03 -8.767147664912045002e-04 -6.432274822145700455e-04 1.470439252443611622e-03
2.612000000000000000e+03 3.968629837036132812e+01 -2.797320365905761719e+00 -2.206145524978637695e-01 9.118214607238769531e+00 2.669280052185058594e+00 1.001225352287292480e+00
2.613000000000000000e+03 7.716300201416015625e+01 -3.422160339355468750e+01 -1.309436513110995293e-03 -9.540771134197711945e-03 -3.255062270909547806e-03 8.476900868117809296e-03
2.614000000000000000e+03 7.686492156982421875e+01 -2.146998023986816406e+01 2.260196633869782090e-04 -7.763544272165745497e-05 4.451526547200046480e-05 -2.771165454760193825e-04
2.615000000000000000e+03 7.590105438232421875e+01 -2.451856803894042969e+01 -4.933740128763020039e-04 -4.365557106211781502e-04 -2.789789286907762289e-04 3.602114520617760718e-05
2.616000000000000000e+03 7.156513977050781250e+01 -2.325118637084960938e+01 -1.889123814180493355e-04 -6.732104811817407608e-04 -2.586368646007031202e-04 1.245853200089186430e-04
2.617000000000000000e+03 4.367835235595703125e+01 1.284201335906982422e+01 1.237533450126647949e+00 7.593760013580322266e+00 2.649388074874877930e+00 2.021257162094116211e+00
2.618000000000000000e+03 1.768033599853515625e+01 -5.458466529846191406e+00 -4.156058132648468018e-01 -5.347163975238800049e-02 -1.407232284545898438e-01 -1.271198838949203491e-01
2.619000000000000000e+03 4.440513229370117188e+01 2.056989097595214844e+01 4.003238677978515625e-01 6.706525325775146484e+00 2.132054805755615234e+00 6.231891512870788574e-01
2.620000000000000000e+03 4.356043624877929688e+01 1.802493095397949219e+01 5.103635191917419434e-01 7.547797679901123047e+00 2.417448282241821289e+00 9.869885444641113281e-01
2.621000000000000000e+03 7.747192382812500000e+01 3.147943878173828125e+01 1.184362359344959259e-02 -2.161871194839477539e+00 -6.450082659721374512e-01 -3.781442716717720032e-02
2.622000000000000000e+03 7.706702423095703125e+01 3.062398719787597656e+01 1.345666497945785522e-02 -2.056203603744506836e+00 -6.128240823745727539e-01 -4.945010691881179810e-02
2.623000000000000000e+03 4.578797912597656250e+01 -2.597434234619140625e+01 4.061897099018096924e-01 2.058346033096313477e+00 7.393607497215270996e-01 -9.425220489501953125e-01
2.624000000000000000e+03 4.550239181518554688e+01 -2.522689628601074219e+01 4.432442784309387207e-01 2.180772304534912109e+00 7.872049808502197266e-01 -9.768692851066589355e-01
2.625000000000000000e+03 5.282836151123046875e+01 1.905691146850585938e+00 -3.242479562759399414e+00 4.246224164962768555e-01 -8.453571796417236328e-01 -1.048322916030883789e-01
2.626000000000000000e+03 5.211051559448242188e+01 1.979297995567321777e+00 -3.493702411651611328e+00 4.042243659496307373e-01 -9.268434047698974609e-01 -1.274510771036148071e-01
2.627000000000000000e+03 7.261879730224609375e+01 -1.893951225280761719e+01 2.697730669751763344e-04 -1.385677605867385864e-04 3.936158827855251729e-05 1.089728611987084150e-04
2.628000000000000000e+03 7.244100189208984375e+01 -1.943028831481933594e+01 7.695955719100311399e-05 -1.888125552795827389e-04 -3.355589797138236463e-05 1.776747958501800895e-04
2.629000000000000000e+03 1.315432453155517578e+01 -3.516581344604492188e+01 -1.964398622512817383e-01 -1.367583125829696655e-01 -9.995945543050765991e-02 4.600428044795989990e-02
2.630000000000000000e+03 2.664367294311523438e+01 -3.499653244018554688e+01 -6.775867193937301636e-02 4.980450868606567383e-01 1.290859282016754150e-01 3.174838125705718994e-01
2.631000000000000000e+03 2.711663961410522461e+00 2.954830169677734375e+01 3.336675945320166647e-05 1.133604600909166038e-04 4.401816477184183896e-05 -2.443085213599260896e-05
2.632000000000000000e+03 3.588795900344848633e+00 3.104890632629394531e+01 4.611909389495849609e-05 3.921522147720679641e-05 2.560029315645806491e-05 -2.343415399082005024e-04
2.633000000000000000e+03 4.341687393188476562e+01 -2.310897254943847656e+01 3.585610091686248779e-01 3.796051979064941406e+00 1.246383905410766602e+00 -1.038725376129150391e+00
2.634000000000000000e+03 4.454708480834960938e+01 -2.420870971679687500e+01 4.486552178859710693e-01 2.803986310958862305e+00 9.757924675941467285e-01 -1.052625060081481934e+00
2.635000000000000000e+03 7.653938293457031250e+01 2.322996139526367188e+01 4.719423502683639526e-02 -1.741619586944580078e+00 -5.083276033401489258e-01 -1.837994009256362915e-01
2.636000000000000000e+03 7.723595428466796875e+01 2.557081031799316406e+01 2.401697449386119843e-02 -1.975970983505249023e+00 -5.855861902236938477e-01 -1.071940138936042786e-01
2.637000000000000000e+03 7.738687896728515625e+01 -6.345026493072509766e+00 -1.200527232140302658e-02 2.680216683074831963e-03 -2.797516528517007828e-03 2.305296249687671661e-03
2.638000000000000000e+03 7.498398590087890625e+01 -6.957365036010742188e+00 -2.979295887053012848e-02 -1.795082911849021912e-02 -1.432313583791255951e-02 -2.126801060512661934e-03
2.639000000000000000e+03 4.366262817382812500e+01 2.302465248107910156e+01 2.290120869874954224e-01 6.869585990905761719e+00 2.129579305648803711e+00 1.589959859848022461e-01
2.640000000000000000e+03 4.453527450561523438e+01 2.465386199951171875e+01 4.404475688934326172e-01 6.306263446807861328e+00 2.024013280868530273e+00 -1.764028519392013550e-02
2.641000000000000000e+03 4.651033401489257812e+01 2.151506233215332031e+01 6.850169897079467773e-01 5.521098136901855469e+00 1.861834526062011719e+00 5.912731289863586426e-01
2.642000000000000000e+03 4.448258590698242188e+01 2.383786392211914062e+01 3.758251965045928955e-01 6.413343906402587891e+00 2.036750793457031250e+00 9.619577229022979736e-02
2.643000000000000000e+03 7.751138305664062500e+01 -4.759174823760986328e+00 -1.741036772727966309e-02 -5.271392874419689178e-03 -6.804528646171092987e-03 -1.410748157650232315e-02
2.644000000000000000e+03 7.514778137207031250e+01 -8.795068740844726562e+00 -8.784216828644275665e-03 -1.022785343229770660e-02 -5.703621078282594681e-03 1.097168121486902237e-02
2.645000000000000000e+03 7.657101440429687500e+01 2.163350486755371094e+01 4.291909560561180115e-02 -1.673650383949279785e+00 -4.892193675041198730e-01 -2.165855914354324341e-01
2.646000000000000000e+03 1.597766971588134766e+01 9.587717056274414062e+00 -1.446094483981141821e-05 -8.981653081718832254e-06 -7.032779194560134783e-06 -1.435576723451958969e-05
2.647000000000000000e+03 1.693280029296875000e+01 7.282161235809326172e+00 1.445191537641221657e-05 6.016607130732154474e-06 6.140556706668576226e-06 7.365578312601428479e-06
2.648000000000000000e+03 7.670767974853515625e+01 1.521283340454101562e+01 2.532256580889225006e-02 -1.262804269790649414e+00 -3.712444901466369629e-01 -3.281132280826568604e-01
2.649000000000000000e+03 4.439788436889648438e+01 2.223099899291992188e+01 3.373039364814758301e-01 6.578205585479736328e+00 2.074652910232543945e+00 3.378706872463226318e-01
2.650000000000000000e+03 7.675903320312500000e+01 1.121131515502929688e+01 2.114686882123351097e-03 -9.222045540809631348e-01 -2.760269641876220703e-01 -3.539789021015167236e-01
2.651000000000000000e+03 7.674580383300781250e+01 1.200518035888671875e+01 7.098831236362457275e-03 -9.919614791870117188e-01 -2.954587936401367188e-01 -3.538780212402343750e-01
2.652000000000000000e+03 2.114475631713867188e+01 -5.365929603576660156e+00 -5.171887874603271484e-01 -9.952545166015625000e-02 -1.850142776966094971e-01 -2.170292884111404419e-01
2.653000000000000000e+03 7.677931213378906250e+01 9.618863105773925781e+00 -9.324393235146999359e-03 -7.816891074180603027e-01 -2.373040467500686646e-01 -3.478587865829467773e-01
2.654000000000000000e+03 7.749137115478515625e+01 1.036450386047363281e+01 -2.044207882136106491e-03 -8.965240120887756348e-01 -2.695704698562622070e-01 -2.846990823745727539e-01
2.655000000000000000e+03 7.683625030517578125e+01 1.665192246437072754e+00 -5.112893134355545044e-02 -1.974533200263977051e-01 -7.457467168569564819e-02 -1.823064684867858887e-01
2.656000000000000000e+03 7.676453399658203125e+01 -5.413706302642822266e+00 -2.393170632421970367e-02 -1.190155651420354843e-02 -1.074997894465923309e-02 -1.142635289579629898e-02
2.657000000000000000e+03 7.679431915283203125e+01 8.026737213134765625e+00 -2.078354172408580780e-02 -6.437883377075195312e-01 -1.993715763092041016e-01 -3.317968547344207764e-01
2.658000000000000000e+03 7.676988983154296875e+01 1.041608810424804688e+01 -4.057356622070074081e-03 -8.521398305892944336e-01 -2.568591535091400146e-01 -3.523516952991485596e-01
2.659000000000000000e+03 7.751653289794921875e+01 6.377173900604248047e+00 -2.040250971913337708e-02 -5.274481773376464844e-01 -1.643552035093307495e-01 -2.464728504419326782e-01
2.660000000000000000e+03 7.683837890625000000e+01 8.651064634323120117e-01 -5.149259418249130249e-02 -1.595733761787414551e-01 -6.331979483366012573e-02 -1.585525721311569214e-01
2.661000000000000000e+03 7.754306030273437500e+01 -8.074471354484558105e-01 -3.018351644277572632e-02 -8.552935719490051270e-02 -3.471386060118675232e-02 -8.624409884214401245e-02
2.662000000000000000e+03 7.683061981201171875e+01 -3.884624719619750977e+00 -3.274644166231155396e-02 -2.709849551320075989e-02 -1.795348152518272400e-02 -3.600055724382400513e-02
2.663000000000000000e+03 7.599440765380859375e+01 -5.995413780212402344e+00 -2.950728125870227814e-02 -1.619012467563152313e-02 -1.370922103524208069e-02 -8.431687951087951660e-03
2.664000000000000000e+03 7.681109619140625000e+01 -4.652109146118164062e+00 -2.844973653554916382e-02 -1.789832860231399536e-02 -1.390441879630088806e-02 -2.253857813775539398e-02
2.665000000000000000e+03 7.671426391601562500e+01 1.441090869903564453e+01 2.234415523707866669e-02 -1.197206854820251465e+00 -3.524588346481323242e-01 -3.377881944179534912e-01
2.666000000000000000e+03 7.681702423095703125e+01 4.854173660278320312e+00 -4.098671302199363708e-02 -3.932872712612152100e-01 -1.302821934223175049e-01 -2.713175714015960693e-01
2.667000000000000000e+03 7.612605285644531250e+01 3.322075366973876953e+00 -6.877971440553665161e-02 -2.825399637222290039e-01 -1.053959056735038757e-01 -2.732057273387908936e-01
2.668000000000000000e+03 7.682297515869140625e+01 4.058385848999023438e+00 -4.501570016145706177e-02 -3.383630812168121338e-01 -1.150136366486549377e-01 -2.511610686779022217e-01
2.669000000000000000e+03 7.651198577880859375e+01 2.894750213623046875e+01 1.854470372200012207e-02 -1.921963691711425781e+00 -5.710256695747375488e-01 -7.925736159086227417e-02
2.670000000000000000e+03 7.740043640136718750e+01 1.914962768554687500e+01 2.252830006182193756e-02 -1.662867546081542969e+00 -4.921017587184906006e-01 -2.123370617628097534e-01
2.671000000000000000e+03 7.593677520751953125e+01 1.605675125122070312e+01 4.208598658442497253e-02 -1.233340740203857422e+00 -3.573764264583587646e-01 -3.733120858669281006e-01
2.672000000000000000e+03 7.666941833496093750e+01 1.761063194274902344e+01 3.423264250159263611e-02 -1.441425919532775879e+00 -4.221579730510711670e-01 -2.917522788047790527e-01
2.673000000000000000e+03 7.669808197021484375e+01 1.601201820373535156e+01 2.958028949797153473e-02 -1.325554251670837402e+00 -3.887921869754791260e-01 -3.171440362930297852e-01
2.674000000000000000e+03 7.726295471191406250e+01 2.475636291503906250e+01 2.629181370139122009e-02 -1.947392106056213379e+00 -5.763300657272338867e-01 -1.212704777717590332e-01
2.675000000000000000e+03 7.654359436035156250e+01 2.244130516052246094e+01 3.965478390455245972e-02 -1.710279345512390137e+00 -5.011873841285705566e-01 -1.998319923877716064e-01
2.676000000000000000e+03 7.574858856201171875e+01 2.405530166625976562e+01 6.263334304094314575e-02 -1.631667613983154297e+00 -4.707102775573730469e-01 -1.964747011661529541e-01
2.677000000000000000e+03 7.619330596923828125e+01 3.105856132507324219e+01 2.463074959814548492e-02 -1.874592304229736328e+00 -5.549885034561157227e-01 -5.644732713699340820e-02
2.678000000000000000e+03 7.669264984130859375e+01 3.475137329101562500e+01 2.380367368459701538e-02 -2.012526750564575195e+00 -5.966169238090515137e-01 -2.818251587450504303e-02
2.679000000000000000e+03 4.232508087158203125e+01 9.688717842102050781e+00 1.502055048942565918e+00 8.822857856750488281e+00 3.097473859786987305e+00 2.852204084396362305e+00
2.680000000000000000e+03 4.315030670166015625e+01 1.035115528106689453e+01 1.470595836639404297e+00 7.718673229217529297e+00 2.756780624389648438e+00 2.566391468048095703e+00
2.681000000000000000e+03 7.729546356201171875e+01 3.220898818969726562e+01 1.232069917023181915e-02 -2.125805377960205078e+00 -6.340454220771789551e-01 -3.363145515322685242e-02
2.682000000000000000e+03 7.663121795654296875e+01 2.967579078674316406e+01 2.202088944613933563e-02 -1.964103102684020996e+00 -5.826246738433837891e-01 -6.770063936710357666e-02
2.683000000000000000e+03 7.683899688720703125e+01 6.232364475727081299e-02 -5.037080124020576477e-02 -1.261684596538543701e-01 -5.296177789568901062e-02 -1.343302577733993530e-01
2.684000000000000000e+03 7.683857727050781250e+01 -7.398094534873962402e-01 -4.834470525383949280e-02 -9.790599346160888672e-02 -4.387520998716354370e-02 -1.115231812000274658e-01
2.685000000000000000e+03 7.679978179931640625e+01 7.231579780578613281e+00 -2.683494612574577332e-02 -5.773197412490844727e-01 -1.812463998794555664e-01 -3.203847706317901611e-01
2.686000000000000000e+03 7.680558013916015625e+01 6.438108444213867188e+00 -3.166139498353004456e-02 -5.129939913749694824e-01 -1.633966118097305298e-01 -3.060281872749328613e-01
2.687000000000000000e+03 7.596408843994140625e+01 3.169630432128906250e+01 2.095432579517364502e-02 -1.826533317565917969e+00 -5.416737198829650879e-01 -5.386105179786682129e-02
2.688000000000000000e+03 7.673239898681640625e+01 1.280377578735351562e+01 1.290390454232692719e-02 -1.060978055000305176e+00 -3.144222497940063477e-01 -3.508150279521942139e-01
2.689000000000000000e+03 7.672202301025390625e+01 1.360736751556396484e+01 1.715320162475109100e-02 -1.129751801490783691e+00 -3.337795734405517578e-01 -3.456963598728179932e-01
2.690000000000000000e+03 7.660080718994140625e+01 2.082328033447265625e+01 3.927468135952949524e-02 -1.633108615875244141e+00 -4.781501889228820801e-01 -2.334371358156204224e-01
2.691000000000000000e+03 7.662245941162109375e+01 2.001688003540039062e+01 3.752811253070831299e-02 -1.591585159301757812e+00 -4.662171304225921631e-01 -2.470183074474334717e-01
2.692000000000000000e+03 7.645783996582031250e+01 2.482845115661621094e+01 3.837043792009353638e-02 -1.794738531112670898e+00 -5.269104242324829102e-01 -1.497192382812500000e-01
2.693000000000000000e+03 5.447673797607421875e+01 1.002839565277099609e+00 -2.968672037124633789e+00 1.691247522830963135e-01 -8.398641943931579590e-01 5.195742845535278320e-02
2.694000000000000000e+03 5.534526062011718750e+01 1.152522563934326172e+00 -2.689916133880615234e+00 1.209774389863014221e-01 -7.706816196441650391e-01 -8.578320592641830444e-02
2.695000000000000000e+03 2.493097305297851562e+00 5.573642253875732422e+00 4.820760750590125099e-06 1.270775328521267511e-06 1.827460891945520416e-06 -3.323748160255490802e-06
2.696000000000000000e+03 1.357561779022216797e+01 -5.134410381317138672e+00 -3.905416131019592285e-01 6.017546728253364563e-02 -9.910984337329864502e-02 -1.571577936410903931e-01
2.697000000000000000e+03 4.443538665771484375e+01 1.969812583923339844e+01 4.781835973262786865e-01 6.778573513031005859e+00 2.177026987075805664e+00 7.774234414100646973e-01
2.698000000000000000e+03 2.714413404464721680e+00 -3.313761901855468750e+01 -3.029597736895084381e-02 -1.504048425704240799e-02 -1.360093895345926285e-02 1.246354170143604279e-02
2.699000000000000000e+03 4.950695514678955078e+00 -3.229415512084960938e+01 -1.009639799594879150e-01 -1.581778675317764282e-01 -7.774255424737930298e-02 6.239683926105499268e-02
2.700000000000000000e+03 7.641152954101562500e+01 2.817384147644042969e+01 2.703993394970893860e-02 -1.886299490928649902e+00 -5.577778816223144531e-01 -9.042918682098388672e-02
2.701000000000000000e+03 1.228866672515869141e+01 1.688494873046875000e+01 8.171664376277476549e-05 4.719447315437719226e-05 3.867333361995406449e-05 -3.733877383638173342e-05
2.702000000000000000e+03 1.461844635009765625e+01 1.588119029998779297e+01 3.349138205521740019e-05 5.175883416086435318e-06 1.160018018708797172e-05 2.728019717324059457e-05
2.703000000000000000e+03 3.770547866821289062e+00 3.257417297363281250e+01 6.730067252647131681e-05 6.921710883034393191e-05 4.095533222425729036e-05 -2.302866778336465359e-04
2.704000000000000000e+03 7.192239379882812500e+01 -1.850573539733886719e+01 1.785330678103491664e-04 -3.539810131769627333e-05 4.294048994779586792e-05 1.739942526910454035e-04
2.705000000000000000e+03 2.589494228363037109e+00 -2.979616355895996094e+01 -7.803624868392944336e-02 -7.149160653352737427e-02 -4.485835507512092590e-02 1.171161755919456482e-01
2.706000000000000000e+03 7.145478820800781250e+01 -2.202230644226074219e+01 -3.741558612091466784e-05 -4.153232730459421873e-04 -1.358216541120782495e-04 2.708327956497669220e-04
2.707000000000000000e+03 7.594495391845703125e+01 3.361490631103515625e+01 1.928658969700336456e-02 -1.831820845603942871e+00 -5.437602996826171875e-01 -3.757931292057037354e-02
2.708000000000000000e+03 7.627943420410156250e+01 3.275176620483398438e+01 1.677155494689941406e-02 -1.900661945343017578e+00 -5.651671290397644043e-01 -4.303957521915435791e-02
2.709000000000000000e+03 2.553127527236938477e+00 2.230330848693847656e+01 -3.991940320702269673e-05 2.443377979943761602e-06 -1.124280697695212439e-05 -2.391481757513247430e-05
2.710000000000000000e+03 3.310647010803222656e+00 2.383689498901367188e+01 6.955952994758263230e-05 1.036167486745398492e-05 2.397636126261204481e-05 7.608889063703827560e-06
2.711000000000000000e+03 2.412742614746093750e+00 -7.686739444732666016e+00 -2.522983774542808533e-02 -3.139118850231170654e-01 -1.017425209283828735e-01 -2.318954020738601685e-01
2.712000000000000000e+03 4.980658531188964844e+00 -5.157194137573242188e+00 -1.279170513153076172e-01 -6.013382598757743835e-02 -5.641526356339454651e-02 -2.577746510505676270e-01
2.713000000000000000e+03 2.372878789901733398e+00 -9.197466850280761719e+00 -1.206084061414003372e-02 -4.188832640647888184e-01 -1.292832344770431519e-01 -2.528021633625030518e-01
2.714000000000000000e+03 3.627668762207031250e+01 5.557119473814964294e-02 -2.678599119186401367e+00 2.778794288635253906e+00 3.005851805210113525e-02 -1.363427340984344482e-01
2.715000000000000000e+03 3.336743831634521484e+00 2.544661140441894531e+01 8.551077189622446895e-05 1.714911377348471433e-05 3.079796442762017250e-05 6.450118689826922491e-06
2.716000000000000000e+03 2.488725423812866211e+00 8.658450126647949219e+00 8.811237421468831599e-06 2.548678139646654017e-06 3.407974645597278140e-06 -4.754626388603355736e-06
2.717000000000000000e+03 3.210739612579345703e+00 1.341029834747314453e+01 -1.499449717812240124e-05 -8.501635420543607324e-06 -7.048839961498742923e-06 1.066936238203197718e-05
2.718000000000000000e+03 4.224821567535400391e+00 -2.868152809143066406e+01 -1.978956311941146851e-01 -1.711807250976562500e-01 -1.107229068875312805e-01 2.101981788873672485e-01
2.719000000000000000e+03 3.652431726455688477e+00 -2.798912429809570312e+01 -1.657543331384658813e-01 -1.519247591495513916e-01 -9.530372917652130127e-02 2.476853281259536743e-01
2.720000000000000000e+03 3.013561487197875977e+00 -2.620033454895019531e+01 -9.422932565212249756e-02 -2.121803015470504761e-01 -9.192288666963577271e-02 3.389205336570739746e-01
2.721000000000000000e+03 2.498764038085937500e+00 1.588135910034179688e+01 -2.671908623597119004e-05 -8.407188033743295819e-06 -1.053788218996487558e-05 1.198748941533267498e-05
2.722000000000000000e+03 3.221302032470703125e+00 1.819500732421875000e+01 -3.092598126386292279e-05 -1.398972358401806559e-06 -9.697486348159145564e-06 8.400171282119117677e-06
2.723000000000000000e+03 2.500740289688110352e+00 1.427955436706542969e+01 -2.117001349688507617e-05 -8.867837095749564469e-06 -9.011355359689332545e-06 1.134346894104965031e-05
2.724000000000000000e+03 3.201290845870971680e+00 1.581559371948242188e+01 2.068714275083038956e-05 5.212559699430130422e-06 7.769910553179215640e-06 -7.512342563131824136e-06
2.725000000000000000e+03 3.396155834197998047e+00 -2.515580558776855469e+01 -6.737153232097625732e-02 -2.221772223711013794e-01 -8.686462789773941040e-02 4.034447371959686279e-01
2.726000000000000000e+03 2.443702220916748047e+00 -2.272704124450683594e+01 4.633632674813270569e-02 -5.049830079078674316e-01 -1.375940144062042236e-01 3.378749191761016846e-01
2.727000000000000000e+03 2.316581010818481445e+00 -2.335144996643066406e+01 1.634313166141510010e-02 -4.896344244480133057e-01 -1.419873833656311035e-01 3.395180404186248779e-01
2.728000000000000000e+03 3.414684534072875977e+00 -2.268652153015136719e+01 7.678541541099548340e-02 -2.840231657028198242e-01 -6.217132881283760071e-02 3.839402198791503906e-01
2.729000000000000000e+03 3.240622758865356445e+00 -1.233108139038085938e+01 3.896120935678482056e-02 -4.550439119338989258e-01 -1.248248070478439331e-01 -2.904194593429565430e-01
2.730000000000000000e+03 3.865416526794433594e+00 -1.080984210968017578e+01 6.456216331571340561e-03 -3.014368116855621338e-01 -8.849417418241500854e-02 -3.321631550788879395e-01
2.731000000000000000e+03 2.483450651168823242e+00 -1.154110527038574219e+01 1.117144525051116943e-02 -5.576800704002380371e-01 -1.639525890350341797e-01 -2.647515237331390381e-01
2.732000000000000000e+03 5.417460441589355469e+00 -4.108557224273681641e+00 -1.662722975015640259e-01 -2.586213499307632446e-02 -5.764032900333404541e-02 -2.229915559291839600e-01
2.733000000000000000e+03 3.234541893005371094e+00 -2.443320655822753906e+01 -1.638949289917945862e-02 -2.701947093009948730e-01 -8.597525954246520996e-02 4.097032546997070312e-01
2.734000000000000000e+03 2.519123315811157227e+00 -2.472951889038085938e+01 -2.641362138092517853e-02 -3.445414602756500244e-01 -1.112865284085273743e-01 3.591715097427368164e-01
2.735000000000000000e+03 2.328880548477172852e+00 -2.025114440917968750e+01 9.246013313531875610e-02 -6.905447244644165039e-01 -1.794253885746002197e-01 2.088648825883865356e-01
2.736000000000000000e+03 4.846506118774414062e+00 -1.934016609191894531e+01 2.896630465984344482e-01 9.217692166566848755e-02 1.145519912242889404e-01 2.674797773361206055e-01
2.737000000000000000e+03 3.133635520935058594e+00 -1.475522804260253906e+01 1.016891747713088989e-01 -5.629398822784423828e-01 -1.383752077817916870e-01 -1.917765736579895020e-01
2.738000000000000000e+03 3.564665079116821289e+00 -1.849819755554199219e+01 1.992548108100891113e-01 -3.968379199504852295e-01 -5.927493050694465637e-02 1.268190890550613403e-01
2.739000000000000000e+03 2.402889966964721680e+00 -2.400508117675781250e+01 3.182508749887347221e-03 -4.190770983695983887e-01 -1.247683838009834290e-01 3.596518039703369141e-01
2.740000000000000000e+03 3.214325189590454102e+00 1.260925102233886719e+01 1.223801973537774757e-05 6.192634373292094097e-06 5.529196187126217410e-06 -5.374926331569440663e-06
2.741000000000000000e+03 3.206383466720581055e+00 1.421817207336425781e+01 1.528651227999944240e-05 6.999267043283907697e-06 6.685733751510269940e-06 -6.695362117170589045e-06
2.742000000000000000e+03 3.908729076385498047e+00 1.419294929504394531e+01 -1.156018879555631429e-05 -9.516420504951383919e-06 -6.322982699202839285e-06 1.241111658600857481e-05
2.743000000000000000e+03 2.968411207199096680e+00 -8.473608970642089844e+00 -2.767526917159557343e-02 -3.108168244361877441e-01 -1.015476286411285400e-01 -2.784360647201538086e-01
2.744000000000000000e+03 3.150780439376831055e+00 -1.151893234252929688e+01 1.692538894712924957e-02 -4.391636252403259277e-01 -1.266714781522750854e-01 -2.975877821445465088e-01
2.745000000000000000e+03 4.232752799987792969e+00 -1.167757129669189453e+01 3.866760432720184326e-02 -2.480535805225372314e-01 -6.281579285860061646e-02 -3.301107287406921387e-01
2.746000000000000000e+03 2.509183168411254883e+00 1.828018379211425781e+01 3.720913082361221313e-05 -1.097132212635187898e-06 1.083359984477283433e-05 -2.518654582672752440e-06
2.747000000000000000e+03 3.306129693984985352e+00 2.303059387207031250e+01 -3.667953933472745121e-05 6.662451141892233863e-06 -9.005126230476889759e-06 -3.729967647814191878e-05
2.748000000000000000e+03 2.536446809768676758e+00 2.069592666625976562e+01 -3.938952067983336747e-05 -4.357059708581800805e-07 -1.194756805489305407e-05 -8.536806490155868232e-06
2.749000000000000000e+03 3.985255479812622070e+00 1.971158981323242188e+01 4.010550401289947331e-05 -4.786303634318755940e-06 1.059576061379630119e-05 -2.838751242961734533e-07
2.750000000000000000e+03 3.387052536010742188e+00 2.704394721984863281e+01 8.714541763765737414e-05 4.270562931196764112e-05 3.895531335729174316e-05 3.862621269945520908e-06
2.751000000000000000e+03 2.586887836456298828e+00 2.552458190917968750e+01 -3.081644535996019840e-05 2.203324766014702618e-05 -2.634959628267097287e-06 -7.394191197818145156e-05
2.752000000000000000e+03 3.487696886062622070e+00 2.947174263000488281e+01 8.797289410722441971e-06 4.157441435381770134e-05 1.511151094746310264e-05 -1.975203922484070063e-04
2.753000000000000000e+03 2.651762962341308594e+00 2.793624496459960938e+01 5.061060073785483837e-05 6.973562994971871376e-05 3.610386920627206564e-05 -4.912417352898046374e-06
2.754000000000000000e+03 3.417183876037597656e+00 2.785371589660644531e+01 -1.077257275028387085e-05 2.319280247320421040e-05 3.726068825926631689e-06 -1.501404040027409792e-04
2.755000000000000000e+03 2.481308221817016602e+00 7.086190223693847656e+00 6.513670541608007625e-06 2.242457412648946047e-06 2.626838522701291367e-06 -4.014160367660224438e-06
2.756000000000000000e+03 2.396121263504028320e+00 -2.091616058349609375e+01 8.355543762445449829e-02 -6.351947784423828125e-01 -1.654917895793914795e-01 2.547414600849151611e-01
2.757000000000000000e+03 3.537803649902343750e+00 -2.154031181335449219e+01 1.393551677465438843e-01 -2.721818685531616211e-01 -3.984800726175308228e-02 3.463374078273773193e-01
2.758000000000000000e+03 3.436556816101074219e+00 -1.600062179565429688e+01 1.534539610147476196e-01 -4.911691248416900635e-01 -1.013145446777343750e-01 -1.008483842015266418e-01
2.759000000000000000e+03 3.140753746032714844e+00 -1.659392547607421875e+01 1.572397500276565552e-01 -5.746805071830749512e-01 -1.252322196960449219e-01 -6.567988544702529907e-02
2.760000000000000000e+03 3.301061868667602539e+00 2.222355270385742188e+01 5.657842484652064741e-05 3.681632051666383632e-06 1.807801709219347686e-05 7.770649062877055258e-06
2.761000000000000000e+03 3.192922353744506836e+00 -7.056370258331298828e+00 -4.599233716726303101e-02 -2.228915244340896606e-01 -8.066515624523162842e-02 -2.617190182209014893e-01
2.762000000000000000e+03 3.236194372177124023e+00 1.898799514770507812e+01 3.800624108407646418e-05 -1.482330048929725308e-06 1.095717288990272209e-05 -1.266545950784347951e-06
2.763000000000000000e+03 3.214993000030517578e+00 1.101548290252685547e+01 9.912914720189291984e-06 3.985584953625220805e-06 4.169549811194883659e-06 -5.009283540857722983e-06
2.764000000000000000e+03 3.204114437103271484e+00 1.660762786865234375e+01 -2.441052674839738756e-05 -5.883474386791931465e-06 -9.088200386031530797e-06 1.260402314073871821e-05
2.765000000000000000e+03 3.210198879241943359e+00 1.740242004394531250e+01 2.859553751477506012e-05 2.489383859938243404e-06 9.325476639787666500e-06 -5.975753538223216310e-06
2.766000000000000000e+03 3.210911273956298828e+00 1.020400238037109375e+01 -9.918320756696630269e-06 -4.335709945735288784e-06 -4.276208983355900273e-06 7.649504368600901216e-06
2.767000000000000000e+03 3.216193199157714844e+00 1.181487083435058594e+01 -1.268399319087620825e-05 -6.405536169040715322e-06 -5.726858944399282336e-06 8.694775715412106365e-06
2.768000000000000000e+03 3.206946849822998047e+00 9.393159866333007812e+00 7.730498509772587568e-06 3.163831252095405944e-06 3.268298996772500686e-06 -5.241401595412753522e-06
2.769000000000000000e+03 7.048425292968750000e+01 -1.820938682556152344e+01 2.108712214976549149e-05 1.814137976907659322e-05 1.176855039375368506e-05 1.219387413584627211e-04
2.770000000000000000e+03 2.705683708190917969e+00 -3.147676086425781250e+01 -5.492056533694267273e-02 -4.024721682071685791e-02 -2.855033427476882935e-02 5.398203060030937195e-02
2.771000000000000000e+03 4.851379394531250000e+00 -3.155392074584960938e+01 -1.222065314650535583e-01 -1.647146940231323242e-01 -8.607636392116546631e-02 8.870903402566909790e-02
2.772000000000000000e+03 3.449867486953735352e+00 -3.231974029541015625e+01 -5.863678827881813049e-02 -7.368477433919906616e-02 -3.969646990299224854e-02 4.138841480016708374e-02
2.773000000000000000e+03 4.402410888671875000e+01 -2.362609481811523438e+01 4.288057982921600342e-01 3.252490282058715820e+00 1.104388833045959473e+00 -1.057646155357360840e+00
2.774000000000000000e+03 4.633285522460937500e+00 3.569650268554687500e+01 1.723053428577259183e-04 -1.283307501580566168e-04 1.319237799179973081e-05 -1.387672527926042676e-04
2.775000000000000000e+03 2.964090585708618164e+00 3.274228286743164062e+01 -3.092404995186370797e-06 2.141430741176009178e-04 6.331520125968381763e-05 -1.014777662931010127e-04
2.776000000000000000e+03 4.324758529663085938e+00 3.020501899719238281e+01 1.419333329977234825e-05 3.716992068802937865e-06 5.373097792471526191e-06 -2.648622903507202864e-04
2.777000000000000000e+03 3.534889698028564453e+00 3.026570892333984375e+01 5.743098517996259034e-05 1.291693915845826268e-04 5.598011193796992302e-05 -3.473405740805901587e-05
2.778000000000000000e+03 4.066119194030761719e+00 2.298091506958007812e+01 6.968389061512425542e-05 5.920790954405674711e-06 2.268140451633371413e-05 5.107719061925308779e-06
2.779000000000000000e+03 3.239199399948120117e+00 6.263746738433837891e+00 4.372581315692514181e-06 2.224988975285668857e-06 1.979271019081352279e-06 -3.754948011192027479e-06
2.780000000000000000e+03 3.213250398635864258e+00 7.801005840301513672e+00 5.700910605810349807e-06 3.180048679496394470e-06 2.664287649167818017e-06 -4.674741376220481470e-06
2.781000000000000000e+03 3.321038961410522461e+00 2.464531898498535156e+01 -3.641242437879554927e-05 1.418355714122299105e-05 -6.668660262221237645e-06 -6.368775939336046576e-05
2.782000000000000000e+03 7.242874908447265625e+01 -9.757946968078613281e+00 -1.391975209116935730e-03 -1.687860488891601562e-02 -5.481174215674400330e-03 9.787613525986671448e-04
2.783000000000000000e+03 3.911045455932617188e+01 3.393663167953491211e+00 -9.987350106239318848e-01 8.717604637145996094e+00 2.315660715103149414e+00 1.579659461975097656e+00
2.784000000000000000e+03 4.212829208374023438e+01 8.856136322021484375e+00 1.547408819198608398e+00 8.874638557434082031e+00 3.126614093780517578e+00 2.917936563491821289e+00
2.785000000000000000e+03 4.420516204833984375e+01 1.182669162750244141e+01 1.434419393539428711e+00 6.786089420318603516e+00 2.466152667999267578e+00 2.112858057022094727e+00
2.786000000000000000e+03 1.401456260681152344e+01 1.930339813232421875e+01 1.099378932849504054e-04 1.417586099705658853e-05 3.723412737599574029e-05 3.351791747263632715e-05
2.787000000000000000e+03 1.333623123168945312e+01 2.014932823181152344e+01 8.129820344038307667e-05 2.428240622975863516e-05 3.167418253724463284e-05 1.325531502516241744e-05
2.788000000000000000e+03 7.390096282958984375e+01 -8.955413818359375000e+00 -1.046587713062763214e-02 -1.530607137829065323e-02 -7.731584366410970688e-03 7.020518183708190918e-03
2.789000000000000000e+03 7.316338348388671875e+01 -8.994935035705566406e+00 -1.157108321785926819e-02 -1.818530634045600891e-02 -8.926916867494583130e-03 3.758969483897089958e-03
2.790000000000000000e+03 6.385125637054443359e+00 -3.105514907836914062e+01 -2.009443789720535278e-01 -2.475949972867965698e-01 -1.345618069171905518e-01 1.355376094579696655e-01
2.791000000000000000e+03 7.062183380126953125e+01 -2.767301750183105469e+01 -7.509288378059864044e-03 8.256706641986966133e-04 -2.005085349082946777e-03 -6.429015193134546280e-04
2.792000000000000000e+03 5.845387649536132812e+01 3.996448218822479248e-01 -2.177984476089477539e+00 1.196528039872646332e-02 -6.498057842254638672e-01 -1.889193505048751831e-01
2.793000000000000000e+03 4.003290557861328125e+01 -6.453631401062011719e+00 1.355341196060180664e+00 1.153016757965087891e+01 3.865652561187744141e+00 1.551404118537902832e+00
2.794000000000000000e+03 1.531928825378417969e+01 1.110680007934570312e+01 -1.968804645002819598e-05 -9.451669029658660293e-06 -8.741914825804997236e-06 -1.289917054236866534e-05
2.795000000000000000e+03 1.535654544830322266e+01 9.379824638366699219e+00 3.406197038202662952e-06 9.991811566578689963e-06 4.019402695121243596e-06 9.819273145694751292e-06
2.796000000000000000e+03 7.217050170898437500e+01 -2.260343170166015625e+01 -2.029927854891866446e-04 -6.767410086467862129e-04 -2.639201411511749029e-04 2.072073839372023940e-04
2.797000000000000000e+03 3.656226873397827148e+00 3.182019615173339844e+01 1.392900685459608212e-05 1.989451266126707196e-04 6.386224413290619850e-05 -8.382146916119381785e-05
2.798000000000000000e+03 3.521127700805664062e+00 -3.472814941406250000e+01 -1.732698827981948853e-02 -4.701801761984825134e-02 -1.930350251495838165e-02 -2.108464948832988739e-03
2.799000000000000000e+03 3.432142257690429688e+00 -3.312471771240234375e+01 -4.389376938343048096e-02 -6.236744672060012817e-02 -3.187836334109306335e-02 2.061176113784313202e-02
2.800000000000000000e+03 3.704433441162109375e+01 -2.421878242492675781e+01 1.162289500236511230e+00 6.564337730407714844e+00 2.317988157272338867e+00 9.767574667930603027e-01
2.801000000000000000e+03 2.708740425109863281e+01 -1.620327186584472656e+01 4.961951971054077148e-01 -8.313035219907760620e-02 1.239194497466087341e-01 4.607118666172027588e-01
2.802000000000000000e+03 4.271407318115234375e+01 -2.259667015075683594e+01 2.546910345554351807e-01 4.535306453704833984e+00 1.436999320983886719e+00 -8.585564494132995605e-01
2.803000000000000000e+03 1.455254840850830078e+01 1.087634944915771484e+01 7.191434178821509704e-06 3.250570671298191883e-06 3.132601477773278020e-06 1.161577347374986857e-05
2.804000000000000000e+03 1.617499923706054688e+01 3.371649551391601562e+01 7.425263756886124611e-04 -1.025121237034909427e-04 1.920042705023661256e-04 3.185612731613218784e-04
2.805000000000000000e+03 7.020400238037109375e+01 -9.945864677429199219e+00 5.133204627782106400e-03 -1.738535426557064056e-02 -3.675644984468817711e-03 -9.080137126147747040e-03
2.806000000000000000e+03 3.600722885131835938e+01 -1.659356498718261719e+01 -1.627479940652847290e-01 4.993813514709472656e+00 1.449319720268249512e+00 9.421223658137023449e-04
2.807000000000000000e+03 3.975325775146484375e+01 -1.385937786102294922e+01 7.634540200233459473e-01 9.984765052795410156e+00 3.224465608596801758e+00 -5.690671801567077637e-01
2.808000000000000000e+03 2.595720291137695312e+01 -4.169106483459472656e+00 -1.168320894241333008e+00 -3.331472575664520264e-01 -4.504404664039611816e-01 -7.081467509269714355e-01
2.809000000000000000e+03 3.888535690307617188e+01 -9.796360969543457031e+00 1.305090904235839844e+00 9.478168487548828125e+00 3.234977722167968750e+00 8.170847892761230469e-01
2.810000000000000000e+03 3.953343582153320312e+01 -8.996685028076171875e+00 1.291062355041503906e+00 1.080286979675292969e+01 3.628179550170898438e+00 1.076474308967590332e+00
2.811000000000000000e+03 1.722013854980468750e+01 6.474505424499511719e+00 -1.583986886544153094e-05 -6.443277925427537411e-06 -6.684944310109131038e-06 -4.711480869445949793e-06
2.812000000000000000e+03 3.719246625900268555e+00 -4.475261688232421875e+00 -9.126249700784683228e-02 -9.263478219509124756e-02 -5.516918376088142395e-02 -2.036507576704025269e-01
2.813000000000000000e+03 6.785348415374755859e+00 -5.040707111358642578e+00 -1.985604166984558105e-01 1.385896466672420502e-02 -5.541043356060981750e-02 -2.639302015304565430e-01
2.814000000000000000e+03 6.398214340209960938e+00 -4.457678794860839844e+00 -1.988030821084976196e-01 2.506977645680308342e-03 -5.888883024454116821e-02 -2.428751438856124878e-01
2.815000000000000000e+03 3.614212751388549805e+00 -5.416840076446533203e+00 -7.722312211990356445e-02 -1.275450438261032104e-01 -6.143044680356979370e-02 -2.324637025594711304e-01
2.816000000000000000e+03 3.375127315521240234e+00 -6.276516437530517578e+00 -6.025239825248718262e-02 -1.756464838981628418e-01 -7.076966017484664917e-02 -2.514169812202453613e-01
2.817000000000000000e+03 7.568777084350585938e+00 -4.808960914611816406e+00 -2.327555119991302490e-01 3.790365532040596008e-02 -5.845555663108825684e-02 -2.537901997566223145e-01
2.818000000000000000e+03 4.460012435913085938e+01 2.727957534790039062e+01 7.984892129898071289e-01 5.842306613922119141e+00 1.992238759994506836e+00 -2.330649644136428833e-01
2.819000000000000000e+03 1.810265731811523438e+01 -1.432611942291259766e+01 7.598966360092163086e-01 -1.099674478173255920e-01 1.949787437915802002e-01 -5.321645364165306091e-02
2.820000000000000000e+03 5.070940399169921875e+01 2.933255434036254883e+00 -3.286365509033203125e+00 2.816327810287475586e-01 -9.014197587966918945e-01 -4.648350477218627930e-01
2.821000000000000000e+03 2.615393638610839844e+01 -1.562940883636474609e+01 6.432998776435852051e-01 -1.654636412858963013e-01 1.433508694171905518e-01 3.918174505233764648e-01
2.822000000000000000e+03 4.774254989624023438e+01 -3.013426780700683594e+01 1.310999542474746704e-01 1.623828172683715820e+00 5.264784097671508789e-01 -7.425063252449035645e-01
2.823000000000000000e+03 1.053270149230957031e+01 -3.440248489379882812e+01 -1.665563583374023438e-01 -2.017178982496261597e-01 -1.104822829365730286e-01 9.157934784889221191e-02
2.824000000000000000e+03 7.615138244628906250e+01 -9.132660865783691406e+00 -3.521455684676766396e-03 -3.247795160859823227e-03 -2.030775183811783791e-03 1.458952110260725021e-02
2.825000000000000000e+03 3.860914611816406250e+01 1.446688413619995117e+00 -2.567708492279052734e+00 7.553624629974365234e+00 1.495774865150451660e+00 4.714975953102111816e-01
2.826000000000000000e+03 3.912662887573242188e+01 2.196021318435668945e+00 -2.327827930450439453e+00 8.427575111389160156e+00 1.829924106597900391e+00 6.862853169441223145e-01
2.827000000000000000e+03 1.647673988342285156e+01 4.948044300079345703e+00 1.030423118209000677e-05 -5.689550562237855047e-06 1.384404185955645517e-06 -7.308250133064575493e-06
2.828000000000000000e+03 3.526911544799804688e+01 -1.659658908843994141e+00 -2.149616241455078125e+00 1.722180366516113281e+00 -1.282307803630828857e-01 -1.534672975540161133e-01
2.829000000000000000e+03 3.813693618774414062e+01 -1.996245861053466797e+00 -1.291574478149414062e+00 6.793028354644775391e+00 1.650436043739318848e+00 5.373731851577758789e-01
2.830000000000000000e+03 5.144872283935546875e+01 -3.077702331542968750e+01 1.073922440409660339e-01 7.970747351646423340e-01 2.713401019573211670e-01 -4.161371290683746338e-01
2.831000000000000000e+03 5.339579010009765625e+01 -3.436342620849609375e+01 -2.286604791879653931e-02 6.463578939437866211e-01 1.870475560426712036e-01 -3.036268353462219238e-01
2.832000000000000000e+03 1.683276939392089844e+01 -5.424297809600830078e+00 -4.086078703403472900e-01 -3.017899207770824432e-02 -1.316360682249069214e-01 -1.230456903576850891e-01
2.833000000000000000e+03 5.072634124755859375e+01 3.631169557571411133e+00 -2.632532119750976562e+00 2.941447794437408447e-01 -7.015162110328674316e-01 -6.216600537300109863e-01
2.834000000000000000e+03 1.396166992187500000e+01 -1.383695983886718750e+01 7.897512316703796387e-01 2.141313105821609497e-01 3.011647760868072510e-01 -3.448758646845817566e-02
2.835000000000000000e+03 1.157278537750244141e+01 -1.380463027954101562e+01 7.364493012428283691e-01 3.410243093967437744e-01 3.232420980930328369e-01 -4.316374287009239197e-02
2.836000000000000000e+03 3.016995620727539062e+01 -1.491025447845458984e+01 9.489023089408874512e-01 -1.852316111326217651e-01 2.291011959314346313e-01 7.478478550910949707e-01
2.837000000000000000e+03 3.737624359130859375e+01 1.351521015167236328e-01 -2.583106279373168945e+00 5.300983905792236328e+00 8.153633475303649902e-01 2.463940680027008057e-01
2.838000000000000000e+03 3.991288375854492188e+01 4.774297475814819336e-01 -2.807545661926269531e+00 9.034034729003906250e+00 1.867946863174438477e+00 1.786815673112869263e-01
2.839000000000000000e+03 6.757350921630859375e+01 -6.645290374755859375e+00 -7.628777623176574707e-02 1.672489997872617096e-05 -2.288131602108478546e-02 1.686868257820606232e-02
2.840000000000000000e+03 6.779019927978515625e+01 -5.582615852355957031e+00 -1.637881547212600708e-01 1.171657443046569824e-02 -4.562147334218025208e-02 2.518894895911216736e-02
2.841000000000000000e+03 1.599671649932861328e+01 7.912850856781005859e+00 6.017205578245921060e-06 8.855407031660433859e-06 4.461783646547701210e-06 6.578007742064073682e-06
2.842000000000000000e+03 1.628151512145996094e+01 7.155202865600585938e+00 -6.381268576660659164e-06 -9.581463928043376654e-06 -4.788819751411210746e-06 -5.589331067312741652e-06
2.843000000000000000e+03 1.342638206481933594e+01 2.812412834167480469e+01 2.351440198253840208e-04 -5.557139229495078325e-05 5.387178680393844843e-05 2.999363459821324795e-05
2.844000000000000000e+03 1.457266616821289062e+01 2.964307785034179688e+01 6.629585986956954002e-04 -4.541179077932611108e-05 1.852640416473150253e-04 2.849576994776725769e-04
2.845000000000000000e+03 7.623860931396484375e+01 -7.753514766693115234e+00 -1.239155977964401245e-02 -5.880576558411121368e-03 -5.481640808284282684e-03 9.466547518968582153e-03
2.846000000000000000e+03 1.498163318634033203e+01 1.010842800140380859e+01 -1.441683252778602764e-06 -1.003518900688504800e-05 -3.443061586949625053e-06 -1.402453108312329277e-05
2.847000000000000000e+03 3.851654052734375000e+01 -2.228657913208007812e+01 4.062941670417785645e-01 6.392790794372558594e+00 2.039725542068481445e+00 8.977797031402587891e-01
2.848000000000000000e+03 1.318995380401611328e+01 2.472934150695800781e+01 -1.171541298390366137e-04 -1.319298316957429051e-04 -7.472519064322113991e-05 9.547479567117989063e-05
2.849000000000000000e+03 1.241090106964111328e+01 2.298652839660644531e+01 4.258887565811164677e-05 2.257390588056296110e-04 8.049837924772873521e-05 2.565101203799713403e-05
2.850000000000000000e+03 4.400681686401367188e+01 1.535841274261474609e+01 1.018972039222717285e+00 7.325090408325195312e+00 2.503218650817871094e+00 1.533853411674499512e+00
2.851000000000000000e+03 4.421291351318359375e+01 1.705533599853515625e+01 7.904397249221801758e-01 7.105113506317138672e+00 2.368665933609008789e+00 1.234664320945739746e+00
2.852000000000000000e+03 5.140119171142578125e+01 2.079024791717529297e+00 -3.694020748138427734e+00 3.807041049003601074e-01 -9.939950108528137207e-01 -1.317888945341110229e-01
2.853000000000000000e+03 5.141111373901367188e+01 2.840981245040893555e+00 -3.184599399566650391e+00 3.687395453453063965e-01 -8.447579741477966309e-01 -4.523506462574005127e-01
2.854000000000000000e+03 9.633288383483886719e+00 5.103704452514648438e+00 5.875092028873041272e-06 8.554063697374658659e-07 2.019149633269989863e-06 8.581172750155019457e-08
2.855000000000000000e+03 1.695632362365722656e+01 3.558958053588867188e+00 -4.712070676760049537e-06 -7.166889190557412803e-06 -3.563687869245768525e-06 2.933934410975780338e-06
2.856000000000000000e+03 1.830836677551269531e+01 4.694269657135009766e+00 3.270564263857522747e-08 -8.615770070719008800e-07 -2.486613936980575090e-07 -4.234067546349251643e-06
2.857000000000000000e+03 3.448783493041992188e+01 -1.662335395812988281e+01 -1.591310650110244751e-01 2.657466411590576172e+00 7.495005726814270020e-01 -2.703224718570709229e-01
2.858000000000000000e+03 3.697681427001953125e+01 -1.629477500915527344e+01 1.420695483684539795e-01 6.016611099243164062e+00 1.847604274749755859e+00 1.222114861011505127e-01
2.859000000000000000e+03 4.515825653076171875e+01 3.162917327880859375e+01 4.060768783092498779e-01 4.834455490112304688e+00 1.572159767150878906e+00 1.406431496143341064e-01
2.860000000000000000e+03 4.470362091064453125e+01 2.979311180114746094e+01 7.182520627975463867e-01 5.255902767181396484e+00 1.792246460914611816e+00 -7.776714861392974854e-02
2.861000000000000000e+03 1.323241996765136719e+01 2.735051345825195312e+01 1.837510790210217237e-04 -6.361686246236786246e-05 3.604026278480887413e-05 1.482986262999475002e-04
2.862000000000000000e+03 5.696895217895507812e+01 6.639924645423889160e-01 -2.466811418533325195e+00 1.146846730262041092e-02 -7.366029024124145508e-01 -1.462166160345077515e-01
2.863000000000000000e+03 5.450834274291992188e+01 2.721362113952636719e+00 -2.410682439804077148e+00 3.197154700756072998e-01 -6.272900700569152832e-01 -4.079304635524749756e-01
2.864000000000000000e+03 1.516971397399902344e+01 -5.296765327453613281e+00 -4.008553624153137207e-01 1.813425682485103607e-02 -1.148163303732872009e-01 -1.340998113155364990e-01
2.865000000000000000e+03 1.599700260162353516e+01 -5.368457317352294922e+00 -4.036042392253875732e-01 -7.604650687426328659e-03 -1.233626604080200195e-01 -1.295881569385528564e-01
2.866000000000000000e+03 4.526526260375976562e+01 1.872239112854003906e+01 7.331837415695190430e-01 6.273405551910400391e+00 2.101976871490478516e+00 9.790745377540588379e-01
2.867000000000000000e+03 4.379803466796875000e+01 2.785425424575805664e+00 -3.506425380706787109e+00 5.858492374420166016e+00 7.056201100349426270e-01 2.034958362579345703e+00
2.868000000000000000e+03 1.487465763092041016e+01 4.641599178314208984e+00 -4.874901605944614857e-06 -7.332243512792047113e-06 -3.662143399196793325e-06 2.301938195614638971e-07
2.869000000000000000e+03 4.410430526733398438e+01 1.620079612731933594e+01 9.075704813003540039e-01 7.224530220031738281e+00 2.439630031585693359e+00 1.398493528366088867e+00
2.870000000000000000e+03 7.009477233886718750e+01 -2.812877464294433594e+01 -9.169851429760456085e-03 1.497863791882991791e-03 -2.301596337929368019e-03 -1.754083787091076374e-03
2.871000000000000000e+03 1.538880634307861328e+01 -3.565261840820312500e+01 -1.806711107492446899e-01 -9.525959938764572144e-02 -8.277921378612518311e-02 -1.287953834980726242e-02
2.872000000000000000e+03 3.903730392456054688e+01 -1.622537994384765625e+01 6.509762406349182129e-01 8.146667480468750000e+00 2.639293193817138672e+00 -9.304551035165786743e-02
2.873000000000000000e+03 3.891667556762695312e+01 -1.138169097900390625e+01 1.007705569267272949e+00 9.384531021118164062e+00 3.117671012878417969e+00 3.014547526836395264e-01
2.874000000000000000e+03 1.440384292602539062e+01 3.165137863159179688e+01 1.358671695925295353e-03 8.001464448170736432e-05 4.316059057600796223e-04 8.845423144521191716e-05
2.875000000000000000e+03 6.879807281494140625e+01 -7.412718296051025391e+00 -4.843064770102500916e-02 -1.377362757921218872e-02 -1.866128295660018921e-02 2.091878093779087067e-03
2.876000000000000000e+03 6.683351135253906250e+01 -5.368143558502197266e+00 -1.829299330711364746e-01 2.130228094756603241e-02 -4.848829284310340881e-02 4.604263231158256531e-02
2.877000000000000000e+03 5.918875503540039062e+01 2.290636450052261353e-01 -2.026955604553222656e+00 2.919281832873821259e-02 -5.993288755416870117e-01 -1.872222423553466797e-01
2.878000000000000000e+03 4.333171844482421875e+01 1.118463134765625000e+01 1.382641315460205078e+00 7.730991840362548828e+00 2.734089851379394531e+00 2.397038698196411133e+00
2.879000000000000000e+03 2.749821090698242188e+01 -1.534595584869384766e+01 6.771456003189086914e-01 -2.004172503948211670e-01 1.430184990167617798e-01 5.701243877410888672e-01
2.880000000000000000e+03 4.967340946197509766e+00 -2.799657821655273438e+01 -2.544554769992828369e-01 -2.174638956785202026e-01 -1.415758132934570312e-01 2.510719895362854004e-01
2.881000000000000000e+03 4.286171913146972656e+00 -2.639375877380371094e+01 -1.712073385715484619e-01 -1.705076843500137329e-01 -1.025145053863525391e-01 3.532678484916687012e-01
2.882000000000000000e+03 2.175125885009765625e+01 -3.398940658569335938e+01 -2.774467170238494873e-01 -8.434924297034740448e-03 -8.576449006795883179e-02 -4.617466032505035400e-02
2.883000000000000000e+03 3.950334787368774414e+00 -2.411060142517089844e+01 4.772157873958349228e-03 -1.639459282159805298e-01 -4.775213077664375305e-02 4.154861271381378174e-01
2.884000000000000000e+03 3.743482112884521484e+00 -2.335732078552246094e+01 4.819360747933387756e-02 -2.057056277990341187e-01 -4.725360497832298279e-02 4.091868698596954346e-01
2.885000000000000000e+03 1.506344699859619141e+01 1.189464759826660156e+01 1.992961915675550699e-05 1.731263546389527619e-05 1.117267674999311566e-05 1.014772351481951773e-05
2.886000000000000000e+03 1.698036384582519531e+01 -3.482371902465820312e+01 -2.413905560970306396e-01 -6.664155423641204834e-02 -9.240963310003280640e-02 -2.579911611974239349e-02
2.887000000000000000e+03 2.868784713745117188e+01 -1.489089393615722656e+01 8.412581086158752441e-01 -2.531378567218780518e-01 1.764360815286636353e-01 7.167305350303649902e-01
2.888000000000000000e+03 3.868363189697265625e+01 -5.310924530029296875e+00 9.370136260986328125e-01 8.399041175842285156e+00 2.800816297531127930e+00 1.148791670799255371e+00
2.889000000000000000e+03 6.775123596191406250e+01 -3.136101913452148438e+01 -3.861111029982566833e-02 9.508564136922359467e-03 -8.730763569474220276e-03 4.597503226250410080e-03
2.890000000000000000e+03 6.872579193115234375e+01 -2.988497924804687500e+01 -2.322190627455711365e-02 5.242805462330579758e-03 -5.393730476498603821e-03 -8.768265834078192711e-04
2.891000000000000000e+03 2.028281784057617188e+01 -5.415912151336669922e+00 -4.757253527641296387e-01 -9.288254380226135254e-02 -1.705823689699172974e-01 -1.693393588066101074e-01
2.892000000000000000e+03 6.673352813720703125e+01 -3.384534835815429688e+01 -4.302353039383888245e-02 1.256760954856872559e-02 -9.136775508522987366e-03 3.302866593003273010e-02
2.893000000000000000e+03 4.255668258666992188e+01 7.807551383972167969e+00 1.268241882324218750e+00 7.778886795043945312e+00 2.714138746261596680e+00 2.621901750564575195e+00
2.894000000000000000e+03 3.889835739135742188e+01 -1.058119964599609375e+01 1.134551286697387695e+00 9.458781242370605469e+00 3.177999734878540039e+00 5.747192502021789551e-01
2.895000000000000000e+03 3.825739288330078125e+01 -1.220192337036132812e+01 1.090558886528015137e+00 8.150166511535644531e+00 2.772217750549316406e+00 1.798768937587738037e-01
2.896000000000000000e+03 4.918266296386718750e+00 -1.754852867126464844e+01 3.603110015392303467e-01 -1.838919520378112793e-02 1.025765389204025269e-01 1.057223156094551086e-01
2.897000000000000000e+03 4.065590667724609375e+01 4.570753574371337891e+00 -6.571792364120483398e-01 9.340279579162597656e+00 2.604930162429809570e+00 1.891529560089111328e+00
2.898000000000000000e+03 1.350498390197753906e+01 2.557212448120117188e+01 2.615364210214465857e-04 7.245558663271367550e-05 1.001976052066311240e-04 4.144538979744538665e-05
2.899000000000000000e+03 1.157098770141601562e+01 2.317449951171875000e+01 1.028366968967020512e-04 2.203053154516965151e-04 9.694260370451956987e-05 -4.177344817435368896e-05
2.900000000000000000e+03 3.911267089843750000e+01 -1.471318340301513672e+01 8.336981534957885742e-01 8.760361671447753906e+00 2.878217935562133789e+00 -3.533724546432495117e-01
2.901000000000000000e+03 4.443329238891601562e+01 3.307126998901367188e+01 9.967954456806182861e-02 4.720988750457763672e+00 1.446200609207153320e+00 6.437847763299942017e-02
2.902000000000000000e+03 9.664667129516601562e+00 -1.288672542572021484e+01 3.945863544940948486e-01 3.326782584190368652e-01 2.181793898344039917e-01 -1.279595047235488892e-01
2.903000000000000000e+03 9.629817962646484375e+00 -1.357592391967773438e+01 5.245525240898132324e-01 3.507280051708221436e-01 2.625841498374938965e-01 -8.174658566713333130e-02
2.904000000000000000e+03 4.193521118164062500e+01 -2.227332115173339844e+01 1.846006959676742554e-01 5.169897079467773438e+00 1.606349229812622070e+00 -5.608049035072326660e-01
2.905000000000000000e+03 3.273649597167968750e+01 -2.873674869537353516e+00 -1.878768563270568848e+00 -5.628269910812377930e-01 -7.324786782264709473e-01 -8.486658930778503418e-01
2.906000000000000000e+03 3.613351821899414062e+01 -5.965554237365722656e+00 1.109852194786071777e+00 4.260835647583007812e+00 1.611206412315368652e+00 7.083656787872314453e-01
2.907000000000000000e+03 4.441322708129882812e+01 2.750014305114746094e+00 -3.573091506958007812e+00 4.273060798645019531e+00 2.099908441305160522e-01 2.143106460571289062e+00
2.908000000000000000e+03 4.525760650634765625e+01 3.092660903930664062e+00 -3.212010622024536133e+00 2.178552150726318359e+00 -3.100375831127166748e-01 2.067697286605834961e+00
2.909000000000000000e+03 3.250874328613281250e+01 -1.562361621856689453e+01 6.179661750793457031e-01 4.294275641441345215e-01 3.142181336879730225e-01 3.136940896511077881e-01
2.910000000000000000e+03 3.183614158630371094e+01 -1.548128032684326172e+01 7.421392798423767090e-01 3.713860362768173218e-02 2.337833642959594727e-01 5.346317887306213379e-01
2.911000000000000000e+03 2.922919082641601562e+01 -3.766969680786132812e+00 -1.683625340461730957e+00 -8.011715412139892578e-01 -7.454390525817871094e-01 -1.072733044624328613e+00
2.912000000000000000e+03 2.116116714477539062e+01 -6.070623397827148438e+00 -3.721102178096771240e-01 -1.420420259237289429e-01 -1.542456746101379395e-01 -2.306129485368728638e-01
2.913000000000000000e+03 4.102344989776611328e+00 -2.487491416931152344e+01 -5.437676981091499329e-02 -1.604618430137634277e-01 -6.445158272981643677e-02 4.143730998039245605e-01
2.914000000000000000e+03 5.441410827636718750e+01 1.941313147544860840e+00 -2.669594764709472656e+00 2.856554090976715088e-01 -7.151817679405212402e-01 -2.108606994152069092e-01
2.915000000000000000e+03 3.731029129028320312e+01 -2.982958030700683594e+01 -4.845340922474861145e-02 4.606213569641113281e+00 1.367328047752380371e+00 1.073397323489189148e-01
2.916000000000000000e+03 3.733507156372070312e+01 -2.789356231689453125e+01 5.052930712699890137e-01 5.205855369567871094e+00 1.713344573974609375e+00 2.536886632442474365e-01
2.917000000000000000e+03 4.096334075927734375e+01 -1.585217237472534180e+00 -4.922924637794494629e-01 1.013738727569580078e+01 2.893528461456298828e+00 8.392854332923889160e-01
2.918000000000000000e+03 6.778126525878906250e+01 -3.386971664428710938e+01 -3.297883272171020508e-02 9.936934337019920349e-03 -6.912569515407085419e-03 2.957961149513721466e-02
2.919000000000000000e+03 2.673543167114257812e+01 -4.089885711669921875e+00 -1.287746429443359375e+00 -4.520464837551116943e-01 -5.219378471374511719e-01 -7.726583480834960938e-01
2.920000000000000000e+03 4.380813217163085938e+01 1.368107318878173828e+01 1.185637950897216797e+00 7.494994640350341797e+00 2.604189634323120117e+00 1.848752140998840332e+00
2.921000000000000000e+03 4.391316223144531250e+01 1.452106761932373047e+01 1.106876015663146973e+00 7.420573234558105469e+00 2.558234930038452148e+00 1.691335082054138184e+00
2.922000000000000000e+03 2.936077308654785156e+01 -4.452219963073730469e+00 -9.642603397369384766e-01 -8.508242964744567871e-01 -5.445253849029541016e-01 -1.008493065834045410e+00
2.923000000000000000e+03 5.201145172119140625e+00 -1.859848976135253906e+01 3.686538040637969971e-01 1.562567353248596191e-01 1.574731618165969849e-01 2.496759444475173950e-01
2.924000000000000000e+03 1.326080513000488281e+01 1.932688713073730469e+01 -9.603148646419867873e-05 -2.834761471603997052e-05 -3.731372999027371407e-05 -8.830767910694703460e-06
2.925000000000000000e+03 6.533119201660156250e+01 -3.476533889770507812e+01 -4.210804030299186707e-02 8.245980367064476013e-03 -1.015861798077821732e-02 4.585150629281997681e-02
2.926000000000000000e+03 1.408574104309082031e+01 3.282327651977539062e+01 -9.199767373502254486e-05 -7.006374071352183819e-04 -2.377905329922214150e-04 -2.839400258380919695e-04
2.927000000000000000e+03 1.638060569763183594e+01 -1.438423252105712891e+01 8.297219276428222656e-01 8.590289391577243805e-03 2.514936625957489014e-01 -5.540339648723602295e-02
2.928000000000000000e+03 1.301202678680419922e+01 2.658044052124023438e+01 2.149841311620548368e-04 4.092292874702252448e-05 7.677211397094652057e-05 5.068340033176355064e-05
2.929000000000000000e+03 1.854475212097167969e+01 -5.466307163238525391e+00 -4.275562167167663574e-01 -7.052546739578247070e-02 -1.494245082139968872e-01 -1.293248534202575684e-01
2.930000000000000000e+03 1.941570091247558594e+01 -5.449175357818603516e+00 -4.490697383880615234e-01 -8.561228960752487183e-02 -1.604046076536178589e-01 -1.488954275846481323e-01
2.931000000000000000e+03 3.727390670776367188e+01 -1.968379592895507812e+01 -3.394875228404998779e-01 6.655831813812255859e+00 1.894903302192687988e+00 1.105605721473693848e+00
2.932000000000000000e+03 1.554988384246826172e+01 -1.416334056854248047e+01 8.220231533050537109e-01 7.608136534690856934e-02 2.694313526153564453e-01 -4.696497321128845215e-02
2.933000000000000000e+03 6.427864837646484375e+01 -1.384534001350402832e+00 -9.480511546134948730e-01 1.529582291841506958e-01 -2.385278791189193726e-01 -1.204976588487625122e-01
2.934000000000000000e+03 1.816591453552246094e+01 -3.642604446411132812e+01 -1.380903869867324829e-01 -6.278074532747268677e-02 -6.026134267449378967e-02 -2.644428610801696777e-02
2.935000000000000000e+03 3.395819187164306641e+00 -2.036346626281738281e+01 1.636574417352676392e-01 -3.633670508861541748e-01 -5.991287901997566223e-02 2.772192358970642090e-01
2.936000000000000000e+03 3.750512695312500000e+01 -2.695940589904785156e+01 7.514770030975341797e-01 5.463447093963623047e+00 1.864477276802062988e+00 2.833131253719329834e-01
2.937000000000000000e+03 4.041419506072998047e+00 -2.084639358520507812e+01 1.752192527055740356e-01 -1.346769630908966064e-01 1.216268446296453476e-02 3.234163224697113037e-01
2.938000000000000000e+03 2.836428070068359375e+01 -3.448969268798828125e+01 -7.909955084323883057e-02 8.631179332733154297e-01 2.352055013179779053e-01 5.653420686721801758e-01
2.939000000000000000e+03 6.234085464477539062e+01 6.498783826828002930e-02 -1.346233487129211426e+00 1.541933566331863403e-01 -3.576120138168334961e-01 -3.074231147766113281e-01
2.940000000000000000e+03 6.119599533081054688e+01 -9.458389282226562500e-01 -1.613721847534179688e+00 4.379581660032272339e-02 -4.709777832031250000e-01 -3.704037517309188843e-02
2.941000000000000000e+03 2.764367675781250000e+01 -4.733426570892333984e+00 -8.839144706726074219e-01 -6.663044095039367676e-01 -4.650656580924987793e-01 -8.961746692657470703e-01
2.942000000000000000e+03 2.848905944824218750e+01 -4.609669208526611328e+00 -9.365434646606445312e-01 -7.653485536575317383e-01 -5.105676054954528809e-01 -9.695668816566467285e-01
2.943000000000000000e+03 6.491522312164306641e+00 -1.742822837829589844e+01 5.703247785568237305e-01 4.165645837783813477e-01 2.960668206214904785e-01 2.326807826757431030e-01
2.944000000000000000e+03 7.027730941772460938e+00 -1.599024009704589844e+01 5.816076993942260742e-01 3.677026927471160889e-01 2.847931385040283203e-01 6.583401560783386230e-02
2.945000000000000000e+03 4.095303344726562500e+01 -1.919478034973144531e+01 2.174025624990463257e-01 7.574565887451171875e+00 2.337590456008911133e+00 -2.387253046035766602e-01
2.946000000000000000e+03 4.183164978027343750e+01 -2.147209167480468750e+01 1.351115405559539795e-01 5.594901084899902344e+00 1.719003796577453613e+00 -5.677722692489624023e-01
2.947000000000000000e+03 3.774890899658203125e+01 -3.114786338806152344e+01 -2.890097796916961670e-01 4.257831573486328125e+00 1.190646529197692871e+00 -1.572368666529655457e-02
2.948000000000000000e+03 6.655412292480468750e+01 -3.599629402160644531e+00 -4.361016154289245605e-01 8.458443731069564819e-02 -1.054551526904106140e-01 1.393721159547567368e-02
2.949000000000000000e+03 3.387300491333007812e+01 -3.231381416320800781e+00 -1.095656037330627441e+00 5.611429810523986816e-01 -1.603538990020751953e-01 -2.558440268039703369e-01
2.950000000000000000e+03 7.438460540771484375e+01 -3.195244979858398438e+01 -6.980862002819776535e-03 -1.554804039187729359e-03 -2.560699824243783951e-03 9.434305131435394287e-03
2.951000000000000000e+03 6.825885772705078125e+01 -3.059755516052246094e+01 -2.961824089288711548e-02 6.855986081063747406e-03 -6.828676443547010422e-03 6.740309763699769974e-04
2.952000000000000000e+03 3.694918441772460938e+01 -2.497396278381347656e+01 1.221200466156005859e+00 6.430053710937500000e+00 2.295376300811767578e+00 8.393438458442687988e-01
2.953000000000000000e+03 4.172295379638671875e+01 -2.298096847534179688e+01 2.460731714963912964e-01 4.934734344482421875e+00 1.554242253303527832e+00 -4.497339427471160889e-01
2.954000000000000000e+03 4.930245590209960938e+01 3.271775245666503906e+00 -3.131158113479614258e+00 -5.920733511447906494e-02 -9.571096301078796387e-01 -4.957551658153533936e-01
2.955000000000000000e+03 6.380135345458984375e+01 -3.916105651855468750e+01 7.188124954700469971e-02 4.784819204360246658e-03 2.299982123076915741e-02 3.185262903571128845e-02
2.956000000000000000e+03 6.329444503784179688e+01 -3.738280487060546875e+01 3.384828194975852966e-02 -2.821779111400246620e-03 9.307951666414737701e-03 4.852216690778732300e-02
2.957000000000000000e+03 1.472912502288818359e+01 -1.402398872375488281e+01 8.284669518470764160e-01 1.519001275300979614e-01 2.941101193428039551e-01 -3.479794785380363464e-02
2.958000000000000000e+03 1.377773666381835938e+01 -1.450851249694824219e+01 9.679448008537292480e-01 2.256076186895370483e-01 3.580657243728637695e-01 -4.086294770240783691e-02
2.959000000000000000e+03 4.146569442749023438e+01 6.892347931861877441e-01 -3.025412082672119141e+00 9.719494819641113281e+00 2.008224725723266602e+00 3.676830828189849854e-01
2.960000000000000000e+03 3.267585754394531250e+01 -3.144584465026855469e+01 1.440690457820892334e-01 2.964607000350952148e+00 9.326028227806091309e-01 1.211966991424560547e+00
2.961000000000000000e+03 3.470941543579101562e+01 -3.435906982421875000e+01 -6.132457256317138672e-01 3.256871461868286133e+00 7.930877208709716797e-01 5.169494748115539551e-01
2.962000000000000000e+03 1.251167488098144531e+01 -1.332650947570800781e+01 6.484504342079162598e-01 2.996441423892974854e-01 2.844283580780029297e-01 -5.585788562893867493e-02
2.963000000000000000e+03 6.655022430419921875e+01 -3.515891647338867188e+01 -2.588673494756221771e-02 4.151114728301763535e-03 -6.520685739815235138e-03 4.267990589141845703e-02
2.964000000000000000e+03 1.208209800720214844e+01 2.352794265747070312e+01 -9.805644367588683963e-05 -1.772097166394814849e-04 -8.257984882220625877e-05 1.011479544104076922e-04
2.965000000000000000e+03 3.113918304443359375e+01 -4.054956436157226562e+00 -9.886932969093322754e-01 -8.413754701614379883e-01 -5.490206480026245117e-01 -9.299988150596618652e-01
2.966000000000000000e+03 3.203737640380859375e+01 -3.816423416137695312e+00 -9.988569617271423340e-01 -6.323918700218200684e-01 -4.893746376037597656e-01 -7.571441531181335449e-01
2.967000000000000000e+03 2.523573684692382812e+01 -4.981318950653076172e+00 -7.556388974189758301e-01 -3.255044221878051758e-01 -3.243429958820343018e-01 -6.464402675628662109e-01
2.968000000000000000e+03 3.319959640502929688e+01 -1.496739768981933594e+01 9.295623898506164551e-01 1.323635101318359375e+00 6.759592294692993164e-01 1.488313227891921997e-01
2.969000000000000000e+03 1.364194488525390625e+01 1.642054939270019531e+01 -5.303540007162155234e-08 4.036019527120515704e-05 1.209214860864449292e-05 7.105922122718766332e-06
2.970000000000000000e+03 1.339120864868164062e+01 1.713978195190429688e+01 4.911258292850106955e-05 4.324938345234841108e-05 2.770858918665908277e-05 -4.287031333660706878e-05
2.971000000000000000e+03 3.378180313110351562e+01 -1.499690055847167969e+01 9.178271889686584473e-01 1.912741541862487793e+00 8.491706252098083496e-01 1.010836884379386902e-01
2.972000000000000000e+03 4.550753021240234375e+01 3.035721969604492188e+01 6.160612106323242188e-01 4.912412166595458984e+00 1.658542037010192871e+00 1.117315888404846191e-01
2.973000000000000000e+03 4.225988864898681641e+00 -2.563195610046386719e+01 -1.252492815256118774e-01 -1.621178388595581055e-01 -8.621013164520263672e-02 3.892453014850616455e-01
2.974000000000000000e+03 6.568289947509765625e+01 -2.277089834213256836e+00 -6.881031990051269531e-01 1.423131227493286133e-01 -1.637370139360427856e-01 -6.266927719116210938e-02
2.975000000000000000e+03 6.526490783691406250e+01 -1.626807332038879395e+00 -7.993459105491638184e-01 1.564972698688507080e-01 -1.928545981645584106e-01 -1.194244548678398132e-01
2.976000000000000000e+03 3.670902252197265625e+01 -4.906268715858459473e-01 -2.478768825531005859e+00 4.013755798339843750e+00 4.604960680007934570e-01 1.625241339206695557e-01
2.977000000000000000e+03 7.145658874511718750e+01 -2.622359085083007812e+01 -2.759918570518493652e-03 -3.772807540372014046e-04 -9.411597857251763344e-04 -6.879617576487362385e-04
2.978000000000000000e+03 6.611524200439453125e+01 -2.932379961013793945e+00 -5.607004165649414062e-01 1.118550598621368408e-01 -1.346535980701446533e-01 -1.027761120349168777e-02
2.979000000000000000e+03 6.004990005493164062e+01 -4.020777893066406250e+01 1.146372109651565552e-01 1.122145354747772217e-01 6.805552542209625244e-02 2.269684104248881340e-03
2.980000000000000000e+03 2.200021362304687500e+01 -5.295668125152587891e+00 -5.628020763397216797e-01 -1.058358922600746155e-01 -2.005914002656936646e-01 -2.702150642871856689e-01
2.981000000000000000e+03 2.283908653259277344e+01 -5.214600563049316406e+00 -6.215525269508361816e-01 -1.258536130189895630e-01 -2.242218405008316040e-01 -3.545854985713958740e-01
2.982000000000000000e+03 4.121266937255859375e+01 1.240851730108261108e-01 -2.588713884353637695e+00 9.778025627136230469e+00 2.156793594360351562e+00 2.552973031997680664e-01
2.983000000000000000e+03 4.258600234985351562e+01 8.290311694145202637e-01 -3.553944826126098633e+00 8.882843017578125000e+00 1.598669528961181641e+00 8.254269957542419434e-01
2.984000000000000000e+03 3.601860046386718750e+01 -1.104322075843811035e+00 -2.338479518890380859e+00 2.802990436553955078e+00 1.393533051013946533e-01 2.489694394171237946e-02
2.985000000000000000e+03 3.964000701904296875e+01 2.967880725860595703e+00 -1.957139492034912109e+00 9.020866394042968750e+00 2.119117975234985352e+00 1.099256515502929688e+00
2.986000000000000000e+03 3.832768630981445312e+01 -2.128329467773437500e+01 1.668706983327865601e-01 6.668255805969238281e+00 2.050538063049316406e+00 1.001181006431579590e+00
2.987000000000000000e+03 2.365694999694824219e+01 -5.132833003997802734e+00 -6.656196713447570801e-01 -1.676080375909805298e-01 -2.499683052301406860e-01 -4.404053688049316406e-01
2.988000000000000000e+03 8.924012184143066406e+00 -1.420106792449951172e+01 5.689156651496887207e-01 3.612771928310394287e-01 2.790578603744506836e-01 -3.638979420065879822e-02
2.989000000000000000e+03 3.134933090209960938e+01 -3.413712692260742188e+01 -2.458568960428237915e-01 2.078957796096801758e+00 5.499302744865417480e-01 9.109657406806945801e-01
2.990000000000000000e+03 3.507166671752929688e+01 -3.281372451782226562e+01 -5.040283799171447754e-01 3.669564247131347656e+00 9.496607780456542969e-01 5.320155620574951172e-01
2.991000000000000000e+03 3.839493560791015625e+01 -1.610285758972167969e+01 4.762507081031799316e-01 7.546293735504150391e+00 2.406763315200805664e+00 4.356066510081291199e-02
2.992000000000000000e+03 3.991930389404296875e+01 -1.864595413208007812e+01 1.579540818929672241e-01 7.797133445739746094e+00 2.386526346206665039e+00 2.791369259357452393e-01
2.993000000000000000e+03 4.031649017333984375e+01 -1.068643808364868164e+00 -1.560634255409240723e+00 9.437611579895019531e+00 2.363093376159667969e+00 3.575961291790008545e-01
2.994000000000000000e+03 4.446051406860351562e+01 2.813263130187988281e+01 8.395831584930419922e-01 5.724852561950683594e+00 1.969330668449401855e+00 -2.369100898504257202e-01
2.995000000000000000e+03 4.442032241821289062e+01 2.890843200683593750e+01 8.936848640441894531e-01 5.578055381774902344e+00 1.941522121429443359e+00 -2.212068140506744385e-01
2.996000000000000000e+03 8.921583175659179688e+00 -3.244702529907226562e+01 -2.274905741214752197e-01 -2.641634643077850342e-01 -1.474962085485458374e-01 1.379485726356506348e-01
2.997000000000000000e+03 2.932526779174804688e+01 -3.345033645629882812e+01 -2.718136273324489594e-02 1.080600500106811523e+00 3.160257339477539062e-01 7.857552766799926758e-01
2.998000000000000000e+03 5.461964035034179688e+01 -3.516928482055664062e+01 -2.077379450201988220e-02 4.927119612693786621e-01 1.415814459323883057e-01 -2.429023534059524536e-01
2.999000000000000000e+03 3.885033416748046875e+01 -2.075422286987304688e+01 2.939646504819393158e-02 6.774454593658447266e+00 2.041155338287353516e+00 9.201103448867797852e-01
3.000000000000000000e+03 4.347875213623046875e+01 3.443273544311523438e+01 -2.047563642263412476e-01 4.481056213378906250e+00 1.282889962196350098e+00 -1.193659305572509766e-01
3.001000000000000000e+03 7.156165313720703125e+01 -2.474676513671875000e+01 -7.808377849869430065e-04 -8.339773630723357201e-04 -4.844445502385497093e-04 9.778469393495470285e-05
3.002000000000000000e+03 6.169136810302734375e+01 -3.847400665283203125e+01 7.967600226402282715e-02 1.468414627015590668e-02 2.830804325640201569e-02 2.729987166821956635e-02
3.003000000000000000e+03 6.307441711425781250e+01 -4.134848403930664062e+01 1.048322543501853943e-01 2.622291445732116699e-02 3.931654989719390869e-02 9.338064119219779968e-03
3.004000000000000000e+03 6.917381286621093750e+01 -2.923069381713867188e+01 -1.652108877897262573e-02 3.415465820580720901e-03 -3.931686747819185257e-03 -1.945081399753689766e-03
3.005000000000000000e+03 4.267861557006835938e+01 2.892330408096313477e+00 -3.160521745681762695e+00 7.664145469665527344e+00 1.351087212562561035e+00 1.627218127250671387e+00
3.006000000000000000e+03 3.457704067230224609e+00 -3.053440856933593750e+01 -1.024027764797210693e-01 -1.076119244098663330e-01 -6.300441175699234009e-02 1.057838201522827148e-01
3.007000000000000000e+03 6.417739391326904297e+00 -3.031565856933593750e+01 -2.401899695396423340e-01 -2.668936252593994141e-01 -1.521250754594802856e-01 1.792029440402984619e-01
3.008000000000000000e+03 3.762989425659179688e+01 -2.606447410583496094e+01 9.336470365524291992e-01 5.680948257446289062e+00 1.984378576278686523e+00 3.884079754352569580e-01
3.009000000000000000e+03 2.978755569458007812e+01 -3.590614700317382812e+01 -2.338409423828125000e-01 1.520560383796691895e+00 3.860158324241638184e-01 6.750493049621582031e-01
3.010000000000000000e+03 3.167470169067382812e+01 -3.582599258422851562e+01 -4.407961964607238770e-01 2.195021390914916992e+00 5.262675881385803223e-01 6.826964616775512695e-01
3.011000000000000000e+03 7.573576354980468750e+01 -8.395233154296875000e+00 -9.597905911505222321e-03 -7.738281972706317902e-03 -5.200856365263462067e-03 1.119005214422941208e-02
3.012000000000000000e+03 7.554152679443359375e+01 3.726563262939453125e+01 2.399535477161407471e-02 -1.801176667213439941e+00 -5.331544280052185059e-01 -1.594167947769165039e-02
3.013000000000000000e+03 7.532741546630859375e+00 -3.263260650634765625e+01 -1.668358147144317627e-01 -2.506582140922546387e-01 -1.252482086420059204e-01 1.016955822706222534e-01
3.014000000000000000e+03 8.402222633361816406e+00 -3.330041503906250000e+01 -1.603699326515197754e-01 -2.421931177377700806e-01 -1.207689121365547180e-01 9.853737056255340576e-02
3.015000000000000000e+03 4.054120254516601562e+01 3.692224884033203125e+01 -4.275588095188140869e-01 3.322563648223876953e+00 8.685014843940734863e-01 -6.009535789489746094e-01
3.016000000000000000e+03 7.702268981933593750e+01 4.082741165161132812e+01 -2.330294810235500336e-03 -2.062877416610717773e+00 -6.195622682571411133e-01 2.627420425415039062e-02
3.017000000000000000e+03 7.478977203369140625e+01 4.079879760742187500e+01 -1.593938469886779785e-02 -1.654197096824645996e+00 -5.010409355163574219e-01 -2.125464007258415222e-02
3.018000000000000000e+03 2.617385387420654297e+00 -3.957088088989257812e+01 5.794931668788194656e-03 1.076867152005434036e-02 4.969080910086631775e-03 -9.130850434303283691e-03
3.019000000000000000e+03 7.683261871337890625e+01 3.725353240966796875e+01 1.260802708566188812e-02 -2.096153497695922852e+00 -6.250636577606201172e-01 -1.125058811157941818e-02
3.020000000000000000e+03 5.218314361572265625e+01 -3.158663749694824219e+01 4.948639124631881714e-02 7.041612267494201660e-01 2.260942757129669189e-01 -3.541128039360046387e-01
3.021000000000000000e+03 5.150821304321289062e+01 -3.236110687255859375e+01 6.174629554152488708e-03 8.813599944114685059e-01 2.662603855133056641e-01 -3.846190273761749268e-01
3.022000000000000000e+03 7.678711700439453125e+01 -3.898559951782226562e+01 2.324352506548166275e-03 -1.928425021469593048e-02 -5.087968893349170685e-03 6.698831450194120407e-03
3.023000000000000000e+03 1.744882202148437500e+01 3.608559799194335938e+01 1.498733181506395340e-04 -1.194387325085699558e-03 -3.133541904389858246e-04 -4.607686059898696840e-05
3.024000000000000000e+03 3.277522802352905273e+00 3.896142959594726562e+01 -1.033801891026087105e-04 2.025179855991154909e-04 2.974133894895203412e-05 -1.782014005584642291e-04
3.025000000000000000e+03 3.114559412002563477e+00 3.759451293945312500e+01 -1.910460741783026606e-05 2.305733651155605912e-04 6.344063149299472570e-05 -3.098728775512427092e-04
3.026000000000000000e+03 4.872142410278320312e+01 -2.989589118957519531e+01 1.626451015472412109e-01 1.346593856811523438e+00 4.527716934680938721e-01 -6.668754816055297852e-01
3.027000000000000000e+03 4.957607650756835938e+01 -3.087833595275878906e+01 9.968297183513641357e-02 1.205329656600952148e+00 3.915037810802459717e-01 -5.888502001762390137e-01
3.028000000000000000e+03 1.545396900177001953e+01 3.540322113037109375e+01 1.114763086661696434e-03 -3.790061455219984055e-04 2.207270736107602715e-04 -3.066227945964783430e-04
3.029000000000000000e+03 1.333804321289062500e+01 3.919179534912109375e+01 -5.926484009250998497e-04 -1.509638968855142593e-03 -6.306862342171370983e-04 -6.238139467313885689e-04
3.030000000000000000e+03 1.965444755554199219e+01 -3.495025634765625000e+01 -2.253958433866500854e-01 -3.652324154973030090e-02 -7.857572287321090698e-02 -4.353805631399154663e-02
3.031000000000000000e+03 2.125502204895019531e+01 -1.519201087951660156e+01 7.367292642593383789e-01 -2.093720883131027222e-01 1.582071483135223389e-01 1.983072608709335327e-02
3.032000000000000000e+03 2.248952865600585938e+01 -1.600575065612792969e+01 7.129584550857543945e-01 -1.736723333597183228e-01 1.617858260869979858e-01 6.677861511707305908e-02
3.033000000000000000e+03 1.056507587432861328e+01 -5.550914764404296875e+00 -2.923692166805267334e-01 1.043229103088378906e-01 -5.641388893127441406e-02 -2.298259288072586060e-01
3.034000000000000000e+03 3.875781250000000000e+01 -4.695466995239257812e+00 5.955591201782226562e-01 8.282969474792480469e+00 2.663558721542358398e+00 1.153618574142456055e+00
3.035000000000000000e+03 6.848072052001953125e+01 -6.807590007781982422e+00 -7.713755220174789429e-02 -8.288099430501461029e-03 -2.562769688665866852e-02 9.244846180081367493e-03
3.036000000000000000e+03 1.738732528686523438e+01 5.257258415222167969e+00 -1.854919173638336360e-05 3.268398586442344822e-06 -4.584238013194408268e-06 3.815863692580023780e-06
3.037000000000000000e+03 2.811574935913085938e+01 -1.268954658508300781e+01 1.224498510360717773e+00 -4.351975023746490479e-01 2.367902845144271851e-01 4.396925270557403564e-01
3.038000000000000000e+03 1.940417098999023438e+01 -1.482774925231933594e+01 7.587900757789611816e-01 -1.639036685228347778e-01 1.784659177064895630e-01 -4.453670978546142578e-02
3.039000000000000000e+03 2.001410865783691406e+01 -1.502428150177001953e+01 7.581956386566162109e-01 -1.833738982677459717e-01 1.724465191364288330e-01 -2.781700342893600464e-02
3.040000000000000000e+03 1.876807212829589844e+01 -1.459621810913085938e+01 7.710024118423461914e-01 -1.435149461030960083e-01 1.882462352514266968e-01 -4.702467843890190125e-02
3.041000000000000000e+03 3.146583366394042969e+01 -1.452227115631103516e+01 1.157511711120605469e+00 1.504914909601211548e-01 3.924009799957275391e-01 5.780449509620666504e-01
3.042000000000000000e+03 1.561979675292968750e+01 3.835604429244995117e+00 -7.753247700748033822e-06 -4.568455096887191758e-06 -3.696510930240037851e-06 3.287811978225363418e-07
3.043000000000000000e+03 7.326436614990234375e+01 -1.901057243347167969e+01 9.859012789092957973e-05 -2.869029704015702009e-04 -5.649384911521337926e-05 6.421315629268065095e-05
3.044000000000000000e+03 5.279304885864257812e+01 2.697894096374511719e+00 -2.850081920623779297e+00 4.065554440021514893e-01 -7.330579757690429688e-01 -3.703275322914123535e-01
3.045000000000000000e+03 2.389481544494628906e+01 -1.547213077545166016e+01 7.042316198348999023e-01 -2.133708298206329346e-01 1.472582370042800903e-01 1.813232898712158203e-01
3.046000000000000000e+03 2.253149986267089844e+01 -1.524842548370361328e+01 7.244209647178649902e-01 -2.226573824882507324e-01 1.505290716886520386e-01 8.882527798414230347e-02
3.047000000000000000e+03 4.420056533813476562e+01 5.031804561614990234e+00 -1.011947274208068848e+00 4.804435253143310547e+00 1.137746334075927734e+00 2.055875062942504883e+00
3.048000000000000000e+03 1.202643966674804688e+01 -5.685490608215332031e+00 -3.131110966205596924e-01 1.001777425408363342e-01 -6.388001143932342529e-02 -2.009380161762237549e-01
3.049000000000000000e+03 9.151242256164550781e+00 -5.411420345306396484e+00 -2.645678818225860596e-01 8.872662484645843506e-02 -5.275237932801246643e-02 -2.540066242218017578e-01
3.050000000000000000e+03 2.451821136474609375e+01 -1.626380538940429688e+01 6.477667093276977539e-01 -1.387701928615570068e-01 1.526989638805389404e-01 2.186850011348724365e-01
3.051000000000000000e+03 2.526742744445800781e+01 -1.426533794403076172e+01 7.876318097114562988e-01 -3.243177533149719238e-01 1.389942169189453125e-01 3.047259151935577393e-01
3.052000000000000000e+03 7.696241760253906250e+01 -1.874613952636718750e+01 1.899862400023266673e-04 3.619247479491605191e-07 5.710445111617445946e-05 -2.088913024635985494e-04
3.053000000000000000e+03 1.547515392303466797e+01 5.390218734741210938e+00 -6.079258128011133522e-06 -7.034085683699231595e-06 -3.934002961614169180e-06 -1.499496988799364772e-06
3.054000000000000000e+03 2.403717994689941406e+01 -1.408509922027587891e+01 7.644165754318237305e-01 -3.254107236862182617e-01 1.317017674446105957e-01 1.869262903928756714e-01
3.055000000000000000e+03 1.685332298278808594e+01 4.479312419891357422e+00 -2.520696853025583550e-06 4.337578957347432151e-06 5.450646085591870360e-07 5.243464784143725410e-06
3.056000000000000000e+03 7.701537322998046875e+01 -1.939494705200195312e+01 -5.712983238481683657e-06 -1.700670327409170568e-05 -6.815906090196222067e-06 -1.778272417141124606e-04
3.057000000000000000e+03 1.416040802001953125e+01 4.690002441406250000e+00 4.576184892357559875e-06 5.672713996318634599e-06 3.074669621128123254e-06 -2.339133970963303000e-06
3.058000000000000000e+03 6.740042114257812500e+01 -4.935930252075195312e+00 -2.311431318521499634e-01 2.951969951391220093e-02 -6.048703193664550781e-02 2.905227243900299072e-02
3.059000000000000000e+03 3.894582748413085938e+01 -1.218976211547851562e+01 9.048675298690795898e-01 9.257341384887695312e+00 3.048662662506103516e+00 5.092952772974967957e-02
3.060000000000000000e+03 7.113299560546875000e+01 -1.803293609619140625e+01 1.370689860777929425e-04 5.002514080842956901e-05 5.612823588307946920e-05 1.946454431163147092e-04
3.061000000000000000e+03 1.343567276000976562e+01 4.747694969177246094e+00 -5.739049356634495780e-06 -4.563326456263894215e-06 -3.090712880293722264e-06 2.185414359701098874e-06
3.062000000000000000e+03 4.012837409973144531e+00 -1.629302024841308594e+01 2.203287184238433838e-01 -3.292019963264465332e-01 -3.266198188066482544e-02 -7.261862605810165405e-02
3.063000000000000000e+03 1.898922729492187500e+01 -1.391998672485351562e+01 7.118923068046569824e-01 -1.628302484750747681e-01 1.647186279296875000e-01 -3.616179525852203369e-02
3.064000000000000000e+03 3.945616149902343750e+01 -3.516838073730468750e+00 8.378791809082031250e-02 9.019674301147460938e+00 2.731038570404052734e+00 1.218691229820251465e+00
3.065000000000000000e+03 7.128279113769531250e+01 -1.873792076110839844e+01 1.069238496711477637e-04 -1.073367020580917597e-04 -1.238553295479505323e-07 1.482899824623018503e-04
3.066000000000000000e+03 7.198922729492187500e+01 -1.993208694458007812e+01 3.326000296510756016e-04 -2.615141274873167276e-04 2.132576446456369013e-05 1.649927144171670079e-04
3.067000000000000000e+03 4.665607452392578125e+01 -2.713066291809082031e+01 3.445805013179779053e-01 1.780824899673461914e+00 6.376216411590576172e-01 -8.699303865432739258e-01
3.068000000000000000e+03 7.394375610351562500e+01 -8.247913360595703125e+00 -2.040227130055427551e-02 -1.799438148736953735e-02 -1.151899527758359909e-02 4.092179238796234131e-03
3.069000000000000000e+03 7.522810363769531250e+01 -3.375299072265625000e+01 -3.003505524247884750e-03 -6.183876655995845795e-03 -2.756214700639247894e-03 1.204989477992057800e-02
3.070000000000000000e+03 6.950906372070312500e+01 -9.280124664306640625e+00 -1.854599569924175739e-03 -1.678329706192016602e-02 -5.591368768364191055e-03 -9.280025959014892578e-03
3.071000000000000000e+03 3.978066205978393555e+00 6.991190910339355469e+00 3.361738436069572344e-06 3.765461769944522530e-06 2.138159970854758285e-06 -4.438074483914533630e-06
3.072000000000000000e+03 3.926204681396484375e+01 -5.044035434722900391e+00 8.033863902091979980e-01 9.464365959167480469e+00 3.080325841903686523e+00 1.336131572723388672e+00
3.073000000000000000e+03 3.914874649047851562e+01 -4.130125522613525391e+00 2.890608906745910645e-01 8.744886398315429688e+00 2.710184097290039062e+00 1.226651430130004883e+00
3.074000000000000000e+03 4.232200241088867188e+01 6.914390563964843750e+00 8.893703818321228027e-01 7.888057231903076172e+00 2.633228302001953125e+00 2.512710332870483398e+00
3.075000000000000000e+03 3.275928974151611328e+00 4.774142742156982422e+00 3.144923766740248539e-06 9.676401759861619212e-07 1.233769125974504277e-06 -3.423848511374671943e-06
3.076000000000000000e+03 5.621777057647705078e+00 5.433938026428222656e+00 -1.587909309819224291e-06 1.515262169959896710e-06 -2.179413449709954875e-08 -4.697092663263902068e-06
3.077000000000000000e+03 6.429385185241699219e+00 5.387681484222412109e+00 4.634294782590586692e-06 -1.669621155997447204e-06 8.894021448213607073e-07 3.819575795205309987e-06
3.078000000000000000e+03 4.278860473632812500e+01 8.667982101440429688e+00 1.493180871009826660e+00 7.751867294311523438e+00 2.773514509201049805e+00 2.680152893066406250e+00
3.079000000000000000e+03 7.238654613494873047e+00 5.312169075012207031e+00 -6.169359039631672204e-06 1.394662490383780096e-06 -1.432408907930948772e-06 -1.623063326405826956e-06
3.080000000000000000e+03 3.550731277465820312e+01 -1.697475814819335938e+01 -3.904687464237213135e-01 4.391378879547119141e+00 1.200273036956787109e+00 -4.525154083967208862e-02
3.081000000000000000e+03 3.664815902709960938e+01 -1.803001022338867188e+01 -6.741487979888916016e-01 6.060010910034179688e+00 1.615758657455444336e+00 4.806977510452270508e-01
3.082000000000000000e+03 1.270045948028564453e+01 4.814790725708007812e+00 6.085719633119879290e-06 3.336048166602267884e-06 2.826530362654011697e-06 -2.839317630787263624e-06
3.083000000000000000e+03 6.945183563232421875e+01 -9.977016448974609375e+00 8.462948724627494812e-03 -1.256363745778799057e-02 -1.230206573382019997e-03 -1.276195421814918518e-02
3.084000000000000000e+03 9.644305229187011719e+00 4.427803993225097656e+00 -5.838251126988325268e-06 3.027794548415840836e-07 -1.660641487433167640e-06 -6.771213634237938095e-07
3.085000000000000000e+03 8.042717933654785156e+00 5.239171504974365234e+00 4.915337285638088360e-06 1.066063717303222802e-07 1.506583089394553099e-06 1.404914314662164543e-06
3.086000000000000000e+03 4.507438278198242188e+01 -2.471189498901367188e+01 4.613308012485504150e-01 2.466722488403320312e+00 8.784160017967224121e-01 -1.016567707061767578e+00
3.087000000000000000e+03 6.918301391601562500e+01 -7.867073059082031250e+00 -3.430363908410072327e-02 -1.553492248058319092e-02 -1.495156902819871902e-02 -1.465005450882017612e-03
3.088000000000000000e+03 7.096137237548828125e+01 -9.202358245849609375e+00 -8.263580501079559326e-03 -2.112541534006595612e-02 -8.816698566079139709e-03 -4.436512012034654617e-03
3.089000000000000000e+03 5.120337486267089844e+00 3.247241973876953125e+01 1.144678608397953212e-04 -1.869942207122221589e-04 -2.175791087211109698e-05 -2.357670455239713192e-04
3.090000000000000000e+03 7.241909027099609375e+01 -9.057242393493652344e+00 -1.180861238390207291e-02 -2.008097805082798004e-02 -9.566877037286758423e-03 1.013893284834921360e-03
3.091000000000000000e+03 7.567543029785156250e+01 2.922681236267089844e+01 3.815396130084991455e-02 -1.749522089958190918e+00 -5.134104490280151367e-01 -8.992963284254074097e-02
3.092000000000000000e+03 7.659358978271484375e+01 3.198741912841796875e+01 1.851993985474109650e-02 -1.959534287452697754e+00 -5.823042988777160645e-01 -4.229706153273582458e-02
3.093000000000000000e+03 7.593540954589843750e+01 2.995744895935058594e+01 2.960467711091041565e-02 -1.801444649696350098e+00 -5.315520167350769043e-01 -7.111540436744689941e-02
3.094000000000000000e+03 3.947703552246093750e+01 -2.345843505859375000e+01 5.132515430450439453e-01 5.709576606750488281e+00 1.866848468780517578e+00 3.810789883136749268e-01
3.095000000000000000e+03 7.692256164550781250e+01 -2.301914405822753906e+01 8.040494140004739165e-05 -7.474324229406192899e-05 1.698508981462509837e-06 -2.876391226891428232e-04
3.096000000000000000e+03 7.281664276123046875e+01 -2.241382026672363281e+01 1.145941278082318604e-04 -6.032973178662359715e-04 -1.466109533794224262e-04 9.049002255778759718e-05
3.097000000000000000e+03 6.975947570800781250e+01 -2.976333808898925781e+01 -1.875098049640655518e-02 4.813731648027896881e-03 -4.181174561381340027e-03 1.169349532574415207e-03
3.098000000000000000e+03 7.590779113769531250e+01 -3.176528549194335938e+01 -3.860510187223553658e-03 -3.575997892767190933e-03 -2.230952493846416473e-03 7.785978261381387711e-03
3.099000000000000000e+03 7.673177337646484375e+01 -2.852630233764648438e+01 -2.149958163499832153e-03 -1.162813394330441952e-03 -9.938315488398075104e-04 2.247422467917203903e-03
3.100000000000000000e+03 7.568490600585937500e+01 -3.010101699829101562e+01 -3.867399180307984352e-03 -1.555009745061397552e-03 -1.626722631044685841e-03 5.262043327093124390e-03
3.101000000000000000e+03 7.689097595214843750e+01 -2.225105476379394531e+01 -1.199308899231255054e-04 -1.620373805053532124e-04 -8.459047967335209250e-05 -3.329578612465411425e-04
3.102000000000000000e+03 7.561746215820312500e+01 -2.308662605285644531e+01 -1.285540929529815912e-04 -3.940052411053329706e-04 -1.567677973071113229e-04 -1.806068321457132697e-04
3.103000000000000000e+03 4.537097930908203125e+01 2.464258384704589844e+01 5.505211353302001953e-01 5.875399112701416016e+00 1.927776098251342773e+00 7.087093591690063477e-02
3.104000000000000000e+03 4.543754577636718750e+01 2.548618698120117188e+01 6.308686137199401855e-01 5.731892585754394531e+00 1.908828377723693848e+00 -1.018393901176750660e-03
3.105000000000000000e+03 7.641391754150390625e+01 2.565944671630859375e+01 4.140225797891616821e-02 -1.813214421272277832e+00 -5.315436124801635742e-01 -1.365780681371688843e-01
3.106000000000000000e+03 4.617874145507812500e+01 3.494910240173339844e+00 -2.554962158203125000e+00 8.882994055747985840e-01 -4.999988079071044922e-01 1.303260564804077148e+00
3.107000000000000000e+03 7.675286102294921875e+01 -2.689210891723632812e+01 -1.396909006871283054e-03 -6.554470164701342583e-04 -6.157067837193608284e-04 8.848193683661520481e-04
3.108000000000000000e+03 7.594051361083984375e+01 -2.895994567871093750e+01 -3.250112989917397499e-03 -1.175306621007621288e-03 -1.327625825069844723e-03 3.331471001729369164e-03
3.109000000000000000e+03 7.690825653076171875e+01 -2.073150634765625000e+01 -5.769275230704806745e-05 -6.359248800436034799e-05 -3.638557245722040534e-05 -2.687487576622515917e-04
3.110000000000000000e+03 7.700473022460937500e+01 -2.005367279052734375e+01 2.402712561888620257e-04 -4.518260539043694735e-05 5.852659523952752352e-05 -2.655435819178819656e-04
3.111000000000000000e+03 7.596235656738281250e+01 -3.305645751953125000e+01 -3.074069274589419365e-03 -5.599374882876873016e-03 -2.602033317089080811e-03 9.581183083355426788e-03
3.112000000000000000e+03 7.538774871826171875e+01 -3.234298324584960938e+01 -4.219994414597749710e-03 -3.862337907776236534e-03 -2.424699719995260239e-03 9.413531050086021423e-03
3.113000000000000000e+03 7.441041564941406250e+01 -3.057553482055664062e+01 -7.428053766489028931e-03 6.845425377832725644e-05 -2.207879908382892609e-03 6.892222445458173752e-03
3.114000000000000000e+03 7.636463165283203125e+01 -2.375983238220214844e+01 -1.284049503738060594e-04 -2.878554805647581816e-04 -1.248781336471438408e-04 -1.691193465376272798e-04
3.115000000000000000e+03 7.515557098388671875e+01 -1.974187469482421875e+01 2.182714379159733653e-04 -2.584044996183365583e-04 -1.203992178488988429e-05 -2.080726990243420005e-04
3.116000000000000000e+03 7.619128417968750000e+01 -2.145308303833007812e+01 -3.642022056737914681e-05 -2.995046961586922407e-04 -1.007774699246510863e-04 -3.297908115200698376e-04
3.117000000000000000e+03 7.455821990966796875e+01 -2.710740280151367188e+01 -2.932269824668765068e-03 -5.000625969842076302e-04 -1.029699691571295261e-03 1.342322444543242455e-03
3.118000000000000000e+03 7.214559173583984375e+01 -2.324177360534667969e+01 -6.076505451346747577e-05 -5.420466186478734016e-04 -1.808434899430721998e-04 2.734497502387966961e-05
3.119000000000000000e+03 3.320961236953735352e+00 -2.964980316162109375e+01 -1.164161935448646545e-01 -1.161157041788101196e-01 -6.975957006216049194e-02 1.419872939586639404e-01
3.120000000000000000e+03 4.664896011352539062e+01 -2.965933799743652344e+01 1.284439116716384888e-01 1.943736314773559570e+00 6.216540336608886719e-01 -7.997646927833557129e-01
3.121000000000000000e+03 4.443390655517578125e+01 2.303487396240234375e+01 3.408293426036834717e-01 6.495885372161865234e+00 2.051014423370361328e+00 2.165206372737884521e-01
3.122000000000000000e+03 4.260111331939697266e+00 2.941503524780273438e+01 1.233916700584813952e-04 7.206318696262314916e-05 5.863645492354407907e-05 -1.949476427398622036e-05
3.123000000000000000e+03 7.667385864257812500e+01 -6.179783344268798828e+00 -1.984922587871551514e-02 -8.004150353372097015e-03 -8.356012403964996338e-03 -2.458625705912709236e-03
3.124000000000000000e+03 7.579100799560546875e+01 2.169567108154296875e+01 6.055578961968421936e-02 -1.538507938385009766e+00 -4.433856308460235596e-01 -2.553146779537200928e-01
3.125000000000000000e+03 7.567077636718750000e+01 -3.559789276123046875e+01 2.625061897560954094e-04 -1.029473822563886642e-02 -3.009669715538620949e-03 1.260862126946449280e-02
3.126000000000000000e+03 7.595220184326171875e+01 1.525502777099609375e+01 3.792650625109672546e-02 -1.177041172981262207e+00 -3.417343795299530029e-01 -3.863716721534729004e-01
3.127000000000000000e+03 4.296308040618896484e+00 -2.795237731933593750e+01 -2.051606476306915283e-01 -1.742459684610366821e-01 -1.138219833374023438e-01 2.564881145954132080e-01
3.128000000000000000e+03 4.515985488891601562e+01 2.060971260070800781e+01 5.209054946899414062e-01 6.276297569274902344e+00 2.039160966873168945e+00 6.533750891685485840e-01
3.129000000000000000e+03 4.441307067871093750e+01 1.881163406372070312e+01 5.679492354393005371e-01 6.869261264801025391e+00 2.231163024902343750e+00 9.231513738632202148e-01
3.130000000000000000e+03 7.571295166015625000e+01 2.254934120178222656e+01 6.267686933279037476e-02 -1.566781759262084961e+00 -4.512314498424530029e-01 -2.333900332450866699e-01
3.131000000000000000e+03 7.665579986572265625e+01 1.841164398193359375e+01 3.539916500449180603e-02 -1.495661258697509766e+00 -4.380786418914794922e-01 -2.771669626235961914e-01
3.132000000000000000e+03 7.589826965332031250e+01 1.766223907470703125e+01 4.965252801775932312e-02 -1.337494492530822754e+00 -3.863525986671447754e-01 -3.431502878665924072e-01
3.133000000000000000e+03 7.504444885253906250e+01 2.171191787719726562e+01 8.044792711734771729e-02 -1.423427224159240723e+00 -4.028937816619873047e-01 -2.848366200923919678e-01
3.134000000000000000e+03 7.637687683105468750e+01 2.650666427612304688e+01 3.556739911437034607e-02 -1.834217548370361328e+00 -5.395950675010681152e-01 -1.170520037412643433e-01
3.135000000000000000e+03 7.563623809814453125e+01 2.487359046936035156e+01 6.127732619643211365e-02 -1.642973661422729492e+00 -4.745088815689086914e-01 -1.787649095058441162e-01
3.136000000000000000e+03 7.458049774169921875e+01 -7.347492218017578125e+00 -2.917928434908390045e-02 -1.873217709362506866e-02 -1.437343843281269073e-02 2.698055759537965059e-04
3.137000000000000000e+03 1.278595256805419922e+01 -5.753480434417724609e+00 -3.184546530246734619e-01 9.036864340305328369e-02 -6.842580437660217285e-02 -1.841070950031280518e-01
3.138000000000000000e+03 7.534192657470703125e+01 9.654154777526855469e+00 -1.841913536190986633e-02 -6.944500207901000977e-01 -2.138607501983642578e-01 -4.657959342002868652e-01
3.139000000000000000e+03 7.466537475585937500e+01 8.071274757385253906e+00 -5.289421603083610535e-02 -5.394153594970703125e-01 -1.776928752660751343e-01 -4.959958493709564209e-01
3.140000000000000000e+03 7.613498687744140625e+01 1.731596112251281738e+00 -7.392533123493194580e-02 -1.982256323099136353e-01 -8.164528757333755493e-02 -2.192217856645584106e-01
3.141000000000000000e+03 7.682813262939453125e+01 3.260881662368774414e+00 -4.772739857435226440e-02 -2.870489358901977539e-01 -1.004329025745391846e-01 -2.291012555360794067e-01
3.142000000000000000e+03 7.583322143554687500e+01 2.088022804260253906e+01 5.588405206799507141e-02 -1.509925365447998047e+00 -4.362123906612396240e-01 -2.703743278980255127e-01
3.143000000000000000e+03 7.596337890625000000e+01 1.444804000854492188e+01 3.143291175365447998e-02 -1.117368578910827637e+00 -3.257806897163391113e-01 -3.978822231292724609e-01
3.144000000000000000e+03 1.356359195709228516e+01 -5.826171875000000000e+00 -3.213066756725311279e-01 7.397799938917160034e-02 -7.419860363006591797e-02 -1.695676296949386597e-01
3.145000000000000000e+03 7.613764953613281250e+01 9.321154952049255371e-01 -7.406438142061233521e-02 -1.621234714984893799e-01 -7.085635513067245483e-02 -1.906923651695251465e-01
3.146000000000000000e+03 7.606108856201171875e+01 9.651200294494628906e+00 -1.397055946290493011e-02 -7.401019334793090820e-01 -2.262217551469802856e-01 -4.093494713306427002e-01
3.147000000000000000e+03 7.607289123535156250e+01 8.858184814453125000e+00 -2.172097377479076385e-02 -6.762281656265258789e-01 -2.093847393989562988e-01 -4.014607965946197510e-01
3.148000000000000000e+03 7.678765106201171875e+01 8.822452545166015625e+00 -1.558274962007999420e-02 -7.122631669044494629e-01 -2.183537781238555908e-01 -3.412417173385620117e-01
3.149000000000000000e+03 7.608189392089843750e+01 8.067014694213867188e+00 -3.036622144281864166e-02 -6.135644316673278809e-01 -1.931791901588439941e-01 -3.911820054054260254e-01
3.150000000000000000e+03 7.521088409423828125e+01 -6.429016113281250000e+00 -3.416318818926811218e-02 -1.949041523039340973e-02 -1.609607972204685211e-02 -6.477421149611473083e-03
3.151000000000000000e+03 4.512022399902343750e+01 2.144358062744140625e+01 4.739972054958343506e-01 6.262959957122802734e+00 2.021087169647216797e+00 5.198470950126647949e-01
3.152000000000000000e+03 7.608908843994140625e+01 7.275467395782470703e+00 -3.787096962332725525e-02 -5.520771741867065430e-01 -1.769844442605972290e-01 -3.775306344032287598e-01
3.153000000000000000e+03 7.683803558349609375e+01 -2.327869653701782227e+00 -4.149300977587699890e-02 -5.467995628714561462e-02 -2.885188907384872437e-02 -6.970393657684326172e-02
3.154000000000000000e+03 7.608000183105468750e+01 -5.280036926269531250e+00 -3.554695472121238708e-02 -2.031286619603633881e-02 -1.675794646143913269e-02 -1.877834275364875793e-02
3.155000000000000000e+03 7.162605285644531250e+01 -2.059231948852539062e+01 2.382642560405656695e-05 -2.252382109872996807e-04 -6.042353561497293413e-05 2.358237252337858081e-04
3.156000000000000000e+03 7.304963684082031250e+01 -1.967964172363281250e+01 3.472929238341748714e-04 -3.162400098517537117e-04 9.315874194726347923e-06 6.979279714869335294e-05
3.157000000000000000e+03 7.613717651367187500e+01 1.281421929597854614e-01 -7.304937392473220825e-02 -1.305742263793945312e-01 -6.108707934617996216e-02 -1.630680263042449951e-01
3.158000000000000000e+03 7.683819580078125000e+01 -1.537564277648925781e+00 -4.530973359942436218e-02 -7.385739684104919434e-02 -3.575013950467109680e-02 -8.946684002876281738e-02
3.159000000000000000e+03 7.542720031738281250e+01 -4.474756240844726562e+00 -5.674144998192787170e-02 -3.181988000869750977e-02 -2.656839787960052490e-02 -3.972814604640007019e-02
3.160000000000000000e+03 7.681121826171875000e+01 5.646615505218505859e+00 -3.696148470044136047e-02 -4.517780244350433350e-01 -1.466218531131744385e-01 -2.899880409240722656e-01
3.161000000000000000e+03 7.211804199218750000e+01 -2.138155364990234375e+01 3.705883500515483320e-05 -4.561477398965507746e-04 -1.257266703760251403e-04 1.748584618326276541e-04
3.162000000000000000e+03 7.543358612060546875e+01 2.579693317413330078e+00 -9.677448123693466187e-02 -2.303022891283035278e-01 -9.812302887439727783e-02 -2.845237553119659424e-01
3.163000000000000000e+03 7.612007141113281250e+01 4.117519378662109375e+00 -6.413774937391281128e-02 -3.305616378784179688e-01 -1.184098124504089355e-01 -2.982366085052490234e-01
3.164000000000000000e+03 7.613072967529296875e+01 2.527095556259155273e+00 -7.169499993324279785e-02 -2.383702993392944336e-01 -9.301958978176116943e-02 -2.464253008365631104e-01
3.165000000000000000e+03 7.612610626220703125e+01 -3.802713155746459961e+00 -4.823679849505424500e-02 -3.561302274465560913e-02 -2.515494637191295624e-02 -4.704667627811431885e-02
3.166000000000000000e+03 7.609648132324218750e+01 6.486047267913818359e+00 -4.581601917743682861e-02 -4.929694533348083496e-01 -1.616356372833251953e-01 -3.617258071899414062e-01
3.167000000000000000e+03 7.600949859619140625e+01 1.202668762207031250e+01 1.058844942599534988e-02 -9.301353693008422852e-01 -2.758640944957733154e-01 -4.161892235279083252e-01
3.168000000000000000e+03 7.613353729248046875e+01 -6.753094196319580078e-01 -7.016667723655700684e-02 -1.031856015324592590e-01 -5.200568586587905884e-02 -1.354634463787078857e-01
3.169000000000000000e+03 7.597586822509765625e+01 1.363841056823730469e+01 2.560713328421115875e-02 -1.056119203567504883e+00 -3.091536164283752441e-01 -4.065914154052734375e-01
3.170000000000000000e+03 7.599096679687500000e+01 1.282857513427734375e+01 1.786224916577339172e-02 -9.933335185050964355e-01 -2.926413714885711670e-01 -4.133488237857818604e-01
3.171000000000000000e+03 7.552841186523437500e+01 3.119938850402832031e+01 2.731492929160594940e-02 -1.736589312553405762e+00 -5.127823352813720703e-01 -6.012378260493278503e-02
3.172000000000000000e+03 7.663986206054687500e+01 1.921320152282714844e+01 3.687689825892448425e-02 -1.545220971107482910e+00 -4.525032341480255127e-01 -2.626704275608062744e-01
3.173000000000000000e+03 7.512754821777343750e+01 1.688902854919433594e+01 6.405386328697204590e-02 -1.187007188796997070e+00 -3.368859887123107910e-01 -4.095778167247772217e-01
3.174000000000000000e+03 4.496540832519531250e+01 -2.613383483886718750e+01 3.663332760334014893e-01 2.554583549499511719e+00 8.762750625610351562e-01 -9.541394710540771484e-01
3.175000000000000000e+03 4.527790451049804688e+01 1.969537925720214844e+01 6.248529553413391113e-01 6.242037773132324219e+00 2.060067176818847656e+00 8.240067362785339355e-01
3.176000000000000000e+03 7.636666107177734375e+01 2.735513114929199219e+01 2.847981825470924377e-02 -1.854207396507263184e+00 -5.477182865142822266e-01 -1.061471253633499146e-01
3.177000000000000000e+03 7.559071350097656250e+01 2.573723983764648438e+01 5.640712007880210876e-02 -1.656841278076171875e+00 -4.801302552223205566e-01 -1.555094420909881592e-01
3.178000000000000000e+03 4.586623382568359375e+01 -2.682743072509765625e+01 3.428171277046203613e-01 2.079937458038330078e+00 7.268263697624206543e-01 -9.229807853698730469e-01
3.179000000000000000e+03 4.510592651367187500e+01 -2.693268585205078125e+01 3.125070035457611084e-01 2.434929132461547852e+00 8.242308497428894043e-01 -9.319385290145874023e-01
3.180000000000000000e+03 4.485719680786132812e+01 -2.534825897216796875e+01 3.968088328838348389e-01 2.596400022506713867e+00 8.979626297950744629e-01 -9.847794771194458008e-01
3.181000000000000000e+03 7.604656982421875000e+01 1.044473838806152344e+01 -5.375489126890897751e-03 -8.039017915725708008e-01 -2.427831888198852539e-01 -4.141911268234252930e-01
3.182000000000000000e+03 7.585362243652343750e+01 2.007631301879882812e+01 5.488109961152076721e-02 -1.473031640052795410e+00 -4.254451692104339600e-01 -2.897538244724273682e-01
3.183000000000000000e+03 7.513256072998046875e+01 2.377266502380371094e+01 7.603289186954498291e-02 -1.511700987815856934e+00 -4.307004213333129883e-01 -2.258884608745574951e-01
3.184000000000000000e+03 7.550743103027343750e+01 2.840773200988769531e+01 3.563321754336357117e-02 -1.701994061470031738e+00 -4.999082386493682861e-01 -1.075336262583732605e-01
3.185000000000000000e+03 7.545952606201171875e+01 2.752032661437988281e+01 4.553406313061714172e-02 -1.681084275245666504e+00 -4.906650781631469727e-01 -1.198857948184013367e-01
3.186000000000000000e+03 7.208728790283203125e+01 -1.906376838684082031e+01 1.786085922503843904e-04 -2.367807610426098108e-04 -1.745164809108246118e-05 1.476669567637145519e-04
3.187000000000000000e+03 7.151356506347656250e+01 -1.942622566223144531e+01 1.538693031761795282e-04 -2.396392665104940534e-05 3.897161514032632113e-05 2.679196768440306187e-04
3.188000000000000000e+03 2.684473419189453125e+01 -1.550893115997314453e+01 6.123915314674377441e-01 -1.757164895534515381e-01 1.310025304555892944e-01 4.951253533363342285e-01
3.189000000000000000e+03 2.599338722229003906e+01 -1.492108058929443359e+01 7.242625951766967773e-01 -2.520475983619689941e-01 1.416644901037216187e-01 3.965540826320648193e-01
3.190000000000000000e+03 2.880632019042968750e+01 -1.391846561431884766e+01 1.096125483512878418e+00 -3.078204989433288574e-01 2.364915013313293457e-01 6.393826603889465332e-01
3.191000000000000000e+03 2.843243789672851562e+01 -1.328017044067382812e+01 1.180398106575012207e+00 -3.853477537631988525e-01 2.385150939226150513e-01 5.120260119438171387e-01
3.192000000000000000e+03 1.392178249359130859e+01 1.406185340881347656e+01 -8.156208423315547407e-06 3.171135540469549596e-05 7.066543730616103858e-06 3.182054797434830107e-08
3.193000000000000000e+03 1.385307121276855469e+01 1.564337635040283203e+01 -9.807923561311326921e-06 2.624438366183312610e-06 -2.155045649487874471e-06 -2.024333662120625377e-05
3.194000000000000000e+03 7.208683013916015625e+01 -2.198416709899902344e+01 3.040725132450461388e-04 -4.317360871937125921e-04 -3.829907291219569743e-05 2.218419394921511412e-04
3.195000000000000000e+03 7.179985046386718750e+01 -2.375250625610351562e+01 -3.638437192421406507e-04 -7.016482995823025703e-04 -3.196476027369499207e-04 2.292537537869066000e-04
3.196000000000000000e+03 7.650062561035156250e+01 -3.231068420410156250e+01 -2.518677152693271637e-03 -5.063643679022789001e-03 -2.274696249514818192e-03 7.609000895172357559e-03
3.197000000000000000e+03 7.629211425781250000e+01 -3.106691741943359375e+01 -2.919463440775871277e-03 -3.200603416189551353e-03 -1.836020033806562424e-03 6.056412588804960251e-03
3.198000000000000000e+03 4.238752365112304688e+00 -3.057575225830078125e+01 -1.295456588268280029e-01 -1.488597393035888672e-01 -8.352161943912506104e-02 1.146432757377624512e-01
3.199000000000000000e+03 1.539282131195068359e+01 7.752442836761474609e+00 -4.499770795973745408e-07 -1.031006104312837124e-05 -3.228011337341740727e-06 -4.218071808281820267e-06
3.200000000000000000e+03 1.568755245208740234e+01 8.654726028442382812e+00 -4.876204457104904577e-06 -1.105307455873116851e-05 -4.778783932124497369e-06 -9.231061994796618819e-06
3.201000000000000000e+03 4.003103256225585938e+00 3.332872772216796875e+01 4.806888318853452802e-05 1.483565283706411719e-04 5.892762419534847140e-05 -1.167734080809168518e-04
3.202000000000000000e+03 4.086333274841308594e+00 2.538673019409179688e+01 -4.009624535683542490e-05 2.082391802105121315e-05 -5.781698746432084590e-06 -8.506443555234000087e-05
3.203000000000000000e+03 3.448589563369750977e+00 2.866515350341796875e+01 7.980922237038612366e-05 7.899448974058032036e-05 4.764111508848145604e-05 -1.647996214160230011e-05
3.204000000000000000e+03 4.414042472839355469e+00 -5.775322914123535156e+00 -9.961237013339996338e-02 -9.886731952428817749e-02 -5.954390764236450195e-02 -2.682167291641235352e-01
3.205000000000000000e+03 4.411506652832031250e+01 -2.537184715270996094e+01 3.639521598815917969e-01 3.010422468185424805e+00 1.012312412261962891e+00 -9.587773084640502930e-01
3.206000000000000000e+03 3.880093383789062500e+01 -8.268030166625976562e+00 1.588774919509887695e+00 9.136927604675292969e+00 3.217710971832275391e+00 1.185288667678833008e+00
3.207000000000000000e+03 7.229663085937500000e+01 -2.078870582580566406e+01 3.333952336106449366e-04 -3.430523793213069439e-04 -2.897144668168039061e-06 2.106576866935938597e-04
3.208000000000000000e+03 4.058572292327880859e+00 2.216210937500000000e+01 -3.075898712268099189e-05 6.503000804514158517e-06 -7.276796168298460543e-06 -2.604692599561531097e-05
3.209000000000000000e+03 4.964114665985107422e+00 2.693627929687500000e+01 1.573529589222744107e-04 5.737106789638346527e-07 4.737800190923735499e-05 1.267457264475524426e-05
3.210000000000000000e+03 4.298326110839843750e+01 9.508970260620117188e+00 1.527893304824829102e+00 7.726893424987792969e+00 2.776436090469360352e+00 2.657957792282104492e+00
3.211000000000000000e+03 4.397226333618164062e+01 1.100908279418945312e+01 1.478319764137268066e+00 6.850806236267089844e+00 2.498737812042236328e+00 2.261373758316040039e+00
3.212000000000000000e+03 2.990129709243774414e+00 -9.165513992309570312e+00 -2.224536053836345673e-02 -3.451476991176605225e-01 -1.102179139852523804e-01 -2.895050942897796631e-01
3.213000000000000000e+03 4.091756820678710938e+00 -6.550220966339111328e+00 -7.508955895900726318e-02 -1.427813023328781128e-01 -6.536125391721725464e-02 -2.829160690307617188e-01
3.214000000000000000e+03 7.565241241455078125e+01 3.462399291992187500e+01 2.918260730803012848e-02 -1.774296641349792480e+00 -5.235342383384704590e-01 -3.319099545478820801e-02
3.215000000000000000e+03 7.477455139160156250e+01 2.964533424377441406e+01 5.023729056119918823e-02 -1.562343835830688477e+00 -4.536319673061370850e-01 -8.923547714948654175e-02
3.216000000000000000e+03 4.302762508392333984e+00 -2.717292594909667969e+01 -2.069929987192153931e-01 -1.727798134088516235e-01 -1.139318421483039856e-01 3.061713874340057373e-01
3.217000000000000000e+03 3.606341600418090820e+00 -2.645767974853515625e+01 -1.386250555515289307e-01 -1.754934042692184448e-01 -9.423553943634033203e-02 3.412577807903289795e-01
3.218000000000000000e+03 3.896335363388061523e+00 1.577564716339111328e+01 -1.526826781628187746e-05 -6.954685431992402300e-06 -6.666886292805429548e-06 1.509574940428137779e-05
3.219000000000000000e+03 4.210445880889892578e+00 2.861196517944335938e+01 -1.127845098380930722e-05 9.137314009421970695e-06 -6.423410923162009567e-07 -1.895121095003560185e-04
3.220000000000000000e+03 3.358597993850708008e+00 2.624242591857910156e+01 -3.140664557577110827e-05 2.501573726476635784e-05 -1.917272584250895306e-06 -1.071130973286926746e-04
3.221000000000000000e+03 4.237525558471679688e+01 -2.333657455444335938e+01 2.840766310691833496e-01 4.467809200286865234e+00 1.425565719604492188e+00 -6.633216738700866699e-01
3.222000000000000000e+03 4.302066802978515625e+01 -2.373767089843750000e+01 3.170272111892700195e-01 3.971962213516235352e+00 1.286696791648864746e+00 -8.623433113098144531e-01
3.223000000000000000e+03 4.630335807800292969e+00 8.574463844299316406e+00 -3.864390237140469253e-06 -4.861207798967370763e-06 -2.617679456307087094e-06 8.278346285806037486e-06
3.224000000000000000e+03 3.281891822814941406e+00 -1.316998481750488281e+01 6.295323371887207031e-02 -4.760342836380004883e-01 -1.239243149757385254e-01 -2.665333747863769531e-01
3.225000000000000000e+03 3.533653497695922852e+00 -9.050829887390136719e+00 -2.632548660039901733e-02 -2.836253643035888672e-01 -9.298525005578994751e-02 -3.127911090850830078e-01
3.226000000000000000e+03 3.181051015853881836e+00 -1.069912242889404297e+01 -2.248097443953156471e-03 -3.993125557899475098e-01 -1.204681918025016785e-01 -3.054398596286773682e-01
3.227000000000000000e+03 2.996517181396484375e+00 -2.105620002746582031e+01 1.098926067352294922e-01 -4.414437711238861084e-01 -9.946534782648086548e-02 2.957901358604431152e-01
3.228000000000000000e+03 3.207670450210571289e+00 8.595474243164062500e+00 -7.637373528268653899e-06 -4.099763827980495989e-06 -3.521141252349480055e-06 6.937312718946486712e-06
3.229000000000000000e+03 3.922744989395141602e+00 8.566720962524414062e+00 4.676728622143855318e-06 4.161001470492919907e-06 2.651318936841562390e-06 -5.824372237839270383e-06
3.230000000000000000e+03 3.928545713424682617e+00 1.811800384521484375e+01 2.771389881672803313e-05 1.892027626126946416e-06 8.881777830538339913e-06 -7.848953828215599060e-06
3.231000000000000000e+03 3.199144363403320312e+00 -1.399023914337158203e+01 8.125260472297668457e-02 -5.215412378311157227e-01 -1.320865899324417114e-01 -2.343167811632156372e-01
3.232000000000000000e+03 3.736434936523437500e+00 -1.150971794128417969e+01 1.921110227704048157e-02 -3.539887070655822754e-01 -1.004332825541496277e-01 -3.211266696453094482e-01
3.233000000000000000e+03 3.202280521392822266e+00 1.502127742767333984e+01 -1.875111411209218204e-05 -8.493457244185265154e-06 -8.173371497832704335e-06 1.299889208894455805e-05
3.234000000000000000e+03 3.899331569671630859e+00 1.498933601379394531e+01 1.186794634122634307e-05 9.663388482294976711e-06 6.459400538005866110e-06 -8.565698408347088844e-06
3.235000000000000000e+03 3.162019491195678711e+00 -1.918502235412597656e+01 1.694054454565048218e-01 -4.828432798385620117e-01 -9.403134882450103760e-02 1.726473569869995117e-01
3.236000000000000000e+03 3.864064216613769531e+00 -7.275062561035156250e+00 -6.131371110677719116e-02 -1.813417971134185791e-01 -7.279665768146514893e-02 -2.956306636333465576e-01
3.237000000000000000e+03 3.999077796936035156e+00 -1.787428855895996094e+01 2.643240094184875488e-01 -2.739404737949371338e-01 -2.884934656322002411e-03 8.919467031955718994e-02
3.238000000000000000e+03 3.093143463134765625e+00 -1.793973159790039062e+01 1.731559932231903076e-01 -5.618892312049865723e-01 -1.166199818253517151e-01 6.526017189025878906e-02
3.239000000000000000e+03 5.551359653472900391e+00 2.034933471679687500e+01 -6.024961294315289706e-06 3.018622010131366551e-05 7.248377642099512741e-06 -5.607813818642171100e-06
3.240000000000000000e+03 3.289863109588623047e+00 2.141440963745117188e+01 -3.639361602836288512e-05 3.766303279917337932e-06 -9.788193892745766789e-06 -1.807043554435949773e-05
3.241000000000000000e+03 3.890931129455566406e+00 -1.409567451477050781e+01 1.211427599191665649e-01 -3.674481511116027832e-01 -7.389161735773086548e-02 -2.398924082517623901e-01
3.242000000000000000e+03 3.931368112564086914e+00 1.258815383911132812e+01 -1.024244193104095757e-05 -7.830540198483504355e-06 -5.421894456958398223e-06 9.457809937885031104e-06
3.243000000000000000e+03 4.751770496368408203e+00 -1.355979442596435547e+01 1.413822025060653687e-01 -1.786468178033828735e-01 -1.117938477545976639e-02 -2.709394991397857666e-01
3.244000000000000000e+03 5.461670875549316406e+00 -1.614855957031250000e+01 3.651998937129974365e-01 4.763752967119216919e-02 1.238512247800827026e-01 -3.363895788788795471e-02
3.245000000000000000e+03 3.272976875305175781e+00 2.060499572753906250e+01 4.720689321402460337e-05 -1.587323595231282525e-06 1.368587072647642344e-05 5.336584308679448441e-06
3.246000000000000000e+03 2.833939313888549805e+00 -1.989219474792480469e+01 1.183503866195678711e-01 -5.555725097656250000e-01 -1.311666369438171387e-01 2.104999274015426636e-01
3.247000000000000000e+03 4.575280189514160156e+00 -1.427511405944824219e+01 1.707442104816436768e-01 -2.101577520370483398e-01 -1.182406302541494370e-02 -2.286978363990783691e-01
3.248000000000000000e+03 3.126085519790649414e+00 -9.896347045898437500e+00 -1.001237239688634872e-02 -3.663564622402191162e-01 -1.129106506705284119e-01 -3.028821945190429688e-01
3.249000000000000000e+03 4.316446781158447266e+00 -9.142293930053710938e+00 -3.223637118935585022e-02 -1.878859251737594604e-01 -6.603668630123138428e-02 -3.442184925079345703e-01
3.250000000000000000e+03 3.954246997833251953e+00 1.890648841857910156e+01 -2.772013067442458123e-05 6.071684765629470348e-06 -6.494533408840652555e-06 7.010225090198218822e-06
3.251000000000000000e+03 3.899586200714111328e+00 1.655784988403320312e+01 1.819226599764078856e-05 6.150568879093043506e-06 7.302850463020149618e-06 -9.623604455555323511e-06
3.252000000000000000e+03 3.909758329391479492e+00 1.733768844604492188e+01 -2.084247898892499506e-05 -2.512038690838380717e-06 -7.006355190242175013e-06 1.363268165732733905e-05
3.253000000000000000e+03 3.915738105773925781e+00 9.365996360778808594e+00 -6.737401236023288220e-06 -3.937246674468042329e-06 -3.202394509571604431e-06 8.056344995566178113e-06
3.254000000000000000e+03 3.921328783035278320e+00 1.338893604278564453e+01 8.743340913497377187e-06 9.531362593406811357e-06 5.482411324919667095e-06 -6.019045031280256808e-06
3.255000000000000000e+03 4.978047370910644531e+00 -3.076726341247558594e+01 -1.543539315462112427e-01 -1.852337270975112915e-01 -1.018762961030006409e-01 1.195163652300834656e-01
3.256000000000000000e+03 4.751235008239746094e+00 3.473222732543945312e+01 -6.928452785359695554e-05 3.805019368883222342e-04 9.336521907243877649e-05 -8.467444422421976924e-05
3.257000000000000000e+03 3.921162128448486328e+00 1.017756271362304688e+01 6.121858405094826594e-06 3.772696800297126174e-06 2.968366516142850742e-06 -5.634631179418647662e-06
3.258000000000000000e+03 3.930423736572265625e+00 1.099082946777343750e+01 -8.823411008052062243e-06 -4.449329026101622730e-06 -3.981821919296635315e-06 8.269093996204901487e-06
3.259000000000000000e+03 6.803870201110839844e+00 -3.186024284362792969e+01 -1.822291612625122070e-01 -2.397581636905670166e-01 -1.265961974859237671e-01 1.103803366422653198e-01
3.260000000000000000e+03 5.294620037078857422e+00 3.358465576171875000e+01 1.471966825192794204e-04 -3.879882206092588603e-05 3.251935777370817959e-05 -1.599152747076004744e-04
3.261000000000000000e+03 3.446018695831298828e+00 -3.391671752929687500e+01 -2.962082624435424805e-02 -5.493467301130294800e-02 -2.536664903163909912e-02 6.201598793268203735e-03
3.262000000000000000e+03 4.156361103057861328e+00 -3.316319656372070312e+01 -6.064089015126228333e-02 -1.056832596659660339e-01 -4.989724233746528625e-02 3.086856193840503693e-02
3.263000000000000000e+03 3.945162773132324219e+00 7.773411273956298828e+00 -4.838610038859769702e-06 -4.372376224637264386e-06 -2.763295924523845315e-06 6.640544597757980227e-06
3.264000000000000000e+03 4.069823741912841797e+00 2.459015846252441406e+01 9.402342402609065175e-05 9.965037861547898501e-06 3.119653774774633348e-05 9.224092423210095149e-07
3.265000000000000000e+03 1.294103622436523438e+01 1.649198341369628906e+01 -4.844511568080633879e-05 -7.775353878969326615e-05 -3.785959779634140432e-05 4.023227666039019823e-05
3.266000000000000000e+03 4.066835403442382812e+00 2.378848838806152344e+01 -3.450786607572808862e-05 6.477985152741894126e-06 -8.408964276895858347e-06 -4.954965697834268212e-05
3.267000000000000000e+03 5.359702682495117188e+01 1.926664590835571289e+00 -2.923321008682250977e+00 3.378010392189025879e-01 -7.756559848785400391e-01 -1.663104295730590820e-01
3.268000000000000000e+03 7.167337036132812500e+01 -8.422259330749511719e+00 -2.413289807736873627e-02 -2.302606962621212006e-02 -1.414769049733877182e-02 -1.726374262943863869e-03
3.269000000000000000e+03 5.409596443176269531e+00 -3.312788009643554688e+01 -8.600603789091110229e-02 -1.660963296890258789e-01 -7.563070952892303467e-02 4.857481271028518677e-02
3.270000000000000000e+03 3.941434478759765625e+01 -7.424116134643554688e+00 1.623865127563476562e+00 1.032076358795166016e+01 3.583388566970825195e+00 1.346086859703063965e+00
3.271000000000000000e+03 3.745108127593994141e+00 3.540178298950195312e+01 -7.056850881781429052e-05 3.008256899192929268e-04 6.907715578563511372e-05 -3.591284039430320263e-04
3.272000000000000000e+03 7.551435852050781250e+01 3.583893585205078125e+01 2.676732465624809265e-02 -1.774933099746704102e+00 -5.244497060775756836e-01 -2.219202928245067596e-02
3.273000000000000000e+03 7.410882568359375000e+01 3.563927078247070312e+01 3.725843504071235657e-02 -1.436719894409179688e+00 -4.198384582996368408e-01 -3.880527988076210022e-02
3.274000000000000000e+03 3.882426071166992188e+01 -6.083021759986877441e-01 -2.280916452407836914e+00 7.840009212493896484e+00 1.667727947235107422e+00 2.592041790485382080e-01
3.275000000000000000e+03 4.125607490539550781e+00 -3.386153793334960938e+01 -3.833014145493507385e-02 -9.013383090496063232e-02 -3.853918984532356262e-02 1.470401696860790253e-02
3.276000000000000000e+03 1.427112102508544922e+01 1.172956752777099609e+01 -1.763441468938253820e-05 -2.175399640691466630e-05 -1.181652260129339993e-05 -1.028357200993923470e-05
3.277000000000000000e+03 4.733971118927001953e+00 -3.359627914428710938e+01 -5.970945581793785095e-02 -1.303672194480895996e-01 -5.702299997210502625e-02 2.987756580114364624e-02
3.278000000000000000e+03 4.385036945343017578e+00 3.098347854614257812e+01 6.511031097033992410e-05 1.636246597627177835e-04 6.862048758193850517e-05 -4.236137101543135941e-05
3.279000000000000000e+03 4.430625438690185547e+00 3.173233032226562500e+01 7.826674118405207992e-05 -4.856998930335976183e-05 8.909025382308755070e-06 -2.728399413172155619e-04
3.280000000000000000e+03 4.547570419311523438e+01 2.636058616638183594e+01 7.159230113029479980e-01 5.593507289886474609e+00 1.892829179763793945e+00 -6.052948161959648132e-02
3.281000000000000000e+03 8.377563476562500000e+00 -4.740057468414306641e+00 -2.679280042648315430e-01 6.113110855221748352e-02 -6.203906610608100891e-02 -2.423075437545776367e-01
3.282000000000000000e+03 9.134023666381835938e+00 -6.061975479125976562e+00 -2.293902933597564697e-01 1.005186364054679871e-01 -3.866149857640266418e-02 -2.725106775760650635e-01
3.283000000000000000e+03 3.823487091064453125e+01 -1.139396286010742188e+01 1.203353404998779297e+00 8.204531669616699219e+00 2.822365522384643555e+00 3.948841392993927002e-01
3.284000000000000000e+03 5.612385940551757812e+01 2.226626873016357422e+00 -2.165665149688720703e+00 1.697778850793838501e-01 -5.987661480903625488e-01 -4.065193533897399902e-01
3.285000000000000000e+03 5.342763900756835938e+01 2.723798513412475586e+00 -2.654068231582641602e+00 3.950242698192596436e-01 -6.777131557464599609e-01 -3.705773949623107910e-01
3.286000000000000000e+03 5.778172302246093750e+01 1.296454668045043945e+00 -2.097538709640502930e+00 6.514719128608703613e-02 -6.097174882888793945e-01 -3.515429496765136719e-01
3.287000000000000000e+03 1.002761268615722656e+01 -3.551262664794921875e+01 -1.046199500560760498e-01 -2.095198035240173340e-01 -9.424192458391189575e-02 6.254718452692031860e-02
3.288000000000000000e+03 3.916712951660156250e+01 -1.555236911773681641e+01 6.873339414596557617e-01 8.508050918579101562e+00 2.758615493774414062e+00 -2.640477120876312256e-01
3.289000000000000000e+03 6.464433193206787109e+00 -5.994792461395263672e+00 -1.620756983757019043e-01 4.230714694131165743e-04 -4.849578812718391418e-02 -2.971138358116149902e-01
3.290000000000000000e+03 5.709278106689453125e+00 -4.781108856201171875e+00 -1.645682603120803833e-01 -2.220805920660495758e-02 -5.603289231657981873e-02 -2.520305812358856201e-01
3.291000000000000000e+03 5.059887886047363281e+00 -6.269579887390136719e+00 -1.123756989836692810e-01 -7.084219157695770264e-02 -5.496536940336227417e-02 -2.993605136871337891e-01
3.292000000000000000e+03 4.439749145507812500e+01 1.267658329010009766e+01 1.390113711357116699e+00 6.718955516815185547e+00 2.432720899581909180e+00 1.963027715682983398e+00
3.293000000000000000e+03 4.149964141845703125e+01 1.453177452087402344e+00 -3.560020446777343750e+00 9.384963989257812500e+00 1.747483015060424805e+00 6.553491950035095215e-01
3.294000000000000000e+03 1.741221618652343750e+01 -1.401283836364746094e+01 7.588391900062561035e-01 -6.772644072771072388e-02 2.073338180780410767e-01 -4.367620497941970825e-02
3.295000000000000000e+03 1.802616882324218750e+01 -1.269305133819580078e+01 5.992336869239807129e-01 -1.104101166129112244e-01 1.466470658779144287e-01 -3.481630608439445496e-02
3.296000000000000000e+03 7.085379600524902344e+00 -5.726817607879638672e+00 -1.892037093639373779e-01 2.809935994446277618e-02 -4.833130538463592529e-02 -2.889459133148193359e-01
3.297000000000000000e+03 6.962448883056640625e+01 -2.864445304870605469e+01 -1.291518751531839371e-02 2.319040475413203239e-03 -3.178844228386878967e-03 -1.526762847788631916e-03
3.298000000000000000e+03 7.124144744873046875e+01 -2.728377342224121094e+01 -5.727832671254873276e-03 4.800443130079656839e-04 -1.574336551129817963e-03 -7.766563794575631618e-04
3.299000000000000000e+03 3.886122131347656250e+01 -9.030910491943359375e+00 1.460710883140563965e+00 9.408848762512207031e+00 3.260867834091186523e+00 1.023096799850463867e+00
3.300000000000000000e+03 3.822238540649414062e+01 -1.059631252288818359e+01 1.348716497421264648e+00 8.237219810485839844e+00 2.875781059265136719e+00 6.154826283454895020e-01
3.301000000000000000e+03 1.670354080200195312e+01 5.742209911346435547e+00 -8.185212209355086088e-06 -9.812584721657913178e-06 -5.399338988354429603e-06 -7.348500275838887319e-06
3.302000000000000000e+03 4.377034378051757812e+01 1.019875812530517578e+01 1.531467914581298828e+00 6.854992389678955078e+00 2.515938043594360352e+00 2.363491535186767578e+00
3.303000000000000000e+03 5.534710884094238281e+00 -1.786294364929199219e+01 4.207963645458221436e-01 1.860688775777816772e-01 1.820595711469650269e-01 1.808618158102035522e-01
3.304000000000000000e+03 1.119142246246337891e+01 4.961243152618408203e+00 6.700704034301452339e-06 1.657504640206752811e-06 2.507462568246410228e-06 -1.488150360273721162e-06
3.305000000000000000e+03 8.840629577636718750e+00 5.171422004699707031e+00 -6.546192253154003993e-06 1.765333337289121118e-07 -1.910897708512493409e-06 -8.485126841151213739e-07
3.306000000000000000e+03 1.651710319519042969e+01 6.410348415374755859e+00 6.117455541243543848e-06 9.666480764281004667e-06 4.735180937132099643e-06 4.423417976795462891e-06
3.307000000000000000e+03 7.240110015869140625e+01 -8.344624519348144531e+00 -2.423006854951381683e-02 -2.214524522423744202e-02 -1.391259394586086273e-02 -2.947807661257684231e-04
3.308000000000000000e+03 1.508619880676269531e+01 8.455275535583496094e+00 -1.745487111293186899e-06 9.288309229305014014e-06 2.262846464873291552e-06 2.272146048198919743e-06
3.309000000000000000e+03 3.793888473510742188e+01 -2.322457695007324219e+01 7.459015846252441406e-01 6.329249858856201172e+00 2.122545480728149414e+00 9.524295926094055176e-01
3.310000000000000000e+03 3.903396224975585938e+01 -2.282151603698730469e+01 4.548121690750122070e-01 6.113851547241210938e+00 1.970599174499511719e+00 7.000341415405273438e-01
3.311000000000000000e+03 1.195273590087890625e+01 4.887643814086914062e+00 -7.385915068880422041e-06 -2.150456793970079161e-06 -2.860911536117782816e-06 1.665924287408415694e-06
3.312000000000000000e+03 1.122075557708740234e+01 4.282442569732666016e+00 -6.264742296480108052e-06 -8.678865697220317088e-07 -2.139788648491958156e-06 4.141428178172645858e-07
3.313000000000000000e+03 7.315563964843750000e+01 -8.284229278564453125e+00 -2.334171533584594727e-02 -2.103550173342227936e-02 -1.331316493451595306e-02 1.784482738003134727e-03
3.314000000000000000e+03 3.956595230102539062e+01 -1.750100898742675781e+01 3.711276650428771973e-01 8.143283843994140625e+00 2.554323434829711914e+00 1.321708261966705322e-01
3.315000000000000000e+03 1.769826698303222656e+01 -6.154320240020751953e+00 -3.144513666629791260e-01 -5.583497881889343262e-02 -1.110858991742134094e-01 -1.310208439826965332e-01
3.316000000000000000e+03 6.057424545288085938e+01 -8.022103458642959595e-02 -1.722121596336364746e+00 6.608161330223083496e-02 -4.968119859695434570e-01 -2.020126432180404663e-01
3.317000000000000000e+03 4.470615768432617188e+01 1.522683334350585938e+01 1.141019105911254883e+00 6.669307231903076172e+00 2.343097925186157227e+00 1.542313814163208008e+00
3.318000000000000000e+03 8.456933975219726562e+00 -5.410552024841308594e+00 -2.404264807701110840e-01 6.956122815608978271e-02 -5.125957727432250977e-02 -2.664166986942291260e-01
3.319000000000000000e+03 4.607587051391601562e+01 1.991460227966308594e+01 7.249709963798522949e-01 5.770365715026855469e+00 1.948601007461547852e+00 8.074228763580322266e-01
3.320000000000000000e+03 1.322259902954101562e+01 -1.360851860046386719e+01 7.361606359481811523e-01 2.648124396800994873e-01 3.002919256687164307e-01 -3.923660144209861755e-02
3.321000000000000000e+03 1.180286312103271484e+01 -1.300128936767578125e+01 5.516732335090637207e-01 3.221210837364196777e-01 2.621382772922515869e-01 -7.478062808513641357e-02
3.322000000000000000e+03 2.030273628234863281e+01 -6.107523441314697266e+00 -3.529356420040130615e-01 -1.226282641291618347e-01 -1.426691710948944092e-01 -1.919764280319213867e-01
3.323000000000000000e+03 1.722589111328125000e+01 4.002891063690185547e+00 9.740166433402919210e-07 1.562058969284407794e-06 7.608226724187261425e-07 -4.139479642617516220e-06
3.324000000000000000e+03 7.553852844238281250e+01 -7.320349216461181641e+00 -2.174587920308113098e-02 -1.395484711974859238e-02 -1.071021798998117447e-02 3.185193054378032684e-03
3.325000000000000000e+03 2.722045516967773438e+01 -1.465207481384277344e+01 7.864438295364379883e-01 -2.767176926136016846e-01 1.529178470373153687e-01 5.332860350608825684e-01
3.326000000000000000e+03 1.435635089874267578e+01 -5.909098148345947266e+00 -3.204509019851684570e-01 5.233954265713691711e-02 -8.043340593576431274e-02 -1.531154066324234009e-01
3.327000000000000000e+03 1.516777229309082031e+01 -5.995413303375244141e+00 -3.173217773437500000e-01 2.548875287175178528e-02 -8.754990994930267334e-02 -1.447955667972564697e-01
3.328000000000000000e+03 3.441017150878906250e+01 -1.576040935516357422e+01 4.419085383415222168e-01 2.589125871658325195e+00 9.093102812767028809e-01 -6.140035018324851990e-02
3.329000000000000000e+03 3.698984527587890625e+01 -1.687494277954101562e+01 -1.910573095083236694e-01 6.096158981323242188e+00 1.771530508995056152e+00 2.234615683555603027e-01
3.330000000000000000e+03 6.121311569213867188e+01 -1.831449270248413086e-01 -1.587731003761291504e+00 8.732178062200546265e-02 -4.501227736473083496e-01 -2.024772465229034424e-01
3.331000000000000000e+03 5.854758834838867188e+01 1.132393836975097656e+00 -1.970122814178466797e+00 6.407486647367477417e-02 -5.718144178390502930e-01 -3.599238991737365723e-01
3.332000000000000000e+03 4.376313781738281250e+01 7.458322525024414062e+00 1.040564298629760742e+00 6.082950592041015625e+00 2.137054443359375000e+00 2.269316434860229492e+00
3.333000000000000000e+03 1.478248691558837891e+01 5.380073547363281250e+00 3.978120730607770383e-06 7.204480425571091473e-06 3.354780346853658557e-06 -2.601503865662380122e-06
3.334000000000000000e+03 6.668965148925781250e+01 -2.519570350646972656e+00 -5.629795789718627930e-01 1.214277893304824829e-01 -1.324655264616012573e-01 -7.006455212831497192e-02
3.335000000000000000e+03 4.274583816528320312e+01 1.884414076805114746e+00 -3.911262512207031250e+00 8.208314895629882812e+00 1.289115667343139648e+00 1.293922305107116699e+00
3.336000000000000000e+03 1.599765014648437500e+01 -6.071532249450683594e+00 -3.153638839721679688e-01 -7.431212579831480980e-04 -9.483210742473602295e-02 -1.342145204544067383e-01
3.337000000000000000e+03 3.995140838623046875e+01 -1.974590539932250977e+00 -7.344293594360351562e-01 9.203722953796386719e+00 2.540787935256958008e+00 7.736275196075439453e-01
3.338000000000000000e+03 1.566197490692138672e+01 7.022039413452148438e+00 1.186808617603674065e-06 1.105817227653460577e-05 3.673494347822270356e-06 3.567917019609012641e-06
3.339000000000000000e+03 5.699339675903320312e+01 1.405691623687744141e+00 -2.234498500823974609e+00 7.705517113208770752e-02 -6.472330093383789062e-01 -2.982736825942993164e-01
3.340000000000000000e+03 5.703026199340820312e+01 2.266792774200439453e+00 -1.975556135177612305e+00 1.384257078170776367e-01 -5.511391162872314453e-01 -4.840686917304992676e-01
3.341000000000000000e+03 4.480208206176757812e+01 1.605887413024902344e+01 1.040707468986511230e+00 6.616902828216552734e+00 2.297283172607421875e+00 1.411778211593627930e+00
3.342000000000000000e+03 4.148727035522460938e+01 -2.068812751770019531e+01 7.182805985212326050e-02 6.295643329620361328e+00 1.910241484642028809e+00 -4.998281896114349365e-01
3.343000000000000000e+03 5.019187927246093750e+01 4.427255630493164062e+00 -1.864695906639099121e+00 2.997914850711822510e-01 -4.694713354110717773e-01 -5.702069401741027832e-01
3.344000000000000000e+03 1.189583683013916016e+01 2.019224357604980469e+01 3.578378527890890837e-05 3.895353802363388240e-05 2.242119626316707581e-05 -3.101578840869478881e-05
3.345000000000000000e+03 1.233577060699462891e+01 1.865355682373046875e+01 -6.481113814515992999e-05 -5.761139982496388257e-05 -3.672676029964350164e-05 6.633083557971986011e-06
3.346000000000000000e+03 3.829143524169921875e+01 -1.302499580383300781e+01 9.794913530349731445e-01 8.045775413513183594e+00 2.707580089569091797e+00 1.519480370916426182e-03
3.347000000000000000e+03 3.832738494873046875e+01 -1.386564540863037109e+01 8.820271492004394531e-01 7.929535388946533203e+00 2.643468856811523438e+00 -1.114493682980537415e-01
3.348000000000000000e+03 4.209464263916015625e+01 3.871166706085205078e+00 -2.084669113159179688e+00 8.178716659545898438e+00 1.828214168548583984e+00 1.626222491264343262e+00
3.349000000000000000e+03 4.370037841796875000e+01 1.856960892677307129e+00 -4.272078514099121094e+00 6.173522949218750000e+00 5.704333782196044922e-01 1.807632803916931152e+00
3.350000000000000000e+03 5.211427688598632812e+01 2.802643060684204102e+00 -2.967795372009277344e+00 4.135425984859466553e-01 -7.662758231163024902e-01 -3.958109021186828613e-01
3.351000000000000000e+03 5.137441635131835938e+01 3.587262153625488281e+00 -2.582645416259765625e+00 3.347397148609161377e-01 -6.743717193603515625e-01 -5.854869484901428223e-01
3.352000000000000000e+03 5.928024291992187500e+01 9.574322700500488281e-01 -1.857490062713623047e+00 6.309805065393447876e-02 -5.383176207542419434e-01 -3.653949499130249023e-01
3.353000000000000000e+03 3.946122360229492188e+01 -1.670856094360351562e+01 5.665147900581359863e-01 8.361058235168457031e+00 2.678271770477294922e+00 -1.019199788570404053e-01
3.354000000000000000e+03 1.448292636871337891e+01 -3.654682922363281250e+01 -1.225321069359779358e-01 -1.398472338914871216e-01 -7.871380448341369629e-02 3.020705189555883408e-03
3.355000000000000000e+03 1.465952014923095703e+01 -3.931393051147460938e+01 -1.740721426904201508e-02 -1.694657057523727417e-01 -5.606187880039215088e-02 -3.260833909735083580e-03
3.356000000000000000e+03 1.266617107391357422e+01 2.090770721435546875e+01 3.540500256349332631e-05 1.797396726033184677e-05 1.601369149284437299e-05 -1.608555066923145205e-05
3.357000000000000000e+03 1.265970039367675781e+01 2.163431739807128906e+01 8.012329999473877251e-06 2.939035402960143983e-05 1.122080539062153548e-05 4.117641219636425376e-05
3.358000000000000000e+03 4.452931213378906250e+01 1.354309082031250000e+01 1.316910147666931152e+00 6.693053722381591797e+00 2.402989149093627930e+00 1.808891654014587402e+00
3.359000000000000000e+03 1.612302398681640625e+01 -1.318313217163085938e+01 6.701847314834594727e-01 3.418865799903869629e-02 2.113120257854461670e-01 -2.920940890908241272e-02
3.360000000000000000e+03 9.408415794372558594e+00 -3.388033676147460938e+01 -1.558493971824645996e-01 -2.317555397748947144e-01 -1.162814795970916748e-01 9.903732687234878540e-02
3.361000000000000000e+03 8.324450492858886719e+00 -3.579923629760742188e+01 -6.361921131610870361e-02 -2.077323049306869507e-01 -8.140545338392257690e-02 4.256426170468330383e-02
3.362000000000000000e+03 1.416567325592041016e+01 1.258844852447509766e+01 2.001418943109456450e-05 2.183961805712897331e-05 1.255614279216388240e-05 6.945869245100766420e-06
3.363000000000000000e+03 7.309870910644531250e+01 -2.164809226989746094e+01 7.930315041448920965e-05 -5.419102963060140610e-04 -1.387821539537981153e-04 2.793992825900204480e-05
3.364000000000000000e+03 7.689282226562500000e+01 -1.807453346252441406e+01 2.948955625470262021e-05 -3.962359551223926246e-05 -3.040211595362052321e-06 -1.298228016821667552e-04
3.365000000000000000e+03 7.623403930664062500e+01 -1.875017356872558594e+01 5.787194095319136977e-05 -1.186773588415235281e-04 -1.824162609409540892e-05 -1.391333789797499776e-04
3.366000000000000000e+03 4.411354446411132812e+01 8.101468086242675781e+00 1.226112365722656250e+00 5.659689903259277344e+00 2.065740823745727539e+00 2.230853557586669922e+00
3.367000000000000000e+03 4.347503280639648438e+01 8.474753379821777344e+00 1.362050294876098633e+00 6.647279262542724609e+00 2.402798891067504883e+00 2.420074939727783203e+00
3.368000000000000000e+03 4.645212936401367188e+01 2.800009346008300781e+01 7.580859065055847168e-01 4.948772430419921875e+00 1.712057590484619141e+00 8.274453133344650269e-02
3.369000000000000000e+03 3.769621658325195312e+01 -2.522713851928710938e+01 1.047873616218566895e+00 5.892723083496093750e+00 2.082179069519042969e+00 5.642006993293762207e-01
3.370000000000000000e+03 4.139902877807617188e+01 -2.356112098693847656e+01 3.197439908981323242e-01 4.915556907653808594e+00 1.570590257644653320e+00 -3.293878436088562012e-01
3.371000000000000000e+03 6.333182144165039062e+01 -2.792102657258510590e-02 -1.172047257423400879e+00 1.778452545404434204e-01 -2.982605993747711182e-01 -3.157728016376495361e-01
3.372000000000000000e+03 6.125358963012695312e+01 5.512517690658569336e-01 -1.510220170021057129e+00 1.250994354486465454e-01 -4.155362248420715332e-01 -3.735136985778808594e-01
3.373000000000000000e+03 3.856992340087890625e+01 -6.847020626068115234e+00 1.538509011268615723e+00 8.585727691650390625e+00 3.037270784378051758e+00 1.132536768913269043e+00
3.374000000000000000e+03 1.043719482421875000e+01 4.356827735900878906e+00 5.258704732113983482e-06 5.673290957020071801e-07 1.747810074448352680e-06 -2.229279942866924102e-07
3.375000000000000000e+03 8.062349319458007812e+00 5.917775154113769531e+00 -7.632673259649891406e-06 -1.775248961166653316e-07 -2.343059350096154958e-06 -1.094577896765258629e-06
3.376000000000000000e+03 7.441749572753906250e+00 -1.448495101928710938e+01 4.360528588294982910e-01 3.156728744506835938e-01 2.255177199840545654e-01 -9.175824373960494995e-02
3.377000000000000000e+03 1.943847656250000000e+01 -6.134099960327148438e+00 -3.332383632659912109e-01 -1.022798717021942139e-01 -1.306554675102233887e-01 -1.560846120119094849e-01
3.378000000000000000e+03 3.889712905883789062e+01 -1.677585792541503906e+01 3.650894761085510254e-01 7.764477729797363281e+00 2.438870191574096680e+00 1.042953804135322571e-01
3.379000000000000000e+03 4.797127246856689453e+00 -2.884412193298339844e+01 -2.226609438657760620e-01 -2.089331895112991333e-01 -1.294782459735870361e-01 2.006636857986450195e-01
3.380000000000000000e+03 6.779312133789062500e+01 -3.515505981445312500e+01 -1.789904572069644928e-02 8.573436178267002106e-03 -2.797683002427220345e-03 3.911480680108070374e-02
3.381000000000000000e+03 2.949055290222167969e+01 -5.145145893096923828e+00 -3.670444786548614502e-01 -8.273978829383850098e-01 -3.583327233791351318e-01 -8.852282762527465820e-01
3.382000000000000000e+03 3.038473510742187500e+01 -4.940898895263671875e+00 -3.441380858421325684e-01 -8.154792189598083496e-01 -3.478851914405822754e-01 -8.409063816070556641e-01
3.383000000000000000e+03 5.007282638549804688e+01 3.771325111389160156e+00 -2.508311510086059570e+00 1.799075454473495483e-01 -6.985211968421936035e-01 -5.976200699806213379e-01
3.384000000000000000e+03 1.405025291442871094e+01 3.413457489013671875e+01 1.269698608666658401e-03 -2.437240473227575421e-04 3.077923611272126436e-04 1.297386334044858813e-04
3.385000000000000000e+03 4.226478958129882812e+01 1.421549439430236816e+00 -3.807600259780883789e+00 8.851366043090820312e+00 1.513129711151123047e+00 9.526832103729248047e-01
3.386000000000000000e+03 1.353384780883789062e+01 3.122439765930175781e+01 3.270480665378272533e-04 -7.516174810007214546e-04 -1.273708185181021690e-04 5.141364454175345600e-05
3.387000000000000000e+03 3.716756439208984375e+01 -2.884786415100097656e+01 2.455139756202697754e-01 4.971199989318847656e+00 1.565014243125915527e+00 2.307978570461273193e-01
3.388000000000000000e+03 3.821002197265625000e+01 -2.819325447082519531e+01 3.447773754596710205e-01 4.859437942504882812e+00 1.561264514923095703e+00 -5.411614850163459778e-02
3.389000000000000000e+03 4.124273681640625000e+01 -2.220380020141601562e+01 1.588902920484542847e-01 5.616154670715332031e+00 1.732513427734375000e+00 -2.263553291559219360e-01
3.390000000000000000e+03 3.645063781738281250e+01 -1.639109802246093750e+01 4.314495995640754700e-02 5.535017013549804688e+00 1.673448562622070312e+00 1.126641035079956055e-01
3.391000000000000000e+03 3.295090484619140625e+01 -3.547219276428222656e+00 -9.947512745857238770e-01 -1.599342972040176392e-01 -3.464056849479675293e-01 -5.432516932487487793e-01
3.392000000000000000e+03 3.312181472778320312e+01 -4.251673698425292969e+00 -3.167197108268737793e-01 1.988950073719024658e-01 -3.534741327166557312e-02 -2.899914085865020752e-01
3.393000000000000000e+03 2.860310745239257812e+01 -5.341029167175292969e+00 -3.778845667839050293e-01 -7.966518402099609375e-01 -3.523609042167663574e-01 -8.841136693954467773e-01
3.394000000000000000e+03 1.311013793945312500e+01 3.054493713378906250e+01 5.535838427022099495e-04 -4.338964645285159349e-04 3.590621417970396578e-05 -3.170015115756541491e-04
3.395000000000000000e+03 1.359883499145507812e+01 2.890366172790527344e+01 4.491622385103255510e-04 -6.717217911500483751e-05 1.145970163634046912e-04 2.814994077198207378e-04
3.396000000000000000e+03 4.538130187988281250e+01 2.941279983520507812e+01 7.225142121315002441e-01 5.078050613403320312e+00 1.740169405937194824e+00 7.442539185285568237e-02
3.397000000000000000e+03 2.962955093383789062e+01 -5.828267574310302734e+00 1.345191448926925659e-01 -7.742561101913452148e-01 -1.919211000204086304e-01 -7.526522874832153320e-01
3.398000000000000000e+03 1.484098243713378906e+01 -1.333391189575195312e+01 6.890106201171875000e-01 1.449851989746093750e-01 2.501987516880035400e-01 -3.406670317053794861e-02
3.399000000000000000e+03 1.777162361145019531e+01 -3.978286361694335938e+01 3.687225747853517532e-03 -6.965164840221405029e-02 -1.978932693600654602e-02 -1.903409510850906372e-02
3.400000000000000000e+03 1.243603610992431641e+01 2.510564613342285156e+01 1.823799102567136288e-04 1.456059253541752696e-04 9.839575068326666951e-05 5.879726086277514696e-05
3.401000000000000000e+03 1.137566757202148438e+01 2.479133605957031250e+01 1.959963119588792324e-04 9.250087168766185641e-05 8.654915291117504239e-05 7.208414899650961161e-05
3.402000000000000000e+03 1.360548210144042969e+01 1.460555553436279297e+01 4.103816172573715448e-05 9.505672096565831453e-06 1.516315023764036596e-05 -1.705805880192201585e-05
3.403000000000000000e+03 1.311344623565673828e+01 1.518528461456298828e+01 -1.567724939377512783e-05 -4.284890019334852695e-05 -1.755784433044027537e-05 6.681343052150623407e-07
3.404000000000000000e+03 4.473476886749267578e+00 -1.110085773468017578e+01 1.946711912751197815e-02 -2.063467651605606079e-01 -5.606389418244361877e-02 -3.449058234691619873e-01
3.405000000000000000e+03 1.025742530822753906e+01 -1.359948253631591797e+01 5.749830007553100586e-01 3.528951704502105713e-01 2.783634662628173828e-01 -5.841244384646415710e-02
3.406000000000000000e+03 3.888387298583984375e+01 -2.952623939514160156e+01 1.362061477266252041e-03 4.404785633087158203e+00 1.321844339370727539e+00 -2.414279878139495850e-01
3.407000000000000000e+03 3.965402603149414062e+01 1.759007573127746582e+00 -2.783799648284912109e+00 8.937339782714843750e+00 1.846062064170837402e+00 4.463435113430023193e-01
3.408000000000000000e+03 1.176403713226318359e+01 2.271617317199707031e+01 6.609263073187321424e-05 -2.019842067966237664e-04 -4.076747427461668849e-05 2.341445542697329074e-05
3.409000000000000000e+03 4.217571735382080078e+00 -3.237590789794921875e+01 -7.786539942026138306e-02 -1.192865148186683655e-01 -5.914557352662086487e-02 4.964664205908775330e-02
3.410000000000000000e+03 6.625995635986328125e+01 -1.867528080940246582e+00 -6.661387085914611816e-01 1.426777392625808716e-01 -1.570383012294769287e-01 -1.179155632853507996e-01
3.411000000000000000e+03 6.867411804199218750e+01 -3.349561309814453125e+01 -2.676047384738922119e-02 8.692553266882896423e-03 -5.420376546680927277e-03 2.486412599682807922e-02
3.412000000000000000e+03 6.847131347656250000e+01 -3.198865890502929688e+01 -3.483298793435096741e-02 1.035541947931051254e-02 -7.343270815908908844e-03 1.131304353475570679e-02
3.413000000000000000e+03 5.234883499145507812e+01 -3.333903503417968750e+01 5.082200746983289719e-03 7.559804320335388184e-01 2.283187955617904663e-01 -3.477182090282440186e-01
3.414000000000000000e+03 6.469396209716796875e+01 -3.628312683105468750e+01 -1.732712727971374989e-03 -4.265021067112684250e-03 -1.799320220015943050e-03 5.346556752920150757e-02
3.415000000000000000e+03 3.932328414916992188e+01 -1.954912376403808594e+01 -3.910700231790542603e-02 7.223547458648681641e+00 2.155332088470458984e+00 6.995264291763305664e-01
3.416000000000000000e+03 3.958496475219726562e+01 -6.492690443992614746e-01 -2.155205488204956055e+00 8.697321891784667969e+00 1.962635040283203125e+00 2.441283464431762695e-01
3.417000000000000000e+03 4.074453353881835938e+01 -2.087233352661132812e+01 8.848152123391628265e-03 6.538900375366210938e+00 1.964324593544006348e+00 3.668482229113578796e-02
3.418000000000000000e+03 3.128102493286132812e+01 -4.723380088806152344e+00 -3.339191377162933350e-01 -6.698541641235351562e-01 -3.011319935321807861e-01 -7.340453863143920898e-01
3.419000000000000000e+03 3.410865783691406250e+01 -3.994867801666259766e+00 -3.216867148876190186e-01 1.113787293434143066e+00 2.376301586627960205e-01 -7.009595166891813278e-03
3.420000000000000000e+03 1.277340507507324219e+01 2.902398490905761719e+01 2.719803596846759319e-04 -2.171575324609875679e-04 1.644684925850015134e-05 -1.260242715943604708e-04
3.421000000000000000e+03 4.783943939208984375e+01 3.708073854446411133e+00 -2.421277284622192383e+00 -4.634641483426094055e-02 -7.402871251106262207e-01 8.923111110925674438e-02
3.422000000000000000e+03 4.636081314086914062e+01 4.203257560729980469e+00 -1.686999917030334473e+00 1.202490925788879395e+00 -1.453526765108108521e-01 1.149712085723876953e+00
3.423000000000000000e+03 3.822443771362304688e+01 -3.291386032104492188e+01 -5.727897286415100098e-01 3.851598262786865234e+00 9.836425781250000000e-01 -9.590528905391693115e-02
3.424000000000000000e+03 3.797023010253906250e+01 -2.920071601867675781e+01 8.027212321758270264e-02 4.637319564819335938e+00 1.415277481079101562e+00 -5.294677987694740295e-02
3.425000000000000000e+03 9.033707618713378906e+00 -1.351819801330566406e+01 4.521754086017608643e-01 3.413806855678558350e-01 2.380668371915817261e-01 -9.742597490549087524e-02
3.426000000000000000e+03 6.546092987060546875e+01 -5.664251446723937988e-01 -8.493313193321228027e-01 1.783217787742614746e-01 -2.013028711080551147e-01 -2.642528414726257324e-01
3.427000000000000000e+03 3.567599105834960938e+01 -2.342936277389526367e+00 -1.466466903686523438e+00 2.743063211441040039e+00 3.829789161682128906e-01 2.069982886314392090e-01
3.428000000000000000e+03 4.171759033203125000e+01 5.101836204528808594e+00 -5.838871598243713379e-01 8.421725273132324219e+00 2.351351499557495117e+00 2.042977333068847656e+00
3.429000000000000000e+03 4.132576370239257812e+01 4.159419059753417969e+00 -1.509707808494567871e+00 8.809745788574218750e+00 2.190011501312255859e+00 1.610332369804382324e+00
3.430000000000000000e+03 4.453378677368164062e+01 3.345384597778320312e+00 -2.968175649642944336e+00 4.009729385375976562e+00 3.124661147594451904e-01 2.180904626846313477e+00
3.431000000000000000e+03 1.346716213226318359e+01 -1.295556545257568359e+01 5.969296097755432129e-01 2.409291416406631470e-01 2.513576447963714600e-01 -4.989263042807579041e-02
3.432000000000000000e+03 6.755689239501953125e+01 -3.841507673263549805e+00 -3.554883897304534912e-01 6.353312730789184570e-02 -8.758658170700073242e-02 -8.535100147128105164e-03
3.433000000000000000e+03 1.199456214904785156e+01 2.607231903076171875e+01 1.477090845583006740e-04 8.218181756092235446e-05 6.896726699778810143e-05 4.091591472388245165e-05
3.434000000000000000e+03 1.170919799804687500e+01 2.540748214721679688e+01 6.881775334477424622e-05 -1.604573772056028247e-04 -2.749188752204645425e-05 2.047643101832363755e-05
3.435000000000000000e+03 7.102861785888671875e+01 -2.820493316650390625e+01 -8.725655265152454376e-03 1.459307502955198288e-03 -2.179904375225305557e-03 -4.121270903851836920e-04
3.436000000000000000e+03 7.058437347412109375e+01 -2.864712524414062500e+01 -1.136719249188899994e-02 2.228118944913148880e-03 -2.741721924394369125e-03 8.149851055350154638e-05
3.437000000000000000e+03 3.712728500366210938e+01 -1.864534759521484375e+01 -5.094799995422363281e-01 6.482153892517089844e+00 1.791802287101745605e+00 7.773626446723937988e-01
3.438000000000000000e+03 4.502737426757812500e+01 2.859007453918457031e+01 8.338586688041687012e-01 5.339331626892089844e+00 1.851957082748413086e+00 -7.807007431983947754e-02
3.439000000000000000e+03 2.446647071838378906e+01 -5.786435604095458984e+00 -4.552452266216278076e-01 -3.238003253936767578e-01 -2.337136715650558472e-01 -5.445585250854492188e-01
3.440000000000000000e+03 2.445417213439941406e+01 -5.054571151733398438e+00 -7.274392843246459961e-01 -2.276419699192047119e-01 -2.865243852138519287e-01 -5.419344305992126465e-01
3.441000000000000000e+03 3.379308319091796875e+01 -1.420474529266357422e+01 1.216832756996154785e+00 2.001959562301635742e+00 9.656376838684082031e-01 1.543565690517425537e-01
3.442000000000000000e+03 6.447116851806640625e+01 -2.636897861957550049e-01 -9.930238723754882812e-01 1.859116256237030029e-01 -2.421336770057678223e-01 -2.966685295104980469e-01
3.443000000000000000e+03 2.751854133605957031e+01 -3.698091888427734375e+01 -1.161381751298904419e-01 9.039457440376281738e-01 2.363422811031341553e-01 3.820753097534179688e-01
3.444000000000000000e+03 4.041996765136718750e+01 -2.013424301147460938e+01 1.853242702782154083e-02 7.031895160675048828e+00 2.115128278732299805e+00 1.911627203226089478e-01
3.445000000000000000e+03 3.193523216247558594e+01 -3.761817932128906250e+01 -5.364455580711364746e-01 2.205334424972534180e+00 5.006666779518127441e-01 4.969777464866638184e-01
3.446000000000000000e+03 4.569621658325195312e+01 3.380823135375976562e+01 -3.878606483340263367e-02 4.487658500671386719e+00 1.334661722183227539e+00 2.434197366237640381e-01
3.447000000000000000e+03 5.700364112854003906e+00 -3.101164436340332031e+01 -1.776715964078903198e-01 -2.150142192840576172e-01 -1.178057417273521423e-01 1.229839026927947998e-01
3.448000000000000000e+03 8.894519805908203125e+00 -3.484869003295898438e+01 -1.048811376094818115e-01 -2.158032208681106567e-01 -9.620530903339385986e-02 6.629902124404907227e-02
3.449000000000000000e+03 2.201300811767578125e+01 -6.013745784759521484e+00 -4.007475078105926514e-01 -1.671257317066192627e-01 -1.703619658946990967e-01 -2.973296046257019043e-01
3.450000000000000000e+03 2.284865570068359375e+01 -5.942604541778564453e+00 -4.227423071861267090e-01 -2.016573101282119751e-01 -1.873198896646499634e-01 -3.661735951900482178e-01
3.451000000000000000e+03 3.853050231933593750e+01 -2.538482284545898438e+01 8.334716558456420898e-01 5.443540573120117188e+00 1.883103728294372559e+00 2.808363735675811768e-01
3.452000000000000000e+03 4.064075469970703125e+01 3.218232989311218262e-01 -2.733033895492553711e+00 9.544113159179687500e+00 2.043323755264282227e+00 1.768472045660018921e-01
3.453000000000000000e+03 4.198049163818359375e+01 5.578597784042358398e-01 -3.042906284332275391e+00 9.492717742919921875e+00 1.934943437576293945e+00 5.257843732833862305e-01
3.454000000000000000e+03 6.926227569580078125e+01 -3.261816406250000000e+01 -2.735804393887519836e-02 9.601257741451263428e-03 -5.327035672962665558e-03 1.751725748181343079e-02
3.455000000000000000e+03 6.936360168457031250e+01 -3.044115257263183594e+01 -2.309884130954742432e-02 6.314292084425687790e-03 -5.035364534705877304e-03 2.896470949053764343e-03
3.456000000000000000e+03 7.543670654296875000e+01 -2.770577812194824219e+01 -2.664622850716114044e-03 -6.767977611161768436e-04 -1.002426142804324627e-03 1.944315619766712189e-03
3.457000000000000000e+03 4.080346298217773438e+01 -3.962933123111724854e-01 -2.180174589157104492e+00 9.657603263854980469e+00 2.243228435516357422e+00 2.548939883708953857e-01
3.458000000000000000e+03 4.101661300659179688e+01 1.027970552444458008e+00 -3.295401334762573242e+00 9.531497955322265625e+00 1.870828866958618164e+00 3.054116666316986084e-01
3.459000000000000000e+03 3.849403381347656250e+01 -2.629973983764648438e+01 7.303181290626525879e-01 5.225694179534912109e+00 1.786803722381591797e+00 1.170065775513648987e-01
3.460000000000000000e+03 3.794128417968750000e+01 -1.783395957946777344e+01 -2.002975046634674072e-01 7.007042884826660156e+00 2.042023658752441406e+00 5.359151959419250488e-01
3.461000000000000000e+03 3.927292633056640625e+01 -1.881114387512207031e+01 -4.417679086327552795e-02 7.451738357543945312e+00 2.222268581390380859e+00 5.856149196624755859e-01
3.462000000000000000e+03 1.669842529296875000e+01 -1.364670753479003906e+01 7.156456708908081055e-01 -1.385667081922292709e-02 2.105367034673690796e-01 -3.930754587054252625e-02
3.463000000000000000e+03 1.555845355987548828e+01 -1.344731330871582031e+01 7.092739343643188477e-01 7.582062482833862305e-02 2.355283647775650024e-01 -3.061500191688537598e-02
3.464000000000000000e+03 1.645598030090332031e+01 3.907629394531250000e+01 1.157375882030464709e-04 -1.928558194776996970e-04 -2.313546974619384855e-05 3.485986089799553156e-04
3.465000000000000000e+03 5.067467498779296875e+01 -3.160756492614746094e+01 5.430348217487335205e-02 1.030118227005004883e+00 3.253265321254730225e-01 -4.828230738639831543e-01
3.466000000000000000e+03 5.823080062866210938e+00 -3.012023925781250000e+01 -2.176544219255447388e-01 -2.503732144832611084e-01 -1.404082924127578735e-01 1.701005399227142334e-01
3.467000000000000000e+03 4.486245632171630859e+00 -2.968262100219726562e+01 -1.687868684530258179e-01 -1.765429973602294922e-01 -1.035989597439765930e-01 1.584557294845581055e-01
3.468000000000000000e+03 3.664044952392578125e+01 -3.502227401733398438e+01 -7.587155699729919434e-01 3.472302436828613281e+00 8.140760660171508789e-01 1.574125736951828003e-01
3.469000000000000000e+03 7.601188659667968750e+01 4.005310058593750000e+01 -8.410352282226085663e-03 -1.940268993377685547e+00 -5.846037864685058594e-01 3.102928213775157928e-02
3.470000000000000000e+03 7.385214996337890625e+01 3.719710922241210938e+01 2.927066758275032043e-02 -1.399525165557861328e+00 -4.110763669013977051e-01 -3.427600115537643433e-02
3.471000000000000000e+03 3.839543914794921875e+01 -2.724086570739746094e+01 5.707825422286987305e-01 5.048244953155517578e+00 1.685708284378051758e+00 1.013003755360841751e-03
3.472000000000000000e+03 6.680191040039062500e+01 -3.899817657470703125e+01 4.506498202681541443e-02 -1.038496196269989014e-02 1.040400657802820206e-02 3.634779155254364014e-02
3.473000000000000000e+03 3.359790039062500000e+01 -3.545847320556640625e+01 -6.205061078071594238e-01 2.802752017974853516e+00 6.546738147735595703e-01 5.855764150619506836e-01
3.474000000000000000e+03 7.198280334472656250e+01 4.127861022949218750e+01 3.071516286581754684e-03 -1.101800680160522461e+00 -3.296187520027160645e-01 4.782425530720502138e-04
3.475000000000000000e+03 5.398691177368164062e+01 -3.668502044677734375e+01 -1.200407184660434723e-02 6.630509495735168457e-01 1.953140497207641602e-01 -2.652273476123809814e-01
3.476000000000000000e+03 2.085199356079101562e+01 -3.952074432373046875e+01 1.618085312657058239e-03 9.040517359972000122e-02 2.760697714984416962e-02 2.018225193023681641e-02
3.477000000000000000e+03 7.794896125793457031e+00 -3.424583053588867188e+01 -9.972721338272094727e-02 -2.204471528530120850e-01 -9.605231136083602905e-02 6.220385059714317322e-02
3.478000000000000000e+03 1.986924743652343750e+01 -3.627613067626953125e+01 -1.262187212705612183e-01 -1.926056481897830963e-02 -4.364378377795219421e-02 -2.297192439436912537e-02
3.479000000000000000e+03 4.267756938934326172e+00 -3.463267898559570312e+01 -2.839072607457637787e-02 -9.116926789283752441e-02 -3.586799651384353638e-02 6.761183030903339386e-03
3.480000000000000000e+03 7.607811737060546875e+01 -3.796607589721679688e+01 2.698361407965421677e-03 -1.645504310727119446e-02 -4.127004183828830719e-03 9.517575614154338837e-03
3.481000000000000000e+03 7.495215606689453125e+01 -3.840340805053710938e+01 5.154287442564964294e-03 -1.615839451551437378e-02 -3.301232354715466499e-03 1.112237479537725449e-02
3.482000000000000000e+03 7.573950195312500000e+01 -3.681156539916992188e+01 1.762268831953406334e-03 -1.396253798156976700e-02 -3.660080721601843834e-03 1.162952184677124023e-02
3.483000000000000000e+03 4.020173072814941406e+00 3.794238281250000000e+01 -2.520821362850256264e-05 3.763532440643757582e-04 1.053435044013895094e-04 -5.101085480418987572e-05
3.484000000000000000e+03 5.175283908843994141e+00 3.842932891845703125e+01 -5.853281618328765035e-05 -2.283702087879646569e-05 -2.441095057292841375e-05 -5.075394874438643456e-04
3.485000000000000000e+03 5.061058044433593750e+01 -3.285898590087890625e+01 -1.333515997976064682e-02 1.140163540840148926e+00 3.380485177040100098e-01 -4.866465032100677490e-01
3.486000000000000000e+03 5.619128227233886719e+00 3.706830596923828125e+01 2.000757813220843673e-04 -3.305719292256981134e-04 -3.914884291589260101e-05 -9.161530215351376683e-06
3.487000000000000000e+03 4.392584800720214844e+00 3.680424499511718750e+01 -1.178828169940970838e-04 3.186035901308059692e-04 6.021623266860842705e-05 -4.125527339056134224e-04
3.488000000000000000e+03 1.517247772216796875e+01 3.405332183837890625e+01 9.599973418517038226e-05 -7.661103154532611370e-04 -2.010331663768738508e-04 -2.965671301353722811e-04
3.489000000000000000e+03 4.950114822387695312e+01 -3.327194213867187500e+01 -4.586089402437210083e-02 1.366332411766052246e+00 3.961414694786071777e-01 -5.466682314872741699e-01
3.490000000000000000e+03 2.355334281921386719e+01 -3.607941055297851562e+01 -7.519021630287170410e-02 1.510196775197982788e-01 2.274883724749088287e-02 6.821170449256896973e-02
3.491000000000000000e+03 6.778149127960205078e+00 -3.978287506103515625e+01 1.742725446820259094e-02 -1.442698985338211060e-01 -3.805279359221458435e-02 -6.669749971479177475e-03
3.492000000000000000e+03 4.314852237701416016e+00 -3.549214172363281250e+01 -1.833746209740638733e-02 -9.054759144783020020e-02 -3.266551718115806580e-02 -8.304479415528476238e-04
3.493000000000000000e+03 4.125054550170898438e+01 3.871044540405273438e+01 -6.285395622253417969e-01 3.334639549255371094e+00 8.118299841880798340e-01 -3.102188408374786377e-01
3.494000000000000000e+03 6.638135528564453125e+01 -3.684129714965820312e+01 8.480373769998550415e-03 -3.211466246284544468e-04 2.447768114507198334e-03 4.846864938735961914e-02
3.495000000000000000e+03 6.282186889648437500e+01 6.046507954597473145e-01 -1.242083549499511719e+00 1.716432124376296997e-01 -3.211320936679840088e-01 -4.083154201507568359e-01
3.496000000000000000e+03 5.997650909423828125e+01 7.944962382316589355e-01 -1.743645548820495605e+00 8.784106373786926270e-02 -4.967413246631622314e-01 -3.643121421337127686e-01
3.497000000000000000e+03 2.017482185363769531e+01 -1.440613746643066406e+01 7.261340022087097168e-01 -2.045387029647827148e-01 1.564785987138748169e-01 -1.637989282608032227e-02
3.498000000000000000e+03 1.125976085662841797e+01 -7.124887943267822266e+00 -1.885405480861663818e-01 1.435133069753646851e-01 -1.350817177444696426e-02 -2.338974028825759888e-01
3.499000000000000000e+03 1.071826076507568359e+01 -8.067403793334960938e+00 -1.152163967490196228e-01 1.672049760818481445e-01 1.559657230973243713e-02 -2.490864247083663940e-01
3.500000000000000000e+03 1.961941146850585938e+01 -1.414855670928955078e+01 7.300751209259033203e-01 -1.918714493513107300e-01 1.614610999822616577e-01 -2.219877950847148895e-02
3.501000000000000000e+03 4.470056915283203125e+01 4.025900363922119141e+00 -2.085960388183593750e+00 3.746958494186401367e+00 4.982994198799133301e-01 2.116449594497680664e+00
3.502000000000000000e+03 4.420350265502929688e+01 6.668912887573242188e+00 3.691568970680236816e-01 5.071356296539306641e+00 1.632153987884521484e+00 2.035022497177124023e+00
3.503000000000000000e+03 2.062676429748535156e+01 -1.514993667602539062e+01 7.457712888717651367e-01 -1.969944089651107788e-01 1.646330654621124268e-01 -1.197197847068309784e-02
3.504000000000000000e+03 2.110271644592285156e+01 -1.383331298828125000e+01 7.017753720283508301e-01 -2.573311924934387207e-01 1.333332508802413940e-01 1.898170448839664459e-02
3.505000000000000000e+03 1.835521125793457031e+01 -1.365427970886230469e+01 7.063883543014526367e-01 -1.307351589202880859e-01 1.726959645748138428e-01 -3.394882008433341980e-02
3.506000000000000000e+03 4.323650360107421875e+01 2.420065879821777344e+00 -3.712049245834350586e+00 7.023669719696044922e+00 9.934861660003662109e-01 1.752627611160278320e+00
3.507000000000000000e+03 4.226145553588867188e+01 2.361318349838256836e+00 -3.565803527832031250e+00 8.496726989746093750e+00 1.479277133941650391e+00 1.227542281150817871e+00
3.508000000000000000e+03 7.563436126708984375e+01 -2.008175468444824219e+01 1.022584692691452801e-04 -2.566351904533803463e-04 -4.631301271729171276e-05 -1.146035065175965428e-04
3.509000000000000000e+03 3.869332122802734375e+01 -7.526600360870361328e+00 1.565608859062194824e+00 8.852058410644531250e+00 3.125300168991088867e+00 1.162033557891845703e+00
3.510000000000000000e+03 7.499589538574218750e+01 -2.104542732238769531e+01 5.597534982371143997e-05 -4.349965893197804689e-04 -1.137063736678101122e-04 -1.201979684992693365e-04
3.511000000000000000e+03 7.474135589599609375e+01 -1.879094123840332031e+01 1.363618066534399986e-04 -2.746232785284519196e-04 -4.147844447288662195e-05 -6.901605229359120131e-05
3.512000000000000000e+03 2.464555931091308594e+01 -1.563311386108398438e+01 6.795587539672851562e-01 -1.849557906389236450e-01 1.483808755874633789e-01 2.356096208095550537e-01
3.513000000000000000e+03 2.201329803466796875e+01 -6.742270469665527344e+00 -2.286829799413681030e-01 -2.226561456918716431e-01 -1.354017406702041626e-01 -2.924808859825134277e-01
3.514000000000000000e+03 7.636909484863281250e+01 -1.936087226867675781e+01 2.458588860463351011e-04 -1.213587966049090028e-04 3.735002974281087518e-05 -2.099455305142328143e-04
3.515000000000000000e+03 2.319770431518554688e+01 -1.534596538543701172e+01 7.170277237892150879e-01 -2.184681594371795654e-01 1.495678573846817017e-01 1.227890029549598694e-01
3.516000000000000000e+03 2.395562553405761719e+01 -1.477902126312255859e+01 7.332690954208374023e-01 -2.607097923755645752e-01 1.417677849531173706e-01 1.822295933961868286e-01
3.517000000000000000e+03 1.433577156066894531e+01 7.404946327209472656e+00 4.168597570242127404e-06 -9.923909601639024913e-06 -1.726593609419069253e-06 7.998994988156482577e-06
3.518000000000000000e+03 1.558968639373779297e+01 4.593233108520507812e+00 8.494267603964544833e-06 6.616546215809648857e-06 4.533244009508052841e-06 5.635027378048107494e-07
3.519000000000000000e+03 3.810038757324218750e+01 -2.015297508239746094e+01 -6.704697757959365845e-02 6.856511592864990234e+00 2.036839485168457031e+00 1.036694288253784180e+00
3.520000000000000000e+03 3.868593978881835938e+01 -1.803123855590820312e+01 1.469276286661624908e-02 7.453801631927490234e+00 2.240548133850097656e+00 5.353839397430419922e-01
3.521000000000000000e+03 1.202288722991943359e+01 -6.415799140930175781e+00 -2.522369027137756348e-01 1.183282509446144104e-01 -4.017259553074836731e-02 -2.095725536346435547e-01
3.522000000000000000e+03 1.128849029541015625e+01 -5.618305206298828125e+00 -3.046586513519287109e-01 1.050749197602272034e-01 -5.987511947751045227e-02 -2.162704318761825562e-01
3.523000000000000000e+03 2.468843269348144531e+01 -1.357479953765869141e+01 8.109680414199829102e-01 -3.813457190990447998e-01 1.288866996765136719e-01 2.186764925718307495e-01
3.524000000000000000e+03 1.408136940002441406e+01 5.400041103363037109e+00 -5.200987743592122570e-06 -6.418515567929716781e-06 -3.485851038931286894e-06 3.083816636717529036e-06
3.525000000000000000e+03 5.303114700317382812e+01 3.292182922363281250e+00 -2.428313016891479492e+00 4.070896804332733154e-01 -6.063669919967651367e-01 -5.587885975837707520e-01
3.526000000000000000e+03 6.874814605712890625e+01 -5.763740539550781250e+00 -1.454793512821197510e-01 1.805978827178478241e-03 -4.310201108455657959e-02 8.493324741721153259e-03
3.527000000000000000e+03 6.814849853515625000e+01 -6.204585552215576172e+00 -1.117933318018913269e-01 -1.419970649294555187e-03 -3.396398946642875671e-02 1.578588783740997314e-02
3.528000000000000000e+03 5.515578079223632812e+01 2.730896711349487305e+00 -2.247411727905273438e+00 2.681475877761840820e-01 -5.937792658805847168e-01 -4.335269629955291748e-01
3.529000000000000000e+03 3.437867355346679688e+01 -1.493956375122070312e+01 8.539904952049255371e-01 2.672496557235717773e+00 1.057946085929870605e+00 2.137671224772930145e-02
3.530000000000000000e+03 8.563372611999511719e+00 -6.024379253387451172e+00 -2.185075283050537109e-01 7.931046932935714722e-02 -4.175911843776702881e-02 -2.809295356273651123e-01
3.531000000000000000e+03 7.569286346435546875e+01 -3.080021286010742188e+01 -4.405575804412364960e-03 -2.246953547000885010e-03 -1.995758851990103722e-03 6.130321417003870010e-03
3.532000000000000000e+03 7.500612640380859375e+01 -3.025481986999511719e+01 -5.427839700132608414e-03 -1.172636519186198711e-03 -1.980142900720238686e-03 5.442366003990173340e-03
3.533000000000000000e+03 1.336880016326904297e+01 5.446390628814697266e+00 6.139666766102891415e-06 4.981233814760344103e-06 3.336270083309500478e-06 -4.465197889658156782e-06
3.534000000000000000e+03 2.662246322631835938e+01 -1.481184768676757812e+01 7.768747806549072266e-01 -2.658576667308807373e-01 1.533051282167434692e-01 4.612987637519836426e-01
3.535000000000000000e+03 2.641667366027832031e+01 -1.411482524871826172e+01 8.489602208137512207e-01 -3.419592678546905518e-01 1.521002948284149170e-01 4.176438748836517334e-01
3.536000000000000000e+03 5.021667957305908203e+00 2.936725044250488281e+01 -3.263582038925960660e-05 9.323902304458897561e-06 -6.993575880187563598e-06 -2.680016914382576942e-04
3.537000000000000000e+03 2.796345329284667969e+01 -1.354607868194580078e+01 1.091875910758972168e+00 -3.817875087261199951e-01 2.130265235900878906e-01 5.331265926361083984e-01
3.538000000000000000e+03 3.867631530761718750e+01 -3.794714212417602539e+00 9.126908332109451294e-02 7.916585445404052734e+00 2.402356386184692383e+00 1.045576214790344238e+00
3.539000000000000000e+03 7.516310882568359375e+01 3.047427749633789062e+01 3.600169718265533447e-02 -1.661409378051757812e+00 -4.876223206520080566e-01 -7.527533173561096191e-02
3.540000000000000000e+03 7.399079895019531250e+01 -3.309962463378906250e+01 -6.969913840293884277e-03 -2.360699465498328209e-03 -2.799184061586856842e-03 1.260937936604022980e-02
3.541000000000000000e+03 4.114662933349609375e+01 -2.270856857299804688e+01 2.125815302133560181e-01 5.409342765808105469e+00 1.686577200889587402e+00 -2.114453017711639404e-01
3.542000000000000000e+03 7.312898254394531250e+01 -7.562705993652343750e+00 -3.705146163702011108e-02 -2.259653806686401367e-02 -1.789440028369426727e-02 -2.505643526092171669e-03
3.543000000000000000e+03 7.466863250732421875e+01 -8.379449844360351562e+00 -1.541519165039062500e-02 -1.464547403156757355e-02 -9.018199518322944641e-03 7.108382880687713623e-03
3.544000000000000000e+03 7.449803924560546875e+01 2.870853614807128906e+01 6.191560626029968262e-02 -1.508757233619689941e+00 -4.340524673461914062e-01 -1.113676801323890686e-01
3.545000000000000000e+03 3.918846893310546875e+01 8.896631598472595215e-01 -2.800217390060424805e+00 8.349716186523437500e+00 1.664849638938903809e+00 2.894657552242279053e-01
3.546000000000000000e+03 4.744334697723388672e+00 6.998186111450195312e+00 -2.753439957814407535e-06 -4.933749551128130406e-06 -2.306156829945393838e-06 5.759050509368535131e-06
3.547000000000000000e+03 4.009670257568359375e+00 6.228567123413085938e+00 -3.640443310359842144e-06 -2.831837491612532176e-06 -1.941684104167507030e-06 4.902548425889108330e-06
3.548000000000000000e+03 4.032344341278076172e+00 5.474861145019531250e+00 2.555157607275759801e-06 1.471193399993353523e-06 1.207905370392836630e-06 -3.653206476883497089e-06
3.549000000000000000e+03 7.559236145019531250e+01 -2.838996696472167969e+01 -3.219419391825795174e-03 -1.049231039360165596e-03 -1.280595082789659500e-03 2.445361111313104630e-03
3.550000000000000000e+03 5.616729736328125000e+00 6.225685119628906250e+00 -5.114403052175475750e-07 -1.172553311334922910e-06 -5.051981020187668037e-07 4.963584615325089544e-06
3.551000000000000000e+03 4.300217819213867188e+01 6.711589336395263672e+00 6.173984408378601074e-01 6.866857528686523438e+00 2.245276927947998047e+00 2.313427925109863281e+00
3.552000000000000000e+03 4.433980560302734375e+01 7.422029972076416016e+00 8.854700922966003418e-01 5.132469177246093750e+00 1.805381774902343750e+00 2.016396999359130859e+00
3.553000000000000000e+03 6.459082126617431641e+00 6.143429756164550781e+00 -8.859217814460862428e-06 6.079759486965485848e-07 -2.475372639310080558e-06 -1.816256485653866548e-06
3.554000000000000000e+03 7.275321483612060547e+00 6.001753807067871094e+00 6.191025022417306900e-06 1.252278707397636026e-06 2.232991164419217966e-06 1.912529796754824929e-06
3.555000000000000000e+03 3.780936431884765625e+01 -4.132428467273712158e-01 -2.416148662567138672e+00 6.112942695617675781e+00 1.109038233757019043e+00 3.194240629673004150e-01
3.556000000000000000e+03 3.818647003173828125e+01 -9.693660140037536621e-01 -2.166289806365966797e+00 6.695160388946533203e+00 1.358661174774169922e+00 3.891365528106689453e-01
3.557000000000000000e+03 7.485357666015625000e+01 3.181925201416015625e+01 3.058364987373352051e-02 -1.596673965454101562e+00 -4.698270857334136963e-01 -5.457242205739021301e-02
3.558000000000000000e+03 6.959751129150390625e+01 -8.601888656616210938e+00 -1.625155471265316010e-02 -1.804180815815925598e-02 -1.028800942003726959e-02 -5.803999491035938263e-03
3.559000000000000000e+03 4.610161590576171875e+01 2.377182579040527344e+01 5.958244800567626953e-01 5.582431316375732422e+00 1.853476762771606445e+00 2.503818273544311523e-01
3.560000000000000000e+03 7.507954406738281250e+01 -7.860845088958740234e+00 -1.925902627408504486e-02 -1.444911304861307144e-02 -1.011244207620620728e-02 5.774817429482936859e-03
3.561000000000000000e+03 7.582704925537109375e+01 -6.684303283691406250e+00 -2.433446981012821198e-02 -1.389737427234649658e-02 -1.146955322474241257e-02 -1.232625800184905529e-03
3.562000000000000000e+03 7.622673034667968750e+01 -2.296680450439453125e+01 -1.934138708747923374e-04 -4.082224040757864714e-04 -1.804908824851736426e-04 -2.892580523621290922e-04
3.563000000000000000e+03 1.341158676147460938e+01 1.332554912567138672e+01 2.837022111634723842e-05 2.177694477722980082e-05 1.504414922237629071e-05 -7.346176062128506601e-06
3.564000000000000000e+03 8.851082801818847656e+00 6.535566806793212891e+00 -8.714393516129348427e-06 -6.604212217098393012e-07 -2.812444563460303470e-06 1.824529647365125129e-07
3.565000000000000000e+03 4.520449066162109375e+01 2.303035354614257812e+01 4.576202630996704102e-01 6.108397960662841797e+00 1.969805479049682617e+00 2.774139642715454102e-01
3.566000000000000000e+03 4.596557998657226562e+01 2.299198722839355469e+01 5.642052292823791504e-01 5.707098484039306641e+00 1.881391167640686035e+00 3.424650430679321289e-01
3.567000000000000000e+03 7.601157379150390625e+01 -2.516728973388671875e+01 -8.479607058688998222e-04 -6.913080578669905663e-04 -4.617806407622992992e-04 7.490015559596940875e-05
3.568000000000000000e+03 7.647610473632812500e+01 -2.515785789489746094e+01 -4.887843970209360123e-04 -3.581510391086339951e-04 -2.540806308388710022e-04 5.820329170092009008e-05
3.569000000000000000e+03 4.624321365356445312e+01 2.459372711181640625e+01 6.442162394523620605e-01 5.429547309875488281e+00 1.822129130363464355e+00 1.732889115810394287e-01
3.570000000000000000e+03 3.324060058593750000e+01 -1.416079711914062500e+01 1.312463283538818359e+00 1.491400957107543945e+00 8.411592841148376465e-01 2.292613089084625244e-01
3.571000000000000000e+03 7.612652587890625000e+01 -2.836289978027343750e+01 -2.182668773457407951e-03 -1.100162044167518616e-03 -9.848492918536067009e-04 2.307020826265215874e-03
3.572000000000000000e+03 7.540719604492187500e+01 -2.933975982666015625e+01 -4.060437437146902084e-03 -1.224379288032650948e-03 -1.585445133969187737e-03 3.719251137226819992e-03
3.573000000000000000e+03 4.269711303710937500e+01 -2.443536567687988281e+01 3.304695188999176025e-01 3.985630035400390625e+00 1.294829845428466797e+00 -7.373225688934326172e-01
3.574000000000000000e+03 7.617107391357421875e+01 -2.217450332641601562e+01 1.770922535797581077e-04 -2.495301887392997742e-04 -2.173138454963918775e-05 -2.114018716383725405e-04
3.575000000000000000e+03 7.505680847167968750e+01 -2.321548843383789062e+01 -3.435310500208288431e-04 -6.449663196690380573e-04 -2.965492021758109331e-04 -1.619724207557737827e-04
3.576000000000000000e+03 7.621330261230468750e+01 -2.045254898071289062e+01 2.367695706197991967e-04 -1.849312102422118187e-04 1.555150811327621341e-05 -2.718885079957544804e-04
3.577000000000000000e+03 6.338996410369873047e+00 -1.569904804229736328e+01 4.347419142723083496e-01 2.168237566947937012e-01 1.954697072505950928e-01 -3.791942819952964783e-02
3.578000000000000000e+03 7.601406097412109375e+01 -2.684840393066406250e+01 -1.468935748562216759e-03 -6.582424393855035305e-04 -6.381534622050821781e-04 1.076950808055698872e-03
3.579000000000000000e+03 7.502713775634765625e+01 -2.860914230346679688e+01 -4.016640130430459976e-03 -5.108457989990711212e-04 -1.358245732262730598e-03 3.088246099650859833e-03
3.580000000000000000e+03 7.629591369628906250e+01 -2.571497726440429688e+01 -1.036989502608776093e-03 -5.037834052927792072e-04 -4.622318956535309553e-04 4.346398927737027407e-04
3.581000000000000000e+03 7.528778076171875000e+01 -2.696236419677734375e+01 -2.414326416328549385e-03 -7.741822628304362297e-04 -9.565525688230991364e-04 1.049079815857112408e-03
3.582000000000000000e+03 7.578723144531250000e+01 -2.605127525329589844e+01 -1.426302595064043999e-03 -6.876031984575092793e-04 -6.341717089526355267e-04 4.108441644348204136e-04
3.583000000000000000e+03 7.560429382324218750e+01 -2.136237525939941406e+01 1.996080973185598850e-04 -3.086614597123116255e-04 -3.271600871812552214e-05 -2.468721941113471985e-04
3.584000000000000000e+03 7.429859161376953125e+01 -3.421392059326171875e+01 -3.674390958622097969e-03 -4.808631725609302521e-03 -2.544906688854098320e-03 1.499149389564990997e-02
3.585000000000000000e+03 7.497337341308593750e+01 -3.167262458801269531e+01 -5.675103981047868729e-03 -1.812079106457531452e-03 -2.246154937893152237e-03 8.771534077823162079e-03
3.586000000000000000e+03 3.759645843505859375e+01 -1.467084789276123047e+01 7.340710163116455078e-01 6.840863227844238281e+00 2.272480249404907227e+00 -1.389857009053230286e-02
3.587000000000000000e+03 7.551483917236328125e+01 -2.532683372497558594e+01 -9.635958122089505196e-04 -5.466738948598504066e-04 -4.530809237621724606e-04 3.360368427820503712e-04
3.588000000000000000e+03 7.415393066406250000e+01 3.266658401489257812e+01 3.907334804534912109e-02 -1.455741643905639648e+00 -4.250004887580871582e-01 -4.763644561171531677e-02
3.589000000000000000e+03 7.575844573974609375e+01 2.333147621154785156e+01 6.436145305633544922e-02 -1.600608825683593750e+00 -4.608742296695709229e-01 -2.142187058925628662e-01
3.590000000000000000e+03 7.506506347656250000e+01 2.092939567565917969e+01 7.504703849554061890e-02 -1.393183708190917969e+00 -3.954410254955291748e-01 -3.073763549327850342e-01
3.591000000000000000e+03 7.471625518798828125e+01 -3.106177520751953125e+01 -5.708846729248762131e-03 -1.672070589847862720e-03 -2.214275300502777100e-03 7.377066649496555328e-03
3.592000000000000000e+03 7.518045043945312500e+01 1.527228260040283203e+01 5.103291571140289307e-02 -1.089684486389160156e+00 -3.115954697132110596e-01 -4.406200349330902100e-01
3.593000000000000000e+03 7.591631317138671875e+01 1.685733032226562500e+01 4.697840288281440735e-02 -1.286213994026184082e+00 -3.717706799507141113e-01 -3.594177663326263428e-01
3.594000000000000000e+03 4.549754714965820312e+01 -2.758150291442871094e+01 2.731149494647979736e-01 2.259859085083007812e+00 7.598921656608581543e-01 -9.082993865013122559e-01
3.595000000000000000e+03 7.521693420410156250e+01 -2.391710662841796875e+01 -3.535390715114772320e-04 -5.756235332228243351e-04 -2.787487755995243788e-04 -3.372349601704627275e-05
3.596000000000000000e+03 7.177863311767578125e+01 -2.554757118225097656e+01 -2.405786421149969101e-03 -4.768758080899715424e-04 -8.647986687719821930e-04 -1.665310846874490380e-04
3.597000000000000000e+03 7.520099639892578125e+01 1.445861244201660156e+01 4.349421709775924683e-02 -1.036553740501403809e+00 -2.979178726673126221e-01 -4.531778097152709961e-01
3.598000000000000000e+03 7.455058288574218750e+01 2.332676506042480469e+01 1.002331301569938660e-01 -1.396412014961242676e+00 -3.888536393642425537e-01 -2.571347057819366455e-01
3.599000000000000000e+03 4.582617187500000000e+01 2.148553848266601562e+01 5.787354707717895508e-01 5.883931159973144531e+00 1.938799977302551270e+00 5.512084960937500000e-01
3.600000000000000000e+03 4.586955261230468750e+01 2.072112464904785156e+01 6.242969632148742676e-01 5.906931400299072266e+00 1.959368467330932617e+00 6.752944588661193848e-01
3.601000000000000000e+03 7.473918914794921875e+01 -3.279454803466796875e+01 -5.562544800341129303e-03 -2.720337361097335815e-03 -2.484864555299282074e-03 1.167550124228000641e-02
3.602000000000000000e+03 7.544028472900390625e+01 9.928576350212097168e-01 -1.005359515547752380e-01 -1.586676687002182007e-01 -7.776108384132385254e-02 -2.222305536270141602e-01
3.603000000000000000e+03 7.535932159423828125e+01 -5.831540584564208984e+00 -4.124122112989425659e-02 -2.153208293020725250e-02 -1.883199065923690796e-02 -1.491767261177301407e-02
3.604000000000000000e+03 4.514238357543945312e+01 2.224144363403320312e+01 4.489718377590179443e-01 6.195368766784667969e+00 1.993302226066589355e+00 3.917830586433410645e-01
3.605000000000000000e+03 7.537205505371093750e+01 8.082740783691406250e+00 -4.034654796123504639e-02 -5.784971117973327637e-01 -1.856530904769897461e-01 -4.453845322132110596e-01
3.606000000000000000e+03 7.602922821044921875e+01 1.123492908477783203e+01 2.361554885283112526e-03 -8.676808476448059082e-01 -2.595957815647125244e-01 -4.167785048484802246e-01
3.607000000000000000e+03 7.464743041992187500e+01 8.845318794250488281e+00 -3.815441578626632690e-02 -5.928524732589721680e-01 -1.893020719289779663e-01 -5.086170434951782227e-01
3.608000000000000000e+03 7.522110748291015625e+01 1.363993835449218750e+01 3.404242545366287231e-02 -9.806304574012756348e-01 -2.839764058589935303e-01 -4.638630449771881104e-01
3.609000000000000000e+03 7.543785858154296875e+01 1.893677264451980591e-01 -9.895211458206176758e-02 -1.284406930208206177e-01 -6.821784377098083496e-02 -1.895826607942581177e-01
3.610000000000000000e+03 7.538034057617187500e+01 7.297790050506591797e+00 -5.150862038135528564e-02 -5.219861268997192383e-01 -1.720484197139739990e-01 -4.308541119098663330e-01
3.611000000000000000e+03 7.551165008544921875e+01 2.661266899108886719e+01 5.323158949613571167e-02 -1.665118336677551270e+00 -4.835660457611083984e-01 -1.433154344558715820e-01
3.612000000000000000e+03 7.492198181152343750e+01 2.252810478210449219e+01 8.266758173704147339e-02 -1.432678580284118652e+00 -4.050033092498779297e-01 -2.705820500850677490e-01
3.613000000000000000e+03 2.605877876281738281e+01 -5.643402099609375000e+00 -4.467589557170867920e-01 -5.136219263076782227e-01 -2.881142497062683105e-01 -7.225925326347351074e-01
3.614000000000000000e+03 7.588204956054687500e+01 1.846790885925292969e+01 5.252723768353462219e-02 -1.385228037834167480e+00 -3.998102545738220215e-01 -3.264681994915008545e-01
3.615000000000000000e+03 7.515529632568359375e+01 1.607962226867675781e+01 5.856668204069137573e-02 -1.139849543571472168e+00 -3.243848383426666260e-01 -4.262138009071350098e-01
3.616000000000000000e+03 7.612641906738281250e+01 -3.038672924041748047e+00 -5.457409098744392395e-02 -4.758026078343391418e-02 -3.064630553126335144e-02 -6.571637839078903198e-02
3.617000000000000000e+03 7.586688995361328125e+01 1.927237701416015625e+01 5.409064888954162598e-02 -1.430750608444213867e+00 -4.129979610443115234e-01 -3.079028427600860596e-01
3.618000000000000000e+03 3.223613500595092773e+00 7.019904136657714844e+00 -5.619618150376481935e-06 -3.506284429022343829e-06 -2.737770728344912641e-06 5.457959105115151033e-06
3.619000000000000000e+03 7.529388427734375000e+01 1.122356796264648438e+01 2.907096641138195992e-03 -8.088709115982055664e-01 -2.417891472578048706e-01 -4.742432534694671631e-01
3.620000000000000000e+03 7.612612915039062500e+01 -2.261396408081054688e+00 -6.077994778752326965e-02 -6.208767741918563843e-02 -3.686028718948364258e-02 -8.659625053405761719e-02
3.621000000000000000e+03 7.416278076171875000e+01 -5.188899517059326172e+00 -7.306969910860061646e-02 -2.855773083865642548e-02 -3.048822842538356781e-02 -3.270528838038444519e-02
3.622000000000000000e+03 7.610453796386718750e+01 5.698817253112792969e+00 -5.242416635155677795e-02 -4.361238479614257812e-01 -1.465644091367721558e-01 -3.426997065544128418e-01
3.623000000000000000e+03 7.541732788085937500e+01 -5.172751426696777344e+00 -4.766246676445007324e-02 -2.641130238771438599e-02 -2.222212962806224823e-02 -2.588089182972908020e-02
3.624000000000000000e+03 7.611251068115234375e+01 4.910421848297119141e+00 -5.897980928421020508e-02 -3.821104764938354492e-01 -1.323270946741104126e-01 -3.218754231929779053e-01
3.625000000000000000e+03 7.474121856689453125e+01 2.620639801025390625e+00 -1.237050369381904602e-01 -2.171261459589004517e-01 -1.022493541240692139e-01 -3.195256590843200684e-01
3.626000000000000000e+03 7.612882232666015625e+01 -1.473033666610717773e+00 -6.593599170446395874e-02 -8.092939853668212891e-02 -4.405961558222770691e-02 -1.103080883622169495e-01
3.627000000000000000e+03 7.543717956542968750e+01 1.788914322853088379e+00 -9.921049326658248901e-02 -1.927314549684524536e-01 -8.758258819580078125e-02 -2.534715235233306885e-01
3.628000000000000000e+03 4.508873367309570312e+01 1.778426361083984375e+01 8.324456810951232910e-01 6.418311595916748047e+00 2.175227165222167969e+00 1.132272005081176758e+00
3.629000000000000000e+03 4.610178375244140625e+01 1.845273971557617188e+01 8.873479962348937988e-01 5.742436408996582031e+00 1.988935351371765137e+00 1.014698028564453125e+00
3.630000000000000000e+03 7.538878631591796875e+01 6.514567375183105469e+00 -6.114200502634048462e-02 -4.673219919204711914e-01 -1.585391908884048462e-01 -4.125165641307830811e-01
3.631000000000000000e+03 7.540024566650390625e+01 5.734191417694091797e+00 -7.053172588348388672e-02 -4.153734743595123291e-01 -1.457715630531311035e-01 -3.921842575073242188e-01
3.632000000000000000e+03 7.542758178710937500e+01 -6.145131587982177734e-01 -9.559309482574462891e-02 -1.031724810600280762e-01 -5.962967127561569214e-02 -1.592115610837936401e-01
3.633000000000000000e+03 7.541387939453125000e+01 -1.412806630134582520e+00 -9.027387201786041260e-02 -8.154711872339248657e-02 -5.154629796743392944e-02 -1.296565383672714233e-01
3.634000000000000000e+03 4.458794021606445312e+01 1.078479957580566406e+01 1.552538037300109863e+00 6.025636196136474609e+00 2.273452281951904297e+00 2.132560968399047852e+00
3.635000000000000000e+03 4.492071533203125000e+01 1.158452510833740234e+01 1.539435982704162598e+00 5.847678184509277344e+00 2.216134309768676758e+00 1.960640549659729004e+00
3.636000000000000000e+03 7.435060882568359375e+01 1.608063888549804688e+01 7.632197439670562744e-02 -1.044755697250366211e+00 -2.905301153659820557e-01 -4.752270281314849854e-01
3.637000000000000000e+03 7.524337005615234375e+01 1.282280731201171875e+01 2.433533407747745514e-02 -9.234244227409362793e-01 -2.697267234325408936e-01 -4.703940153121948242e-01
3.638000000000000000e+03 2.970776557922363281e+01 -1.422895050048828125e+01 1.090397715568542480e+00 -2.213298976421356201e-01 2.607203423976898193e-01 6.996884346008300781e-01
3.639000000000000000e+03 2.927979087829589844e+01 -1.357224464416503906e+01 1.237910985946655273e+00 -2.931962907314300537e-01 2.834144234657287598e-01 6.006912589073181152e-01
3.640000000000000000e+03 7.506954193115234375e+01 2.013731002807617188e+01 7.587451487779617310e-02 -1.356121897697448730e+00 -3.840742409229278564e-01 -3.274179399013519287e-01
3.641000000000000000e+03 7.507500457763671875e+01 1.933214950561523438e+01 7.478959113359451294e-02 -1.316461920738220215e+00 -3.725017011165618896e-01 -3.504320979118347168e-01
3.642000000000000000e+03 4.817932605743408203e+00 2.211620140075683594e+01 6.263432442210614681e-05 2.646006805662182160e-06 1.958409848157316446e-05 -3.032170297956326976e-06
3.643000000000000000e+03 5.481455802917480469e+00 -3.182276916503906250e+01 -1.353071928024291992e-01 -1.941906213760375977e-01 -9.884934872388839722e-02 8.871198445558547974e-02
3.644000000000000000e+03 4.758089065551757812e+00 -6.905146121978759766e+00 -9.060442447662353516e-02 -1.030791103839874268e-01 -5.810506269335746765e-02 -3.108949065208435059e-01
3.645000000000000000e+03 3.668925762176513672e+00 -7.936536312103271484e+00 -4.621633887290954590e-02 -2.240483462810516357e-01 -8.107940107583999634e-02 -3.021241426467895508e-01
3.646000000000000000e+03 7.460668945312500000e+01 2.440007209777832031e+01 9.777381271123886108e-02 -1.437689185142517090e+00 -4.019745886325836182e-01 -2.226318567991256714e-01
3.647000000000000000e+03 4.359796905517578125e+01 -2.411693382263183594e+01 3.808810412883758545e-01 3.468016386032104492e+00 1.154669165611267090e+00 -9.605749249458312988e-01
3.648000000000000000e+03 4.415460586547851562e+01 -2.625718498229980469e+01 3.340836763381958008e-01 2.936987876892089844e+00 9.813215136528015137e-01 -9.237818717956542969e-01
3.649000000000000000e+03 4.188356399536132812e+00 2.779756355285644531e+01 1.149759627878665924e-04 6.111438415246084332e-05 5.282710117171518505e-05 -4.969711426383582875e-06
3.650000000000000000e+03 4.944536685943603516e+00 2.858518218994140625e+01 1.897225010907277465e-04 2.491223131073638797e-05 6.439042044803500175e-05 -1.621486808289773762e-05
3.651000000000000000e+03 7.464041900634765625e+01 2.666497039794921875e+01 7.191939651966094971e-02 -1.500354528427124023e+00 -4.285305440425872803e-01 -1.525062471628189087e-01
3.652000000000000000e+03 4.043974399566650391e+00 2.134133720397949219e+01 5.206928835832513869e-05 2.760336656137951650e-06 1.644888834562152624e-05 5.434089416667120531e-06
3.653000000000000000e+03 7.368986511230468750e+01 -2.012420654296875000e+01 1.618693786440417171e-04 -3.568913380149751902e-04 -5.850658635608851910e-05 3.770828334381803870e-05
3.654000000000000000e+03 3.508039474487304688e+00 -8.520923614501953125e+00 -3.707777708768844604e-02 -2.613018751144409180e-01 -8.951389789581298828e-02 -3.055274486541748047e-01
3.655000000000000000e+03 4.249122142791748047e+00 -8.206147193908691406e+00 -5.538219958543777466e-02 -1.733770370483398438e-01 -6.862777471542358398e-02 -3.288011848926544189e-01
3.656000000000000000e+03 7.447576141357421875e+01 2.766937065124511719e+01 6.368788331747055054e-02 -1.483963131904602051e+00 -4.260825514793395996e-01 -1.386306434869766235e-01
3.657000000000000000e+03 7.284120178222656250e+01 -2.099677848815917969e+01 1.310086372541263700e-04 -5.081711569800972939e-04 -1.131487515522167087e-04 5.822984894621185958e-05
3.658000000000000000e+03 4.590661525726318359e+00 1.498735523223876953e+01 -6.745676273567369208e-06 -1.073478324542520568e-05 -5.244137810223037377e-06 1.530234658275730908e-05
3.659000000000000000e+03 4.629978656768798828e+00 1.803942680358886719e+01 -1.441996573703363538e-05 1.791718432286870666e-06 -3.788474259636132047e-06 1.554839036543853581e-05
3.660000000000000000e+03 8.837450027465820312e+00 -8.183771133422851562e+00 -1.079677641391754150e-01 1.362533867359161377e-01 8.485686965286731720e-03 -3.056171834468841553e-01
3.661000000000000000e+03 4.038004398345947266e+00 -1.331301593780517578e+01 9.051675349473953247e-02 -3.244813084602355957e-01 -7.018937170505523682e-02 -2.800000011920928955e-01
3.662000000000000000e+03 6.038028240203857422e+00 2.745019912719726562e+01 1.156450671260245144e-04 -1.856862363638356328e-04 -2.101235077134333551e-05 -3.904029290424659848e-05
3.663000000000000000e+03 4.119956970214843750e+00 2.618089866638183594e+01 1.211969283758662641e-04 7.308704425668111071e-06 3.855169052258133888e-05 6.382017545547569171e-06
3.664000000000000000e+03 3.776320457458496094e+00 -1.482245635986328125e+01 1.457161307334899902e-01 -3.907518386840820312e-01 -7.351071387529373169e-02 -1.945644468069076538e-01
3.665000000000000000e+03 5.567968845367431641e+00 -1.298157882690429688e+01 1.435072273015975952e-01 -3.623174130916595459e-02 3.218264505267143250e-02 -2.858540117740631104e-01
3.666000000000000000e+03 4.515159130096435547e+00 -7.578839778900146484e+00 -7.097932696342468262e-02 -1.384130865335464478e-01 -6.281772255897521973e-02 -3.208959400653839111e-01
3.667000000000000000e+03 4.206207752227783203e+00 -1.014624977111816406e+01 -1.057670544832944870e-02 -2.378221154212951660e-01 -7.451964914798736572e-02 -3.427616357803344727e-01
3.668000000000000000e+03 3.749828815460205078e+00 -1.690365600585937500e+01 2.183718979358673096e-01 -3.705407679080963135e-01 -4.565066471695899963e-02 -1.962183788418769836e-02
3.669000000000000000e+03 4.806336879730224609e+00 2.127438926696777344e+01 -2.164610486943274736e-05 3.453864394487027312e-07 -6.390215276041999459e-06 -1.495029300713213161e-05
3.670000000000000000e+03 4.018755435943603516e+00 2.052594184875488281e+01 -3.050974373763892800e-05 8.923768291424494237e-06 -6.475792361015919596e-06 -9.943410077539738268e-06
3.671000000000000000e+03 3.129977464675903320e+00 -1.548598384857177734e+01 1.231586933135986328e-01 -5.731885433197021484e-01 -1.350089609622955322e-01 -1.474615335464477539e-01
3.672000000000000000e+03 4.713304519653320312e+00 1.962529945373535156e+01 -2.157173366867937148e-05 1.827403866627719253e-05 -9.893080914480378851e-07 4.381151029519969597e-06
3.673000000000000000e+03 4.610126018524169922e+00 1.420252132415771484e+01 4.432482455740682781e-06 1.387683369102887809e-05 5.492795025929808617e-06 -7.364289558609016240e-06
3.674000000000000000e+03 3.935015201568603516e+00 1.179245471954345703e+01 7.653442480659577996e-06 6.335119905997999012e-06 4.196568625047802925e-06 -5.033606612414587289e-06
3.675000000000000000e+03 4.241952896118164062e+00 -1.566208171844482422e+01 2.124434709548950195e-01 -2.759598195552825928e-01 -1.905490271747112274e-02 -1.296877264976501465e-01
3.676000000000000000e+03 5.894986629486083984e+00 -1.470171546936035156e+01 2.993381619453430176e-01 7.099715620279312134e-02 1.111005991697311401e-01 -1.693473160266876221e-01
3.677000000000000000e+03 5.209177970886230469e+00 -1.685050010681152344e+01 3.770749568939208984e-01 1.022290997207164764e-02 1.161893531680107117e-01 3.246074914932250977e-02
3.678000000000000000e+03 5.912012100219726562e+00 -1.102350330352783203e+01 4.638008773326873779e-02 -9.522982873022556305e-03 1.105713192373514175e-02 -3.470280766487121582e-01
3.679000000000000000e+03 4.589800834655761719e+00 1.652245140075683594e+01 -9.148052413365803659e-06 -3.709068096213741228e-06 -3.857136107399128377e-06 1.702278677839785814e-05
3.680000000000000000e+03 4.608005046844482422e+00 1.727694129943847656e+01 1.360783062409609556e-05 7.800209459674078971e-06 6.422412297979462892e-06 -1.237491233041509986e-05
3.681000000000000000e+03 4.581998348236083984e+00 1.576037025451660156e+01 7.248770998558029532e-06 1.121306922868825495e-05 5.538552159123355523e-06 -1.191317551274551079e-05
3.682000000000000000e+03 5.278822422027587891e+00 1.501795387268066406e+01 -2.344646190977073275e-06 2.123722515534609556e-05 5.667773621098604053e-06 -8.591836376581341028e-06
3.683000000000000000e+03 4.634295940399169922e+00 1.340239810943603516e+01 -6.925685283931670710e-06 -9.639376912673469633e-06 -4.969518613506807014e-06 1.028379301715176553e-05
3.684000000000000000e+03 4.836686134338378906e+00 2.295512771606445312e+01 -2.984366437885910273e-05 1.151263404608471319e-05 -5.499309281731257215e-06 -3.489327718853019178e-05
3.685000000000000000e+03 4.815386772155761719e+00 2.455721282958984375e+01 -3.709169686771929264e-05 5.387955297919688746e-06 -9.511122698313556612e-06 -5.567503103520721197e-05
3.686000000000000000e+03 4.616743087768554688e+00 9.367523193359375000e+00 2.649625912454212084e-06 4.699150849774014205e-06 2.204632892244262621e-06 -6.900524113007122651e-06
3.687000000000000000e+03 4.652594089508056641e+00 1.098981475830078125e+01 3.604242692745174281e-06 4.573434580379398540e-06 2.453303295624209568e-06 -5.619394869427196681e-06
3.688000000000000000e+03 4.629901409149169922e+00 1.017605686187744141e+01 -5.079610218672314659e-06 -3.079418547713430598e-06 -2.447708538966253400e-06 8.943747161538340151e-06
3.689000000000000000e+03 4.877093315124511719e+00 2.611902999877929688e+01 -4.537684435490518808e-05 3.455198020674288273e-05 -3.247458607802400365e-06 -1.162565531558357179e-04
3.690000000000000000e+03 7.432930755615234375e+01 -2.065421867370605469e+01 2.801345544867217541e-04 -4.267276381142437458e-04 -4.397791781229898334e-05 -9.724980918690562248e-05
3.691000000000000000e+03 7.263018035888671875e+01 -2.023993492126464844e+01 7.639139221282675862e-05 -2.914743090514093637e-04 -6.452487286878749728e-05 1.758758880896493793e-04
3.692000000000000000e+03 4.796153068542480469e+00 6.215662956237792969e+00 1.657317625358700752e-06 2.654069476193399169e-06 1.293416175940365065e-06 -3.520843847582000308e-06
3.693000000000000000e+03 1.356732368469238281e+01 -6.519136428833007812e+00 -2.497373372316360474e-01 8.914823085069656372e-02 -4.817672818899154663e-02 -1.720002591609954834e-01
3.694000000000000000e+03 4.833867549896240234e+00 2.376761436462402344e+01 9.158612374449148774e-05 1.443907240172848105e-05 3.180755811627022922e-05 -7.155379648793314118e-07
3.695000000000000000e+03 1.000086975097656250e+01 2.732305526733398438e+01 8.723061182536184788e-05 4.903384251520037651e-05 4.087933484697714448e-05 -1.112856916734017432e-04
3.696000000000000000e+03 3.814163589477539062e+01 -8.351627349853515625e+00 1.654350638389587402e+00 7.915920734405517578e+00 2.871081352233886719e+00 1.018563151359558105e+00
3.697000000000000000e+03 4.201868057250976562e+01 -2.402707862854003906e+01 3.258386552333831787e-01 4.425316810607910156e+00 1.425346612930297852e+00 -5.598394274711608887e-01
3.698000000000000000e+03 1.438666534423828125e+01 9.787645339965820312e+00 -1.150064417743124068e-05 4.941709903505397961e-06 -1.967680191228282638e-06 2.489280632289592177e-06
3.699000000000000000e+03 5.730768680572509766e+00 3.454245758056640625e+01 -2.252992453577462584e-05 -9.747851436259225011e-05 -3.600252966862171888e-05 -4.127291322220116854e-04
3.700000000000000000e+03 2.747301101684570312e+01 -1.376670646667480469e+01 9.769960641860961914e-01 -3.687739670276641846e-01 1.824666261672973633e-01 4.936341643333435059e-01
3.701000000000000000e+03 2.778324699401855469e+01 -1.445372200012207031e+01 9.051066637039184570e-01 -3.072850108146667480e-01 1.793464869260787964e-01 5.902140736579895020e-01
3.702000000000000000e+03 4.332800674438476562e+01 -2.538908195495605469e+01 3.465939760208129883e-01 3.451746940612792969e+00 1.139502286911010742e+00 -8.700112104415893555e-01
3.703000000000000000e+03 4.635501098632812500e+01 2.545961952209472656e+01 6.926356554031372070e-01 5.293324947357177734e+00 1.795788168907165527e+00 1.125819608569145203e-01
3.704000000000000000e+03 4.477198123931884766e+00 3.240883255004882812e+01 8.117684956232551485e-06 2.273545105708763003e-04 7.064166129566729069e-05 -1.234501105500385165e-04
3.705000000000000000e+03 4.564849472045898438e+01 -2.903836250305175781e+01 1.618718355894088745e-01 2.245820760726928711e+00 7.223078012466430664e-01 -8.501747250556945801e-01
3.706000000000000000e+03 5.118721961975097656e+00 3.015772819519042969e+01 1.509782014181837440e-04 8.281617192551493645e-05 7.013831782387569547e-05 1.644267058509285562e-06
3.707000000000000000e+03 5.193218708038330078e+00 3.096160888671875000e+01 4.601783075486309826e-05 -9.191969002131372690e-05 -1.377055832563200966e-05 -3.340236144140362740e-04
3.708000000000000000e+03 4.544231414794921875e+01 3.764616966247558594e+00 -2.273432016372680664e+00 2.169751405715942383e+00 -3.110422194004058838e-02 1.805405378341674805e+00
3.709000000000000000e+03 4.709549713134765625e+01 3.947973489761352539e+00 -2.008593559265136719e+00 4.194349050521850586e-01 -4.767475724220275879e-01 6.270141005516052246e-01
3.710000000000000000e+03 4.515979003906250000e+01 1.249217319488525391e+01 1.499974250793457031e+00 5.837280750274658203e+00 2.201176404953002930e+00 1.816176652908325195e+00
3.711000000000000000e+03 6.239241600036621094e+00 -3.537252426147460938e+01 -4.383169114589691162e-02 -1.671812832355499268e-01 -6.330388784408569336e-02 2.014367468655109406e-02
3.712000000000000000e+03 9.625104904174804688e+00 5.788266181945800781e+00 -8.022541805985383689e-06 -8.610092550043191295e-07 -2.665065494511509314e-06 -9.500771369630456320e-08
3.713000000000000000e+03 5.211468219757080078e+00 3.175419616699218750e+01 4.235195228829979897e-05 2.521494170650839806e-04 8.835041080601513386e-05 -6.776311784051358700e-05
3.714000000000000000e+03 4.726846694946289062e+00 3.297828292846679688e+01 2.887627852032892406e-05 1.441993081243708730e-04 5.192267417442053556e-05 -2.575539110694080591e-04
3.715000000000000000e+03 1.400055694580078125e+01 7.892912387847900391e+00 -7.818959602445829660e-06 -1.534349758003372699e-05 -6.948737336642807350e-06 -2.255816752949613146e-06
3.716000000000000000e+03 5.978981494903564453e+00 -3.414026260375976562e+01 -6.957440823316574097e-02 -1.772042065858840942e-01 -7.403358072042465210e-02 3.408767282962799072e-02
3.717000000000000000e+03 4.366436767578125000e+01 9.339728355407714844e+00 1.513291478157043457e+00 6.676963806152343750e+00 2.457076549530029297e+00 2.427540063858032227e+00
3.718000000000000000e+03 4.515362548828125000e+01 1.043468761444091797e+01 1.580845236778259277e+00 5.268484115600585938e+00 2.054798841476440430e+00 1.942821860313415527e+00
3.719000000000000000e+03 3.853714370727539062e+01 1.561533361673355103e-01 -2.626955270767211914e+00 7.448226451873779297e+00 1.446381330490112305e+00 2.458949387073516846e-01
3.720000000000000000e+03 3.597588348388671875e+01 -3.101472616195678711e+00 -8.196780681610107422e-01 3.475072145462036133e+00 7.966182231903076172e-01 4.128483235836029053e-01
3.721000000000000000e+03 3.892538452148437500e+01 -3.282852649688720703e+00 -1.670031100511550903e-01 8.159207344055175781e+00 2.397661209106445312e+00 9.692081212997436523e-01
3.722000000000000000e+03 1.447584533691406250e+01 8.230932235717773438e+00 3.327107833683839999e-06 -4.241474016453139484e-06 -2.743098832524992758e-07 2.315746030490117846e-07
3.723000000000000000e+03 5.507431030273437500e+00 -5.762425422668457031e+00 -1.366161406040191650e-01 -4.242311045527458191e-02 -5.371177569031715393e-02 -2.883985042572021484e-01
3.724000000000000000e+03 5.201636123657226562e+01 3.617267370223999023e+00 -2.468036413192749023e+00 3.978024125099182129e-01 -6.210702061653137207e-01 -6.154397130012512207e-01
3.725000000000000000e+03 5.601485252380371094e+00 -6.658524990081787109e+00 -1.178151518106460571e-01 -4.615320265293121338e-02 -4.919050633907318115e-02 -3.165759742259979248e-01
3.726000000000000000e+03 1.261897659301757812e+01 2.016471099853515625e+01 -4.201471165288239717e-05 -2.694110662559978664e-05 -2.068674439215101302e-05 1.673451697570271790e-05
3.727000000000000000e+03 7.759927749633789062e+00 -5.519959926605224609e+00 -2.158332020044326782e-01 4.984422773122787476e-02 -4.979669302701950073e-02 -2.762033343315124512e-01
3.728000000000000000e+03 5.788650131225585938e+01 2.078183174133300781e+00 -1.851163983345031738e+00 1.138122901320457458e-01 -5.212055444717407227e-01 -5.013785362243652344e-01
3.729000000000000000e+03 4.493221664428710938e+01 1.690768241882324219e+01 9.432322382926940918e-01 6.523030281066894531e+00 2.239878892898559570e+00 1.280325889587402344e+00
3.730000000000000000e+03 4.684738540649414062e+01 1.804703903198242188e+01 1.043545484542846680e+00 5.217815876007080078e+00 1.878408432006835938e+00 1.036613106727600098e+00
3.731000000000000000e+03 7.309442901611328125e+01 -6.835161209106445312e+00 -5.312894657254219055e-02 -2.431277185678482056e-02 -2.323251590132713318e-02 -9.392453357577323914e-03
3.732000000000000000e+03 6.962290191650390625e+01 -7.481420040130615234e+00 -5.200603231787681580e-02 -1.871729455888271332e-02 -2.121699787676334381e-02 4.874633450526744127e-04
3.733000000000000000e+03 3.507794570922851562e+01 -3.589336395263671875e+00 -5.124540925025939941e-01 2.160510778427124023e+00 4.944170117378234863e-01 2.266511172056198120e-01
3.734000000000000000e+03 4.293029022216796875e+01 3.660964250564575195e+00 -2.598192214965820312e+00 7.092128276824951172e+00 1.348180770874023438e+00 1.864280462265014648e+00
3.735000000000000000e+03 1.188523197174072266e+01 2.215560150146484375e+01 -2.584593516985478345e-07 1.114011902245692909e-04 3.334281791467219591e-05 5.179510844754986465e-05
3.736000000000000000e+03 4.106107330322265625e+01 -2.157835769653320312e+01 9.197831153869628906e-02 5.977183341979980469e+00 1.820748448371887207e+00 -1.409950554370880127e-01
3.737000000000000000e+03 1.686687850952148438e+01 -6.852506637573242188e+00 -2.153878957033157349e-01 -2.847190387547016144e-02 -7.315793633460998535e-02 -1.321728527545928955e-01
3.738000000000000000e+03 1.684008026123046875e+01 -6.126600742340087891e+00 -3.132716119289398193e-01 -2.979628555476665497e-02 -1.029203683137893677e-01 -1.328470706939697266e-01
3.739000000000000000e+03 2.695599746704101562e+01 -1.395827960968017578e+01 9.415894746780395508e-01 -3.654741942882537842e-01 1.728345900774002075e-01 4.660460054874420166e-01
3.740000000000000000e+03 4.870978164672851562e+01 4.193533897399902344e+00 -1.948661565780639648e+00 1.214305162429809570e-01 -5.481693148612976074e-01 -2.427907884120941162e-01
3.741000000000000000e+03 4.858015060424804688e+01 3.482753276824951172e+00 -2.841377019882202148e+00 -1.429475545883178711e-01 -8.952974081039428711e-01 -2.786204516887664795e-01
3.742000000000000000e+03 4.541267776489257812e+01 1.511071205139160156e+01 1.250176906585693359e+00 6.024936199188232422e+00 2.182533979415893555e+00 1.509881496429443359e+00
3.743000000000000000e+03 7.373609066009521484e+00 -6.392902851104736328e+00 -1.751162111759185791e-01 4.601480439305305481e-02 -3.873042017221450806e-02 -3.053188323974609375e-01
3.744000000000000000e+03 7.236946868896484375e+01 -7.610583782196044922e+00 -4.089551046490669250e-02 -2.360008098185062408e-02 -1.934867724776268005e-02 -2.959368051961064339e-03
3.745000000000000000e+03 1.628537368774414062e+01 4.447075843811035156e+00 -9.691171726444736123e-06 -6.263755949476035312e-06 -4.786478257301496342e-06 2.235099827885278501e-06
3.746000000000000000e+03 3.834327697753906250e+01 -1.472240066528320312e+01 7.609583735466003418e-01 7.741148948669433594e+00 2.550632238388061523e+00 -1.098536550998687744e-01
3.747000000000000000e+03 3.579158020019531250e+01 -1.605762863159179688e+01 1.340144872665405273e-01 4.612521648406982422e+00 1.423960804939270020e+00 -4.073807597160339355e-02
3.748000000000000000e+03 9.798117637634277344e+00 -6.883056163787841797e+00 -1.983165740966796875e-01 1.260381340980529785e-01 -2.168353274464607239e-02 -2.705161869525909424e-01
3.749000000000000000e+03 1.091657447814941406e+01 -1.364639472961425781e+01 6.705718636512756348e-01 3.452166914939880371e-01 3.047365844249725342e-01 -4.426954314112663269e-02
3.750000000000000000e+03 2.682112693786621094e+01 -4.828547954559326172e+00 -8.481047153472900391e-01 -5.461606383323669434e-01 -4.182795882225036621e-01 -8.332312107086181641e-01
3.751000000000000000e+03 2.773253440856933594e+01 -5.488612651824951172e+00 -3.949449360370635986e-01 -7.231839299201965332e-01 -3.354386687278747559e-01 -8.573189377784729004e-01
3.752000000000000000e+03 5.423088073730468750e+00 1.951462173461914062e+01 1.891274951049126685e-05 -1.732101191009860486e-05 4.775212119056959637e-07 -1.170619452750543132e-05
3.753000000000000000e+03 1.163326263427734375e+01 1.722673988342285156e+01 -8.869510202202945948e-05 -2.645258064148947597e-05 -3.454430407145991921e-05 5.350729679776122794e-06
3.754000000000000000e+03 1.588676166534423828e+01 6.283228874206542969e+00 -1.562718011882680003e-06 -1.183408039651112631e-05 -4.019039806735236198e-06 -4.098149474884849042e-06
3.755000000000000000e+03 5.837195873260498047e+00 -1.713679504394531250e+01 4.687571227550506592e-01 2.145130634307861328e-01 2.049810588359832764e-01 1.293460428714752197e-01
3.756000000000000000e+03 4.318824005126953125e+01 7.626600742340087891e+00 1.133207559585571289e+00 6.795370101928710938e+00 2.378573179244995117e+00 2.420955419540405273e+00
3.757000000000000000e+03 1.744936370849609375e+01 -1.234815692901611328e+01 5.498991608619689941e-01 -6.829445064067840576e-02 1.444814205169677734e-01 -3.737855330109596252e-02
3.758000000000000000e+03 3.757571411132812500e+01 -9.130952835083007812e+00 1.665456056594848633e+00 7.038481712341308594e+00 2.611181259155273438e+00 8.982481956481933594e-01
3.759000000000000000e+03 3.689458847045898438e+01 -1.225823402404785156e+01 1.365172982215881348e+00 6.041579246520996094e+00 2.222025632858276367e+00 2.963154911994934082e-01
3.760000000000000000e+03 4.563854980468750000e+01 1.672226524353027344e+01 1.065102934837341309e+00 6.002271175384521484e+00 2.120212316513061523e+00 1.267834305763244629e+00
3.761000000000000000e+03 7.015925598144531250e+01 -2.916425704956054688e+01 -1.395814865827560425e-02 3.187660127878189087e-03 -3.231146605685353279e-03 4.045390596729703248e-05
3.762000000000000000e+03 7.195457458496093750e+01 -2.688526725769042969e+01 -4.314505495131015778e-03 -1.033483858918771148e-04 -1.325356191955506802e-03 1.848560496000573039e-04
3.763000000000000000e+03 4.641230010986328125e+01 2.634988212585449219e+01 7.534430623054504395e-01 5.146515846252441406e+00 1.769987702369689941e+00 8.815221488475799561e-02
3.764000000000000000e+03 4.550519180297851562e+01 2.728578376770019531e+01 7.920132875442504883e-01 5.404833316802978516e+00 1.859053969383239746e+00 -5.809649080038070679e-02
3.765000000000000000e+03 7.316146850585937500e+01 -2.289088439941406250e+01 -7.906375685706734657e-05 -6.525279604829847813e-04 -2.194775152020156384e-04 -1.385411742376163602e-04
3.766000000000000000e+03 4.076162338256835938e+01 3.292118072509765625e+00 -2.183399438858032227e+00 9.129629135131835938e+00 2.083868741989135742e+00 1.220332503318786621e+00
3.767000000000000000e+03 2.054792976379394531e+01 -1.402695465087890625e+01 7.170574069023132324e-01 -2.313190102577209473e-01 1.457215249538421631e-01 -4.811806604266166687e-03
3.768000000000000000e+03 2.031693267822265625e+01 -6.803383827209472656e+00 -2.205415815114974976e-01 -1.525432318449020386e-01 -1.119254454970359802e-01 -1.916670650243759155e-01
3.769000000000000000e+03 6.727123260498046875e+01 -2.104280471801757812e+00 -5.486968159675598145e-01 1.160342842340469360e-01 -1.297987550497055054e-01 -1.180104240775108337e-01
3.770000000000000000e+03 3.755413818359375000e+01 -1.141614246368408203e+01 1.383844137191772461e+00 7.086434841156005859e+00 2.541083812713623047e+00 4.357904791831970215e-01
3.771000000000000000e+03 4.656705474853515625e+01 1.726782989501953125e+01 1.107418179512023926e+00 5.364216327667236328e+00 1.941490292549133301e+00 1.141133904457092285e+00
3.772000000000000000e+03 3.786122512817382812e+01 -1.582077121734619141e+01 4.552666246891021729e-01 7.037373542785644531e+00 2.247792005538940430e+00 7.139985263347625732e-02
3.773000000000000000e+03 3.842377090454101562e+01 -1.547986316680908203e+01 5.976989269256591797e-01 7.656120300292968750e+00 2.476145744323730469e+00 -7.216369360685348511e-02
3.774000000000000000e+03 4.462608337402343750e+01 1.439541339874267578e+01 1.246056318283081055e+00 6.680369377136230469e+00 2.377927780151367188e+00 1.664408922195434570e+00
3.775000000000000000e+03 1.450223255157470703e+01 6.790112018585205078e+00 1.112838617700617760e-06 9.720648449729196727e-06 3.250046120228944346e-06 -5.963123385299695656e-06
3.776000000000000000e+03 1.387752532958984375e+01 1.044291019439697266e+01 1.536291529191657901e-05 8.095485100056976080e-06 7.037519935693126172e-06 -5.424536993814399466e-06
3.777000000000000000e+03 3.116604423522949219e+01 -1.510522747039794922e+01 9.210039377212524414e-01 -3.597806021571159363e-02 2.655077576637268066e-01 6.949834227561950684e-01
3.778000000000000000e+03 3.211236572265625000e+01 -1.407449626922607422e+01 1.377100229263305664e+00 5.959667563438415527e-01 5.919200778007507324e-01 4.260347187519073486e-01
3.779000000000000000e+03 1.435665130615234375e+01 -6.606613159179687500e+00 -2.432242333889007568e-01 6.302645802497863770e-02 -5.405933409929275513e-02 -1.598207503557205200e-01
3.780000000000000000e+03 1.517106533050537109e+01 -6.710587024688720703e+00 -2.337032109498977661e-01 3.559165820479393005e-02 -5.943346396088600159e-02 -1.449818462133407593e-01
3.781000000000000000e+03 6.372034454345703125e+01 5.238165855407714844e-01 -1.103616118431091309e+00 1.883171945810317993e-01 -2.745896577835083008e-01 -3.997857570648193359e-01
3.782000000000000000e+03 4.016489791870117188e+01 -1.938503265380859375e+01 8.111259341239929199e-02 7.479681015014648438e+00 2.268238067626953125e+00 2.597578167915344238e-01
3.783000000000000000e+03 3.988895416259765625e+01 -2.209773635864257812e+01 2.198058962821960449e-01 6.127961158752441406e+00 1.904330134391784668e+00 4.265906810760498047e-01
3.784000000000000000e+03 3.846940994262695312e+01 -2.352135467529296875e+01 7.227942943572998047e-01 6.041822433471679688e+00 2.029384851455688477e+00 7.395776510238647461e-01
3.785000000000000000e+03 1.292135715484619141e+01 -3.669604492187500000e+01 -1.019236594438552856e-01 -1.704701185226440430e-01 -8.171813189983367920e-02 2.692694030702114105e-02
3.786000000000000000e+03 4.180967712402343750e+01 1.073712825775146484e+00 -3.644113302230834961e+00 9.376388549804687500e+00 1.719682693481445312e+00 6.021198034286499023e-01
3.787000000000000000e+03 3.892290878295898438e+01 -2.186157417297363281e+01 2.441435605287551880e-01 6.454582214355468750e+00 2.009617805480957031e+00 8.450962305068969727e-01
3.788000000000000000e+03 4.054493713378906250e+01 2.111766815185546875e+00 -2.947247266769409180e+00 9.300013542175292969e+00 1.905830025672912598e+00 6.428132057189941406e-01
3.789000000000000000e+03 4.548647308349609375e+01 1.590879154205322266e+01 1.160951256752014160e+00 6.027379989624023438e+00 2.156499385833740234e+00 1.391815900802612305e+00
3.790000000000000000e+03 3.941313934326171875e+01 -1.819605636596679688e+01 1.695622354745864868e-01 7.790895938873291016e+00 2.388137340545654297e+00 3.639445304870605469e-01
3.791000000000000000e+03 3.884378433227539062e+01 -1.739121627807617188e+01 1.419160515069961548e-01 7.615597248077392578e+00 2.327254056930541992e+00 3.022695779800415039e-01
3.792000000000000000e+03 1.773785972595214844e+01 -6.865698337554931641e+00 -2.130538225173950195e-01 -6.135403737425804138e-02 -8.232235908508300781e-02 -1.358824819326400757e-01
3.793000000000000000e+03 1.856830024719238281e+01 -6.154188632965087891e+00 -3.227802217006683350e-01 -8.086048811674118042e-02 -1.210922151803970337e-01 -1.430954188108444214e-01
3.794000000000000000e+03 1.243985080718994141e+01 2.751174354553222656e+01 2.010408934438601136e-04 -4.608529707184061408e-05 4.648667891160584986e-05 6.864111128379590809e-06
3.795000000000000000e+03 1.203497505187988281e+01 2.446762466430664062e+01 -9.624465019442141056e-05 -1.230576745001599193e-04 -6.579069304279983044e-05 -1.065049764292780310e-05
3.796000000000000000e+03 7.243101119995117188e+00 -1.524142169952392578e+01 5.008767843246459961e-01 3.378315865993499756e-01 2.516125142574310303e-01 -2.546668983995914459e-02
3.797000000000000000e+03 5.431296348571777344e+00 -1.374298763275146484e+01 1.965950578451156616e-01 -4.359365999698638916e-02 4.590041935443878174e-02 -2.518434524536132812e-01
3.798000000000000000e+03 1.041770076751708984e+01 5.033462524414062500e+00 -7.389154234260786325e-06 -7.318006396417331416e-07 -2.436286422380362637e-06 2.245818677693023346e-07
3.799000000000000000e+03 1.338794708251953125e+01 9.856164932250976562e+00 -1.092129696189658716e-05 -1.927334233187139034e-05 -9.058391697180923074e-06 5.678763955074828118e-06
3.800000000000000000e+03 5.037207794189453125e+01 5.436259269714355469e+00 -9.888563752174377441e-01 4.579750597476959229e-01 -1.592644006013870239e-01 -4.869475364685058594e-01
3.801000000000000000e+03 3.754914093017578125e+01 -1.061863136291503906e+01 1.499202847480773926e+00 7.081990718841552734e+00 2.574358224868774414e+00 6.149745583534240723e-01
3.802000000000000000e+03 3.757079315185546875e+01 -1.222422027587890625e+01 1.235245585441589355e+00 7.054963588714599609e+00 2.487062692642211914e+00 2.537694871425628662e-01
3.803000000000000000e+03 1.264628314971923828e+01 5.510501384735107422e+00 -8.173573405656497926e-06 -3.555460580173530616e-06 -3.518710173011641018e-06 3.307462293378193863e-06
3.804000000000000000e+03 1.191028308868408203e+01 5.582121849060058594e+00 8.142172191583085805e-06 2.700292952795280144e-06 3.252739588788244873e-06 -3.121508370895753615e-06
3.805000000000000000e+03 1.250284576416015625e+01 1.577029418945312500e+01 5.035825961385853589e-05 5.068302925792522728e-05 3.031238520634360611e-05 -2.201500865339767188e-05
3.806000000000000000e+03 4.013505554199218750e+01 2.538714170455932617e+00 -2.607487916946411133e+00 9.201456069946289062e+00 1.978190541267395020e+00 8.199292421340942383e-01
3.807000000000000000e+03 7.664137840270996094e+00 -1.376679611206054688e+01 3.580366671085357666e-01 2.827272713184356689e-01 1.922291815280914307e-01 -1.495008319616317749e-01
3.808000000000000000e+03 4.527338409423828125e+01 1.342028331756591797e+01 1.419859409332275391e+00 5.932588577270507812e+00 2.205734491348266602e+00 1.696969270706176758e+00
3.809000000000000000e+03 4.536599731445312500e+01 1.429075813293457031e+01 1.345536708831787109e+00 6.003511905670166016e+00 2.204714536666870117e+00 1.605360150337219238e+00
3.810000000000000000e+03 1.158465385437011719e+01 2.392608451843261719e+01 2.662690239958465099e-04 5.449767559184692800e-05 9.623001096770167351e-05 4.704589446191675961e-05
3.811000000000000000e+03 1.119382476806640625e+01 2.202585792541503906e+01 6.023313471814617515e-05 -8.020476525416597724e-05 -5.991487796563887969e-06 -1.643732502998318523e-05
3.812000000000000000e+03 9.709612846374511719e+00 3.148791313171386719e+01 1.874764711828902364e-04 -3.672590246424078941e-04 -5.393477113102562726e-05 -3.841639554593712091e-04
3.813000000000000000e+03 1.284461593627929688e+01 3.408131790161132812e+01 1.640039045014418662e-05 -1.058817724697291851e-03 -3.127251984551548958e-04 -5.912354681640863419e-04
3.814000000000000000e+03 4.940967559814453125e+01 3.975588321685791016e+00 -2.306090831756591797e+00 1.099041402339935303e-01 -6.588559746742248535e-01 -4.694425463676452637e-01
3.815000000000000000e+03 4.658803939819335938e+01 3.003953552246093750e+01 6.148895025253295898e-01 4.617601394653320312e+00 1.569747328758239746e+00 2.063066512346267700e-01
3.816000000000000000e+03 4.041619873046875000e+01 -2.178436660766601562e+01 1.307733505964279175e-01 6.153123378753662109e+00 1.885169029235839844e+00 2.005871981382369995e-01
3.817000000000000000e+03 8.844788551330566406e+00 5.851500988006591797e+00 6.327182745735626668e-06 1.355659264845598955e-06 2.304852614543051459e-06 3.627711464559979504e-07
3.818000000000000000e+03 4.276227951049804688e+01 5.752907276153564453e+00 -1.595543324947357178e-01 7.058548927307128906e+00 2.069698333740234375e+00 2.174850463867187500e+00
3.819000000000000000e+03 4.477817535400390625e+01 6.474121570587158203e+00 3.231103420257568359e-01 4.332493305206298828e+00 1.396681070327758789e+00 1.886752367019653320e+00
3.820000000000000000e+03 1.191458511352539062e+01 1.514528274536132812e+01 -3.950162499677389860e-05 -4.217639434500597417e-05 -2.450340616633184254e-05 2.067917012027464807e-05
3.821000000000000000e+03 1.224494171142578125e+01 1.362632751464843750e+01 -9.654963832872454077e-06 5.421138848760165274e-05 1.336692821496399119e-05 1.200483711727429181e-05
3.822000000000000000e+03 1.946812438964843750e+01 -6.821804046630859375e+00 -2.196624279022216797e-01 -1.223990917205810547e-01 -1.026184558868408203e-01 -1.672335267066955566e-01
3.823000000000000000e+03 1.771487808227539062e+01 -1.334212589263916016e+01 6.682081222534179688e-01 -8.667317032814025879e-02 1.744604855775833130e-01 -3.543963283300399780e-02
3.824000000000000000e+03 5.623748302459716797e+00 2.294318580627441406e+01 9.348522144136950374e-05 -2.609620423754677176e-05 2.021670479734893888e-05 -7.843683306418824941e-06
3.825000000000000000e+03 3.703051757812500000e+01 -5.890964508056640625e+00 1.148364424705505371e+00 5.662211418151855469e+00 2.043172836303710938e+00 8.551660776138305664e-01
3.826000000000000000e+03 3.927059936523437500e+01 -1.685693264007568359e+00 -1.234445929527282715e+00 8.296968460083007812e+00 2.118756532669067383e+00 4.913359284400939941e-01
3.827000000000000000e+03 3.647805023193359375e+01 -1.718670010566711426e+00 -1.783301949501037598e+00 3.884175777435302734e+00 6.302621960639953613e-01 3.086162805557250977e-01
3.828000000000000000e+03 3.899336242675781250e+01 -5.960405349731445312e+00 1.182163119316101074e+00 9.084730148315429688e+00 3.080068111419677734e+00 1.251490473747253418e+00
3.829000000000000000e+03 3.739038848876953125e+01 -1.538830661773681641e+01 4.953838884830474854e-01 6.521922111511230469e+00 2.105191707611083984e+00 2.720619738101959229e-02
3.830000000000000000e+03 7.158300018310546875e+01 -2.796074104309082031e+01 -7.240366190671920776e-03 8.309502736665308475e-04 -1.922824769280850887e-03 5.679933237843215466e-04
3.831000000000000000e+03 3.051332092285156250e+01 -5.620361328125000000e+00 1.577840149402618408e-01 -6.951286196708679199e-01 -1.612033694982528687e-01 -6.797232031822204590e-01
3.832000000000000000e+03 6.907887268066406250e+01 -6.376947879791259766e+00 -1.028316542506217957e-01 -8.535230532288551331e-03 -3.341006487607955933e-02 4.979987628757953644e-03
3.833000000000000000e+03 7.381050872802734375e+01 -6.764361381530761719e+00 -4.656345769762992859e-02 -2.339271083474159241e-02 -2.098684944212436676e-02 -8.589200675487518311e-03
3.834000000000000000e+03 2.770895767211914062e+01 -7.162275791168212891e+00 4.226743876934051514e-01 -7.359328269958496094e-01 -9.397752583026885986e-02 -5.979026556015014648e-01
3.835000000000000000e+03 3.714967727661132812e+01 -1.031556963920593262e+00 -2.200322866439819336e+00 5.021593570709228516e+00 8.463812470436096191e-01 3.177781999111175537e-01
3.836000000000000000e+03 3.912416458129882812e+01 -2.853086853027343750e+01 2.087184339761734009e-01 4.550478935241699219e+00 1.427759170532226562e+00 -2.648871541023254395e-01
3.837000000000000000e+03 1.274897766113281250e+01 3.541997528076171875e+01 5.137550760991871357e-04 1.149205563706345856e-04 1.886026875581592321e-04 3.325803845655173063e-04
3.838000000000000000e+03 7.234511375427246094e+00 2.804356956481933594e+01 5.138983851793454960e-06 -1.310185471083968878e-04 -3.776386802201159298e-05 -2.038407255895435810e-04
3.839000000000000000e+03 6.969124603271484375e+01 -7.992221355438232422e+00 -3.139101341366767883e-02 -1.966885104775428772e-02 -1.531795877963304520e-02 -2.705049002543091774e-03
3.840000000000000000e+03 6.185132980346679688e+01 4.618161022663116455e-01 -1.417291402816772461e+00 1.442209929227828979e-01 -3.819211423397064209e-01 -3.762907087802886963e-01
3.841000000000000000e+03 4.119493484497070312e+01 2.646806716918945312e+00 -2.921664237976074219e+00 9.086879730224609375e+00 1.849564552307128906e+00 1.011195659637451172e+00
3.842000000000000000e+03 1.194183444976806641e+01 2.916321945190429688e+01 3.635791363194584846e-04 -3.988607568317092955e-05 9.710792073747143149e-05 1.984775299206376076e-04
3.843000000000000000e+03 1.293097686767578125e+01 2.979249763488769531e+01 4.384939384181052446e-04 -4.806198558071628213e-05 1.171295807580463588e-04 3.464552864897996187e-04
3.844000000000000000e+03 6.030298233032226562e+00 3.187061119079589844e+01 6.239167123567312956e-05 -2.188510115956887603e-04 -4.693780283560045063e-05 -3.870304208248853683e-04
3.845000000000000000e+03 3.261191177368164062e+01 -1.489118957519531250e+01 1.075731515884399414e+00 7.542024254798889160e-01 5.489801764488220215e-01 2.857513129711151123e-01
3.846000000000000000e+03 3.267301177978515625e+01 -1.415773200988769531e+01 1.326038241386413574e+00 9.955655336380004883e-01 6.964811086654663086e-01 3.452831208705902100e-01
3.847000000000000000e+03 1.181660079956054688e+01 1.620017051696777344e+01 -7.010027184151113033e-05 -3.907497011823579669e-05 -3.275257404311560094e-05 1.633483771001920104e-05
3.848000000000000000e+03 4.742027282714843750e+01 -3.144316101074218750e+01 1.889756508171558380e-02 1.773288249969482422e+00 5.376557707786560059e-01 -7.174937725067138672e-01
3.849000000000000000e+03 2.189252662658691406e+01 -1.438467216491699219e+01 7.243373990058898926e-01 -2.617024183273315430e-01 1.387905031442642212e-01 5.576796457171440125e-02
3.850000000000000000e+03 4.674216079711914062e+01 2.865455627441406250e+01 7.038080096244812012e-01 4.709475517272949219e+00 1.623985052108764648e+00 1.532568782567977905e-01
3.851000000000000000e+03 4.569987487792968750e+01 2.820862770080566406e+01 7.681481838226318359e-01 5.182506084442138672e+00 1.785196304321289062e+00 2.150602638721466064e-02
3.852000000000000000e+03 3.834910583496093750e+01 -2.611062288284301758e+00 -7.740103602409362793e-01 7.160816669464111328e+00 1.916041851043701172e+00 6.714143157005310059e-01
3.853000000000000000e+03 4.516361618041992188e+01 5.464557647705078125e+00 -5.026292204856872559e-01 3.466892957687377930e+00 8.892790675163269043e-01 1.749274492263793945e+00
3.854000000000000000e+03 3.781653594970703125e+01 -1.689997482299804688e+01 1.174907982349395752e-01 6.994217395782470703e+00 2.133512496948242188e+00 3.352360725402832031e-01
3.855000000000000000e+03 7.535424041748046875e+01 -2.462187576293945312e+01 -8.227216312661767006e-04 -7.261766004376113415e-04 -4.646694869734346867e-04 -7.433572318404912949e-05
3.856000000000000000e+03 3.218890762329101562e+01 -4.492892265319824219e+00 -3.219407200813293457e-01 -3.419053256511688232e-01 -1.991538107395172119e-01 -5.422569513320922852e-01
3.857000000000000000e+03 3.321986770629882812e+01 -4.987263202667236328e+00 2.446445226669311523e-01 5.192765593528747559e-01 2.291763275861740112e-01 -1.239393576979637146e-01
3.858000000000000000e+03 6.071749877929687500e+01 1.394344568252563477e+00 -1.514367103576660156e+00 1.337787359952926636e-01 -4.141765236854553223e-01 -5.027062892913818359e-01
3.859000000000000000e+03 5.939316558837890625e+01 1.690842866897583008e+00 -1.684851169586181641e+00 1.077082753181457520e-01 -4.731428623199462891e-01 -5.073074102401733398e-01
3.860000000000000000e+03 5.064849376678466797e+00 -3.447147369384765625e+01 -4.388976469635963440e-02 -1.336910277605056763e-01 -5.327423661947250366e-02 1.653173752129077911e-02
3.861000000000000000e+03 7.319637298583984375e+01 -3.560563659667968750e+01 -1.050785533152520657e-03 -5.845149978995323181e-03 -2.068780595436692238e-03 1.938411220908164978e-02
3.862000000000000000e+03 7.214739990234375000e+01 -3.414746475219726562e+01 -7.928709499537944794e-03 -7.931502768769860268e-04 -2.616557991132140160e-03 1.934524066746234894e-02
3.863000000000000000e+03 1.497157382965087891e+01 -1.262825679779052734e+01 5.615055561065673828e-01 1.235308274626731873e-01 2.055109143257141113e-01 -3.706457093358039856e-02
3.864000000000000000e+03 1.414270973205566406e+01 -1.316240596771240234e+01 6.560512781143188477e-01 1.966410726308822632e-01 2.558076977729797363e-01 -3.616402670741081238e-02
3.865000000000000000e+03 1.104528999328613281e+01 -1.284120655059814453e+01 4.738500714302062988e-01 3.370325863361358643e-01 2.432647943496704102e-01 -1.013323962688446045e-01
3.866000000000000000e+03 5.984165668487548828e+00 -9.636930465698242188e+00 -2.378301881253719330e-02 -2.238082885742187500e-02 -1.384915411472320557e-02 -3.592201173305511475e-01
3.867000000000000000e+03 1.223575210571289062e+01 2.677604675292968750e+01 1.818238233681768179e-04 -1.245695457328110933e-04 1.717628401820547879e-05 9.764237620402127504e-05
3.868000000000000000e+03 5.749752521514892578e+00 2.678488731384277344e+01 -4.098318640899378806e-06 5.527116809389553964e-05 1.535185401735361665e-05 -1.704143360257148743e-04
3.869000000000000000e+03 3.230723953247070312e+01 -5.184474945068359375e+00 2.413881123065948486e-01 -6.993354856967926025e-02 5.143636837601661682e-02 -3.674938380718231201e-01
3.870000000000000000e+03 6.584764862060546875e+01 -1.219611048698425293e+00 -7.704124450683593750e-01 1.679164171218872070e-01 -1.807488054037094116e-01 -1.847192347049713135e-01
3.871000000000000000e+03 3.937664413452148438e+01 -2.755273818969726562e+01 3.848224580287933350e-01 4.650640487670898438e+00 1.510638833045959473e+00 -2.494421601295471191e-01
3.872000000000000000e+03 3.911476135253906250e+01 -3.086927986145019531e+01 -2.450626045465469360e-01 4.120079517364501953e+00 1.162505030632019043e+00 -2.812019586563110352e-01
3.873000000000000000e+03 3.891994476318359375e+01 -2.430055236816406250e+01 7.232476472854614258e-01 5.620299339294433594e+00 1.903064012527465820e+00 4.173496365547180176e-01
3.874000000000000000e+03 4.074335479736328125e+01 -2.234139060974121094e+01 1.914662122726440430e-01 5.747413635253906250e+00 1.781663894653320312e+00 5.093950312584638596e-03
3.875000000000000000e+03 6.712614440917968750e+01 -3.179904460906982422e+00 -4.549743831157684326e-01 9.061022102832794189e-02 -1.093092486262321472e-01 -2.837061695754528046e-02
3.876000000000000000e+03 3.762415313720703125e+01 -1.533733129501342773e+00 -1.811259865760803223e+00 5.890230178833007812e+00 1.223691105842590332e+00 3.942056298255920410e-01
3.877000000000000000e+03 4.673416900634765625e+01 3.492102813720703125e+01 -2.670427262783050537e-01 4.199234485626220703e+00 1.179657459259033203e+00 3.017781078815460205e-01
3.878000000000000000e+03 1.709060096740722656e+01 -1.297752285003662109e+01 6.305096149444580078e-01 -4.559718444943428040e-02 1.754737347364425659e-01 -3.445102274417877197e-02
3.879000000000000000e+03 4.798855972290039062e+01 4.422177314758300781e+00 -1.585054278373718262e+00 3.403049409389495850e-01 -3.734247982501983643e-01 1.470469683408737183e-01
3.880000000000000000e+03 2.366652488708496094e+01 -5.864604473114013672e+00 -4.496850669384002686e-01 -2.510027587413787842e-01 -2.102063447237014771e-01 -4.543491303920745850e-01
3.881000000000000000e+03 4.348712539672851562e+01 5.407741069793701172e+00 -5.980568528175354004e-01 6.001128673553466797e+00 1.620921611785888672e+00 2.100366353988647461e+00
3.882000000000000000e+03 9.803774833679199219e+00 -6.199307441711425781e+00 -2.353278547525405884e-01 1.129877716302871704e-01 -3.670202568173408508e-02 -2.604047656059265137e-01
3.883000000000000000e+03 3.972386550903320312e+01 -3.251513290405273438e+01 -4.751307070255279541e-01 3.741150379180908203e+00 9.798059463500976562e-01 -3.417936861515045166e-01
3.884000000000000000e+03 4.002358245849609375e+01 -2.111564254760742188e+01 5.973358824849128723e-02 6.534120082855224609e+00 1.978156089782714844e+00 4.328272342681884766e-01
3.885000000000000000e+03 6.837963104248046875e+01 -5.138414859771728516e+00 -1.979453563690185547e-01 1.631528697907924652e-02 -5.448902398347854614e-02 7.462667766958475113e-03
3.886000000000000000e+03 6.607324218750000000e+01 -1.663121730089187622e-01 -7.842950224876403809e-01 1.702166348695755005e-01 -1.842235177755355835e-01 -3.168095052242279053e-01
3.887000000000000000e+03 7.476469421386718750e+01 -2.786747550964355469e+01 -3.778486978262662888e-03 -5.935685476288199425e-04 -1.311616622842848301e-03 1.812696107663214207e-03
3.888000000000000000e+03 5.786506175994873047e+00 3.577508926391601562e+01 -1.255573297385126352e-04 4.882870707660913467e-04 1.088189164875075221e-04 -1.241432037204504013e-04
3.889000000000000000e+03 7.151753997802734375e+01 -3.263597869873046875e+01 -1.451062131673097610e-02 3.224464133381843567e-03 -3.385847201570868492e-03 1.470154989510774612e-02
3.890000000000000000e+03 2.525765991210937500e+01 -5.712115764617919922e+00 -4.645279943943023682e-01 -4.082568585872650146e-01 -2.618354558944702148e-01 -6.299107670783996582e-01
3.891000000000000000e+03 6.128124713897705078e+00 -3.251824951171875000e+01 -1.291956454515457153e-01 -2.095175534486770630e-01 -1.016139611601829529e-01 7.818643003702163696e-02
3.892000000000000000e+03 5.587951660156250000e+01 3.063485622406005859e+00 -1.942533850669860840e+00 2.348795980215072632e-01 -5.122962594032287598e-01 -5.643134713172912598e-01
3.893000000000000000e+03 4.609780502319335938e+01 2.909489440917968750e+01 7.369976639747619629e-01 4.936752796173095703e+00 1.702125072479248047e+00 1.060143262147903442e-01
3.894000000000000000e+03 4.943311691284179688e+00 -3.676986694335937500e+01 -7.279114797711372375e-03 -1.040095239877700806e-01 -3.338659182190895081e-02 -9.629312902688980103e-03
3.895000000000000000e+03 5.163058280944824219e+00 -3.553355026245117188e+01 -2.737257257103919983e-02 -1.265742778778076172e-01 -4.618405550718307495e-02 2.299285028129816055e-03
3.896000000000000000e+03 7.107658386230468750e+01 -2.907261657714843750e+01 -1.155149005353450775e-02 2.459658309817314148e-03 -2.727549523115158081e-03 1.251074369065463543e-03
3.897000000000000000e+03 4.623641586303710938e+01 -2.808654785156250000e+01 2.659858465194702148e-01 2.031703710556030273e+00 6.893068552017211914e-01 -8.676674962043762207e-01
3.898000000000000000e+03 6.850480556488037109e+00 -3.347355651855468750e+01 -1.088097766041755676e-01 -2.119294553995132446e-01 -9.622176736593246460e-02 6.263574957847595215e-02
3.899000000000000000e+03 1.180038452148437500e+01 2.840411186218261719e+01 2.193498658016324043e-04 -1.917035260703414679e-04 8.293902283185161650e-06 -8.885424904292449355e-05
3.900000000000000000e+03 1.261469554901123047e+01 2.826242828369140625e+01 3.203383821528404951e-04 -7.791387179167941213e-05 7.272735092556104064e-05 1.904209784697741270e-04
3.901000000000000000e+03 3.940877151489257812e+01 -2.650677871704101562e+01 5.659077167510986328e-01 4.861275672912597656e+00 1.628154993057250977e+00 -1.292556226253509521e-01
3.902000000000000000e+03 4.036149978637695312e+01 -2.661965942382812500e+01 4.415189325809478760e-01 4.531221389770507812e+00 1.491822123527526855e+00 -3.390395641326904297e-01
3.903000000000000000e+03 2.323369979858398438e+01 -3.859885406494140625e+01 -1.066036988049745560e-02 2.283001989126205444e-01 6.529194861650466919e-02 7.055302709341049194e-02
3.904000000000000000e+03 2.481895256042480469e+01 -3.734283447265625000e+01 -3.790843859314918518e-02 3.916837871074676514e-01 1.061326116323471069e-01 1.250306814908981323e-01
3.905000000000000000e+03 7.487514495849609375e+00 -3.644039916992187500e+01 -3.103860281407833099e-02 -1.810210198163986206e-01 -6.361788511276245117e-02 2.014453336596488953e-02
3.906000000000000000e+03 4.503347015380859375e+01 3.535878372192382812e+01 -3.801496624946594238e-01 4.306361675262451172e+00 1.177863597869873047e+00 1.160741150379180908e-01
3.907000000000000000e+03 4.827391815185546875e+01 -3.343043136596679688e+01 -9.537217766046524048e-02 1.693533658981323242e+00 4.794484376907348633e-01 -6.166036128997802734e-01
3.908000000000000000e+03 4.872269821166992188e+01 -3.207783126831054688e+01 4.596212413161993027e-03 1.489201307296752930e+00 4.481392800807952881e-01 -6.271231770515441895e-01
3.909000000000000000e+03 3.428188323974609375e+01 -3.718155670166015625e+01 -7.269279360771179199e-01 2.822176933288574219e+00 6.285747289657592773e-01 3.812689781188964844e-01
3.910000000000000000e+03 7.365088462829589844e+00 -3.532502365112304688e+01 -6.163309141993522644e-02 -1.937745958566665649e-01 -7.662230730056762695e-02 3.558351099491119385e-02
3.911000000000000000e+03 1.758459091186523438e+01 -4.161618041992187500e+01 2.739582955837249756e-02 -1.045004650950431824e-01 -2.313139103353023529e-02 -1.070617325603961945e-02
3.912000000000000000e+03 2.810586929321289062e+01 -4.142274856567382812e+01 -2.246845215559005737e-01 1.162048101425170898e+00 2.812090516090393066e-01 8.813180029392242432e-02
3.913000000000000000e+03 2.186687469482421875e+01 -4.146893692016601562e+01 1.608692668378353119e-02 2.208963930606842041e-01 7.109499722719192505e-02 1.268053054809570312e-02
3.914000000000000000e+03 5.238049697875976562e+01 -3.563446426391601562e+01 -3.657261654734611511e-02 8.536862134933471680e-01 2.451340854167938232e-01 -3.182326257228851318e-01
3.915000000000000000e+03 5.594981002807617188e+01 -3.703813552856445312e+01 2.548987418413162231e-02 4.454832673072814941e-01 1.412919461727142334e-01 -1.480656564235687256e-01
3.916000000000000000e+03 6.643158912658691406e+00 3.891936111450195312e+01 1.028363622026517987e-04 -3.780282568186521530e-04 -8.255756983999162912e-05 2.918201207648962736e-04
3.917000000000000000e+03 4.824457550048828125e+01 -3.525676345825195312e+01 -1.962248384952545166e-01 1.722262620925903320e+00 4.578113257884979248e-01 -5.390466451644897461e-01
3.918000000000000000e+03 7.453330993652343750e+01 3.431213378906250000e+01 2.669828012585639954e-02 -1.534147620201110840e+00 -4.522347748279571533e-01 -3.717233985662460327e-02
3.919000000000000000e+03 5.614912414550781250e+01 -3.893367767333984375e+01 6.082003191113471985e-02 4.435866773128509521e-01 1.513220220804214478e-01 -7.537995278835296631e-02
3.920000000000000000e+03 7.461289978027343750e+01 -4.071840286254882812e+01 8.821915835142135620e-03 -1.799024827778339386e-02 -2.750499639660120010e-03 5.570291541516780853e-03
3.921000000000000000e+03 7.349996948242187500e+01 -3.885283279418945312e+01 1.134161185473203659e-02 -1.489426475018262863e-02 -1.065796008333563805e-03 1.263291202485561371e-02
3.922000000000000000e+03 5.450131416320800781e+00 4.074168395996093750e+01 -1.220279737026430666e-04 -5.268458044156432152e-04 -1.946621341630816460e-04 -3.095888532698154449e-04
3.923000000000000000e+03 7.446810150146484375e+01 -3.554260253906250000e+01 -4.380570608191192150e-04 -8.856113068759441376e-03 -2.788251033052802086e-03 1.501976139843463898e-02
3.924000000000000000e+03 7.320777130126953125e+01 -3.713376998901367188e+01 5.737859755754470825e-03 -1.160726416856050491e-02 -1.760821440257132053e-03 1.792680844664573669e-02
3.925000000000000000e+03 7.179492187500000000e+01 -4.126839447021484375e+01 2.217503637075424194e-02 -1.934524439275264740e-02 8.489374886266887188e-04 7.076193578541278839e-03
3.926000000000000000e+03 1.595696735382080078e+01 3.703945159912109375e+01 -1.241685240529477596e-03 -9.323914418928325176e-04 -6.522230105474591255e-04 -4.791348765138536692e-04
3.927000000000000000e+03 1.407684803009033203e+01 3.555344772338867188e+01 -6.027772324159741402e-04 -8.671795367263257504e-04 -4.409870307426899672e-04 -9.367896127514541149e-04
3.928000000000000000e+03 5.131199645996093750e+01 -3.426177597045898438e+01 -5.527944490313529968e-02 1.062462568283081055e+00 3.021549284458160400e-01 -3.789907395839691162e-01
3.929000000000000000e+03 4.997404098510742188e+01 -3.500292205810546875e+01 -1.293877661228179932e-01 1.400773048400878906e+00 3.814155757427215576e-01 -4.672821760177612305e-01
3.930000000000000000e+03 1.576110076904296875e+01 -3.756757354736328125e+01 -8.368775248527526855e-02 -1.180680394172668457e-01 -6.052673608064651489e-02 -1.529029291123151779e-02
3.931000000000000000e+03 2.031630516052246094e+01 -7.505734443664550781e+00 -9.351491183042526245e-02 -1.821412593126296997e-01 -8.269684761762619019e-02 -1.942584663629531860e-01
3.932000000000000000e+03 5.185167694091796875e+01 4.357131004333496094e+00 -1.854583024978637695e+00 3.880580961704254150e-01 -4.399574995040893555e-01 -7.093150615692138672e-01
3.933000000000000000e+03 1.921550559997558594e+01 -1.324580764770507812e+01 6.655007600784301758e-01 -1.826362162828445435e-01 1.448593586683273315e-01 -2.586638741195201874e-02
3.934000000000000000e+03 7.544140625000000000e+01 -2.197946739196777344e+01 -6.561225018231198192e-05 -4.911015275865793228e-04 -1.670141209615394473e-04 -2.133109519490972161e-04
3.935000000000000000e+03 3.823324203491210938e+01 -1.723964309692382812e+01 5.195050034672021866e-03 7.236916065216064453e+00 2.172633409500122070e+00 3.257527351379394531e-01
3.936000000000000000e+03 3.764973068237304688e+01 -1.911995887756347656e+01 -3.764554858207702637e-01 6.819276809692382812e+00 1.932846426963806152e+00 9.396432042121887207e-01
3.937000000000000000e+03 7.264053344726562500e+01 -2.563199424743652344e+01 -1.743776723742485046e-03 -6.731244502589106560e-04 -7.250703638419508934e-04 2.982726755362818949e-06
3.938000000000000000e+03 4.450380325317382812e+01 5.742820739746093750e+00 -2.783327996730804443e-01 4.506407737731933594e+00 1.268422484397888184e+00 1.924665331840515137e+00
3.939000000000000000e+03 2.515895843505859375e+01 -1.306291389465332031e+01 8.598178029060363770e-01 -4.298764169216156006e-01 1.289824247360229492e-01 2.224812507629394531e-01
3.940000000000000000e+03 7.389993286132812500e+01 -2.196832847595214844e+01 2.025483699981123209e-04 -5.207720096223056316e-04 -9.546709043206647038e-05 -8.991477807285264134e-05
3.941000000000000000e+03 7.485754394531250000e+01 -1.933520317077636719e+01 2.370965521549805999e-04 -2.121490688296034932e-04 7.484246452804654837e-06 -7.410980470012873411e-05
3.942000000000000000e+03 1.018754768371582031e+01 -8.141345977783203125e+00 -1.048247143626213074e-01 1.767390370368957520e-01 2.157429791986942291e-02 -2.661590874195098877e-01
3.943000000000000000e+03 3.992248535156250000e+01 -2.305589866638183594e+01 3.593318164348602295e-01 5.719727993011474609e+00 1.823717951774597168e+00 2.841538190841674805e-01
3.944000000000000000e+03 2.464908981323242188e+01 -1.491099071502685547e+01 7.282786369323730469e-01 -2.599733471870422363e-01 1.404915899038314819e-01 2.565039992332458496e-01
3.945000000000000000e+03 2.278631973266601562e+01 -1.361077022552490234e+01 7.375394701957702637e-01 -3.250535130500793457e-01 1.237457841634750366e-01 8.883422613143920898e-02
3.946000000000000000e+03 2.327424812316894531e+01 -1.460857772827148438e+01 7.362486124038696289e-01 -2.757459878921508789e-01 1.381507813930511475e-01 1.376149058341979980e-01
3.947000000000000000e+03 2.690255737304687500e+01 -6.334568977355957031e+00 -4.911552742123603821e-02 -6.632835268974304199e-01 -2.137197256088256836e-01 -7.109167575836181641e-01
3.948000000000000000e+03 7.319303894042968750e+01 -2.060412597656250000e+01 2.040920371655374765e-04 -4.458380572032183409e-04 -7.252380601130425930e-05 2.700258664845023304e-05
3.949000000000000000e+03 6.063319015502929688e+01 6.570600867271423340e-01 -1.629709362983703613e+00 9.767752885818481445e-02 -4.596095681190490723e-01 -3.648342192173004150e-01
3.950000000000000000e+03 1.528050422668457031e+01 6.168501853942871094e+00 2.610602905406267382e-06 9.906083505484275520e-06 3.755005991479265504e-06 5.676784553543257061e-07
3.951000000000000000e+03 4.842430591583251953e+00 -1.589417266845703125e+01 2.881383001804351807e-01 -1.233836114406585693e-01 4.942641034722328186e-02 -8.938316255807876587e-02
3.952000000000000000e+03 6.103007316589355469e+00 -1.641975212097167969e+01 4.767740666866302490e-01 2.042116522789001465e-01 2.042957246303558350e-01 3.840383887290954590e-02
3.953000000000000000e+03 1.194683265686035156e+01 2.153149223327636719e+01 3.374214065843261778e-05 -2.493694410077296197e-05 2.641559149196837097e-06 -3.812962313531897962e-05
3.954000000000000000e+03 1.135351371765136719e+01 1.816916084289550781e+01 -5.609813888440839946e-05 -5.238809899310581386e-05 -3.254587136325426400e-05 1.452612423236132599e-06
3.955000000000000000e+03 1.105214881896972656e+01 2.303929138183593750e+01 1.621591654838994145e-04 -1.889507693704217672e-04 -8.037481165956705809e-06 5.715959559893235564e-05
3.956000000000000000e+03 1.465050792694091797e+01 6.105830192565917969e+00 -3.696907242556335405e-06 -8.475549293507356197e-06 -3.651736960819107480e-06 3.024048510269494727e-06
3.957000000000000000e+03 4.103655624389648438e+01 -3.190393638610839844e+01 -3.413022458553314209e-01 3.551056385040283203e+00 9.629262089729309082e-01 -5.213708877563476562e-01
3.958000000000000000e+03 3.201976394653320312e+01 -1.475972080230712891e+01 1.137111067771911621e+00 3.652608990669250488e-01 4.507116079330444336e-01 4.863927960395812988e-01
3.959000000000000000e+03 1.203141975402832031e+01 -7.170297622680664062e+00 -1.861903667449951172e-01 1.373219639062881470e-01 -1.466052047908306122e-02 -2.130828201770782471e-01
3.960000000000000000e+03 1.127925682067871094e+01 -6.356557369232177734e+00 -2.502248883247375488e-01 1.225047037005424500e-01 -3.831605240702629089e-02 -2.281004190444946289e-01
3.961000000000000000e+03 1.251600933074951172e+01 1.940959167480468750e+01 6.403384759323671460e-05 4.721691220765933394e-05 3.337522866786457598e-05 -1.552835965412668884e-05
3.962000000000000000e+03 2.621892547607421875e+01 -1.343391132354736328e+01 9.481180906295776367e-01 -4.207599163055419922e-01 1.582074463367462158e-01 3.452361524105072021e-01
3.963000000000000000e+03 2.284629249572753906e+01 -7.418339729309082031e+00 -4.204877465963363647e-02 -3.260970413684844971e-01 -1.104437485337257385e-01 -3.334494531154632568e-01
3.964000000000000000e+03 2.068087959289550781e+01 -1.454411506652832031e+01 7.321991920471191406e-01 -2.189118266105651855e-01 1.539862155914306641e-01 2.956615528091788292e-03
3.965000000000000000e+03 2.125102806091308594e+01 -1.448796939849853516e+01 7.319354414939880371e-01 -2.384919673204421997e-01 1.480330377817153931e-01 1.776547729969024658e-02
3.966000000000000000e+03 1.398707199096679688e+01 6.099009037017822266e+00 5.143461748957633972e-06 6.877536634419811890e-06 3.606299515013233759e-06 -5.942992174823302776e-06
3.967000000000000000e+03 7.518952178955078125e+01 -3.082701110839843750e+01 -5.411471705883741379e-03 -1.246678992174565792e-03 -1.997445244342088699e-03 7.160689216107130051e-03
3.968000000000000000e+03 7.200920867919921875e+01 -2.903708648681640625e+01 -9.801265783607959747e-03 1.782394014298915863e-03 -2.405661623924970627e-03 1.963105518370866776e-03
3.969000000000000000e+03 7.338024902343750000e+01 2.922396659851074219e+01 8.076705038547515869e-02 -1.294634222984313965e+00 -3.641601502895355225e-01 -1.165869012475013733e-01
3.970000000000000000e+03 7.378952026367187500e+01 3.022010612487792969e+01 6.237416341900825500e-02 -1.393856406211853027e+00 -3.994446694850921631e-01 -9.041022509336471558e-02
3.971000000000000000e+03 7.471190643310546875e+01 -2.960499000549316406e+01 -5.497615784406661987e-03 -4.231994971632957458e-04 -1.776244607754051685e-03 4.858973901718854904e-03
3.972000000000000000e+03 3.561192321777343750e+01 -1.314427852630615234e+01 1.334903478622436523e+00 4.273986816406250000e+00 1.682667136192321777e+00 1.807279884815216064e-01
3.973000000000000000e+03 5.773916721343994141e+00 2.929050445556640625e+01 2.256516745546832681e-04 -2.354691605432890356e-05 6.063142791390419006e-05 3.000657488883007318e-05
3.974000000000000000e+03 7.233483886718750000e+01 -6.837471485137939453e+00 -6.153243407607078552e-02 -2.335133589804172516e-02 -2.546513080596923828e-02 -9.717559441924095154e-03
3.975000000000000000e+03 6.937271881103515625e+01 -6.965372562408447266e+00 -7.375837117433547974e-02 -1.484222058206796646e-02 -2.658017724752426147e-02 2.282032510265707970e-03
3.976000000000000000e+03 5.615993022918701172e+00 2.857639884948730469e+01 -8.265006181318312883e-05 5.012075052945874631e-05 -9.758793567016255111e-06 -2.408699219813570380e-04
3.977000000000000000e+03 3.786405181884765625e+01 -6.862958431243896484e+00 1.490181922912597656e+00 7.139561176300048828e+00 2.588922739028930664e+00 1.043337345123291016e+00
3.978000000000000000e+03 7.027875518798828125e+01 -8.581356048583984375e+00 -1.871464960277080536e-02 -2.160868421196937561e-02 -1.209700014442205429e-02 -4.868718795478343964e-03
3.979000000000000000e+03 7.094316101074218750e+01 -7.801820278167724609e+00 -4.019894450902938843e-02 -2.343139983713626862e-02 -1.908910274505615234e-02 -2.948499284684658051e-03
3.980000000000000000e+03 4.737811279296875000e+01 2.270849800109863281e+01 7.413084506988525391e-01 4.974421024322509766e+00 1.714718818664550781e+00 4.542976915836334229e-01
3.981000000000000000e+03 5.389329910278320312e+00 7.847203731536865234e+00 -2.749152145042899065e-06 -5.409843652159906924e-06 -2.447698761898209341e-06 6.607707746297819540e-06
3.982000000000000000e+03 6.068318843841552734e+00 7.946651935577392578e+00 -1.771805614225741010e-06 8.442391845164820552e-06 2.001175971599877812e-06 -1.618676492398662958e-06
3.983000000000000000e+03 7.096709442138671875e+01 -8.509104728698730469e+00 -2.156294137239456177e-02 -2.253558859229087830e-02 -1.322955917567014694e-02 -2.951187314465641975e-03
3.984000000000000000e+03 6.633051872253417969e+00 6.795804977416992188e+00 1.710391370579600334e-05 1.760203304002061486e-06 5.659235284838359803e-06 3.617294623836642131e-06
3.985000000000000000e+03 3.838313674926757812e+01 -3.311550617218017578e+00 -2.800642251968383789e-01 7.377110004425048828e+00 2.129113674163818359e+00 8.353995084762573242e-01
3.986000000000000000e+03 3.550525665283203125e+01 -4.259738922119140625e+00 6.659755110740661621e-02 3.005712270736694336e+00 9.216929674148559570e-01 4.055251479148864746e-01
3.987000000000000000e+03 7.253672027587890625e+01 -3.058152770996093750e+01 -1.203416474163532257e-02 2.402778714895248413e-03 -2.889415947720408440e-03 6.532869767397642136e-03
3.988000000000000000e+03 7.418458557128906250e+01 -3.116688156127929688e+01 -7.066667079925537109e-03 -3.630992141552269459e-04 -2.228929894044995308e-03 8.386324159801006317e-03
3.989000000000000000e+03 7.350522041320800781e+00 6.660829067230224609e+00 -1.118710770242614672e-05 2.490693020718026673e-07 -3.281411409261636436e-06 -2.654997615536558442e-06
3.990000000000000000e+03 4.691938018798828125e+01 2.364205169677734375e+01 6.924706101417541504e-01 5.167515277862548828e+00 1.757995843887329102e+00 3.270595371723175049e-01
3.991000000000000000e+03 1.282598972320556641e+01 -1.266015243530273438e+01 5.267512202262878418e-01 2.746386528015136719e-01 2.404169589281082153e-01 -6.694313138723373413e-02
3.992000000000000000e+03 4.586772918701171875e+01 2.223501205444335938e+01 5.602748990058898926e-01 5.821565628051757812e+00 1.914552092552185059e+00 4.461320936679840088e-01
3.993000000000000000e+03 4.656707382202148438e+01 2.219719123840332031e+01 6.598644852638244629e-01 5.441892623901367188e+00 1.830527186393737793e+00 4.909590482711791992e-01
3.994000000000000000e+03 7.516116333007812500e+01 -2.259650802612304688e+01 1.438319741282612085e-04 -5.698247696273028851e-04 -1.277978299185633659e-04 -2.118200354743748903e-04
3.995000000000000000e+03 4.966982364654541016e+00 2.777701950073242188e+01 -1.569621053931768984e-05 -6.070213203202001750e-05 -2.291950295330025256e-05 -1.669173361733555794e-04
3.996000000000000000e+03 7.428796386718750000e+01 3.109094619750976562e+01 4.857450351119041443e-02 -1.476645708084106445e+00 -4.284213781356811523e-01 -6.700778752565383911e-02
3.997000000000000000e+03 7.336510467529296875e+01 -2.204687881469726562e+01 2.123487138305790722e-05 -6.742011755704879761e-04 -1.958898938028141856e-04 5.280386176309548318e-06
3.998000000000000000e+03 2.670932197570800781e+01 -1.327032089233398438e+01 9.800969362258911133e-01 -4.291705787181854248e-01 1.652778983116149902e-01 3.755683600902557373e-01
3.999000000000000000e+03 7.433794403076171875e+01 2.173389053344726562e+01 9.801668673753738403e-02 -1.304686903953552246e+00 -3.620010614395141602e-01 -3.195228874683380127e-01
4.000000000000000000e+03 1.281674861907958984e+01 -7.180079936981201172e+00 -1.832205355167388916e-01 1.259060353040695190e-01 -1.719434931874275208e-02 -1.913491040468215942e-01
4.001000000000000000e+03 1.278989601135253906e+01 -6.464027881622314453e+00 -2.537564635276794434e-01 1.063817292451858521e-01 -4.421242326498031616e-02 -1.918950527906417847e-01
4.002000000000000000e+03 7.402454376220703125e+01 2.402880859375000000e+01 1.069016829133033752e-01 -1.329935908317565918e+00 -3.669102489948272705e-01 -2.521346807479858398e-01
4.003000000000000000e+03 7.442475128173828125e+01 1.443787002563476562e+01 5.588943511247634888e-02 -9.536073207855224609e-01 -2.693153619766235352e-01 -5.055306553840637207e-01
4.004000000000000000e+03 7.492064666748046875e+01 -2.547630882263183594e+01 -1.469539245590567589e-03 -7.446882082149386406e-04 -6.642682710662484169e-04 1.669708144618198276e-04
4.005000000000000000e+03 7.437184143066406250e+01 -2.887175941467285156e+01 -5.343541502952575684e-03 -3.353169013280421495e-04 -1.703657559119164944e-03 3.129641991108655930e-03
4.006000000000000000e+03 7.276490020751953125e+01 -2.659251403808593750e+01 -3.768439870327711105e-03 -2.233379636891186237e-04 -1.197533332742750645e-03 3.281304816482588649e-05
4.007000000000000000e+03 7.163937377929687500e+01 -7.687975406646728516e+00 -4.117887467145919800e-02 -2.347489073872566223e-02 -1.939612999558448792e-02 -3.051067469641566277e-03
4.008000000000000000e+03 4.650070190429687500e+01 2.086900901794433594e+01 7.173900008201599121e-01 5.530866622924804688e+00 1.874477028846740723e+00 6.859589815139770508e-01
4.009000000000000000e+03 7.449755859375000000e+01 -2.227377700805664062e+01 -9.919607691699638963e-05 -6.215262110345065594e-04 -2.162166929338127375e-04 -5.919337854720652103e-05
4.010000000000000000e+03 7.486631011962890625e+01 2.498763656616210938e+01 8.164969086647033691e-02 -1.502996087074279785e+00 -4.264039397239685059e-01 -1.933602094650268555e-01
4.011000000000000000e+03 7.420147705078125000e+01 2.498807716369628906e+01 1.058039143681526184e-01 -1.380043983459472656e+00 -3.822720050811767578e-01 -2.196007370948791504e-01
4.012000000000000000e+03 3.062844657897949219e+01 -1.447998428344726562e+01 1.096672058105468750e+00 -1.067472472786903381e-01 2.969774305820465088e-01 6.978138089179992676e-01
4.013000000000000000e+03 7.426048278808593750e+01 2.101595306396484375e+01 9.901752322912216187e-02 -1.269825577735900879e+00 -3.512424230575561523e-01 -3.366489708423614502e-01
4.014000000000000000e+03 7.510345458984375000e+01 1.770447158813476562e+01 6.934566795825958252e-02 -1.232153773307800293e+00 -3.488424420356750488e-01 -3.913384079933166504e-01
4.015000000000000000e+03 7.431471252441406250e+01 1.690635871887207031e+01 8.521347492933273315e-02 -1.086794734001159668e+00 -3.004743754863739014e-01 -4.566387832164764404e-01
4.016000000000000000e+03 7.445287322998046875e+01 -6.753658771514892578e+00 -3.980569541454315186e-02 -2.205505035817623138e-02 -1.855822280049324036e-02 -6.993095856159925461e-03
4.017000000000000000e+03 7.428022766113281250e+01 -5.829144954681396484e+00 -5.741305649280548096e-02 -2.544000744819641113e-02 -2.485591918230056763e-02 -2.038598619401454926e-02
4.018000000000000000e+03 7.463565826416015625e+01 -2.406307601928710938e+01 -6.705851992592215538e-04 -7.811188697814941406e-04 -4.355112323537468910e-04 -1.500395592302083969e-04
4.019000000000000000e+03 7.477425384521484375e+01 -2.475739097595214844e+01 -8.199107251130044460e-04 -6.607191753573715687e-04 -4.441889759618788958e-04 1.527392159914597869e-04
4.020000000000000000e+03 7.299661254882812500e+01 -2.948308181762695312e+01 -9.004259482026100159e-03 1.245890394784510136e-03 -2.327510621398687363e-03 3.723138244822621346e-03
4.021000000000000000e+03 6.971044921875000000e+01 -3.174864006042480469e+01 -2.508377842605113983e-02 7.878979668021202087e-03 -5.161439534276723862e-03 1.088071335107088089e-02
4.022000000000000000e+03 7.478279113769531250e+01 2.578666305541992188e+01 7.354244589805603027e-02 -1.516831278800964355e+00 -4.329866468906402588e-01 -1.750358641147613525e-01
4.023000000000000000e+03 7.391034698486328125e+01 2.301520919799804688e+01 1.165141761302947998e-01 -1.281378984451293945e+00 -3.494594693183898926e-01 -2.852022051811218262e-01
4.024000000000000000e+03 7.983560562133789062e+00 -6.185790538787841797e+00 -1.985285431146621704e-01 6.532280147075653076e-02 -3.996172174811363220e-02 -2.933461964130401611e-01
4.025000000000000000e+03 7.922857761383056641e+00 -7.665016651153564453e+00 -1.290692239999771118e-01 8.674723654985427856e-02 -1.269659865647554398e-02 -3.223224878311157227e-01
4.026000000000000000e+03 7.474826049804687500e+01 1.047242164611816406e+00 -1.293278187513351440e-01 -1.499539017677307129e-01 -8.378451317548751831e-02 -2.511760890483856201e-01
4.027000000000000000e+03 7.467277526855468750e+01 7.295166969299316406e+00 -6.617130339145660400e-02 -4.871392846107482910e-01 -1.659931689500808716e-01 -4.792736470699310303e-01
4.028000000000000000e+03 7.535982513427734375e+01 8.867483139038085938e+00 -2.985451370477676392e-02 -6.363236308097839355e-01 -1.998534500598907471e-01 -4.572918713092803955e-01
4.029000000000000000e+03 7.510614776611328125e+01 -2.621200180053710938e+01 -1.711294637061655521e-03 -6.433411035686731339e-04 -7.063907105475664139e-04 7.613978232257068157e-04
4.030000000000000000e+03 7.152707672119140625e+01 -2.945883178710937500e+01 -1.235729083418846130e-02 2.820618450641632080e-03 -2.861001528799533844e-03 3.027595579624176025e-03
4.031000000000000000e+03 7.543064117431640625e+01 3.371084213256835938e+00 -9.198214113712310791e-02 -2.717975378036499023e-01 -1.091339066624641418e-01 -3.139424920082092285e-01
4.032000000000000000e+03 7.531942749023437500e+01 1.043935298919677734e+01 -7.891631685197353363e-03 -7.525480985641479492e-01 -2.281319200992584229e-01 -4.715069532394409180e-01
4.033000000000000000e+03 7.541874694824218750e+01 -3.742655754089355469e+00 -6.591393053531646729e-02 -4.026595875620841980e-02 -3.185396641492843628e-02 -5.772079527378082275e-02
4.034000000000000000e+03 7.478760528564453125e+01 -5.727271556854248047e+00 -5.106774717569351196e-02 -2.560218423604965210e-02 -2.300097979605197906e-02 -1.992401853203773499e-02
4.035000000000000000e+03 7.540855407714843750e+01 -2.982156753540039062e+00 -7.525464147329330444e-02 -5.066323652863502502e-02 -3.777536377310752869e-02 -7.885481417179107666e-02
4.036000000000000000e+03 7.242254638671875000e+01 -6.154588222503662109e+00 -8.138675987720489502e-02 -2.323234267532825470e-02 -3.138573095202445984e-02 -1.694350689649581909e-02
4.037000000000000000e+03 7.474358367919921875e+01 2.471046298742294312e-01 -1.287934035062789917e-01 -1.212907880544662476e-01 -7.502526044845581055e-02 -2.159554213285446167e-01
4.038000000000000000e+03 7.383118438720703125e+01 1.031110477447509766e+01 -1.478811819106340408e-02 -6.387601494789123535e-01 -1.960644870996475220e-01 -5.743881464004516602e-01
4.039000000000000000e+03 4.717419815063476562e+01 1.989497184753417969e+01 8.712614178657531738e-01 5.113126277923583984e+00 1.795316338539123535e+00 7.786310315132141113e-01
4.040000000000000000e+03 4.583794021606445312e+01 1.756217765808105469e+01 9.729162454605102539e-01 5.905265808105468750e+00 2.063454627990722656e+00 1.157397031784057617e+00
4.041000000000000000e+03 7.542462921142578125e+01 4.162795543670654297e+00 -8.618555963039398193e-02 -3.170398771762847900e-01 -1.209676265716552734e-01 -3.423816263675689697e-01
4.042000000000000000e+03 7.474201965332031250e+01 1.837466359138488770e+00 -1.281281411647796631e-01 -1.818090826272964478e-01 -9.298116713762283325e-02 -2.865854203701019287e-01
4.043000000000000000e+03 7.526770019531250000e+01 1.201567459106445312e+01 1.353962626308202744e-02 -8.663275241851806641e-01 -2.558363676071166992e-01 -4.745251834392547607e-01
4.044000000000000000e+03 7.285703277587890625e+01 -4.867704868316650391e+00 -1.105224788188934326e-01 -2.572406455874443054e-02 -4.087396338582038879e-02 -4.610659927129745483e-02
4.045000000000000000e+03 7.407392883300781250e+01 3.429633855819702148e+00 -1.464563459157943726e-01 -2.357183992862701416e-01 -1.146524250507354736e-01 -3.872383534908294678e-01
4.046000000000000000e+03 7.540586090087890625e+01 -2.202977418899536133e+00 -8.319160342216491699e-02 -6.491756439208984375e-02 -4.443275183439254761e-02 -1.033457145094871521e-01
4.047000000000000000e+03 7.474425506591796875e+01 -4.449707984924316406e+00 -7.276198267936706543e-02 -3.368291258811950684e-02 -3.193346783518791199e-02 -4.645359888672828674e-02
4.048000000000000000e+03 7.541354370117187500e+01 4.951049804687500000e+00 -7.876028865575790405e-02 -3.648959994316101074e-01 -1.330968886613845825e-01 -3.683052062988281250e-01
4.049000000000000000e+03 6.771215438842773438e+00 2.186268615722656250e+01 5.290959961712360382e-05 7.757463026791810989e-05 3.914527042070403695e-05 -8.517844980815425515e-05
4.050000000000000000e+03 7.508557891845703125e+01 1.852038383483886719e+01 7.211154699325561523e-02 -1.275538921356201172e+00 -3.610281944274902344e-01 -3.707083463668823242e-01
4.051000000000000000e+03 7.438894653320312500e+01 1.526191425323486328e+01 6.735110282897949219e-02 -1.001358509063720703e+00 -2.802022099494934082e-01 -4.914390444755554199e-01
4.052000000000000000e+03 7.467887115478515625e+01 6.520022392272949219e+00 -7.923407107591629028e-02 -4.369652569293975830e-01 -1.548597961664199829e-01 -4.603205621242523193e-01
4.053000000000000000e+03 7.469506072998046875e+01 5.748372077941894531e+00 -9.036669135093688965e-02 -3.893214762210845947e-01 -1.439064443111419678e-01 -4.370763003826141357e-01
4.054000000000000000e+03 7.472054290771484375e+01 4.971500396728515625e+00 -1.004605814814567566e-01 -3.436528444290161133e-01 -1.332340240478515625e-01 -4.118609428405761719e-01
4.055000000000000000e+03 7.470922851562500000e+01 -3.719723701477050781e+00 -8.610304445028305054e-02 -4.011669009923934937e-02 -3.786591812968254089e-02 -6.619688868522644043e-02
4.056000000000000000e+03 7.472030639648437500e+01 -5.542706251144409180e-01 -1.243362128734588623e-01 -9.703243523836135864e-02 -6.641059368848800659e-02 -1.803733110427856445e-01
4.057000000000000000e+03 7.468994903564453125e+01 -1.353917837142944336e+00 -1.179046854376792908e-01 -7.826846837997436523e-02 -5.885194614529609680e-02 -1.490953713655471802e-01
4.058000000000000000e+03 7.461822509765625000e+01 9.620419502258300781e+00 -2.448860928416252136e-02 -6.455829739570617676e-01 -2.010214775800704956e-01 -5.181616544723510742e-01
4.059000000000000000e+03 4.178348159790039062e+01 -2.514619827270507812e+01 3.484233319759368896e-01 4.252973556518554688e+00 1.380419015884399414e+00 -5.542134046554565430e-01
4.060000000000000000e+03 4.252477645874023438e+01 -2.524649810791015625e+01 3.491222560405731201e-01 3.890763521194458008e+00 1.271965742111206055e+00 -6.976292729377746582e-01
4.061000000000000000e+03 5.581483364105224609e+00 2.122000694274902344e+01 4.550454832497052848e-05 3.338659371365793049e-05 2.366734224779065698e-05 -6.673322786809876561e-06
4.062000000000000000e+03 4.000526809692382812e+01 -2.407172203063964844e+01 4.860447049140930176e-01 5.346717834472656250e+00 1.749828696250915527e+00 1.118597835302352905e-01
4.063000000000000000e+03 9.604348182678222656e+00 7.189371585845947266e+00 -8.877430445863865316e-06 -1.957396989382687025e-06 -3.250448344260803424e-06 1.118211571338179056e-06
4.064000000000000000e+03 1.388890171051025391e+01 9.399800300598144531e+00 9.130751095653977245e-06 7.754278158245142549e-06 5.065508958068676293e-06 -5.971849986963206902e-06
4.065000000000000000e+03 7.445787048339843750e+01 1.360757541656494141e+01 4.409912228584289551e-02 -9.036613702774047852e-01 -2.578686773777008057e-01 -5.161261558532714844e-01
4.066000000000000000e+03 7.448926544189453125e+01 1.278132247924804688e+01 3.051182068884372711e-02 -8.518930077552795410e-01 -2.464143484830856323e-01 -5.245485305786132812e-01
4.067000000000000000e+03 7.451870727539062500e+01 1.196870899200439453e+01 1.624730043113231659e-02 -7.990573048591613770e-01 -2.348430007696151733e-01 -5.275442004203796387e-01
4.068000000000000000e+03 5.885400772094726562e+00 -8.190196037292480469e+00 -7.959470152854919434e-02 -3.216761350631713867e-02 -3.352869302034378052e-02 -3.484405279159545898e-01
4.069000000000000000e+03 7.380267333984375000e+01 2.207291793823242188e+01 1.199324056506156921e-01 -1.231440305709838867e+00 -3.334523737430572510e-01 -3.194218873977661133e-01
4.070000000000000000e+03 7.357428741455078125e+01 1.522527122497558594e+01 8.397105336189270020e-02 -9.102173447608947754e-01 -2.478738874197006226e-01 -5.388312935829162598e-01
4.071000000000000000e+03 5.542140007019042969e+00 2.529153060913085938e+01 -5.259134559310041368e-05 4.341452586231753230e-05 -2.753046146608539857e-06 -6.585371011169627309e-05
4.072000000000000000e+03 5.658952713012695312e+00 2.794086074829101562e+01 1.547385181766003370e-04 1.582490658620372415e-04 9.389627666678279638e-05 -5.017722287448123097e-05
4.073000000000000000e+03 4.773798942565917969e+00 2.044513320922851562e+01 4.321015148889273405e-05 -7.095836735970806330e-06 1.083429378923028708e-05 2.650222540978575125e-06
4.074000000000000000e+03 5.551304817199707031e+00 2.208269882202148438e+01 -2.339204911550041288e-05 8.285602234536781907e-06 -4.531933882390148938e-06 -7.236320698211784475e-07
4.075000000000000000e+03 7.425547790527343750e+01 2.021164894104003906e+01 1.000432223081588745e-01 -1.236528277397155762e+00 -3.409455418586730957e-01 -3.637124300003051758e-01
4.076000000000000000e+03 7.425312805175781250e+01 1.939962387084960938e+01 9.774928539991378784e-02 -1.201750636100769043e+00 -3.312003910541534424e-01 -3.865417838096618652e-01
4.077000000000000000e+03 5.172468185424804688e+00 -7.943514347076416016e+00 -7.762453705072402954e-02 -8.632101863622665405e-02 -4.918366670608520508e-02 -3.410201668739318848e-01
4.078000000000000000e+03 3.942130804061889648e+00 -8.731348037719726562e+00 -3.725456446409225464e-02 -2.221198827028274536e-01 -7.781233638525009155e-02 -3.294699192047119141e-01
4.079000000000000000e+03 4.825891017913818359e+00 2.533780479431152344e+01 1.348779915133491158e-04 -1.388909186061937362e-05 3.629667116911150515e-05 -5.991110811010003090e-06
4.080000000000000000e+03 6.005059242248535156e+00 1.789455986022949219e+01 3.371548018549219705e-06 -5.132209480507299304e-06 -5.281984840621589683e-07 2.889426468755118549e-05
4.081000000000000000e+03 4.342464447021484375e+00 -1.260093784332275391e+01 7.749022543430328369e-02 -2.602991759777069092e-01 -5.484268441796302795e-02 -3.051174879074096680e-01
4.082000000000000000e+03 5.258141040802001953e+00 1.576360607147216797e+01 2.952617023765924387e-06 -1.178969159809639677e-05 -2.651122485985979438e-06 1.995962156797759235e-05
4.083000000000000000e+03 4.662683010101318359e+00 1.882076644897460938e+01 2.542826041462831199e-05 -2.465048510202905163e-06 6.888963525852886960e-06 -1.094043182092718780e-05
4.084000000000000000e+03 1.054773426055908203e+01 -6.278844833374023438e+00 -2.457275390625000000e-01 1.206240057945251465e-01 -3.753105923533439636e-02 -2.449977248907089233e-01
4.085000000000000000e+03 8.266019821166992188e+00 -6.809621334075927734e+00 -1.766125708818435669e-01 8.571281284093856812e-02 -2.726992778480052948e-02 -3.040778636932373047e-01
4.086000000000000000e+03 5.060581207275390625e+00 -1.001927471160888672e+01 -1.358824782073497772e-02 -1.231039389967918396e-01 -4.100765660405158997e-02 -3.581273555755615234e-01
4.087000000000000000e+03 6.461528301239013672e+00 -1.204026699066162109e+01 1.201251298189163208e-01 6.920443475246429443e-02 5.679886788129806519e-02 -3.071261942386627197e-01
4.088000000000000000e+03 4.415171623229980469e+00 -1.498426246643066406e+01 2.085804492235183716e-01 -2.433391958475112915e-01 -1.042762305587530136e-02 -1.762340813875198364e-01
4.089000000000000000e+03 4.603098392486572266e+00 -1.656908607482910156e+01 2.908804416656494141e-01 -1.524663120508193970e-01 4.152423888444900513e-02 -2.226532436907291412e-02
4.090000000000000000e+03 4.327543735504150391e+00 -1.722562789916992188e+01 2.885084152221679688e-01 -2.092435210943222046e-01 2.377946861088275909e-02 3.103411756455898285e-02
4.091000000000000000e+03 4.748411655426025391e+00 -1.052197933197021484e+01 4.497902933508157730e-03 -1.702108979225158691e-01 -4.971390217542648315e-02 -3.508058786392211914e-01
4.092000000000000000e+03 5.325816631317138672e+00 1.795721435546875000e+01 6.364005002978956327e-06 1.003763827611692250e-05 4.920493211102439091e-06 -1.630663791729602963e-05
4.093000000000000000e+03 1.330079555511474609e+01 6.141906261444091797e+00 -8.296087798953521997e-06 -5.291849902278045192e-06 -4.076381173945264891e-06 5.324592166289221495e-06
4.094000000000000000e+03 5.686725139617919922e+00 -1.543632507324218750e+01 3.495079576969146729e-01 5.640195682644844055e-02 1.217729672789573669e-01 -1.022341251373291016e-01
4.095000000000000000e+03 5.050121784210205078e+00 -1.519731903076171875e+01 2.611707746982574463e-01 -8.930640667676925659e-02 5.155931413173675537e-02 -1.533368974924087524e-01
4.096000000000000000e+03 5.284322738647460938e+00 1.648752212524414062e+01 -3.633722087670321343e-07 6.824683623563032597e-06 1.938393324962817132e-06 -1.580322350491769612e-05
4.097000000000000000e+03 4.654914379119873047e+00 1.259735584259033203e+01 4.477480615605600178e-06 9.983934432966634631e-06 4.338424332672730088e-06 -5.183403118280693889e-06
4.098000000000000000e+03 5.313292980194091797e+00 1.424843406677246094e+01 -4.042735781695228070e-06 -1.153478751803049818e-05 -4.673257080867188051e-06 9.627975487092044204e-06
4.099000000000000000e+03 6.587051868438720703e+00 1.850168418884277344e+01 1.920577005876111798e-06 5.215374039835296571e-05 1.622229501663241535e-05 2.215734639321453869e-05
4.100000000000000000e+03 5.306793689727783203e+00 9.385281562805175781e+00 7.266490964497052119e-09 -5.843014605488860980e-06 -1.750724436533346307e-06 1.002700992103200406e-05
4.101000000000000000e+03 1.039831256866455078e+01 5.722776412963867188e+00 7.544461823272285983e-06 1.836333012761315331e-06 2.814238314385875128e-06 -1.015032921714009717e-06
4.102000000000000000e+03 8.092167854309082031e+00 6.590522766113281250e+00 8.026320756471250206e-06 9.551647508487803861e-07 2.694445583983906545e-06 6.757444452887284569e-07
4.103000000000000000e+03 4.676536083221435547e+00 7.787716388702392578e+00 2.108383114318712614e-06 5.261945716483751312e-06 2.211098490079166368e-06 -5.809113645227625966e-06
4.104000000000000000e+03 4.663449287414550781e+00 1.179581832885742188e+01 -6.805865268688648939e-06 -5.572454938373994082e-06 -3.713495971169322729e-06 8.472061381326057017e-06
4.105000000000000000e+03 3.795446014404296875e+01 -7.627954959869384766e+00 1.580282092094421387e+00 7.380855560302734375e+00 2.688341379165649414e+00 1.071185111999511719e+00
4.106000000000000000e+03 5.411800384521484375e+00 1.182140922546386719e+01 6.583175604646385182e-07 8.145882929966319352e-06 2.641260152813629247e-06 -5.229622274782741442e-06
4.107000000000000000e+03 5.333974361419677734e+00 1.018074989318847656e+01 -1.351598484689020552e-06 4.149273081566207111e-06 8.393023449571046513e-07 -8.581014299124944955e-06
4.108000000000000000e+03 5.388257503509521484e+00 1.099944877624511719e+01 -2.716209110076306388e-06 -8.360403285223583225e-07 -1.065674837263941299e-06 8.926836017053574324e-06
4.109000000000000000e+03 7.265980529785156250e+01 -2.145620727539062500e+01 3.117659362033009529e-04 -4.538025823421776295e-04 -4.261099820723757148e-05 2.204548363806679845e-04
4.110000000000000000e+03 7.293969726562500000e+01 2.831318855285644531e+01 9.711110591888427734e-02 -1.222372412681579590e+00 -3.375783860683441162e-01 -1.370596587657928467e-01
4.111000000000000000e+03 7.149821472167968750e+01 2.489882087707519531e+01 1.940878927707672119e-01 -9.139057993888854980e-01 -2.159453630447387695e-01 -2.665523588657379150e-01
4.112000000000000000e+03 1.098961734771728516e+01 2.564760208129882812e+01 1.207254026667214930e-04 9.247455454897135496e-05 6.395998934749513865e-05 3.872154775308445096e-05
4.113000000000000000e+03 7.354724121093750000e+01 2.474429512023925781e+01 1.288758665323257446e-01 -1.258717894554138184e+00 -3.389526009559631348e-01 -2.391900122165679932e-01
4.114000000000000000e+03 5.524262905120849609e+00 7.047634601593017578e+00 2.324756678717676550e-06 6.456143637478817254e-06 2.634270003909477964e-06 -5.184476322028785944e-06
4.115000000000000000e+03 5.626136302947998047e+00 2.378419685363769531e+01 -3.274420669185929000e-05 -2.226171272923238575e-05 -1.650177546252962202e-05 -4.642591738956980407e-05
4.116000000000000000e+03 5.727841567993164062e+01 3.169798135757446289e+00 -1.672831535339355469e+00 1.842662543058395386e-01 -4.465695619583129883e-01 -6.444716453552246094e-01
4.117000000000000000e+03 5.654521560668945312e+01 3.673137426376342773e+00 -1.633089780807495117e+00 2.266580611467361450e-01 -4.219295084476470947e-01 -6.907138228416442871e-01
4.118000000000000000e+03 3.687996673583984375e+01 -1.144418907165527344e+01 1.509445905685424805e+00 6.030913352966308594e+00 2.262107849121093750e+00 4.375258982181549072e-01
4.119000000000000000e+03 2.719674491882324219e+01 -1.308079051971435547e+01 1.084822893142700195e+00 -4.473378062248229980e-01 1.912455409765243530e-01 4.116959273815155029e-01
4.120000000000000000e+03 2.373842811584472656e+01 -1.153356552124023438e+01 7.132748365402221680e-01 -4.652295410633087158e-01 7.441358268260955811e-02 -3.718528430908918381e-03
4.121000000000000000e+03 4.557353973388671875e+01 1.115076160430908203e+01 1.580542683601379395e+00 5.062287330627441406e+00 1.992848992347717285e+00 1.806207776069641113e+00
4.122000000000000000e+03 4.592604446411132812e+01 1.244686222076416016e+01 1.565751314163208008e+00 5.128386497497558594e+00 2.008241415023803711e+00 1.664414048194885254e+00
4.123000000000000000e+03 1.099487686157226562e+01 2.852828025817871094e+01 3.150602860841900110e-04 -2.775967971047066385e-07 9.443480666959658265e-05 7.953648309921845794e-05
4.124000000000000000e+03 4.433159255981445312e+01 1.007555770874023438e+01 1.563684582710266113e+00 6.184391975402832031e+00 2.324422836303710938e+00 2.246992111206054688e+00
4.125000000000000000e+03 4.330748367309570312e+01 -2.626063728332519531e+01 3.027606904506683350e-01 3.333384513854980469e+00 1.090843558311462402e+00 -8.526883125305175781e-01
4.126000000000000000e+03 4.427021408081054688e+01 -2.726088905334472656e+01 2.564729452133178711e-01 2.834465980529785156e+00 9.272816777229309082e-01 -8.943898677825927734e-01
4.127000000000000000e+03 3.755893707275390625e+01 -9.851044654846191406e+00 1.621415853500366211e+00 7.062476158142089844e+00 2.605167627334594727e+00 7.791484594345092773e-01
4.128000000000000000e+03 3.821850204467773438e+01 -9.825716972351074219e+00 1.463136434555053711e+00 8.233446121215820312e+00 2.908974885940551758e+00 8.136808872222900391e-01
4.129000000000000000e+03 1.178499126434326172e+01 1.950760078430175781e+01 -2.903834501921664923e-05 -4.619330502464435995e-05 -2.256949483125936240e-05 2.240759749838616699e-05
4.130000000000000000e+03 5.916774749755859375e+00 3.009680366516113281e+01 7.114808340702438727e-06 -6.600374763365834951e-05 -1.766668174241203815e-05 -3.311302280053496361e-04
4.131000000000000000e+03 1.152025985717773438e+01 3.102641677856445312e+01 2.281688794028013945e-04 -3.455517289694398642e-04 -3.521485632518306375e-05 -2.889411116484552622e-04
4.132000000000000000e+03 4.186094665527343750e+01 1.887924909591674805e+00 -3.626751184463500977e+00 8.952009201049804688e+00 1.597577333450317383e+00 9.433959126472473145e-01
4.133000000000000000e+03 3.017902565002441406e+01 -1.382649803161621094e+01 1.281845092773437500e+00 -1.553905457258224487e-01 3.379363715648651123e-01 6.494016647338867188e-01
4.134000000000000000e+03 5.937075138092041016e+00 -6.267772674560546875e+00 -1.397429555654525757e-01 -2.200678363442420959e-02 -4.852491989731788635e-02 -3.064317703247070312e-01
4.135000000000000000e+03 5.874363422393798828e+00 3.283845520019531250e+01 9.027571650221943855e-06 3.295455826446413994e-04 1.015719462884590030e-04 -1.654338557273149490e-04
4.136000000000000000e+03 4.469314193725585938e+01 8.686061859130859375e+00 1.344002962112426758e+00 5.225989341735839844e+00 1.970997691154479980e+00 2.034219980239868164e+00
4.137000000000000000e+03 1.194949817657470703e+01 2.087105560302734375e+01 -6.229108294064644724e-06 -5.534219781111460179e-06 -3.528998377078096382e-06 4.605456342687830329e-05
4.138000000000000000e+03 6.754335880279541016e+00 -6.651044368743896484e+00 -1.491764187812805176e-01 1.853596232831478119e-02 -3.919213637709617615e-02 -3.176496922969818115e-01
4.139000000000000000e+03 5.808823394775390625e+01 2.870560407638549805e+00 -1.636731147766113281e+00 1.449267566204071045e-01 -4.475413262844085693e-01 -6.374863982200622559e-01
4.140000000000000000e+03 5.150524139404296875e+01 5.358397006988525391e+00 -1.178044080734252930e+00 4.204951226711273193e-01 -2.272646725177764893e-01 -7.021531462669372559e-01
4.141000000000000000e+03 1.516485023498535156e+01 -1.191007423400878906e+01 4.398551285266876221e-01 1.034865900874137878e-01 1.630025058984756470e-01 -5.154331773519515991e-02
4.142000000000000000e+03 1.442848777770996094e+01 -1.166715717315673828e+01 3.917291164398193359e-01 1.562948077917098999e-01 1.644071787595748901e-01 -6.257455796003341675e-02
4.143000000000000000e+03 4.716534805297851562e+01 2.809592247009277344e+01 7.242791652679443359e-01 4.596130371093750000e+00 1.596122860908508301e+00 1.936612129211425781e-01
4.144000000000000000e+03 7.069435119628906250e+00 -7.241225242614746094e+00 -1.363924145698547363e-01 3.827076032757759094e-02 -2.943649515509605408e-02 -3.267645537853240967e-01
4.145000000000000000e+03 3.500846862792968750e+01 -4.912676334381103516e+00 4.563484787940979004e-01 2.377784490585327148e+00 8.502398729324340820e-01 3.764052987098693848e-01
4.146000000000000000e+03 7.273511505126953125e+01 -2.353037834167480469e+01 -4.562909016385674477e-04 -8.802467491477727890e-04 -4.009612894151359797e-04 1.966918644029647112e-04
4.147000000000000000e+03 7.409883117675781250e+01 -2.281511306762695312e+01 -5.217892248765565455e-05 -6.863275193609297276e-04 -2.215519198216497898e-04 -2.220629394287243485e-04
4.148000000000000000e+03 6.972532653808593750e+01 -5.955796241760253906e+00 -1.259199678897857666e-01 -7.761756889522075653e-03 -4.010451957583427429e-02 -3.644145559519529343e-03
4.149000000000000000e+03 1.389681529998779297e+01 6.768342971801757812e+00 -6.471541837527183816e-06 -8.247629011748358607e-06 -4.415751391206867993e-06 7.836641998437698931e-06
4.150000000000000000e+03 4.479195785522460938e+01 9.799942970275878906e+00 1.520345926284790039e+00 5.380434513092041016e+00 2.070234060287475586e+00 2.067747592926025391e+00
4.151000000000000000e+03 4.957126235961914062e+01 4.695441246032714844e+00 -1.542245268821716309e+00 2.808793485164642334e-01 -3.784097731113433838e-01 -4.401468932628631592e-01
4.152000000000000000e+03 2.446651840209960938e+01 -6.514973640441894531e+00 -2.139689028263092041e-01 -3.955291807651519775e-01 -1.828494220972061157e-01 -5.124819278717041016e-01
4.153000000000000000e+03 2.525916099548339844e+01 -6.438328266143798828e+00 -1.824434399604797363e-01 -4.798716604709625244e-01 -1.986945271492004395e-01 -5.911294817924499512e-01
4.154000000000000000e+03 1.600976562500000000e+01 -6.799966812133789062e+00 -2.222308814525604248e-01 3.756822552531957626e-03 -6.554222106933593750e-02 -1.386451870203018188e-01
4.155000000000000000e+03 6.331362533569335938e+01 1.045520782470703125e+00 -1.136763334274291992e+00 1.852463930845260620e-01 -2.854551076889038086e-01 -4.791351556777954102e-01
4.156000000000000000e+03 4.701808929443359375e+01 1.618536376953125000e+01 1.287705540657043457e+00 4.914893627166748047e+00 1.860779762268066406e+00 1.199821114540100098e+00
4.157000000000000000e+03 4.752872085571289062e+01 1.770003318786621094e+01 1.154118418693542480e+00 4.785492420196533203e+00 1.781883239746093750e+00 1.019062519073486328e+00
4.158000000000000000e+03 2.688263320922851562e+01 -5.575198650360107422e+00 -4.169628024101257324e-01 -6.208345890045166016e-01 -3.113392293453216553e-01 -7.876589298248291016e-01
4.159000000000000000e+03 2.873392105102539062e+01 -6.103439331054687500e+00 1.341988444328308105e-01 -7.859275341033935547e-01 -1.955185979604721069e-01 -7.557696104049682617e-01
4.160000000000000000e+03 7.227516937255859375e+01 -2.427519035339355469e+01 -7.420070469379425049e-04 -6.226609111763536930e-04 -4.094003816135227680e-04 -1.853575085988268256e-04
4.161000000000000000e+03 7.414776611328125000e+01 -2.488633918762207031e+01 -1.315379049628973007e-03 -7.770016673021018505e-04 -6.277142092585563660e-04 -6.366831075865775347e-05
4.162000000000000000e+03 5.866635894775390625e+01 1.878292083740234375e+00 -1.773216128349304199e+00 9.549724310636520386e-02 -5.033156871795654297e-01 -5.102706551551818848e-01
4.163000000000000000e+03 1.116048908233642578e+01 5.653847217559814453e+00 -9.070376108866184950e-06 -1.689612190602929331e-06 -3.227996330679161474e-06 1.340039716524188407e-06
4.164000000000000000e+03 1.109952068328857422e+01 7.086470127105712891e+00 -1.195049662783276290e-05 -3.577634970497456379e-06 -4.658439593185903504e-06 1.918835778269567527e-06
4.165000000000000000e+03 1.030688858032226562e+01 -1.286438846588134766e+01 4.425378143787384033e-01 3.333754241466522217e-01 2.327739745378494263e-01 -1.165845170617103577e-01
4.166000000000000000e+03 1.219731330871582031e+01 -1.225161933898925781e+01 4.192685484886169434e-01 2.981056571006774902e-01 2.152122557163238525e-01 -9.498284012079238892e-02
4.167000000000000000e+03 1.434313869476318359e+01 -7.298281192779541016e+00 -1.669438481330871582e-01 7.641241699457168579e-02 -2.715942822396755219e-02 -1.573523730039596558e-01
4.168000000000000000e+03 1.691770172119140625e+01 -7.609264850616455078e+00 -1.123814433813095093e-01 -2.783683128654956818e-02 -4.206548258662223816e-02 -1.303776204586029053e-01
4.169000000000000000e+03 4.613525390625000000e+01 1.576076412200927734e+01 1.248929500579833984e+00 5.562161922454833984e+00 2.043327331542968750e+00 1.335749626159667969e+00
4.170000000000000000e+03 1.507974338531494141e+01 6.891473293304443359e+00 5.200952841732942034e-07 -1.209233232657425106e-05 -3.471671107035945170e-06 -1.323445246725896141e-07
4.171000000000000000e+03 4.633799743652343750e+01 1.648613929748535156e+01 1.180593848228454590e+00 5.479641914367675781e+00 1.998070716857910156e+00 1.260617971420288086e+00
4.172000000000000000e+03 4.723560714721679688e+01 1.878161430358886719e+01 1.004356265068054199e+00 5.049150943756103516e+00 1.816052079200744629e+00 9.355329275131225586e-01
4.173000000000000000e+03 1.862148666381835938e+01 -1.299165058135986328e+01 6.292363405227661133e-01 -1.477886438369750977e-01 1.444343179464340210e-01 -3.369884938001632690e-02
4.174000000000000000e+03 1.860840606689453125e+01 -6.848870754241943359e+00 -2.114316821098327637e-01 -9.329594671726226807e-02 -9.141828864812850952e-02 -1.424515694379806519e-01
4.175000000000000000e+03 6.786081695556640625e+01 -1.688642859458923340e+00 -5.282183289527893066e-01 1.085595786571502686e-01 -1.258976310491561890e-01 -1.675397455692291260e-01
4.176000000000000000e+03 1.779020881652832031e+01 -1.174340343475341797e+01 4.766663908958435059e-01 -9.215824306011199951e-02 1.153524518013000488e-01 -4.571988433599472046e-02
4.177000000000000000e+03 4.242405700683593750e+01 4.813951492309570312e+00 -1.116114258766174316e+00 7.558819770812988281e+00 1.932811617851257324e+00 1.970008969306945801e+00
4.178000000000000000e+03 3.265953445434570312e+01 -1.348067951202392578e+01 1.549781799316406250e+00 1.070071935653686523e+00 7.859560847282409668e-01 3.647974729537963867e-01
4.179000000000000000e+03 1.237033653259277344e+01 3.079842567443847656e+01 4.305670154280960560e-04 -1.323889882769435644e-04 8.945340232457965612e-05 1.195712829940021038e-04
4.180000000000000000e+03 1.109175777435302734e+01 2.929464721679687500e+01 2.419236989226192236e-04 -3.252251481171697378e-04 -2.499043512216303498e-05 -1.971497840713709593e-04
4.181000000000000000e+03 4.389492416381835938e+01 6.082904815673828125e+00 7.123925536870956421e-02 5.499432086944580078e+00 1.671201348304748535e+00 2.049667358398437500e+00
4.182000000000000000e+03 4.563618087768554688e+01 4.467550754547119141e+00 -1.435985565185546875e+00 2.311867952346801758e+00 2.627647221088409424e-01 1.622918844223022461e+00
4.183000000000000000e+03 6.684801483154296875e+01 -1.458200335502624512e+00 -6.407839655876159668e-01 1.419083774089813232e-01 -1.496626883745193481e-01 -1.751688569784164429e-01
4.184000000000000000e+03 6.644409179687500000e+01 -8.150790333747863770e-01 -7.181473374366760254e-01 1.568765789270401001e-01 -1.683812290430068970e-01 -2.401635348796844482e-01
4.185000000000000000e+03 3.505162048339843750e+01 -1.559532356262207031e+01 4.177626371383666992e-01 3.473128318786621094e+00 1.167267203330993652e+00 -1.477732807397842407e-01
4.186000000000000000e+03 3.561343765258789062e+01 -1.470066452026367188e+01 7.955430746078491211e-01 4.227525234222412109e+00 1.506920456886291504e+00 -1.931550353765487671e-02
4.187000000000000000e+03 4.499401473999023438e+01 7.314753055572509766e+00 7.662562131881713867e-01 4.320344924926757812e+00 1.525980353355407715e+00 1.845981121063232422e+00
4.188000000000000000e+03 4.531954574584960938e+01 8.137565612792968750e+00 1.154349207878112793e+00 4.283104896545410156e+00 1.631236195564270020e+00 1.773576855659484863e+00
4.189000000000000000e+03 8.466573715209960938e+00 -1.337793731689453125e+01 3.711681067943572998e-01 3.060493469238281250e-01 2.031652331352233887e-01 -1.412562429904937744e-01
4.190000000000000000e+03 7.338585376739501953e+00 -8.432294845581054688e+00 -8.824479579925537109e-02 7.304677367210388184e-02 -4.559406079351902008e-03 -3.372110426425933838e-01
4.191000000000000000e+03 1.099702644348144531e+01 2.421741676330566406e+01 -9.252240852219983935e-05 -4.007074312539771199e-05 -3.977794767706654966e-05 -2.094381125061772764e-05
4.192000000000000000e+03 1.124107360839843750e+01 2.629104423522949219e+01 1.875666202977299690e-04 -1.731717202346771955e-04 4.318472747399937361e-06 4.682603685068897903e-05
4.193000000000000000e+03 4.431422042846679688e+01 9.383416175842285156e+00 1.502827763557434082e+00 5.918126583099365234e+00 2.226286172866821289e+00 2.215334892272949219e+00
4.194000000000000000e+03 4.033565521240234375e+01 -2.267177963256835938e+01 2.618309557437896729e-01 5.779690265655517578e+00 1.812456369400024414e+00 1.630958616733551025e-01
4.195000000000000000e+03 4.101495361328125000e+01 -2.405078697204589844e+01 3.743040561676025391e-01 4.900568008422851562e+00 1.582461595535278320e+00 -2.331454455852508545e-01
4.196000000000000000e+03 3.688143157958984375e+01 -1.063792419433593750e+01 1.646641135215759277e+00 6.014942646026611328e+00 2.298475027084350586e+00 5.919978618621826172e-01
4.197000000000000000e+03 6.694819641113281250e+01 1.284608483314514160e+00 -6.808777451515197754e-01 1.283541917800903320e-01 -1.657570749521255493e-01 -4.689645469188690186e-01
4.198000000000000000e+03 6.763383388519287109e+00 -1.417754650115966797e+01 3.230338096618652344e-01 1.851578056812286377e-01 1.524574756622314453e-01 -1.713612377643585205e-01
4.199000000000000000e+03 2.366836166381835938e+01 -6.596254825592041016e+00 -2.247435003519058228e-01 -3.268838822841644287e-01 -1.654882133007049561e-01 -4.356327652931213379e-01
4.200000000000000000e+03 1.342904949188232422e+01 1.172872161865234375e+01 2.947778375528287143e-05 2.040240542555693537e-05 1.496405639045406133e-05 -4.213793545204680413e-06
4.201000000000000000e+03 1.112940025329589844e+01 6.361781120300292969e+00 9.516161298961378634e-06 2.815597099470323883e-06 3.699527496792143211e-06 -2.306026999576715752e-06
4.202000000000000000e+03 1.343766021728515625e+01 1.256372261047363281e+01 -2.672723894647788256e-05 -2.254777609778102487e-05 -1.478250396758085117e-05 7.920369853309239261e-07
4.203000000000000000e+03 1.029569816589355469e+01 8.680480003356933594e+00 6.346849659166764468e-06 5.685936685040360317e-06 3.609835857787402347e-06 -4.100993464817292988e-06
4.204000000000000000e+03 3.761925888061523438e+01 -1.385912227630615234e+01 9.390462040901184082e-01 6.952757835388183594e+00 2.367541074752807617e+00 2.055119257420301437e-03
4.205000000000000000e+03 3.691431808471679688e+01 -1.306829357147216797e+01 1.184241533279418945e+00 6.019419193267822266e+00 2.161098241806030273e+00 1.562754362821578979e-01
4.206000000000000000e+03 3.738311004638671875e+01 -3.156975984573364258e+00 -6.523091197013854980e-01 5.718523502349853516e+00 1.519864320755004883e+00 7.086285352706909180e-01
4.207000000000000000e+03 3.771131896972656250e+01 -2.548148870468139648e+00 -9.014722704887390137e-01 6.127645492553710938e+00 1.567852020263671875e+00 6.023763418197631836e-01
4.208000000000000000e+03 1.723510551452636719e+01 -9.890115737915039062e+00 2.174050509929656982e-01 -5.191106349229812622e-02 4.964819550514221191e-02 -8.834118396043777466e-02
4.209000000000000000e+03 4.616974258422851562e+01 1.424033927917480469e+01 1.427522301673889160e+00 5.265490531921386719e+00 2.007903814315795898e+00 1.485917091369628906e+00
4.210000000000000000e+03 3.944043731689453125e+01 -2.246072769165039062e+01 3.430585265159606934e-01 6.125683307647705078e+00 1.940622448921203613e+00 5.706651210784912109e-01
4.211000000000000000e+03 4.613676452636718750e+01 1.506528854370117188e+01 1.332106471061706543e+00 5.406426906585693359e+00 2.021559953689575195e+00 1.412496209144592285e+00
4.212000000000000000e+03 3.433737564086914062e+01 -1.413973045349121094e+01 1.198097348213195801e+00 2.688625335693359375e+00 1.166016817092895508e+00 1.457039415836334229e-01
4.213000000000000000e+03 2.116397476196289062e+01 -6.784476280212402344e+00 -2.262854129076004028e-01 -1.863662302494049072e-01 -1.237954869866371155e-01 -2.421631515026092529e-01
4.214000000000000000e+03 1.950774383544921875e+01 -7.506202697753906250e+00 -9.786530584096908569e-02 -1.423699557781219482e-01 -7.207057625055313110e-02 -1.593714803457260132e-01
4.215000000000000000e+03 7.293958282470703125e+01 -3.240161895751953125e+01 -1.087637990713119507e-02 8.738931501284241676e-04 -3.000746248289942741e-03 1.187252346426248550e-02
4.216000000000000000e+03 5.129502868652343750e+01 4.327473163604736328e+00 -1.986504197120666504e+00 3.548123538494110107e-01 -4.895075559616088867e-01 -7.022790908813476562e-01
4.217000000000000000e+03 5.089484786987304688e+01 6.233870506286621094e+00 -5.238716006278991699e-01 5.858218073844909668e-01 1.858505792915821075e-02 -5.275213718414306641e-01
4.218000000000000000e+03 1.700466918945312500e+01 -8.404936790466308594e+00 2.803512848913669586e-03 -3.341074287891387939e-02 -9.182169102132320404e-03 -1.164397075772285461e-01
4.219000000000000000e+03 2.168320465087890625e+01 -1.358738803863525391e+01 7.153011560440063477e-01 -2.904644012451171875e-01 1.274510174989700317e-01 3.179329633712768555e-02
4.220000000000000000e+03 6.867816925048828125e+00 3.307682418823242188e+01 -5.263612479211587925e-07 -2.558030828367918730e-04 -7.689883932471275330e-05 -3.947401710320264101e-04
4.221000000000000000e+03 4.641891479492187500e+01 2.721885108947753906e+01 7.561651468276977539e-01 5.021660327911376953e+00 1.733347654342651367e+00 9.237714856863021851e-02
4.222000000000000000e+03 1.301937961578369141e+01 9.289373397827148438e+00 3.115557319688377902e-06 2.633167969179339707e-05 8.834171239868737757e-06 -5.179043000680394471e-06
4.223000000000000000e+03 1.356673812866210938e+01 8.882958412170410156e+00 -1.158017221314366907e-05 -2.193192631239071488e-05 -1.005362992145819589e-05 7.971415470819920301e-06
4.224000000000000000e+03 9.988979339599609375e+00 2.400169754028320312e+01 -1.368890516459941864e-04 -6.236579065443947911e-05 -5.977645196253433824e-05 4.155076385359279811e-05
4.225000000000000000e+03 1.119372463226318359e+01 2.346943283081054688e+01 -1.265066675841808319e-04 -2.447911356284748763e-05 -4.529573197942227125e-05 8.071055162872653455e-06
4.226000000000000000e+03 6.007649230957031250e+01 1.528035640716552734e+00 -1.600088357925415039e+00 1.111213341355323792e-01 -4.466901123523712158e-01 -5.065211653709411621e-01
4.227000000000000000e+03 3.730321502685546875e+01 -1.743631553649902344e+01 -2.619437575340270996e-01 6.432844638824462891e+00 1.851270198822021484e+00 4.106501638889312744e-01
4.228000000000000000e+03 3.832132720947265625e+01 -1.668854522705078125e+01 2.971983253955841064e-01 7.424884796142578125e+00 2.316624879837036133e+00 2.051873803138732910e-01
4.229000000000000000e+03 6.013230323791503906e+00 3.095989418029785156e+01 1.746763300616294146e-04 1.181790648843161762e-04 8.785662066657096148e-05 -6.635033969359938055e-06
4.230000000000000000e+03 7.445345306396484375e+01 -2.337558174133300781e+01 -2.161542070098221302e-04 -6.729787564836442471e-04 -2.667398948688060045e-04 -7.440467925334814936e-06
4.231000000000000000e+03 7.149964141845703125e+01 -2.857331848144531250e+01 -9.856696240603923798e-03 1.914819469675421715e-03 -2.382562961429357529e-03 1.132157398387789726e-03
4.232000000000000000e+03 1.276301670074462891e+01 1.334138298034667969e+01 -2.490764018148183823e-05 -3.110469697276130319e-05 -1.680370223766658455e-05 -5.400846930569969118e-06
4.233000000000000000e+03 1.336453819274902344e+01 1.404668903350830078e+01 -3.754506906261667609e-05 -3.073381594731472433e-05 -2.048366513918153942e-05 1.836123738030437380e-05
4.234000000000000000e+03 6.701115608215332031e+00 1.524430179595947266e+01 8.347544280695728958e-06 2.328411574126221240e-05 9.489497642789501697e-06 1.335826982540311292e-05
4.235000000000000000e+03 1.117064952850341797e+01 1.658168411254882812e+01 8.451317989965900779e-05 2.992194458784069866e-05 3.433053643675521016e-05 -1.565633283462375402e-05
4.236000000000000000e+03 4.070483779907226562e+01 -2.879060935974121094e+01 9.974034130573272705e-02 4.015443325042724609e+00 1.234555006027221680e+00 -5.313416719436645508e-01
4.237000000000000000e+03 4.730687332153320312e+01 2.924360847473144531e+01 6.636191606521606445e-01 4.458990573883056641e+00 1.536782860755920410e+00 2.365171909332275391e-01
4.238000000000000000e+03 4.890567779541015625e+01 3.142983245849609375e+01 3.190497159957885742e-01 3.888825178146362305e+00 1.262362480163574219e+00 4.055732786655426025e-01
4.239000000000000000e+03 3.624842834472656250e+01 -1.310662364959716797e+01 1.286193728446960449e+00 5.095695495605468750e+00 1.914566755294799805e+00 1.873534470796585083e-01
4.240000000000000000e+03 3.692577362060546875e+01 -1.385524272918701172e+01 9.979726672172546387e-01 5.999286174774169922e+00 2.099177598953247070e+00 7.501044869422912598e-02
4.241000000000000000e+03 3.960032272338867188e+01 -2.471895217895507812e+01 6.068014502525329590e-01 5.259329795837402344e+00 1.759839296340942383e+00 1.235374286770820618e-01
4.242000000000000000e+03 4.082891082763671875e+01 -2.314771652221679688e+01 2.769403159618377686e-01 5.329690933227539062e+00 1.681989312171936035e+00 -1.119094714522361755e-01
4.243000000000000000e+03 6.908278942108154297e+00 3.437065124511718750e+01 1.317230780841782689e-04 2.251254481961950660e-04 1.070545549737289548e-04 -1.013472501654177904e-04
4.244000000000000000e+03 8.114658355712890625e+00 7.268202304840087891e+00 -1.174864610220538452e-05 2.244399183837231249e-06 -2.851274075510445982e-06 1.686294467617699411e-06
4.245000000000000000e+03 6.937902069091796875e+01 -5.312332153320312500e+00 -1.681532859802246094e-01 3.774227108806371689e-03 -4.931371659040451050e-02 -8.276253007352352142e-03
4.246000000000000000e+03 6.797814178466796875e+01 -4.496245384216308594e+00 -2.698560059070587158e-01 3.724924474954605103e-02 -6.978203356266021729e-02 5.796622019261121750e-03
4.247000000000000000e+03 3.062931823730468750e+01 -6.323676109313964844e+00 6.014016270637512207e-01 -5.460805296897888184e-01 1.659633778035640717e-02 -5.073807835578918457e-01
4.248000000000000000e+03 3.781532669067382812e+01 -3.684383392333984375e+00 -1.626634150743484497e-01 6.422269821166992188e+00 1.877882003784179688e+00 8.266855478286743164e-01
4.249000000000000000e+03 3.981449890136718750e+01 -2.925924301147460938e+01 4.281028732657432556e-02 4.182557106018066406e+00 1.267610192298889160e+00 -4.159775078296661377e-01
4.250000000000000000e+03 2.780620574951171875e+01 -6.296938896179199219e+00 7.348310202360153198e-02 -7.494251728057861328e-01 -2.027826160192489624e-01 -7.312510013580322266e-01
4.251000000000000000e+03 2.888023757934570312e+01 -1.294058227539062500e+01 1.300990462303161621e+00 -3.556929528713226318e-01 2.835892736911773682e-01 5.135743021965026855e-01
4.252000000000000000e+03 4.655472564697265625e+01 4.924317836761474609e+00 -9.429139494895935059e-01 1.501262664794921875e+00 1.675046235322952271e-01 1.049863338470458984e+00
4.253000000000000000e+03 4.541528701782226562e+01 6.219204425811767578e+00 1.301233619451522827e-01 3.433143138885498047e+00 1.068979978561401367e+00 1.631457328796386719e+00
4.254000000000000000e+03 2.606380844116210938e+01 -6.377616882324218750e+00 -1.309251189231872559e-01 -5.736141204833984375e-01 -2.113617807626724243e-01 -6.526653766632080078e-01
4.255000000000000000e+03 3.416542053222656250e+01 -4.828533649444580078e+00 2.873575985431671143e-01 1.436640739440917969e+00 5.171995162963867188e-01 1.532746553421020508e-01
4.256000000000000000e+03 3.514263916015625000e+01 -6.817569255828857422e+00 1.361282348632812500e+00 3.048700332641601562e+00 1.322994828224182129e+00 5.533667802810668945e-01
4.257000000000000000e+03 3.152273178100585938e+01 -6.075741291046142578e+00 6.549369096755981445e-01 -2.681455314159393311e-01 1.160374134778976440e-01 -3.791256248950958252e-01
4.258000000000000000e+03 1.515927982330322266e+01 -7.438751697540283203e+00 -1.450903862714767456e-01 4.710364714264869690e-02 -2.939602360129356384e-02 -1.443994194269180298e-01
4.259000000000000000e+03 4.032444381713867188e+01 -3.048183059692382812e+01 -1.715087890625000000e-01 3.884145736694335938e+00 1.113791108131408691e+00 -4.907274842262268066e-01
4.260000000000000000e+03 3.707026290893554688e+01 -2.197503328323364258e+00 -1.307239294052124023e+00 4.923390388488769531e+00 1.084845304489135742e+00 4.895318746566772461e-01
4.261000000000000000e+03 7.390783691406250000e+01 -7.513969898223876953e+00 -3.142502158880233765e-02 -2.067295834422111511e-02 -1.562939397990703583e-02 -4.222276038490235806e-04
4.262000000000000000e+03 2.465725326538085938e+01 -1.421957969665527344e+01 7.795404791831970215e-01 -3.189156949520111084e-01 1.381874382495880127e-01 2.341800779104232788e-01
4.263000000000000000e+03 2.285067558288574219e+01 -6.675538539886474609e+00 -2.314003705978393555e-01 -2.682757377624511719e-01 -1.499028354883193970e-01 -3.631813526153564453e-01
4.264000000000000000e+03 5.443254089355468750e+01 3.712066173553466797e+00 -1.925610661506652832e+00 3.485508561134338379e-01 -4.731179475784301758e-01 -6.332976222038269043e-01
4.265000000000000000e+03 5.487879562377929688e+01 3.262010812759399414e+00 -2.042410850524902344e+00 3.132020533084869385e-01 -5.187626481056213379e-01 -5.737518668174743652e-01
4.266000000000000000e+03 6.281623840332031250e+00 -3.673151016235351562e+01 -1.661104895174503326e-02 -1.501479148864746094e-01 -5.002769082784652710e-02 4.083532840013504028e-03
4.267000000000000000e+03 3.140646553039550781e+01 -5.400966167449951172e+00 2.160038352012634277e-01 -4.726151525974273682e-01 -7.698339968919754028e-02 -5.489827394485473633e-01
4.268000000000000000e+03 3.326181411743164062e+01 -5.743121623992919922e+00 7.653599381446838379e-01 8.326817750930786133e-01 4.794124960899353027e-01 7.569581735879182816e-03
4.269000000000000000e+03 3.677049255371093750e+01 -2.919305324554443359e+00 -9.125312566757202148e-01 4.548486232757568359e+00 1.090786576271057129e+00 5.665659308433532715e-01
4.270000000000000000e+03 4.375566101074218750e+01 3.487834930419921875e+00 -2.798400163650512695e+00 5.750583171844482422e+00 8.856549263000488281e-01 2.095142126083374023e+00
4.271000000000000000e+03 1.319608592987060547e+01 -1.208790779113769531e+01 4.194836318492889404e-01 2.471228986978530884e-01 1.999819576740264893e-01 -7.694920897483825684e-02
4.272000000000000000e+03 4.019531631469726562e+01 1.440467119216918945e+00 -3.093090772628784180e+00 9.267444610595703125e+00 1.852306246757507324e+00 3.779430091381072998e-01
4.273000000000000000e+03 4.745578384399414062e+01 5.382655143737792969e+00 -6.227299571037292480e-01 1.100041151046752930e+00 1.431933641433715820e-01 5.746204853057861328e-01
4.274000000000000000e+03 7.038998413085937500e+01 -3.021602630615234375e+01 -1.787076517939567566e-02 4.944791086018085480e-03 -3.877792274579405785e-03 3.793271491304039955e-03
4.275000000000000000e+03 6.236346435546875000e+01 2.034110784530639648e+00 -1.174865722656250000e+00 1.712540984153747559e-01 -3.010834753513336182e-01 -6.242977380752563477e-01
4.276000000000000000e+03 1.211597728729248047e+01 2.995781517028808594e+01 3.473601536825299263e-04 -3.728363080881536007e-04 -7.642847776878625154e-06 -2.265249931951984763e-04
4.277000000000000000e+03 6.744537353515625000e+01 -1.050581216812133789e+00 -6.001660227775573730e-01 1.259986162185668945e-01 -1.422502249479293823e-01 -2.218439579010009766e-01
4.278000000000000000e+03 6.770234680175781250e+01 -2.755365371704101562e+00 -4.589990377426147461e-01 9.258579462766647339e-02 -1.099239736795425415e-01 -7.808270305395126343e-02
4.279000000000000000e+03 7.370291900634765625e+01 -3.216388702392578125e+01 -8.313897065818309784e-03 -1.972458267118781805e-04 -2.553343074396252632e-03 1.145273819565773010e-02
4.280000000000000000e+03 7.107225036621093750e+01 -3.054399108886718750e+01 -1.660918630659580231e-02 4.553275182843208313e-03 -3.616773523390293121e-03 5.888050887733697891e-03
4.281000000000000000e+03 4.119562911987304688e+01 -2.494490623474121094e+01 4.146630167961120605e-01 4.531559467315673828e+00 1.483866691589355469e+00 -3.631974160671234131e-01
4.282000000000000000e+03 7.263529205322265625e+01 3.513598251342773438e+01 3.406238928437232971e-02 -1.120124101638793945e+00 -3.258185088634490967e-01 -2.305164560675621033e-02
4.283000000000000000e+03 3.941922760009765625e+01 -2.556564331054687500e+01 6.529358625411987305e-01 5.097223281860351562e+00 1.725047826766967773e+00 3.071031533181667328e-02
4.284000000000000000e+03 4.063549804687500000e+01 -2.453727531433105469e+01 4.611370861530303955e-01 4.906762123107910156e+00 1.610369801521301270e+00 -1.590511947870254517e-01
4.285000000000000000e+03 4.060214996337890625e+01 -3.441357040405273438e+01 -6.379618048667907715e-01 3.384480237960815430e+00 8.239555358886718750e-01 -3.613024950027465820e-01
4.286000000000000000e+03 3.670537948608398438e+01 -3.734954833984375000e+01 -8.565972447395324707e-01 3.153257369995117188e+00 6.889980435371398926e-01 1.296554356813430786e-01
4.287000000000000000e+03 6.838750457763671875e+01 3.819969177246093750e+01 1.534403022378683090e-02 -2.222563028335571289e-01 -6.207368150353431702e-02 1.432418171316385269e-02
4.288000000000000000e+03 9.261241912841796875e+00 -3.663289642333984375e+01 -5.401774123311042786e-02 -2.009623348712921143e-01 -7.649402320384979248e-02 3.842643648386001587e-02
4.289000000000000000e+03 1.329919147491455078e+01 -4.141608810424804688e+01 1.638833247125148773e-02 -1.904899626970291138e-01 -5.223048850893974304e-02 4.452861845493316650e-03
4.290000000000000000e+03 4.961027145385742188e+01 3.397537994384765625e+01 -3.492031618952751160e-02 3.702358484268188477e+00 1.100231528282165527e+00 4.108362495899200439e-01
4.291000000000000000e+03 7.551745605468750000e+01 3.237510681152343750e+01 2.453987114131450653e-02 -1.740337729454040527e+00 -5.147393345832824707e-01 -4.955425113439559937e-02
4.292000000000000000e+03 7.340763854980468750e+01 3.375750732421875000e+01 3.438050672411918640e-02 -1.296918272972106934e+00 -3.787613511085510254e-01 -3.784264624118804932e-02
4.293000000000000000e+03 4.686603927612304688e+01 -3.297923660278320312e+01 -1.257679164409637451e-01 1.968848466873168945e+00 5.529241561889648438e-01 -6.680434942245483398e-01
4.294000000000000000e+03 7.006756305694580078e+00 3.725808334350585938e+01 -2.453220658935606480e-04 6.972374394536018372e-04 1.355746062472462654e-04 -4.397033626446500421e-05
4.295000000000000000e+03 6.953650665283203125e+01 -3.432884216308593750e+01 -1.621768064796924591e-02 5.287689622491598129e-03 -3.278997261077165604e-03 2.731681801378726959e-02
4.296000000000000000e+03 1.238926410675048828e+01 3.674162292480468750e+01 1.432693097740411758e-04 -1.530001871287822723e-03 -4.160197568126022816e-04 -4.774567496497184038e-04
4.297000000000000000e+03 7.161191558837890625e+01 -3.703100204467773438e+01 5.760534666478633881e-03 -8.302033878862857819e-03 -7.624498684890568256e-04 2.416525781154632568e-02
4.298000000000000000e+03 6.464143276214599609e+00 -3.817301559448242188e+01 1.651833881624042988e-03 -1.424721330404281616e-01 -4.224609211087226868e-02 -2.867125207558274269e-03
4.299000000000000000e+03 3.241713333129882812e+01 -4.153343963623046875e+01 -6.563192605972290039e-01 2.278704881668090820e+00 4.867156744003295898e-01 7.181859016418457031e-02
4.300000000000000000e+03 2.024212265014648438e+01 -3.779407501220703125e+01 -5.196302011609077454e-02 1.051278878003358841e-02 -1.243506930768489838e-02 -1.749732182361185551e-03
4.301000000000000000e+03 4.839056777954101562e+01 -3.770629119873046875e+01 -2.889094650745391846e-01 1.744883775711059570e+00 4.367923140525817871e-01 -3.722893595695495605e-01
4.302000000000000000e+03 2.258346557617187500e+01 -1.442087554931640625e+01 7.309880852699279785e-01 -2.707587480545043945e-01 1.380688101053237915e-01 8.242240548133850098e-02
4.303000000000000000e+03 1.243956375122070312e+01 1.462609004974365234e+01 -2.656391643540700898e-06 5.006496576243080199e-05 1.422257264493964612e-05 -1.507420165580697358e-05
4.304000000000000000e+03 2.572119712829589844e+01 -1.355938434600830078e+01 8.696912527084350586e-01 -3.962191641330718994e-01 1.420416235923767090e-01 3.100821375846862793e-01
4.305000000000000000e+03 2.140012550354003906e+01 -1.197034835815429688e+01 6.004160046577453613e-01 -3.151998519897460938e-01 8.556483685970306396e-02 -2.561215311288833618e-02
4.306000000000000000e+03 6.704700469970703125e+01 -4.135453402996063232e-01 -6.682892441749572754e-01 1.432063728570938110e-01 -1.575248539447784424e-01 -2.887410521507263184e-01
4.307000000000000000e+03 6.512557220458984375e+01 9.458854049444198608e-02 -9.057408571243286133e-01 1.863750517368316650e-01 -2.158097326755523682e-01 -3.482211828231811523e-01
4.308000000000000000e+03 2.435067367553710938e+01 -1.278786182403564453e+01 8.111289143562316895e-01 -4.308153986930847168e-01 1.140940636396408081e-01 1.444920152425765991e-01
4.309000000000000000e+03 2.523691940307617188e+01 -7.168642044067382812e+00 6.620430201292037964e-02 -5.305359959602355957e-01 -1.392995119094848633e-01 -5.177815556526184082e-01
4.310000000000000000e+03 6.897937011718750000e+01 -4.683282852172851562e+00 -2.251627743244171143e-01 1.991144381463527679e-02 -6.157539784908294678e-02 -1.410207152366638184e-02
4.311000000000000000e+03 2.578571319580078125e+01 -1.218524360656738281e+01 9.635238647460937500e-01 -5.180184841156005859e-01 1.336516141891479492e-01 1.787314414978027344e-01
4.312000000000000000e+03 9.197176933288574219e+00 -7.086098194122314453e+00 -1.763680577278137207e-01 1.231078505516052246e-01 -1.597806252539157867e-02 -2.896198928356170654e-01
4.313000000000000000e+03 8.834652900695800781e+00 -6.537697315216064453e+00 -1.994640827178955078e-01 9.930849075317382812e-02 -3.004668094217777252e-02 -2.884770631790161133e-01
4.314000000000000000e+03 2.602433013916015625e+01 -7.115606784820556641e+00 1.406934559345245361e-01 -6.093764305114746094e-01 -1.406048983335494995e-01 -5.699080824851989746e-01
4.315000000000000000e+03 7.176747131347656250e+01 -2.996767425537109375e+01 -1.313179265707731247e-02 3.127666190266609192e-03 -3.001237753778696060e-03 4.292264580726623535e-03
4.316000000000000000e+03 8.385046958923339844e+00 2.971504402160644531e+01 2.953056246042251587e-04 -5.327335384208709002e-05 7.260967686306685209e-05 2.079385012621060014e-05
4.317000000000000000e+03 7.665304660797119141e+00 -7.022425651550292969e+00 -1.558762639760971069e-01 6.427456438541412354e-02 -2.748050913214683533e-02 -3.163465559482574463e-01
4.318000000000000000e+03 8.593973159790039062e+00 -7.453206062316894531e+00 -1.472573429346084595e-01 1.099330261349678040e-01 -1.119729690253734589e-02 -3.074339330196380615e-01
4.319000000000000000e+03 7.403491973876953125e+01 -2.131953811645507812e+01 5.074949149275198579e-05 -5.801540683023631573e-04 -1.588213781360536814e-04 -4.281078145140781999e-05
4.320000000000000000e+03 3.843138122558593750e+01 -1.944638252258300781e+01 -2.157462835311889648e-01 7.028048992156982422e+00 2.043690681457519531e+00 9.431384801864624023e-01
4.321000000000000000e+03 6.530387878417968750e+00 2.910414123535156250e+01 1.329667520622024313e-05 2.051993533314089291e-06 4.604600690072402358e-06 -2.713151625357568264e-04
4.322000000000000000e+03 1.296312046051025391e+01 -7.823360443115234375e+00 -1.231223568320274353e-01 1.356492936611175537e-01 3.758082864806056023e-03 -1.861845850944519043e-01
4.323000000000000000e+03 7.367900848388671875e+01 -2.917503547668457031e+01 -7.125036790966987610e-03 6.443511811085045338e-04 -1.944205607287585735e-03 4.063654225319623947e-03
4.324000000000000000e+03 9.680207252502441406e+00 -7.467134475708007812e+00 -1.567129790782928467e-01 1.424387097358703613e-01 -4.282279871404170990e-03 -2.822761535644531250e-01
4.325000000000000000e+03 7.156965637207031250e+01 -6.898661136627197266e+00 -6.684568524360656738e-02 -2.256746403872966766e-02 -2.682394534349441528e-02 -7.796165067702531815e-03
4.326000000000000000e+03 1.051179504394531250e+01 -7.018325328826904297e+00 -1.937922835350036621e-01 1.383972764015197754e-01 -1.661850325763225555e-02 -2.520250678062438965e-01
4.327000000000000000e+03 4.772345733642578125e+01 2.337957382202148438e+01 7.736823558807373047e-01 4.813226699829101562e+00 1.676072716712951660e+00 3.980072438716888428e-01
4.328000000000000000e+03 4.714924240112304688e+01 2.447743225097656250e+01 7.196431756019592285e-01 5.010295867919921875e+00 1.718981623649597168e+00 2.638236284255981445e-01
4.329000000000000000e+03 4.032235717773437500e+01 -2.507987594604492188e+01 5.235263705253601074e-01 4.893424034118652344e+00 1.625085234642028809e+00 -1.450196206569671631e-01
4.330000000000000000e+03 1.123551654815673828e+01 2.144722557067871094e+01 4.489353614189894870e-06 2.847806354111526161e-05 9.890225555864162743e-06 5.861386307515203953e-05
4.331000000000000000e+03 1.111883735656738281e+01 2.256219673156738281e+01 -2.645867607498075813e-05 1.731766533339396119e-04 4.401539263199083507e-05 -4.185884336038725451e-06
4.332000000000000000e+03 5.326796054840087891e+00 8.615653991699218750e+00 -9.619494676371687092e-07 7.493545581382932141e-06 1.959478822755045258e-06 -6.428479537134990096e-06
4.333000000000000000e+03 1.325050640106201172e+01 6.829172611236572266e+00 1.012426218949258327e-05 5.755427537224022672e-06 4.763906872540246695e-06 -8.271219485322944820e-06
4.334000000000000000e+03 4.157769393920898438e+01 -2.452194404602050781e+01 3.761567175388336182e-01 4.471755504608154297e+00 1.454373598098754883e+00 -4.539164304733276367e-01
4.335000000000000000e+03 7.330496215820312500e+01 2.178183746337890625e+01 1.336621046066284180e-01 -1.149054169654846191e+00 -3.046176433563232422e-01 -3.455359339714050293e-01
4.336000000000000000e+03 4.155318832397460938e+01 -2.590355873107910156e+01 3.583565950393676758e-01 4.193146228790283203e+00 1.365450739860534668e+00 -5.293276906013488770e-01
4.337000000000000000e+03 7.341193389892578125e+01 2.368237876892089844e+01 1.295341104269027710e-01 -1.211097955703735352e+00 -3.244691789150238037e-01 -2.779281437397003174e-01
4.338000000000000000e+03 7.286081695556640625e+01 2.442043495178222656e+01 1.462634354829788208e-01 -1.138389229774475098e+00 -2.976377606391906738e-01 -2.682689130306243896e-01
4.339000000000000000e+03 7.343565368652343750e+01 1.777535247802734375e+01 1.187251359224319458e-01 -1.020411014556884766e+00 -2.705057859420776367e-01 -4.746257662773132324e-01
4.340000000000000000e+03 5.771049880981445312e+01 3.993565797805786133e+00 -1.360406756401062012e+00 2.065923064947128296e-01 -3.461443483829498291e-01 -7.863879203796386719e-01
4.341000000000000000e+03 5.706113052368164062e+01 4.451280593872070312e+00 -1.279277682304382324e+00 2.356551289558410645e-01 -3.130867481231689453e-01 -8.090562820434570312e-01
4.342000000000000000e+03 6.555878162384033203e+00 2.788736152648925781e+01 1.781086466507986188e-04 1.721978478599339724e-04 1.050919454428367317e-04 -2.868003502953797579e-05
4.343000000000000000e+03 7.349327850341796875e+01 -3.125641059875488281e+01 -9.321431629359722137e-03 4.501091607380658388e-04 -2.661396749317646027e-03 8.201086893677711487e-03
4.344000000000000000e+03 7.474494171142578125e+01 -2.164147377014160156e+01 1.969943987205624580e-04 -4.395608848426491022e-04 -7.276994438143447042e-05 -1.500793005106970668e-04
4.345000000000000000e+03 7.304453277587890625e+01 -2.749455451965332031e+01 -4.932194016873836517e-03 8.974135562311857939e-05 -1.452735741622745991e-03 1.283581252209842205e-03
4.346000000000000000e+03 7.406582641601562500e+01 -2.808894729614257812e+01 -4.769135266542434692e-03 -6.070948074921034276e-05 -1.448953407816588879e-03 2.331500407308340073e-03
4.347000000000000000e+03 7.301150512695312500e+01 -5.490082740783691406e+00 -9.024565666913986206e-02 -2.549992501735687256e-02 -3.472367301583290100e-02 -3.107984736561775208e-02
4.348000000000000000e+03 7.477543640136718750e+01 -5.128250598907470703e+00 -6.088580191135406494e-02 -2.819298952817916870e-02 -2.672363817691802979e-02 -3.077225014567375183e-02
4.349000000000000000e+03 4.726827239990234375e+01 4.665637016296386719e+00 -1.247594833374023438e+00 7.843098044395446777e-01 -1.389855146408081055e-01 5.788093805313110352e-01
4.350000000000000000e+03 4.608565902709960938e+01 5.935341835021972656e+00 -9.657343477010726929e-02 2.531670331954956055e+00 7.305290699005126953e-01 1.332674145698547363e+00
4.351000000000000000e+03 3.854802703857421875e+01 -1.870193481445312500e+01 -1.475410014390945435e-01 7.279461383819580078e+00 2.139575958251953125e+00 7.149176597595214844e-01
4.352000000000000000e+03 3.958172988891601562e+01 -2.035898590087890625e+01 -2.207270450890064240e-02 6.966419219970703125e+00 2.083303928375244141e+00 6.474711894989013672e-01
4.353000000000000000e+03 7.360060882568359375e+01 -2.646617698669433594e+01 -2.722850302234292030e-03 -5.034867790527641773e-04 -9.679010836407542229e-04 6.444822065532207489e-04
4.354000000000000000e+03 7.397829437255859375e+01 2.574090385437011719e+01 1.028345450758934021e-01 -1.355209469795227051e+00 -3.757124543190002441e-01 -1.950915753841400146e-01
4.355000000000000000e+03 7.283643341064453125e+01 2.329250335693359375e+01 1.531225144863128662e-01 -1.115412235260009766e+00 -2.886869013309478760e-01 -3.075293004512786865e-01
4.356000000000000000e+03 7.396498870849609375e+01 7.274435997009277344e+00 -8.417481929063796997e-02 -4.480360448360443115e-01 -1.596632599830627441e-01 -5.253126025199890137e-01
4.357000000000000000e+03 7.406459808349609375e+01 1.094026923179626465e+00 -1.624308228492736816e-01 -1.361764520406723022e-01 -8.958218246698379517e-02 -2.798538804054260254e-01
4.358000000000000000e+03 7.396385955810546875e+01 8.034023284912109375e+00 -6.579323112964630127e-02 -4.983485937118530273e-01 -1.692425459623336792e-01 -5.423669219017028809e-01
4.359000000000000000e+03 7.369356536865234375e+01 1.354353809356689453e+01 5.400633811950683594e-02 -8.259036540985107422e-01 -2.315691858530044556e-01 -5.663796067237854004e-01
4.360000000000000000e+03 7.406054687500000000e+01 3.051829934120178223e-01 -1.604052931070327759e-01 -1.094045937061309814e-01 -8.094296604394912720e-02 -2.388457506895065308e-01
4.361000000000000000e+03 7.175215148925781250e+01 -3.158057975769042969e+01 -1.523270457983016968e-02 3.788427216932177544e-03 -3.433283185586333275e-03 1.033104583621025085e-02
4.362000000000000000e+03 7.319004058837890625e+01 -3.324503326416015625e+01 -7.560583297163248062e-03 -1.198584446683526039e-03 -2.627750393003225327e-03 1.528760697692632675e-02
4.363000000000000000e+03 7.438092803955078125e+01 -2.634522247314453125e+01 -2.477077301591634750e-03 -6.829221965745091438e-04 -9.479998843744397163e-04 5.622100434266030788e-04
4.364000000000000000e+03 7.400204467773437500e+01 -3.747079372406005859e+00 -1.055074408650398254e-01 -3.721702098846435547e-02 -4.281733557581901550e-02 -7.121888548135757446e-02
4.365000000000000000e+03 7.026821136474609375e+00 2.253855133056640625e+01 -9.999656214176866342e-08 -4.353355325292795897e-05 -1.309006438532378525e-05 4.005956361652351916e-05
4.366000000000000000e+03 7.286022949218750000e+01 -2.477494239807128906e+01 -1.365932286716997623e-03 -8.178726420737802982e-04 -6.551414844579994678e-04 1.080671790987253189e-04
4.367000000000000000e+03 7.458375549316406250e+01 1.039553451538085938e+01 -1.075428165495395660e-02 -6.967398524284362793e-01 -2.122482508420944214e-01 -5.246907472610473633e-01
4.368000000000000000e+03 7.313365173339843750e+01 9.419632911682128906e+00 -4.118521511554718018e-02 -5.350849032402038574e-01 -1.728810369968414307e-01 -6.133114099502563477e-01
4.369000000000000000e+03 7.474492645263671875e+01 3.406190156936645508e+00 -1.180816367268562317e-01 -2.558825612068176270e-01 -1.121892631053924561e-01 -3.518197238445281982e-01
4.370000000000000000e+03 7.343362426757812500e+01 3.455752372741699219e+00 -1.723823845386505127e-01 -2.179610282182693481e-01 -1.171030253171920776e-01 -4.210746288299560547e-01
4.371000000000000000e+03 7.112009429931640625e+01 -3.376641082763671875e+01 -1.378240250051021576e-02 2.799765905365347862e-03 -3.294791094958782196e-03 2.033260464668273926e-02
4.372000000000000000e+03 7.428329467773437500e+01 1.774020385742187500e+01 9.150926023721694946e-02 -1.126853585243225098e+00 -3.106033205986022949e-01 -4.349876344203948975e-01
4.373000000000000000e+03 7.260449218750000000e+01 1.692159652709960938e+01 1.380433440208435059e-01 -8.816545605659484863e-01 -2.230833619832992554e-01 -5.385072827339172363e-01
4.374000000000000000e+03 7.395515441894531250e+01 6.507648468017578125e+00 -9.917001426219940186e-02 -4.020480513572692871e-01 -1.503654122352600098e-01 -5.034538507461547852e-01
4.375000000000000000e+03 7.468321228027343750e+01 -2.948692321777343750e+00 -9.829492866992950439e-02 -4.988862574100494385e-02 -4.445506632328033447e-02 -9.071626514196395874e-02
4.376000000000000000e+03 7.341491699218750000e+01 2.108553314208984375e+01 1.263353824615478516e-01 -1.147862315177917480e+00 -3.064580857753753662e-01 -3.675849735736846924e-01
4.377000000000000000e+03 9.972661018371582031e+00 -9.237323760986328125e+00 -2.265121228992938995e-02 2.015831172466278076e-01 5.367957428097724915e-02 -2.655739188194274902e-01
4.378000000000000000e+03 6.731857776641845703e+00 2.345038223266601562e+01 -4.392140908748842776e-05 -4.872049612458795309e-05 -2.779257192742079496e-05 -4.226335659041069448e-05
4.379000000000000000e+03 6.102513313293457031e+00 1.934592056274414062e+01 1.147646435128990561e-05 4.692759466706775129e-05 1.752121897879987955e-05 4.958089448336977512e-06
4.380000000000000000e+03 7.474000549316406250e+01 4.190755367279052734e+00 -1.103365793824195862e-01 -2.979152500629425049e-01 -1.224755495786666870e-01 -3.828606307506561279e-01
4.381000000000000000e+03 7.197261810302734375e+01 -5.812798023223876953e+00 -9.982784837484359741e-02 -1.951021142303943634e-02 -3.580141812562942505e-02 -2.212985232472419739e-02
4.382000000000000000e+03 7.357113647460937500e+01 2.756553649902343750e+01 8.843851089477539062e-02 -1.322510838508605957e+00 -3.702216744422912598e-01 -1.498489379882812500e-01
4.383000000000000000e+03 7.330634307861328125e+01 1.901486039161682129e+00 -1.962742358446121216e-01 -1.453796327114105225e-01 -1.024961620569229126e-01 -3.489982485771179199e-01
4.384000000000000000e+03 7.454978179931640625e+01 1.117553138732910156e+01 2.836443018168210983e-03 -7.485859394073486328e-01 -2.237248569726943970e-01 -5.279302000999450684e-01
4.385000000000000000e+03 7.305295562744140625e+01 1.018411636352539062e+01 -2.044741064310073853e-02 -5.760544538497924805e-01 -1.789505630731582642e-01 -6.229089498519897461e-01
4.386000000000000000e+03 5.623501300811767578e+00 2.602478981018066406e+01 1.792566908989101648e-04 -7.221080159069970250e-05 3.211376679246313870e-05 9.265164408134296536e-06
4.387000000000000000e+03 7.467441558837890625e+01 -2.153994560241699219e+00 -1.097306907176971436e-01 -6.164596602320671082e-02 -5.141299590468406677e-02 -1.184360608458518982e-01
4.388000000000000000e+03 7.329439544677734375e+01 -3.830651044845581055e+00 -1.262787729501724243e-01 -3.056279942393302917e-02 -4.705246910452842712e-02 -7.276898622512817383e-02
4.389000000000000000e+03 6.374004840850830078e+00 2.280240058898925781e+01 3.198872946086339653e-05 5.569630957324989140e-05 2.630551171023398638e-05 -2.759288508968893439e-05
4.390000000000000000e+03 6.206851482391357422e+00 2.523581504821777344e+01 1.762462779879570007e-04 -9.982780466089025140e-05 2.292554381710942835e-05 -2.812036109389737248e-05
4.391000000000000000e+03 7.401181030273437500e+01 -4.846578836441040039e-01 -1.572520434856414795e-01 -8.737993240356445312e-02 -7.338958978652954102e-02 -2.025460451841354370e-01
4.392000000000000000e+03 7.394991302490234375e+01 -1.287731528282165527e+00 -1.496907621622085571e-01 -6.880975514650344849e-02 -6.555015593767166138e-02 -1.660389453172683716e-01
4.393000000000000000e+03 7.398065948486328125e+01 5.735781669616699219e+00 -1.125257089734077454e-01 -3.595572710037231445e-01 -1.416248977184295654e-01 -4.805048406124114990e-01
4.394000000000000000e+03 6.148070335388183594e+00 -6.809409618377685547e+00 -1.289298832416534424e-01 -1.143179181963205338e-02 -4.210850596427917480e-02 -3.223608136177062988e-01
4.395000000000000000e+03 4.805196285247802734e+00 -8.600012779235839844e+00 -5.398269370198249817e-02 -1.256555169820785522e-01 -5.389146506786346436e-02 -3.462476134300231934e-01
4.396000000000000000e+03 7.294012451171875000e+01 1.344715023040771484e+01 6.167832016944885254e-02 -7.500838041305541992e-01 -2.065216451883316040e-01 -6.085148453712463379e-01
4.397000000000000000e+03 7.426087951660156250e+01 1.857435798645019531e+01 9.643848240375518799e-02 -1.165039777755737305e+00 -3.205803632736206055e-01 -4.118011295795440674e-01
4.398000000000000000e+03 5.306972980499267578e+00 -1.081718063354492188e+01 2.292681112885475159e-02 -9.225993603467941284e-02 -2.079993672668933868e-02 -3.542591631412506104e-01
4.399000000000000000e+03 1.004376888275146484e+01 1.638855552673339844e+01 7.887034007580950856e-05 2.362050145165994763e-05 3.074725100304931402e-05 -3.552461294020758942e-06
4.400000000000000000e+03 5.979794025421142578e+00 1.509370231628417969e+01 1.524316814993653679e-07 -1.880071795312687755e-05 -5.594486083282390609e-06 2.340755827390239574e-06
4.401000000000000000e+03 5.317153930664062500e+00 -1.238759136199951172e+01 9.618852287530899048e-02 -8.406078070402145386e-02 3.638321533799171448e-03 -3.197386264801025391e-01
4.402000000000000000e+03 7.471675395965576172e+00 -1.274900150299072266e+01 2.253008633852005005e-01 2.010527998208999634e-01 1.279060989618301392e-01 -2.380064874887466431e-01
4.403000000000000000e+03 5.350845336914062500e+00 1.345022487640380859e+01 3.023269073310075328e-06 1.306540980294812471e-05 4.826603799301665276e-06 -6.060137820895761251e-06
4.404000000000000000e+03 6.025065422058105469e+00 1.433315753936767578e+01 5.819314537802711129e-06 1.325855646427953616e-05 5.723361027776263654e-06 -2.164591023756656796e-06
4.405000000000000000e+03 5.544499874114990234e+00 2.455760002136230469e+01 1.343667390756309032e-04 1.198484824271872640e-05 4.390547474031336606e-05 -1.721902845019940287e-05
4.406000000000000000e+03 8.052490234375000000e+00 2.436098289489746094e+01 1.204446016345173120e-04 6.809896876802667975e-05 5.656307257595472038e-05 -2.583789409982273355e-06
4.407000000000000000e+03 5.243065357208251953e+00 -1.448082351684570312e+01 2.396645396947860718e-01 -6.491755694150924683e-02 5.242409557104110718e-02 -1.997166424989700317e-01
4.408000000000000000e+03 6.298126697540283203e+00 -1.302474880218505859e+01 1.811679601669311523e-01 7.559826225042343140e-02 7.702986896038055420e-02 -2.711716592311859131e-01
4.409000000000000000e+03 9.596176147460937500e+00 -1.222468852996826172e+01 2.927996516227722168e-01 3.005496561527252197e-01 1.780047863721847534e-01 -1.829652339220046997e-01
4.410000000000000000e+03 7.270873260498046875e+01 2.745846748352050781e+01 1.227675527334213257e-01 -1.149737834930419922e+00 -3.080910742282867432e-01 -1.684789210557937622e-01
4.411000000000000000e+03 5.349699020385742188e+00 1.872437858581542969e+01 -2.615638777569984086e-06 1.320885985478525981e-05 3.177966391376685351e-06 1.730609801597893238e-05
4.412000000000000000e+03 5.481794357299804688e+00 -1.024551773071289062e+01 -6.869409116916358471e-04 -6.717287749052047729e-02 -2.035794593393802643e-02 -3.590700924396514893e-01
4.413000000000000000e+03 5.319955825805664062e+00 1.721087646484375000e+01 -9.035101697918435093e-07 -4.094284122402314097e-06 -1.499338281973905396e-06 1.638076537346933037e-05
4.414000000000000000e+03 5.911368846893310547e+00 1.578409862518310547e+01 -1.510856054665055126e-05 3.726305294549092650e-05 6.646347628702642396e-06 -1.224248808284755796e-05
4.415000000000000000e+03 6.097496509552001953e+00 -1.391895294189453125e+01 2.602443397045135498e-01 8.066077530384063721e-02 1.022715345025062561e-01 -2.168074548244476318e-01
4.416000000000000000e+03 5.388899326324462891e+00 1.263762569427490234e+01 -4.826596068596700206e-06 -8.254624844994395971e-06 -3.924366410501534119e-06 9.714406587590929121e-06
4.417000000000000000e+03 6.001264572143554688e+00 1.641434288024902344e+01 3.227295383112505078e-05 9.818620128498878330e-06 1.262747264263452962e-05 1.747712121868971735e-05
4.418000000000000000e+03 1.091362190246582031e+01 1.897751235961914062e+01 -2.090130146825686097e-05 -5.410743324318900704e-05 -2.250261968583799899e-05 9.678091373643837869e-06
4.419000000000000000e+03 8.590630531311035156e+00 9.684927940368652344e+00 -1.153587436419911683e-05 -1.317478108830982819e-05 -7.413196271954802796e-06 1.270419488719198853e-05
4.420000000000000000e+03 5.396473884582519531e+00 -7.243974685668945312e+00 -1.002061814069747925e-01 -6.169435754418373108e-02 -4.857016354799270630e-02 -3.275793194770812988e-01
4.421000000000000000e+03 6.068551063537597656e+00 1.353379821777343750e+01 -8.639425686851609498e-06 -6.323844445432769135e-06 -4.488981176109518856e-06 1.065325795934768394e-05
4.422000000000000000e+03 1.198499679565429688e+01 1.259379673004150391e+01 -8.208537110476754606e-06 -1.160853844339726493e-05 -5.945122666162205860e-06 1.850966873462311924e-05
4.423000000000000000e+03 8.125585556030273438e+00 7.949960231781005859e+00 1.252922811545431614e-05 -2.304177314726985060e-06 3.067515081056626514e-06 -6.170178039610618725e-06
4.424000000000000000e+03 7.340307617187500000e+01 2.029884529113769531e+01 1.257095932960510254e-01 -1.118231177330017090e+00 -2.977564632892608643e-01 -3.920834064483642578e-01
4.425000000000000000e+03 7.339537811279296875e+01 1.948051834106445312e+01 1.261085122823715210e-01 -1.086229443550109863e+00 -2.880362570285797119e-01 -4.208988547325134277e-01
4.426000000000000000e+03 6.190824031829833984e+00 7.236066341400146484e+00 -6.877841769892256707e-06 -1.125948165281442925e-05 -5.441197117761475965e-06 2.280762146256165579e-06
4.427000000000000000e+03 6.015704154968261719e+00 8.676095008850097656e+00 5.211059033172205091e-06 -9.756572580954525620e-06 -1.363654064334696159e-06 5.407381195254856721e-06
4.428000000000000000e+03 6.132061481475830078e+00 1.271631813049316406e+01 3.345635377627331764e-06 1.303502085647778586e-05 4.914196779282065108e-06 -9.065931408258620650e-06
4.429000000000000000e+03 6.389988422393798828e+00 2.397209358215332031e+01 1.269977656193077564e-04 6.369058246491476893e-05 5.720650369767099619e-05 4.112638998776674271e-05
4.430000000000000000e+03 7.315551757812500000e+01 2.557077217102050781e+01 1.353679001331329346e-01 -1.213420152664184570e+00 -3.234156668186187744e-01 -2.223789840936660767e-01
4.431000000000000000e+03 6.848760128021240234e+00 3.092924690246582031e+01 1.387235988659085706e-05 -1.605930010555312037e-04 -4.401619298732839525e-05 -3.584026126191020012e-04
4.432000000000000000e+03 7.377429962158203125e+01 2.661004257202148438e+01 9.123286604881286621e-02 -1.353406310081481934e+00 -3.786520361900329590e-01 -1.798670440912246704e-01
4.433000000000000000e+03 7.336986541748046875e+01 -2.113907623291015625e+01 2.619548467919230461e-04 -3.970318648498505354e-04 -4.052310760016553104e-05 1.017071626847609878e-04
4.434000000000000000e+03 6.553678512573242188e+00 -1.495538902282714844e+01 3.987522423267364502e-01 2.055667042732238770e-01 1.812956929206848145e-01 -1.054088249802589417e-01
4.435000000000000000e+03 4.027676773071289062e+01 -2.574789428710937500e+01 4.796733260154724121e-01 4.713902950286865234e+00 1.558072924613952637e+00 -2.326106876134872437e-01
4.436000000000000000e+03 4.243044662475585938e+01 -2.611846542358398438e+01 3.206123709678649902e-01 3.734495639801025391e+00 1.216532349586486816e+00 -7.030925154685974121e-01
4.437000000000000000e+03 4.567086029052734375e+01 9.973996162414550781e+00 1.498381495475769043e+00 4.565405845642089844e+00 1.819136142730712891e+00 1.722021818161010742e+00
4.438000000000000000e+03 4.660659408569335938e+01 1.113091468811035156e+01 1.573499560356140137e+00 4.122069835662841797e+00 1.708670735359191895e+00 1.463941574096679688e+00
4.439000000000000000e+03 4.773816680908203125e+01 1.949152565002441406e+01 9.834717512130737305e-01 4.799754619598388672e+00 1.734967947006225586e+00 8.198217153549194336e-01
4.440000000000000000e+03 4.670329666137695312e+01 2.032798385620117188e+01 7.812355160713195801e-01 5.369254589080810547e+00 1.845147132873535156e+00 7.405998110771179199e-01
4.441000000000000000e+03 1.357768249511718750e+01 -7.192992210388183594e+00 -1.814784407615661621e-01 1.004940494894981384e-01 -2.429531700909137726e-02 -1.735780835151672363e-01
4.442000000000000000e+03 3.820633316040039062e+01 -9.084171295166015625e+00 1.597932577133178711e+00 8.154948234558105469e+00 2.925864219665527344e+00 9.597696065902709961e-01
4.443000000000000000e+03 3.941177749633789062e+01 -2.145492744445800781e+01 1.410548835992813110e-01 6.534974098205566406e+00 2.002808570861816406e+00 6.673473715782165527e-01
4.444000000000000000e+03 4.229710769653320312e+01 -2.698845291137695312e+01 2.549817264080047607e-01 3.682551383972167969e+00 1.181259989738464355e+00 -7.090439796447753906e-01
4.445000000000000000e+03 6.132287216186523438e+01 1.287064790725708008e+00 -1.439730763435363770e+00 1.454360187053680420e-01 -3.882884383201599121e-01 -4.990414083003997803e-01
4.446000000000000000e+03 6.251053237915039062e+01 1.331469893455505371e+00 -1.238310575485229492e+00 1.735295504331588745e-01 -3.194343149662017822e-01 -5.131403803825378418e-01
4.447000000000000000e+03 2.932167434692382812e+01 -1.255577373504638672e+01 1.426469922065734863e+00 -3.156192898750305176e-01 3.332552015781402588e-01 4.673708081245422363e-01
4.448000000000000000e+03 3.705416488647460938e+01 -8.459500312805175781e+00 1.718161702156066895e+00 5.956277847290039062e+00 2.302331686019897461e+00 8.784728646278381348e-01
4.449000000000000000e+03 4.496286010742187500e+01 -3.007928085327148438e+01 3.507190942764282227e-02 2.479893922805786133e+00 7.544897198677062988e-01 -8.150585293769836426e-01
4.450000000000000000e+03 4.849674224853515625e+01 2.642201232910156250e+01 7.665153741836547852e-01 4.270584583282470703e+00 1.511129975318908691e+00 2.962481081485748291e-01
4.451000000000000000e+03 3.498885726928710938e+01 -1.481776332855224609e+01 8.349009156227111816e-01 3.417878150939941406e+00 1.275833725929260254e+00 9.520813822746276855e-03
4.452000000000000000e+03 3.627268981933593750e+01 -1.528220176696777344e+01 5.215494632720947266e-01 5.167879104614257812e+00 1.706828594207763672e+00 2.311313757672905922e-03
4.453000000000000000e+03 1.980214500427246094e+01 -1.346224784851074219e+01 6.766685247421264648e-01 -2.113692909479141235e-01 1.395897716283798218e-01 -2.340960875153541565e-02
4.454000000000000000e+03 4.491692733764648438e+01 4.738786697387695312e+00 -1.240179538726806641e+00 3.568478822708129883e+00 6.984897851943969727e-01 1.904489159584045410e+00
4.455000000000000000e+03 4.585100936889648438e+01 5.193056583404541016e+00 -7.041985392570495605e-01 2.425610303878784180e+00 5.164235234260559082e-01 1.441858291625976562e+00
4.456000000000000000e+03 7.024885177612304688e+00 -1.336064720153808594e+01 2.625347673892974854e-01 1.878731846809387207e-01 1.351223886013031006e-01 -2.192342877388000488e-01
4.457000000000000000e+03 8.623375892639160156e+00 -1.274575519561767578e+01 3.020678460597991943e-01 2.853164374828338623e-01 1.762152910232543945e-01 -1.867188066244125366e-01
4.458000000000000000e+03 1.203924751281738281e+01 1.792362403869628906e+01 8.452814654447138309e-05 5.304924707161262631e-05 4.127321881242096424e-05 -2.309464122163262800e-07
4.459000000000000000e+03 1.026861095428466797e+01 3.662375640869140625e+01 -1.842722849687561393e-04 3.241996455471962690e-04 4.197821181151084602e-05 -2.849217271432280540e-04
4.460000000000000000e+03 4.523839950561523438e+01 9.324678421020507812e+00 1.417482614517211914e+00 4.777101993560791016e+00 1.858375430107116699e+00 1.854853868484497070e+00
4.461000000000000000e+03 4.618378829956054688e+01 9.507858276367187500e+00 1.405548214912414551e+00 3.923810958862304688e+00 1.598807811737060547e+00 1.537318229675292969e+00
4.462000000000000000e+03 3.700673294067382812e+01 -6.754906177520751953e+00 1.415554642677307129e+00 5.823461532592773438e+00 2.171705007553100586e+00 9.160759449005126953e-01
4.463000000000000000e+03 4.885707092285156250e+01 4.904842376708984375e+00 -1.244984507560729980e+00 4.018898606300354004e-01 -2.529283761978149414e-01 -1.664182245731353760e-01
4.464000000000000000e+03 4.815050888061523438e+01 5.132966995239257812e+00 -9.336262941360473633e-01 6.514900922775268555e-01 -8.464087545871734619e-02 1.650805920362472534e-01
4.465000000000000000e+03 4.617357635498046875e+01 1.172679805755615234e+01 1.595216989517211914e+00 4.700237751007080078e+00 1.888636469841003418e+00 1.594212889671325684e+00
4.466000000000000000e+03 1.780882072448730469e+01 -7.595971584320068359e+00 -1.041895896196365356e-01 -6.966945528984069824e-02 -5.215771123766899109e-02 -1.290305256843566895e-01
4.467000000000000000e+03 7.038984775543212891e+00 3.575845718383789062e+01 -1.335478445980697870e-04 -2.664620405994355679e-04 -1.200029655592516065e-04 -4.550067824311554432e-04
4.468000000000000000e+03 1.187040328979492188e+01 6.289414405822753906e+00 -1.081901064026169479e-05 -2.780768227239605039e-06 -4.079933660250389948e-06 2.881960426748264581e-06
4.469000000000000000e+03 1.384659004211425781e+01 7.383749008178710938e+00 7.643560820724815130e-06 1.070527650881558657e-05 5.504651198862120509e-06 -1.324162167293252423e-05
4.470000000000000000e+03 3.559360885620117188e+01 -1.393446159362792969e+01 1.102176666259765625e+00 4.246184825897216797e+00 1.604508399963378906e+00 1.149135604500770569e-01
4.471000000000000000e+03 5.197586822509765625e+01 4.947891235351562500e+00 -1.488671422004699707e+00 4.074819982051849365e-01 -3.243568241596221924e-01 -7.243756055831909180e-01
4.472000000000000000e+03 2.311725997924804688e+01 -1.289618110656738281e+01 7.293055057525634766e-01 -3.700986802577972412e-01 1.077620461583137512e-01 7.154811918735504150e-02
4.473000000000000000e+03 4.727381134033203125e+01 1.695820808410644531e+01 1.220790266990661621e+00 4.854128837585449219e+00 1.822475671768188477e+00 1.110318541526794434e+00
4.474000000000000000e+03 9.616743087768554688e+00 6.483195781707763672e+00 7.407628345390548930e-06 2.403301095910137519e-06 2.943278786915470846e-06 -7.920233429103973322e-07
4.475000000000000000e+03 1.265203952789306641e+01 1.188277626037597656e+01 -2.582441629783716053e-05 -2.226353353762533516e-05 -1.442638495063874871e-05 3.662563585749012418e-06
4.476000000000000000e+03 7.000207519531250000e+01 -6.612884521484375000e+00 -8.881477266550064087e-02 -1.599741727113723755e-02 -3.144365921616554260e-02 -2.931039780378341675e-03
4.477000000000000000e+03 7.085547637939453125e+01 -7.072265625000000000e+00 -6.513618677854537964e-02 -2.086685784161090851e-02 -2.580091357231140137e-02 -4.181767348200082779e-03
4.478000000000000000e+03 3.257893753051757812e+01 -1.289886188507080078e+01 1.658285975456237793e+00 1.111974358558654785e+00 8.310781121253967285e-01 3.700139820575714111e-01
4.479000000000000000e+03 5.055703353881835938e+01 4.823796272277832031e+00 -1.556007146835327148e+00 3.570983707904815674e-01 -3.596726357936859131e-01 -6.162987947463989258e-01
4.480000000000000000e+03 6.607238769531250000e+00 -8.311635017395019531e+00 -8.684468269348144531e-02 1.941096968948841095e-02 -2.023011259734630585e-02 -3.476892411708831787e-01
4.481000000000000000e+03 6.004912853240966797e+00 -1.031504821777343750e+01 1.925766700878739357e-03 -1.255121268332004547e-02 -3.187633818015456200e-03 -3.537470102310180664e-01
4.482000000000000000e+03 1.602513885498046875e+01 -7.560254573822021484e+00 -1.258849203586578369e-01 7.860778830945491791e-03 -3.540724143385887146e-02 -1.332222074270248413e-01
4.483000000000000000e+03 1.585232162475585938e+01 -1.220969200134277344e+01 5.149601697921752930e-01 5.537329241633415222e-02 1.711000502109527588e-01 -3.766867890954017639e-02
4.484000000000000000e+03 4.044204330444335938e+01 -2.359042358398437500e+01 3.747023046016693115e-01 5.341814994812011719e+00 1.714955210685729980e+00 1.638839393854141235e-02
4.485000000000000000e+03 1.167574977874755859e+01 -1.166060256958007812e+01 3.145233392715454102e-01 2.889272570610046387e-01 1.810351759195327759e-01 -1.350710988044738770e-01
4.486000000000000000e+03 1.259557437896728516e+01 6.212170600891113281e+00 9.315404895460233092e-06 3.960121830459684134e-06 3.982657744927564636e-06 -5.240294285613344982e-06
4.487000000000000000e+03 1.325295448303222656e+01 7.516463279724121094e+00 -1.496957702329382300e-05 -6.513922471640398726e-06 -6.445049621106591076e-06 6.921301519469125196e-06
4.488000000000000000e+03 3.484062576293945312e+01 -5.615680694580078125e+00 8.101985454559326172e-01 2.313274860382080078e+00 9.370419979095458984e-01 4.258264601230621338e-01
4.489000000000000000e+03 3.690962982177734375e+01 -9.857632637023925781e+00 1.712681293487548828e+00 5.995239257812500000e+00 2.312376260757446289e+00 7.163725495338439941e-01
4.490000000000000000e+03 3.624221420288085938e+01 -1.230194377899169922e+01 1.447929263114929199e+00 5.086741924285888672e+00 1.960401296615600586e+00 2.980136573314666748e-01
4.491000000000000000e+03 6.192716979980468750e+01 1.203206777572631836e+00 -1.342135906219482422e+00 1.613807380199432373e-01 -3.542265295982360840e-01 -4.895608425140380859e-01
4.492000000000000000e+03 6.020022964477539062e+01 2.258174896240234375e+00 -1.445592284202575684e+00 1.414406150579452515e-01 -3.912455141544342041e-01 -6.235226392745971680e-01
4.493000000000000000e+03 3.634858703613281250e+01 -1.586948966979980469e+01 2.381726503372192383e-01 5.357508182525634766e+00 1.678704261779785156e+00 4.360707104206085205e-02
4.494000000000000000e+03 3.641770553588867188e+01 -1.692462921142578125e+01 -2.515796422958374023e-01 5.588194847106933594e+00 1.600984573364257812e+00 1.694497764110565186e-01
4.495000000000000000e+03 1.024906635284423828e+01 -1.214434337615966797e+01 3.153309524059295654e-01 3.181086182594299316e-01 1.900318711996078491e-01 -1.610393077135086060e-01
4.496000000000000000e+03 1.097584629058837891e+01 -1.201841735839843750e+01 3.381763398647308350e-01 3.120741248130798340e-01 1.950751394033432007e-01 -1.405837386846542358e-01
4.497000000000000000e+03 1.131185245513916016e+01 -7.908591747283935547e+00 -1.291834115982055664e-01 1.615997701883316040e-01 9.724908508360385895e-03 -2.359685599803924561e-01
4.498000000000000000e+03 2.800012397766113281e+01 -1.208888339996337891e+01 1.270339608192443848e+00 -4.906859099864959717e-01 2.338961213827133179e-01 3.171691298484802246e-01
4.499000000000000000e+03 4.567382431030273438e+01 6.997200965881347656e+00 5.878412127494812012e-01 3.449265718460083008e+00 1.211132049560546875e+00 1.574963808059692383e+00
4.500000000000000000e+03 4.317123031616210938e+01 4.536792755126953125e+00 -1.514488697052001953e+00 6.530571937561035156e+00 1.504824876785278320e+00 1.998258948326110840e+00
4.501000000000000000e+03 8.988102912902832031e+00 -3.892367553710937500e+01 -1.961836125701665878e-03 -1.849317103624343872e-01 -5.606806650757789612e-02 1.166309881955385208e-02
4.502000000000000000e+03 4.669480133056640625e+01 1.543312644958496094e+01 1.355872631072998047e+00 5.047877311706542969e+00 1.921124935150146484e+00 1.311363458633422852e+00
4.503000000000000000e+03 4.819445037841796875e+01 1.742489814758300781e+01 1.236179590225219727e+00 4.362470149993896484e+00 1.679594874382019043e+00 9.565578103065490723e-01
4.504000000000000000e+03 7.348948669433593750e+01 -2.566625595092773438e+01 -2.187056466937065125e-03 -7.344690966419875622e-04 -8.764576632529497147e-04 1.322389434790238738e-04
4.505000000000000000e+03 1.184153079986572266e+01 1.413976669311523438e+01 2.114939206876442768e-06 -5.804275133414193988e-05 -1.677834370639175177e-05 1.288610746996710077e-06
4.506000000000000000e+03 6.147872924804687500e+00 1.099434852600097656e+01 -8.561087270209100097e-06 3.558890000476822024e-07 -2.461559461153228767e-06 -9.829735972743947059e-06
4.507000000000000000e+03 1.602766036987304688e+01 -8.361875534057617188e+00 -1.871695369482040405e-02 1.683278568089008331e-02 -5.652502877637743950e-04 -1.248578876256942749e-01
4.508000000000000000e+03 1.861246490478515625e+01 -1.148249626159667969e+01 4.584996402263641357e-01 -1.484742015600204468e-01 9.300763905048370361e-02 -5.312727019190788269e-02
4.509000000000000000e+03 3.239693450927734375e+01 -5.881937980651855469e+00 7.117115855216979980e-01 1.594497412443161011e-01 2.613483965396881104e-01 -2.201728075742721558e-01
4.510000000000000000e+03 4.609788513183593750e+01 1.059554290771484375e+01 1.551057934761047363e+00 4.381608486175537109e+00 1.779799818992614746e+00 1.603337168693542480e+00
4.511000000000000000e+03 3.404894638061523438e+01 -1.357019710540771484e+01 1.420189857482910156e+00 2.352390289306640625e+00 1.131774067878723145e+00 1.993087232112884521e-01
4.512000000000000000e+03 1.146187686920166016e+01 2.696422195434570312e+01 1.325993798673152924e-04 1.739573599479626864e-05 4.499853457673452795e-05 5.098934252600884065e-06
4.513000000000000000e+03 9.795464515686035156e+00 2.667384338378906250e+01 2.024560671998187900e-04 -1.718035637168213725e-04 9.195753591484390199e-06 4.250072015565820038e-05
4.514000000000000000e+03 6.855753326416015625e+01 -4.048212528228759766e+00 -2.931816577911376953e-01 4.154151305556297302e-02 -7.549203932285308838e-02 -2.732991613447666168e-02
4.515000000000000000e+03 1.243698978424072266e+01 1.121286773681640625e+01 3.155103331664577127e-05 1.798854464141186327e-05 1.486187375121517107e-05 3.949658093915786594e-06
4.516000000000000000e+03 1.180194664001464844e+01 -1.052779483795166016e+01 1.556076556444168091e-01 2.501522302627563477e-01 1.217279583215713501e-01 -1.697456687688827515e-01
4.517000000000000000e+03 6.813065338134765625e+01 -3.405182838439941406e+00 -3.712918162345886230e-01 6.496078521013259888e-02 -9.189930558204650879e-02 -4.428074136376380920e-02
4.518000000000000000e+03 6.828194427490234375e+01 -2.328851699829101562e+00 -4.494252204895019531e-01 8.441761136054992676e-02 -1.095022782683372498e-01 -1.190795600414276123e-01
4.519000000000000000e+03 6.573902130126953125e+01 4.894157350063323975e-01 -8.264613151550292969e-01 1.736324280500411987e-01 -1.958486586809158325e-01 -3.949806392192840576e-01
4.520000000000000000e+03 5.705450534820556641e+00 -1.178299903869628906e+01 7.617012411355972290e-02 -3.481689840555191040e-02 1.240596827119588852e-02 -3.309292197227478027e-01
4.521000000000000000e+03 9.108162879943847656e+00 -1.289822483062744141e+01 3.639851808547973633e-01 3.179881572723388672e-01 2.045920044183731079e-01 -1.560966074466705322e-01
4.522000000000000000e+03 4.603987884521484375e+01 1.332718467712402344e+01 1.497956871986389160e+00 5.222826004028320312e+00 2.016234874725341797e+00 1.585981607437133789e+00
4.523000000000000000e+03 1.123065757751464844e+01 2.084234237670898438e+01 3.083208866883069277e-05 1.934887768584303558e-05 1.505429008830105886e-05 -4.841722693527117372e-05
4.524000000000000000e+03 5.883691406250000000e+01 2.624583482742309570e+00 -1.571152806282043457e+00 1.371678560972213745e-01 -4.301954805850982666e-01 -6.326650381088256836e-01
4.525000000000000000e+03 5.839358520507812500e+01 3.641966104507446289e+00 -1.386143922805786133e+00 1.787030696868896484e-01 -3.622322678565979004e-01 -7.592330574989318848e-01
4.526000000000000000e+03 2.445649147033691406e+01 -7.248982906341552734e+00 1.580523513257503510e-02 -4.554223418235778809e-01 -1.318851262331008911e-01 -4.608868658542633057e-01
4.527000000000000000e+03 4.597963333129882812e+01 7.744529247283935547e+00 9.068943858146667480e-01 3.424021959304809570e+00 1.299274921417236328e+00 1.480181217193603516e+00
4.528000000000000000e+03 4.576377105712890625e+01 8.851829528808593750e+00 1.344521045684814453e+00 4.104716777801513672e+00 1.634771347045898438e+00 1.649662852287292480e+00
4.529000000000000000e+03 6.016639232635498047e+00 1.016577911376953125e+01 9.045388651429675519e-06 -4.472809450817294419e-06 1.371773578284773976e-06 1.264166621695039794e-05
4.530000000000000000e+03 6.667832183837890625e+01 2.316071093082427979e-01 -7.166166901588439941e-01 1.501337289810180664e-01 -1.699448823928833008e-01 -3.587625324726104736e-01
4.531000000000000000e+03 7.228778076171875000e+01 -2.776486968994140625e+01 -6.422024220228195190e-03 5.790863069705665112e-04 -1.752881449647247791e-03 4.467772669158875942e-04
4.532000000000000000e+03 1.126634407043457031e+01 3.013413429260253906e+01 3.992984420619904995e-04 -7.821659528417512774e-05 9.632455476094037294e-05 1.049883067025803030e-04
4.533000000000000000e+03 1.879929733276367188e+01 -8.273712158203125000e+00 5.838304292410612106e-03 -1.286346167325973511e-01 -3.683889284729957581e-02 -1.356495022773742676e-01
4.534000000000000000e+03 1.867599487304687500e+01 -7.551729679107666016e+00 -1.056560426950454712e-01 -1.097865477204322815e-01 -6.463278084993362427e-02 -1.444436311721801758e-01
4.535000000000000000e+03 1.037754917144775391e+01 6.426515102386474609e+00 -9.728078111947979778e-06 -1.934892679855693132e-06 -3.498891373965307139e-06 6.797027367611008231e-07
4.536000000000000000e+03 1.274316215515136719e+01 1.024156475067138672e+01 2.904682878579478711e-05 1.040785173245240003e-05 1.183640415547415614e-05 -7.827012268535327166e-06
4.537000000000000000e+03 1.066159629821777344e+01 1.119786071777343750e+01 -2.704590588109567761e-05 -1.833003079809714109e-05 -1.361278100375784561e-05 -5.125860752741573378e-06
4.538000000000000000e+03 7.333064270019531250e+01 -2.376214790344238281e+01 -2.161485026590526104e-04 -7.815170101821422577e-04 -2.992996596731245518e-04 -5.467798473546281457e-05
4.539000000000000000e+03 4.795921707153320312e+01 2.146916770935058594e+01 8.639998435974121094e-01 4.710161685943603516e+00 1.672248363494873047e+00 5.881716609001159668e-01
4.540000000000000000e+03 7.463648223876953125e+01 -6.223355770111083984e+00 -4.604683071374893188e-02 -2.270608022809028625e-02 -2.062587253749370575e-02 -1.213314570486545563e-02
4.541000000000000000e+03 2.767175483703613281e+01 -1.288362503051757812e+01 1.140560746192932129e+00 -4.436740279197692871e-01 2.090660184621810913e-01 4.129056930541992188e-01
4.542000000000000000e+03 1.260121536254882812e+01 8.351547241210937500e+00 -1.521346348454244435e-05 -1.070577400241745636e-05 -7.775771337037440389e-06 1.912721927510574460e-06
4.543000000000000000e+03 5.953712463378906250e+01 2.420910835266113281e+00 -1.514704108238220215e+00 1.286933273077011108e-01 -4.158032238483428955e-01 -6.322907209396362305e-01
4.544000000000000000e+03 3.746895217895507812e+01 -1.644079589843750000e+01 1.196207851171493530e-01 6.584739208221435547e+00 2.011307954788208008e+00 1.810175925493240356e-01
4.545000000000000000e+03 4.737154006958007812e+01 2.732055854797363281e+01 7.651159167289733887e-01 4.644641399383544922e+00 1.622927188873291016e+00 2.002350240945816040e-01
4.546000000000000000e+03 1.150663089752197266e+01 1.023759651184082031e+01 -1.112324207497294992e-05 1.381563288305187598e-05 8.077171855802589562e-07 -1.366566812066594139e-05
4.547000000000000000e+03 3.498841094970703125e+01 -1.314696693420410156e+01 1.425646781921386719e+00 3.455525398254394531e+00 1.464351654052734375e+00 2.228752672672271729e-01
4.548000000000000000e+03 3.213341522216796875e+01 -9.297776222229003906e+00 1.784453630447387695e+00 6.659433245658874512e-01 7.351191043853759766e-01 1.881941854953765869e-01
4.549000000000000000e+03 4.087928390502929688e+01 -2.550102043151855469e+01 4.294100403785705566e-01 4.558716297149658203e+00 1.496437907218933105e+00 -3.407258689403533936e-01
4.550000000000000000e+03 3.690981674194335938e+01 -1.459161949157714844e+01 7.365290522575378418e-01 5.909050464630126953e+00 1.993673920631408691e+00 4.017928242683410645e-02
4.551000000000000000e+03 7.407347869873046875e+01 -4.494171142578125000e+00 -8.936843276023864746e-02 -3.200342878699302673e-02 -3.641155734658241272e-02 -5.048760026693344116e-02
4.552000000000000000e+03 1.164790916442871094e+01 2.766899681091308594e+01 2.798435161821544170e-04 -1.082453381968662143e-04 5.147945194039493799e-05 9.787772432900965214e-05
4.553000000000000000e+03 2.036385345458984375e+01 -1.350620079040527344e+01 6.880366802215576172e-01 -2.369783073663711548e-01 1.353175193071365356e-01 -2.524092327803373337e-03
4.554000000000000000e+03 2.221384429931640625e+01 -1.314112854003906250e+01 7.012102603912353516e-01 -3.231267929077148438e-01 1.134250387549400330e-01 4.377349093556404114e-02
4.555000000000000000e+03 3.685483932495117188e+01 -1.522430419921875000e+01 5.487504005432128906e-01 5.927434444427490234e+00 1.942855477333068848e+00 5.913855880498886108e-02
4.556000000000000000e+03 7.152028656005859375e+01 3.191591835021972656e+01 8.372195065021514893e-02 -9.510267972946166992e-01 -2.601914405822753906e-01 -6.134444847702980042e-02
4.557000000000000000e+03 5.261876296997070312e+01 3.868346929550170898e+00 -2.161585569381713867e+00 4.201509952545166016e-01 -5.224303603172302246e-01 -6.374310255050659180e-01
4.558000000000000000e+03 4.806787490844726562e+01 2.425726699829101562e+01 7.907259464263916016e-01 4.596696376800537109e+00 1.616226673126220703e+00 3.526089787483215332e-01
4.559000000000000000e+03 4.841320419311523438e+01 2.767003059387207031e+01 7.281068563461303711e-01 4.221603393554687500e+00 1.484913110733032227e+00 3.076491653919219971e-01
4.560000000000000000e+03 5.396656799316406250e+01 3.142566442489624023e+00 -2.344312191009521484e+00 3.511782288551330566e-01 -5.979402065277099609e-01 -4.886347353458404541e-01
4.561000000000000000e+03 1.039124393463134766e+01 2.306814765930175781e+01 -1.397382766299415380e-05 1.201576014864258468e-04 3.185513196513056755e-05 -4.084582906216382980e-05
4.562000000000000000e+03 1.054350948333740234e+01 2.138842773437500000e+01 3.143466165056452155e-05 2.309336196049116552e-06 1.012319989968091249e-05 -5.469879397423937917e-05
4.563000000000000000e+03 1.832859802246093750e+01 -1.206853675842285156e+01 5.239254236221313477e-01 -1.306550055742263794e-01 1.179811283946037292e-01 -4.230817034840583801e-02
4.564000000000000000e+03 1.089879512786865234e+01 3.217623519897460938e+01 2.452997432556003332e-04 -4.800890455953776836e-04 -7.043679215712472796e-05 -5.674527492374181747e-04
4.565000000000000000e+03 1.121164321899414062e+01 3.306624984741210938e+01 2.294617734150961041e-04 -1.076194967026822269e-04 3.655268301372416317e-05 1.494610914960503578e-04
4.566000000000000000e+03 1.043052101135253906e+01 2.447419357299804688e+01 1.954874169314280152e-04 4.028940747957676649e-05 7.073304732330143452e-05 -8.014726518013048917e-06
4.567000000000000000e+03 1.003484535217285156e+01 2.521638488769531250e+01 8.622781024314463139e-05 8.008998702280223370e-05 4.989533772459253669e-05 3.422371446504257619e-05
4.568000000000000000e+03 2.199922180175781250e+01 -7.486183166503906250e+00 -5.952386558055877686e-02 -2.715632319450378418e-01 -9.932612627744674683e-02 -2.786638140678405762e-01
4.569000000000000000e+03 2.114284133911132812e+01 -7.519126415252685547e+00 -7.794840633869171143e-02 -2.247415930032730103e-01 -9.080699831247329712e-02 -2.256387472152709961e-01
4.570000000000000000e+03 1.369442176818847656e+01 -1.233631420135498047e+01 4.959657192230224609e-01 2.109297960996627808e-01 2.120686620473861694e-01 -5.683967843651771545e-02
4.571000000000000000e+03 1.431155490875244141e+01 -1.245485496520996094e+01 5.221531391143798828e-01 1.829679608345031738e-01 2.115363329648971558e-01 -4.566306248307228088e-02
4.572000000000000000e+03 4.038498687744140625e+01 -2.767490005493164062e+01 2.870758175849914551e-01 4.286442279815673828e+00 1.372055411338806152e+00 -4.412234723567962646e-01
4.573000000000000000e+03 4.156023788452148438e+01 -2.840458297729492188e+01 1.366634219884872437e-01 3.779235124588012695e+00 1.174769639968872070e+00 -6.414384245872497559e-01
4.574000000000000000e+03 4.765555191040039062e+01 2.060786056518554688e+01 8.728703260421752930e-01 4.850687026977539062e+00 1.717067241668701172e+00 6.803308129310607910e-01
4.575000000000000000e+03 4.720197296142578125e+01 2.149293708801269531e+01 7.843532562255859375e-01 5.132783412933349609e+00 1.775141000747680664e+00 6.004406809806823730e-01
4.576000000000000000e+03 3.689066314697265625e+01 -3.540847063064575195e+00 -3.338937163352966309e-01 4.835290908813476562e+00 1.350419163703918457e+00 6.628141999244689941e-01
4.577000000000000000e+03 3.623704147338867188e+01 -3.823283910751342773e+00 -2.325575649738311768e-01 4.019118309020996094e+00 1.135968208312988281e+00 5.615268945693969727e-01
4.578000000000000000e+03 7.123603820800781250e+01 -2.991090774536132812e+01 -1.407139003276824951e-02 3.557167481631040573e-03 -3.154266625642776489e-03 3.705040086060762405e-03
4.579000000000000000e+03 2.977625465393066406e+01 -6.484792709350585938e+00 5.077717304229736328e-01 -6.762515306472778320e-01 -5.054393783211708069e-02 -6.095225214958190918e-01
4.580000000000000000e+03 2.903175354003906250e+01 -6.751777172088623047e+00 4.776733219623565674e-01 -7.511746883392333984e-01 -8.205040544271469116e-02 -6.181209683418273926e-01
4.581000000000000000e+03 7.263497161865234375e+01 -2.863781166076660156e+01 -7.920810952782630920e-03 1.129409531131386757e-03 -2.037420403212308884e-03 2.492147265002131462e-03
4.582000000000000000e+03 3.083830451965332031e+01 -6.982758045196533203e+00 9.636697769165039062e-01 -3.624192774295806885e-01 1.803751438856124878e-01 -3.593605160713195801e-01
4.583000000000000000e+03 6.140382003784179688e+01 2.028607606887817383e+00 -1.312966108322143555e+00 1.551354378461837769e-01 -3.473491966724395752e-01 -6.062019467353820801e-01
4.584000000000000000e+03 7.833412647247314453e+00 2.722822952270507812e+01 5.182176028029061854e-05 -4.797042493009939790e-05 1.155401150754187256e-06 -1.519613433629274368e-04
4.585000000000000000e+03 6.719576358795166016e+00 2.999518013000488281e+01 2.471941115800291300e-04 2.936863438662840053e-06 7.503929373342543840e-05 5.899121333641232923e-06
4.586000000000000000e+03 3.410227584838867188e+01 -5.647056579589843750e+00 7.968015074729919434e-01 1.628764033317565918e+00 7.276696562767028809e-01 2.245029360055923462e-01
4.587000000000000000e+03 3.649712753295898438e+01 -8.322720527648925781e+00 1.738746047019958496e+00 5.197509288787841797e+00 2.080876588821411133e+00 7.778745889663696289e-01
4.588000000000000000e+03 3.246358871459960938e+01 -6.559535503387451172e+00 1.061910390853881836e+00 3.586045503616333008e-01 4.261544644832611084e-01 -7.690892368555068970e-02
4.589000000000000000e+03 3.827027511596679688e+01 -6.271447181701660156e+00 1.303569674491882324e+00 7.735402584075927734e+00 2.711691617965698242e+00 1.070887207984924316e+00
4.590000000000000000e+03 3.759756088256835938e+01 -4.800778865814208984e+00 5.879686474800109863e-01 6.323530197143554688e+00 2.073449611663818359e+00 9.351139068603515625e-01
4.591000000000000000e+03 6.988286972045898438e+00 1.204507160186767578e+01 3.373828803887590766e-06 8.867559699865523726e-06 3.672416596600669436e-06 -5.851096830156166106e-06
4.592000000000000000e+03 7.691125869750976562e+00 9.452142715454101562e+00 -2.261113877466414124e-05 -5.302033059706445783e-06 -8.373951459361705929e-06 1.525273273728089407e-05
4.593000000000000000e+03 6.082693099975585938e+01 2.133500337600708008e+00 -1.380454659461975098e+00 1.461073309183120728e-01 -3.703041970729827881e-01 -6.190060973167419434e-01
4.594000000000000000e+03 5.540621185302734375e+01 3.732523441314697266e+00 -1.756950259208679199e+00 3.028999567031860352e-01 -4.362151026725769043e-01 -6.734945774078369141e-01
4.595000000000000000e+03 4.792473983764648438e+01 2.858290290832519531e+01 6.767818927764892578e-01 4.301157951354980469e+00 1.493381977081298828e+00 2.718271613121032715e-01
4.596000000000000000e+03 7.087164306640625000e+01 -3.133195686340332031e+01 -1.839703507721424103e-02 5.374901462346315384e-03 -3.906639758497476578e-03 9.186390787363052368e-03
4.597000000000000000e+03 7.265493011474609375e+01 -3.151784515380859375e+01 -1.136846747249364853e-02 1.953041646629571915e-03 -2.824627794325351715e-03 1.023690961301326752e-02
4.598000000000000000e+03 7.014254760742187500e+01 -3.324016952514648438e+01 -1.923980563879013062e-02 5.450335331261157990e-03 -4.136841278523206711e-03 1.956702210009098053e-02
4.599000000000000000e+03 4.328326034545898438e+01 -2.728406715393066406e+01 2.355072498321533203e-01 3.217583417892456055e+00 1.035927176475524902e+00 -8.294187784194946289e-01
4.600000000000000000e+03 1.115608692169189453e+01 3.820186233520507812e+01 -6.134593859314918518e-04 -3.144262300338596106e-04 -2.783656818792223930e-04 -1.040968927554786205e-03
4.601000000000000000e+03 7.178873443603515625e+01 2.878298950195312500e+01 1.283157318830490112e-01 -9.970158934593200684e-01 -2.606100440025329590e-01 -1.366585195064544678e-01
4.602000000000000000e+03 7.008446502685546875e+01 -3.642208099365234375e+01 1.062676543369889259e-03 -5.037708207964897156e-03 -1.192509429529309273e-03 2.786891348659992218e-02
4.603000000000000000e+03 7.190492248535156250e+01 -3.545722961425781250e+01 -4.017193336039781570e-03 -3.860673168674111366e-03 -2.363360021263360977e-03 2.139523811638355255e-02
4.604000000000000000e+03 6.909633636474609375e+01 -3.801324462890625000e+01 2.073757350444793701e-02 -1.258037146180868149e-02 2.447160659357905388e-03 3.019109554588794708e-02
4.605000000000000000e+03 7.321392822265625000e+01 -3.430697250366210938e+01 -5.849424749612808228e-03 -3.423208836466073990e-03 -2.781789982691407204e-03 1.642828620970249176e-02
4.606000000000000000e+03 8.978387832641601562e+00 2.859910774230957031e+01 2.623726031742990017e-04 -1.737530692480504513e-04 2.658585981407668442e-05 4.179995084996335208e-05
4.607000000000000000e+03 7.838702678680419922e+00 3.187900161743164062e+01 4.051330688525922596e-05 -2.571332734078168869e-04 -6.498599395854398608e-05 -3.560686018317937851e-04
4.608000000000000000e+03 6.738665008544921875e+01 -4.134976577758789062e+01 5.710824579000473022e-02 -2.184517867863178253e-02 1.057892106473445892e-02 1.087977644056081772e-02
4.609000000000000000e+03 7.238006591796875000e+01 3.295088195800781250e+01 5.873908475041389465e-02 -1.094326615333557129e+00 -3.106762468814849854e-01 -3.688674792647361755e-02
4.610000000000000000e+03 7.218314361572265625e+01 2.992562484741210938e+01 1.072907298803329468e-01 -1.077105998992919922e+00 -2.909445762634277344e-01 -9.757570177316665649e-02
4.611000000000000000e+03 1.094700717926025391e+01 3.458692932128906250e+01 2.222046459792181849e-04 -2.892471384257078171e-04 -2.011274409596808255e-05 -1.266014442080631852e-04
4.612000000000000000e+03 4.204531860351562500e+01 -3.351210784912109375e+01 -4.810968339443206787e-01 3.207000970840454102e+00 8.177712559700012207e-01 -5.203102231025695801e-01
4.613000000000000000e+03 4.312319564819335938e+01 -3.019736671447753906e+01 -5.851068347692489624e-02 3.109900236129760742e+00 9.154168367385864258e-01 -7.464720010757446289e-01
4.614000000000000000e+03 6.752898406982421875e+01 4.098283004760742188e+01 7.169899181462824345e-04 -2.401694841682910919e-02 -6.989987567067146301e-03 6.940359016880393028e-04
4.615000000000000000e+03 4.224662399291992188e+01 -2.922498130798339844e+01 3.713116049766540527e-02 3.462285995483398438e+00 1.049825072288513184e+00 -7.145816087722778320e-01
4.616000000000000000e+03 1.217716598510742188e+01 -3.848143005371093750e+01 -3.739669919013977051e-02 -1.885928809642791748e-01 -6.779687106609344482e-02 1.657843403518199921e-02
4.617000000000000000e+03 3.878939437866210938e+01 -3.499244689941406250e+01 -7.418183088302612305e-01 3.495257139205932617e+00 8.260316252708435059e-01 -1.408484280109405518e-01
4.618000000000000000e+03 1.047079086303710938e+01 -3.757702636718750000e+01 -4.325458407402038574e-02 -2.023612409830093384e-01 -7.368474453687667847e-02 3.024459630250930786e-02
4.619000000000000000e+03 4.610993576049804688e+01 -3.085701560974121094e+01 2.012134157121181488e-02 2.136703014373779297e+00 6.470473408699035645e-01 -7.792079448699951172e-01
4.620000000000000000e+03 4.476174545288085938e+01 -2.825530624389648438e+01 1.963993757963180542e-01 2.591183185577392578e+00 8.362747430801391602e-01 -8.801406621932983398e-01
4.621000000000000000e+03 4.804320907592773438e+01 3.318949127197265625e+01 5.519455671310424805e-02 4.009710311889648438e+00 1.219471454620361328e+00 3.831646442413330078e-01
4.622000000000000000e+03 4.815093994140625000e+01 2.955053138732910156e+01 5.998077988624572754e-01 4.198297500610351562e+00 1.439431548118591309e+00 3.316874206066131592e-01
4.623000000000000000e+03 1.155951118469238281e+01 3.575793838500976562e+01 9.398154361406341195e-05 -8.454697672277688980e-04 -2.254464634461328387e-04 -1.095756888389587402e-03
4.624000000000000000e+03 7.229616641998291016e+00 -4.156701278686523438e+01 2.725249342620372772e-02 -1.538453996181488037e-01 -3.797787055373191833e-02 -4.143813624978065491e-03
4.625000000000000000e+03 2.363417243957519531e+01 -1.318385410308837891e+01 7.664287686347961426e-01 -3.779781758785247803e-01 1.165351867675781250e-01 1.234916225075721741e-01
4.626000000000000000e+03 2.444304466247558594e+01 -7.999393463134765625e+00 2.262451499700546265e-01 -4.995034933090209961e-01 -8.197750151157379150e-02 -3.889770805835723877e-01
4.627000000000000000e+03 2.366436195373535156e+01 -7.335850238800048828e+00 -1.805678196251392365e-02 -3.862359225749969482e-01 -1.212878078222274780e-01 -3.977684080600738525e-01
4.628000000000000000e+03 3.328929519653320312e+01 -6.500871658325195312e+00 1.159075260162353516e+00 1.078469753265380859e+00 6.712634563446044922e-01 1.051417589187622070e-01
4.629000000000000000e+03 2.416094398498535156e+01 -1.341660118103027344e+01 7.860143780708312988e-01 -3.715817630290985107e-01 1.243297830224037170e-01 1.608287245035171509e-01
4.630000000000000000e+03 2.601562881469726562e+01 -1.278744411468505859e+01 9.462088942527770996e-01 -4.684845507144927979e-01 1.433172971010208130e-01 2.625169157981872559e-01
4.631000000000000000e+03 6.728631591796875000e+01 6.247997283935546875e-01 -6.565433740615844727e-01 1.282222121953964233e-01 -1.584963500499725342e-01 -3.962998390197753906e-01
4.632000000000000000e+03 6.601628875732421875e+01 1.575415730476379395e+00 -7.721515297889709473e-01 1.532129347324371338e-01 -1.856815814971923828e-01 -5.156036615371704102e-01
4.633000000000000000e+03 7.401850891113281250e+01 -2.998225784301757812e+01 -7.148772478103637695e-03 -1.844333564804401249e-05 -2.150164684280753136e-03 5.237118341028690338e-03
4.634000000000000000e+03 6.408831787109375000e+01 9.742767810821533203e-01 -1.025987625122070312e+00 1.900419145822525024e-01 -2.507837116718292236e-01 -4.792045652866363525e-01
4.635000000000000000e+03 6.485683441162109375e+01 7.429521679878234863e-01 -9.382675290107727051e-01 1.881889253854751587e-01 -2.250235676765441895e-01 -4.323091506958007812e-01
4.636000000000000000e+03 1.032956504821777344e+01 -7.627343177795410156e+00 -1.480565965175628662e-01 1.577509939670562744e-01 2.908321795985102654e-03 -2.621583342552185059e-01
4.637000000000000000e+03 2.038998031616210938e+01 -9.451766014099121094e+00 2.410438954830169678e-01 -2.450264692306518555e-01 -1.194774056784808636e-03 -1.402460634708404541e-01
4.638000000000000000e+03 1.332363700866699219e+01 -8.293985366821289062e+00 -6.585002690553665161e-02 1.378107219934463501e-01 2.158820815384387970e-02 -1.695723980665206909e-01
4.639000000000000000e+03 2.588799095153808594e+01 -8.550165176391601562e+00 5.620137453079223633e-01 -6.434558629989624023e-01 -2.443261817097663879e-02 -3.602416217327117920e-01
4.640000000000000000e+03 8.327204704284667969e+00 -9.187042236328125000e+00 -4.957559704780578613e-02 1.425407975912094116e-01 2.788956090807914734e-02 -3.189140856266021729e-01
4.641000000000000000e+03 1.274549961090087891e+01 -1.164509105682373047e+01 3.429445922374725342e-01 2.538083195686340332e-01 1.790258735418319702e-01 -1.028073057532310486e-01
4.642000000000000000e+03 4.722977828979492188e+01 2.213571929931640625e+01 7.515213489532470703e-01 5.107375144958496094e+00 1.757668852806091309e+00 5.318370461463928223e-01
4.643000000000000000e+03 4.896551513671875000e+01 2.392119407653808594e+01 8.553679585456848145e-01 4.204111576080322266e+00 1.517843842506408691e+00 4.188529551029205322e-01
4.644000000000000000e+03 1.888650131225585938e+01 -1.234670925140380859e+01 5.687355995178222656e-01 -1.671681553125381470e-01 1.204702407121658325e-01 -3.579165413975715637e-02
4.645000000000000000e+03 1.946692848205566406e+01 -1.257329654693603516e+01 5.934173464775085449e-01 -2.008072882890701294e-01 1.177830174565315247e-01 -3.320933133363723755e-02
4.646000000000000000e+03 4.700493621826171875e+01 6.373392105102539062e+00 1.279853731393814087e-01 1.915500164031982422e+00 6.130456924438476562e-01 9.141198992729187012e-01
4.647000000000000000e+03 4.681306838989257812e+01 1.318732070922851562e+01 1.549908161163330078e+00 4.496115684509277344e+00 1.813807129859924316e+00 1.414243578910827637e+00
4.648000000000000000e+03 4.784074401855468750e+01 1.839788055419921875e+01 1.103643894195556641e+00 4.663994312286376953e+00 1.730291485786437988e+00 9.246544241905212402e-01
4.649000000000000000e+03 1.117703819274902344e+01 2.022268867492675781e+01 -8.900495231500826776e-06 -2.489276084816083312e-05 -1.013797736959531903e-05 4.593425546772778034e-05
4.650000000000000000e+03 6.086535930633544922e+00 1.712672233581542969e+01 -1.022265041683567688e-05 2.545951429056003690e-05 4.571058980218367651e-06 -1.497600896982476115e-05
4.651000000000000000e+03 7.237137603759765625e+01 -5.071567535400390625e+00 -1.143364682793617249e-01 -2.095726691186428070e-02 -4.058812186121940613e-02 -3.794210031628608704e-02
4.652000000000000000e+03 2.349854850769042969e+01 -1.053280925750732422e+01 5.975837707519531250e-01 -4.712207019329071045e-01 3.790892288088798523e-02 -1.025713756680488586e-01
4.653000000000000000e+03 2.499021148681640625e+01 -1.263060379028320312e+01 8.759946227073669434e-01 -4.642575085163116455e-01 1.235211342573165894e-01 1.736041307449340820e-01
4.654000000000000000e+03 1.068277072906494141e+01 1.598056221008300781e+01 -7.462596113327890635e-05 -1.990836062759626657e-05 -2.836029671016149223e-05 6.128831046225968748e-06
4.655000000000000000e+03 1.131472778320312500e+01 1.558221149444580078e+01 6.235203909454867244e-05 3.458258652244694531e-05 2.908038732130080462e-05 -1.914174208650365472e-05
4.656000000000000000e+03 4.834208297729492188e+01 2.528026962280273438e+01 7.904250621795654297e-01 4.406685352325439453e+00 1.559133052825927734e+00 3.176709711551666260e-01
4.657000000000000000e+03 7.266996002197265625e+01 2.184861564636230469e+01 1.555733680725097656e-01 -1.053556561470031738e+00 -2.693949639797210693e-01 -3.619413673877716064e-01
4.658000000000000000e+03 7.230535984039306641e+00 -9.059236526489257812e+00 -5.820818245410919189e-02 7.646655291318893433e-02 5.477510858327150345e-03 -3.458530604839324951e-01
4.659000000000000000e+03 5.872657299041748047e+00 -8.933661460876464844e+00 -5.739124864339828491e-02 -3.464694693684577942e-02 -2.761145867407321930e-02 -3.564046025276184082e-01
4.660000000000000000e+03 7.231408691406250000e+01 2.529998207092285156e+01 1.690778732299804688e-01 -1.046025514602661133e+00 -2.630842924118041992e-01 -2.438853532075881958e-01
4.661000000000000000e+03 7.337254333496093750e+01 2.267795372009277344e+01 1.357194483280181885e-01 -1.172163128852844238e+00 -3.109330832958221436e-01 -3.157942295074462891e-01
4.662000000000000000e+03 3.779139328002929688e+01 -1.850537681579589844e+01 -3.607244193553924561e-01 6.861391067504882812e+00 1.950200080871582031e+00 7.780448794364929199e-01
4.663000000000000000e+03 7.265109252929687500e+01 1.603143501281738281e+01 1.199830099940299988e-01 -8.505231738090515137e-01 -2.191620469093322754e-01 -5.637454390525817871e-01
4.664000000000000000e+03 7.273316955566406250e+01 1.515973091125488281e+01 1.045969054102897644e-01 -8.202384114265441895e-01 -2.146924585103988647e-01 -5.834125280380249023e-01
4.665000000000000000e+03 7.363697052001953125e+01 1.438667106628417969e+01 7.082253694534301758e-02 -8.713044524192810059e-01 -2.401445806026458740e-01 -5.532465577125549316e-01
4.666000000000000000e+03 7.339579010009765625e+01 -2.436555290222167969e+01 -1.005258411169052124e-03 -7.032813737168908119e-04 -5.125619354657828808e-04 -1.416189625160768628e-04
4.667000000000000000e+03 7.403503417968750000e+01 -2.423495483398437500e+01 -5.409771110862493515e-04 -7.716797408647835255e-04 -3.937970614060759544e-04 4.113298564334399998e-05
4.668000000000000000e+03 7.380694580078125000e+01 -2.728320503234863281e+01 -4.086790606379508972e-03 -2.784162352327257395e-04 -1.309562008827924728e-03 9.684561518952250481e-04
4.669000000000000000e+03 7.321485900878906250e+01 8.684334754943847656e+00 -6.170561164617538452e-02 -4.957768619060516357e-01 -1.672447472810745239e-01 -5.999153852462768555e-01
4.670000000000000000e+03 7.327560424804687500e+01 7.973484992980957031e+00 -8.096837997436523438e-02 -4.556922912597656250e-01 -1.609982103109359741e-01 -5.835287570953369141e-01
4.671000000000000000e+03 7.329048919677734375e+01 -3.034736824035644531e+01 -9.188610129058361053e-03 1.242535770870745182e-03 -2.383822342380881310e-03 6.831468548625707626e-03
4.672000000000000000e+03 7.140304565429687500e+01 9.192768931388854980e-01 -3.142116963863372803e-01 -4.373500496149063110e-02 -1.073840111494064331e-01 -3.476511538028717041e-01
4.673000000000000000e+03 7.340386199951171875e+01 1.117465019226074219e+00 -1.958898603916168213e-01 -1.181669011712074280e-01 -9.421703219413757324e-02 -3.023475706577301025e-01
4.674000000000000000e+03 8.277708053588867188e+00 2.347605323791503906e+01 1.838225871324539185e-04 1.927679659274872392e-05 6.092981493566185236e-05 -3.232026210753247142e-05
4.675000000000000000e+03 7.424436187744140625e+01 -2.559874534606933594e+01 -1.595971640199422836e-03 -6.662482628598809242e-04 -6.786659942008554935e-04 4.191237676423043013e-04
4.676000000000000000e+03 6.845806884765625000e+01 -1.274221539497375488e+00 -4.962629973888397217e-01 9.063252061605453491e-02 -1.216891407966613770e-01 -2.074062228202819824e-01
4.677000000000000000e+03 7.248482513427734375e+01 8.507293701171875000e+00 -7.958005368709564209e-02 -4.429194629192352295e-01 -1.567498594522476196e-01 -6.340407729148864746e-01
4.678000000000000000e+03 2.974203300476074219e+01 -1.318057918548583984e+01 1.370834827423095703e+00 -2.354215234518051147e-01 3.406240046024322510e-01 5.692052245140075684e-01
4.679000000000000000e+03 2.849266433715820312e+01 -7.417072772979736328e+00 6.732136607170104980e-01 -7.395307421684265137e-01 -1.989512331783771515e-02 -5.336096882820129395e-01
4.680000000000000000e+03 7.357831573486328125e+01 -5.331250667572021484e+00 -8.150649070739746094e-02 -2.688877098262310028e-02 -3.251857683062553406e-02 -3.246067091822624207e-02
4.681000000000000000e+03 9.336709976196289062e+00 2.755908393859863281e+01 2.136289840564131737e-04 -1.912237930810078979e-04 6.721556928823702037e-06 9.300605597672984004e-05
4.682000000000000000e+03 6.375664234161376953e+00 2.588393020629882812e+01 -4.892155629931949079e-05 1.101693706004880369e-04 1.837434501794632524e-05 -1.065279357135295868e-04
4.683000000000000000e+03 7.395580291748046875e+01 -2.947044372558593750e+00 -1.254591643810272217e-01 -4.320483282208442688e-02 -5.059919878840446472e-02 -9.928915649652481079e-02
4.684000000000000000e+03 7.042272186279296875e+01 -5.548189163208007812e+00 -1.384488046169281006e-01 -8.204071782529354095e-03 -4.399586096405982971e-02 -1.887290179729461670e-02
4.685000000000000000e+03 7.340549468994140625e+01 3.716511428356170654e-01 -1.940837055444717407e-01 -9.527799487113952637e-02 -8.680851012468338013e-02 -2.613993287086486816e-01
4.686000000000000000e+03 7.379016876220703125e+01 1.109137535095214844e+01 1.575619564391672611e-03 -6.838393807411193848e-01 -2.046791315078735352e-01 -5.781725645065307617e-01
4.687000000000000000e+03 7.349486541748046875e+01 -2.495881652832031250e+01 -1.171021373011171818e-03 -7.833850686438381672e-04 -5.863219266757369041e-04 1.620997063582763076e-04
4.688000000000000000e+03 7.407180023193359375e+01 4.199248313903808594e+00 -1.350188106298446655e-01 -2.767671644687652588e-01 -1.235357895493507385e-01 -4.197690188884735107e-01
4.689000000000000000e+03 7.219067382812500000e+01 2.449432134628295898e+00 -2.491351366043090820e-01 -1.262979507446289062e-01 -1.126299276947975159e-01 -4.174191951751708984e-01
4.690000000000000000e+03 7.341365051269531250e+01 -4.615048885345458984e+00 -1.033590286970138550e-01 -2.881629951298236847e-02 -3.965259715914726257e-02 -4.975890740752220154e-02
4.691000000000000000e+03 7.324177551269531250e+01 5.683473110198974609e+00 -1.401800066232681274e-01 -3.210868239402770996e-01 -1.383800506591796875e-01 -5.194992423057556152e-01
4.692000000000000000e+03 7.333078765869140625e+01 2.698129653930664062e+00 -1.894219815731048584e-01 -1.759266406297683716e-01 -1.096045896410942078e-01 -3.863490819931030273e-01
4.693000000000000000e+03 7.156698226928710938e+00 2.661158370971679688e+01 -6.343008863041177392e-05 -7.806570647517219186e-05 -4.244874071446247399e-05 -2.469168393872678280e-04
4.694000000000000000e+03 7.300835418701171875e+01 1.097830963134765625e+01 2.565231407061219215e-04 -6.193727850914001465e-01 -1.857348829507827759e-01 -6.255474686622619629e-01
4.695000000000000000e+03 7.392839813232421875e+01 -2.115303516387939453e+00 -1.392421275377273560e-01 -5.560097098350524902e-02 -5.845293030142784119e-02 -1.333752274513244629e-01
4.696000000000000000e+03 7.330473327636718750e+01 -3.790738880634307861e-01 -1.918001770973205566e-01 -7.459098845720291138e-02 -7.991734892129898071e-02 -2.233647853136062622e-01
4.697000000000000000e+03 9.579662322998046875e+00 2.602687644958496094e+01 1.074805841199122369e-04 5.465670619742013514e-05 4.864118818659335375e-05 -1.875601446954533458e-05
4.698000000000000000e+03 7.403479003906250000e+01 4.964619636535644531e+00 -1.249479055404663086e-01 -3.161073625087738037e-01 -1.323165744543075562e-01 -4.504368305206298828e-01
4.699000000000000000e+03 7.343095397949218750e+01 4.183825492858886719e+00 -1.601118743419647217e-01 -2.526354193687438965e-01 -1.238241866230964661e-01 -4.498652517795562744e-01
4.700000000000000000e+03 7.095219421386718750e+01 -3.676494121551513672e+00 -2.199765890836715698e-01 2.948873676359653473e-03 -6.510831415653228760e-02 -7.894313335418701172e-02
4.701000000000000000e+03 7.324443817138671875e+01 -2.985452175140380859e+00 -1.508941054344177246e-01 -3.462277725338935852e-02 -5.565506592392921448e-02 -1.032550707459449768e-01
4.702000000000000000e+03 7.340568542480468750e+01 1.863548469543457031e+01 1.228963360190391541e-01 -1.053110480308532715e+00 -2.790642678737640381e-01 -4.475186467170715332e-01
4.703000000000000000e+03 1.337092113494873047e+01 8.215251922607421875e+00 1.441786298528313637e-05 1.570604399603325874e-05 9.037172276293858886e-06 -6.102620773162925616e-06
4.704000000000000000e+03 3.621925354003906250e+01 -1.147940731048583984e+01 1.630277395248413086e+00 5.071342468261718750e+00 2.010485887527465820e+00 4.366495609283447266e-01
4.705000000000000000e+03 7.239819335937500000e+01 -3.304325103759765625e+01 -1.153170224279165268e-02 1.229639165103435516e-03 -3.090618876740336418e-03 1.512517873197793961e-02
4.706000000000000000e+03 7.373274993896484375e+01 1.270710372924804688e+01 3.577369451522827148e-02 -7.784679532051086426e-01 -2.228082716464996338e-01 -5.727843046188354492e-01
4.707000000000000000e+03 7.298297119140625000e+01 1.261204338073730469e+01 4.225231707096099854e-02 -7.098363041877746582e-01 -2.002751976251602173e-01 -6.180925965309143066e-01
4.708000000000000000e+03 6.709898948669433594e+00 -7.673479080200195312e+00 -1.110978052020072937e-01 2.360267192125320435e-02 -2.624853886663913727e-02 -3.382600247859954834e-01
4.709000000000000000e+03 7.209494018554687500e+01 1.416336059570312500e+01 9.473503381013870239e-02 -7.062754631042480469e-01 -1.834621280431747437e-01 -6.369424462318420410e-01
4.710000000000000000e+03 7.376113128662109375e+01 1.188941764831542969e+01 1.932138577103614807e-02 -7.323132753372192383e-01 -2.138975560665130615e-01 -5.777275562286376953e-01
4.711000000000000000e+03 4.743120670318603516e+00 -1.201117134094238281e+01 6.390285491943359375e-02 -1.743721961975097656e-01 -3.314080461859703064e-02 -3.299394249916076660e-01
4.712000000000000000e+03 7.269742012023925781e+00 -1.198859405517578125e+01 1.468710601329803467e-01 1.557489633560180664e-01 9.078600257635116577e-02 -2.841123640537261963e-01
4.713000000000000000e+03 6.740512847900390625e+00 1.444498634338378906e+01 -1.620947477931622416e-05 4.704429557023104280e-06 -3.451513521213200875e-06 1.217350586557586212e-06
4.714000000000000000e+03 8.053021430969238281e+00 -1.182617855072021484e+01 1.769307106733322144e-01 2.182085514068603516e-01 1.185417771339416504e-01 -2.575206756591796875e-01
4.715000000000000000e+03 7.983586311340332031e+00 -1.099514579772949219e+01 8.329886943101882935e-02 1.805540919303894043e-01 7.915588468313217163e-02 -2.961892187595367432e-01
4.716000000000000000e+03 6.588595390319824219e+00 -1.034652996063232422e+01 1.510004885494709015e-02 4.487974569201469421e-02 1.799393817782402039e-02 -3.458595871925354004e-01
4.717000000000000000e+03 7.454377174377441406e+00 1.452512741088867188e+01 -1.911846311486442573e-06 -1.471643031436542515e-06 -1.015046791508211754e-06 -8.394840733672026545e-07
4.718000000000000000e+03 9.403873443603515625e+00 2.196193313598632812e+01 -3.454439593042479828e-06 -9.573451097821816802e-05 -2.975668394356034696e-05 9.791998309083282948e-05
4.719000000000000000e+03 5.999590396881103516e+00 1.861973762512207031e+01 6.507970738311996683e-06 -1.372090173390461132e-05 -2.163879116778844036e-06 -2.006005524890497327e-05
4.720000000000000000e+03 7.850128173828125000e+00 2.016975975036621094e+01 3.232841845601797104e-05 4.083331441506743431e-05 2.194851913372986019e-05 -2.488875725248362869e-05
4.721000000000000000e+03 6.516686439514160156e+00 1.600221061706542969e+01 -1.637838977330829948e-05 -4.998401345801539719e-05 -1.990872078749816865e-05 5.836246145918266848e-06
4.722000000000000000e+03 5.981191158294677734e+00 9.407159805297851562e+00 -1.009156039799563587e-05 1.280769356526434422e-05 8.148398364937747829e-07 -8.750635970500297844e-06
4.723000000000000000e+03 7.671215534210205078e+00 1.201607894897460938e+01 3.557563104550354183e-05 1.123468427977059036e-05 1.404309477948118001e-05 -2.559133281465619802e-05
4.724000000000000000e+03 6.200207710266113281e+00 1.186823558807373047e+01 -2.430754648230504245e-06 -4.758629984280560166e-06 -2.156815526177524589e-06 1.012559096125187352e-05
4.725000000000000000e+03 7.407624721527099609e+00 1.376734256744384766e+01 -1.387092288496205583e-05 9.800663974601775408e-06 -1.221077582158613950e-06 4.424348844622727484e-06
4.726000000000000000e+03 7.409820079803466797e+00 7.318775177001953125e+00 1.310575225943466648e-05 -4.849030574405333027e-06 2.477016550983535126e-06 1.085752387552929576e-06
4.727000000000000000e+03 6.247826099395751953e+00 2.463461875915527344e+01 -4.178986273473128676e-05 -6.987673259573057294e-05 -3.349997859913855791e-05 -4.954580799676477909e-05
4.728000000000000000e+03 7.286035919189453125e+01 2.649880027770996094e+01 1.214759796857833862e-01 -1.161846041679382324e+00 -3.121110200881958008e-01 -1.916700452566146851e-01
4.729000000000000000e+03 7.163290405273437500e+01 2.757102394104003906e+01 1.463215351104736328e-01 -9.693277478218078613e-01 -2.469018697738647461e-01 -1.697227507829666138e-01
4.730000000000000000e+03 7.470977783203125000e+00 8.732356071472167969e+00 1.971674646483734250e-05 -5.036856691731372848e-06 4.403967068355996162e-06 -1.070935286406893283e-05
4.731000000000000000e+03 8.265068054199218750e+00 9.214461326599121094e+00 1.166093989013461396e-05 1.147294005932053551e-05 6.940163984836544842e-06 -1.548388900118879974e-05
4.732000000000000000e+03 6.874319553375244141e+00 1.080598449707031250e+01 2.133698399120476097e-05 9.934517038345802575e-06 9.381449672218877822e-06 -1.009337324830994476e-06
4.733000000000000000e+03 7.256220245361328125e+01 1.781792640686035156e+01 1.473810225725173950e-01 -9.122933745384216309e-01 -2.294737100601196289e-01 -5.092555880546569824e-01
4.734000000000000000e+03 7.167440032958984375e+01 1.787238693237304688e+01 1.806953102350234985e-01 -8.073779344558715820e-01 -1.880047768354415894e-01 -5.382515788078308105e-01
4.735000000000000000e+03 2.107395553588867188e+01 -8.304128646850585938e+00 7.334648817777633667e-02 -2.586676478385925293e-01 -5.559634789824485779e-02 -2.072337120771408081e-01
4.736000000000000000e+03 7.292868041992187500e+01 2.231729888916015625e+01 1.506219357252120972e-01 -1.109300494194030762e+00 -2.876035571098327637e-01 -3.365285396575927734e-01
4.737000000000000000e+03 7.250184631347656250e+01 1.958600807189941406e+01 1.573443412780761719e-01 -9.672793745994567871e-01 -2.429805099964141846e-01 -4.476794302463531494e-01
4.738000000000000000e+03 2.127792167663574219e+01 -1.290221405029296875e+01 6.597511172294616699e-01 -2.914372086524963379e-01 1.104941740632057190e-01 5.499887280166149139e-03
4.739000000000000000e+03 7.307283020019531250e+01 -6.142407894134521484e+00 -7.043647021055221558e-02 -2.384316176176071167e-02 -2.828389033675193787e-02 -1.741259917616844177e-02
4.740000000000000000e+03 1.082528591156005859e+01 1.500026988983154297e+01 -5.102701470605097711e-05 -3.098047454841434956e-05 -2.460224641254171729e-05 1.196379071188857779e-05
4.741000000000000000e+03 1.137395763397216797e+01 1.459457588195800781e+01 2.582953857199754566e-05 5.119913839735090733e-05 2.310860327270347625e-05 -2.123188460245728493e-05
4.742000000000000000e+03 7.067488861083984375e+01 -6.325714111328125000e+00 -9.518060833215713501e-02 -1.707298308610916138e-02 -3.367607668042182922e-02 -8.547731675207614899e-03
4.743000000000000000e+03 1.792883110046386719e+01 -8.343844413757324219e+00 6.664927583187818527e-03 -8.344883471727371216e-02 -2.303517051041126251e-02 -1.268707364797592163e-01
4.744000000000000000e+03 4.964168548583984375e+01 2.637465476989746094e+01 7.809121012687683105e-01 3.862411260604858398e+00 1.392997026443481445e+00 3.648015558719635010e-01
4.745000000000000000e+03 3.621901321411132812e+01 -1.065302181243896484e+01 1.732940435409545898e+00 5.048839092254638672e+00 2.034533977508544922e+00 5.449392795562744141e-01
4.746000000000000000e+03 3.464142227172851562e+01 -1.226597499847412109e+01 1.678235173225402832e+00 3.052106142044067383e+00 1.419102430343627930e+00 3.216822147369384766e-01
4.747000000000000000e+03 3.105513191223144531e+01 -1.404273986816406250e+01 1.323469042778015137e+00 5.888378992676734924e-02 4.147058427333831787e-01 6.055127382278442383e-01
4.748000000000000000e+03 2.880216217041015625e+01 -8.522386550903320312e+00 1.081703782081604004e+00 -6.420171260833740234e-01 1.319059878587722778e-01 -2.827821373939514160e-01
4.749000000000000000e+03 2.848145103454589844e+01 -1.234225559234619141e+01 1.327978134155273438e+00 -4.384498000144958496e-01 2.668584883213043213e-01 3.895225226879119873e-01
4.750000000000000000e+03 3.315883255004882812e+01 -1.339694595336914062e+01 1.524126887321472168e+00 1.571860909461975098e+00 9.287962913513183594e-01 3.030683100223541260e-01
4.751000000000000000e+03 9.556917190551757812e+00 -8.082922935485839844e+00 -1.125794351100921631e-01 1.577916294336318970e-01 1.356365717947483063e-02 -2.874275445938110352e-01
4.752000000000000000e+03 7.296997070312500000e+00 -7.782634735107421875e+00 -1.154709681868553162e-01 6.024593487381935120e-02 -1.656751148402690887e-02 -3.345568478107452393e-01
4.753000000000000000e+03 4.128433990478515625e+01 -2.760908889770507812e+01 2.506408393383026123e-01 3.997540950775146484e+00 1.274454474449157715e+00 -5.781685113906860352e-01
4.754000000000000000e+03 9.477091789245605469e+00 3.049791908264160156e+01 3.191159921698272228e-04 -3.924854536307975650e-05 8.396023622481152415e-05 4.433234153111698106e-06
4.755000000000000000e+03 4.788885116577148438e+01 1.092735958099365234e+01 1.508090496063232422e+00 3.147651672363281250e+00 1.396722674369812012e+00 1.042585849761962891e+00
4.756000000000000000e+03 1.010305976867675781e+01 -1.147174453735351562e+01 2.181568294763565063e-01 2.882303595542907715e-01 1.519161611795425415e-01 -2.012346833944320679e-01
4.757000000000000000e+03 6.069192409515380859e+00 -7.464439392089843750e+00 -1.101104915142059326e-01 -1.883578486740589142e-02 -3.868388384580612183e-02 -3.362443745136260986e-01
4.758000000000000000e+03 4.723355865478515625e+01 1.125604820251464844e+01 1.574380755424499512e+00 3.709490060806274414e+00 1.585161209106445312e+00 1.270472884178161621e+00
4.759000000000000000e+03 3.696360015869140625e+01 -9.124908447265625000e+00 1.761053323745727539e+00 5.966455459594726562e+00 2.318252563476562500e+00 8.129090070724487305e-01
4.760000000000000000e+03 3.675795364379882812e+01 -7.580935955047607422e+00 1.639217615127563477e+00 5.543367862701416016e+00 2.154775619506835938e+00 8.696865439414978027e-01
4.761000000000000000e+03 7.904372692108154297e+00 2.292197227478027344e+01 -4.791244282387197018e-05 -2.627377216413151473e-05 -2.225586467829998583e-05 5.348924605641514063e-05
4.762000000000000000e+03 1.600431823730468750e+01 -1.162218666076660156e+01 4.335188865661621094e-01 4.010111838579177856e-02 1.420859992504119873e-01 -4.917477071285247803e-02
4.763000000000000000e+03 1.427978706359863281e+01 -7.972065448760986328e+00 -9.342168271541595459e-02 9.119460731744766235e-02 -6.681222002953290939e-04 -1.536352336406707764e-01
4.764000000000000000e+03 2.695828628540039062e+01 -1.240099048614501953e+01 1.090998291969299316e+00 -5.089204311370849609e-01 1.746233850717544556e-01 2.867451310157775879e-01
4.765000000000000000e+03 2.647601890563964844e+01 -1.260124778747558594e+01 1.038662791252136230e+00 -4.987925887107849121e-01 1.619610637426376343e-01 2.829600870609283447e-01
4.766000000000000000e+03 1.018528270721435547e+01 2.937430191040039062e+01 3.463574394118040800e-04 -1.488304519625671674e-06 1.034607412293553352e-04 7.839805039111524820e-05
4.767000000000000000e+03 1.088631439208984375e+01 2.781598091125488281e+01 1.185574874398298562e-04 -7.281043508555740118e-05 1.372411406919127330e-05 -4.062414154759608209e-05
4.768000000000000000e+03 5.233646011352539062e+01 4.508177280426025391e+00 -1.770701289176940918e+00 3.969775736331939697e-01 -4.121170938014984131e-01 -7.287675142288208008e-01
4.769000000000000000e+03 9.299880027770996094e+00 3.395929718017578125e+01 2.135455870302394032e-04 2.848175608960445970e-05 7.260820711962878704e-05 -2.001366083277389407e-04
4.770000000000000000e+03 5.813470458984375000e+01 4.739562988281250000e+00 -1.095552206039428711e+00 2.133452296257019043e-01 -2.646620869636535645e-01 -8.636706471443176270e-01
4.771000000000000000e+03 5.110369873046875000e+01 4.971293926239013672e+00 -1.414995670318603516e+00 3.821476101875305176e-01 -3.098544180393218994e-01 -6.657294034957885742e-01
4.772000000000000000e+03 5.152396011352539062e+01 6.534303188323974609e+00 -4.604516923427581787e-01 5.759124159812927246e-01 3.463821858167648315e-02 -5.826609134674072266e-01
4.773000000000000000e+03 1.100640487670898438e+01 1.753115463256835938e+01 7.441158959409222007e-05 4.354896373115479946e-05 3.538816599757410586e-05 -8.892592632037121803e-06
4.774000000000000000e+03 1.025433731079101562e+01 1.908788108825683594e+01 2.286012932017911226e-05 6.589103577425703406e-05 2.662535007402766496e-05 -4.827787961403373629e-06
4.775000000000000000e+03 4.850301361083984375e+01 1.045346164703369141e+01 1.394360065460205078e+00 2.611091375350952148e+00 1.201635479927062988e+00 7.900717258453369141e-01
4.776000000000000000e+03 4.969244003295898438e+01 5.437032699584960938e+00 -9.453955292701721191e-01 4.725809097290039062e-01 -1.418443918228149414e-01 -3.598950505256652832e-01
4.777000000000000000e+03 8.096570014953613281e+00 -8.392374038696289062e+00 -9.254043549299240112e-02 1.094169244170188904e-01 5.062947515398263931e-03 -3.252616524696350098e-01
4.778000000000000000e+03 4.752254867553710938e+01 1.024293231964111328e+01 1.457090497016906738e+00 3.187025070190429688e+00 1.393234729766845703e+00 1.132661581039428711e+00
4.779000000000000000e+03 1.584256649017333984e+01 -1.064562797546386719e+01 2.808018624782562256e-01 4.665362834930419922e-02 9.823665022850036621e-02 -7.554686814546585083e-02
4.780000000000000000e+03 2.283954620361328125e+01 -8.170170783996582031e+00 1.324814856052398682e-01 -3.693026304244995117e-01 -7.104633748531341553e-02 -2.929108142852783203e-01
4.781000000000000000e+03 3.494238662719726562e+01 -1.398839855194091797e+01 1.165448188781738281e+00 3.374591112136840820e+00 1.362011790275573730e+00 1.005458012223243713e-01
4.782000000000000000e+03 1.183975028991699219e+01 7.009231567382812500e+00 1.125933886214625090e-05 4.338961844041477889e-06 4.679490302805788815e-06 -3.798618536166031845e-06
4.783000000000000000e+03 7.364562988281250000e+01 -2.244733047485351562e+01 -6.244565884117037058e-05 -6.544368225149810314e-04 -2.150647342205047607e-04 1.310758088948205113e-04
4.784000000000000000e+03 4.838872528076171875e+01 1.808199882507324219e+01 1.174964189529418945e+00 4.337396621704101562e+00 1.653708219528198242e+00 8.968563675880432129e-01
4.785000000000000000e+03 4.828278732299804688e+01 1.905291938781738281e+01 1.076712489128112793e+00 4.476071834564208984e+00 1.665835261344909668e+00 8.274914622306823730e-01
4.786000000000000000e+03 2.365756607055664062e+01 -8.873960494995117188e+00 3.558061122894287109e-01 -4.691760241985321045e-01 -3.401097282767295837e-02 -2.698758244514465332e-01
4.787000000000000000e+03 4.760053253173828125e+01 1.300776100158691406e+01 1.550984859466552734e+00 3.889312028884887695e+00 1.632089138031005859e+00 1.191853523254394531e+00
4.788000000000000000e+03 4.745131301879882812e+01 1.209209442138671875e+01 1.569391012191772461e+00 3.785874605178833008e+00 1.606579661369323730e+00 1.237122178077697754e+00
4.789000000000000000e+03 1.050582790374755859e+01 2.648405265808105469e+01 9.759732347447425127e-05 6.174237205414101481e-05 4.780191011377610266e-05 -2.208118348789867014e-05
4.790000000000000000e+03 3.494606781005859375e+01 -6.203390121459960938e+00 1.155889749526977539e+00 2.696616649627685547e+00 1.155751943588256836e+00 4.875621199607849121e-01
4.791000000000000000e+03 8.079829216003417969e+00 -1.257304954528808594e+01 2.383289635181427002e-01 2.465305775403976440e-01 1.454578638076782227e-01 -2.208597213029861450e-01
4.792000000000000000e+03 8.992351531982421875e+00 -1.234488677978515625e+01 2.659810483455657959e-01 2.887764573097229004e-01 1.664272546768188477e-01 -1.942647099494934082e-01
4.793000000000000000e+03 4.662685012817382812e+01 7.395248889923095703e+00 7.119176983833312988e-01 2.708664894104003906e+00 1.026174783706665039e+00 1.196259737014770508e+00
4.794000000000000000e+03 3.413552093505859375e+01 -6.400588989257812500e+00 1.190637707710266113e+00 1.829127550125122070e+00 9.059295654296875000e-01 2.856458723545074463e-01
4.795000000000000000e+03 6.095906066894531250e+01 2.867806673049926758e+00 -1.229488372802734375e+00 1.613580882549285889e-01 -3.204391002655029297e-01 -7.185269594192504883e-01
4.796000000000000000e+03 6.378766250610351562e+01 1.467136502265930176e+00 -1.040306687355041504e+00 1.857518404722213745e-01 -2.563664615154266357e-01 -5.340746045112609863e-01
4.797000000000000000e+03 2.684323692321777344e+01 -7.106810569763183594e+00 2.538805305957794189e-01 -6.895790100097656250e-01 -1.307095438241958618e-01 -5.990642905235290527e-01
4.798000000000000000e+03 7.259181213378906250e+01 -3.868282318115234375e+00 -1.482087522745132446e-01 -2.304522320628166199e-02 -5.137619376182556152e-02 -7.259078323841094971e-02
4.799000000000000000e+03 3.441567611694335938e+01 -1.294740676879882812e+01 1.544147849082946777e+00 2.827362537384033203e+00 1.311453104019165039e+00 2.686414420604705811e-01
4.800000000000000000e+03 4.634203338623046875e+01 6.677057743072509766e+00 3.666744232177734375e-01 2.614041090011596680e+00 8.942146897315979004e-01 1.248455524444580078e+00
4.801000000000000000e+03 4.676779174804687500e+01 5.651887893676757812e+00 -3.446166515350341797e-01 1.726685881614685059e+00 4.146207571029663086e-01 9.632204771041870117e-01
4.802000000000000000e+03 4.899532699584960938e+01 5.607748985290527344e+00 -6.977992653846740723e-01 6.344726681709289551e-01 -1.899798214435577393e-02 -1.101558282971382141e-01
4.803000000000000000e+03 4.766162490844726562e+01 6.090900421142578125e+00 -1.279228329658508301e-01 1.341686725616455078e+00 3.641291856765747070e-01 5.550571084022521973e-01
4.804000000000000000e+03 4.787696075439453125e+01 2.226452255249023438e+01 8.226155638694763184e-01 4.730048656463623047e+00 1.665799260139465332e+00 5.255947113037109375e-01
4.805000000000000000e+03 1.509835433959960938e+01 -8.162419319152832031e+00 -5.576544255018234253e-02 5.993324518203735352e-02 1.250340719707310200e-03 -1.355297863483428955e-01
4.806000000000000000e+03 1.529081153869628906e+01 -9.179573059082031250e+00 6.108790263533592224e-02 5.702255293726921082e-02 3.543313592672348022e-02 -1.206790804862976074e-01
4.807000000000000000e+03 6.738354206085205078e+00 8.756474494934082031e+00 -1.327277277596294880e-05 1.287218037759885192e-05 -1.201778587756052730e-07 -3.322456052501365775e-07
4.808000000000000000e+03 1.035547065734863281e+01 7.145947456359863281e+00 9.257154488295782357e-06 3.723643658304354176e-06 3.894239398505305871e-06 -1.862124349827354308e-06
4.809000000000000000e+03 4.670905685424804688e+01 9.082624435424804688e+00 1.309968233108520508e+00 3.294336795806884766e+00 1.381291508674621582e+00 1.311919331550598145e+00
4.810000000000000000e+03 6.190867996215820312e+01 1.934905052185058594e+00 -1.258652806282043457e+00 1.651910692453384399e-01 -3.280385434627532959e-01 -6.094711422920227051e-01
4.811000000000000000e+03 1.209166908264160156e+01 1.060863494873046875e+01 -2.281251545355189592e-05 -1.754942968545947224e-05 -1.210858317790552974e-05 -6.994671366555849090e-07
4.812000000000000000e+03 1.201180934906005859e+01 1.197661304473876953e+01 1.584203710081055760e-05 2.218968074885196984e-05 1.140951553679769859e-05 -1.298381084779975936e-05
4.813000000000000000e+03 7.371800231933593750e+01 -6.033213138580322266e+00 -6.300441175699234009e-02 -2.570404112339019775e-02 -2.661253511905670166e-02 -1.852721162140369415e-02
4.814000000000000000e+03 1.421537017822265625e+01 -8.576828002929687500e+00 -2.626236341893672943e-02 1.045776903629302979e-01 2.349459752440452576e-02 -1.455354392528533936e-01
4.815000000000000000e+03 1.357421016693115234e+01 -7.817472457885742188e+00 -1.164686009287834167e-01 1.156635582447052002e-01 -2.415138442302122712e-04 -1.677028834819793701e-01
4.816000000000000000e+03 7.113751983642578125e+01 -2.831799507141113281e+00 -2.465991973876953125e-01 2.284576883539557457e-03 -7.329438626766204834e-02 -1.171459630131721497e-01
4.817000000000000000e+03 7.149784088134765625e+01 2.057808637619018555e+00 -3.015429079532623291e-01 -7.925840467214584351e-02 -1.142403930425643921e-01 -4.178552925586700439e-01
4.818000000000000000e+03 1.256350421905517578e+01 7.634413719177246094e+00 1.297177277592709288e-05 7.334608199016656727e-06 6.091914201533654705e-06 -3.945509888581000268e-06
4.819000000000000000e+03 5.644224548339843750e+01 4.998620033264160156e+00 -1.172144055366516113e+00 2.705674767494201660e-01 -2.704730033874511719e-01 -8.364199399948120117e-01
4.820000000000000000e+03 5.593762969970703125e+01 4.315961837768554688e+00 -1.463256239891052246e+00 2.843865156173706055e-01 -3.536609113216400146e-01 -7.583261728286743164e-01
4.821000000000000000e+03 1.248103904724121094e+01 9.614933967590332031e+00 -3.254757757531479001e-05 -3.455452997513930313e-06 -1.080090896721230820e-05 9.660271871325676329e-08
4.822000000000000000e+03 3.624944305419921875e+01 -1.388344573974609375e+01 1.032698035240173340e+00 5.077839374542236328e+00 1.833161115646362305e+00 8.588963747024536133e-02
4.823000000000000000e+03 3.509934997558593750e+01 -1.240161323547363281e+01 1.613561272621154785e+00 3.682398319244384766e+00 1.588787913322448730e+00 3.188420236110687256e-01
4.824000000000000000e+03 3.362736129760742188e+01 -1.312705612182617188e+01 1.587490200996398926e+00 1.971474170684814453e+00 1.067689299583435059e+00 2.956182360649108887e-01
4.825000000000000000e+03 1.052490043640136719e+01 2.194358253479003906e+01 2.355433753109537065e-05 5.321827120496891439e-05 2.303178189322352409e-05 2.979086821142118424e-05
4.826000000000000000e+03 1.956804847717285156e+01 -8.171756744384765625e+00 1.625233911909162998e-03 -1.624313592910766602e-01 -4.824183881282806396e-02 -1.549019515514373779e-01
4.827000000000000000e+03 5.907069778442382812e+01 3.361487388610839844e+00 -1.380440235137939453e+00 1.601503342390060425e-01 -3.660869598388671875e-01 -7.446024417877197266e-01
4.828000000000000000e+03 5.753546905517578125e+01 5.185871601104736328e+00 -1.019392967224121094e+00 2.425713390111923218e-01 -2.330464720726013184e-01 -8.853428959846496582e-01
4.829000000000000000e+03 6.189417362213134766e+00 2.838471984863281250e+01 1.551095192553475499e-04 -2.113927475875243545e-04 -1.688497104623820633e-05 -5.161841909284703434e-05
4.830000000000000000e+03 6.034349441528320312e+01 2.966800689697265625e+00 -1.294789433479309082e+00 1.524271517992019653e-01 -3.427087068557739258e-01 -7.270749807357788086e-01
4.831000000000000000e+03 5.352783584594726562e+01 3.728475809097290039e+00 -2.092557191848754883e+00 4.019018411636352539e-01 -5.071966052055358887e-01 -6.319274902343750000e-01
4.832000000000000000e+03 5.488479614257812500e+01 4.278148174285888672e+00 -1.586161971092224121e+00 3.485025763511657715e-01 -3.712978065013885498e-01 -7.381140589714050293e-01
4.833000000000000000e+03 1.107914352416992188e+01 8.605814933776855469e+00 -1.504808915342437103e-05 -1.205336229759268463e-05 -8.130436071951407939e-06 5.836756372445961460e-06
4.834000000000000000e+03 6.744408607482910156e+00 8.018858909606933594e+00 1.010285723168635741e-05 -9.470444638282060623e-06 1.897237638104343205e-07 2.096766280601514154e-07
4.835000000000000000e+03 7.334929656982421875e+01 -2.834719848632812500e+01 -6.239823997020721436e-03 3.326564037706702948e-04 -1.772150280885398388e-03 1.883541932329535484e-03
4.836000000000000000e+03 1.253250885009765625e+01 9.012355804443359375e+00 2.287789357069414109e-05 -6.827518973295809701e-06 4.815112333744764328e-06 2.344215090488432907e-06
4.837000000000000000e+03 3.791314315795898438e+01 -5.589460849761962891e+00 1.054800748825073242e+00 7.071054935455322266e+00 2.437756776809692383e+00 1.030491113662719727e+00
4.838000000000000000e+03 1.037577056884765625e+01 3.031024932861328125e+01 1.895088353194296360e-04 -3.129602700937539339e-04 -3.703542824951000512e-05 -2.694693102966994047e-04
4.839000000000000000e+03 6.303736495971679688e+01 1.666203618049621582e+00 -1.119259357452392578e+00 1.774257123470306396e-01 -2.825500965118408203e-01 -5.615851283073425293e-01
4.840000000000000000e+03 1.174569892883300781e+01 1.319874668121337891e+01 4.574475497065577656e-06 -2.862681867554783821e-05 -7.215702680696267635e-06 -1.394108312524622306e-05
4.841000000000000000e+03 1.134143733978271484e+01 1.368098735809326172e+01 1.255159077118150890e-06 5.428328222478739917e-05 1.666153184487484396e-05 -7.884454134909901768e-06
4.842000000000000000e+03 1.198153305053710938e+01 -7.871118545532226562e+00 -1.281202435493469238e-01 1.603785902261734009e-01 9.677506051957607269e-03 -2.118825018405914307e-01
4.843000000000000000e+03 3.625246429443359375e+01 -1.461558628082275391e+01 7.582635879516601562e-01 5.142439365386962891e+00 1.770210981369018555e+00 3.947110846638679504e-02
4.844000000000000000e+03 4.134980010986328125e+01 -2.991487312316894531e+01 -7.627676427364349365e-02 3.660951852798461914e+00 1.075402498245239258e+00 -6.123418807983398438e-01
4.845000000000000000e+03 4.706526947021484375e+01 2.083961868286132812e+01 7.930790185928344727e-01 5.172828197479248047e+00 1.789772152900695801e+00 6.632965803146362305e-01
4.846000000000000000e+03 4.830754470825195312e+01 2.027214050292968750e+01 9.670112133026123047e-01 4.507025718688964844e+00 1.642211198806762695e+00 7.046079635620117188e-01
4.847000000000000000e+03 4.133955764770507812e+01 -2.673790550231933594e+01 3.355664908885955811e-01 4.115349292755126953e+00 1.335274696350097656e+00 -5.429723262786865234e-01
4.848000000000000000e+03 3.110776519775390625e+01 -7.566597938537597656e+00 1.255446791648864746e+00 -1.546872407197952271e-01 3.302278518676757812e-01 -1.925038099288940430e-01
4.849000000000000000e+03 3.215385437011718750e+01 -1.344812583923339844e+01 1.544149279594421387e+00 7.108480334281921387e-01 6.764991879463195801e-01 4.226343333721160889e-01
4.850000000000000000e+03 9.161809921264648438e+00 2.024958038330078125e+01 3.897531132679432631e-05 -4.193369477434316650e-06 1.043458269123220816e-05 -6.599655898753553629e-05
4.851000000000000000e+03 1.107228946685791016e+01 1.959796714782714844e+01 3.077838482568040490e-05 5.505765511770732701e-05 2.575081089162267745e-05 -2.509792830096557736e-05
4.852000000000000000e+03 7.235030364990234375e+01 -2.976513481140136719e+01 -1.075742579996585846e-02 2.195372479036450386e-03 -2.568615833297371864e-03 4.745134152472019196e-03
4.853000000000000000e+03 9.629899024963378906e+00 2.291875076293945312e+01 -2.146426595572847873e-05 -1.017295217025093734e-04 -3.695813575177453458e-05 5.270700057735666633e-06
4.854000000000000000e+03 1.045653533935546875e+01 2.248807334899902344e+01 6.338091770885512233e-05 -1.295491238124668598e-04 -1.985046219488140196e-05 5.446033901534974575e-05
4.855000000000000000e+03 7.509531974792480469e+00 1.044752788543701172e+01 -2.275935366924386472e-05 -1.195737058878876269e-05 -1.041501764120766893e-05 9.228542694472707808e-06
4.856000000000000000e+03 1.146072006225585938e+01 1.186911201477050781e+01 5.238479843683307990e-06 -1.532528403913602233e-05 -3.026040985787403770e-06 7.517558969993842766e-06
4.857000000000000000e+03 2.343124961853027344e+01 -1.221509170532226562e+01 7.388999462127685547e-01 -4.254482984542846680e-01 9.403550624847412109e-02 5.289732292294502258e-02
4.858000000000000000e+03 6.210246562957763672e+00 2.205357551574707031e+01 7.094779721228405833e-05 -2.155839138140436262e-05 1.481682193116284907e-05 4.080748567503178492e-06
4.859000000000000000e+03 1.368817138671875000e+01 -9.566497802734375000e+00 9.028417617082595825e-02 1.531902998685836792e-01 7.304234057664871216e-02 -1.348091214895248413e-01
4.860000000000000000e+03 3.657966613769531250e+01 -4.456862926483154297e+00 2.971796095371246338e-01 4.609506607055664062e+00 1.472005844116210938e+00 6.694347262382507324e-01
4.861000000000000000e+03 3.562301254272460938e+01 -5.205546855926513672e+00 7.111452817916870117e-01 3.518221378326416016e+00 1.268810033798217773e+00 5.360096693038940430e-01
4.862000000000000000e+03 4.911856460571289062e+01 6.280490398406982422e+00 -2.387885600328445435e-01 8.520208001136779785e-01 1.839696615934371948e-01 -2.613424882292747498e-02
4.863000000000000000e+03 3.598249053955078125e+01 -4.766044616699218750e+00 4.950945079326629639e-01 3.920971870422363281e+00 1.324819922447204590e+00 5.648226141929626465e-01
4.864000000000000000e+03 3.053841590881347656e+01 -7.849443435668945312e+00 1.247333645820617676e+00 -3.218433856964111328e-01 2.776470780372619629e-01 -2.353617399930953979e-01
4.865000000000000000e+03 2.959535408020019531e+01 -7.111143112182617188e+00 8.062382340431213379e-01 -6.404480934143066406e-01 4.973703995347023010e-02 -4.826164543628692627e-01
4.866000000000000000e+03 9.978712081909179688e+00 3.249494171142578125e+01 2.354054449824616313e-04 1.713575693429447711e-05 7.576235657325014472e-05 -3.813682633335702121e-05
4.867000000000000000e+03 8.779947280883789062e+00 3.171480751037597656e+01 2.688634558580815792e-04 3.274821938248351216e-05 9.048350329976528883e-05 -7.804009510437026620e-05
4.868000000000000000e+03 6.686074256896972656e+00 2.073946189880371094e+01 5.560484714806079865e-05 1.193183634313754737e-04 5.247696390142664313e-05 6.019238298904383555e-06
4.869000000000000000e+03 6.292731761932373047e+00 2.010066604614257812e+01 2.492495923434034921e-06 -6.821390707045793533e-05 -1.971642450371291488e-05 1.368651101074647158e-05
4.870000000000000000e+03 3.165049362182617188e+01 -6.723022937774658203e+00 9.617869853973388672e-01 -7.039493322372436523e-02 2.674176096916198730e-01 -2.300106137990951538e-01
4.871000000000000000e+03 2.671033668518066406e+01 -7.867401123046875000e+00 5.058988332748413086e-01 -6.947892308235168457e-01 -5.666711553931236267e-02 -4.786070287227630615e-01
4.872000000000000000e+03 2.656325340270996094e+01 -8.555027961730957031e+00 6.840203404426574707e-01 -6.849335432052612305e-01 -2.739549090620130301e-04 -3.521580696105957031e-01
4.873000000000000000e+03 1.034971141815185547e+01 3.353213500976562500e+01 2.502132556401193142e-04 -4.707050393335521221e-04 -6.614753510802984238e-05 -5.200416198931634426e-04
4.874000000000000000e+03 8.585175514221191406e+00 3.068747329711914062e+01 1.100713488995097578e-04 -2.449680760037153959e-04 -4.046902176924049854e-05 -3.168871917296200991e-04
4.875000000000000000e+03 7.202682971954345703e+00 2.727996444702148438e+01 3.004932077601552010e-04 -6.703744293190538883e-05 7.003673090366646647e-05 4.452345456229522824e-05
4.876000000000000000e+03 7.124110412597656250e+01 3.427332687377929688e+01 4.481151327490806580e-02 -8.651198744773864746e-01 -2.460925132036209106e-01 -2.396055683493614197e-02
4.877000000000000000e+03 4.945214462280273438e+01 2.966752815246582031e+01 5.674424767494201660e-01 3.820425033569335938e+00 1.316360235214233398e+00 3.809788823127746582e-01
4.878000000000000000e+03 8.998243331909179688e+00 3.280283355712890625e+01 1.131657190853729844e-04 -3.820878628175705671e-04 -8.067664748523384333e-05 -3.983929927926510572e-04
4.879000000000000000e+03 4.417311096191406250e+01 -3.123641014099121094e+01 -1.112848743796348572e-01 2.726786136627197266e+00 7.846503853797912598e-01 -7.487905025482177734e-01
4.880000000000000000e+03 8.898680686950683594e+00 3.908289337158203125e+01 -3.484276821836829185e-04 9.291431051678955555e-04 1.742146268952637911e-04 -5.667829827871173620e-05
4.881000000000000000e+03 7.127084350585937500e+01 -3.896535110473632812e+01 1.823986880481243134e-02 -1.639752462506294250e-02 5.527033354155719280e-04 1.863625273108482361e-02
4.882000000000000000e+03 4.969071578979492188e+01 2.792569732666015625e+01 6.992588639259338379e-01 3.813990354537963867e+00 1.353974699974060059e+00 3.668050169944763184e-01
4.883000000000000000e+03 1.395234966278076172e+01 3.720091247558593750e+01 3.286574210505932570e-04 3.121830741292797029e-05 1.079627181752584875e-04 2.413760375929996371e-04
4.884000000000000000e+03 6.934088134765625000e+01 3.153138542175292969e+01 1.380987167358398438e-01 -5.424028635025024414e-01 -1.212912425398826599e-01 -5.199905857443809509e-02
4.885000000000000000e+03 8.079825401306152344e+00 -3.759893035888671875e+01 -1.659869588911533356e-02 -1.830763667821884155e-01 -5.990251898765563965e-02 1.403076574206352234e-02
4.886000000000000000e+03 7.067230987548828125e+01 -3.500867843627929688e+01 -6.529632024466991425e-03 -1.044994452968239784e-03 -2.272387966513633728e-03 2.538323774933815002e-02
4.887000000000000000e+03 8.386471748352050781e+00 3.561302566528320312e+01 8.920493564801290631e-05 2.667613152880221605e-04 1.067898701876401901e-04 -1.916452310979366302e-04
4.888000000000000000e+03 7.958624839782714844e+00 3.301064682006835938e+01 2.357116754865273833e-04 1.131625613197684288e-04 1.046622710418887436e-04 -1.451142161386087537e-04
4.889000000000000000e+03 6.992399597167968750e+01 3.597290802001953125e+01 5.074207857251167297e-02 -5.732342004776000977e-01 -1.567476391792297363e-01 2.267916314303874969e-02
4.890000000000000000e+03 7.086709594726562500e+01 3.067199707031250000e+01 1.151246577501296997e-01 -8.119055032730102539e-01 -2.090342640876770020e-01 -8.462401479482650757e-02
4.891000000000000000e+03 1.268644332885742188e+01 4.139307785034179688e+01 -9.222068474628031254e-04 2.919344988185912371e-04 -1.890817075036466122e-04 -7.099134963937103748e-04
4.892000000000000000e+03 4.812915420532226562e+01 3.630307769775390625e+01 -3.748686313629150391e-01 3.929135322570800781e+00 1.066280007362365723e+00 3.104769289493560791e-01
4.893000000000000000e+03 2.389821434020996094e+01 -1.250630283355712891e+01 7.695549130439758301e-01 -4.218318462371826172e-01 1.043169274926185608e-01 8.947213739156723022e-02
4.894000000000000000e+03 2.476535797119140625e+01 -1.301744461059570312e+01 8.352309465408325195e-01 -4.213438332080841064e-01 1.241661235690116882e-01 1.810078620910644531e-01
4.895000000000000000e+03 3.734514617919921875e+01 -7.911600112915039062e+00 1.658244609832763672e+00 6.439962863922119141e+00 2.429462194442749023e+00 9.490193128585815430e-01
4.896000000000000000e+03 2.444423294067382812e+01 -8.782490730285644531e+00 4.103281497955322266e-01 -5.311642289161682129e-01 -3.625082969665527344e-02 -3.040173053741455078e-01
4.897000000000000000e+03 6.765824794769287109e+00 7.366138458251953125e+00 -1.522961974842473865e-05 1.183274434879422188e-05 -1.019062437990214676e-06 -8.420341259807173628e-07
4.898000000000000000e+03 2.645682525634765625e+01 -9.115979194641113281e+00 7.698348164558410645e-01 -6.673395633697509766e-01 3.074857965111732483e-02 -2.716973423957824707e-01
4.899000000000000000e+03 2.520169639587402344e+01 -7.907091140747070312e+00 2.845011353492736816e-01 -5.653241276741027832e-01 -8.424688875675201416e-02 -4.348024129867553711e-01
4.900000000000000000e+03 2.672644805908203125e+01 -1.173755359649658203e+01 1.086128354072570801e+00 -5.607185363769531250e-01 1.576229482889175415e-01 1.808470338582992554e-01
4.901000000000000000e+03 2.043664741516113281e+01 -1.298325824737548828e+01 6.531925201416015625e-01 -2.572821378707885742e-01 1.187731176614761353e-01 -1.964637078344821930e-02
4.902000000000000000e+03 1.227071857452392578e+01 -1.111548900604248047e+01 2.520108819007873535e-01 2.566437721252441406e-01 1.525963991880416870e-01 -1.333673894405364990e-01
4.903000000000000000e+03 1.080440521240234375e+01 -8.801552772521972656e+00 -5.095437169075012207e-02 1.914014667272567749e-01 4.213412851095199585e-02 -2.421904802322387695e-01
4.904000000000000000e+03 3.154965972900390625e+01 -1.392496681213378906e+01 1.404156565666198730e+00 2.863157689571380615e-01 5.071417093276977539e-01 5.219938755035400391e-01
4.905000000000000000e+03 9.379693984985351562e+00 -9.683821678161621094e+00 3.673772560432553291e-03 2.019605934619903564e-01 6.169030815362930298e-02 -2.781262397766113281e-01
4.906000000000000000e+03 7.251695251464843750e+01 2.042743301391601562e+01 1.575835198163986206e-01 -9.937475919723510742e-01 -2.508492171764373779e-01 -4.184322357177734375e-01
4.907000000000000000e+03 1.038647174835205078e+01 -1.016822433471679688e+01 6.677418202161788940e-02 2.385934442281723022e-01 9.161029011011123657e-02 -2.314751893281936646e-01
4.908000000000000000e+03 7.273207855224609375e+01 4.798499107360839844e+00 -1.778083890676498413e-01 -2.541182935237884521e-01 -1.295780092477798462e-01 -5.111902952194213867e-01
4.909000000000000000e+03 7.326567840576171875e+01 7.255643844604492188e+00 -1.004196107387542725e-01 -4.112899303436279297e-01 -1.535128653049468994e-01 -5.682653784751892090e-01
4.910000000000000000e+03 1.454251384735107422e+01 -1.084918117523193359e+01 2.771019339561462402e-01 1.352441757917404175e-01 1.237038373947143555e-01 -8.706296980381011963e-02
4.911000000000000000e+03 7.185948944091796875e+01 1.504529857635498047e+01 1.251469403505325317e-01 -7.212989926338195801e-01 -1.788456141948699951e-01 -6.269019842147827148e-01
4.912000000000000000e+03 1.248915386199951172e+01 -8.150664329528808594e+00 -9.780783206224441528e-02 1.531395167112350464e-01 1.659950613975524902e-02 -1.949737221002578735e-01
4.913000000000000000e+03 7.578518390655517578e+00 1.314727306365966797e+01 3.206713518011383712e-05 2.422483703412581235e-05 1.688759039097931236e-05 -1.857514689618255943e-05
4.914000000000000000e+03 1.049283885955810547e+01 1.358272171020507812e+01 -8.356003490916918963e-06 6.481769378297030926e-05 1.693850572337396443e-05 -1.282747780351201072e-05
4.915000000000000000e+03 6.209972763061523438e+01 2.547184944152832031e+00 -1.143808364868164062e+00 1.684086769819259644e-01 -2.926199138164520264e-01 -6.886849403381347656e-01
4.916000000000000000e+03 6.500525951385498047e+00 2.659454727172851562e+01 2.281508932355791330e-04 -7.593927875859662890e-05 4.566348434309475124e-05 5.870853419764898717e-05
4.917000000000000000e+03 7.210320949554443359e+00 2.035414886474609375e+01 7.996556632861029357e-06 -6.033993122400715947e-05 -1.570301174069754779e-05 -2.127246079908218235e-05
4.918000000000000000e+03 1.998109245300292969e+01 -1.282799625396728516e+01 6.301715373992919922e-01 -2.352668792009353638e-01 1.184713914990425110e-01 -2.459322847425937653e-02
4.919000000000000000e+03 7.223801422119140625e+01 1.001474761962890625e+01 -2.914276719093322754e-02 -5.072788596153259277e-01 -1.609264910221099854e-01 -6.704936623573303223e-01
4.920000000000000000e+03 2.365938568115234375e+01 -8.090583801269531250e+00 1.734501123428344727e-01 -4.340884089469909668e-01 -7.819148898124694824e-02 -3.391102850437164307e-01
4.921000000000000000e+03 2.508858108520507812e+01 -1.128908443450927734e+01 8.485116958618164062e-01 -5.378216505050659180e-01 9.320700913667678833e-02 4.498949274420738220e-02
4.922000000000000000e+03 7.173044586181640625e+01 1.599062252044677734e+01 1.497185081243515015e-01 -7.449086308479309082e-01 -1.785570234060287476e-01 -6.048402786254882812e-01
4.923000000000000000e+03 6.543124389648437500e+01 1.149166464805603027e+00 -8.567338585853576660e-01 1.753754466772079468e-01 -2.044075280427932739e-01 -4.792250096797943115e-01
4.924000000000000000e+03 6.765544128417968750e+01 -1.519255153834819794e-02 -6.102362275123596191e-01 1.183897331357002258e-01 -1.475539505481719971e-01 -3.265154063701629639e-01
4.925000000000000000e+03 7.184548187255859375e+01 2.636174583435058594e+01 1.675393432378768921e-01 -9.882802963256835938e-01 -2.462222725152969360e-01 -2.076244205236434937e-01
4.926000000000000000e+03 7.220444488525390625e+01 2.400445938110351562e+01 1.681362539529800415e-01 -1.017348885536193848e+00 -2.547637820243835449e-01 -2.910229563713073730e-01
4.927000000000000000e+03 7.339193820953369141e+00 2.316688728332519531e+01 1.176161458715796471e-04 2.829368349921423942e-05 4.377295044832862914e-05 -2.792563645925838500e-05
4.928000000000000000e+03 6.804960632324218750e+01 -6.455464959144592285e-01 -5.595655441284179688e-01 1.084914505481719971e-01 -1.353222280740737915e-01 -2.649370729923248291e-01
4.929000000000000000e+03 8.743416786193847656e+00 2.403746795654296875e+01 -4.945282489643432200e-05 -6.852910883026197553e-05 -3.539457975421100855e-05 -3.922898758901283145e-05
4.930000000000000000e+03 8.021344184875488281e+00 2.582469749450683594e+01 9.866240725386887789e-05 -1.501615333836525679e-04 -1.544973929412662983e-05 -5.340417919796891510e-05
4.931000000000000000e+03 7.252136230468750000e+01 1.870899963378906250e+01 1.545657515525817871e-01 -9.409296512603759766e-01 -2.359091788530349731e-01 -4.798197746276855469e-01
4.932000000000000000e+03 7.160940551757812500e+01 1.879387855529785156e+01 1.883500069379806519e-01 -8.251473903656005859e-01 -1.910392194986343384e-01 -5.041185021400451660e-01
4.933000000000000000e+03 7.184097290039062500e+01 -4.517792701721191406e+00 -1.475068032741546631e-01 -1.652707159519195557e-02 -4.921016469597816467e-02 -5.333901569247245789e-02
4.934000000000000000e+03 7.180019378662109375e+01 3.121028184890747070e+00 -2.640471160411834717e-01 -1.344996094703674316e-01 -1.195640191435813904e-01 -4.725627601146697998e-01
4.935000000000000000e+03 7.142660522460937500e+01 1.396281528472900391e+01 1.042671203613281250e-01 -6.431188583374023438e-01 -1.616555303335189819e-01 -6.693933606147766113e-01
4.936000000000000000e+03 7.219430541992187500e+01 1.086200237274169922e+01 -2.500403206795454025e-03 -5.476619601249694824e-01 -1.650487035512924194e-01 -6.747116446495056152e-01
4.937000000000000000e+03 7.316075134277343750e+01 -2.093370676040649414e+00 -1.756023764610290527e-01 -4.221959412097930908e-02 -6.534659117460250854e-02 -1.450658589601516724e-01
4.938000000000000000e+03 7.118410491943359375e+01 -4.517272472381591797e+00 -1.694977730512619019e-01 -6.764599122107028961e-03 -5.287871137261390686e-02 -4.862287640571594238e-02
4.939000000000000000e+03 7.336837768554687500e+01 4.913052082061767578e+00 -1.512886434793472290e-01 -2.851259708404541016e-01 -1.309243887662887573e-01 -4.828670620918273926e-01
4.940000000000000000e+03 7.281361389160156250e+01 4.130831718444824219e+00 -1.900027394294738770e-01 -2.228593081235885620e-01 -1.238586157560348511e-01 -4.775887131690979004e-01
4.941000000000000000e+03 7.224428558349609375e+01 1.251152133941650391e+01 4.696521908044815063e-02 -6.436232328414916992e-01 -1.789973974227905273e-01 -6.559666991233825684e-01
4.942000000000000000e+03 7.317404937744140625e+01 -1.195112586021423340e+00 -1.880326122045516968e-01 -5.709511786699295044e-02 -7.353831827640533447e-02 -1.866526454687118530e-01
4.943000000000000000e+03 7.003595733642578125e+01 -4.833341598510742188e+00 -1.862506717443466187e-01 3.615475492551922798e-03 -5.479055643081665039e-02 -2.827741205692291260e-02
4.944000000000000000e+03 6.760771274566650391e+00 1.910009574890136719e+01 1.160490319307427853e-05 -6.089008093113079667e-05 -1.478555259382119402e-05 -2.868024239432998002e-06
4.945000000000000000e+03 7.319635772705078125e+01 6.487306118011474609e+00 -1.241173893213272095e-01 -3.610929548740386963e-01 -1.455631107091903687e-01 -5.491990447044372559e-01
4.946000000000000000e+03 7.241716003417968750e+01 6.594745159149169922e+00 -1.422538757324218750e-01 -3.318783044815063477e-01 -1.422396600246429443e-01 -5.926873087882995605e-01
4.947000000000000000e+03 6.870289611816406250e+01 -2.965020656585693359e+00 -3.753157854080200195e-01 6.293039023876190186e-02 -9.371561557054519653e-02 -8.561542630195617676e-02
4.948000000000000000e+03 7.280748748779296875e+01 4.758542478084564209e-01 -2.251804471015930176e-01 -8.246421813964843750e-02 -9.229340404272079468e-02 -2.830173671245574951e-01
4.949000000000000000e+03 7.171665191650390625e+01 -9.212265610694885254e-01 -2.731725871562957764e-01 -2.420892752707004547e-02 -8.921445906162261963e-02 -2.262421399354934692e-01
4.950000000000000000e+03 7.299857330322265625e+01 1.179260730743408203e+01 2.107987925410270691e-02 -6.629168391227722168e-01 -1.925510913133621216e-01 -6.235956549644470215e-01
4.951000000000000000e+03 9.825635910034179688e+00 2.457849121093750000e+01 1.719427964417263865e-04 -9.090470848605036736e-05 2.431142638670280576e-05 2.678539885891950689e-06
4.952000000000000000e+03 7.066246509552001953e+00 2.401845932006835938e+01 1.110115626943297684e-04 -4.679278390540275723e-06 3.189968629158101976e-05 -5.671672261087223887e-05
4.953000000000000000e+03 6.758787155151367188e+00 2.499548912048339844e+01 5.967256947769783437e-05 1.560398959554731846e-04 6.471374217653647065e-05 -5.658556983689777553e-05
4.954000000000000000e+03 1.045182037353515625e+01 1.779794120788574219e+01 -3.965767245972529054e-05 -5.178126593818888068e-05 -2.743168261076789349e-05 9.805939043872058392e-06
4.955000000000000000e+03 6.558158874511718750e+00 -1.112899684906005859e+01 5.593345314264297485e-02 5.380475148558616638e-02 3.292146325111389160e-02 -3.346741795539855957e-01
4.956000000000000000e+03 7.221607208251953125e+01 1.332502460479736328e+01 7.112318277359008789e-02 -6.794676780700683594e-01 -1.825033575296401978e-01 -6.474323272705078125e-01
4.957000000000000000e+03 9.655513763427734375e+00 -8.730569839477539062e+00 -6.665989011526107788e-02 1.821241378784179688e-01 3.463927283883094788e-02 -2.805704772472381592e-01
4.958000000000000000e+03 6.566520214080810547e+00 -9.630933761596679688e+00 -2.780416794121265411e-02 3.216231614351272583e-02 1.307444530539214611e-03 -3.522345721721649170e-01
4.959000000000000000e+03 8.674249649047851562e+00 1.959001159667968750e+01 -2.183384276577271521e-05 -9.001933358376845717e-05 -3.355595254106447101e-05 -3.555549119482748210e-05
4.960000000000000000e+03 6.874191284179687500e+00 1.722347068786621094e+01 -2.884536843339446932e-05 -2.724462319747544825e-05 -1.682699803495779634e-05 1.572995097376406193e-05
4.961000000000000000e+03 7.251272678375244141e+00 -1.110790634155273438e+01 7.280484586954116821e-02 1.204372644424438477e-01 5.797263234853744507e-02 -3.187870979309082031e-01
4.962000000000000000e+03 6.978655815124511719e+00 1.974569320678710938e+01 -3.074660071433754638e-06 9.790396870812401175e-05 2.844879236363340169e-05 -2.245463520011981018e-06
4.963000000000000000e+03 6.618126869201660156e+00 1.792337036132812500e+01 3.527859735186211765e-05 2.161716838600113988e-05 1.706873081275261939e-05 -2.307745307916775346e-05
4.964000000000000000e+03 7.565826892852783203e+00 1.765333938598632812e+01 3.974008359364233911e-05 6.868389755254611373e-05 3.252719398005865514e-05 8.183238605852238834e-06
4.965000000000000000e+03 8.663753509521484375e+00 1.811429214477539062e+01 -2.181590389227494597e-05 7.295016257558017969e-05 1.534027796878945082e-05 -1.331644125457387418e-05
4.966000000000000000e+03 6.644428730010986328e+00 9.454430580139160156e+00 9.163062713923864067e-06 -1.917196095746476203e-05 -3.002669700435944833e-06 1.427306324330857024e-05
4.967000000000000000e+03 7.153384208679199219e+00 9.810194969177246094e+00 1.156109465227928013e-05 1.983786387427244335e-05 9.419687557965517044e-06 -1.369944584439508617e-05
4.968000000000000000e+03 1.084734058380126953e+01 1.230687141418457031e+01 -4.010189149994403124e-05 3.118850509054027498e-05 -2.674015831871656701e-06 1.239557059307117015e-05
4.969000000000000000e+03 6.641240119934082031e+00 1.009199428558349609e+01 -1.882537071651313454e-05 2.131499059032648802e-06 -5.008161679143086076e-06 -4.711916062660748139e-06
4.970000000000000000e+03 3.556974029541015625e+01 -1.153622055053710938e+01 1.698441982269287109e+00 4.171360015869140625e+00 1.760940551757812500e+00 4.129635095596313477e-01
4.971000000000000000e+03 7.431088924407958984e+00 8.005551338195800781e+00 -1.821083787945099175e-05 9.647294973547104746e-06 -2.569063099144841544e-06 4.108397661184426397e-06
4.972000000000000000e+03 7.086424255371093750e+01 1.701933670043945312e+01 2.002233713865280151e-01 -6.893283128738403320e-01 -1.467314809560775757e-01 -5.932967662811279297e-01
4.973000000000000000e+03 7.277250289916992188e+00 1.143439674377441406e+01 -3.719596861628815532e-05 -6.449057764257304370e-06 -1.309350864175939932e-05 1.384978713758755475e-05
4.974000000000000000e+03 7.693613052368164062e+00 2.376331901550292969e+01 -2.313994809810537845e-05 -4.380866448627784848e-05 -2.008458432101178914e-05 -1.748027898429427296e-06
4.975000000000000000e+03 7.873706340789794922e+00 1.106005668640136719e+01 2.400451739958953112e-05 1.887935468403156847e-05 1.286516180698527023e-05 -8.071922820818144828e-06
4.976000000000000000e+03 6.896409988403320312e+00 1.285474777221679688e+01 -1.279066873394185677e-05 -1.070270809577777982e-05 -7.048012776067480445e-06 1.660140333115123212e-05
4.977000000000000000e+03 8.157452583312988281e+00 1.445601463317871094e+01 3.666819975478574634e-05 9.451717232877854258e-06 1.383597555104643106e-05 -1.557163341203704476e-05
4.978000000000000000e+03 3.066317367553710938e+01 -1.338870239257812500e+01 1.437885999679565430e+00 -1.377740781754255295e-02 4.272325932979583740e-01 5.756872296333312988e-01
4.979000000000000000e+03 2.914492797851562500e+01 -7.770707130432128906e+00 9.595461487770080566e-01 -6.428186893463134766e-01 9.501823037862777710e-02 -4.009398818016052246e-01
4.980000000000000000e+03 9.469545364379882812e+00 -1.155835437774658203e+01 2.039007842540740967e-01 2.736091613769531250e-01 1.432529836893081665e-01 -2.175268977880477905e-01
4.981000000000000000e+03 1.072062683105468750e+01 -1.130617809295654297e+01 2.147775888442993164e-01 2.862419486045837402e-01 1.503058671951293945e-01 -1.887714713811874390e-01
4.982000000000000000e+03 7.157141876220703125e+01 1.972120857238769531e+01 1.936480700969696045e-01 -8.450084328651428223e-01 -1.954081058502197266e-01 -4.706521034240722656e-01
4.983000000000000000e+03 2.283378791809082031e+01 -8.931679725646972656e+00 2.909474670886993408e-01 -4.019810259342193604e-01 -3.331006690859794617e-02 -2.302619069814682007e-01
4.984000000000000000e+03 2.198038291931152344e+01 -8.239491462707519531e+00 9.773859381675720215e-02 -3.113802671432495117e-01 -6.409250199794769287e-02 -2.446907907724380493e-01
4.985000000000000000e+03 5.399419021606445312e+01 4.167425155639648438e+00 -1.808663129806518555e+00 3.535773158073425293e-01 -4.365257322788238525e-01 -6.866185069084167480e-01
4.986000000000000000e+03 5.281499099731445312e+01 4.906598567962646484e+00 -1.527149677276611328e+00 4.214005470275878906e-01 -3.317247331142425537e-01 -7.581393718719482422e-01
4.987000000000000000e+03 7.259423828125000000e+01 5.478363513946533203e+00 -1.658837646245956421e-01 -2.840331196784973145e-01 -1.349750608205795288e-01 -5.484076738357543945e-01
4.988000000000000000e+03 1.180496883392333984e+01 -9.435133934020996094e+00 2.656610868871212006e-02 2.127098292112350464e-01 7.178278267383575439e-02 -1.990918219089508057e-01
4.989000000000000000e+03 5.033737182617187500e+01 6.091407299041748047e+00 -5.686511397361755371e-01 5.863475203514099121e-01 5.308917723596096039e-03 -4.349695444107055664e-01
4.990000000000000000e+03 4.711118316650390625e+01 9.658977508544921875e+00 1.376216888427734375e+00 3.203311204910278320e+00 1.373858451843261719e+00 1.227837920188903809e+00
4.991000000000000000e+03 1.256253814697265625e+01 6.919498920440673828e+00 -1.260687076864996925e-05 -4.071338935318635777e-06 -5.003462774766376242e-06 4.605826688930392265e-06
4.992000000000000000e+03 5.238897705078125000e+01 5.438810825347900391e+00 -1.161245346069335938e+00 4.382347464561462402e-01 -2.169031798839569092e-01 -7.538887262344360352e-01
4.993000000000000000e+03 3.297314453125000000e+01 -1.272710227966308594e+01 1.721961379051208496e+00 1.403037309646606445e+00 9.374996423721313477e-01 3.628682494163513184e-01
4.994000000000000000e+03 3.343129730224609375e+01 -1.251521968841552734e+01 1.682329893112182617e+00 1.798311829566955566e+00 1.044192552566528320e+00 3.336740434169769287e-01
4.995000000000000000e+03 4.699604034423828125e+01 1.409879302978515625e+01 1.488390564918518066e+00 4.592990398406982422e+00 1.824414372444152832e+00 1.330170273780822754e+00
4.996000000000000000e+03 1.641355514526367188e+01 -1.049985027313232422e+01 2.686546742916107178e-01 1.449304167181253433e-03 8.103118836879730225e-02 -8.165580779314041138e-02
4.997000000000000000e+03 3.626989364624023438e+01 -9.845438957214355469e+00 1.801473498344421387e+00 5.033243179321289062e+00 2.050415039062500000e+00 6.413113474845886230e-01
4.998000000000000000e+03 3.194373512268066406e+01 -7.972404479980468750e+00 1.525014042854309082e+00 3.549968898296356201e-01 5.640032887458801270e-01 1.369046792387962341e-02
4.999000000000000000e+03 7.115167999267578125e+01 -5.289773464202880859e+00 -1.375021487474441528e-01 -1.290305331349372864e-02 -4.512156173586845398e-02 -2.939735352993011475e-02
5.000000000000000000e+03 4.659350204467773438e+01 1.010527229309082031e+01 1.490361332893371582e+00 3.747827053070068359e+00 1.571456551551818848e+00 1.413954138755798340e+00
5.001000000000000000e+03 4.809128189086914062e+01 9.719172477722167969e+00 1.306250214576721191e+00 2.598776817321777344e+00 1.171508193016052246e+00 8.629611730575561523e-01
5.002000000000000000e+03 1.549117565155029297e+01 -1.136279869079589844e+01 3.760627806186676025e-01 8.249482512474060059e-02 1.375672817230224609e-01 -6.378127634525299072e-02
5.003000000000000000e+03 1.652563858032226562e+01 -1.151813888549804688e+01 4.266369640827178955e-01 4.851566627621650696e-03 1.294465661048889160e-01 -4.423311352729797363e-02
5.004000000000000000e+03 6.912751007080078125e+01 -3.592326879501342773e+00 -3.051784634590148926e-01 4.030977934598922729e-02 -7.946060597896575928e-02 -5.714288353919982910e-02
5.005000000000000000e+03 3.583618545532226562e+01 -8.254166603088378906e+00 1.771385312080383301e+00 4.295082092285156250e+00 1.819940209388732910e+00 7.111329436302185059e-01
5.006000000000000000e+03 1.090342617034912109e+01 1.408016586303710938e+01 -1.519292982266051695e-05 -5.238871744950301945e-05 -2.027449409069959074e-05 1.288013208977645263e-05
5.007000000000000000e+03 3.604600524902343750e+01 -6.722703456878662109e+00 1.344313263893127441e+00 4.193255901336669922e+00 1.661270618438720703e+00 7.330067157745361328e-01
5.008000000000000000e+03 1.070265293121337891e+01 1.836908912658691406e+01 3.499711237964220345e-05 6.912431854289025068e-05 3.123643182334490120e-05 -1.544994574942393228e-06
5.009000000000000000e+03 1.039066028594970703e+01 1.967017555236816406e+01 -9.877875527308788151e-06 -3.391728751012124121e-05 -1.313854954787530005e-05 2.806282282108440995e-05
5.010000000000000000e+03 1.019486427307128906e+01 2.794814109802246094e+01 3.760968393180519342e-04 -2.423331170575693250e-04 4.012911813333630562e-05 4.178295785095542669e-05
5.011000000000000000e+03 1.019843196868896484e+01 2.857945632934570312e+01 1.126611168729141355e-04 -3.721836546901613474e-04 -7.785676280036568642e-05 -9.108790982281789184e-05
5.012000000000000000e+03 9.264707565307617188e+00 2.951141738891601562e+01 1.550396991660818458e-04 -2.128744526999071240e-04 -1.735042860673274845e-05 -2.587958006188273430e-04
5.013000000000000000e+03 7.705111980438232422e+00 3.083872413635253906e+01 2.821403904817998409e-04 1.733967110340017825e-05 8.984401938505470753e-05 -3.501928949845023453e-05
5.014000000000000000e+03 7.334549427032470703e+00 2.892720222473144531e+01 2.768234407994896173e-04 -4.989093213225714862e-05 6.807975296396762133e-05 2.190682243963237852e-05
5.015000000000000000e+03 7.289396762847900391e+00 2.095270919799804688e+01 6.935890996828675270e-05 -6.032012970536015928e-05 2.711633669605362229e-06 -1.508962577645434067e-05
5.016000000000000000e+03 9.335065841674804688e+00 2.355973434448242188e+01 2.236141008324921131e-04 6.336158548947423697e-05 8.609270298620685935e-05 -1.659252848185133189e-05
5.017000000000000000e+03 3.686320114135742188e+01 -5.126398563385009766e+00 7.800239920616149902e-01 5.198039531707763672e+00 1.793419003486633301e+00 7.721110582351684570e-01
5.018000000000000000e+03 4.874804306030273438e+01 7.153224945068359375e+00 3.464964628219604492e-01 1.319951653480529785e+00 4.999344348907470703e-01 2.696527242660522461e-01
5.019000000000000000e+03 7.272502899169921875e+00 1.636947250366210938e+01 2.367900924582500011e-05 4.538007851806469262e-05 2.071772723866160959e-05 -1.166497622762108222e-05
5.020000000000000000e+03 1.055875968933105469e+01 1.694995498657226562e+01 -8.881136454874649644e-05 -1.383475319016724825e-05 -3.079383532167412341e-05 8.619943400844931602e-06
5.021000000000000000e+03 7.257436370849609375e+01 2.119737052917480469e+01 1.605141907930374146e-01 -1.018381953239440918e+00 -2.573603391647338867e-01 -3.863336145877838135e-01
5.022000000000000000e+03 8.838637351989746094e+00 1.424494552612304688e+01 -5.121980939293280244e-05 -1.798470407265995163e-06 -1.590548345120623708e-05 2.400234552624169737e-05
5.023000000000000000e+03 3.554597854614257812e+01 -1.067002773284912109e+01 1.819527864456176758e+00 4.122854709625244141e+00 1.782714724540710449e+00 5.079230666160583496e-01
5.024000000000000000e+03 4.797605514526367188e+01 1.667774009704589844e+01 1.298225879669189453e+00 4.382194519042968750e+00 1.704126119613647461e+00 1.030860781669616699e+00
5.025000000000000000e+03 4.873410797119140625e+01 1.857055091857910156e+01 1.151529192924499512e+00 4.176665782928466797e+00 1.598458528518676758e+00 8.148970007896423340e-01
5.026000000000000000e+03 4.951313018798828125e+01 1.184295082092285156e+01 1.431562542915344238e+00 2.479817390441894531e+00 1.173413991928100586e+00 6.477397084236145020e-01
5.027000000000000000e+03 8.797018051147460938e+00 -1.168297386169433594e+01 1.945096254348754883e-01 2.517870664596557617e-01 1.338890194892883301e-01 -2.406368851661682129e-01
5.028000000000000000e+03 1.188780403137207031e+01 9.037692070007324219e+00 -1.875738598755560815e-05 -7.681462193431798369e-06 -7.931654181447811425e-06 -9.398288057127501816e-06
5.029000000000000000e+03 1.662958717346191406e+01 -9.503887176513671875e+00 1.378086060285568237e-01 -1.290629524737596512e-02 3.747069463133811951e-02 -9.745694696903228760e-02
5.030000000000000000e+03 1.728717613220214844e+01 -1.140185832977294922e+01 4.153545498847961426e-01 -5.700979754328727722e-02 1.075034290552139282e-01 -5.203897133469581604e-02
5.031000000000000000e+03 2.026206398010253906e+01 -8.221573829650878906e+00 4.529153555631637573e-02 -2.051277607679367065e-01 -4.795086756348609924e-02 -1.698510944843292236e-01
5.032000000000000000e+03 2.276601791381835938e+01 -1.044223880767822266e+01 5.245544314384460449e-01 -4.257013499736785889e-01 2.965593338012695312e-02 -1.108428388833999634e-01
5.033000000000000000e+03 1.285825252532958984e+01 -8.670708656311035156e+00 -3.244947269558906555e-02 1.597497314214706421e-01 3.819008171558380127e-02 -1.769481599330902100e-01
5.034000000000000000e+03 5.971780395507812500e+01 3.137147188186645508e+00 -1.340883374214172363e+00 1.547045111656188965e-01 -3.558536469936370850e-01 -7.325131893157958984e-01
5.035000000000000000e+03 7.154302597045898438e+00 -9.640995979309082031e+00 -2.067963965237140656e-02 8.028875291347503662e-02 1.788273453712463379e-02 -3.425071537494659424e-01
5.036000000000000000e+03 6.458006286621093750e+01 1.346655488014221191e+00 -9.583435654640197754e-01 1.833628863096237183e-01 -2.324942052364349365e-01 -5.148704051971435547e-01
5.037000000000000000e+03 3.563634872436523438e+01 -1.235290431976318359e+01 1.547185182571411133e+00 4.277374267578125000e+00 1.747367858886718750e+00 2.876803576946258545e-01
5.038000000000000000e+03 9.584338188171386719e+00 7.900399208068847656e+00 5.693543243978638202e-06 4.704174443759256974e-06 3.119315351796103641e-06 -3.624421879067085683e-06
5.039000000000000000e+03 1.143680095672607422e+01 1.089852523803710938e+01 2.403307371423579752e-05 1.972570316866040230e-05 1.312763288296991959e-05 1.105818591895513237e-05
5.040000000000000000e+03 8.387185096740722656e+00 2.496804618835449219e+01 6.949212547624483705e-05 -1.188121095765382051e-04 -1.479599541198695078e-05 -2.740099807851947844e-05
5.041000000000000000e+03 7.137944030761718750e+01 -6.092130184173583984e+00 -9.697087109088897705e-02 -1.848457008600234985e-02 -3.463663533329963684e-02 -1.473829895257949829e-02
5.042000000000000000e+03 4.769838333129882812e+01 1.586794185638427734e+01 1.355172991752624512e+00 4.433639049530029297e+00 1.736643552780151367e+00 1.115998029708862305e+00
5.043000000000000000e+03 4.889722442626953125e+01 1.727126693725585938e+01 1.291314721107482910e+00 3.940641641616821289e+00 1.569586873054504395e+00 8.809423446655273438e-01
5.044000000000000000e+03 2.815000915527343750e+01 -8.252937316894531250e+00 8.941572308540344238e-01 -7.007108926773071289e-01 5.803389847278594971e-02 -3.653040230274200439e-01
5.045000000000000000e+03 4.732834243774414062e+01 1.501044082641601562e+01 1.425371050834655762e+00 4.558249473571777344e+00 1.795086145401000977e+00 1.217938661575317383e+00
5.046000000000000000e+03 6.157909011840820312e+01 2.795184850692749023e+00 -1.176510572433471680e+00 1.637524068355560303e-01 -3.038274645805358887e-01 -7.182646393775939941e-01
5.047000000000000000e+03 5.874982452392578125e+01 4.378272056579589844e+00 -1.148805141448974609e+00 1.887832283973693848e-01 -2.880065739154815674e-01 -8.516240715980529785e-01
5.048000000000000000e+03 4.633484649658203125e+01 8.438302993774414062e+00 1.202465653419494629e+00 3.382286310195922852e+00 1.375425577163696289e+00 1.394687891006469727e+00
5.049000000000000000e+03 4.789646530151367188e+01 6.795185089111328125e+00 2.663539648056030273e-01 1.531464576721191406e+00 5.393455624580383301e-01 5.594031214714050293e-01
5.050000000000000000e+03 1.071297550201416016e+01 2.713878631591796875e+01 2.830227022059261799e-04 -1.953919418156147003e-04 2.628923357406165451e-05 5.694842184311710298e-05
5.051000000000000000e+03 6.826652526855468750e+01 3.762755692005157471e-01 -5.587477087974548340e-01 9.359368681907653809e-02 -1.395462006330490112e-01 -3.596898019313812256e-01
5.052000000000000000e+03 5.800668716430664062e+01 5.867371559143066406e+00 -7.793359160423278809e-01 2.458320707082748413e-01 -1.600511521100997925e-01 -9.379401803016662598e-01
5.053000000000000000e+03 5.694405746459960938e+01 5.709583282470703125e+00 -8.837536573410034180e-01 2.765120267868041992e-01 -1.821724921464920044e-01 -9.057085514068603516e-01
5.054000000000000000e+03 8.045715332031250000e+00 2.153527259826660156e+01 6.429498898796737194e-05 1.280236483580665663e-05 2.312920696567744017e-05 -5.887866063858382404e-05
5.055000000000000000e+03 7.257733154296875000e+01 -1.720980703830718994e-01 -2.314032465219497681e-01 -6.152281910181045532e-02 -8.787782490253448486e-02 -2.514665424823760986e-01
5.056000000000000000e+03 7.233615875244140625e+01 8.021593093872070312e-01 -2.501586973667144775e-01 -7.880675792694091797e-02 -9.868963807821273804e-02 -3.156466484069824219e-01
5.057000000000000000e+03 4.831953048706054688e+01 5.831823348999023438e+00 -4.107072353363037109e-01 9.296677112579345703e-01 1.556881368160247803e-01 2.228159010410308838e-01
5.058000000000000000e+03 1.596487522125244141e+01 -9.115805625915527344e+00 7.555857300758361816e-02 3.081471472978591919e-02 3.191198781132698059e-02 -1.064163148403167725e-01
5.059000000000000000e+03 1.485740661621093750e+01 -8.788681030273437500e+00 6.750564090907573700e-03 7.815922051668167114e-02 2.547293715178966522e-02 -1.302461773157119751e-01
5.060000000000000000e+03 1.182585430145263672e+01 7.733299732208251953e+00 -1.242082180397119373e-05 -7.149766588554484770e-06 -5.871176654181908816e-06 3.607892494983389042e-06
5.061000000000000000e+03 5.854655838012695312e+01 5.419287204742431641e+00 -8.839301466941833496e-01 2.133495658636093140e-01 -2.011741697788238525e-01 -9.268507957458496094e-01
5.062000000000000000e+03 1.722893524169921875e+01 -9.193123817443847656e+00 1.121066808700561523e-01 -4.603228718042373657e-02 1.982231810688972473e-02 -1.049822792410850525e-01
5.063000000000000000e+03 4.722398376464843750e+01 8.709014892578125000e+00 1.197882294654846191e+00 2.784130573272705078e+00 1.194603800773620605e+00 1.093109250068664551e+00
5.064000000000000000e+03 7.256263732910156250e+01 -3.070686340332031250e+00 -1.734669506549835205e-01 -2.501256205141544342e-02 -5.954385548830032349e-02 -1.046103984117507935e-01
5.065000000000000000e+03 6.956366729736328125e+01 -4.211778163909912109e+00 -2.434756010770797729e-01 2.118765376508235931e-02 -6.668638437986373901e-02 -4.205511137843132019e-02
5.066000000000000000e+03 1.047716522216796875e+01 2.024897766113281250e+01 3.409956116229295731e-05 3.029277831956278533e-05 1.931770202645566314e-05 -4.755270128953270614e-05
5.067000000000000000e+03 7.262000274658203125e+01 7.879300594329833984e+00 -9.237701445817947388e-02 -4.185529947280883789e-01 -1.532790064811706543e-01 -6.208208203315734863e-01
5.068000000000000000e+03 1.021012115478515625e+01 1.537576007843017578e+01 5.988464909023605287e-05 3.070111051783896983e-05 2.717572715482674539e-05 -7.836241820768918842e-06
5.069000000000000000e+03 6.559182643890380859e+00 -8.960738182067871094e+00 -5.864788964390754700e-02 2.360861189663410187e-02 -1.051178388297557831e-02 -3.519602715969085693e-01
5.070000000000000000e+03 6.633917999267578125e+01 8.901332616806030273e-01 -7.564404010772705078e-01 1.560068875551223755e-01 -1.801300644874572754e-01 -4.369810223579406738e-01
5.071000000000000000e+03 8.679774284362792969e+00 2.779983711242675781e+01 1.232978975167497993e-04 -4.571842509903945029e-05 2.327384208911098540e-05 -1.702260924503207207e-04
5.072000000000000000e+03 8.843921661376953125e+00 7.912083148956298828e+00 -9.489188414590898901e-06 -1.715139887892291881e-07 -2.898210595958516933e-06 5.555658390221651644e-06
5.073000000000000000e+03 1.032973289489746094e+01 7.888737678527832031e+00 -1.063338095264043659e-05 -3.998953161499230191e-06 -4.389700279716635123e-06 8.935721780289895833e-07
5.074000000000000000e+03 2.858019256591796875e+01 -1.116645622253417969e+01 1.389050960540771484e+00 -5.001010894775390625e-01 2.666849493980407715e-01 2.047826498746871948e-01
5.075000000000000000e+03 1.576842212677001953e+01 -1.015694522857666016e+01 2.253978550434112549e-01 5.349596962332725525e-02 8.366815000772476196e-02 -7.850771397352218628e-02
5.076000000000000000e+03 1.137406253814697266e+01 1.242175388336181641e+01 1.628318204893730581e-05 -6.347044745780294761e-06 2.980840918098692782e-06 -2.397020762145984918e-05
5.077000000000000000e+03 1.078580760955810547e+01 9.880311012268066406e+00 -7.257406196004012600e-06 -1.629008875170256943e-05 -7.064248620736179873e-06 -8.443473689112579450e-07
5.078000000000000000e+03 2.745745086669921875e+01 -8.002006530761718750e+00 7.076900601387023926e-01 -7.164413928985595703e-01 -2.625402528792619705e-03 -4.369641244411468506e-01
5.079000000000000000e+03 2.589817619323730469e+01 -9.181808471679687500e+00 7.232263088226318359e-01 -6.496466398239135742e-01 2.207389660179615021e-02 -2.605023086071014404e-01
5.080000000000000000e+03 1.370824432373046875e+01 -1.171450519561767578e+01 3.698382079601287842e-01 2.015546560287475586e-01 1.714178621768951416e-01 -8.012791723012924194e-02
5.081000000000000000e+03 7.172663879394531250e+01 1.694738006591796875e+01 1.686064153909683228e-01 -7.809825539588928223e-01 -1.837128400802612305e-01 -5.714632868766784668e-01
5.082000000000000000e+03 4.974409484863281250e+01 6.142643451690673828e+00 -4.321282207965850830e-01 6.694132685661315918e-01 7.118552178144454956e-02 -2.589894533157348633e-01
5.083000000000000000e+03 5.221815872192382812e+01 6.469960212707519531e+00 -5.063093900680541992e-01 5.496633052825927734e-01 1.300616376101970673e-02 -6.722864508628845215e-01
5.084000000000000000e+03 7.704530715942382812e+00 2.660401916503906250e+01 1.455750607419759035e-04 -6.048492286936379969e-05 2.552704245317727327e-05 1.772957512002903968e-05
5.085000000000000000e+03 1.088497734069824219e+01 1.325478935241699219e+01 -1.170836367236915976e-05 -4.350157905719242990e-05 -1.656298263696953654e-05 2.020819192694034427e-05
5.086000000000000000e+03 4.726957321166992188e+01 7.084224224090576172e+00 4.889105260372161865e-01 2.050147294998168945e+00 7.617173194885253906e-01 8.522289991378784180e-01
5.087000000000000000e+03 7.241491699218750000e+01 -2.239619016647338867e+00 -2.062943279743194580e-01 -2.652137726545333862e-02 -6.984471529722213745e-02 -1.448525637388229370e-01
5.088000000000000000e+03 7.931286334991455078e+00 2.087558174133300781e+01 -2.089651934511493891e-05 1.541037272545509040e-05 -1.645844349695835263e-06 4.050251664011739194e-05
5.089000000000000000e+03 2.595230674743652344e+01 -7.849399566650390625e+00 3.732179105281829834e-01 -6.316934823989868164e-01 -7.754267007112503052e-02 -4.646960198879241943e-01
5.090000000000000000e+03 5.533213424682617188e+01 4.896821975708007812e+00 -1.303334712982177734e+00 3.310064673423767090e-01 -2.916984856128692627e-01 -8.029073476791381836e-01
5.091000000000000000e+03 5.431297683715820312e+01 4.718921661376953125e+00 -1.460466146469116211e+00 3.784947991371154785e-01 -3.245913982391357422e-01 -7.803748846054077148e-01
5.092000000000000000e+03 3.443731307983398438e+01 -7.609148502349853516e+00 1.651774287223815918e+00 2.424908399581909180e+00 1.223004817962646484e+00 4.311895668506622314e-01
5.093000000000000000e+03 3.512146759033203125e+01 -8.255022048950195312e+00 1.804697036743164062e+00 3.355230331420898438e+00 1.547978162765502930e+00 5.771693587303161621e-01
5.094000000000000000e+03 1.810676956176757812e+01 -9.105381965637207031e+00 1.202800124883651733e-01 -9.932667016983032227e-02 6.286003161221742630e-03 -1.076903417706489563e-01
5.095000000000000000e+03 2.016009902954101562e+01 -1.186681270599365234e+01 5.453885197639465332e-01 -2.587526440620422363e-01 8.599075675010681152e-02 -5.225761607289314270e-02
5.096000000000000000e+03 2.216145515441894531e+01 -1.117322254180908203e+01 5.591623187065124512e-01 -3.750110864639282227e-01 5.524537339806556702e-02 -6.294546276330947876e-02
5.097000000000000000e+03 1.912834167480468750e+01 -1.172978878021240234e+01 5.007388591766357422e-01 -1.809485256671905518e-01 9.593710303306579590e-02 -5.041725561022758484e-02
5.098000000000000000e+03 2.082895851135253906e+01 -1.325671482086181641e+01 6.836566329002380371e-01 -2.662670016288757324e-01 1.252168864011764526e-01 1.155291218310594559e-03
5.099000000000000000e+03 2.536469459533691406e+01 -1.239541339874267578e+01 8.863434791564941406e-01 -4.814766347408294678e-01 1.214600577950477600e-01 1.706718504428863525e-01
5.100000000000000000e+03 7.975859642028808594e+00 2.796991920471191406e+01 2.431462926324456930e-04 -5.714398866984993219e-05 5.580069046118296683e-05 2.514812877052463591e-05
5.101000000000000000e+03 8.849141120910644531e+00 2.208941078186035156e+01 5.555815732805058360e-05 2.486081393726635724e-05 2.412569119769614190e-05 -6.362076965160667896e-05
5.102000000000000000e+03 4.893882751464843750e+01 1.799499130249023438e+01 1.226316332817077637e+00 3.979979276657104492e+00 1.561888694763183594e+00 8.324867486953735352e-01
5.103000000000000000e+03 7.172406768798828125e+01 2.147298812866210938e+01 1.931720227003097534e-01 -9.062774777412414551e-01 -2.139316350221633911e-01 -3.974772095680236816e-01
5.104000000000000000e+03 4.296535873413085938e+01 -2.834077072143554688e+01 1.462336182594299316e-01 3.265558958053588867e+00 1.023537755012512207e+00 -7.874387502670288086e-01
5.105000000000000000e+03 7.537440299987792969e+00 2.986616325378417969e+01 2.774636232061311603e-05 -1.237811084138229489e-04 -2.881042564695235342e-05 -2.966947795357555151e-04
5.106000000000000000e+03 7.072225952148437500e+01 2.609782791137695312e+01 2.145983725786209106e-01 -7.764747142791748047e-01 -1.685629040002822876e-01 -2.267111390829086304e-01
5.107000000000000000e+03 8.137047767639160156e+00 3.424646759033203125e+01 -8.545130549464374781e-05 -2.940880076494067907e-04 -1.138617881224490702e-04 -4.785776545759290457e-04
5.108000000000000000e+03 8.646706581115722656e+00 3.719057083129882812e+01 -4.072537994943559170e-04 -2.734383451752364635e-04 -2.042076375801116228e-04 -4.870897100772708654e-04
5.109000000000000000e+03 7.012083435058593750e+01 3.305298995971679688e+01 8.644155412912368774e-02 -6.524247527122497559e-01 -1.697949469089508057e-01 -2.570649608969688416e-02
5.110000000000000000e+03 4.936055374145507812e+01 2.506190681457519531e+01 8.378766179084777832e-01 4.011698246002197266e+00 1.454872488975524902e+00 3.765164315700531006e-01
5.111000000000000000e+03 4.348432159423828125e+01 -3.523469161987304688e+01 -5.166597962379455566e-01 2.798924207687377930e+00 6.846793293952941895e-01 -4.610503017902374268e-01
5.112000000000000000e+03 4.459315490722656250e+01 -3.370308685302734375e+01 -3.150653243064880371e-01 2.552944660186767578e+00 6.713638305664062500e-01 -6.099085211753845215e-01
5.113000000000000000e+03 6.837905883789062500e+01 3.444824600219726562e+01 8.999963849782943726e-02 -3.552724421024322510e-01 -7.958184182643890381e-02 -1.023419550620019436e-03
5.114000000000000000e+03 4.216237258911132812e+01 -3.112484169006347656e+01 -2.040365636348724365e-01 3.337063550949096680e+00 9.399080872535705566e-01 -6.488907337188720703e-01
5.115000000000000000e+03 5.043576431274414062e+01 3.188536071777343750e+01 2.475659996271133423e-01 3.502053976058959961e+00 1.124885916709899902e+00 4.195973277091979980e-01
5.116000000000000000e+03 2.423006439208984375e+01 -1.183346462249755859e+01 7.904245257377624512e-01 -4.861857295036315918e-01 9.127163887023925781e-02 5.916935950517654419e-02
5.117000000000000000e+03 9.043602943420410156e+00 -8.946883201599121094e+00 -5.797569081187248230e-02 1.645244359970092773e-01 3.196462616324424744e-02 -2.972035706043243408e-01
5.118000000000000000e+03 3.020943641662597656e+01 -8.275641441345214844e+00 1.292638421058654785e+00 -3.972481787204742432e-01 2.686170637607574463e-01 -1.915358155965805054e-01
5.119000000000000000e+03 3.020988845825195312e+01 -1.274319648742675781e+01 1.532441139221191406e+00 -1.274229437112808228e-01 4.215054512023925781e-01 5.153778195381164551e-01
5.120000000000000000e+03 3.315915298461914062e+01 -7.256879806518554688e+00 1.394984722137451172e+00 1.125649690628051758e+00 7.561902999877929688e-01 1.623143106698989868e-01
5.121000000000000000e+03 3.619026565551757812e+01 -5.298420429229736328e+00 8.116654157638549805e-01 4.293406009674072266e+00 1.531521439552307129e+00 6.478967666625976562e-01
5.122000000000000000e+03 3.071412467956542969e+01 -1.035257816314697266e+01 1.715494513511657715e+00 -5.900986958295106888e-03 5.128780603408813477e-01 1.926544904708862305e-01
5.123000000000000000e+03 7.662684440612792969e+00 1.944223785400390625e+01 6.551759270223556086e-06 -8.228185470215976238e-05 -2.271902849315665662e-05 -9.715903104279277613e-08
5.124000000000000000e+03 1.279358005523681641e+01 -9.589849472045898438e+00 6.864849478006362915e-02 1.883000880479812622e-01 7.708457112312316895e-02 -1.611151844263076782e-01
5.125000000000000000e+03 6.343873977661132812e+01 2.592908382415771484e+00 -9.917947053909301758e-01 1.752827763557434082e-01 -2.449535727500915527e-01 -6.776625514030456543e-01
5.126000000000000000e+03 6.426361083984375000e+01 1.904230475425720215e+00 -9.431700706481933594e-01 1.798046678304672241e-01 -2.290096282958984375e-01 -5.858759284019470215e-01
5.127000000000000000e+03 7.144684600830078125e+01 1.092535114288330078e+01 -4.093315917998552322e-03 -5.006054639816284180e-01 -1.514096409082412720e-01 -7.079086303710937500e-01
5.128000000000000000e+03 1.205088138580322266e+01 -8.480868339538574219e+00 -6.140527501702308655e-02 1.788234710693359375e-01 3.522545844316482544e-02 -2.051145136356353760e-01
5.129000000000000000e+03 1.334285068511962891e+01 -1.112855148315429688e+01 2.840055227279663086e-01 2.101264894008636475e-01 1.482395976781845093e-01 -1.011175662279129028e-01
5.130000000000000000e+03 7.210306549072265625e+01 4.662138462066650391e+00 -2.134538292884826660e-01 -2.138945758342742920e-01 -1.282045245170593262e-01 -5.400584340095520020e-01
5.131000000000000000e+03 6.663038635253906250e+01 1.975394845008850098e+00 -7.002181410789489746e-01 1.291096359491348267e-01 -1.713325381278991699e-01 -5.478358268737792969e-01
5.132000000000000000e+03 2.518633842468261719e+01 -8.652170181274414062e+00 4.813980758190155029e-01 -5.852314829826354980e-01 -3.115002997219562531e-02 -3.333320021629333496e-01
5.133000000000000000e+03 6.852832031250000000e+01 1.375312447547912598e+00 -5.319788455963134766e-01 6.585534662008285522e-02 -1.398370563983917236e-01 -4.464859068393707275e-01
5.134000000000000000e+03 2.038785362243652344e+01 -1.246240329742431641e+01 6.054156422615051270e-01 -2.568491399288177490e-01 1.045699492096900940e-01 -2.129560150206089020e-02
5.135000000000000000e+03 7.384688854217529297e+00 1.876393699645996094e+01 7.575517884106375277e-06 9.616890747565776110e-05 3.112332706223241985e-05 -7.613135153405892197e-07
5.136000000000000000e+03 9.095745086669921875e+00 1.929625892639160156e+01 4.134376285946927965e-05 7.408102828776463866e-05 3.462743552518077195e-05 3.896785347023978829e-05
5.137000000000000000e+03 6.984514617919921875e+01 5.548473000526428223e-01 -4.238101541996002197e-01 2.607277594506740570e-02 -1.193212196230888367e-01 -3.515239059925079346e-01
5.138000000000000000e+03 7.235253143310546875e+01 3.395555019378662109e+00 -2.308813482522964478e-01 -1.660997122526168823e-01 -1.190943196415901184e-01 -4.639079868793487549e-01
5.139000000000000000e+03 7.073058605194091797e+00 2.560474395751953125e+01 1.294866233365610242e-04 -1.964964903891086578e-04 -2.010295975196640939e-05 -1.722292836348060519e-05
5.140000000000000000e+03 8.474009513854980469e+00 2.707918548583984375e+01 1.705879985820502043e-04 -9.031237277667969465e-05 2.408268846920691431e-05 3.334470966365188360e-05
5.141000000000000000e+03 1.184083175659179688e+01 8.427630424499511719e+00 1.150781099568121135e-05 1.250237528438447043e-05 7.203056156868115067e-06 -4.230339527566684410e-06
5.142000000000000000e+03 1.182221221923828125e+01 9.612538337707519531e+00 1.558900476084090769e-05 -7.304158316401299089e-06 2.485453933331882581e-06 1.145738406194141135e-05
5.143000000000000000e+03 2.175560760498046875e+01 -1.157550144195556641e+01 5.801188945770263672e-01 -3.492515385150909424e-01 6.926020979881286621e-02 -4.375441372394561768e-02
5.144000000000000000e+03 7.222177505493164062e+00 -1.032125759124755859e+01 1.642857119441032410e-02 9.641024470329284668e-02 3.385164588689804077e-02 -3.351255059242248535e-01
5.145000000000000000e+03 7.147843170166015625e+01 9.660547256469726562e+00 -4.347739741206169128e-02 -4.426623880863189697e-01 -1.458419263362884521e-01 -7.099328041076660156e-01
5.146000000000000000e+03 7.162547302246093750e+01 2.345661354064941406e+01 1.966226696968078613e-01 -9.226024746894836426e-01 -2.177939563989639282e-01 -3.169680833816528320e-01
5.147000000000000000e+03 2.466576957702636719e+01 -1.221466732025146484e+01 8.268709778785705566e-01 -4.702845215797424316e-01 1.069759353995323181e-01 1.086842119693756104e-01
5.148000000000000000e+03 2.623603057861328125e+01 -1.196763610839843750e+01 9.945795536041259766e-01 -5.344502329826354980e-01 1.380388140678405762e-01 1.739516705274581909e-01
5.149000000000000000e+03 7.006770324707031250e+01 1.708868217468261719e+01 2.350388765335083008e-01 -5.967491865158081055e-01 -1.085131019353866577e-01 -6.101992726325988770e-01
5.150000000000000000e+03 6.238719558715820312e+01 3.756252765655517578e+00 -9.507830739021301270e-01 1.597536504268646240e-01 -2.373088300228118896e-01 -8.031515479087829590e-01
5.151000000000000000e+03 7.165575408935546875e+01 6.858645439147949219e+00 -1.561304181814193726e-01 -3.037791252136230469e-01 -1.379728615283966064e-01 -6.507438421249389648e-01
5.152000000000000000e+03 7.237876129150390625e+01 9.232866287231445312e+00 -5.883073434233665466e-02 -4.696354269981384277e-01 -1.585398465394973755e-01 -6.545081734657287598e-01
5.153000000000000000e+03 7.257942962646484375e+01 1.751958608627319336e+00 -2.362691611051559448e-01 -1.145266592502593994e-01 -1.052387505769729614e-01 -3.642349243164062500e-01
5.154000000000000000e+03 7.270346069335937500e+01 2.915480375289916992e+00 -2.174189686775207520e-01 -1.623293161392211914e-01 -1.139244884252548218e-01 -4.213791787624359131e-01
5.155000000000000000e+03 7.714253425598144531e+00 2.525433540344238281e+01 8.327911200467497110e-05 1.051490107784047723e-04 5.652843901771120727e-05 -2.350790236960165203e-05
5.156000000000000000e+03 9.120200157165527344e+00 2.688005638122558594e+01 1.257439143955707550e-04 1.609233913768548518e-05 4.255087333149276674e-05 -1.023087606881745160e-04
5.157000000000000000e+03 9.967133522033691406e+00 -1.085586357116699219e+01 1.425954550504684448e-01 2.710811495780944824e-01 1.241029798984527588e-01 -2.268674522638320923e-01
5.158000000000000000e+03 8.121456146240234375e+00 1.689315223693847656e+01 -3.535053474479354918e-05 -4.567873111227527261e-05 -2.430877975712064654e-05 -6.611332992179086432e-07
5.159000000000000000e+03 7.286061096191406250e+01 3.497678518295288086e+00 -1.959230005741119385e-01 -1.978342831134796143e-01 -1.181271821260452271e-01 -4.439610242843627930e-01
5.160000000000000000e+03 6.758428192138671875e+01 1.673591375350952148e+00 -6.134860515594482422e-01 9.885235875844955444e-02 -1.543901115655899048e-01 -4.947524666786193848e-01
5.161000000000000000e+03 1.128692722320556641e+01 -1.098907184600830078e+01 1.948902159929275513e-01 2.697375416755676270e-01 1.393883228302001953e-01 -1.727492660284042358e-01
5.162000000000000000e+03 7.030229949951171875e+01 1.281781482696533203e+01 8.633728325366973877e-02 -4.941657781600952148e-01 -1.223485469818115234e-01 -7.379347085952758789e-01
5.163000000000000000e+03 7.149338531494140625e+01 1.242228412628173828e+01 5.561676248908042908e-02 -5.778616070747375488e-01 -1.566734611988067627e-01 -6.948338150978088379e-01
5.164000000000000000e+03 7.193865203857421875e+01 -3.868519067764282227e+00 -1.731114089488983154e-01 -1.300109736621379852e-02 -5.583375319838523865e-02 -7.219840586185455322e-02
5.165000000000000000e+03 7.148435974121093750e+01 6.033115386962890625e+00 -1.949992775917053223e-01 -2.502920627593994141e-01 -1.335874050855636597e-01 -6.292316913604736328e-01
5.166000000000000000e+03 7.077689361572265625e+01 1.792545700073242188e+01 2.151575535535812378e-01 -6.994732618331909180e-01 -1.452947109937667847e-01 -5.605385899543762207e-01
5.167000000000000000e+03 7.009786224365234375e+01 -3.715465545654296875e+00 -2.533447146415710449e-01 1.935232058167457581e-02 -7.019771635532379150e-02 -6.634404510259628296e-02
5.168000000000000000e+03 7.224449920654296875e+01 1.170882511138916016e+01 2.766372635960578918e-02 -6.053735613822937012e-01 -1.733129471540451050e-01 -6.669506430625915527e-01
5.169000000000000000e+03 2.198374938964843750e+01 -8.990542411804199219e+00 2.339928895235061646e-01 -3.357859849929809570e-01 -3.053792752325534821e-02 -2.023031264543533325e-01
5.170000000000000000e+03 2.112201499938964844e+01 -9.065212249755859375e+00 1.928806453943252563e-01 -2.817193865776062012e-01 -2.665162459015846252e-02 -1.721806824207305908e-01
5.171000000000000000e+03 7.206115722656250000e+01 -1.545384049415588379e+00 -2.366299033164978027e-01 -2.519482932984828949e-02 -7.854741811752319336e-02 -1.803651303052902222e-01
5.172000000000000000e+03 6.927466583251953125e+01 -2.525023937225341797e+00 -3.680108785629272461e-01 5.354245752096176147e-02 -9.434053301811218262e-02 -1.201541945338249207e-01
5.173000000000000000e+03 7.504302978515625000e+00 1.542738533020019531e+01 -5.669451638823375106e-06 4.444319074536906555e-06 -3.675397408642311348e-07 -4.423735845193732530e-06
5.174000000000000000e+03 7.280704498291015625e+01 1.070249676704406738e+00 -2.231613248586654663e-01 -1.016185581684112549e-01 -9.743396937847137451e-02 -3.166311979293823242e-01
5.175000000000000000e+03 7.892250061035156250e+00 -1.020050048828125000e+01 2.087524719536304474e-02 1.462319642305374146e-01 5.013216659426689148e-02 -3.181458413600921631e-01
5.176000000000000000e+03 7.697576045989990234e+00 -9.471564292907714844e+00 -3.022667765617370605e-02 1.141280159354209900e-01 2.517040073871612549e-02 -3.323267102241516113e-01
5.177000000000000000e+03 7.154853057861328125e+01 1.321070766448974609e+01 7.921154797077178955e-02 -6.183987259864807129e-01 -1.617561578750610352e-01 -6.792255640029907227e-01
5.178000000000000000e+03 8.868985176086425781e+00 1.878051948547363281e+01 1.175537909148260951e-05 -8.683889609528705478e-05 -2.252505510114133358e-05 -1.763377076713368297e-05
5.179000000000000000e+03 7.353246212005615234e+00 2.464668083190917969e+01 5.193929973756894469e-05 -1.117523279390297830e-04 -1.794390846043825150e-05 -1.112070367526030168e-05
5.180000000000000000e+03 7.073466300964355469e+00 1.820726966857910156e+01 -1.652509126870427281e-05 -6.976151053095236421e-05 -2.588597999420017004e-05 -1.433227498637279496e-05
5.181000000000000000e+03 9.428494453430175781e+00 1.688234519958496094e+01 -6.988253880990669131e-05 -2.239554669358767569e-05 -2.768342528725042939e-05 7.776528036629315466e-06
5.182000000000000000e+03 1.007289409637451172e+01 1.850048828125000000e+01 -5.646902081934968010e-06 -5.849157241755165160e-05 -1.924154275911860168e-05 -6.842124093964230269e-06
5.183000000000000000e+03 8.829605102539062500e+00 8.567719459533691406e+00 7.514670869568362832e-06 1.475379349358263426e-06 2.697015133890090510e-06 -8.229917511926032603e-06
5.184000000000000000e+03 8.156025886535644531e+00 8.611563682556152344e+00 -1.499325844633858651e-05 5.834547209815355018e-07 -4.322941094869747758e-06 1.235337185789830983e-05
5.185000000000000000e+03 2.889200592041015625e+01 -1.192229557037353516e+01 1.411082625389099121e+00 -4.053982496261596680e-01 3.017053008079528809e-01 3.616584241390228271e-01
5.186000000000000000e+03 9.497216224670410156e+00 1.112393760681152344e+01 -3.062061296077445149e-05 -1.538196920591872185e-05 -1.380077446810901165e-05 -7.094310205957299331e-08
5.187000000000000000e+03 8.221473693847656250e+00 1.164419841766357422e+01 -1.646327655180357397e-05 -2.714249603741336614e-05 -1.308173159486614168e-05 2.008109913731459528e-05
5.188000000000000000e+03 3.499817276000976562e+01 -1.176719379425048828e+01 1.726528286933898926e+00 3.508607149124145508e+00 1.570540666580200195e+00 3.665527999401092529e-01
5.189000000000000000e+03 3.391631698608398438e+01 -1.258129787445068359e+01 1.652429938316345215e+00 2.272137880325317383e+00 1.177370309829711914e+00 3.033006191253662109e-01
5.190000000000000000e+03 8.721946716308593750e+00 1.210184288024902344e+01 -3.398109811314498074e-07 3.338025271659716964e-05 9.912132554745767266e-06 -1.890104795165825635e-05
5.191000000000000000e+03 8.742505073547363281e+00 -1.084581184387207031e+01 9.370882809162139893e-02 2.217438519001007080e-01 9.463579952716827393e-02 -2.723454236984252930e-01
5.192000000000000000e+03 7.159802246093750000e+01 2.062947654724121094e+01 1.963883638381958008e-01 -8.693928122520446777e-01 -2.019013464450836182e-01 -4.311358034610748291e-01
5.193000000000000000e+03 7.066035461425781250e+01 1.887142944335937500e+01 2.277838140726089478e-01 -7.086590528488159180e-01 -1.442625671625137329e-01 -5.247519612312316895e-01
5.194000000000000000e+03 3.563302612304687500e+01 -9.819568634033203125e+00 1.842881798744201660e+00 4.183602809906005859e+00 1.807945370674133301e+00 5.850623846054077148e-01
5.195000000000000000e+03 3.219962310791015625e+01 -1.291095542907714844e+01 1.641794919967651367e+00 7.508550286293029785e-01 7.177949547767639160e-01 3.957123160362243652e-01
5.196000000000000000e+03 2.972117424011230469e+01 -8.050760269165039062e+00 1.147549629211425781e+00 -5.241197347640991211e-01 1.870289742946624756e-01 -2.975353002548217773e-01
5.197000000000000000e+03 7.247007751464843750e+01 -5.602788925170898438e+00 -9.930993616580963135e-02 -2.270616032183170319e-02 -3.660482913255691528e-02 -3.043780289590358734e-02
5.198000000000000000e+03 1.901583290100097656e+01 -9.018253326416015625e+00 1.336289346218109131e-01 -1.559141427278518677e-01 -6.685560103505849838e-03 -1.297820508480072021e-01
5.199000000000000000e+03 4.887993240356445312e+01 1.969566154479980469e+01 1.063674569129943848e+00 4.202868938446044922e+00 1.579963088035583496e+00 7.239264845848083496e-01
5.200000000000000000e+03 4.877698135375976562e+01 2.127322196960449219e+01 9.460023641586303711e-01 4.314536571502685547e+00 1.578161716461181641e+00 5.952380299568176270e-01
5.201000000000000000e+03 9.109879493713378906e+00 2.469380950927734375e+01 1.110098237404599786e-04 4.441240525920875371e-05 4.662666833610273898e-05 2.202574069087859243e-05
5.202000000000000000e+03 8.666116714477539062e+00 2.558706665039062500e+01 1.139548840001225471e-04 5.500907718669623137e-05 5.068918835604563355e-05 -9.107740879699122161e-06
5.203000000000000000e+03 1.926955604553222656e+01 -1.058863925933837891e+01 3.742330074310302734e-01 -1.858655363321304321e-01 5.651023983955383301e-02 -7.964939624071121216e-02
5.204000000000000000e+03 4.930069351196289062e+01 1.894766807556152344e+01 1.160472035408020020e+00 3.917467832565307617e+00 1.523381948471069336e+00 7.440890669822692871e-01
5.205000000000000000e+03 2.175899887084960938e+01 -1.253145503997802734e+01 6.611146330833435059e-01 -3.293445110321044922e-01 9.953103214502334595e-02 2.440175972878932953e-03
5.206000000000000000e+03 2.296591758728027344e+01 -1.191650485992431641e+01 6.807138323783874512e-01 -4.066323041915893555e-01 8.222446590662002563e-02 5.592326633632183075e-03
5.207000000000000000e+03 3.217972946166992188e+01 -1.002091598510742188e+01 1.854935765266418457e+00 7.628147602081298828e-01 7.853251099586486816e-01 2.674235105514526367e-01
5.208000000000000000e+03 3.417722320556640625e+01 -1.192791461944580078e+01 1.754694461822509766e+00 2.567641735076904297e+00 1.296700835227966309e+00 3.198814392089843750e-01
5.209000000000000000e+03 3.489275741577148438e+01 -1.058118724822998047e+01 1.863259077072143555e+00 3.345396757125854492e+00 1.562596797943115234e+00 4.700855016708374023e-01
5.210000000000000000e+03 6.886757659912109375e+01 -1.902756690979003906e+00 -4.333775639533996582e-01 7.389671355485916138e-02 -1.078442558646202087e-01 -1.613187938928604126e-01
5.211000000000000000e+03 7.181530761718750000e+01 -5.167495727539062500e+00 -1.244260072708129883e-01 -1.676161400973796844e-02 -4.235628619790077209e-02 -3.538302332162857056e-02
5.212000000000000000e+03 5.581837081909179688e+01 5.570340156555175781e+00 -1.000221371650695801e+00 3.215249776840209961e-01 -2.036089152097702026e-01 -8.633607625961303711e-01
5.213000000000000000e+03 9.845569610595703125e+00 2.081281852722167969e+01 3.929552258341573179e-05 1.868211256805807352e-05 1.739328945404849946e-05 -7.169426680775359273e-05
5.214000000000000000e+03 1.450328731536865234e+01 -9.334051132202148438e+00 7.912681251764297485e-02 1.103403419256210327e-01 5.684014409780502319e-02 -1.239350587129592896e-01
5.215000000000000000e+03 3.371011352539062500e+01 -1.145946025848388672e+01 1.871952414512634277e+00 2.127620697021484375e+00 1.199871897697448730e+00 3.770451843738555908e-01
5.216000000000000000e+03 3.635489273071289062e+01 -9.072101593017578125e+00 1.795146584510803223e+00 5.059361934661865234e+00 2.056352615356445312e+00 7.144355177879333496e-01
5.217000000000000000e+03 3.596434783935546875e+01 -7.490151405334472656e+00 1.643535017967224121e+00 4.303712844848632812e+00 1.784174442291259766e+00 7.416457533836364746e-01
5.218000000000000000e+03 4.894806289672851562e+01 1.117684936523437500e+01 1.429517626762390137e+00 2.564567089080810547e+00 1.198225498199462891e+00 7.313621044158935547e-01
5.219000000000000000e+03 1.809815788269042969e+01 -1.116201114654541016e+01 4.014158844947814941e-01 -1.125733405351638794e-01 8.665276318788528442e-02 -5.869267880916595459e-02
5.220000000000000000e+03 1.888225173950195312e+01 -1.096380519866943359e+01 3.985505402088165283e-01 -1.568259596824645996e-01 7.251738011837005615e-02 -6.215887144207954407e-02
5.221000000000000000e+03 7.058721160888671875e+01 1.987092018127441406e+01 2.355826497077941895e-01 -7.158898115158081055e-01 -1.440921425819396973e-01 -4.819262325763702393e-01
5.222000000000000000e+03 1.525131607055664062e+01 -1.019788074493408203e+01 2.051367610692977905e-01 8.377687633037567139e-02 8.667408674955368042e-02 -9.125812351703643799e-02
5.223000000000000000e+03 6.790860748291015625e+01 1.012246489524841309e+00 -5.887462496757507324e-01 9.628284722566604614e-02 -1.477390229701995850e-01 -4.253168106079101562e-01
5.224000000000000000e+03 6.865646362304687500e+01 -2.448288947343826294e-01 -5.121049284934997559e-01 8.237590640783309937e-02 -1.289187073707580566e-01 -2.982383072376251221e-01
5.225000000000000000e+03 4.827861404418945312e+01 1.173085117340087891e+01 1.521745681762695312e+00 3.118399620056152344e+00 1.392043590545654297e+00 9.711377024650573730e-01
5.226000000000000000e+03 6.025627517700195312e+01 4.496979713439941406e+00 -9.863840341567993164e-01 1.701319068670272827e-01 -2.448756247758865356e-01 -8.785834908485412598e-01
5.227000000000000000e+03 6.048846817016601562e+01 3.621722221374511719e+00 -1.161111116409301758e+00 1.648250073194503784e-01 -2.988858222961425781e-01 -8.017296195030212402e-01
5.228000000000000000e+03 1.787983512878417969e+01 -1.021066951751708984e+01 2.681274116039276123e-01 -9.353268891572952271e-02 5.237841606140136719e-02 -8.527293801307678223e-02
5.229000000000000000e+03 5.371494293212890625e+01 4.721563339233398438e+00 -1.522000908851623535e+00 4.083938002586364746e-01 -3.340821266174316406e-01 -7.479783296585083008e-01
5.230000000000000000e+03 9.808265686035156250e+00 2.235282707214355469e+01 1.078387431334704161e-04 1.124683622037991881e-04 6.609212869079783559e-05 -3.613391163526102901e-05
5.231000000000000000e+03 8.410702705383300781e+00 2.271275329589843750e+01 1.383173948852345347e-04 3.578278722216055030e-07 4.160256503382697701e-05 -1.130033051595091820e-04
5.232000000000000000e+03 3.136065864562988281e+01 -8.770867347717285156e+00 1.611973881721496582e+00 1.563828587532043457e-01 5.305070281028747559e-01 3.284166008234024048e-02
5.233000000000000000e+03 7.284863281250000000e+01 1.429939937591552734e+01 8.565173298120498657e-02 -7.853026390075683594e-01 -2.098952680826187134e-01 -5.999118685722351074e-01
5.234000000000000000e+03 5.936170196533203125e+01 4.082020282745361328e+00 -1.165507674217224121e+00 1.732832342386245728e-01 -2.976673245429992676e-01 -8.299195170402526855e-01
5.235000000000000000e+03 9.192499160766601562e+00 2.081394958496093750e+01 4.319326762924902141e-06 -6.103654868638841435e-06 -5.352983976081304718e-07 7.643768913112580776e-05
5.236000000000000000e+03 9.884687423706054688e+00 2.135962867736816406e+01 1.567006802360992879e-05 -9.675585715740453452e-06 1.798344783310312778e-06 8.691410039318725467e-05
5.237000000000000000e+03 1.121189403533935547e+01 1.290779304504394531e+01 -2.289234180352650583e-05 3.595922316890209913e-05 3.920064045814797282e-06 2.027858499786816537e-05
5.238000000000000000e+03 4.850255966186523438e+01 6.512282848358154297e+00 1.556750386953353882e-02 1.165032267570495605e+00 3.541799187660217285e-01 2.556844651699066162e-01
5.239000000000000000e+03 3.249494552612304688e+01 -7.193682670593261719e+00 1.274976253509521484e+00 5.260927677154541016e-01 5.403206944465637207e-01 3.019295446574687958e-02
5.240000000000000000e+03 3.287643051147460938e+01 -9.162281990051269531e+00 1.847546815872192383e+00 1.188831448554992676e+00 9.109134674072265625e-01 2.717465758323669434e-01
5.241000000000000000e+03 9.756941795349121094e+00 1.972170639038085938e+01 3.884497709805145860e-05 3.005080907314550132e-05 2.066873457806650549e-05 -2.416113420622423291e-05
5.242000000000000000e+03 4.909803009033203125e+01 9.976440429687500000e+00 1.261798262596130371e+00 2.157722473144531250e+00 1.025856256484985352e+00 5.599844455718994141e-01
5.243000000000000000e+03 4.870979690551757812e+01 1.645459938049316406e+01 1.351567387580871582e+00 3.940738916397094727e+00 1.587691903114318848e+00 9.337520599365234375e-01
5.244000000000000000e+03 4.957491683959960938e+01 1.815645408630371094e+01 1.236640810966491699e+00 3.701608419418334961e+00 1.481474757194519043e+00 7.553429603576660156e-01
5.245000000000000000e+03 1.013563442230224609e+01 1.268284797668457031e+01 -3.556373485480435193e-05 4.252735379850491881e-05 2.089085455736494623e-06 1.366886044706916437e-05
5.246000000000000000e+03 6.968160247802734375e+01 -3.132829189300537109e+00 -3.079846799373626709e-01 3.580894693732261658e-02 -8.165272325277328491e-02 -9.144922345876693726e-02
5.247000000000000000e+03 1.003185272216796875e+01 1.735393714904785156e+01 7.045270467642694712e-05 3.430520519032143056e-05 3.142737114103510976e-05 -2.532746475480962545e-05
5.248000000000000000e+03 4.840941619873046875e+01 1.559473228454589844e+01 1.404521942138671875e+00 3.957460641860961914e+00 1.608594775199890137e+00 1.008929848670959473e+00
5.249000000000000000e+03 4.950117492675781250e+01 1.626933670043945312e+01 1.388886451721191406e+00 3.456093072891235352e+00 1.453493833541870117e+00 8.120235204696655273e-01
5.250000000000000000e+03 7.027514648437500000e+01 -2.269426546990871429e-02 -3.866829574108123779e-01 1.867403835058212280e-02 -1.104026734828948975e-01 -3.015751242637634277e-01
5.251000000000000000e+03 5.994716262817382812e+01 3.832191705703735352e+00 -1.177877068519592285e+00 1.675723493099212646e-01 -3.030914366245269775e-01 -8.132843375205993652e-01
5.252000000000000000e+03 3.069795608520507812e+01 -8.303360939025878906e+00 1.405814409255981445e+00 -1.982969790697097778e-01 3.622552156448364258e-01 -1.217425316572189331e-01
5.253000000000000000e+03 4.982275390625000000e+01 6.778204917907714844e+00 -5.287245661020278931e-02 8.978101015090942383e-01 2.534812986850738525e-01 -1.562497019767761230e-01
5.254000000000000000e+03 3.016081619262695312e+01 -7.433867931365966797e+00 1.013450026512145996e+00 -4.998296499252319336e-01 1.540860980749130249e-01 -3.627607524394989014e-01
5.255000000000000000e+03 9.535407066345214844e+00 8.604718208312988281e+00 -7.073619599395897239e-06 3.744613152889542107e-08 -2.110852165060350671e-06 6.113975814514560625e-06
5.256000000000000000e+03 1.021045970916748047e+01 1.058495235443115234e+01 2.005330679821781814e-05 1.768048787198495120e-05 1.132013858295977116e-05 -1.862283511400164571e-06
5.257000000000000000e+03 4.755343246459960938e+01 7.793190002441406250e+00 7.775121927261352539e-01 2.186868906021118164e+00 8.893143534660339355e-01 8.337124586105346680e-01
5.258000000000000000e+03 1.006653976440429688e+01 1.386467456817626953e+01 -3.397560431039892137e-05 -1.748865906847640872e-05 -1.543927828606683761e-05 4.278071173757780343e-06
5.259000000000000000e+03 2.509631347656250000e+01 -1.187389659881591797e+01 8.780420422554016113e-01 -5.133295059204101562e-01 1.094137728214263916e-01 9.780475497245788574e-02
5.260000000000000000e+03 4.776452255249023438e+01 1.382519721984863281e+01 1.522172212600708008e+00 3.990877389907836914e+00 1.653914928436279297e+00 1.149989962577819824e+00
5.261000000000000000e+03 4.809960174560546875e+01 1.468112468719482422e+01 1.486522436141967773e+00 3.973037719726562500e+00 1.637868046760559082e+00 1.093458652496337891e+00
5.262000000000000000e+03 8.791343688964843750e+00 1.621003913879394531e+01 6.036944978404790163e-05 3.843319427687674761e-05 2.964079249068163335e-05 -3.256280251662246883e-06
5.263000000000000000e+03 1.581982803344726562e+01 -9.690772056579589844e+00 1.502841711044311523e-01 4.999486356973648071e-02 6.008370965719223022e-02 -9.548453241586685181e-02
5.264000000000000000e+03 7.165371704101562500e+01 8.995549201965332031e+00 -7.689743489027023315e-02 -4.138121902942657471e-01 -1.472128927707672119e-01 -6.897922754287719727e-01
5.265000000000000000e+03 7.203237915039062500e+01 7.559638977050781250e+00 -1.206931173801422119e-01 -3.590731024742126465e-01 -1.439298689365386963e-01 -6.470600366592407227e-01
5.266000000000000000e+03 7.622445583343505859e+00 2.231652259826660156e+01 1.015137968352064490e-04 1.441102267563110217e-05 3.477744758129119873e-05 -7.368708611465990543e-05
5.267000000000000000e+03 5.045098114013671875e+01 6.660348415374755859e+00 -2.105174064636230469e-01 7.219926118850708008e-01 1.534425616264343262e-01 -3.585008084774017334e-01
5.268000000000000000e+03 4.872265243530273438e+01 9.231955528259277344e+00 1.133783817291259766e+00 2.100070714950561523e+00 9.701563715934753418e-01 5.958708524703979492e-01
5.269000000000000000e+03 7.057498168945312500e+01 -4.249330997467041016e+00 -2.026673257350921631e-01 3.180200932547450066e-03 -5.984613671898841858e-02 -5.366118252277374268e-02
5.270000000000000000e+03 3.517251205444335938e+01 -7.522505283355712891e+00 1.622815370559692383e+00 3.236463546752929688e+00 1.457783699035644531e+00 5.787710547447204590e-01
5.271000000000000000e+03 3.378479003906250000e+01 -7.520112991333007812e+00 1.556765556335449219e+00 1.665784955024719238e+00 9.667651057243347168e-01 2.897378504276275635e-01
5.272000000000000000e+03 2.746625900268554688e+01 -1.221121120452880859e+01 1.197970986366271973e+00 -5.124148130416870117e-01 2.056668400764465332e-01 3.141864240169525146e-01
5.273000000000000000e+03 1.039563274383544922e+01 1.442939853668212891e+01 3.762514825211837888e-05 3.734156416612677276e-05 2.249001408927142620e-05 -1.231914029631298035e-05
5.274000000000000000e+03 9.536998748779296875e+00 1.576138019561767578e+01 -5.846624117111787200e-05 -2.403838516329415143e-05 -2.475138717272784561e-05 -1.018973762256791815e-06
5.275000000000000000e+03 7.375981330871582031e+00 2.163393402099609375e+01 -1.976297608052846044e-05 -3.919119535567006096e-06 -7.104628821252845228e-06 5.088939360575750470e-05
5.276000000000000000e+03 4.832167434692382812e+01 1.325416851043701172e+01 1.546931624412536621e+00 3.495692491531372070e+00 1.512787222862243652e+00 1.038478732109069824e+00
5.277000000000000000e+03 1.088519763946533203e+01 1.180745983123779297e+01 2.468397178745362908e-05 1.903640986711252481e-05 1.311611413257196546e-05 -5.937261903454782441e-06
5.278000000000000000e+03 1.009680843353271484e+01 9.472327232360839844e+00 -5.722088189941132441e-06 1.550466367916669697e-05 2.934772510343464091e-06 -3.741292005088325823e-07
5.279000000000000000e+03 7.080875396728515625e+01 1.611919021606445312e+01 1.811079382896423340e-01 -6.525973081588745117e-01 -1.414467990398406982e-01 -6.321147680282592773e-01
5.280000000000000000e+03 7.044762420654296875e+01 1.533644962310791016e+01 1.707691997289657593e-01 -5.969532132148742676e-01 -1.278551965951919556e-01 -6.650284528732299805e-01
5.281000000000000000e+03 2.270712089538574219e+01 -1.109506702423095703e+01 5.942308902740478516e-01 -4.139427244663238525e-01 5.408645421266555786e-02 -6.288299709558486938e-02
5.282000000000000000e+03 2.449699783325195312e+01 -9.639540672302246094e+00 5.991794466972351074e-01 -5.503145456314086914e-01 1.465947739779949188e-02 -1.927025765180587769e-01
5.283000000000000000e+03 7.078868865966796875e+01 2.427775382995605469e+01 2.176295816898345947e-01 -8.027222156524658203e-01 -1.755277961492538452e-01 -2.961228787899017334e-01
5.284000000000000000e+03 5.339099502563476562e+01 5.381002902984619141e+00 -1.189567446708679199e+00 4.129726886749267578e-01 -2.329784035682678223e-01 -7.987315058708190918e-01
5.285000000000000000e+03 6.166343307495117188e+01 3.637893915176391602e+00 -1.031461834907531738e+00 1.633022129535675049e-01 -2.604478895664215088e-01 -8.007534742355346680e-01
5.286000000000000000e+03 6.906190490722656250e+01 -8.615878224372863770e-01 -4.632119238376617432e-01 7.142274081707000732e-02 -1.175367534160614014e-01 -2.449339926242828369e-01
5.287000000000000000e+03 8.166694641113281250e+00 2.880565261840820312e+01 5.015529313823208213e-05 -7.495190948247909546e-05 -7.438983629981521517e-06 -2.364248066442087293e-04
5.288000000000000000e+03 2.736506652832031250e+01 -9.738412857055664062e+00 1.054598927497863770e+00 -6.506773829460144043e-01 1.211764812469482422e-01 -1.113402098417282104e-01
5.289000000000000000e+03 1.071760368347167969e+01 1.279074573516845703e+01 4.644003274734131992e-05 -2.001684879360254854e-05 7.926954822323750705e-06 -4.510426879278384149e-05
5.290000000000000000e+03 8.501381874084472656e+00 1.073158264160156250e+01 -3.179423583787865937e-05 -8.869919838616624475e-06 -1.219924706674646586e-05 4.452999291970627382e-06
5.291000000000000000e+03 6.770648956298828125e+00 1.364829063415527344e+01 1.383262497256509960e-05 5.715252427762607113e-06 5.864363174623576924e-06 -1.091990816348697990e-05
5.292000000000000000e+03 8.131228446960449219e+00 1.266418266296386719e+01 -4.749764775624498725e-05 -1.199783309857593849e-05 -1.784864434739574790e-05 2.501722701708786190e-05
5.293000000000000000e+03 1.146620655059814453e+01 -8.705324172973632812e+00 -4.780368879437446594e-02 1.929360628128051758e-01 4.353971406817436218e-02 -2.203643918037414551e-01
5.294000000000000000e+03 4.394667053222656250e+01 -2.915077400207519531e+01 9.339874982833862305e-02 2.865546464920043945e+00 8.876835703849792480e-01 -8.293525576591491699e-01
5.295000000000000000e+03 7.174242401123046875e+01 -2.527129650115966797e+00 -2.311436980962753296e-01 -9.020615369081497192e-03 -7.204929739236831665e-02 -1.330516636371612549e-01
5.296000000000000000e+03 3.362452316284179688e+01 -8.293019294738769531e+00 1.721501827239990234e+00 1.641061544418334961e+00 1.008769035339355469e+00 3.334117233753204346e-01
5.297000000000000000e+03 3.572310638427734375e+01 -9.026679039001464844e+00 1.839499831199645996e+00 4.237676620483398438e+00 1.823152899742126465e+00 6.404684782028198242e-01
5.298000000000000000e+03 6.474623870849609375e+01 2.348554611206054688e+00 -8.779775500297546387e-01 1.645733118057250977e-01 -2.140212804079055786e-01 -6.128324866294860840e-01
5.299000000000000000e+03 6.510868835449218750e+01 1.794429302215576172e+00 -8.695916533470153809e-01 1.719377487897872925e-01 -2.092961668968200684e-01 -5.611438155174255371e-01
5.300000000000000000e+03 1.879353141784667969e+01 -1.019306373596191406e+01 3.065298795700073242e-01 -1.563850194215774536e-01 4.504345357418060303e-02 -9.091400355100631714e-02
5.301000000000000000e+03 4.925602722167968750e+01 2.239177131652832031e+01 9.219387769699096680e-01 4.118558406829833984e+00 1.512149095535278320e+00 5.106675624847412109e-01
5.302000000000000000e+03 7.030628967285156250e+01 2.763843727111816406e+01 1.997915059328079224e-01 -7.204465866088867188e-01 -1.561965197324752808e-01 -1.750581115484237671e-01
5.303000000000000000e+03 7.044695281982421875e+01 2.924001312255859375e+01 1.642978638410568237e-01 -7.442806363105773926e-01 -1.739948242902755737e-01 -1.112622395157814026e-01
5.304000000000000000e+03 7.061808776855468750e+01 2.089033126831054688e+01 2.382155954837799072e-01 -7.363660335540771484e-01 -1.494451314210891724e-01 -4.416333138942718506e-01
5.305000000000000000e+03 4.847514724731445312e+01 2.290567588806152344e+01 8.539380431175231934e-01 4.455403327941894531e+00 1.592802524566650391e+00 4.698677361011505127e-01
5.306000000000000000e+03 5.087592697143554688e+01 2.611050796508789062e+01 8.156815767288208008e-01 3.463587999343872070e+00 1.283780932426452637e+00 3.991653025150299072e-01
5.307000000000000000e+03 5.111315155029296875e+01 2.984389114379882812e+01 5.245962738990783691e-01 3.317838430404663086e+00 1.152730464935302734e+00 4.311512708663940430e-01
5.308000000000000000e+03 7.114851379394531250e+01 2.273705863952636719e+01 2.161197811365127563e-01 -8.435616493225097656e-01 -1.882325708866119385e-01 -3.557496368885040283e-01
5.309000000000000000e+03 6.605819702148437500e+01 3.616761016845703125e+01 5.286579951643943787e-02 2.176224887371063232e-01 8.114648610353469849e-02 1.348946988582611084e-02
5.310000000000000000e+03 6.889682769775390625e+01 2.979511451721191406e+01 1.905043572187423706e-01 -4.565415084362030029e-01 -7.981114834547042847e-02 -1.059816777706146240e-01
5.311000000000000000e+03 5.172792434692382812e+01 3.440510940551757812e+01 -4.482980817556381226e-02 3.277375459671020508e+00 9.697636961936950684e-01 3.921483159065246582e-01
5.312000000000000000e+03 8.514509201049804688e+00 2.016096878051757812e+01 2.587756171124055982e-05 1.332415558863431215e-05 1.176051500806352124e-05 5.917673843214288354e-05
5.313000000000000000e+03 8.286235809326171875e+00 1.908684158325195312e+01 1.836548653955105692e-05 1.202551575261168182e-04 4.158619412919506431e-05 3.366421196915325709e-06
5.314000000000000000e+03 2.459839820861816406e+01 -1.045489025115966797e+01 7.043913602828979492e-01 -5.415247082710266113e-01 4.885998368263244629e-02 -8.717784285545349121e-02
5.315000000000000000e+03 9.748983383178710938e+00 -1.030481243133544922e+01 7.155529409646987915e-02 2.356351315975189209e-01 9.215712547302246094e-02 -2.516910135746002197e-01
5.316000000000000000e+03 2.092629623413085938e+01 -1.224339199066162109e+01 6.131390929222106934e-01 -2.948057353496551514e-01 9.550001472234725952e-02 -2.410370111465454102e-02
5.317000000000000000e+03 3.068809890747070312e+01 -1.227571773529052734e+01 1.642116785049438477e+00 2.842671424150466919e-02 5.011630654335021973e-01 4.433381259441375732e-01
5.318000000000000000e+03 3.069936370849609375e+01 -8.877264022827148438e+00 1.531583905220031738e+00 -1.393619477748870850e-01 4.176665544509887695e-01 -2.057044953107833862e-02
5.319000000000000000e+03 8.275064468383789062e+00 2.642150497436523438e+01 1.173147393274120986e-04 1.009496736514847726e-05 3.822291182586923242e-05 -6.127825326984748244e-05
5.320000000000000000e+03 4.693221664428710938e+01 8.079386711120605469e+00 9.861692190170288086e-01 2.756633281707763672e+00 1.122840762138366699e+00 1.126115322113037109e+00
5.321000000000000000e+03 4.924578475952148438e+01 6.879747867584228516e+00 9.007015824317932129e-02 1.002665281295776367e+00 3.278206288814544678e-01 2.767972275614738464e-02
5.322000000000000000e+03 7.203325653076171875e+01 5.304627895355224609e+00 -2.008506357669830322e-01 -2.361853420734405518e-01 -1.311108022928237915e-01 -5.717911124229431152e-01
5.323000000000000000e+03 7.141950988769531250e+01 5.271687030792236328e+00 -2.264031618833541870e-01 -2.085392922163009644e-01 -1.304827332496643066e-01 -5.964016914367675781e-01
5.324000000000000000e+03 7.086185455322265625e+01 4.300329387187957764e-01 -3.478738367557525635e-01 -1.411828398704528809e-02 -1.085976287722587585e-01 -3.287554085254669189e-01
5.325000000000000000e+03 7.034308624267578125e+01 9.452362060546875000e+00 -6.621883064508438110e-02 -3.493633866310119629e-01 -1.246746703982353210e-01 -7.653760910034179688e-01
5.326000000000000000e+03 2.644447517395019531e+01 -1.111457347869873047e+01 1.019479990005493164e+00 -5.923700928688049316e-01 1.281329691410064697e-01 6.255715340375900269e-02
5.327000000000000000e+03 5.465922546386718750e+01 5.418657779693603516e+00 -1.117465257644653320e+00 3.719089627265930176e-01 -2.236668765544891357e-01 -8.234746456146240234e-01
5.328000000000000000e+03 5.397867965698242188e+01 5.989907264709472656e+00 -8.870944976806640625e-01 4.268648922443389893e-01 -1.380688846111297607e-01 -8.200263977050781250e-01
5.329000000000000000e+03 8.617066383361816406e+00 -1.000115585327148438e+01 2.311182208359241486e-02 1.876298338174819946e-01 6.322249770164489746e-02 -2.996015846729278564e-01
5.330000000000000000e+03 9.416145324707031250e+00 -1.084675979614257812e+01 1.174785867333412170e-01 2.408456206321716309e-01 1.074972599744796753e-01 -2.513463497161865234e-01
5.331000000000000000e+03 1.280840015411376953e+01 -1.059748840332031250e+01 1.934259235858917236e-01 2.162891924381256104e-01 1.229145377874374390e-01 -1.360989063978195190e-01
5.332000000000000000e+03 1.936179542541503906e+01 -1.112838840484619141e+01 4.331273138523101807e-01 -1.977125704288482666e-01 7.062441855669021606e-02 -6.379988044500350952e-02
5.333000000000000000e+03 1.985951805114746094e+01 -1.134757232666015625e+01 4.590595662593841553e-01 -2.267830520868301392e-01 6.968294829130172729e-02 -6.447689235210418701e-02
5.334000000000000000e+03 1.964724922180175781e+01 -1.192564868927001953e+01 5.406077504158020020e-01 -2.152751833200454712e-01 9.759978204965591431e-02 -4.221494123339653015e-02
5.335000000000000000e+03 2.114455413818359375e+01 -1.060575389862060547e+01 4.344174265861511230e-01 -3.090523779392242432e-01 3.760950639843940735e-02 -9.389622509479522705e-02
5.336000000000000000e+03 7.968878746032714844e+00 1.369477748870849609e+01 -3.854534952552057803e-05 -1.074729789252160117e-05 -1.478779449826106429e-05 2.390494410065002739e-05
5.337000000000000000e+03 3.459486007690429688e+01 -1.130418491363525391e+01 1.837119579315185547e+00 3.063870429992675781e+00 1.470296978950500488e+00 4.067081511020660400e-01
5.338000000000000000e+03 3.206606292724609375e+01 -8.608659744262695312e+00 1.664548516273498535e+00 5.272259116172790527e-01 6.575323343276977539e-01 1.117138564586639404e-01
5.339000000000000000e+03 7.146437072753906250e+01 4.536615848541259766e+00 -2.500800192356109619e-01 -1.745416671037673950e-01 -1.273865103721618652e-01 -5.628746747970581055e-01
5.340000000000000000e+03 7.220393371582031250e+01 4.009121894836425781e+00 -2.241268604993820190e-01 -1.880684643983840942e-01 -1.236585974693298340e-01 -5.012722015380859375e-01
5.341000000000000000e+03 8.005456924438476562e+00 1.833833312988281250e+01 -4.779700248036533594e-06 -7.476531027350574732e-05 -2.386350206506904215e-05 8.550960046704858541e-06
5.342000000000000000e+03 9.183166503906250000e+00 1.974408912658691406e+01 -2.701273297134321183e-05 3.450148869887925684e-05 2.246626536361873150e-06 2.702396159293130040e-05
5.343000000000000000e+03 3.120317459106445312e+01 -1.187740707397460938e+01 1.737637162208557129e+00 2.687647044658660889e-01 6.019206047058105469e-01 3.834136426448822021e-01
5.344000000000000000e+03 3.269857025146484375e+01 -1.211177730560302734e+01 1.755788326263427734e+00 1.181368350982666016e+00 8.811469674110412598e-01 3.612938523292541504e-01
5.345000000000000000e+03 8.906682968139648438e+00 2.622224617004394531e+01 1.341566239716485143e-04 -1.314971741521731019e-04 7.978354119586583693e-07 -4.522051767708035186e-06
5.346000000000000000e+03 4.894846343994140625e+01 1.375983715057373047e+01 1.523584842681884766e+00 3.267478466033935547e+00 1.437318921089172363e+00 8.998594880104064941e-01
5.347000000000000000e+03 2.728387832641601562e+01 -1.150252056121826172e+01 1.161481499671936035e+00 -5.674732923507690430e-01 1.782024502754211426e-01 1.722841411828994751e-01
5.348000000000000000e+03 2.919363975524902344e+01 -1.028240489959716797e+01 1.440839171409606934e+00 -4.669459462165832520e-01 2.921679615974426270e-01 8.606460690498352051e-02
5.349000000000000000e+03 6.965272521972656250e+01 1.889829063415527344e+01 2.708639502525329590e-01 -5.778657197952270508e-01 -9.210053831338882446e-02 -5.408102869987487793e-01
5.350000000000000000e+03 6.986562347412109375e+01 1.791724967956542969e+01 2.488331347703933716e-01 -5.924016237258911133e-01 -1.030705347657203674e-01 -5.770934820175170898e-01
5.351000000000000000e+03 7.098640441894531250e+01 1.019016265869140625e+01 -2.021024189889431000e-02 -4.441561400890350342e-01 -1.393099129199981689e-01 -7.299972772598266602e-01
5.352000000000000000e+03 7.150884246826171875e+01 1.165991783142089844e+01 3.290632367134094238e-02 -5.443140864372253418e-01 -1.534223258495330811e-01 -7.030889391899108887e-01
5.353000000000000000e+03 2.217030334472656250e+01 -1.207557678222656250e+01 6.459077596664428711e-01 -3.619022071361541748e-01 8.520166575908660889e-02 -7.387759629637002945e-03
5.354000000000000000e+03 2.323980331420898438e+01 -1.126687812805175781e+01 6.585583686828613281e-01 -4.450002610683441162e-01 6.406743824481964111e-02 -2.953125536441802979e-02
5.355000000000000000e+03 7.245317077636718750e+01 -4.534183025360107422e+00 -1.293777525424957275e-01 -2.174969762563705444e-02 -4.533823579549789429e-02 -5.305948853492736816e-02
5.356000000000000000e+03 7.192383575439453125e+01 -3.195932626724243164e+00 -1.986565589904785156e-01 -1.400436554104089737e-02 -6.379827857017517090e-02 -1.027693450450897217e-01
5.357000000000000000e+03 7.158438110351562500e+01 3.824658155441284180e+00 -2.631871998310089111e-01 -1.503799110651016235e-01 -1.240701302886009216e-01 -5.200941562652587891e-01
5.358000000000000000e+03 6.797734832763671875e+01 2.749845981597900391e+00 -5.404308438301086426e-01 5.236290395259857178e-02 -1.464203745126724243e-01 -5.759138464927673340e-01
5.359000000000000000e+03 7.080558776855468750e+01 1.251060962677001953e+01 6.756959110498428345e-02 -5.278071165084838867e-01 -1.380712538957595825e-01 -7.212868332862854004e-01
5.360000000000000000e+03 7.009801483154296875e+01 1.366411781311035156e+01 1.271829158067703247e-01 -5.038444995880126953e-01 -1.129984706640243530e-01 -7.265297174453735352e-01
5.361000000000000000e+03 7.080612182617187500e+01 4.399383544921875000e+00 -2.863120138645172119e-01 -1.396085321903228760e-01 -1.277761757373809814e-01 -5.832968950271606445e-01
5.362000000000000000e+03 7.143341827392578125e+01 -1.898339390754699707e+00 -2.608553469181060791e-01 -7.468873634934425354e-03 -8.049726486206054688e-02 -1.656476259231567383e-01
5.363000000000000000e+03 7.240628814697265625e+01 -9.480480551719665527e-01 -2.335948795080184937e-01 -4.050614684820175171e-02 -8.223030716180801392e-02 -2.115477472543716431e-01
5.364000000000000000e+03 7.070098876953125000e+01 -6.382985115051269531e-01 -3.460662662982940674e-01 9.869691915810108185e-03 -1.008589789271354675e-01 -2.524113357067108154e-01
5.365000000000000000e+03 8.358327865600585938e+00 1.535489463806152344e+01 -4.062280277139507234e-05 -1.263193371414672583e-05 -1.597642039996571839e-05 1.331473322352394462e-05
5.366000000000000000e+03 9.885498046875000000e+00 1.788866806030273438e+01 -2.124726051988545805e-06 5.570707435254007578e-05 1.607470403541810811e-05 5.453465746541041881e-06
5.367000000000000000e+03 2.720595359802246094e+01 -8.731867790222167969e+00 8.201869130134582520e-01 -6.913973093032836914e-01 3.863688558340072632e-02 -3.068050444126129150e-01
5.368000000000000000e+03 2.611359786987304688e+01 -1.021554279327392578e+01 9.172838330268859863e-01 -6.223173737525939941e-01 8.848994225263595581e-02 -6.850044429302215576e-02
5.369000000000000000e+03 8.108822822570800781e+00 1.009560680389404297e+01 2.562715235399082303e-05 1.030058683682000265e-05 1.077832166629377753e-05 -1.404554495820775628e-05
5.370000000000000000e+03 9.156947135925292969e+00 1.048867225646972656e+01 3.052000829484313726e-05 6.504374596261186525e-06 1.110731500375550240e-05 -8.475156505483028013e-07
5.371000000000000000e+03 8.802687644958496094e+00 1.140691280364990234e+01 2.137118826794903725e-05 1.872416214609984308e-05 1.202860494231572375e-05 5.376174613047624007e-06
5.372000000000000000e+03 9.937046051025390625e+00 1.171176815032958984e+01 1.888598308141808957e-05 2.720072916417848319e-05 1.382601385557791218e-05 -6.360750830936012790e-06
5.373000000000000000e+03 2.979137420654296875e+01 -1.213211345672607422e+01 1.513804554939270020e+00 -2.523619830608367920e-01 3.784327805042266846e-01 4.156491756439208984e-01
5.374000000000000000e+03 3.110031700134277344e+01 -1.289358520507812500e+01 1.606756687164306641e+00 1.904859095811843872e-01 5.391727685928344727e-01 4.970251917839050293e-01
5.375000000000000000e+03 3.499192047119140625e+01 -9.779741287231445312e+00 1.895616531372070312e+00 3.420506954193115234e+00 1.594837069511413574e+00 5.355188846588134766e-01
5.376000000000000000e+03 7.260075378417968750e+01 7.291574001312255859e+00 -1.186046451330184937e-01 -3.747757971286773682e-01 -1.480141282081604004e-01 -6.055819392204284668e-01
5.377000000000000000e+03 7.171739959716796875e+01 8.205778121948242188e+00 -1.044931039214134216e-01 -3.778980672359466553e-01 -1.447173506021499634e-01 -6.733255982398986816e-01
5.378000000000000000e+03 6.567267608642578125e+01 2.329316616058349609e+00 -7.704389095306396484e-01 1.462283432483673096e-01 -1.872631758451461792e-01 -6.083667278289794922e-01
5.379000000000000000e+03 1.595214843750000000e+01 -1.112881565093994141e+01 3.371413648128509521e-01 3.240823745727539062e-02 1.108648777008056641e-01 -6.725632399320602417e-02
5.380000000000000000e+03 3.505474472045898438e+01 -9.008607864379882812e+00 1.847279191017150879e+00 3.419064998626708984e+00 1.579903244972229004e+00 5.716480612754821777e-01
5.381000000000000000e+03 7.040001678466796875e+01 9.990013837814331055e-01 -3.882814943790435791e-01 -1.359393005259335041e-03 -1.168922632932662964e-01 -3.754045963287353516e-01
5.382000000000000000e+03 7.194561767578125000e+01 1.385091185569763184e+00 -2.773479223251342773e-01 -7.619857043027877808e-02 -1.060639470815658569e-01 -3.602948188781738281e-01
5.383000000000000000e+03 9.644371032714843750e+00 1.918002891540527344e+01 -9.303447768616024405e-06 -5.043140481575392187e-05 -1.792045623005833477e-05 -7.957262823765631765e-06
5.384000000000000000e+03 9.808009147644042969e+00 2.026438331604003906e+01 -1.181282459583599120e-05 -1.196515199808345642e-06 -3.902801836375147104e-06 6.094980562920682132e-05
5.385000000000000000e+03 6.985569000244140625e+01 -2.091237306594848633e+00 -3.541192412376403809e-01 4.123352468013763428e-02 -9.386571496725082397e-02 -1.557223498821258545e-01
5.386000000000000000e+03 7.096246337890625000e+01 8.980757713317871094e+00 -8.038440346717834473e-02 -3.672596216201782227e-01 -1.342931985855102539e-01 -7.338948845863342285e-01
5.387000000000000000e+03 7.085043334960937500e+01 6.966978549957275391e+00 -1.784708797931671143e-01 -2.624762654304504395e-01 -1.322841346263885498e-01 -6.913773417472839355e-01
5.388000000000000000e+03 9.626585006713867188e+00 2.823985099792480469e+01 1.407009403919801116e-04 2.007438015425577760e-04 1.024334196699783206e-04 -1.827032974688336253e-04
5.389000000000000000e+03 1.418686962127685547e+01 -9.911270141601562500e+00 1.396371275186538696e-01 1.375942230224609375e-01 8.316940069198608398e-02 -1.165719255805015564e-01
5.390000000000000000e+03 1.471384334564208984e+01 -1.013677120208740234e+01 1.808325946331024170e-01 1.063921600580215454e-01 8.616742491722106934e-02 -1.065764203667640686e-01
5.391000000000000000e+03 1.841473197937011719e+01 -1.063076972961425781e+01 3.569141626358032227e-01 -1.388229131698608398e-01 6.542737782001495361e-02 -7.570718973875045776e-02
5.392000000000000000e+03 9.129915237426757812e+00 1.504075145721435547e+01 4.493224332691170275e-05 2.942309583886526525e-05 2.230660174973309040e-05 -1.614468055777251720e-05
5.393000000000000000e+03 2.364897537231445312e+01 -9.706584930419921875e+00 5.063760280609130859e-01 -4.841358661651611328e-01 6.672041956335306168e-03 -1.736945509910583496e-01
5.394000000000000000e+03 8.853565216064453125e+00 1.745406532287597656e+01 5.682868504663929343e-05 4.557939610094763339e-05 3.072242543566972017e-05 -5.657923793478403240e-06
5.395000000000000000e+03 3.438137435913085938e+01 -8.288449287414550781e+00 1.764215230941772461e+00 2.501521587371826172e+00 1.279721021652221680e+00 4.557518959045410156e-01
5.396000000000000000e+03 8.670014381408691406e+00 2.145632743835449219e+01 -5.282236543280305341e-06 -5.036627044319175184e-06 -3.095658939855638891e-06 6.659995415247976780e-05
5.397000000000000000e+03 1.129162597656250000e+01 9.267805099487304688e+00 1.387115480611100793e-05 2.011119613598566502e-05 1.019470528262900189e-05 -3.802587571044568904e-06
5.398000000000000000e+03 5.633806610107421875e+01 6.275388717651367188e+00 -7.197171449661254883e-01 3.137730360031127930e-01 -1.217832267284393311e-01 -9.072306752204895020e-01
5.399000000000000000e+03 5.006329345703125000e+01 1.118314647674560547e+01 1.317194461822509766e+00 2.056315183639526367e+00 1.012052893638610840e+00 4.251129925251007080e-01
5.400000000000000000e+03 6.993264770507812500e+01 1.468479728698730469e+01 1.650334447622299194e-01 -5.254617333412170410e-01 -1.081284806132316589e-01 -7.020086050033569336e-01
5.401000000000000000e+03 1.684615707397460938e+01 -1.111448955535888672e+01 3.825756311416625977e-01 -2.249896526336669922e-02 1.080230027437210083e-01 -5.426026880741119385e-02
5.402000000000000000e+03 1.757439041137695312e+01 -1.081585121154785156e+01 3.538176417350769043e-01 -7.782230526208877563e-02 8.279860019683837891e-02 -6.674090772867202759e-02
5.403000000000000000e+03 8.559143066406250000e+00 2.082631492614746094e+01 3.599822230171412230e-05 1.024824632622767240e-05 1.387394058838253841e-05 -5.592842353507876396e-05
5.404000000000000000e+03 5.031885528564453125e+01 1.848071670532226562e+01 1.239626407623291016e+00 3.409417152404785156e+00 1.394713044166564941e+00 6.548814177513122559e-01
5.405000000000000000e+03 4.957949066162109375e+01 2.013392639160156250e+01 1.075620174407958984e+00 3.912804365158081055e+00 1.496527433395385742e+00 6.386142373085021973e-01
5.406000000000000000e+03 6.102503585815429688e+01 3.595289468765258789e+00 -1.101756691932678223e+00 1.653218120336532593e-01 -2.809304594993591309e-01 -8.060334920883178711e-01
5.407000000000000000e+03 6.004800796508789062e+01 5.485790252685546875e+00 -7.756529450416564941e-01 1.800472587347030640e-01 -1.786817014217376709e-01 -9.445308446884155273e-01
5.408000000000000000e+03 6.946466064453125000e+01 -1.478817105293273926e+00 -4.074403345584869385e-01 5.545839667320251465e-02 -1.055945828557014465e-01 -1.954397112131118774e-01
5.409000000000000000e+03 5.911903762817382812e+01 5.073682308197021484e+00 -9.344692826271057129e-01 1.898942589759826660e-01 -2.233725041151046753e-01 -9.050846099853515625e-01
5.410000000000000000e+03 5.747220230102539062e+01 6.410946846008300781e+00 -6.487923264503479004e-01 2.710743546485900879e-01 -1.133153960108757019e-01 -9.430162310600280762e-01
5.411000000000000000e+03 4.761930084228515625e+01 9.178140640258789062e+00 1.239545702934265137e+00 2.667670249938964844e+00 1.172164797782897949e+00 9.963009953498840332e-01
5.412000000000000000e+03 5.041165542602539062e+01 8.052796363830566406e+00 4.646191895008087158e-01 1.075060367584228516e+00 4.619038701057434082e-01 -1.187617555260658264e-01
5.413000000000000000e+03 3.233718490600585938e+01 -1.245588111877441406e+01 1.758208513259887695e+00 9.307540655136108398e-01 8.066887855529785156e-01 3.786531090736389160e-01
5.414000000000000000e+03 2.994359779357910156e+01 -1.037027645111083984e+01 1.600785613059997559e+00 -2.646748125553131104e-01 4.008332490921020508e-01 1.529098749160766602e-01
5.415000000000000000e+03 3.283795166015625000e+01 -8.398942947387695312e+00 1.687866330146789551e+00 1.043448925018310547e+00 8.193945884704589844e-01 1.918517798185348511e-01
5.416000000000000000e+03 6.262465286254882812e+01 3.007345438003540039e+00 -1.039699554443359375e+00 1.701250076293945312e-01 -2.608723640441894531e-01 -7.372648715972900391e-01
5.417000000000000000e+03 6.161805725097656250e+01 5.083859920501708984e+00 -7.724882364273071289e-01 1.605409234762191772e-01 -1.835841983556747437e-01 -9.254701137542724609e-01
5.418000000000000000e+03 3.140675735473632812e+01 -9.446603775024414062e+00 1.713842391967773438e+00 2.493867725133895874e-01 5.889687538146972656e-01 1.331864744424819946e-01
5.419000000000000000e+03 1.984634399414062500e+01 -8.798343658447265625e+00 1.187049150466918945e-01 -1.964118927717208862e-01 -2.331209182739257812e-02 -1.445384174585342407e-01
5.420000000000000000e+03 5.127741241455078125e+01 7.370659828186035156e+00 2.013601362705230713e-02 7.387089729309082031e-01 2.276534885168075562e-01 -4.371329247951507568e-01
5.421000000000000000e+03 8.945855140686035156e+00 2.268445014953613281e+01 5.412734390120021999e-05 9.262774983653798699e-05 4.402652848511934280e-05 5.463688285090029240e-05
5.422000000000000000e+03 2.281502723693847656e+01 -9.698461532592773438e+00 4.220274388790130615e-01 -4.171860814094543457e-01 1.452407333999872208e-03 -1.695065647363662720e-01
5.423000000000000000e+03 2.199440956115722656e+01 -1.050925159454345703e+01 4.788118898868560791e-01 -3.664762377738952637e-01 3.370069339871406555e-02 -1.068249642848968506e-01
5.424000000000000000e+03 8.795437812805175781e+00 9.164712905883789062e+00 -4.962545972375664860e-06 2.567667706898646429e-06 -7.184635251178406179e-07 3.590529331631842069e-06
5.425000000000000000e+03 4.911382675170898438e+01 1.535350227355957031e+01 1.460020065307617188e+00 3.510437250137329102e+00 1.491137146949768066e+00 9.057891964912414551e-01
5.426000000000000000e+03 5.056388854980468750e+01 1.752285385131835938e+01 1.312904357910156250e+00 3.166704177856445312e+00 1.343882560729980469e+00 6.444410085678100586e-01
5.427000000000000000e+03 9.286266326904296875e+00 1.798921203613281250e+01 -9.645315003581345081e-06 -5.744319787481799722e-05 -2.012655386351980269e-05 1.152375807578209788e-05
5.428000000000000000e+03 9.467352867126464844e+00 1.861602973937988281e+01 9.388681974087376148e-06 8.159360004356130958e-05 2.729468542383983731e-05 1.297810649703023955e-05
5.429000000000000000e+03 4.778244781494140625e+01 8.532241821289062500e+00 1.042416453361511230e+00 2.349786758422851562e+00 1.017660975456237793e+00 8.251627087593078613e-01
5.430000000000000000e+03 3.224436187744140625e+01 -1.073448753356933594e+01 1.882578015327453613e+00 8.631545305252075195e-01 8.237197399139404297e-01 3.158209323883056641e-01
5.431000000000000000e+03 5.969874572753906250e+01 4.780666351318359375e+00 -9.754443764686584473e-01 1.804189383983612061e-01 -2.385076433420181274e-01 -8.959001898765563965e-01
5.432000000000000000e+03 5.850960159301757812e+01 6.451149940490722656e+00 -6.053909659385681152e-01 2.346065491437911987e-01 -1.112353205680847168e-01 -9.683390855789184570e-01
5.433000000000000000e+03 6.392684555053710938e+01 2.434581279754638672e+00 -9.486182332038879395e-01 1.770914345979690552e-01 -2.314580380916595459e-01 -6.587512493133544922e-01
5.434000000000000000e+03 5.517244720458984375e+01 6.136943817138671875e+00 -7.932751178741455078e-01 3.750271201133728027e-01 -1.254743933677673340e-01 -8.676171898841857910e-01
5.435000000000000000e+03 3.190325164794921875e+01 -1.227833461761474609e+01 1.757371187210083008e+00 6.870771646499633789e-01 7.333344817161560059e-01 3.974590897560119629e-01
5.436000000000000000e+03 3.322086334228515625e+01 -1.184862041473388672e+01 1.829783797264099121e+00 1.640170812606811523e+00 1.040986418724060059e+00 3.748301863670349121e-01
5.437000000000000000e+03 4.968516159057617188e+01 1.724839591979980469e+01 1.319408416748046875e+00 3.512859821319580078e+00 1.449680447578430176e+00 7.659991383552551270e-01
5.438000000000000000e+03 4.984268188476562500e+01 2.349640274047851562e+01 9.108540415763854980e-01 3.867995977401733398e+00 1.433655023574829102e+00 4.462842345237731934e-01
5.439000000000000000e+03 2.557325553894042969e+01 -9.981346130371093750e+00 7.887682318687438965e-01 -6.098507642745971680e-01 5.367524921894073486e-02 -1.276766359806060791e-01
5.440000000000000000e+03 8.586786270141601562e+00 1.340329933166503906e+01 4.936874756822362542e-05 8.996758879220578820e-06 1.750965202518273145e-05 -2.682232661754824221e-05
5.441000000000000000e+03 9.148614883422851562e+00 9.904222488403320312e+00 -1.552996400278061628e-05 1.949946818058378994e-05 1.190851207866217010e-06 -1.119012449635192752e-05
5.442000000000000000e+03 9.399039268493652344e+00 9.282359123229980469e+00 7.702830771449953318e-06 -9.422768016520421952e-06 -5.159810712029866409e-07 -1.465958519020205131e-07
5.443000000000000000e+03 9.801690101623535156e+00 1.473591899871826172e+01 -5.161514854989945889e-05 -1.875711677712388337e-05 -2.111168032570276409e-05 8.107635949272662401e-06
5.444000000000000000e+03 6.886877441406250000e+01 7.531939744949340820e-01 -5.029971003532409668e-01 6.172705441713333130e-02 -1.323810070753097534e-01 -3.847551941871643066e-01
5.445000000000000000e+03 6.925943756103515625e+01 1.521954089403152466e-01 -4.683731794357299805e-01 5.635066702961921692e-02 -1.236067488789558411e-01 -3.275432586669921875e-01
5.446000000000000000e+03 2.453594017028808594e+01 -1.115525245666503906e+01 7.928224802017211914e-01 -5.263493657112121582e-01 7.994194328784942627e-02 -9.780047461390495300e-03
5.447000000000000000e+03 1.384830665588378906e+01 -1.055186653137207031e+01 2.243258059024810791e-01 1.688121259212493896e-01 1.179413795471191406e-01 -1.070564836263656616e-01
5.448000000000000000e+03 4.886080932617187500e+01 1.249630165100097656e+01 1.512333154678344727e+00 2.990853071212768555e+00 1.350955843925476074e+00 8.691775798797607422e-01
5.449000000000000000e+03 1.237106132507324219e+01 -9.052690505981445312e+00 -4.485855344682931900e-03 1.847790777683258057e-01 5.408796668052673340e-02 -1.866415292024612427e-01
5.450000000000000000e+03 6.335134506225585938e+01 3.333296298980712891e+00 -9.122058749198913574e-01 1.615707725286483765e-01 -2.251905202865600586e-01 -7.573497891426086426e-01
5.451000000000000000e+03 2.771182250976562500e+01 -1.045828151702880859e+01 1.193637490272521973e+00 -6.127828955650329590e-01 1.742563992738723755e-01 1.663682982325553894e-02
5.452000000000000000e+03 6.077321243286132812e+01 4.156011104583740234e+00 -1.023115634918212891e+00 1.660023331642150879e-01 -2.571339905261993408e-01 -8.516212105751037598e-01
5.453000000000000000e+03 7.059909820556640625e+01 -3.230064392089843750e+00 -2.554096281528472900e-01 1.363830268383026123e-02 -7.253140211105346680e-02 -9.546376764774322510e-02
5.454000000000000000e+03 7.137961578369140625e+01 -3.875910043716430664e+00 -1.949355751276016235e-01 -6.205101963132619858e-03 -6.034220382571220398e-02 -7.407095283269882202e-02
5.455000000000000000e+03 1.048092937469482422e+01 -1.071941280364990234e+01 1.457139700651168823e-01 2.627364993095397949e-01 1.225351393222808838e-01 -2.121638357639312744e-01
5.456000000000000000e+03 1.128531742095947266e+01 -9.931447982788085938e+00 6.771778315305709839e-02 2.360305190086364746e-01 9.112448990345001221e-02 -2.032789885997772217e-01
5.457000000000000000e+03 1.403897762298583984e+01 -9.079446792602539062e+00 3.693259134888648987e-02 1.253342032432556152e-01 4.868003726005554199e-02 -1.394875496625900269e-01
5.458000000000000000e+03 1.324781131744384766e+01 -9.144124984741210938e+00 2.233758941292762756e-02 1.624866724014282227e-01 5.544727668166160583e-02 -1.598978042602539062e-01
5.459000000000000000e+03 7.080233001708984375e+01 2.186537933349609375e+01 2.309121936559677124e-01 -7.781326174736022949e-01 -1.641661226749420166e-01 -3.972763419151306152e-01
5.460000000000000000e+03 2.596680641174316406e+01 -1.136889457702636719e+01 9.678705334663391113e-01 -5.696470141410827637e-01 1.194670498371124268e-01 8.753295242786407471e-02
5.461000000000000000e+03 6.953627014160156250e+01 2.118749618530273438e+01 2.855097651481628418e-01 -5.874089002609252930e-01 -9.056974947452545166e-02 -4.349228739738464355e-01
5.462000000000000000e+03 6.848011016845703125e+01 2.627371978759765625e+01 2.935357093811035156e-01 -4.060791730880737305e-01 -3.376304358243942261e-02 -2.102218866348266602e-01
5.463000000000000000e+03 6.978184509277343750e+01 2.534469032287597656e+01 2.521381676197052002e-01 -6.320309638977050781e-01 -1.139678433537483215e-01 -2.527684867382049561e-01
5.464000000000000000e+03 7.192052459716796875e+01 2.854980230331420898e-01 -2.749145030975341797e-01 -4.938617348670959473e-02 -9.729019552469253540e-02 -2.924791872501373291e-01
5.465000000000000000e+03 9.268405914306640625e+00 2.138875579833984375e+01 5.713582140742801130e-05 2.421150020381901413e-05 2.440419666527304798e-05 -8.764595258980989456e-05
5.466000000000000000e+03 6.515541076660156250e+01 2.954430818557739258e+00 -7.781398892402648926e-01 1.451341658830642700e-01 -1.899017095565795898e-01 -6.821934580802917480e-01
5.467000000000000000e+03 5.284634399414062500e+01 5.978881835937500000e+00 -8.417191505432128906e-01 4.687629342079162598e-01 -1.118868738412857056e-01 -7.633013129234313965e-01
5.468000000000000000e+03 7.089220428466796875e+01 1.371565341949462891e+01 1.098966374993324280e-01 -5.836475491523742676e-01 -1.421252787113189697e-01 -6.961804628372192383e-01
5.469000000000000000e+03 7.108364105224609375e+01 1.471893215179443359e+01 1.359408497810363770e-01 -6.369165182113647461e-01 -1.502926945686340332e-01 -6.629610657691955566e-01
5.470000000000000000e+03 5.022537612915039062e+01 2.057672119140625000e+01 1.075959444046020508e+00 3.604832649230957031e+00 1.404237627983093262e+00 5.793293118476867676e-01
5.471000000000000000e+03 4.998202896118164062e+01 1.934134864807128906e+01 1.165431261062622070e+00 3.659426927566528320e+00 1.447457432746887207e+00 6.571796536445617676e-01
5.472000000000000000e+03 5.038381576538085938e+01 2.470064163208007812e+01 8.802734017372131348e-01 3.650476932525634766e+00 1.359225153923034668e+00 4.204023480415344238e-01
5.473000000000000000e+03 5.128258514404296875e+01 2.784283256530761719e+01 6.928326487541198730e-01 3.310389041900634766e+00 1.200966477394104004e+00 4.109008014202117920e-01
5.474000000000000000e+03 6.709028625488281250e+01 3.040342521667480469e+01 2.098810225725173950e-01 -7.158909738063812256e-02 4.148757830262184143e-02 -6.564301997423171997e-02
5.475000000000000000e+03 4.631961822509765625e+01 -3.475688934326171875e+01 -2.692853510379791260e-01 2.122965574264526367e+00 5.561040639877319336e-01 -5.678948163986206055e-01
5.476000000000000000e+03 5.274989318847656250e+01 3.040322303771972656e+01 4.672726988792419434e-01 2.949726819992065430e+00 1.025099873542785645e+00 4.396810233592987061e-01
5.477000000000000000e+03 6.873712921142578125e+01 2.795046806335449219e+01 2.446068674325942993e-01 -4.312968254089355469e-01 -5.600698664784431458e-02 -1.529805660247802734e-01
5.478000000000000000e+03 2.112817382812500000e+01 -9.791717529296875000e+00 3.306298851966857910e-01 -2.964090704917907715e-01 1.026624999940395355e-02 -1.345619708299636841e-01
5.479000000000000000e+03 9.701419830322265625e+00 1.012447643280029297e+01 -6.924248737050220370e-06 -1.925081414810847491e-05 -7.852519047446548939e-06 6.079987997509306297e-06
5.480000000000000000e+03 6.631037902832031250e+01 2.716699838638305664e+00 -6.897369027137756348e-01 1.191555410623550415e-01 -1.711744070053100586e-01 -6.275587677955627441e-01
5.481000000000000000e+03 2.595399856567382812e+01 -1.078279209136962891e+01 9.286640882492065430e-01 -5.907919406890869141e-01 1.013616546988487244e-01 7.197391241788864136e-03
5.482000000000000000e+03 7.098899078369140625e+01 1.316994667053222656e+01 8.661809563636779785e-02 -5.750921964645385742e-01 -1.465422213077545166e-01 -7.033111453056335449e-01
5.483000000000000000e+03 6.854838562011718750e+01 1.047306346893310547e+01 -6.440860684961080551e-03 -2.830188870429992676e-01 -8.683792501688003540e-02 -8.335856795310974121e-01
5.484000000000000000e+03 2.792498588562011719e+01 -1.133258438110351562e+01 1.283700346946716309e+00 -5.394994616508483887e-01 2.232602685689926147e-01 2.075541317462921143e-01
5.485000000000000000e+03 7.023419952392578125e+01 -2.683461904525756836e+00 -3.012783527374267578e-01 2.592664957046508789e-02 -8.260551095008850098e-02 -1.199830695986747742e-01
5.486000000000000000e+03 1.061079597473144531e+01 -9.539483070373535156e+00 1.368439849466085434e-02 2.154493629932403564e-01 6.874012947082519531e-02 -2.386588901281356812e-01
5.487000000000000000e+03 2.251726531982421875e+01 -1.160844802856445312e+01 6.430523991584777832e-01 -3.924798369407653809e-01 7.517176121473312378e-02 -1.616474054753780365e-02
5.488000000000000000e+03 2.406220817565917969e+01 -1.084054851531982422e+01 6.900007128715515137e-01 -5.102740526199340820e-01 5.391799658536911011e-02 -6.513309478759765625e-02
5.489000000000000000e+03 4.819706726074218750e+01 7.522684097290039062e+00 5.810354948043823242e-01 1.681993365287780762e+00 6.789086461067199707e-01 5.218603014945983887e-01
5.490000000000000000e+03 7.090848541259765625e+01 1.546382904052734375e+00 -3.434882164001464844e-01 -4.143022745847702026e-02 -1.154755279421806335e-01 -4.047775864601135254e-01
5.491000000000000000e+03 2.700752830505371094e+01 -1.077424907684326172e+01 1.094706416130065918e+00 -6.115167140960693359e-01 1.449569165706634521e-01 5.339448153972625732e-02
5.492000000000000000e+03 2.998424530029296875e+01 -9.570874214172363281e+00 1.523879408836364746e+00 -3.137766718864440918e-01 3.630308210849761963e-01 1.406323723495006561e-02
5.493000000000000000e+03 6.858013916015625000e+01 1.881498336791992188e+01 3.156093060970306396e-01 -4.506121873855590820e-01 -4.050086066126823425e-02 -5.534480214118957520e-01
5.494000000000000000e+03 6.884940338134765625e+01 1.643064308166503906e+01 2.639425992965698242e-01 -4.568444788455963135e-01 -5.787055939435958862e-02 -6.652720570564270020e-01
5.495000000000000000e+03 1.328292179107666016e+01 -1.008628654479980469e+01 1.417865306138992310e-01 1.882772445678710938e-01 9.901913255453109741e-02 -1.336885094642639160e-01
5.496000000000000000e+03 1.089944458007812500e+01 -1.044287300109863281e+01 1.157487481832504272e-01 2.491273134946823120e-01 1.094628199934959412e-01 -2.041180282831192017e-01
5.497000000000000000e+03 1.980748367309570312e+01 -1.012366676330566406e+01 3.085657954216003418e-01 -2.171537131071090698e-01 2.742362022399902344e-02 -9.970583021640777588e-02
5.498000000000000000e+03 2.853110122680664062e+01 -9.368347167968750000e+00 1.207529067993164062e+00 -6.151338219642639160e-01 1.777185648679733276e-01 -1.274340897798538208e-01
5.499000000000000000e+03 7.031964874267578125e+01 1.183821010589599609e+01 5.266320705413818359e-02 -4.562280774116516113e-01 -1.210694611072540283e-01 -7.591243982315063477e-01
5.500000000000000000e+03 7.113043975830078125e+01 2.823523283004760742e+00 -3.100436329841613770e-01 -9.217001497745513916e-02 -1.206640973687171936e-01 -4.784456491470336914e-01
5.501000000000000000e+03 7.076960754394531250e+01 6.029796600341796875e+00 -2.244081348180770874e-01 -2.123721539974212646e-01 -1.310340911149978638e-01 -6.599360108375549316e-01
5.502000000000000000e+03 7.093132019042968750e+01 3.626981496810913086e+00 -3.055532276630401611e-01 -1.125210002064704895e-01 -1.254222691059112549e-01 -5.374234914779663086e-01
5.503000000000000000e+03 6.978596496582031250e+01 1.106882095336914062e+01 1.752809807658195496e-02 -3.820820748805999756e-01 -1.093661934137344360e-01 -7.869814634323120117e-01
5.504000000000000000e+03 6.895381164550781250e+01 1.136923313140869141e+01 4.394099488854408264e-02 -3.397019207477569580e-01 -8.872827887535095215e-02 -8.163486123085021973e-01
5.505000000000000000e+03 5.332413864135742188e+01 6.608867645263671875e+00 -5.520260334014892578e-01 4.800453484058380127e-01 -2.159420400857925415e-02 -7.628301978111267090e-01
5.506000000000000000e+03 1.524548912048339844e+01 -1.081782245635986328e+01 2.992151081562042236e-01 9.384043514728546143e-02 1.179166585206985474e-01 -7.024216651916503906e-02
5.507000000000000000e+03 7.075161743164062500e+01 5.191474437713623047e+00 -2.598260045051574707e-01 -1.718067377805709839e-01 -1.294898241758346558e-01 -6.255702376365661621e-01
5.508000000000000000e+03 6.985398864746093750e+01 1.239962959289550781e+01 8.455535769462585449e-02 -4.398058652877807617e-01 -1.065751537680625916e-01 -7.686274051666259766e-01
5.509000000000000000e+03 3.069269561767578125e+01 -9.558262825012207031e+00 1.626712679862976074e+00 -7.059790194034576416e-02 4.668344557285308838e-01 7.651548087596893311e-02
5.510000000000000000e+03 3.239940643310546875e+01 -1.144889259338378906e+01 1.876096606254577637e+00 1.018901467323303223e+00 8.684993982315063477e-01 3.669661879539489746e-01
5.511000000000000000e+03 3.432624435424804688e+01 -9.758724212646484375e+00 1.926012873649597168e+00 2.645604848861694336e+00 1.371485352516174316e+00 4.529541432857513428e-01
5.512000000000000000e+03 9.436702728271484375e+00 1.241737556457519531e+01 1.117649844672996551e-05 -3.004519021487794816e-05 -5.660607712343335152e-06 4.422256097313947976e-06
5.513000000000000000e+03 3.430717849731445312e+01 -1.043134212493896484e+01 1.891181230545043945e+00 2.662104606628417969e+00 1.365985751152038574e+00 4.453622996807098389e-01
5.514000000000000000e+03 3.434522247314453125e+01 -9.022821426391601562e+00 1.863520860671997070e+00 2.553943157196044922e+00 1.325239181518554688e+00 4.763665795326232910e-01
5.515000000000000000e+03 6.894937133789062500e+01 1.773548698425292969e+01 2.927333116531372070e-01 -4.793363511562347412e-01 -5.598091706633567810e-02 -6.005406379699707031e-01
5.516000000000000000e+03 5.053615188598632812e+01 7.311234474182128906e+00 9.538695216178894043e-02 8.566788434982299805e-01 2.856197357177734375e-01 -2.805729508399963379e-01
5.517000000000000000e+03 4.918236541748046875e+01 8.152909278869628906e+00 6.754260063171386719e-01 1.498544573783874512e+00 6.521911621093750000e-01 2.578022480010986328e-01
5.518000000000000000e+03 3.290518188476562500e+01 -9.935980796813964844e+00 1.891429543495178223e+00 1.296644449234008789e+00 9.564221501350402832e-01 3.177683949470520020e-01
5.519000000000000000e+03 3.376552963256835938e+01 -1.051372623443603516e+01 1.918631434440612793e+00 2.078486204147338867e+00 1.199135303497314453e+00 3.827112615108489990e-01
5.520000000000000000e+03 6.824031066894531250e+01 2.034849166870117188e+00 -5.406957268714904785e-01 6.073214486241340637e-02 -1.439890712499618530e-01 -5.128459334373474121e-01
5.521000000000000000e+03 6.891359710693359375e+01 2.338547468185424805e+00 -4.805209934711456299e-01 2.477924898266792297e-02 -1.367225348949432373e-01 -5.171140432357788086e-01
5.522000000000000000e+03 2.529364395141601562e+01 -1.058252239227294922e+01 8.131164908409118652e-01 -5.830581784248352051e-01 6.901749968528747559e-02 -6.658913195133209229e-02
5.523000000000000000e+03 1.230383205413818359e+01 -1.004507923126220703e+01 1.130108609795570374e-01 2.226128876209259033e-01 1.006871238350868225e-01 -1.630556434392929077e-01
5.524000000000000000e+03 5.194055938720703125e+01 7.754415512084960938e+00 8.126562833786010742e-02 7.101360559463500977e-01 2.374204993247985840e-01 -5.059832930564880371e-01
5.525000000000000000e+03 1.039645671844482422e+01 1.211896800994873047e+01 9.204014531860593706e-06 -4.195475776214152575e-05 -9.825223060033749789e-06 8.770131898927502334e-06
5.526000000000000000e+03 6.966982269287109375e+01 -4.481255710124969482e-01 -4.244941473007202148e-01 4.577383399009704590e-02 -1.136160939931869507e-01 -2.741401791572570801e-01
5.527000000000000000e+03 4.952044677734375000e+01 1.063518714904785156e+01 1.307899951934814453e+00 2.148049592971801758e+00 1.036784887313842773e+00 5.243947505950927734e-01
5.528000000000000000e+03 4.998795318603515625e+01 1.387911987304687500e+01 1.463898897171020508e+00 2.764555454254150391e+00 1.268536329269409180e+00 6.669391393661499023e-01
5.529000000000000000e+03 5.184862136840820312e+01 8.766563415527343750e+00 4.805616438388824463e-01 9.097591638565063477e-01 4.170962274074554443e-01 -3.410119712352752686e-01
5.530000000000000000e+03 5.097804641723632812e+01 8.153810501098632812e+00 4.309194982051849365e-01 1.015928030014038086e+00 4.340542554855346680e-01 -2.272523790597915649e-01
5.531000000000000000e+03 5.689376068115234375e+01 6.997015953063964844e+00 -4.739794135093688965e-01 3.148441314697265625e-01 -4.774058610200881958e-02 -9.312946796417236328e-01
5.532000000000000000e+03 5.969105148315429688e+01 6.413004398345947266e+00 -5.746629834175109863e-01 1.940556615591049194e-01 -1.141821891069412231e-01 -9.830594658851623535e-01
5.533000000000000000e+03 5.891535568237304688e+01 6.011284351348876953e+00 -7.158323526382446289e-01 2.075828462839126587e-01 -1.524748504161834717e-01 -9.572516083717346191e-01
5.534000000000000000e+03 5.149339675903320312e+01 1.803999519348144531e+01 1.283365011215209961e+00 2.814484596252441406e+00 1.229354858398437500e+00 5.042853355407714844e-01
5.535000000000000000e+03 2.978414344787597656e+01 -1.111410713195800781e+01 1.590728163719177246e+00 -2.719252705574035645e-01 3.956408500671386719e-01 2.608827650547027588e-01
5.536000000000000000e+03 7.045833587646484375e+01 -1.671483159065246582e+00 -3.306499719619750977e-01 2.219231799244880676e-02 -9.253729879856109619e-02 -1.838093847036361694e-01
5.537000000000000000e+03 6.225565338134765625e+01 4.500078201293945312e+00 -8.490983843803405762e-01 1.564978212118148804e-01 -2.077801674604415894e-01 -8.758919239044189453e-01
5.538000000000000000e+03 4.984417724609375000e+01 8.029954910278320312e+00 5.234559178352355957e-01 1.212366819381713867e+00 5.207468271255493164e-01 4.389083012938499451e-02
5.539000000000000000e+03 4.881560516357421875e+01 1.450629711151123047e+01 1.498086214065551758e+00 3.495204925537109375e+00 1.497987389564514160e+00 9.616966843605041504e-01
5.540000000000000000e+03 5.090584945678710938e+01 1.664443778991699219e+01 1.360262989997863770e+00 2.885712385177612305e+00 1.273792624473571777e+00 5.943836569786071777e-01
5.541000000000000000e+03 5.023624038696289062e+01 1.588092136383056641e+01 1.412869215011596680e+00 3.063764333724975586e+00 1.342990040779113770e+00 6.844912171363830566e-01
5.542000000000000000e+03 5.945804214477539062e+01 5.744537353515625000e+00 -7.559856772422790527e-01 1.975317895412445068e-01 -1.675361692905426025e-01 -9.584030508995056152e-01
5.543000000000000000e+03 5.807650756835937500e+01 7.077970504760742188e+00 -4.478935599327087402e-01 2.668139338493347168e-01 -5.432388558983802795e-02 -9.687715172767639160e-01
5.544000000000000000e+03 3.179643249511718750e+01 -1.164201831817626953e+01 1.801865220069885254e+00 6.153864860534667969e-01 7.251755595207214355e-01 3.747456371784210205e-01
5.545000000000000000e+03 9.490581512451171875e+00 1.403379154205322266e+01 4.785985947819426656e-05 7.921473297756165266e-06 1.673440056038089097e-05 -1.292893284698948264e-05
5.546000000000000000e+03 6.116312789916992188e+01 4.730945587158203125e+00 -8.716063499450683594e-01 1.608326733112335205e-01 -2.132321000099182129e-01 -8.959791064262390137e-01
5.547000000000000000e+03 6.951935577392578125e+01 2.000537109375000000e+01 2.882871925830841064e-01 -5.774470567703247070e-01 -8.674795180559158325e-02 -4.923568665981292725e-01
5.548000000000000000e+03 2.944235420227050781e+01 -8.735021591186523438e+00 1.254111528396606445e+00 -5.134255290031433105e-01 2.222057878971099854e-01 -1.869423538446426392e-01
5.549000000000000000e+03 1.642070388793945312e+01 -1.104007625579833984e+01 3.502998948097229004e-01 9.504225105047225952e-03 1.079412326216697693e-01 -6.388252228498458862e-02
5.550000000000000000e+03 3.159012222290039062e+01 -1.091250896453857422e+01 1.843682885169982910e+00 4.708456993103027344e-01 6.943585872650146484e-01 2.991765141487121582e-01
5.551000000000000000e+03 9.992754936218261719e+00 1.329470920562744141e+01 3.668398494482971728e-05 -2.938922625617124140e-05 2.188427743021748029e-06 -1.406405317538883537e-05
5.552000000000000000e+03 2.653074645996093750e+01 -9.581937789916992188e+00 8.922718763351440430e-01 -6.606225967407226562e-01 6.949479132890701294e-02 -1.773221492767333984e-01
5.553000000000000000e+03 6.916468811035156250e+01 2.415280532836914062e+01 2.944870293140411377e-01 -5.180385112762451172e-01 -6.706544756889343262e-02 -3.048253655433654785e-01
5.554000000000000000e+03 2.125051689147949219e+01 -1.137332153320312500e+01 5.430718064308166504e-01 -3.179812431335449219e-01 6.752717494964599609e-02 -5.828264728188514709e-02
5.555000000000000000e+03 7.033766937255859375e+01 1.951680660247802734e+00 -3.772377371788024902e-01 -2.958597429096698761e-02 -1.220471188426017761e-01 -4.473267495632171631e-01
5.556000000000000000e+03 5.259738540649414062e+01 7.163162708282470703e+00 -2.508664131164550781e-01 5.882337689399719238e-01 1.012102067470550537e-01 -6.445137858390808105e-01
5.557000000000000000e+03 7.021202850341796875e+01 2.339811706542968750e+01 2.539510130882263184e-01 -6.983145475387573242e-01 -1.333090513944625854e-01 -3.354163467884063721e-01
5.558000000000000000e+03 6.416307830810546875e+01 3.751487970352172852e+00 -7.938583493232727051e-01 1.444100439548492432e-01 -1.948344856500625610e-01 -7.767783999443054199e-01
5.559000000000000000e+03 2.783485984802246094e+01 -9.085229873657226562e+00 1.033511638641357422e+00 -6.690405011177062988e-01 1.093413233757019043e-01 -2.138006836175918579e-01
5.560000000000000000e+03 2.692336654663085938e+01 -9.287512779235839844e+00 8.940669298171997070e-01 -6.761768460273742676e-01 6.536702811717987061e-02 -2.285337597131729126e-01
5.561000000000000000e+03 6.558536529541015625e+01 3.844349145889282227e+00 -6.634075641632080078e-01 1.046979054808616638e-01 -1.676128953695297241e-01 -7.442650794982910156e-01
5.562000000000000000e+03 5.213690185546875000e+01 2.547789001464843750e+01 8.617926239967346191e-01 3.087174177169799805e+00 1.184689998626708984e+00 4.077250361442565918e-01
5.563000000000000000e+03 6.639489746093750000e+01 3.543960809707641602e+00 -6.263068318367004395e-01 8.873569220304489136e-02 -1.612713485956192017e-01 -6.882289052009582520e-01
5.564000000000000000e+03 6.770855712890625000e+01 3.543872594833374023e+00 -5.225869417190551758e-01 3.800649940967559814e-02 -1.453741341829299927e-01 -6.476823091506958008e-01
5.565000000000000000e+03 7.084594726562500000e+01 8.015884399414062500e+00 -1.277026087045669556e-01 -3.152631223201751709e-01 -1.328897178173065186e-01 -7.205238342285156250e-01
5.566000000000000000e+03 6.991938781738281250e+01 7.836944580078125000e+00 -1.588898748159408569e-01 -2.514342665672302246e-01 -1.230972483754158020e-01 -7.597615122795104980e-01
5.567000000000000000e+03 4.957777786254882812e+01 2.098313903808593750e+01 1.015463590621948242e+00 3.942021369934082031e+00 1.487245440483093262e+00 5.979074835777282715e-01
5.568000000000000000e+03 5.008505630493164062e+01 2.193354606628417969e+01 9.954592585563659668e-01 3.760849952697753906e+00 1.426892757415771484e+00 5.280076861381530762e-01
5.569000000000000000e+03 5.115557861328125000e+01 1.897300720214843750e+01 1.228175997734069824e+00 3.087153196334838867e+00 1.294598817825317383e+00 5.491985082626342773e-01
5.570000000000000000e+03 5.072119903564453125e+01 2.296145057678222656e+01 9.707402586936950684e-01 3.530159235000610352e+00 1.350269794464111328e+00 4.691706597805023193e-01
5.571000000000000000e+03 5.238293075561523438e+01 2.328076744079589844e+01 9.826724529266357422e-01 2.947162866592407227e+00 1.178950667381286621e+00 4.047106206417083740e-01
5.572000000000000000e+03 6.977190399169921875e+01 2.234494209289550781e+01 2.784140110015869141e-01 -6.218754053115844727e-01 -1.030384153127670288e-01 -3.856132924556732178e-01
5.573000000000000000e+03 6.836959075927734375e+01 2.008609199523925781e+01 3.486854732036590576e-01 -4.207859337329864502e-01 -2.163013070821762085e-02 -4.925691485404968262e-01
5.574000000000000000e+03 6.748504638671875000e+01 3.249516677856445312e+01 1.520375758409500122e-01 -1.542269885540008545e-01 -6.568226963281631470e-04 -4.600800573825836182e-02
5.575000000000000000e+03 4.193789291381835938e+01 -3.663845825195312500e+01 -7.111065387725830078e-01 3.045047521591186523e+00 7.001822590827941895e-01 -3.172457516193389893e-01
5.576000000000000000e+03 6.926437377929687500e+01 4.858747482299804688e+00 -3.504162430763244629e-01 -8.428358286619186401e-02 -1.304099559783935547e-01 -6.729006171226501465e-01
5.577000000000000000e+03 3.362921142578125000e+01 -9.839175224304199219e+00 1.923560500144958496e+00 1.890029072761535645e+00 1.144076824188232422e+00 3.859273493289947510e-01
5.578000000000000000e+03 6.912281799316406250e+01 1.236728286743164062e+01 9.736276417970657349e-02 -3.885927200317382812e-01 -8.736898750066757202e-02 -7.895004153251647949e-01
5.579000000000000000e+03 3.292152404785156250e+01 -1.123766994476318359e+01 1.898685336112976074e+00 1.375864744186401367e+00 9.823650121688842773e-01 3.541308343410491943e-01
5.580000000000000000e+03 3.332929992675781250e+01 -1.089656829833984375e+01 1.914989233016967773e+00 1.704461216926574707e+00 1.085835099220275879e+00 3.843399286270141602e-01
5.581000000000000000e+03 7.081732940673828125e+01 -2.267659902572631836e+00 -2.868046462535858154e-01 1.213894505053758621e-02 -8.239971101284027100e-02 -1.479889154434204102e-01
5.582000000000000000e+03 7.108007812500000000e+01 -1.275755763053894043e+00 -3.043103814125061035e-01 5.329554551281034946e-04 -9.113322198390960693e-02 -2.104925811290740967e-01
5.583000000000000000e+03 7.010370635986328125e+01 4.239178657531738281e+00 -3.311856091022491455e-01 -9.918814152479171753e-02 -1.291121244430541992e-01 -6.039030551910400391e-01
5.584000000000000000e+03 6.802661132812500000e+01 1.732048606872558594e+01 3.302793502807617188e-01 -3.722640872001647949e-01 -1.259542535990476608e-02 -6.302419304847717285e-01
5.585000000000000000e+03 6.881016540527343750e+01 8.368796348571777344e+00 -1.501262038946151733e-01 -2.078298032283782959e-01 -1.073867976665496826e-01 -8.192626833915710449e-01
5.586000000000000000e+03 6.983361816406250000e+01 1.021046352386474609e+01 -2.268385142087936401e-02 -3.514458239078521729e-01 -1.122388988733291626e-01 -7.916542291641235352e-01
5.587000000000000000e+03 6.962085723876953125e+01 2.562914133071899414e+00 -4.227543473243713379e-01 -1.154535543173551559e-02 -1.302899122238159180e-01 -5.132285952568054199e-01
5.588000000000000000e+03 6.951665496826171875e+01 1.400984191894531250e+01 1.591891199350357056e-01 -4.664141833782196045e-01 -9.216751903295516968e-02 -7.365891933441162109e-01
5.589000000000000000e+03 6.934759521484375000e+01 4.045690536499023438e+00 -3.832881450653076172e-01 -5.589199811220169067e-02 -1.317540407180786133e-01 -6.223645210266113281e-01
5.590000000000000000e+03 2.919152450561523438e+01 -1.101316356658935547e+01 1.489266753196716309e+00 -4.146371185779571533e-01 3.223888874053955078e-01 2.102784365415573120e-01
5.591000000000000000e+03 5.072538757324218750e+01 1.984751510620117188e+01 1.146868705749511719e+00 3.359291553497314453e+00 1.351848006248474121e+00 5.691144466400146484e-01
5.592000000000000000e+03 1.492475414276123047e+01 -9.574810981750488281e+00 1.059335395693778992e-01 8.974033594131469727e-02 5.870216339826583862e-02 -1.184674575924873352e-01
5.593000000000000000e+03 5.201538467407226562e+01 9.281904220581054688e+00 6.792638897895812988e-01 1.005017518997192383e+00 5.052844285964965820e-01 -2.837202548980712891e-01
5.594000000000000000e+03 5.451161193847656250e+01 6.715777873992919922e+00 -5.505340099334716797e-01 4.262414574623107910e-01 -3.728776797652244568e-02 -8.348438739776611328e-01
5.595000000000000000e+03 5.068031692504882812e+01 1.385594749450683594e+01 1.439341783523559570e+00 2.446527719497680664e+00 1.165760874748229980e+00 5.110417008399963379e-01
5.596000000000000000e+03 4.845376968383789062e+01 8.366938591003417969e+00 8.858399987220764160e-01 1.899913311004638672e+00 8.357260227203369141e-01 5.678269863128662109e-01
5.597000000000000000e+03 5.002397155761718750e+01 1.015185356140136719e+01 1.161845564842224121e+00 1.796322226524353027e+00 8.874503374099731445e-01 3.158073723316192627e-01
5.598000000000000000e+03 5.924897384643554688e+01 7.236409187316894531e+00 -4.063190817832946777e-01 2.129461914300918579e-01 -5.801186710596084595e-02 -9.871265888214111328e-01
5.599000000000000000e+03 5.410425186157226562e+01 9.417545318603515625e+00 4.309725165367126465e-01 7.081401348114013672e-01 3.417337834835052490e-01 -5.934088826179504395e-01
5.600000000000000000e+03 4.985621643066406250e+01 7.400651454925537109e+00 3.084780275821685791e-01 1.067811131477355957e+00 4.128867685794830322e-01 -7.365568727254867554e-02
5.601000000000000000e+03 3.089802932739257812e+01 -1.116230201721191406e+01 1.750447392463684082e+00 1.037705540657043457e-01 5.562653541564941406e-01 3.065481781959533691e-01
5.602000000000000000e+03 6.945055389404296875e+01 1.112647056579589844e+00 -4.553478062152862549e-01 3.191653639078140259e-02 -1.270293891429901123e-01 -4.030699431896209717e-01
5.603000000000000000e+03 7.007514190673828125e+01 -1.058287382125854492e+00 -3.793729543685913086e-01 3.521658480167388916e-02 -1.032469123601913452e-01 -2.280590087175369263e-01
5.604000000000000000e+03 7.022843170166015625e+01 3.454571962356567383e+00 -3.489785194396972656e-01 -7.583688944578170776e-02 -1.274446249008178711e-01 -5.521838068962097168e-01
5.605000000000000000e+03 6.914160156250000000e+01 1.696342825889587402e+00 -4.725086688995361328e-01 2.997945994138717651e-02 -1.327587664127349854e-01 -4.612840414047241211e-01
5.606000000000000000e+03 5.311047363281250000e+01 7.881883144378662109e+00 2.878982760012149811e-02 6.311321854591369629e-01 1.979766041040420532e-01 -6.370086669921875000e-01
5.607000000000000000e+03 6.743312835693359375e+01 1.859016036987304688e+01 3.777751922607421875e-01 -3.094397485256195068e-01 2.050063014030456543e-02 -5.674353837966918945e-01
5.608000000000000000e+03 6.862087249755859375e+01 2.289039611816406250e+01 3.236761987209320068e-01 -4.408506751060485840e-01 -3.515234217047691345e-02 -3.522237539291381836e-01
5.609000000000000000e+03 6.832260131835937500e+01 2.150174713134765625e+01 3.513563275337219238e-01 -4.114117026329040527e-01 -1.801661215722560883e-02 -4.154556691646575928e-01
5.610000000000000000e+03 6.064607620239257812e+01 5.194773197174072266e+00 -8.222045898437500000e-01 1.667945981025695801e-01 -1.966229975223541260e-01 -9.287827610969543457e-01
5.611000000000000000e+03 7.135943603515625000e+01 -2.201258242130279541e-01 -3.072361350059509277e-01 -1.973979175090789795e-02 -9.809277951717376709e-02 -2.715836763381958008e-01
5.612000000000000000e+03 4.970339584350585938e+01 9.557815551757812500e+00 1.101557612419128418e+00 1.773791432380676270e+00 8.626047372817993164e-01 3.293931484222412109e-01
5.613000000000000000e+03 5.003007507324218750e+01 8.578661918640136719e+00 7.116047739982604980e-01 1.312234401702880859e+00 6.071517467498779297e-01 6.244986876845359802e-02
5.614000000000000000e+03 6.309992599487304688e+01 4.091302871704101562e+00 -8.341332674026489258e-01 1.503459513187408447e-01 -2.051361948251724243e-01 -8.253585696220397949e-01
5.615000000000000000e+03 6.283764266967773438e+01 4.767826557159423828e+00 -7.520573139190673828e-01 1.384088248014450073e-01 -1.840945482254028320e-01 -8.861980438232421875e-01
5.616000000000000000e+03 3.146325302124023438e+01 -1.017516613006591797e+01 1.795461416244506836e+00 3.545896410942077637e-01 6.450152993202209473e-01 2.198596298694610596e-01
5.617000000000000000e+03 5.247738265991210938e+01 1.853251266479492188e+01 1.243842482566833496e+00 2.518145799636840820e+00 1.128596544265747070e+00 3.852126002311706543e-01
5.618000000000000000e+03 5.196363067626953125e+01 1.637419509887695312e+01 1.342508912086486816e+00 2.421206474304199219e+00 1.129114627838134766e+00 4.081172049045562744e-01
5.619000000000000000e+03 6.445825195312500000e+01 2.956499338150024414e+00 -8.325433731079101562e-01 1.509775966405868530e-01 -2.044697254896163940e-01 -6.966749429702758789e-01
5.620000000000000000e+03 6.696794128417968750e+01 3.105429887771606445e+00 -5.973494648933410645e-01 7.804441452026367188e-02 -1.557915210723876953e-01 -6.405025720596313477e-01
5.621000000000000000e+03 6.728261566162109375e+01 2.373961210250854492e+00 -6.095315217971801758e-01 8.904925733804702759e-02 -1.561446785926818848e-01 -5.700587034225463867e-01
5.622000000000000000e+03 6.871461486816406250e+01 3.045914411544799805e+00 -4.722456634044647217e-01 1.216322928667068481e-02 -1.380247324705123901e-01 -5.783293843269348145e-01
5.623000000000000000e+03 5.570687484741210938e+01 6.854735851287841797e+00 -5.169162154197692871e-01 3.689569830894470215e-01 -4.438778012990951538e-02 -8.850263357162475586e-01
5.624000000000000000e+03 4.976773452758789062e+01 1.503070640563964844e+01 1.456305503845214844e+00 3.084220647811889648e+00 1.362157821655273438e+00 7.516323924064636230e-01
5.625000000000000000e+03 5.135744094848632812e+01 1.600401496887207031e+01 1.374346733093261719e+00 2.577386140823364258e+00 1.185519814491271973e+00 4.977316856384277344e-01
5.626000000000000000e+03 5.907992553710937500e+01 6.605869770050048828e+00 -5.468080639839172363e-01 2.184811234474182129e-01 -9.849807620048522949e-02 -9.866070747375488281e-01
5.627000000000000000e+03 5.749494552612304688e+01 7.726493358612060547e+00 -2.675954699516296387e-01 3.116306662559509277e-01 1.321055274456739426e-02 -9.414036273956298828e-01
5.628000000000000000e+03 6.031802749633789062e+01 6.242023944854736328e+00 -6.075842976570129395e-01 1.753327399492263794e-01 -1.296754777431488037e-01 -9.820055961608886719e-01
5.629000000000000000e+03 4.940748214721679688e+01 1.429147720336914062e+01 1.475848317146301270e+00 3.093366622924804688e+00 1.370764493942260742e+00 7.988181114196777344e-01
5.630000000000000000e+03 4.954703903198242188e+01 1.314818954467773438e+01 1.495475411415100098e+00 2.808220863342285156e+00 1.291108846664428711e+00 7.220261096954345703e-01
5.631000000000000000e+03 2.927075386047363281e+01 -9.491364479064941406e+00 1.386437773704528809e+00 -4.963671863079071045e-01 2.670211493968963623e-01 -5.268772318959236145e-02
5.632000000000000000e+03 6.756961059570312500e+01 2.362112045288085938e+01 3.691779673099517822e-01 -2.862091958522796631e-01 2.489062398672103882e-02 -3.141418695449829102e-01
5.633000000000000000e+03 6.377646255493164062e+01 4.547037124633789062e+00 -7.167376279830932617e-01 1.300256997346878052e-01 -1.760135740041732788e-01 -8.504163622856140137e-01
5.634000000000000000e+03 3.361493301391601562e+01 -9.070335388183593750e+00 1.867995381355285645e+00 1.775681734085083008e+00 1.093103170394897461e+00 3.551101088523864746e-01
5.635000000000000000e+03 2.844863700866699219e+01 -1.027635478973388672e+01 1.301448225975036621e+00 -5.639988780021667480e-01 2.212348133325576782e-01 3.345969319343566895e-02
5.636000000000000000e+03 7.001263427734375000e+01 5.907726287841796875e+00 -2.597476840019226074e-01 -1.687836498022079468e-01 -1.285594105720520020e-01 -6.907272934913635254e-01
5.637000000000000000e+03 6.960703277587890625e+01 8.823521614074707031e+00 -1.071798950433731079e-01 -2.790460288524627686e-01 -1.158677786588668823e-01 -7.898620963096618652e-01
5.638000000000000000e+03 6.923558044433593750e+01 1.324397182464599609e+01 1.387316584587097168e-01 -4.240440428256988525e-01 -8.559371531009674072e-02 -7.674946784973144531e-01
5.639000000000000000e+03 6.984004211425781250e+01 1.305689620971679688e+01 1.151573285460472107e-01 -4.584820568561553955e-01 -1.029974222183227539e-01 -7.547512650489807129e-01
5.640000000000000000e+03 5.140539550781250000e+01 2.412285614013671875e+01 9.249477982521057129e-01 3.300336599349975586e+00 1.267585277557373047e+00 4.270251989364624023e-01
5.641000000000000000e+03 5.330149841308593750e+01 2.446027374267578125e+01 9.077777266502380371e-01 2.699643135070800781e+00 1.082226276397705078e+00 3.633725047111511230e-01
5.642000000000000000e+03 6.963777160644531250e+01 1.581762027740478516e+01 2.105107903480529785e-01 -5.274188518524169922e-01 -9.507241100072860718e-02 -6.712665557861328125e-01
5.643000000000000000e+03 6.920034790039062500e+01 1.516663551330566406e+01 2.064306437969207764e-01 -4.714011847972869873e-01 -7.949116080999374390e-02 -7.041575908660888672e-01
5.644000000000000000e+03 6.803760528564453125e+01 2.486916542053222656e+01 3.320398330688476562e-01 -3.475589156150817871e-01 -4.655722994357347488e-03 -2.599198818206787109e-01
5.645000000000000000e+03 6.702767944335937500e+01 2.843549156188964844e+01 2.840100228786468506e-01 -9.090079367160797119e-02 5.793277174234390259e-02 -1.064579337835311890e-01
5.646000000000000000e+03 5.084881210327148438e+01 2.132874298095703125e+01 1.060174465179443359e+00 3.407515048980712891e+00 1.340306878089904785e+00 5.190091133117675781e-01
5.647000000000000000e+03 5.415422439575195312e+01 2.871056938171386719e+01 5.864560008049011230e-01 2.604453086853027344e+00 9.572727084159851074e-01 4.020842313766479492e-01
5.648000000000000000e+03 7.003373718261718750e+01 5.051847934722900391e+00 -2.999093830585479736e-01 -1.308424174785614014e-01 -1.292255371809005737e-01 -6.501459479331970215e-01
5.649000000000000000e+03 6.760283660888671875e+01 4.440065383911132812e+00 -4.827757477760314941e-01 1.395834889262914658e-02 -1.406452208757400513e-01 -7.115436792373657227e-01
5.650000000000000000e+03 6.854685974121093750e+01 3.813535451889038086e+00 -4.468886256217956543e-01 -9.476003237068653107e-03 -1.369093805551528931e-01 -6.375566124916076660e-01
5.651000000000000000e+03 6.490862274169921875e+01 4.438091278076171875e+00 -6.592168211936950684e-01 1.092883050441741943e-01 -1.649785488843917847e-01 -8.051648139953613281e-01
5.652000000000000000e+03 6.828643035888671875e+01 1.264748573303222656e+01 1.295948624610900879e-01 -3.245947360992431641e-01 -5.849995836615562439e-02 -8.099280595779418945e-01
5.653000000000000000e+03 6.781617736816406250e+01 1.077924728393554688e+01 2.157505229115486145e-02 -2.398969084024429321e-01 -6.549655646085739136e-02 -8.604831099510192871e-01
5.654000000000000000e+03 2.673864746093750000e+01 -1.010929870605468750e+01 9.844766855239868164e-01 -6.311063170433044434e-01 1.060111150145530701e-01 -7.086607813835144043e-02
5.655000000000000000e+03 6.917942047119140625e+01 6.590450286865234375e+00 -2.538034319877624512e-01 -1.558393836021423340e-01 -1.228928416967391968e-01 -7.567246556282043457e-01
5.656000000000000000e+03 6.912232971191406250e+01 9.738892555236816406e+00 -4.881287738680839539e-02 -2.892714142799377441e-01 -1.014252901077270508e-01 -8.197444081306457520e-01
5.657000000000000000e+03 6.947841644287109375e+01 3.278290033340454102e+00 -4.063517451286315918e-01 -3.218581154942512512e-02 -1.315612643957138062e-01 -5.663602352142333984e-01
5.658000000000000000e+03 7.037711334228515625e+01 2.662367582321166992e+00 -3.619703948497772217e-01 -5.199110507965087891e-02 -1.241884529590606689e-01 -4.918417632579803467e-01
5.659000000000000000e+03 6.807757568359375000e+01 1.171382236480712891e+01 8.799529075622558594e-02 -2.832834422588348389e-01 -5.858644843101501465e-02 -8.413145542144775391e-01
5.660000000000000000e+03 3.286067199707031250e+01 -1.064034652709960938e+01 1.916155576705932617e+00 1.324470639228820801e+00 9.721878767013549805e-01 3.464357852935791016e-01
5.661000000000000000e+03 5.242472457885742188e+01 8.370223999023437500e+00 2.517475783824920654e-01 7.616236209869384766e-01 3.040113747119903564e-01 -4.935108125209808350e-01
5.662000000000000000e+03 5.147563934326171875e+01 8.355864524841308594e+00 4.047212600708007812e-01 9.033315777778625488e-01 3.924158513545989990e-01 -3.082556724548339844e-01
5.663000000000000000e+03 6.997861480712890625e+01 1.466027736663818359e+00 -4.086358547210693359e-01 -7.379158341791480780e-05 -1.226128935813903809e-01 -4.161738753318786621e-01
5.664000000000000000e+03 5.037654495239257812e+01 9.171153068542480469e+00 8.630864024162292480e-01 1.390018343925476074e+00 6.759313941001892090e-01 5.245605856180191040e-02
5.665000000000000000e+03 6.973636627197265625e+01 1.945505976676940918e+00 -4.239529967308044434e-01 -2.394823823124170303e-03 -1.279043406248092651e-01 -4.663898646831512451e-01
5.666000000000000000e+03 5.157576370239257812e+01 1.491278648376464844e+01 1.383120417594909668e+00 2.281681537628173828e+00 1.099440574645996094e+00 4.065477252006530762e-01
5.667000000000000000e+03 6.166208267211914062e+01 5.832109928131103516e+00 -6.342649459838867188e-01 1.475936025381088257e-01 -1.460014134645462036e-01 -9.561404585838317871e-01
5.668000000000000000e+03 6.099545288085937500e+01 6.056708812713623047e+00 -6.198885440826416016e-01 1.589253097772598267e-01 -1.382889747619628906e-01 -9.704183340072631836e-01
5.669000000000000000e+03 5.488027572631835938e+01 8.775351524353027344e+00 1.550530344247817993e-01 5.479490160942077637e-01 2.109006196260452271e-01 -7.404837608337402344e-01
5.670000000000000000e+03 5.869706344604492188e+01 7.742372035980224609e+00 -2.947771847248077393e-01 2.499483078718185425e-01 -1.344866305589675903e-02 -9.815705418586730957e-01
5.671000000000000000e+03 5.176873779296875000e+01 1.714946174621582031e+01 1.316666960716247559e+00 2.604369401931762695e+00 1.176310896873474121e+00 4.535170495510101318e-01
5.672000000000000000e+03 5.037520599365234375e+01 1.457839107513427734e+01 1.422665119171142578e+00 2.737251758575439453e+00 1.247975111007690430e+00 5.927704572677612305e-01
5.673000000000000000e+03 5.382698822021484375e+01 7.312342643737792969e+00 -2.800063490867614746e-01 5.172473788261413574e-01 7.117230445146560669e-02 -7.587519288063049316e-01
5.674000000000000000e+03 6.879954528808593750e+01 1.441397571563720703e+01 1.963165104389190674e-01 -4.199197590351104736e-01 -6.708097457885742188e-02 -7.413030862808227539e-01
5.675000000000000000e+03 9.311228752136230469e+00 1.324716663360595703e+01 -4.137834912398830056e-05 1.437452101527014747e-05 -8.101148523564916104e-06 8.516101843270007521e-06
5.676000000000000000e+03 5.151143646240234375e+01 2.051966285705566406e+01 1.117395639419555664e+00 3.083508968353271484e+00 1.260271310806274414e+00 4.923436641693115234e-01
5.677000000000000000e+03 5.018646240234375000e+01 1.245304679870605469e+01 1.425183057785034180e+00 2.348024129867553711e+00 1.131962180137634277e+00 5.254476666450500488e-01
5.678000000000000000e+03 5.074277496337890625e+01 1.161525344848632812e+01 1.285773634910583496e+00 1.870980739593505859e+00 9.470263123512268066e-01 2.945156395435333252e-01
5.679000000000000000e+03 6.717064666748046875e+01 2.008310699462890625e+01 4.089042544364929199e-01 -2.700378298759460449e-01 4.165992140769958496e-02 -4.831311702728271484e-01
5.680000000000000000e+03 6.700864410400390625e+01 2.161244392395019531e+01 4.183152019977569580e-01 -2.292224317789077759e-01 5.672783032059669495e-02 -3.983042836189270020e-01
5.681000000000000000e+03 5.141032028198242188e+01 1.406844997406005859e+01 1.389858007431030273e+00 2.196446418762207031e+00 1.075891375541687012e+00 3.855774998664855957e-01
5.682000000000000000e+03 5.188692855834960938e+01 1.567687702178955078e+01 1.353878140449523926e+00 2.309227705001831055e+00 1.098931789398193359e+00 3.835912346839904785e-01
5.683000000000000000e+03 6.834679412841796875e+01 1.575466156005859375e+01 2.576812505722045898e-01 -4.036417901515960693e-01 -4.378816112875938416e-02 -6.970629096031188965e-01
5.684000000000000000e+03 7.000114440917968750e+01 6.823854923248291016e+00 -2.127509415149688721e-01 -2.105038613080978394e-01 -1.269764304161071777e-01 -7.269300818443298340e-01
5.685000000000000000e+03 6.922460937500000000e+01 5.710521697998046875e+00 -3.049031496047973633e-01 -1.192225962877273560e-01 -1.272377222776412964e-01 -7.187523841857910156e-01
5.686000000000000000e+03 5.325169372558593750e+01 2.221677017211914062e+01 1.039771437644958496e+00 2.598318099975585938e+00 1.091426849365234375e+00 3.500845432281494141e-01
5.687000000000000000e+03 5.620092773437500000e+01 2.274382209777832031e+01 9.399358034133911133e-01 1.770074129104614258e+00 8.130030035972595215e-01 1.525305807590484619e-01
5.688000000000000000e+03 5.157491302490234375e+01 2.223772811889648438e+01 1.030211329460144043e+00 3.178194761276245117e+00 1.262521743774414062e+00 4.563451111316680908e-01
5.689000000000000000e+03 5.273126983642578125e+01 1.646476554870605469e+01 1.299545407295227051e+00 2.146572589874267578e+00 1.033835411071777344e+00 2.814273238182067871e-01
5.690000000000000000e+03 5.271080398559570312e+01 1.747534370422363281e+01 1.279722690582275391e+00 2.310014486312866211e+00 1.076921224594116211e+00 3.334040045738220215e-01
5.691000000000000000e+03 6.683393859863281250e+01 2.539477920532226562e+01 3.747150003910064697e-01 -1.304176598787307739e-01 7.328920066356658936e-02 -2.231735289096832275e-01
5.692000000000000000e+03 6.700757598876953125e+01 2.677560043334960938e+01 3.447813093662261963e-01 -1.248402968049049377e-01 6.598230451345443726e-02 -1.601474136114120483e-01
5.693000000000000000e+03 5.561993408203125000e+01 3.028516006469726562e+01 4.230339527130126953e-01 2.314841508865356445e+00 8.213626742362976074e-01 3.655964732170104980e-01
5.694000000000000000e+03 6.658531188964843750e+01 2.418417930603027344e+01 4.087616205215454102e-01 -1.168234273791313171e-01 8.758146315813064575e-02 -2.610241174697875977e-01
5.695000000000000000e+03 5.559837341308593750e+01 8.178394317626953125e+00 -6.585564464330673218e-02 4.443541765213012695e-01 1.135495528578758240e-01 -8.354002237319946289e-01
5.696000000000000000e+03 5.345441055297851562e+01 1.017576313018798828e+01 6.872288584709167480e-01 8.936834335327148438e-01 4.742736816406250000e-01 -4.163544774055480957e-01
5.697000000000000000e+03 6.111793518066406250e+01 8.717810630798339844e+00 -1.107271984219551086e-01 1.553155034780502319e-01 1.337649114429950714e-02 -9.923108220100402832e-01
5.698000000000000000e+03 6.700585937500000000e+01 1.100844764709472656e+01 5.323390290141105652e-02 -1.935895830392837524e-01 -4.210670664906501770e-02 -8.793395757675170898e-01
5.699000000000000000e+03 6.841625213623046875e+01 9.190982818603515625e+00 -9.278360009193420410e-02 -2.186138629913330078e-01 -9.341923892498016357e-02 -8.464230895042419434e-01
5.700000000000000000e+03 5.100837707519531250e+01 8.804379463195800781e+00 6.709882020950317383e-01 1.125027537345886230e+00 5.388047099113464355e-01 -1.376427561044692993e-01
5.701000000000000000e+03 5.143833541870117188e+01 9.219588279724121094e+00 7.542288303375244141e-01 1.124406933784484863e+00 5.635907053947448730e-01 -1.568949222564697266e-01
5.702000000000000000e+03 6.793414306640625000e+01 9.954064369201660156e+00 -3.800670802593231201e-02 -2.166296839714050293e-01 -7.639091461896896362e-02 -8.653239011764526367e-01
5.703000000000000000e+03 6.774593353271484375e+01 8.713062286376953125e+00 -1.378282010555267334e-01 -1.632117927074432373e-01 -9.031199663877487183e-02 -8.654545545578002930e-01
5.704000000000000000e+03 6.338764190673828125e+01 5.221646308898925781e+00 -6.578155755996704102e-01 1.235125809907913208e-01 -1.602908968925476074e-01 -9.001312255859375000e-01
5.705000000000000000e+03 5.274229812622070312e+01 9.105427742004394531e+00 4.990323781967163086e-01 8.480390906333923340e-01 4.041214287281036377e-01 -4.525850117206573486e-01
5.706000000000000000e+03 5.057890701293945312e+01 9.876008033752441406e+00 1.014088630676269531e+00 1.502309322357177734e+00 7.549194097518920898e-01 1.101516932249069214e-01
5.707000000000000000e+03 5.092972183227539062e+01 1.295012760162353516e+01 1.387422084808349609e+00 2.149897336959838867e+00 1.061195850372314453e+00 3.927018344402313232e-01
5.708000000000000000e+03 6.677051544189453125e+01 4.460381984710693359e+00 -5.300052165985107422e-01 4.531883448362350464e-02 -1.454059183597564697e-01 -7.508684396743774414e-01
5.709000000000000000e+03 6.606474304199218750e+01 4.773826599121093750e+00 -5.430573821067810059e-01 5.992983281612396240e-02 -1.449382603168487549e-01 -7.949764728546142578e-01
5.710000000000000000e+03 5.504637908935546875e+01 7.443339347839355469e+00 -2.934854030609130859e-01 4.386567771434783936e-01 4.355141147971153259e-02 -8.395717740058898926e-01
5.711000000000000000e+03 5.686193084716796875e+01 8.355783462524414062e+00 -7.176488637924194336e-02 3.690702915191650391e-01 8.919161558151245117e-02 -8.971051573753356934e-01
5.712000000000000000e+03 6.108949279785156250e+01 7.025246620178222656e+00 -4.338928461074829102e-01 1.568157225847244263e-01 -8.312314003705978394e-02 -9.994288086891174316e-01
5.713000000000000000e+03 6.213532257080078125e+01 5.101982593536376953e+00 -7.320360541343688965e-01 1.478305459022521973e-01 -1.752616614103317261e-01 -9.259734153747558594e-01
5.714000000000000000e+03 6.041041564941406250e+01 7.046726226806640625e+00 -4.463201761245727539e-01 1.731892377138137817e-01 -8.193928003311157227e-02 -9.926225543022155762e-01
5.715000000000000000e+03 5.164356994628906250e+01 1.334185409545898438e+01 1.350104689598083496e+00 1.950296044349670410e+00 9.901202321052551270e-01 2.685603201389312744e-01
5.716000000000000000e+03 5.543994140625000000e+01 9.508290290832519531e+00 3.281843066215515137e-01 5.623631477355957031e-01 2.671642303466796875e-01 -7.262818813323974609e-01
5.717000000000000000e+03 6.794881439208984375e+01 1.489607143402099609e+01 2.498508840799331665e-01 -3.484340906143188477e-01 -2.957496419548988342e-02 -7.399844527244567871e-01
5.718000000000000000e+03 5.256775665283203125e+01 1.556125450134277344e+01 1.335860610008239746e+00 2.040695667266845703e+00 1.012966871261596680e+00 2.639661431312561035e-01
5.719000000000000000e+03 6.843147277832031250e+01 5.499286651611328125e+00 -3.589764833450317383e-01 -6.836914271116256714e-02 -1.282036900520324707e-01 -7.439957857131958008e-01
5.720000000000000000e+03 5.146240615844726562e+01 1.208279323577880859e+01 1.276239037513732910e+00 1.759282350540161133e+00 9.106563925743103027e-01 1.943584382534027100e-01
5.721000000000000000e+03 6.845598602294921875e+01 4.641192913055419922e+00 -4.093765020370483398e-01 -3.559850528836250305e-02 -1.334924995899200439e-01 -6.927422285079956055e-01
5.722000000000000000e+03 5.399841308593750000e+01 2.102137374877929688e+01 1.086972951889038086e+00 2.271482944488525391e+00 1.007536768913269043e+00 2.821743190288543701e-01
5.723000000000000000e+03 5.205915832519531250e+01 1.956624221801757812e+01 1.184968233108520508e+00 2.771110296249389648e+00 1.186823606491088867e+00 4.433772563934326172e-01
5.724000000000000000e+03 6.766545104980468750e+01 5.341866016387939453e+00 -4.093317687511444092e-01 -2.488241158425807953e-02 -1.302642524242401123e-01 -7.726119756698608398e-01
5.725000000000000000e+03 6.906298065185546875e+01 7.491710662841796875e+00 -2.004160135984420776e-01 -1.869323104619979858e-01 -1.162045001983642578e-01 -7.913963198661804199e-01
5.726000000000000000e+03 6.829118347167968750e+01 7.186146736145019531e+00 -2.419450283050537109e-01 -1.338490843772888184e-01 -1.127382293343544006e-01 -8.127714395523071289e-01
5.727000000000000000e+03 5.981198120117187500e+01 7.061969280242919922e+00 -4.547224044799804688e-01 1.934020668268203735e-01 -7.839609682559967041e-02 -9.922339916229248047e-01
5.728000000000000000e+03 5.617147827148437500e+01 8.945295333862304688e+00 1.136461272835731506e-01 4.522367119789123535e-01 1.697648465633392334e-01 -8.270954489707946777e-01
5.729000000000000000e+03 6.733755493164062500e+01 1.649973869323730469e+01 3.380099833011627197e-01 -3.008054196834564209e-01 1.116136740893125534e-02 -6.703180074691772461e-01
5.730000000000000000e+03 5.234584045410156250e+01 2.131062126159667969e+01 1.088386535644531250e+00 2.836244583129882812e+00 1.177389383316040039e+00 4.184604585170745850e-01
5.731000000000000000e+03 6.849526977539062500e+01 1.355696964263916016e+01 1.743613332509994507e-01 -3.719349205493927002e-01 -5.927207320928573608e-02 -7.776470184326171875e-01
5.732000000000000000e+03 6.765378570556640625e+01 1.394657802581787109e+01 2.193972766399383545e-01 -3.017412722110748291e-01 -2.470319904386997223e-02 -7.819253206253051758e-01
5.733000000000000000e+03 6.670797729492187500e+01 2.300585556030273438e+01 4.081250429153442383e-01 -1.781086474657058716e-01 6.900491565465927124e-02 -3.204621672630310059e-01
5.734000000000000000e+03 5.300886154174804688e+01 2.022860336303710938e+01 1.132092833518981934e+00 2.513164520263671875e+00 1.093577146530151367e+00 3.501235246658325195e-01
5.735000000000000000e+03 5.504770278930664062e+01 2.191585731506347656e+01 1.026453971862792969e+00 2.025062799453735352e+00 9.154550433158874512e-01 2.226859033107757568e-01
5.736000000000000000e+03 6.478356933593750000e+01 1.868875122070312500e+01 5.333314538002014160e-01 1.011312473565340042e-02 1.630333811044692993e-01 -5.265275239944458008e-01
5.737000000000000000e+03 6.588716125488281250e+01 1.578549194335937500e+01 3.826752305030822754e-01 -1.574711799621582031e-01 6.756121665239334106e-02 -7.123323082923889160e-01
5.738000000000000000e+03 5.566751480102539062e+01 2.698480796813964844e+01 6.916645169258117676e-01 2.151544094085693359e+00 8.529626131057739258e-01 3.044142127037048340e-01
5.739000000000000000e+03 5.716968154907226562e+01 2.820063400268554688e+01 5.605214834213256836e-01 1.840438604354858398e+00 7.202880382537841797e-01 2.422117441892623901e-01
5.740000000000000000e+03 6.036094284057617188e+01 2.348613357543945312e+01 7.179397940635681152e-01 9.212239384651184082e-01 4.917491078376770020e-01 -6.382553279399871826e-02
5.741000000000000000e+03 6.520016479492187500e+01 3.340020751953125000e+01 1.494775116443634033e-01 3.901952207088470459e-01 1.619018167257308960e-01 3.320065140724182129e-02
5.742000000000000000e+03 6.244019699096679688e+01 3.385774993896484375e+01 1.399432122707366943e-01 9.426730871200561523e-01 3.247848749160766602e-01 1.241476014256477356e-01
5.743000000000000000e+03 6.724213409423828125e+01 1.202427101135253906e+01 1.242710724472999573e-01 -2.341582030057907104e-01 -3.296614065766334534e-02 -8.527805805206298828e-01
5.744000000000000000e+03 5.597059249877929688e+01 1.028924560546875000e+01 4.608352482318878174e-01 5.820100307464599609e-01 3.128536045551300049e-01 -6.947868466377258301e-01
5.745000000000000000e+03 6.724951171875000000e+01 9.424724578857421875e+00 -7.497230172157287598e-02 -1.639406830072402954e-01 -7.167389988899230957e-02 -8.848801255226135254e-01
5.746000000000000000e+03 5.046438217163085938e+01 1.053872203826904297e+01 1.176530957221984863e+00 1.729558467864990234e+00 8.718268275260925293e-01 2.414965331554412842e-01
5.747000000000000000e+03 5.299450302124023438e+01 1.093900108337402344e+01 9.312571287155151367e-01 1.115548491477966309e+00 6.140416860580444336e-01 -2.475882172584533691e-01
5.748000000000000000e+03 5.930932617187500000e+01 8.302631378173828125e+00 -1.755702793598175049e-01 2.221387177705764771e-01 1.397053245455026627e-02 -9.814319014549255371e-01
5.749000000000000000e+03 5.749665069580078125e+01 9.165449142456054688e+00 9.701335430145263672e-02 3.667659461498260498e-01 1.391337811946868896e-01 -8.841361403465270996e-01
5.750000000000000000e+03 6.181241989135742188e+01 7.182590484619140625e+00 -3.973685801029205322e-01 1.362456083297729492e-01 -7.833689451217651367e-02 -9.984381198883056641e-01
5.751000000000000000e+03 5.813861465454101562e+01 8.454549789428710938e+00 -9.374979883432388306e-02 3.097913861274719238e-01 6.481248140335083008e-02 -9.422174096107482910e-01
5.752000000000000000e+03 5.272971725463867188e+01 1.374179553985595703e+01 1.261186242103576660e+00 1.683878660202026367e+00 8.835194706916809082e-01 1.027529984712600708e-01
5.753000000000000000e+03 6.547200775146484375e+01 5.249038219451904297e+00 -5.317568182945251465e-01 6.244464591145515442e-02 -1.407936513423919678e-01 -8.375003933906555176e-01
5.754000000000000000e+03 5.207132720947265625e+01 1.393649482727050781e+01 1.324097514152526855e+00 1.902404665946960449e+00 9.679506421089172363e-01 2.246431261301040649e-01
5.755000000000000000e+03 5.300817108154296875e+01 1.455304527282714844e+01 1.269991874694824219e+00 1.742696166038513184e+00 9.038064479827880859e-01 1.236128509044647217e-01
5.756000000000000000e+03 5.356643676757812500e+01 8.675687789916992188e+00 2.643832564353942871e-01 6.821961402893066406e-01 2.839738130569458008e-01 -6.044203042984008789e-01
5.757000000000000000e+03 5.470785903930664062e+01 1.007993221282958984e+01 5.319670438766479492e-01 7.156128883361816406e-01 3.742739558219909668e-01 -5.873686671257019043e-01
5.758000000000000000e+03 6.697113800048828125e+01 1.539533615112304688e+01 3.161397576332092285e-01 -2.541682422161102295e-01 1.859145611524581909e-02 -7.277336120605468750e-01
5.759000000000000000e+03 5.209989547729492188e+01 1.266166400909423828e+01 1.257217764854431152e+00 1.684213399887084961e+00 8.824293613433837891e-01 1.190547943115234375e-01
5.760000000000000000e+03 5.110131835937500000e+01 1.074445915222167969e+01 1.141596198081970215e+00 1.574790000915527344e+00 8.149158358573913574e-01 1.325816959142684937e-01
5.761000000000000000e+03 5.243579101562500000e+01 1.071980381011962891e+01 9.305894374847412109e-01 1.155306816101074219e+00 6.257688403129577637e-01 -1.822000145912170410e-01
5.762000000000000000e+03 6.494185638427734375e+01 5.860080242156982422e+00 -4.899610877037048340e-01 6.244160979986190796e-02 -1.282558441162109375e-01 -8.885906934738159180e-01
5.763000000000000000e+03 6.439320373535156250e+01 5.154097557067871094e+00 -6.112051010131835938e-01 1.007864996790885925e-01 -1.531255841255187988e-01 -8.702724575996398926e-01
5.764000000000000000e+03 5.357458877563476562e+01 1.641569137573242188e+01 1.268017888069152832e+00 1.845699071884155273e+00 9.341151118278503418e-01 1.577878743410110474e-01
5.765000000000000000e+03 5.553728485107421875e+01 1.862652969360351562e+01 1.126806378364562988e+00 1.590939998626708984e+00 8.153238892555236816e-01 4.464930668473243713e-02
5.766000000000000000e+03 5.271139907836914062e+01 9.940365791320800781e+00 7.309384346008300781e-01 9.789976477622985840e-01 5.129808187484741211e-01 -3.353114128112792969e-01
5.767000000000000000e+03 5.123703002929687500e+01 9.897340774536132812e+00 9.204010367393493652e-01 1.306555867195129395e+00 6.680870652198791504e-01 -3.649150952696800232e-02
5.768000000000000000e+03 5.469166183471679688e+01 1.973426055908203125e+01 1.120487213134765625e+00 1.931586623191833496e+00 9.156221747398376465e-01 1.723387688398361206e-01
5.769000000000000000e+03 5.357359695434570312e+01 1.900127601623535156e+01 1.190996170043945312e+00 2.178545713424682617e+00 1.010862588882446289e+00 2.659049630165100098e-01
5.770000000000000000e+03 6.673488616943359375e+01 1.432411575317382812e+01 2.746458649635314941e-01 -2.275606989860534668e-01 1.412554644048213959e-02 -7.773596644401550293e-01
5.771000000000000000e+03 6.839337158203125000e+01 6.351850986480712891e+00 -2.962794601917266846e-01 -1.054010093212127686e-01 -1.205041408538818359e-01 -7.847695350646972656e-01
5.772000000000000000e+03 6.697287750244140625e+01 6.017393112182617188e+00 -3.816185891628265381e-01 -2.017510868608951569e-02 -1.205381080508232117e-01 -8.349370956420898438e-01
5.773000000000000000e+03 6.757043457031250000e+01 6.945865154266357422e+00 -2.779374420642852783e-01 -8.960877358913421631e-02 -1.102638617157936096e-01 -8.357234001159667969e-01
5.774000000000000000e+03 6.743852996826171875e+01 1.298754787445068359e+01 1.784428358078002930e-01 -2.672218680381774902e-01 -2.663370780646800995e-02 -8.203569054603576660e-01
5.775000000000000000e+03 6.657282257080078125e+01 1.330730342864990234e+01 2.274353206157684326e-01 -2.044987827539443970e-01 6.880958564579486847e-03 -8.211430311203002930e-01
5.776000000000000000e+03 6.545241546630859375e+01 2.304784584045410156e+01 4.836095273494720459e-01 2.506205998361110687e-02 1.526014655828475952e-01 -2.973852753639221191e-01
5.777000000000000000e+03 6.591758728027343750e+01 2.007533645629882812e+01 4.724237620830535889e-01 -1.066962033510208130e-01 1.097182631492614746e-01 -4.650396704673767090e-01
5.778000000000000000e+03 6.472765350341796875e+01 1.602980232238769531e+01 4.554172754287719727e-01 -4.042959958314895630e-02 1.244963034987449646e-01 -6.878981590270996094e-01
5.779000000000000000e+03 5.427053833007812500e+01 2.322032356262207031e+01 9.699627161026000977e-01 2.336543083190917969e+00 9.919517636299133301e-01 2.983496189117431641e-01
5.780000000000000000e+03 5.484356307983398438e+01 1.740513229370117188e+01 1.183427333831787109e+00 1.641695737838745117e+00 8.475369215011596680e-01 5.714759975671768188e-02
5.781000000000000000e+03 6.561286163330078125e+01 2.693997001647949219e+01 3.903413414955139160e-01 1.377112269401550293e-01 1.584157794713973999e-01 -1.102299168705940247e-01
5.782000000000000000e+03 6.070362091064453125e+01 3.032904052734375000e+01 3.775165379047393799e-01 1.143136978149414062e+00 4.561960399150848389e-01 1.684058457612991333e-01
5.783000000000000000e+03 5.385467529296875000e+01 3.180781936645507812e+01 3.011111617088317871e-01 2.692030191421508789e+00 8.979424238204956055e-01 4.268031418323516846e-01
5.784000000000000000e+03 6.502935028076171875e+01 3.082143783569335938e+01 2.486995756626129150e-01 3.412010669708251953e-01 1.769701838493347168e-01 4.301115695852786303e-04
5.785000000000000000e+03 4.873118209838867188e+01 4.060253524780273438e+01 -7.065882682800292969e-01 3.747526645660400391e+00 9.122815132141113281e-01 9.069047868251800537e-02
5.786000000000000000e+03 5.296128082275390625e+01 1.257339668273925781e+01 1.196735262870788574e+00 1.434560537338256836e+00 7.893887162208557129e-01 -3.272545337677001953e-02
5.787000000000000000e+03 5.259495925903320312e+01 1.216575908660888672e+01 1.184086084365844727e+00 1.428267359733581543e+00 7.837060689926147461e-01 -1.057692617177963257e-02
5.788000000000000000e+03 6.096982574462890625e+01 7.948529243469238281e+00 -2.456859350204467773e-01 1.654909998178482056e-01 -2.405847795307636261e-02 -1.004540681838989258e+00
5.789000000000000000e+03 6.587198638916015625e+01 1.045742988586425781e+01 2.631843648850917816e-02 -1.107832565903663635e-01 -2.533944509923458099e-02 -9.145382642745971680e-01
5.790000000000000000e+03 6.809271240234375000e+01 7.980038166046142578e+00 -1.900511980056762695e-01 -1.532270759344100952e-01 -1.029834821820259094e-01 -8.408443331718444824e-01
5.791000000000000000e+03 5.405186843872070312e+01 1.068538093566894531e+01 7.316949367523193359e-01 8.694682121276855469e-01 4.803489148616790771e-01 -4.549890458583831787e-01
5.792000000000000000e+03 5.675259017944335938e+01 9.774085044860839844e+00 2.826409935951232910e-01 4.549901783466339111e-01 2.212893515825271606e-01 -8.068475723266601562e-01
5.793000000000000000e+03 6.698941040039062500e+01 5.310439109802246094e+00 -4.412591159343719482e-01 1.049711136147379875e-03 -1.320628225803375244e-01 -7.863775491714477539e-01
5.794000000000000000e+03 6.645890808105468750e+01 5.576447963714599609e+00 -4.475444555282592773e-01 1.584928482770919800e-02 -1.295085549354553223e-01 -8.232445120811462402e-01
5.795000000000000000e+03 5.321384811401367188e+01 1.299137020111083984e+01 1.193185210227966309e+00 1.427840471267700195e+00 7.863076925277709961e-01 -3.557023033499717712e-02
5.796000000000000000e+03 6.480883789062500000e+01 1.732198333740234375e+01 5.057891607284545898e-01 -2.246916107833385468e-02 1.449960023164749146e-01 -6.096569299697875977e-01
5.797000000000000000e+03 6.685040283203125000e+01 6.786610126495361328e+00 -3.131313621997833252e-01 -4.741334170103073120e-02 -1.081634163856506348e-01 -8.587270975112915039e-01
5.798000000000000000e+03 5.640792846679687500e+01 1.112698841094970703e+01 5.967710018157958984e-01 6.082952618598937988e-01 3.615198731422424316e-01 -6.628942489624023438e-01
5.799000000000000000e+03 5.202947616577148438e+01 1.135584640502929688e+01 1.133857846260070801e+00 1.418944120407104492e+00 7.658405900001525879e-01 -4.668258596211671829e-03
5.800000000000000000e+03 5.259650421142578125e+01 1.160138320922851562e+01 1.111756086349487305e+00 1.345224022865295410e+00 7.370940446853637695e-01 -8.562206476926803589e-02
5.801000000000000000e+03 6.688712310791015625e+01 7.588434219360351562e+00 -2.464804351329803467e-01 -7.490136474370956421e-02 -9.641454368829727173e-02 -8.804274201393127441e-01
5.802000000000000000e+03 6.441865539550781250e+01 6.516726970672607422e+00 -4.386263489723205566e-01 6.148006767034530640e-02 -1.131438836455345154e-01 -9.313277006149291992e-01
5.803000000000000000e+03 6.256873321533203125e+01 5.299286842346191406e+00 -6.889644861221313477e-01 1.303522139787673950e-01 -1.675836890935897827e-01 -9.182693362236022949e-01
5.804000000000000000e+03 5.996568298339843750e+01 8.650318145751953125e+00 -1.108991503715515137e-01 2.067818343639373779e-01 2.876480668783187866e-02 -9.790179729461669922e-01
5.805000000000000000e+03 5.180340957641601562e+01 1.073532009124755859e+01 1.035540223121643066e+00 1.363450646400451660e+00 7.196972370147705078e-01 -3.151707723736763000e-02
5.806000000000000000e+03 6.620574951171875000e+01 1.137931823730468750e+01 9.731025993824005127e-02 -1.460880041122436523e-01 -1.463332306593656540e-02 -8.910965919494628906e-01
5.807000000000000000e+03 5.369285202026367188e+01 1.431926250457763672e+01 1.209225177764892578e+00 1.504070997238159180e+00 8.139888644218444824e-01 -1.277609448879957199e-02
5.808000000000000000e+03 5.650407409667968750e+01 1.961195755004882812e+01 1.044611692428588867e+00 1.436383724212646484e+00 7.442985773086547852e-01 -6.049473304301500320e-03
5.809000000000000000e+03 6.544083404541015625e+01 1.171682739257812500e+01 1.478468179702758789e-01 -1.015442386269569397e-01 1.389077305793762207e-02 -8.944146037101745605e-01
5.810000000000000000e+03 6.334960937500000000e+01 6.406789302825927734e+00 -4.815902411937713623e-01 9.809985011816024780e-02 -1.150471195578575134e-01 -9.594402909278869629e-01
5.811000000000000000e+03 6.501260375976562500e+01 7.265678405761718750e+00 -3.215537071228027344e-01 1.652776449918746948e-02 -9.150777757167816162e-02 -9.344447255134582520e-01
5.812000000000000000e+03 5.406344604492187500e+01 1.515911483764648438e+01 1.213646292686462402e+00 1.543424606323242188e+00 8.271212577819824219e-01 1.090674381703138351e-02
5.813000000000000000e+03 6.718368530273437500e+01 8.211117744445800781e+00 -1.809860765933990479e-01 -1.162792965769767761e-01 -8.917961269617080688e-02 -8.813287615776062012e-01
5.814000000000000000e+03 6.765502929687500000e+01 6.162477970123291016e+00 -3.365778326988220215e-01 -6.179955974221229553e-02 -1.195132210850715637e-01 -8.083788752555847168e-01
5.815000000000000000e+03 6.595094299316406250e+01 5.991434097290039062e+00 -4.339621961116790771e-01 2.093890868127346039e-02 -1.239069923758506775e-01 -8.573544621467590332e-01
5.816000000000000000e+03 6.568112182617187500e+01 2.158231353759765625e+01 4.935465753078460693e-01 -4.044923931360244751e-02 1.359291970729827881e-01 -3.787620961666107178e-01
5.817000000000000000e+03 6.461907196044921875e+01 2.013076972961425781e+01 5.510061383247375488e-01 6.236100941896438599e-02 1.840101480484008789e-01 -4.313443601131439209e-01
5.818000000000000000e+03 5.574132919311523438e+01 2.066982078552246094e+01 1.033396005630493164e+00 1.720030307769775391e+00 8.260278701782226562e-01 1.087258160114288330e-01
5.819000000000000000e+03 5.749457931518554688e+01 2.334101104736328125e+01 8.575364351272583008e-01 1.479642152786254883e+00 7.011535763740539551e-01 8.957993239164352417e-02
5.820000000000000000e+03 6.561721801757812500e+01 2.573917961120605469e+01 4.332725405693054199e-01 6.864341348409652710e-02 1.505747884511947632e-01 -1.734684705734252930e-01
5.821000000000000000e+03 6.438062286376953125e+01 2.162939453125000000e+01 5.556885600090026855e-01 1.477815359830856323e-01 2.110410183668136597e-01 -3.391951024532318115e-01
5.822000000000000000e+03 6.413263702392578125e+01 2.321597480773925781e+01 5.534397959709167480e-01 2.428445667028427124e-01 2.388852983713150024e-01 -2.521415948867797852e-01
5.823000000000000000e+03 6.249386215209960938e+01 2.520294380187988281e+01 5.822550654411315918e-01 5.882291793823242188e-01 3.511452674865722656e-01 -7.953783124685287476e-02
5.824000000000000000e+03 6.002769470214843750e+01 2.676021766662597656e+01 6.004855036735534668e-01 1.128450751304626465e+00 5.186808705329895020e-01 9.022753685712814331e-02
5.825000000000000000e+03 5.882068252563476562e+01 2.938849067687988281e+01 4.579015672206878662e-01 1.465373873710632324e+00 5.769826173782348633e-01 1.961729079484939575e-01
5.826000000000000000e+03 6.351565170288085938e+01 2.819292068481445312e+01 4.006660580635070801e-01 5.372781753540039062e-01 2.813832759857177734e-01 -1.097869873046875000e-02
5.827000000000000000e+03 5.310388946533203125e+01 -3.863646697998046875e+01 -6.244972348213195801e-02 9.129465222358703613e-01 2.551490366458892822e-01 -1.976794004440307617e-01
5.828000000000000000e+03 2.495676422119140625e+01 -4.034255218505859375e+01 -4.520499706268310547e-02 5.610367059707641602e-01 1.547495126724243164e-01 6.929076462984085083e-02
5.829000000000000000e+03 2.656621170043945312e+01 -3.855035781860351562e+01 -1.117546632885932922e-01 8.234079480171203613e-01 2.134959846735000610e-01 2.254678457975387573e-01
5.830000000000000000e+03 5.544065093994140625e+01 2.423227882385253906e+01 8.831819891929626465e-01 2.067180156707763672e+00 8.851086497306823730e-01 2.583759129047393799e-01
5.831000000000000000e+03 5.430922317504882812e+01 3.723020553588867188e+01 -2.116269320249557495e-01 2.762667417526245117e+00 7.653121948242187500e-01 2.779441773891448975e-01
5.832000000000000000e+03 5.350652694702148438e+01 1.128580665588378906e+01 9.380857944488525391e-01 1.061515331268310547e+00 5.998803377151489258e-01 -2.864960134029388428e-01
5.833000000000000000e+03 6.746446990966796875e+01 7.666390419006347656e+00 -2.273201197385787964e-01 -1.102344617247581482e-01 -1.012663766741752625e-01 -8.566069006919860840e-01
5.834000000000000000e+03 5.821206665039062500e+01 1.003757286071777344e+01 2.591480612754821777e-01 3.570692539215087891e-01 1.848651915788650513e-01 -8.688542842864990234e-01
5.835000000000000000e+03 5.340109252929687500e+01 1.358652210235595703e+01 1.195174813270568848e+00 1.461609125137329102e+00 7.970352172851562500e-01 -2.168305031955242157e-02
5.836000000000000000e+03 5.342147827148437500e+01 1.220603942871093750e+01 1.089055657386779785e+00 1.232445716857910156e+00 6.964504122734069824e-01 -1.681449264287948608e-01
5.837000000000000000e+03 6.558506011962890625e+01 8.145703315734863281e+00 -2.140563279390335083e-01 -3.361812606453895569e-02 -7.430233806371688843e-02 -9.293258190155029297e-01
5.838000000000000000e+03 6.390138244628906250e+01 5.823197841644287109e+00 -5.415679812431335449e-01 9.618606418371200562e-02 -1.336145699024200439e-01 -9.184025526046752930e-01
5.839000000000000000e+03 5.373774719238281250e+01 1.270137023925781250e+01 1.110633850097656250e+00 1.244835138320922852e+00 7.066407203674316406e-01 -1.588694602251052856e-01
5.840000000000000000e+03 5.534514999389648438e+01 1.565936470031738281e+01 1.136101961135864258e+00 1.303501725196838379e+00 7.318810820579528809e-01 -1.324622929096221924e-01
5.841000000000000000e+03 6.543631744384765625e+01 9.571317672729492188e+00 -6.388673186302185059e-02 -6.500149518251419067e-02 -3.866646811366081238e-02 -9.341298937797546387e-01
5.842000000000000000e+03 6.221354293823242188e+01 8.288788795471191406e+00 -1.986829489469528198e-01 1.058110594749450684e-01 -2.786156907677650452e-02 -9.943665862083435059e-01
5.843000000000000000e+03 5.885893630981445312e+01 9.120897293090820312e+00 2.292362600564956665e-02 2.772097289562225342e-01 9.004000574350357056e-02 -9.388155341148376465e-01
5.844000000000000000e+03 5.730832672119140625e+01 1.070595550537109375e+01 4.357577264308929443e-01 4.765889942646026611e-01 2.737040221691131592e-01 -7.690392732620239258e-01
5.845000000000000000e+03 6.625154113769531250e+01 7.754834175109863281e+00 -2.412811368703842163e-01 -5.261085182428359985e-02 -8.816760033369064331e-02 -9.028941988945007324e-01
5.846000000000000000e+03 6.072880172729492188e+01 1.005517768859863281e+01 1.194100156426429749e-01 1.920664012432098389e-01 9.344292432069778442e-02 -9.475646018981933594e-01
5.847000000000000000e+03 6.608386230468750000e+01 9.095029830932617188e+00 -1.080093905329704285e-01 -8.808623999357223511e-02 -5.882868915796279907e-02 -9.196488261222839355e-01
5.848000000000000000e+03 6.271105575561523438e+01 6.679584980010986328e+00 -4.432017505168914795e-01 1.101718842983245850e-01 -9.990896284580230713e-02 -9.806776642799377441e-01
5.849000000000000000e+03 5.401073837280273438e+01 1.329981613159179688e+01 1.129425764083862305e+00 1.278720855712890625e+00 7.224439978599548340e-01 -1.376867890357971191e-01
5.850000000000000000e+03 6.567443084716796875e+01 1.355679702758789062e+01 2.788105607032775879e-01 -1.342761218547821045e-01 4.336032643914222717e-02 -8.180100917816162109e-01
5.851000000000000000e+03 6.123602294921875000e+01 1.091338920593261719e+01 2.307645678520202637e-01 1.739706099033355713e-01 1.214205548167228699e-01 -9.179385304450988770e-01
5.852000000000000000e+03 6.357365036010742188e+01 1.750251007080078125e+01 5.858893990516662598e-01 1.272165924310684204e-01 2.139317989349365234e-01 -5.686058998107910156e-01
5.853000000000000000e+03 5.647766494750976562e+01 1.777450180053710938e+01 1.080491900444030762e+00 1.263868570327758789e+00 7.033081650733947754e-01 -1.028893142938613892e-01
5.854000000000000000e+03 5.444451522827148438e+01 1.616147994995117188e+01 1.222357630729675293e+00 1.593196511268615723e+00 8.446662425994873047e-01 3.081451356410980225e-02
5.855000000000000000e+03 6.667867279052734375e+01 8.643930435180664062e+00 -1.470082998275756836e-01 -1.019339933991432190e-01 -7.468268275260925293e-02 -9.049665927886962891e-01
5.856000000000000000e+03 6.159295654296875000e+01 8.078304290771484375e+00 -2.282909750938415527e-01 1.334284543991088867e-01 -2.845875732600688934e-02 -1.001447439193725586e+00
5.857000000000000000e+03 6.255733871459960938e+01 7.453455448150634766e+00 -3.398193717002868652e-01 1.019490659236907959e-01 -7.136109471321105957e-02 -9.885532855987548828e-01
5.858000000000000000e+03 6.574633026123046875e+01 1.461882114410400391e+01 3.341928720474243164e-01 -1.436347812414169312e-01 5.716743320226669312e-02 -7.683811783790588379e-01
5.859000000000000000e+03 5.521802139282226562e+01 1.078015613555908203e+01 6.363268494606018066e-01 7.208824753761291504e-01 4.071627855300903320e-01 -5.817574858665466309e-01
5.860000000000000000e+03 5.562092590332031250e+01 1.152419471740722656e+01 7.323107123374938965e-01 7.444426417350769043e-01 4.430260062217712402e-01 -5.494337081909179688e-01
5.861000000000000000e+03 5.674934768676757812e+01 2.143090057373046875e+01 9.804425835609436035e-01 1.548349618911743164e+00 7.586376667022705078e-01 6.695716828107833862e-02
5.862000000000000000e+03 5.835018539428710938e+01 2.591085815429687500e+01 7.037399411201477051e-01 1.414532661437988281e+00 6.354817748069763184e-01 1.301210075616836548e-01
5.863000000000000000e+03 6.331875610351562500e+01 2.020164489746093750e+01 6.355694532394409180e-01 2.451462447643280029e-01 2.642147243022918701e-01 -3.881913721561431885e-01
5.864000000000000000e+03 6.283622741699218750e+01 2.330735778808593750e+01 6.048318147659301758e-01 4.465325474739074707e-01 3.154093027114868164e-01 -1.976089030504226685e-01
5.865000000000000000e+03 5.583178329467773438e+01 1.675862884521484375e+01 1.114236593246459961e+00 1.303472399711608887e+00 7.253127098083496094e-01 -1.092401891946792603e-01
5.866000000000000000e+03 6.400559997558593750e+01 2.498626518249511719e+01 5.070874691009521484e-01 3.359897732734680176e-01 2.529231905937194824e-01 -1.445870846509933472e-01
5.867000000000000000e+03 5.941948318481445312e+01 3.356346130371093750e+01 1.494808644056320190e-01 1.568446993827819824e+00 5.153783559799194336e-01 2.199117541313171387e-01
5.868000000000000000e+03 6.446980285644531250e+01 2.643308258056640625e+01 4.518254399299621582e-01 3.101591765880584717e-01 2.285953909158706665e-01 -9.786811470985412598e-02
5.869000000000000000e+03 5.306100845336914062e+01 1.180971240997314453e+01 1.054445147514343262e+00 1.243950247764587402e+00 6.895186305046081543e-01 -1.494211256504058838e-01
5.870000000000000000e+03 5.535133361816406250e+01 1.405986118316650391e+01 1.051282644271850586e+00 1.097065687179565430e+00 6.445044875144958496e-01 -2.636157572269439697e-01
5.871000000000000000e+03 6.613148498535156250e+01 6.806819915771484375e+00 -3.406004905700683594e-01 -1.241067424416542053e-02 -1.059033498167991638e-01 -8.883950114250183105e-01
5.872000000000000000e+03 5.606080245971679688e+01 1.316868019104003906e+01 9.030244350433349609e-01 8.487434983253479004e-01 5.255303978919982910e-01 -4.288602471351623535e-01
5.873000000000000000e+03 5.967266464233398438e+01 9.432458877563476562e+00 5.460727587342262268e-02 2.382983267307281494e-01 8.787167817354202271e-02 -9.505715370178222656e-01
5.874000000000000000e+03 5.981419372558593750e+01 1.036741542816162109e+01 2.149700522422790527e-01 2.494885921478271484e-01 1.393375843763351440e-01 -9.185924530029296875e-01
5.875000000000000000e+03 5.433646392822265625e+01 1.398363876342773438e+01 1.145114183425903320e+00 1.294956922531127930e+00 7.320213317871093750e-01 -1.301567703485488892e-01
5.876000000000000000e+03 5.453773880004882812e+01 1.127498531341552734e+01 8.032008409500122070e-01 8.791562318801879883e-01 5.047070980072021484e-01 -4.472823739051818848e-01
5.877000000000000000e+03 6.439846038818359375e+01 1.134907245635986328e+01 1.461288779973983765e-01 -3.823266178369522095e-02 3.236886486411094666e-02 -9.126332998275756836e-01
5.878000000000000000e+03 5.394375610351562500e+01 1.176220226287841797e+01 9.455263018608093262e-01 1.049042344093322754e+00 5.983706116676330566e-01 -3.072247505187988281e-01
5.879000000000000000e+03 5.459603118896484375e+01 1.294553279876708984e+01 1.030517458915710449e+00 1.103590250015258789e+00 6.402323246002197266e-01 -2.674549818038940430e-01
5.880000000000000000e+03 6.560733795166015625e+01 1.259799289703369141e+01 2.174747437238693237e-01 -1.214507967233657837e-01 2.880718372762203217e-02 -8.596644997596740723e-01
5.881000000000000000e+03 6.430683898925781250e+01 9.273985862731933594e+00 -8.815314620733261108e-02 2.755674067884683609e-03 -2.561924234032630920e-02 -9.640352129936218262e-01
5.882000000000000000e+03 5.482750320434570312e+01 1.472503566741943359e+01 1.133413672447204590e+00 1.285925388336181641e+00 7.258017063140869141e-01 -1.384056210517883301e-01
5.883000000000000000e+03 6.382316970825195312e+01 7.151048183441162109e+00 -3.607339560985565186e-01 6.464315950870513916e-02 -8.882723748683929443e-02 -9.628743529319763184e-01
5.884000000000000000e+03 6.549099731445312500e+01 6.554621219635009766e+00 -3.876566290855407715e-01 1.992843672633171082e-02 -1.103184595704078674e-01 -8.998012542724609375e-01
5.885000000000000000e+03 6.475121307373046875e+01 1.007022476196289062e+01 5.646321922540664673e-03 -4.098842293024063110e-02 -1.060263067483901978e-02 -9.426183104515075684e-01
5.886000000000000000e+03 5.896794509887695312e+01 1.084935951232910156e+01 3.387468159198760986e-01 3.424248695373535156e-01 2.043515145778656006e-01 -8.522441387176513672e-01
5.887000000000000000e+03 6.468505859375000000e+01 1.479720401763916016e+01 4.010810554027557373e-01 -4.974408075213432312e-02 1.054010987281799316e-01 -7.587608098983764648e-01
5.888000000000000000e+03 5.731762695312500000e+01 1.866873550415039062e+01 1.036550998687744141e+00 1.182034611701965332e+00 6.655756831169128418e-01 -1.154190376400947571e-01
5.889000000000000000e+03 6.348805999755859375e+01 1.882277107238769531e+01 6.185641884803771973e-01 1.757401078939437866e-01 2.382912784814834595e-01 -4.827675223350524902e-01
5.890000000000000000e+03 6.201872634887695312e+01 2.024398994445800781e+01 7.166438698768615723e-01 4.444134831428527832e-01 3.483172059059143066e-01 -3.323886990547180176e-01
5.891000000000000000e+03 5.674368667602539062e+01 1.610545349121093750e+01 1.042798876762390137e+00 1.055143833160400391e+00 6.293828487396240234e-01 -2.438505291938781738e-01
5.892000000000000000e+03 6.179705429077148438e+01 2.170494270324707031e+01 7.035065293312072754e-01 5.399607419967651367e-01 3.730401694774627686e-01 -2.373993098735809326e-01
5.893000000000000000e+03 6.309859466552734375e+01 2.167554664611816406e+01 6.239860057830810547e-01 3.281241655349731445e-01 2.856330573558807373e-01 -2.876822352409362793e-01
5.894000000000000000e+03 6.104276657104492188e+01 1.885580825805664062e+01 7.887587547302246094e-01 5.295120477676391602e-01 3.954812288284301758e-01 -3.708649575710296631e-01
5.895000000000000000e+03 5.679274368286132812e+01 2.514739418029785156e+01 7.904569506645202637e-01 1.770619750022888184e+00 7.683230042457580566e-01 1.931650340557098389e-01
5.896000000000000000e+03 6.161351013183593750e+01 2.324228096008300781e+01 6.512663364410400391e-01 6.164471507072448730e-01 3.803140521049499512e-01 -1.508691757917404175e-01
5.897000000000000000e+03 6.104673767089843750e+01 2.474709510803222656e+01 6.611092090606689453e-01 8.403764367103576660e-01 4.504457116127014160e-01 -3.544139117002487183e-02
5.898000000000000000e+03 6.259405136108398438e+01 3.726506042480468750e+01 9.370085783302783966e-03 9.402810931205749512e-01 2.848953604698181152e-01 9.352967143058776855e-02
5.899000000000000000e+03 5.488227081298828125e+01 1.357503890991210938e+01 1.064221739768981934e+00 1.149281382560729980e+00 6.640509366989135742e-01 -2.379205673933029175e-01
5.900000000000000000e+03 5.667806625366210938e+01 1.203046798706054688e+01 7.026518583297729492e-01 6.539065837860107422e-01 4.069675505161285400e-01 -6.015914082527160645e-01
5.901000000000000000e+03 5.757189941406250000e+01 1.177445507049560547e+01 5.848110318183898926e-01 5.249419808387756348e-01 3.329259157180786133e-01 -7.086004018783569336e-01
5.902000000000000000e+03 5.627899169921875000e+01 1.513830089569091797e+01 1.035345554351806641e+00 1.034977555274963379e+00 6.210969686508178711e-01 -2.819421887397766113e-01
5.903000000000000000e+03 6.494899749755859375e+01 8.709110260009765625e+00 -1.529728621244430542e-01 -1.878067292273044586e-02 -5.152605846524238586e-02 -9.499612450599670410e-01
5.904000000000000000e+03 6.192411804199218750e+01 1.021777343750000000e+01 8.215901255607604980e-02 1.167402192950248718e-01 5.966977030038833618e-02 -9.550362825393676758e-01
5.905000000000000000e+03 6.482728576660156250e+01 1.275532245635986328e+01 2.631663680076599121e-01 -6.415469199419021606e-02 5.970350652933120728e-02 -8.580096960067749023e-01
5.906000000000000000e+03 6.472484588623046875e+01 1.204032897949218750e+01 1.928803026676177979e-01 -5.640960484743118286e-02 4.094121232628822327e-02 -8.877040147781372070e-01
5.907000000000000000e+03 6.321543121337890625e+01 9.140023231506347656e+00 -9.950868040323257446e-02 5.618497356772422791e-02 -1.299711223691701889e-02 -9.818522334098815918e-01
5.908000000000000000e+03 6.042928314208984375e+01 9.179270744323730469e+00 -1.279915496706962585e-02 1.966637372970581055e-01 5.515937507152557373e-02 -9.735890626907348633e-01
5.909000000000000000e+03 6.324232864379882812e+01 7.861208915710449219e+00 -2.674791514873504639e-01 7.191696763038635254e-02 -5.866865813732147217e-02 -9.820150732994079590e-01
5.910000000000000000e+03 6.440790557861328125e+01 7.898699283599853516e+00 -2.483570724725723267e-01 2.379447594285011292e-02 -6.736877560615539551e-02 -9.599829912185668945e-01
5.911000000000000000e+03 6.132638168334960938e+01 1.762787055969238281e+01 7.419390082359313965e-01 4.229552149772644043e-01 3.494682610034942627e-01 -4.740469753742218018e-01
5.912000000000000000e+03 5.830702590942382812e+01 1.951490783691406250e+01 9.604899287223815918e-01 1.043230891227722168e+00 6.011162400245666504e-01 -1.441082954406738281e-01
5.913000000000000000e+03 5.590359115600585938e+01 1.231738758087158203e+01 8.183541893959045410e-01 7.848430275917053223e-01 4.809591472148895264e-01 -5.027391910552978516e-01
5.914000000000000000e+03 5.850441360473632812e+01 1.187257575988769531e+01 5.259838700294494629e-01 4.245219528675079346e-01 2.851517498493194580e-01 -7.582772374153137207e-01
5.915000000000000000e+03 6.473300170898437500e+01 1.367818260192871094e+01 3.249460756778717041e-01 -5.588649958372116089e-02 8.071786910295486450e-02 -8.143366575241088867e-01
5.916000000000000000e+03 6.380817031860351562e+01 8.527426719665527344e+00 -1.761121451854705811e-01 3.715498000383377075e-02 -4.168714955449104309e-02 -9.710668325424194336e-01
5.917000000000000000e+03 5.541744995117187500e+01 1.331368732452392578e+01 9.662118554115295410e-01 9.686781167984008789e-01 5.804669857025146484e-01 -3.589237928390502930e-01
5.918000000000000000e+03 5.763299179077148438e+01 1.546113586425781250e+01 9.382746815681457520e-01 8.227570056915283203e-01 5.283095240592956543e-01 -3.900051712989807129e-01
5.919000000000000000e+03 5.731898880004882812e+01 1.697148323059082031e+01 1.013060212135314941e+00 1.027238726615905762e+00 6.120896935462951660e-01 -2.327746897935867310e-01
5.920000000000000000e+03 5.783900833129882812e+01 2.170245933532714844e+01 9.155620932579040527e-01 1.287075638771057129e+00 6.607913374900817871e-01 -5.419015884399414062e-03
5.921000000000000000e+03 6.332942962646484375e+01 1.107299518585205078e+01 1.676707714796066284e-01 3.784647956490516663e-02 6.165517494082450867e-02 -9.296479821205139160e-01
5.922000000000000000e+03 5.746842193603515625e+01 2.050027465820312500e+01 9.584017395973205566e-01 1.282907962799072266e+00 6.723929047584533691e-01 -4.391275346279144287e-02
5.923000000000000000e+03 5.911192321777343750e+01 2.171326255798339844e+01 8.539339303970336914e-01 1.038298606872558594e+00 5.676697492599487305e-01 -8.889701217412948608e-02
5.924000000000000000e+03 6.224126815795898438e+01 1.889382934570312500e+01 7.030654549598693848e-01 3.490978777408599854e-01 3.156490027904510498e-01 -4.275011420249938965e-01
5.925000000000000000e+03 6.245438385009765625e+01 1.644336318969726562e+01 6.179207563400268555e-01 2.192598283290863037e-01 2.511541843414306641e-01 -6.087226867675781250e-01
5.926000000000000000e+03 5.993837356567382812e+01 1.867261314392089844e+01 8.568441867828369141e-01 6.915262341499328613e-01 4.645111262798309326e-01 -3.218593597412109375e-01
5.927000000000000000e+03 6.033593750000000000e+01 1.746302795410156250e+01 8.140588402748107910e-01 5.534266829490661621e-01 4.102456569671630859e-01 -4.286656975746154785e-01
5.928000000000000000e+03 6.241490936279296875e+01 1.762938690185546875e+01 6.650291681289672852e-01 2.684900164604187012e-01 2.800557613372802734e-01 -5.230149030685424805e-01
5.929000000000000000e+03 5.893907165527343750e+01 2.367775344848632812e+01 7.847090363502502441e-01 1.195100069046020508e+00 5.939427018165588379e-01 2.744370140135288239e-02
5.930000000000000000e+03 5.754444503784179688e+01 1.361062812805175781e+01 8.222920298576354980e-01 6.838796138763427734e-01 4.518514871597290039e-01 -5.303673744201660156e-01
5.931000000000000000e+03 5.713716125488281250e+01 1.469502067565917969e+01 9.354665279388427734e-01 8.297084569931030273e-01 5.295524597167968750e-01 -4.102180600166320801e-01
5.932000000000000000e+03 5.521607971191406250e+01 1.260986995697021484e+01 9.268443584442138672e-01 9.325779080390930176e-01 5.578266978263854980e-01 -3.967263996601104736e-01
5.933000000000000000e+03 5.805212020874023438e+01 1.771840667724609375e+01 9.687487483024597168e-01 9.445770978927612305e-01 5.739977359771728516e-01 -2.525098919868469238e-01
5.934000000000000000e+03 5.777662277221679688e+01 1.422051143646240234e+01 8.672813773155212402e-01 7.056521773338317871e-01 4.718800485134124756e-01 -5.004243254661560059e-01
5.935000000000000000e+03 6.263174438476562500e+01 1.142383193969726562e+01 2.326160669326782227e-01 8.390237390995025635e-02 9.495553374290466309e-02 -9.081043601036071777e-01
5.936000000000000000e+03 6.151933288574218750e+01 9.469626426696777344e+00 3.941593691706657410e-03 1.397783607244491577e-01 4.311598464846611023e-02 -9.771928191184997559e-01
5.937000000000000000e+03 6.278956222534179688e+01 1.343703842163085938e+01 4.005695879459381104e-01 9.820468723773956299e-02 1.496322900056838989e-01 -8.139586448669433594e-01
5.938000000000000000e+03 5.977299499511718750e+01 1.131557178497314453e+01 3.618820607662200928e-01 2.897864580154418945e-01 1.955005526542663574e-01 -8.483912944793701172e-01
5.939000000000000000e+03 5.828094482421875000e+01 1.285503959655761719e+01 6.721189618110656738e-01 5.206757783889770508e-01 3.578384220600128174e-01 -6.575717329978942871e-01
5.940000000000000000e+03 5.492254638671875000e+01 1.192256450653076172e+01 8.615102171897888184e-01 9.001092910766601562e-01 5.284858345985412598e-01 -4.287927448749542236e-01
5.941000000000000000e+03 5.609041595458984375e+01 1.411775302886962891e+01 9.981593489646911621e-01 9.688721299171447754e-01 5.901094675064086914e-01 -3.458556532859802246e-01
5.942000000000000000e+03 5.679177856445312500e+01 1.295645332336425781e+01 8.128736615180969238e-01 7.304646968841552734e-01 4.630015194416046143e-01 -5.261955857276916504e-01
5.943000000000000000e+03 6.357548522949218750e+01 1.485051631927490234e+01 4.720796048641204834e-01 6.362866610288619995e-02 1.607124805450439453e-01 -7.367066740989685059e-01
5.944000000000000000e+03 6.353399658203125000e+01 1.618553924560546875e+01 5.407183170318603516e-01 9.772074222564697266e-02 1.915317177772521973e-01 -6.543461680412292480e-01
5.945000000000000000e+03 5.811039352416992188e+01 1.623332405090332031e+01 9.279274940490722656e-01 8.083983063697814941e-01 5.208977460861206055e-01 -3.692182600498199463e-01
5.946000000000000000e+03 5.944570922851562500e+01 1.719290924072265625e+01 8.737671375274658203e-01 6.677983403205871582e-01 4.624696373939514160e-01 -3.868747651576995850e-01
5.947000000000000000e+03 6.278116989135742188e+01 1.231142330169677734e+01 3.032759726047515869e-01 7.809853553771972656e-02 1.144123598933219910e-01 -8.653610944747924805e-01
5.948000000000000000e+03 6.154626846313476562e+01 1.654283523559570312e+01 7.014607191085815430e-01 3.399606943130493164e-01 3.124264180660247803e-01 -5.586645603179931641e-01
5.949000000000000000e+03 6.072498703002929688e+01 2.021390342712402344e+01 7.912970185279846191e-01 6.572695374488830566e-01 4.345699548721313477e-01 -2.678241729736328125e-01
5.950000000000000000e+03 5.754805374145507812e+01 1.279491710662841797e+01 7.270686626434326172e-01 6.158980727195739746e-01 4.028900265693664551e-01 -6.074565052986145020e-01
5.951000000000000000e+03 5.832085037231445312e+01 1.469497776031494141e+01 8.370381593704223633e-01 6.566708087921142578e-01 4.481126964092254639e-01 -5.104568004608154297e-01
5.952000000000000000e+03 5.897704696655273438e+01 1.317558860778808594e+01 6.501618623733520508e-01 4.495027661323547363e-01 3.298994004726409912e-01 -6.827942728996276855e-01
5.953000000000000000e+03 6.259144973754882812e+01 9.679477691650390625e+00 5.608785431832075119e-03 8.247432112693786621e-02 2.642493136227130890e-02 -9.728549718856811523e-01
5.954000000000000000e+03 6.363874053955078125e+01 1.192050743103027344e+01 2.352937906980514526e-01 2.088087052106857300e-02 7.685239613056182861e-02 -8.862233161926269531e-01
5.955000000000000000e+03 6.057690429687500000e+01 1.171539592742919922e+01 3.651863038539886475e-01 2.464599013328552246e-01 1.834938675165176392e-01 -8.552020192146301270e-01
5.956000000000000000e+03 6.412506103515625000e+01 1.258657360076904297e+01 2.693224251270294189e-01 -8.233660832047462463e-03 7.832663506269454956e-02 -8.658805489540100098e-01
5.957000000000000000e+03 6.377016448974609375e+01 1.357846164703369141e+01 3.664075136184692383e-01 2.140792086720466614e-02 1.163446307182312012e-01 -8.175825476646423340e-01
5.958000000000000000e+03 6.251172256469726562e+01 1.465062332153320312e+01 5.303068161010742188e-01 1.591201871633529663e-01 2.068281024694442749e-01 -7.213951349258422852e-01
5.959000000000000000e+03 6.404351043701171875e+01 1.058350086212158203e+01 7.756555080413818359e-02 -1.840253826230764389e-03 2.271758951246738434e-02 -9.423460960388183594e-01
5.960000000000000000e+03 6.276491928100585938e+01 8.573904037475585938e+00 -1.649040728807449341e-01 8.092323690652847290e-02 -2.519425004720687866e-02 -9.855222105979919434e-01
5.961000000000000000e+03 5.688005065917968750e+01 1.385259342193603516e+01 9.076202511787414551e-01 7.971634268760681152e-01 5.114350914955139160e-01 -4.542888700962066650e-01
5.962000000000000000e+03 6.221961212158203125e+01 9.032554626464843750e+00 -8.917790651321411133e-02 9.720601141452789307e-02 2.408430911600589752e-03 -9.901102781295776367e-01
5.963000000000000000e+03 5.894007873535156250e+01 1.595434379577636719e+01 8.582594990730285645e-01 6.439296007156372070e-01 4.506567120552062988e-01 -4.549866318702697754e-01
5.964000000000000000e+03 5.945901107788085938e+01 2.005619812011718750e+01 8.786212801933288574e-01 8.800989985466003418e-01 5.276160836219787598e-01 -1.934651434421539307e-01
5.965000000000000000e+03 6.009832000732421875e+01 1.499129199981689453e+01 7.068984508514404297e-01 4.265655577182769775e-01 3.400391936302185059e-01 -6.061966419219970703e-01
5.966000000000000000e+03 5.865471649169921875e+01 1.683894348144531250e+01 9.073281288146972656e-01 7.700130939483642578e-01 5.032023787498474121e-01 -3.591150343418121338e-01
5.967000000000000000e+03 5.981160354614257812e+01 1.611684989929199219e+01 7.916441559791564941e-01 5.317044854164123535e-01 3.970045745372772217e-01 -4.986841082572937012e-01
5.968000000000000000e+03 6.018616485595703125e+01 1.264355278015136719e+01 5.110360383987426758e-01 3.210547268390655518e-01 2.496272325515747070e-01 -7.785713076591491699e-01
5.969000000000000000e+03 5.937559890747070312e+01 1.232664299011230469e+01 5.181799530982971191e-01 3.569832742214202881e-01 2.625489830970764160e-01 -7.705333232879638672e-01
5.970000000000000000e+03 6.236506652832031250e+01 1.079481983184814453e+01 1.622844189405441284e-01 1.000370010733604431e-01 7.869642972946166992e-02 -9.473508000373840332e-01
5.971000000000000000e+03 5.865073394775390625e+01 1.386865329742431641e+01 7.522506713867187500e-01 5.480734705924987793e-01 3.900972306728363037e-01 -6.049154996871948242e-01
5.972000000000000000e+03 5.894363021850585938e+01 1.829868698120117188e+01 9.106200933456420898e-01 8.308454751968383789e-01 5.224396586418151855e-01 -2.827101647853851318e-01
5.973000000000000000e+03 6.188347625732421875e+01 1.337402057647705078e+01 4.535559117794036865e-01 1.792766749858856201e-01 1.898497790098190308e-01 -7.909012436866760254e-01
5.974000000000000000e+03 6.198091888427734375e+01 1.564580821990966797e+01 6.014363765716552734e-01 2.408861517906188965e-01 2.526967525482177734e-01 -6.473103761672973633e-01
5.975000000000000000e+03 6.107510375976562500e+01 1.355781078338623047e+01 5.331360697746276855e-01 2.617897987365722656e-01 2.384777665138244629e-01 -7.492972612380981445e-01
5.976000000000000000e+03 6.193098831176757812e+01 1.141981601715087891e+01 2.685123383998870850e-01 1.422687023878097534e-01 1.232343092560768127e-01 -9.020714163780212402e-01
5.977000000000000000e+03 5.930576324462890625e+01 1.389902400970458984e+01 6.922867894172668457e-01 4.532858729362487793e-01 3.436717987060546875e-01 -6.500102877616882324e-01
5.978000000000000000e+03 6.068198776245117188e+01 1.632906150817871094e+01 7.462998032569885254e-01 4.358128309249877930e-01 3.546337783336639404e-01 -5.323103070259094238e-01
5.979000000000000000e+03 6.106286621093750000e+01 1.522195720672607422e+01 6.439746618270874023e-01 3.280047476291656494e-01 2.915938198566436768e-01 -6.394579410552978516e-01
5.980000000000000000e+03 6.157540512084960938e+01 1.426554584503173828e+01 5.612444281578063965e-01 2.394436448812484741e-01 2.402064204216003418e-01 -7.224767208099365234e-01
5.981000000000000000e+03 6.184344482421875000e+01 1.235586071014404297e+01 3.654003143310546875e-01 1.622827649116516113e-01 1.583049148321151733e-01 -8.499819636344909668e-01
5.982000000000000000e+03 6.017474746704101562e+01 1.378898906707763672e+01 6.128751039505004883e-01 3.598274290561676025e-01 2.918107509613037109e-01 -7.014579176902770996e-01
5.983000000000000000e+03 6.097685241699218750e+01 1.252275466918945312e+01 4.357056617736816406e-01 2.367468327283859253e-01 2.017357498407363892e-01 -8.179174661636352539e-01
5.984000000000000000e+03 3.952405548095703125e+01 -3.756576538085937500e+01 -8.535191416740417480e-01 3.206651449203491211e+00 7.059397101402282715e-01 -1.522408425807952881e-01
5.985000000000000000e+03 5.452793502807617188e+01 3.405347061157226562e+01 6.831313669681549072e-02 2.614446878433227539e+00 8.048279881477355957e-01 3.689999878406524658e-01
5.986000000000000000e+03 3.684612655639648438e+01 -4.121673202514648438e+01 -9.264401793479919434e-01 2.991261720657348633e+00 6.194464564323425293e-01 4.096350446343421936e-02
5.987000000000000000e+03 5.253795623779296875e+01 -4.111647796630859375e+01 -8.493135869503021240e-02 1.021979331970214844e+00 2.811143696308135986e-01 -6.710196286439895630e-02
5.988000000000000000e+03 8.261230468750000000e+00 4.131031417846679688e+01 -3.559417673386633396e-04 1.072127051884308457e-04 -7.461872155545279384e-05 2.756348985712975264e-04
5.989000000000000000e+03 3.782609939575195312e+01 4.122259140014648438e+01 -2.637594640254974365e-01 1.846760153770446777e+00 4.749001860618591309e-01 -1.855110377073287964e-01
5.990000000000000000e+03 2.777450752258300781e+01 3.693627548217773438e+01 -1.121393218636512756e-01 7.101169787347316742e-03 -3.151144459843635559e-02 4.042066633701324463e-03
5.991000000000000000e+03 3.483676528930664062e+01 4.075009918212890625e+01 8.485154062509536743e-02 6.602224707603454590e-01 2.235222011804580688e-01 -7.682891190052032471e-02
5.992000000000000000e+03 1.052860498428344727e+00 -3.996946716308593750e+01 1.794940471882000566e-04 7.308928668498992920e-02 2.198063395917415619e-02 -9.301235899329185486e-03
5.993000000000000000e+03 7.192806243896484375e+01 3.686085510253906250e+01 3.743219748139381409e-02 -9.394921660423278809e-01 -2.706179916858673096e-01 -1.319079194217920303e-02
5.994000000000000000e+03 3.243130874633789062e+01 3.862382507324218750e+01 6.015019863843917847e-02 4.187341313809156418e-03 1.930126175284385681e-02 -6.751896440982818604e-02
5.995000000000000000e+03 3.482421875000000000e+01 3.892586135864257812e+01 3.598636016249656677e-02 6.557300090789794922e-01 2.075149118900299072e-01 -1.410713940858840942e-01
5.996000000000000000e+03 6.024530792236328125e+01 -3.713924407958984375e+01 6.082243844866752625e-02 4.573181271553039551e-02 3.196627646684646606e-02 2.682551741600036621e-02
5.997000000000000000e+03 2.143528938293457031e+01 3.587465667724609375e+01 4.446639650268480182e-05 3.388861427083611488e-03 1.029998296871781349e-03 -9.296332136727869511e-04
5.998000000000000000e+03 1.946489715576171875e+01 2.981991291046142578e+00 2.319241957593476400e-06 5.023367975809378549e-06 2.202782980020856485e-06 1.375535816805495415e-06
5.999000000000000000e+03 1.013316631317138672e+01 -1.503374290466308594e+01 9.618242979049682617e-01 3.473272025585174561e-01 3.927454352378845215e-01 1.101220473647117615e-01
6.000000000000000000e+03 3.273248672485351562e+01 3.777049636840820312e+01 -8.449385315179824829e-02 -4.159757122397422791e-02 -3.782742843031883240e-02 5.304335802793502808e-02
6.001000000000000000e+03 3.347150802612304688e+01 3.901742172241210938e+01 8.650060743093490601e-02 2.234260290861129761e-01 9.297799319028854370e-02 -5.939285457134246826e-02
6.002000000000000000e+03 2.651972579956054688e+01 -2.599355697631835938e+00 -2.119780778884887695e+00 -2.587077915668487549e-01 -7.135465741157531738e-01 -3.052940666675567627e-01
6.003000000000000000e+03 1.909976577758789062e+01 3.539844131469726562e+01 -1.962963026016950607e-03 -4.729899810627102852e-04 -7.307858904823660851e-04 -3.338314418215304613e-04
6.004000000000000000e+03 1.017298793792724609e+01 -1.432037162780761719e+01 7.637941837310791016e-01 3.553781807422637939e-01 3.357517123222351074e-01 1.204160135239362717e-02
6.005000000000000000e+03 4.693381118774414062e+01 3.236621856689453125e+00 -3.000054359436035156e+00 -5.703652650117874146e-02 -9.171272516250610352e-01 6.403079032897949219e-01
6.006000000000000000e+03 4.321789550781250000e+01 -3.242040634155273438e+01 -2.948475182056427002e-01 2.969945430755615234e+00 8.025293350219726562e-01 -6.398571729660034180e-01
6.007000000000000000e+03 8.297816276550292969e+00 -1.403666591644287109e+01 4.747565090656280518e-01 3.416500985622406006e-01 2.449219822883605957e-01 -8.047202229499816895e-02
6.008000000000000000e+03 5.989830017089843750e+01 6.227946653962135315e-02 -1.869123697280883789e+00 3.341786563396453857e-02 -5.507117509841918945e-01 -1.912178099155426025e-01
6.009000000000000000e+03 6.485875701904296875e+01 -9.632532596588134766e-01 -9.179843068122863770e-01 1.803360134363174438e-01 -2.212944775819778442e-01 -1.964392066001892090e-01
6.010000000000000000e+03 4.097764968872070312e+01 3.469950866699218750e+01 -9.091562777757644653e-02 4.006890296936035156e+00 1.174792289733886719e+00 -7.385463118553161621e-01
6.011000000000000000e+03 7.078029632568359375e+01 -2.209509277343750000e+01 3.168137045577168465e-04 -2.977873737108893692e-05 8.611049270257353783e-05 4.607909650076180696e-04
6.012000000000000000e+03 2.453971099853515625e+01 -3.331664276123046875e+01 -2.662267982959747314e-01 6.599884480237960815e-02 -6.006839126348495483e-02 2.013493143022060394e-02
6.013000000000000000e+03 7.772206115722656250e+01 -3.763390350341796875e+01 6.359487888403236866e-04 -1.883404888212680817e-02 -5.459429696202278137e-03 6.296926643699407578e-03
6.014000000000000000e+03 7.925558567047119141e+00 -1.316265869140625000e+01 3.195938766002655029e-01 2.698309719562530518e-01 1.768274456262588501e-01 -1.806648969650268555e-01
6.015000000000000000e+03 1.800264930725097656e+01 -3.342419433593750000e+01 -3.504327833652496338e-01 -3.935449570417404175e-02 -1.169361844658851624e-01 -3.059659525752067566e-02
6.016000000000000000e+03 6.910190105438232422e+00 -3.067211723327636719e+01 -2.508068084716796875e-01 -2.740178108215332031e-01 -1.574473828077316284e-01 1.697558164596557617e-01
6.017000000000000000e+03 2.601954078674316406e+01 -4.908638477325439453e+00 -8.045349717140197754e-01 -4.277533590793609619e-01 -3.696864843368530273e-01 -7.309357523918151855e-01
6.018000000000000000e+03 5.129688644409179688e+01 -2.906091880798339844e+01 1.830286085605621338e-01 6.397613286972045898e-01 2.468369901180267334e-01 -4.027460217475891113e-01
6.019000000000000000e+03 7.149575805664062500e+01 -2.266451263427734375e+01 1.783920160960406065e-04 -3.195745521225035191e-04 -4.235476444591768086e-05 2.751448773778975010e-04
6.020000000000000000e+03 7.007454681396484375e+01 -3.093767929077148438e+01 -2.189284935593605042e-02 6.681791041046380997e-03 -4.563317168503999710e-03 6.624236702919006348e-03
6.021000000000000000e+03 1.180128192901611328e+01 3.377137756347656250e+01 2.364071988267824054e-04 2.085318992612883449e-04 1.334817352471873164e-04 -4.713528905995190144e-04
6.022000000000000000e+03 3.778887176513671875e+01 -2.381277275085449219e+01 9.156042933464050293e-01 6.228270530700683594e+00 2.143162488937377930e+00 8.568220734596252441e-01
6.023000000000000000e+03 3.772440719604492188e+01 -2.447802734375000000e+01 1.013069510459899902e+00 6.075937271118164062e+00 2.126702070236206055e+00 7.429400086402893066e-01
6.024000000000000000e+03 7.070451354980468750e+01 -2.959636116027832031e+01 -1.508519239723682404e-02 3.784241620451211929e-03 -3.390285186469554901e-03 2.353289397433400154e-03
6.025000000000000000e+03 1.728618812561035156e+01 4.809258937835693359e+00 8.815872206469066441e-06 -8.060501954787469003e-07 2.402946620350121520e-06 -9.758779924595728517e-06
6.026000000000000000e+03 2.862059593200683594e+01 -3.303376388549804688e+01 2.856446243822574615e-02 6.737689375877380371e-01 2.107000201940536499e-01 6.537898182868957520e-01
6.027000000000000000e+03 3.691985321044921875e+01 -1.575073242187500000e+01 3.529913425445556641e-01 5.985467910766601562e+00 1.901537656784057617e+00 8.397860825061798096e-02
6.028000000000000000e+03 2.482190132141113281e+00 -2.899804496765136719e+01 -8.301582932472229004e-02 -9.368827193975448608e-02 -5.301123112440109253e-02 1.560900658369064331e-01
6.029000000000000000e+03 2.381469964981079102e+00 -2.750268936157226562e+01 -7.338203489780426025e-02 -1.646497398614883423e-01 -7.140953093767166138e-02 2.289101034402847290e-01
6.030000000000000000e+03 5.072831344604492188e+01 4.268959522247314453e+00 -2.047900438308715820e+00 2.692290842533111572e-01 -5.336014628410339355e-01 -6.550375223159790039e-01
6.031000000000000000e+03 6.894061279296875000e+01 -3.118970108032226562e+01 -2.916126139461994171e-02 8.775101974606513977e-03 -6.115847732871770859e-03 6.291991099715232849e-03
6.032000000000000000e+03 7.057215118408203125e+01 -3.224189758300781250e+01 -2.020465023815631866e-02 6.341871805489063263e-03 -4.158833529800176620e-03 1.390242017805576324e-02
6.033000000000000000e+03 7.502471923828125000e+01 3.323565292358398438e+01 2.799262851476669312e-02 -1.634543657302856445e+00 -4.819653034210205078e-01 -3.839856758713722229e-02
6.034000000000000000e+03 3.867866897583007812e+01 -2.313770484924316406e+01 5.860438942909240723e-01 6.081386566162109375e+00 2.000229120254516602e+00 7.392514944076538086e-01
6.035000000000000000e+03 3.490561485290527344e+00 -1.749823570251464844e+01 2.023482322692871094e-01 -4.305509924888610840e-01 -6.846082955598831177e-02 3.062750026583671570e-02
6.036000000000000000e+03 1.180688571929931641e+01 3.193232154846191406e+01 6.672617164440453053e-04 -2.538644184824079275e-04 1.240191922988742590e-04 1.892293657874688506e-04
6.037000000000000000e+03 1.201104068756103516e+01 3.284456634521484375e+01 2.066342276521027088e-04 -8.223641780205070972e-04 -1.847189996624365449e-04 -7.566356216557323933e-04
6.038000000000000000e+03 5.062367439270019531e+00 -1.142487812042236328e+01 4.328515380620956421e-02 -1.296527832746505737e-01 -2.591028995811939240e-02 -3.399974107742309570e-01
6.039000000000000000e+03 3.566998291015625000e+01 -1.541533374786376953e+01 4.451341629028320312e-01 4.417844772338867188e+00 1.458893656730651855e+00 -4.278264194726943970e-02
6.040000000000000000e+03 3.898025131225585938e+01 -2.365845680236816406e+01 6.266446113586425781e-01 5.758215427398681641e+00 1.915457963943481445e+00 5.248476266860961914e-01
6.041000000000000000e+03 5.315821075439453125e+01 4.310665607452392578e+00 -1.793242812156677246e+00 4.109631180763244629e-01 -4.146839082241058350e-01 -7.011839747428894043e-01
6.042000000000000000e+03 7.691830444335937500e+01 -3.495404052734375000e+01 9.152386337518692017e-05 -1.131009589880704880e-02 -3.365571610629558563e-03 9.415906853973865509e-03
6.043000000000000000e+03 2.533546447753906250e+01 -1.496234989166259766e+01 7.365667223930358887e-01 -2.509741783142089844e-01 1.456777751445770264e-01 3.120667636394500732e-01
6.044000000000000000e+03 3.013260126113891602e+00 3.519985580444335938e+01 7.581763202324509621e-05 2.020107931457459927e-04 8.334852464031428099e-05 -1.606797159183770418e-04
6.045000000000000000e+03 9.849883079528808594e+00 -5.479339599609375000e+00 -2.811427712440490723e-01 9.781776368618011475e-02 -5.499749630689620972e-02 -2.427819222211837769e-01
6.046000000000000000e+03 2.845301246643066406e+01 -3.365100097656250000e+01 -3.235497325658798218e-02 8.072994351387023926e-01 2.324833273887634277e-01 6.079168915748596191e-01
6.047000000000000000e+03 7.645526885986328125e+01 3.037087440490722656e+01 1.841914094984531403e-02 -1.922454118728637695e+00 -5.712105035781860352e-01 -5.976196750998497009e-02
6.048000000000000000e+03 1.440867996215820312e+01 2.879479598999023438e+01 2.587493218015879393e-04 -2.914179458457510918e-05 6.888226198498159647e-05 1.129563752328976989e-04
6.049000000000000000e+03 7.179704284667968750e+01 -3.067534065246582031e+01 -1.365469209849834442e-02 3.357961541041731834e-03 -3.089019097387790680e-03 6.856875959783792496e-03
6.050000000000000000e+03 6.285816574096679688e+01 2.333228588104248047e+00 -1.086439967155456543e+00 1.716358065605163574e-01 -2.744412422180175781e-01 -6.497700214385986328e-01
6.051000000000000000e+03 1.691769981384277344e+01 5.202971935272216797e+00 4.091160917596425861e-06 4.809889560419833288e-06 2.670315325303818099e-06 8.997069016913883388e-06
6.052000000000000000e+03 3.842385482788085938e+01 -2.460951995849609375e+01 8.363117575645446777e-01 5.718662738800048828e+00 1.966492414474487305e+00 4.806322157382965088e-01
6.053000000000000000e+03 3.160943603515625000e+01 -1.329060363769531250e+01 1.539628624916076660e+00 3.958747684955596924e-01 5.806510448455810547e-01 4.703834354877471924e-01
6.054000000000000000e+03 1.062219810485839844e+01 3.125065803527832031e+01 4.148309526499360800e-04 -1.096902124118059874e-04 9.154222061624750495e-05 6.185869278851896524e-05
6.055000000000000000e+03 4.393899154663085938e+01 4.271883487701416016e+00 -1.857442140579223633e+00 5.283479213714599609e+00 1.027811169624328613e+00 2.068754673004150391e+00
6.056000000000000000e+03 4.196464920043945312e+01 2.981591463088989258e+00 -2.931474447250366211e+00 8.521091461181640625e+00 1.676885008811950684e+00 1.326627850532531738e+00
6.057000000000000000e+03 4.955591678619384766e+00 -1.290209960937500000e+01 1.066497936844825745e-01 -1.479737460613250732e-01 -1.239718403667211533e-02 -2.991018891334533691e-01
6.058000000000000000e+03 6.911300182342529297e+00 3.193823432922363281e+01 2.286654489580541849e-04 1.211707131005823612e-04 1.049508500727824867e-04 -5.956961467745713890e-05
6.059000000000000000e+03 6.352479171752929688e+01 1.985704421997070312e+00 -1.043730258941650391e+00 1.794791072607040405e-01 -2.592753469944000244e-01 -5.932439565658569336e-01
6.060000000000000000e+03 7.020111846923828125e+01 -7.263757705688476562e+00 -5.987815558910369873e-02 -1.988198235630989075e-02 -2.392804063856601715e-02 -1.178421429358422756e-03
6.061000000000000000e+03 2.585391235351562500e+01 -1.422341823577880859e+01 8.343325853347778320e-01 -3.339178860187530518e-01 1.501244008541107178e-01 3.551351130008697510e-01
6.062000000000000000e+03 4.364168167114257812e+01 6.684404373168945312e+00 4.418131709098815918e-01 5.998470306396484375e+00 1.932085037231445312e+00 2.204901695251464844e+00
6.063000000000000000e+03 5.460974693298339844e+00 -9.722602844238281250e+00 -2.642201259732246399e-02 -6.849768757820129395e-02 -2.847591042518615723e-02 -3.605217337608337402e-01
6.064000000000000000e+03 4.075572586059570312e+01 1.557540535926818848e+00 -3.250014305114746094e+00 9.409671783447265625e+00 1.847897171974182129e+00 4.428113102912902832e-01
6.065000000000000000e+03 7.389544677734375000e+01 -2.365937805175781250e+01 -5.116594256833195686e-04 -8.154321694746613503e-04 -3.981274785473942757e-04 -1.021445496007800102e-04
6.066000000000000000e+03 7.361467742919921875e+01 -2.323794364929199219e+01 -3.547886735759675503e-04 -7.358341827057301998e-04 -3.271868627052754164e-04 1.489902060711756349e-04
6.067000000000000000e+03 4.177667617797851562e+00 -3.149068832397460938e+01 -1.028381511569023132e-01 -1.317910999059677124e-01 -7.038877159357070923e-02 7.976529747247695923e-02
6.068000000000000000e+03 3.677848577499389648e+00 -1.547279834747314453e+01 1.749103665351867676e-01 -4.149763584136962891e-01 -7.201979309320449829e-02 -1.458380371332168579e-01
6.069000000000000000e+03 3.180093383789062500e+01 -1.277116966247558594e+01 1.674211025238037109e+00 5.812844038009643555e-01 6.766486167907714844e-01 4.250015020370483398e-01
6.070000000000000000e+03 3.147280502319335938e+01 -1.245150566101074219e+01 1.714933753013610840e+00 4.037309587001800537e-01 6.355994343757629395e-01 4.420927762985229492e-01
6.071000000000000000e+03 1.649565696716308594e+01 -1.255680656433105469e+01 5.681453347206115723e-01 4.197725094854831696e-03 1.717029213905334473e-01 -3.356019780039787292e-02
6.072000000000000000e+03 5.098517990112304688e+01 5.560222625732421875e+00 -1.005567073822021484e+00 5.117227435111999512e-01 -1.481532901525497437e-01 -6.033439636230468750e-01
6.073000000000000000e+03 1.160759639739990234e+01 1.882974815368652344e+01 4.908762275590561330e-05 6.729029701091349125e-05 3.491337702143937349e-05 -9.742368092702236027e-06
6.074000000000000000e+03 3.410864639282226562e+01 -1.097098445892333984e+01 1.903192520141601562e+00 2.512314558029174805e+00 1.324652194976806641e+00 3.962828814983367920e-01
6.075000000000000000e+03 4.449070453643798828e+00 3.400406265258789062e+01 -7.774608093313872814e-05 2.057732490357011557e-04 3.840814679278992116e-05 -3.207356203347444534e-04
6.076000000000000000e+03 3.860057830810546875e+00 -1.213208961486816406e+01 4.896247386932373047e-02 -3.373931944370269775e-01 -8.652921020984649658e-02 -3.113170564174652100e-01
6.077000000000000000e+03 5.227852821350097656e+00 -9.146228790283203125e+00 -4.228949174284934998e-02 -9.078447520732879639e-02 -3.992218896746635437e-02 -3.569596409797668457e-01
6.078000000000000000e+03 4.694449424743652344e+00 -9.605863571166992188e+00 -2.638354152441024780e-02 -1.607510447502136230e-01 -5.614037439227104187e-02 -3.514918088912963867e-01
6.079000000000000000e+03 4.742534637451171875e+01 2.637730026245117188e+01 7.537481784820556641e-01 4.707472324371337891e+00 1.638366222381591797e+00 2.138395160436630249e-01
6.080000000000000000e+03 3.863962173461914062e+01 -1.413043022155761719e+00 -1.653424501419067383e+00 7.529669284820556641e+00 1.762873530387878418e+00 4.253965616226196289e-01
6.081000000000000000e+03 6.046029281616210938e+01 2.174714279174804688e+01 7.874821424484252930e-01 7.946596741676330566e-01 4.746425449848175049e-01 -1.652331948280334473e-01
6.082000000000000000e+03 7.639746093750000000e+01 -1.990209770202636719e+01 3.373133586137555540e-05 -1.227300090249627829e-04 -2.669959940249100327e-05 -1.937471388373523951e-04
6.083000000000000000e+03 1.058565425872802734e+01 2.365870285034179688e+01 2.317740145372226834e-04 -1.872019129223190248e-05 6.391614442691206932e-05 6.799400580348446965e-05
6.084000000000000000e+03 3.778480291366577148e+00 -9.625903129577636719e+00 -2.007297426462173462e-02 -2.764593064785003662e-01 -8.895968645811080933e-02 -3.284859657287597656e-01
6.085000000000000000e+03 2.521185302734375000e+01 -1.362057018280029297e+01 8.499490618705749512e-01 -3.858353495597839355e-01 1.392341107130050659e-01 2.600125074386596680e-01
6.086000000000000000e+03 2.341919326782226562e+01 -1.388118743896484375e+01 7.486997842788696289e-01 -3.185959756374359131e-01 1.290311366319656372e-01 1.272931098937988281e-01
6.087000000000000000e+03 1.690019989013671875e+01 -1.195873641967773438e+01 4.972492754459381104e-01 -2.593114413321018219e-02 1.413954347372055054e-01 -4.085866361856460571e-02
6.088000000000000000e+03 5.187705230712890625e+01 5.899049758911132812e+00 -8.749948143959045410e-01 4.628845453262329102e-01 -1.236330792307853699e-01 -6.767187714576721191e-01
6.089000000000000000e+03 4.337115478515625000e+01 -2.466394996643066406e+01 3.466876745223999023e-01 3.544632673263549805e+00 1.167396068572998047e+00 -8.836342692375183105e-01
6.090000000000000000e+03 4.398526382446289062e+01 -2.462059783935546875e+01 3.913034796714782715e-01 3.120484828948974609e+00 1.053536534309387207e+00 -9.806516170501708984e-01
6.091000000000000000e+03 7.264567565917968750e+01 -2.190660476684570312e+01 -1.001779764919774607e-05 -6.052369717508554459e-04 -1.845764345489442348e-04 1.009987317956984043e-04
6.092000000000000000e+03 2.262482261657714844e+01 -1.252932071685791016e+01 7.039692997932434082e-01 -3.718952834606170654e-01 9.962220489978790283e-02 3.853175044059753418e-02
6.093000000000000000e+03 3.722098922729492188e+01 -4.125549316406250000e+00 5.755506083369255066e-02 5.469272136688232422e+00 1.658048152923583984e+00 8.157519698143005371e-01
6.094000000000000000e+03 7.474724578857421875e+01 -2.013759994506835938e+01 1.417224266333505511e-04 -3.221653751097619534e-04 -5.413287726696580648e-05 -3.412117075640708208e-05
6.095000000000000000e+03 1.269515228271484375e+01 1.262894344329833984e+01 1.998683364945463836e-05 2.388975008216220886e-05 1.316297493758611381e-05 -1.590640022186562419e-05
6.096000000000000000e+03 1.275945377349853516e+01 1.400428867340087891e+01 2.428726293146610260e-05 -8.726302439754363149e-06 4.668288056564051658e-06 -1.026490826916415244e-05
6.097000000000000000e+03 7.234027099609375000e+01 2.282033157348632812e+01 1.680445075035095215e-01 -1.025632381439208984e+00 -2.572763562202453613e-01 -3.348729312419891357e-01
6.098000000000000000e+03 7.196488952636718750e+01 2.221497917175292969e+01 1.814809441566467285e-01 -9.535773992538452148e-01 -2.316289246082305908e-01 -3.622444570064544678e-01
6.099000000000000000e+03 3.028980636596679688e+01 -1.160593700408935547e+01 1.651078462600708008e+00 -1.091175973415374756e-01 4.625882804393768311e-01 3.495537340641021729e-01
6.100000000000000000e+03 2.939364051818847656e+01 -1.159270954132080078e+01 1.524965286254882812e+00 -3.344519138336181641e-01 3.571540117263793945e-01 3.296038806438446045e-01
6.101000000000000000e+03 2.557265853881835938e+01 -1.294655895233154297e+01 9.217569828033447266e-01 -4.541892111301422119e-01 1.402703374624252319e-01 2.430880516767501831e-01
6.102000000000000000e+03 1.019487571716308594e+01 -8.708377838134765625e+00 -6.550686806440353394e-02 1.882508397102355957e-01 3.682319074869155884e-02 -2.613657712936401367e-01
6.103000000000000000e+03 1.623995399475097656e+01 -9.968531608581542969e+00 2.023217678070068359e-01 1.695302501320838928e-02 6.578244268894195557e-02 -8.904422074556350708e-02
6.104000000000000000e+03 1.071249103546142578e+01 2.503991508483886719e+01 6.441836740123108029e-05 -1.376775180688127875e-04 -2.197774483647663146e-05 -3.265329041823861189e-06
6.105000000000000000e+03 1.027754688262939453e+01 2.584406471252441406e+01 1.581736141815781593e-04 -1.628133031772449613e-04 -1.391908085679460783e-06 8.543047442799434066e-06
6.106000000000000000e+03 1.052550601959228516e+01 2.082296562194824219e+01 1.858110294961079489e-06 -7.473289315385045484e-06 -1.684553694758506026e-06 7.005791849223896861e-05
6.107000000000000000e+03 1.700463485717773438e+01 -1.053427886962890625e+01 2.935292720794677734e-01 -3.567907959222793579e-02 7.735505700111389160e-02 -7.373822480440139771e-02
6.108000000000000000e+03 1.368485927581787109e+01 -8.717928886413574219e+00 -1.876629516482353210e-02 1.323693394660949707e-01 3.408091142773628235e-02 -1.564215272665023804e-01
6.109000000000000000e+03 1.107407760620117188e+01 7.831373691558837891e+00 1.270782649953616783e-05 5.801896804769057781e-06 5.552917173190508038e-06 -4.312884811952244490e-06
6.110000000000000000e+03 7.588941192626953125e+01 -2.091518592834472656e+01 9.928993677021935582e-05 -2.448591403663158417e-04 -4.367076326161623001e-05 -1.254133239854127169e-04
6.111000000000000000e+03 7.530860137939453125e+01 -2.053822517395019531e+01 2.537402033340185881e-04 -3.409147902857512236e-04 -2.615238008729647845e-05 -2.515873929951339960e-04
6.112000000000000000e+03 7.137169647216796875e+01 -3.352252244949340820e+00 -2.178447842597961426e-01 -2.360183745622634888e-03 -6.606148928403854370e-02 -9.506285935640335083e-02
6.113000000000000000e+03 7.578536224365234375e+01 -2.381248474121093750e+01 -3.930210950784385204e-04 -5.983114242553710938e-04 -2.973997325170785189e-04 -1.949308934854343534e-04
6.114000000000000000e+03 7.644831848144531250e+01 -2.449317741394042969e+01 -5.364101962186396122e-04 -4.517296620178967714e-04 -2.964419545605778694e-04 -8.308338874485343695e-05
6.115000000000000000e+03 7.542770385742187500e+01 -1.931783103942871094e+01 1.151731630670838058e-04 -2.534663071855902672e-04 -4.148794687353074551e-05 -9.944619523594155908e-05
6.116000000000000000e+03 7.592071533203125000e+01 -1.961057662963867188e+01 1.667863980401307344e-04 -1.269471249543130398e-04 1.195178083435166627e-05 -2.007557195611298084e-04
6.117000000000000000e+03 2.067864799499511719e+01 -1.157007980346679688e+01 5.312625765800476074e-01 -2.856860160827636719e-01 7.367296516895294189e-02 -5.383829399943351746e-02
6.118000000000000000e+03 1.476804828643798828e+01 9.129876136779785156e+00 5.805911769130034372e-06 -1.246234478458063677e-05 -1.996929995584650896e-06 -3.717297886396409012e-06
6.119000000000000000e+03 9.918575286865234375e+00 2.187920761108398438e+01 7.639991054020356387e-06 1.301941028941655532e-05 6.197820312081603333e-06 -4.223123687552288175e-05
6.120000000000000000e+03 3.543108367919921875e+01 -5.796486377716064453e+00 9.500922560691833496e-01 3.177275419235229492e+00 1.238210320472717285e+00 5.819824934005737305e-01
6.121000000000000000e+03 2.198061370849609375e+01 -9.743890762329101562e+00 3.681839406490325928e-01 -3.568197488784790039e-01 3.409260651096701622e-03 -1.472133696079254150e-01
6.122000000000000000e+03 1.179070758819580078e+01 1.146149253845214844e+01 -3.666399425128474832e-05 -1.046678607963258401e-05 -1.413923382642678916e-05 -7.519508926634443924e-06
6.123000000000000000e+03 3.756283569335937500e+01 -8.471272468566894531e+00 1.702647924423217773e+00 6.980785369873046875e+00 2.605029821395874023e+00 9.770378470420837402e-01
6.124000000000000000e+03 6.167024230957031250e+01 4.423293590545654297e+00 -9.087091088294982910e-01 1.568151563405990601e-01 -2.255681902170181274e-01 -8.716597557067871094e-01
6.125000000000000000e+03 6.296924972534179688e+01 5.751926898956298828e+00 -6.029903888702392578e-01 1.202002018690109253e-01 -1.448370516300201416e-01 -9.345608353614807129e-01
6.126000000000000000e+03 1.533665275573730469e+01 -9.666044235229492188e+00 1.381043940782546997e-01 5.961464345455169678e-02 5.931571125984191895e-02 -1.063219979405403137e-01
6.127000000000000000e+03 3.006765365600585938e+01 -8.869071006774902344e+00 1.415233492851257324e+00 -3.607335090637207031e-01 3.163499832153320312e-01 -1.005677655339241028e-01
6.128000000000000000e+03 4.939382171630859375e+01 8.895206451416015625e+00 9.336873292922973633e-01 1.667604446411132812e+00 7.803875207901000977e-01 3.251395821571350098e-01
6.129000000000000000e+03 1.419131088256835938e+01 8.860138893127441406e+00 -5.061772753833793104e-06 1.592531407368369401e-05 3.259062168581294827e-06 -2.431909479128080420e-06
6.130000000000000000e+03 4.921537780761718750e+01 7.453692913055419922e+00 4.303907155990600586e-01 1.278841018676757812e+00 5.127695202827453613e-01 1.492699831724166870e-01
6.131000000000000000e+03 1.482946681976318359e+01 7.579632759094238281e+00 -3.701361947605619207e-06 9.904954822559375316e-06 1.861077748799289111e-06 -4.167245322150847642e-07
6.132000000000000000e+03 3.432490158081054688e+01 -7.028588294982910156e+00 1.389316678047180176e+00 2.085883378982543945e+00 1.042559981346130371e+00 3.710612654685974121e-01
6.133000000000000000e+03 3.265521621704101562e+01 -7.757211208343505859e+00 1.558381080627441406e+00 8.387258648872375488e-01 7.191320657730102539e-01 1.191251724958419800e-01
6.134000000000000000e+03 9.346937179565429688e+00 2.537956619262695312e+01 1.065150136128067970e-04 -1.265767205040901899e-04 -6.018512522132368758e-06 -2.799892354232724756e-05
6.135000000000000000e+03 8.743679046630859375e+00 2.314019584655761719e+01 -9.211731230607256293e-05 -8.179473661584779620e-05 -5.217361467657610774e-05 6.729127926519140601e-05
6.136000000000000000e+03 8.221904754638671875e+00 2.216263008117675781e+01 -3.953294708480825648e-06 -2.121063698723446578e-05 -7.549179372290382162e-06 7.623281271662563086e-05
6.137000000000000000e+03 2.551753044128417969e+01 -1.161614131927490234e+01 9.064853191375732422e-01 -5.424228310585021973e-01 1.092187464237213135e-01 8.591547608375549316e-02
6.138000000000000000e+03 5.193701934814453125e+01 9.955141067504882812e+00 8.423278927803039551e-01 1.142194271087646484e+00 5.953566431999206543e-01 -1.832990348339080811e-01
6.139000000000000000e+03 1.837064552307128906e+01 -9.762771606445312500e+00 2.158363759517669678e-01 -1.192764416337013245e-01 2.896797843277454376e-02 -1.021628752350807190e-01
6.140000000000000000e+03 6.250712585449218750e+01 6.096672058105468750e+00 -5.873830318450927734e-01 1.277791708707809448e-01 -1.378811597824096680e-01 -9.553000926971435547e-01
6.141000000000000000e+03 6.220167541503906250e+01 5.616270542144775391e+00 -6.395032405853271484e-01 1.330848634243011475e-01 -1.519255191087722778e-01 -9.338665604591369629e-01
6.142000000000000000e+03 6.030402755737304688e+01 7.889120101928710938e+00 -2.629968822002410889e-01 1.805938929319381714e-01 -2.472089603543281555e-02 -1.002261638641357422e+00
6.143000000000000000e+03 3.127762413024902344e+01 -8.151997566223144531e+00 1.468682050704956055e+00 2.897537499666213989e-02 4.492972195148468018e-01 -6.525596231222152710e-02
6.144000000000000000e+03 2.036106109619140625e+01 -1.085253906250000000e+01 4.313871264457702637e-01 -2.631659805774688721e-01 5.046634003520011902e-02 -8.500897884368896484e-02
6.145000000000000000e+03 1.907770347595214844e+01 -9.699680328369140625e+00 2.258226424455642700e-01 -1.708599627017974854e-01 1.648880355060100555e-02 -1.065583229064941406e-01
6.146000000000000000e+03 5.912824249267578125e+01 1.494404506683349609e+01 7.822272181510925293e-01 5.559867024421691895e-01 4.014641642570495605e-01 -5.415318608283996582e-01
6.147000000000000000e+03 2.526328468322753906e+01 -9.401108741760253906e+00 6.601881980895996094e-01 -6.033093333244323730e-01 1.706366054713726044e-02 -2.254406511783599854e-01
6.148000000000000000e+03 3.179343223571777344e+01 -7.351388454437255859e+00 1.283550262451171875e+00 1.549700498580932617e-01 4.315561056137084961e-01 -1.128805503249168396e-01
6.149000000000000000e+03 5.430068969726562500e+01 1.232527446746826172e+01 9.970365166664123535e-01 1.067731142044067383e+00 6.194303035736083984e-01 -2.980605363845825195e-01
6.150000000000000000e+03 6.595203876495361328e+00 2.726999855041503906e+01 -9.759952808963134885e-05 6.564697105204686522e-05 -9.585768566466867924e-06 -1.912738516693934798e-04
6.151000000000000000e+03 5.969439697265625000e+01 7.664556026458740234e+00 -3.045185506343841553e-01 2.053032070398330688e-01 -2.976460754871368408e-02 -9.957895874977111816e-01
6.152000000000000000e+03 6.941048431396484375e+01 1.691086769104003906e+01 2.619167566299438477e-01 -5.179817676544189453e-01 -7.681950181722640991e-02 -6.357232332229614258e-01
6.153000000000000000e+03 7.431753158569335938e+00 2.612083816528320312e+01 1.420123444404453039e-04 1.331146049778908491e-04 8.253808482550084591e-05 3.002843186550308019e-05
6.154000000000000000e+03 6.365094375610351562e+01 9.826610565185546875e+00 -1.687789568677544594e-03 2.571365237236022949e-02 7.207759190350770950e-03 -9.643886089324951172e-01
6.155000000000000000e+03 6.310493946075439453e+00 2.135733222961425781e+01 -3.782110434258356690e-05 -8.217804861487820745e-05 -3.599974661483429372e-05 -6.973700283907646735e-09
6.156000000000000000e+03 6.298897933959960938e+01 1.033527755737304688e+01 7.320167869329452515e-02 6.305742263793945312e-02 4.087773337960243225e-02 -9.564259648323059082e-01
6.157000000000000000e+03 5.810272216796875000e+01 1.362571430206298828e+01 7.698929309844970703e-01 6.057253479957580566e-01 4.126854836940765381e-01 -5.843713283538818359e-01
6.158000000000000000e+03 2.603662109375000000e+01 -9.709087371826171875e+00 8.215252161026000977e-01 -6.376764178276062012e-01 5.515463277697563171e-02 -1.762794256210327148e-01
6.159000000000000000e+03 7.000399780273437500e+01 1.641830062866210938e+01 2.194228619337081909e-01 -5.721735954284667969e-01 -1.058252155780792236e-01 -6.457473039627075195e-01
6.160000000000000000e+03 5.230880355834960938e+01 1.473768329620361328e+01 1.323472142219543457e+00 1.961065530776977539e+00 9.853612780570983887e-01 2.474061101675033569e-01
6.161000000000000000e+03 6.660503387451171875e+01 1.001625156402587891e+01 -2.741087414324283600e-02 -1.425794959068298340e-01 -5.099711194634437561e-02 -9.023432731628417969e-01
6.162000000000000000e+03 5.087768173217773438e+01 1.528994655609130859e+01 1.403151512145996094e+00 2.648705720901489258e+00 1.215557217597961426e+00 5.417675375938415527e-01
6.163000000000000000e+03 6.642019653320312500e+01 1.233409118652343750e+01 1.694073677062988281e-01 -1.798681020736694336e-01 -3.138223197311162949e-03 -8.590670228004455566e-01
6.164000000000000000e+03 5.267380142211914062e+01 1.303640174865722656e+01 1.243424654006958008e+00 1.605512380599975586e+00 8.546810746192932129e-01 5.823088064789772034e-02
6.165000000000000000e+03 7.216699981689453125e+01 5.910159111022949219e+00 -1.708512157201766968e-01 -2.834338843822479248e-01 -1.362855285406112671e-01 -5.869764685630798340e-01
6.166000000000000000e+03 7.041978454589843750e+01 1.069293212890625000e+01 -4.664122126996517181e-03 -4.232712090015411377e-01 -1.283805966377258301e-01 -7.566446065902709961e-01
6.167000000000000000e+03 7.050802612304687500e+01 1.421162509918212891e+01 1.378885656595230103e-01 -5.594725608825683594e-01 -1.264752000570297241e-01 -6.976643800735473633e-01
6.168000000000000000e+03 7.055006408691406250e+01 1.333946418762207031e+01 1.028680577874183655e-01 -5.312064886093139648e-01 -1.285015344619750977e-01 -7.176442146301269531e-01
6.169000000000000000e+03 7.089701080322265625e+01 1.133151721954345703e+01 1.893759705126285553e-02 -4.770804047584533691e-01 -1.374428421258926392e-01 -7.358910441398620605e-01
6.170000000000000000e+03 1.171745300292968750e+01 -1.416588187217712402e+00 -5.911408066749572754e-01 1.604590192437171936e-02 -1.725284606218338013e-01 -1.154448837041854858e-02
6.171000000000000000e+03 1.027132415771484375e+01 -1.186757922172546387e+00 -4.897074103355407715e-01 3.307406231760978699e-02 -1.369899958372116089e-01 -2.930535003542900085e-02
6.172000000000000000e+03 1.244032764434814453e+01 -1.534988999366760254e+00 -6.414963603019714355e-01 1.115165650844573975e-02 -1.891034245491027832e-01 -4.743737168610095978e-03
6.173000000000000000e+03 1.253947448730468750e+01 -8.014244437217712402e-01 -7.074408531188964844e-01 -1.037624757736921310e-02 -2.153451293706893921e-01 7.049135118722915649e-02
6.174000000000000000e+03 1.180517101287841797e+01 -6.811850070953369141e-01 -6.273701190948486328e-01 -3.003701334819197655e-03 -1.891121417284011841e-01 6.326889246702194214e-02
6.175000000000000000e+03 1.107078933715820312e+01 -5.637502074241638184e-01 -5.523541569709777832e-01 -1.871293759904801846e-03 -1.662676334381103516e-01 4.997689649462699890e-02
6.176000000000000000e+03 1.099450206756591797e+01 -1.300992131233215332e+00 -5.323331356048583984e-01 2.741426974534988403e-02 -1.514756679534912109e-01 -2.185059152543544769e-02
6.177000000000000000e+03 1.033618259429931641e+01 -4.476772546768188477e-01 -4.690555334091186523e-01 1.154603157192468643e-02 -1.372528523206710815e-01 2.875588648021221161e-02
6.178000000000000000e+03 8.671915054321289062e+00 -1.128651261329650879e+00 -3.807553052902221680e-01 1.551943272352218628e-02 -1.095707640051841736e-01 -5.226670950651168823e-02
6.179000000000000000e+03 8.723665237426757812e+00 -3.886512219905853271e-01 -4.082079827785491943e-01 3.516321303322911263e-03 -1.214075013995170593e-01 -1.728302054107189178e-02
6.180000000000000000e+03 9.553645133972167969e+00 -3.894390165805816650e-01 -4.256030917167663574e-01 1.123566273599863052e-02 -1.243102326989173889e-01 -4.422308848006650805e-05
6.181000000000000000e+03 7.893002033233642578e+00 -3.884159028530120850e-01 -3.638340830802917480e-01 1.514146337285637856e-03 -1.086959838867187500e-01 -2.313295379281044006e-02
6.182000000000000000e+03 7.061622619628906250e+00 -3.884136378765106201e-01 -3.089496493339538574e-01 1.165766036137938499e-03 -9.233516454696655273e-02 -2.624847739934921265e-02
6.183000000000000000e+03 6.230716705322265625e+00 -3.884360790252685547e-01 -2.491725534200668335e-01 -3.744866407942026854e-04 -7.486411184072494507e-02 -2.727771177887916565e-02
6.184000000000000000e+03 5.399719238281250000e+00 -3.884901404380798340e-01 -1.887883096933364868e-01 -3.388633194845169783e-04 -5.673815310001373291e-02 -2.653600834310054779e-02
6.185000000000000000e+03 4.568166255950927734e+00 -3.884501457214355469e-01 -1.316375434398651123e-01 -1.729358569718897343e-03 -4.001007229089736938e-02 -2.430694550275802612e-02
6.186000000000000000e+03 3.737103939056396484e+00 -3.883347213268280029e-01 -8.128004521131515503e-02 -1.871138811111450195e-03 -2.494535595178604126e-02 -2.029332704842090607e-02
6.187000000000000000e+03 2.906669378280639648e+00 -3.883092403411865234e-01 -4.124526306986808777e-02 -2.748108468949794769e-03 -1.319801062345504761e-02 -1.513027213513851166e-02
6.188000000000000000e+03 2.076032876968383789e+00 -3.883911371231079102e-01 -1.427284721285104752e-02 -3.033916000276803970e-03 -5.192028824239969254e-03 -8.623875677585601807e-03
6.189000000000000000e+03 1.245666980743408203e+00 -3.886933028697967529e-01 -1.897371606901288033e-03 -2.574945334345102310e-03 -1.341695082373917103e-03 -2.283561043441295624e-03
6.190000000000000000e+03 4.153075516223907471e-01 -3.894628286361694336e-01 3.737185616046190262e-04 2.834584738593548536e-04 1.971531019080430269e-04 3.193874435964971781e-04
6.191000000000000000e+03 4.128432273864746094e-01 -1.129462838172912598e+00 -2.964802552014589310e-03 -1.216804841533303261e-03 -1.254482194781303406e-03 -1.981383888050913811e-03
6.192000000000000000e+03 9.496965408325195312e+00 -1.129438996315002441e+00 -4.375484585762023926e-01 2.971924468874931335e-02 -1.223487630486488342e-01 -3.395361825823783875e-02
6.193000000000000000e+03 7.846179485321044922e+00 -1.128415942192077637e+00 -3.374538123607635498e-01 7.924018427729606628e-03 -9.885893762111663818e-02 -6.767341494560241699e-02
6.194000000000000000e+03 7.019729137420654297e+00 -1.128413677215576172e+00 -2.886942327022552490e-01 3.479365725070238113e-03 -8.556446433067321777e-02 -7.470139116048812866e-02
6.195000000000000000e+03 6.193751811981201172e+00 -1.128436088562011719e+00 -2.382414788007736206e-01 2.474791835993528366e-04 -7.139819860458374023e-02 -7.733408361673355103e-02
6.196000000000000000e+03 5.367682456970214844e+00 -1.128490090370178223e+00 -1.878841072320938110e-01 -3.751847892999649048e-03 -5.749078467488288879e-02 -7.525265961885452271e-02
6.197000000000000000e+03 4.541058540344238281e+00 -1.128450155258178711e+00 -1.402534097433090210e-01 -6.442607380449771881e-03 -4.400880262255668640e-02 -6.864962726831436157e-02
6.198000000000000000e+03 3.714925050735473633e+00 -1.128334760665893555e+00 -9.767440706491470337e-02 -9.921655990183353424e-03 -3.227881714701652527e-02 -5.856759846210479736e-02
6.199000000000000000e+03 2.889419078826904297e+00 -1.128309249877929688e+00 -6.168953329324722290e-02 -1.218073256313800812e-02 -2.216107957065105438e-02 -4.437296092510223389e-02
6.200000000000000000e+03 2.063711166381835938e+00 -1.128391146659851074e+00 -3.382202237844467163e-02 -1.405458711087703705e-02 -1.436298247426748276e-02 -2.813711017370223999e-02
6.201000000000000000e+03 1.238273978233337402e+00 -1.128693342208862305e+00 -1.366288587450981140e-02 -1.202898286283016205e-02 -7.707560434937477112e-03 -1.165199372917413712e-02
