# el_label, x, y, sXX, sYY, sZZ, sXY
1.000000000000000000e+00 3.427497100830078125e+01 -6.426237106323242188e+00 1.614688992500305176e+00 -8.950537443161010742e-01 2.158905714750289917e-01 -2.151100635528564453e+00
2.000000000000000000e+00 3.447338485717773438e+01 -6.442025184631347656e+00 4.481178760528564453e+00 3.569703996181488037e-01 1.451444745063781738e+00 9.001331031322479248e-02
3.000000000000000000e+00 3.467180252075195312e+01 -6.457812786102294922e+00 2.806108951568603516e+00 -1.236913502216339111e-01 8.047252297401428223e-01 -2.771001458168029785e-01
4.000000000000000000e+00 3.487021636962890625e+01 -6.473601341247558594e+00 2.162315368652343750e+00 -4.004739224910736084e-02 6.366804242134094238e-01 -9.657636284828186035e-03
5.000000000000000000e+00 3.427388763427734375e+01 -6.367842674255371094e+00 1.250947380065917969e+01 -2.032953977584838867e+00 3.142956018447875977e+00 -7.282331585884094238e-01
6.000000000000000000e+00 3.447158050537109375e+01 -6.344700813293457031e+00 6.806215286254882812e+00 2.066561132669448853e-01 2.103861570358276367e+00 2.905653417110443115e-01
7.000000000000000000e+00 3.466926956176757812e+01 -6.321559429168701172e+00 6.286480426788330078e+00 -8.551025390625000000e-02 1.860291123390197754e+00 9.414557814598083496e-01
8.000000000000000000e+00 3.486696243286132812e+01 -6.298417568206787109e+00 4.807558536529541016e+00 -1.463604904711246490e-02 1.437876701354980469e+00 6.789266467094421387e-01
9.000000000000000000e+00 3.426145553588867188e+01 -6.310776233673095703e+00 1.738489532470703125e+01 -3.869843203574419022e-03 5.214307785034179688e+00 4.108464717864990234e+00
1.000000000000000000e+01 3.445085906982421875e+01 -6.249590873718261719e+00 1.122182083129882812e+01 -4.089181870222091675e-02 3.354278564453125000e+00 2.422258853912353516e+00
1.100000000000000000e+01 3.464026260375976562e+01 -6.188405036926269531e+00 8.234490394592285156e+00 5.748646259307861328e-01 2.642806529998779297e+00 2.295725345611572266e+00
1.200000000000000000e+01 3.482966613769531250e+01 -6.127219200134277344e+00 7.090702533721923828e+00 2.632216513156890869e-01 2.206177234649658203e+00 2.364705801010131836e+00
1.300000000000000000e+01 3.423815155029296875e+01 -6.257222175598144531e+00 1.943077468872070312e+01 3.411253929138183594e+00 6.852608680725097656e+00 8.419446945190429688e+00
1.400000000000000000e+01 3.441202163696289062e+01 -6.160334110260009766e+00 1.299470520019531250e+01 2.000721693038940430e+00 4.498628139495849609e+00 5.571055412292480469e+00
1.500000000000000000e+01 3.458588790893554688e+01 -6.063445568084716797e+00 1.021231460571289062e+01 1.625174760818481445e+00 3.551246881484985352e+00 4.558618068695068359e+00
1.600000000000000000e+01 3.475975799560546875e+01 -5.966557025909423828e+00 8.033864974975585938e+00 1.459456920623779297e+00 2.847996711730957031e+00 4.132982730865478516e+00
1.700000000000000000e+01 3.420486831665039062e+01 -6.209229946136474609e+00 1.863448715209960938e+01 8.481646537780761719e+00 8.134840011596679688e+00 1.190389060974121094e+01
1.800000000000000000e+01 3.435654830932617188e+01 -6.080346584320068359e+00 1.351999473571777344e+01 5.216358184814453125e+00 5.620905876159667969e+00 8.225688934326171875e+00
1.900000000000000000e+01 3.450822448730468750e+01 -5.951462745666503906e+00 1.032903861999511719e+01 4.022974491119384766e+00 4.305603981018066406e+00 6.835441589355468750e+00
2.000000000000000000e+01 3.465990447998046875e+01 -5.822579383850097656e+00 8.608248710632324219e+00 3.430034160614013672e+00 3.611485004425048828e+00 6.073715209960937500e+00
2.100000000000000000e+01 3.416287994384765625e+01 -6.168635368347167969e+00 1.688038253784179688e+01 1.428517532348632812e+01 9.349667549133300781e+00 1.361120700836181641e+01
2.200000000000000000e+01 3.428656387329101562e+01 -6.012688636779785156e+00 1.221854209899902344e+01 9.392170906066894531e+00 6.483213901519775391e+00 1.002884197235107422e+01
2.300000000000000000e+01 3.441024780273437500e+01 -5.856742382049560547e+00 9.906713485717773438e+00 7.250782012939453125e+00 5.147248744964599609e+00 8.347146987915039062e+00
2.400000000000000000e+01 3.453393554687500000e+01 -5.700795650482177734e+00 7.780035018920898438e+00 6.069220542907714844e+00 4.154776573181152344e+00 7.503974437713623047e+00
2.500000000000000000e+01 3.411378860473632812e+01 -6.136991977691650391e+00 1.401114845275878906e+01 2.015113067626953125e+01 1.024868392944335938e+01 1.349519062042236328e+01
2.600000000000000000e+01 3.420475006103515625e+01 -5.959949970245361328e+00 1.085357093811035156e+01 1.371905612945556641e+01 7.371788024902343750e+00 1.049760532379150391e+01
2.700000000000000000e+01 3.429570770263671875e+01 -5.782907962799072266e+00 8.249922752380371094e+00 1.099850845336914062e+01 5.774529457092285156e+00 8.900469779968261719e+00
2.800000000000000000e+01 3.438666534423828125e+01 -5.605865955352783203e+00 6.943644046783447266e+00 9.115079879760742188e+00 4.817616939544677734e+00 7.945482254028320312e+00
2.900000000000000000e+01 3.405947875976562500e+01 -6.115511417388916016e+00 1.195988750457763672e+01 2.508967971801757812e+01 1.111487007141113281e+01 1.182755947113037109e+01
3.000000000000000000e+01 3.411423110961914062e+01 -5.924148559570312500e+00 8.969613075256347656e+00 1.785794448852539062e+01 8.048267364501953125e+00 9.533093452453613281e+00
3.100000000000000000e+01 3.416898345947265625e+01 -5.732786178588867188e+00 7.064159870147705078e+00 1.435822391510009766e+01 6.426714897155761719e+00 8.493075370788574219e+00
3.200000000000000000e+01 3.422373199462890625e+01 -5.541423797607421875e+00 5.310752391815185547e+00 1.246435928344726562e+01 5.332533359527587891e+00 7.401899814605712891e+00
3.300000000000000000e+01 3.400202560424804688e+01 -6.105014801025390625e+00 1.059734344482421875e+01 2.866794013977050781e+01 1.177958488464355469e+01 8.764010429382324219e+00
3.400000000000000000e+01 3.401847457885742188e+01 -5.906654834747314453e+00 7.883251667022705078e+00 2.111597251892089844e+01 8.699767112731933594e+00 7.792233467102050781e+00
3.500000000000000000e+01 3.403492355346679688e+01 -5.708294391632080078e+00 5.976569175720214844e+00 1.718087196350097656e+01 6.947232246398925781e+00 6.755503654479980469e+00
3.600000000000000000e+01 3.405137252807617188e+01 -5.509934425354003906e+00 4.490352153778076172e+00 1.484711456298828125e+01 5.801239967346191406e+00 6.522231101989746094e+00
3.700000000000000000e+01 3.394362640380859375e+01 -6.105904102325439453e+00 1.073422718048095703e+01 3.068124771118164062e+01 1.242464256286621094e+01 5.367594718933105469e+00
3.800000000000000000e+01 3.392114257812500000e+01 -5.908137321472167969e+00 7.540237903594970703e+00 2.300034713745117188e+01 9.162175178527832031e+00 5.185847759246826172e+00
3.900000000000000000e+01 3.389866256713867188e+01 -5.710370063781738281e+00 5.656472206115722656e+00 1.922382926940917969e+01 7.464090347290039062e+00 4.778644084930419922e+00
4.000000000000000000e+01 3.387617874145507812e+01 -5.512602806091308594e+00 4.444644451141357422e+00 1.628812980651855469e+01 6.219832420349121094e+00 4.360419750213623047e+00
4.100000000000000000e+01 3.388652038574218750e+01 -6.118145942687988281e+00 1.166035175323486328e+01 3.081128120422363281e+01 1.274149036407470703e+01 2.110917568206787109e+00
4.200000000000000000e+01 3.382596588134765625e+01 -5.928539752960205078e+00 8.576635360717773438e+00 2.393626403808593750e+01 9.753870010375976562e+00 2.526717424392700195e+00
4.300000000000000000e+01 3.376541137695312500e+01 -5.738933563232421875e+00 6.080786705017089844e+00 1.969063568115234375e+01 7.731426715850830078e+00 2.506169557571411133e+00
4.400000000000000000e+01 3.370485687255859375e+01 -5.549327373504638672e+00 4.900298595428466797e+00 1.729496383666992188e+01 6.658578872680664062e+00 2.268817424774169922e+00
4.500000000000000000e+01 3.383288955688476562e+01 -6.141271114349365234e+00 1.445563125610351562e+01 3.006109237670898438e+01 1.335501670837402344e+01 -2.769881486892700195e-01
4.600000000000000000e+01 3.373657989501953125e+01 -5.967081546783447266e+00 9.638453483581542969e+00 2.331983947753906250e+01 9.887487411499023438e+00 1.090782955288887024e-01
4.700000000000000000e+01 3.364027023315429688e+01 -5.792891979217529297e+00 8.144737243652343750e+00 1.953822898864746094e+01 8.304889678955078125e+00 4.764908552169799805e-01
4.800000000000000000e+01 3.354396057128906250e+01 -5.618702411651611328e+00 5.698748111724853516e+00 1.661557197570800781e+01 6.694295883178710938e+00 5.785691142082214355e-01
4.900000000000000000e+01 3.378478622436523438e+01 -6.174394607543945312e+00 1.688782501220703125e+01 2.795620918273925781e+01 1.345320987701416016e+01 -1.954959392547607422e+00
5.000000000000000000e+01 3.365640640258789062e+01 -6.022287368774414062e+00 1.228249073028564453e+01 2.224035453796386719e+01 1.035685348510742188e+01 -1.169986128807067871e+00
5.100000000000000000e+01 3.352803039550781250e+01 -5.870180606842041016e+00 9.567240715026855469e+00 1.817448616027832031e+01 8.322518348693847656e+00 -1.202714800834655762e+00
5.200000000000000000e+01 3.339965438842773438e+01 -5.718073368072509766e+00 8.564666748046875000e+00 1.609304237365722656e+01 7.397312641143798828e+00 -7.057099342346191406e-01
5.300000000000000000e+01 3.374404907226562500e+01 -6.216249465942382812e+00 1.948530960083007812e+01 2.600544548034667969e+01 1.364722633361816406e+01 -2.323964118957519531e+00
5.400000000000000000e+01 3.358851623535156250e+01 -6.092045307159423828e+00 1.491933155059814453e+01 2.031752395629882812e+01 1.057105636596679688e+01 -1.738002181053161621e+00
5.500000000000000000e+01 3.343298339843750000e+01 -5.967841148376464844e+00 1.167679786682128906e+01 1.678826141357421875e+01 8.539518356323242188e+00 -1.669782757759094238e+00
5.600000000000000000e+01 3.327745056152343750e+01 -5.843637466430664062e+00 1.022959995269775391e+01 1.432559776306152344e+01 7.366559505462646484e+00 -1.217726588249206543e+00
5.700000000000000000e+01 3.371224212646484375e+01 -6.265233516693115234e+00 2.216572189331054688e+01 2.454109191894531250e+01 1.401204395294189453e+01 -1.429041981697082520e+00
5.800000000000000000e+01 3.353550720214843750e+01 -6.173685550689697266e+00 1.691195106506347656e+01 1.805266952514648438e+01 1.048938655853271484e+01 -1.671475887298583984e+00
5.900000000000000000e+01 3.335876846313476562e+01 -6.082137584686279297e+00 1.416089344024658203e+01 1.562224960327148438e+01 8.934943199157714844e+00 -8.260645866394042969e-01
6.000000000000000000e+01 3.318202972412109375e+01 -5.990590095520019531e+00 1.153807735443115234e+01 1.178831863403320312e+01 6.997919082641601562e+00 -1.138624072074890137e+00
6.100000000000000000e+01 3.369058227539062500e+01 -6.319472312927246094e+00 2.368129158020019531e+01 2.235546112060546875e+01 1.381102561950683594e+01 -7.172175496816635132e-02
6.200000000000000000e+01 3.349940490722656250e+01 -6.264083862304687500e+00 1.849146461486816406e+01 1.751462745666503906e+01 1.080182743072509766e+01 -2.492499202489852905e-01
6.300000000000000000e+01 3.330822372436523438e+01 -6.208695411682128906e+00 1.574805641174316406e+01 1.320969295501708984e+01 8.687324523925781250e+00 -1.786179142072796822e-03
6.400000000000000000e+01 3.311704635620117188e+01 -6.153306961059570312e+00 1.383414459228515625e+01 1.210131454467773438e+01 7.780637741088867188e+00 -1.282922625541687012e-01
6.500000000000000000e+01 3.367989349365234375e+01 -6.376890659332275391e+00 2.425990486145019531e+01 2.188107299804687500e+01 1.384229373931884766e+01 1.557392120361328125e+00
6.600000000000000000e+01 3.348159027099609375e+01 -6.359781265258789062e+00 1.927598762512207031e+01 1.657871437072753906e+01 1.075641059875488281e+01 1.821773290634155273e+00
6.700000000000000000e+01 3.328328704833984375e+01 -6.342671394348144531e+00 1.619694328308105469e+01 1.296981239318847656e+01 8.750026702880859375e+00 1.108321905136108398e+00
6.800000000000000000e+01 3.308498382568359375e+01 -6.325562000274658203e+00 1.443029022216796875e+01 1.135534191131591797e+01 7.735689640045166016e+00 1.425372719764709473e+00
6.900000000000000000e+01 3.368059158325195312e+01 -6.435291290283203125e+00 2.395656204223632812e+01 2.258222007751464844e+01 1.396163463592529297e+01 3.872786998748779297e+00
7.000000000000000000e+01 3.348274993896484375e+01 -6.457115173339843750e+00 1.883650398254394531e+01 1.610746574401855469e+01 1.048319149017333984e+01 3.449877977371215820e+00
7.100000000000000000e+01 3.328490829467773438e+01 -6.478939533233642578e+00 1.576819896697998047e+01 1.410681724548339844e+01 8.962505340576171875e+00 3.045223951339721680e+00
7.200000000000000000e+01 3.308706665039062500e+01 -6.500763416290283203e+00 1.329728603363037109e+01 1.042553520202636719e+01 7.116846561431884766e+00 2.799988508224487305e+00
7.300000000000000000e+01 3.369264221191406250e+01 -6.492438793182373047e+00 2.224445343017578125e+01 2.283452987670898438e+01 1.352369499206542969e+01 5.793941497802734375e+00
7.400000000000000000e+01 3.350283432006835938e+01 -6.552361488342285156e+00 1.734976196289062500e+01 1.796221733093261719e+01 1.059359359741210938e+01 4.869132041931152344e+00
7.500000000000000000e+01 3.331302642822265625e+01 -6.612284183502197266e+00 1.434218025207519531e+01 1.410344982147216797e+01 8.533689498901367188e+00 4.617752075195312500e+00
7.600000000000000000e+01 3.312321853637695312e+01 -6.672206878662109375e+00 1.283704948425292969e+01 1.238823413848876953e+01 7.567584991455078125e+00 4.083137989044189453e+00
7.700000000000000000e+01 3.371558761596679688e+01 -6.546146869659423828e+00 1.987792968750000000e+01 2.484069633483886719e+01 1.341558742523193359e+01 6.918202877044677734e+00
7.800000000000000000e+01 3.354107666015625000e+01 -6.641875267028808594e+00 1.479722881317138672e+01 1.936649703979492188e+01 1.024911785125732422e+01 5.841806888580322266e+00
7.900000000000000000e+01 3.336656951904296875e+01 -6.737603187561035156e+00 1.238444805145263672e+01 1.573748588562011719e+01 8.436580657958984375e+00 5.142744064331054688e+00
8.000000000000000000e+01 3.319205856323242188e+01 -6.833331108093261719e+00 1.124415111541748047e+01 1.344406604766845703e+01 7.406465053558349609e+00 4.496576786041259766e+00
8.100000000000000000e+01 3.374855041503906250e+01 -6.594360351562500000e+00 1.653465080261230469e+01 2.717053985595703125e+01 1.311155700683593750e+01 7.146408081054687500e+00
8.200000000000000000e+01 3.359601593017578125e+01 -6.722230434417724609e+00 1.189276885986328125e+01 2.114955329895019531e+01 9.912696838378906250e+00 5.778222084045410156e+00
8.300000000000000000e+01 3.344348144531250000e+01 -6.850100994110107422e+00 1.002769470214843750e+01 1.752402687072753906e+01 8.265516281127929688e+00 4.795837402343750000e+00
8.400000000000000000e+01 3.329095077514648438e+01 -6.977971076965332031e+00 7.940148830413818359e+00 1.485113906860351562e+01 6.837386608123779297e+00 4.123560428619384766e+00
8.500000000000000000e+01 3.379026794433593750e+01 -6.635233879089355469e+00 1.270014095306396484e+01 2.930858612060546875e+01 1.260261821746826172e+01 6.234621047973632812e+00
8.600000000000000000e+01 3.366555023193359375e+01 -6.790352821350097656e+00 9.180960655212402344e+00 2.286930847167968750e+01 9.615080833435058594e+00 4.469605922698974609e+00
8.700000000000000000e+01 3.354082870483398438e+01 -6.945472240447998047e+00 7.161287784576416016e+00 1.889622497558593750e+01 7.817254066467285156e+00 3.691776752471923828e+00
8.800000000000000000e+01 3.341610717773437500e+01 -7.100591659545898438e+00 5.866246700286865234e+00 1.645387077331542969e+01 6.696034908294677734e+00 3.508370399475097656e+00
8.900000000000000000e+01 3.383914947509765625e+01 -6.667203426361083984e+00 9.348970413208007812e+00 3.096333694458007812e+01 1.209369182586669922e+01 3.935332536697387695e+00
9.000000000000000000e+01 3.374701309204101562e+01 -6.843635559082031250e+00 6.659819126129150391e+00 2.376005744934082031e+01 9.125963211059570312e+00 2.280396223068237305e+00
9.100000000000000000e+01 3.365487670898437500e+01 -7.020067691802978516e+00 5.064530372619628906e+00 1.974810028076171875e+01 7.443789482116699219e+00 1.939155340194702148e+00
9.200000000000000000e+01 3.356274032592773438e+01 -7.196499824523925781e+00 4.357550621032714844e+00 1.687044906616210938e+01 6.368399620056152344e+00 1.778166532516479492e+00
9.300000000000000000e+01 3.389331436157226562e+01 -6.689045429229736328e+00 6.941038608551025391e+00 3.146599388122558594e+01 1.152210998535156250e+01 4.921498894691467285e-01
9.400000000000000000e+01 3.383728790283203125e+01 -6.880039215087890625e+00 4.807899951934814453e+00 2.356372070312500000e+01 8.511486053466796875e+00 -4.245085120201110840e-01
9.500000000000000000e+01 3.378126525878906250e+01 -7.071032524108886719e+00 4.060450077056884766e+00 1.938370132446289062e+01 7.033245086669921875e+00 -4.375068843364715576e-01
9.600000000000000000e+01 3.372524261474609375e+01 -7.262026309967041016e+00 3.003182888031005859e+00 1.676553344726562500e+01 5.930614948272705078e+00 -3.141440749168395996e-01
9.700000000000000000e+01 3.395069885253906250e+01 -6.699924468994140625e+00 5.349158763885498047e+00 3.015568733215332031e+01 1.065145397186279297e+01 -3.481790304183959961e+00
9.800000000000000000e+01 3.393292617797851562e+01 -6.898170471191406250e+00 4.535268306732177734e+00 2.201704788208007812e+01 7.965694427490234375e+00 -3.289347171783447266e+00
9.900000000000000000e+01 3.391515731811523438e+01 -7.096416950225830078e+00 3.319379091262817383e+00 1.793274879455566406e+01 6.375638484954833984e+00 -2.921788215637207031e+00
1.000000000000000000e+02 3.389738845825195312e+01 -7.294662952423095703e+00 3.262682676315307617e+00 1.540797710418701172e+01 5.601197719573974609e+00 -2.268549442291259766e+00
1.010000000000000000e+02 3.400909805297851562e+01 -6.699423789978027344e+00 5.800543785095214844e+00 2.710397529602050781e+01 9.871356010437011719e+00 -7.109333992004394531e+00
1.020000000000000000e+02 3.403026580810546875e+01 -6.897336483001708984e+00 4.652702808380126953e+00 1.906218910217285156e+01 7.114467620849609375e+00 -5.921901702880859375e+00
1.030000000000000000e+02 3.405142974853515625e+01 -7.095248699188232422e+00 4.061011791229248047e+00 1.540928173065185547e+01 5.841088294982910156e+00 -4.794071197509765625e+00
1.040000000000000000e+02 3.407259368896484375e+01 -7.293161392211914062e+00 3.475539922714233398e+00 1.284750080108642578e+01 4.896912097930908203e+00 -4.297879695892333984e+00
1.050000000000000000e+02 3.406628799438476562e+01 -6.687562942504882812e+00 7.134598255157470703e+00 2.213527297973632812e+01 8.780961036682128906e+00 -9.990033149719238281e+00
1.060000000000000000e+02 3.412557601928710938e+01 -6.877568244934082031e+00 5.836033821105957031e+00 1.519644355773925781e+01 6.309742927551269531e+00 -7.399233341217041016e+00
1.070000000000000000e+02 3.418486785888671875e+01 -7.067573547363281250e+00 5.009799957275390625e+00 1.188609409332275391e+01 5.068768501281738281e+00 -6.148668766021728516e+00
1.080000000000000000e+02 3.424415588378906250e+01 -7.257578849792480469e+00 4.269011020660400391e+00 1.009177017211914062e+01 4.308234691619873047e+00 -5.289446830749511719e+00
1.090000000000000000e+02 3.412007141113281250e+01 -6.664795398712158203e+00 9.108321189880371094e+00 1.620554351806640625e+01 7.594159126281738281e+00 -1.101529598236083984e+01
1.100000000000000000e+02 3.421521759033203125e+01 -6.839622497558593750e+00 7.218356132507324219e+00 1.052340793609619141e+01 5.322529315948486328e+00 -7.819490909576416016e+00
1.110000000000000000e+02 3.431036376953125000e+01 -7.014449596405029297e+00 5.994190692901611328e+00 8.242018699645996094e+00 4.270863056182861328e+00 -6.234262466430664062e+00
1.120000000000000000e+02 3.440550994873046875e+01 -7.189276695251464844e+00 5.204967498779296875e+00 7.049801349639892578e+00 3.676430702209472656e+00 -5.319398880004882812e+00
1.130000000000000000e+02 3.416839599609375000e+01 -6.631992816925048828e+00 1.102714920043945312e+01 9.715142250061035156e+00 6.222687244415283203e+00 -1.019625282287597656e+01
1.140000000000000000e+02 3.429575729370117188e+01 -6.784951686859130859e+00 7.920741081237792969e+00 6.026911735534667969e+00 4.184295654296875000e+00 -6.716664791107177734e+00
1.150000000000000000e+02 3.442311859130859375e+01 -6.937910556793212891e+00 6.648732185363769531e+00 4.848441123962402344e+00 3.449151992797851562e+00 -5.274271965026855469e+00
1.160000000000000000e+02 3.455047607421875000e+01 -7.090868949890136719e+00 5.631536483764648438e+00 4.157711505889892578e+00 2.936774253845214844e+00 -4.443999290466308594e+00
1.170000000000000000e+02 3.420940780639648438e+01 -6.590410709381103516e+00 1.110296821594238281e+01 3.832630395889282227e+00 4.480679512023925781e+00 -7.416284084320068359e+00
1.180000000000000000e+02 3.436410903930664062e+01 -6.715647220611572266e+00 7.821060657501220703e+00 2.275727272033691406e+00 3.029036283493041992e+00 -4.475751876831054688e+00
1.190000000000000000e+02 3.451881027221679688e+01 -6.840884208679199219e+00 5.966284275054931641e+00 2.297636508941650391e+00 2.479176282882690430e+00 -3.397333383560180664e+00
1.200000000000000000e+02 3.467351531982421875e+01 -6.966121196746826172e+00 5.310054302215576172e+00 2.242664813995361328e+00 2.265815734863281250e+00 -3.212708473205566406e+00
1.210000000000000000e+02 3.424153900146484375e+01 -6.541639328002929688e+00 9.247996330261230469e+00 -1.099538207054138184e+00 2.444537401199340820e+00 -2.951928138732910156e+00
1.220000000000000000e+02 3.441766357421875000e+01 -6.634362220764160156e+00 4.917841434478759766e+00 5.029857754707336426e-01 1.626248121261596680e+00 -1.575126409530639648e+00
1.230000000000000000e+02 3.459378814697265625e+01 -6.727084636688232422e+00 4.718183517456054688e+00 1.179988741874694824e+00 1.769451737403869629e+00 -2.060934305191040039e+00
1.240000000000000000e+02 3.476991271972656250e+01 -6.819807529449462891e+00 4.077819347381591797e+00 4.653719365596771240e-01 1.362957358360290527e+00 -1.556290388107299805e+00
1.250000000000000000e+02 3.426356124877929688e+01 -6.487545967102050781e+00 -5.996894836425781250e-02 -2.554008483886718750e+00 -7.841932773590087891e-01 1.687758326530456543e+00
1.260000000000000000e+02 3.445436477661132812e+01 -6.544206142425537109e+00 2.656260251998901367e+00 9.812135100364685059e-01 1.091242074966430664e+00 -8.648931384086608887e-01
1.270000000000000000e+02 3.464517211914062500e+01 -6.600866317749023438e+00 2.186445236206054688e+00 -2.596181035041809082e-01 5.780481100082397461e-01 -4.545366168022155762e-01
1.280000000000000000e+02 3.483597946166992188e+01 -6.657526969909667969e+00 2.049625635147094727e+00 2.923387289047241211e-01 7.025893330574035645e-01 -4.876820743083953857e-01
1.290000000000000000e+02 3.866700363159179688e+01 -6.547381401062011719e+00 -6.781311035156250000e-01 7.352988421916961670e-02 -1.813803613185882568e-01 -3.546829894185066223e-02
1.300000000000000000e+02 3.963874435424804688e+01 -6.202650547027587891e+00 -4.804469347000122070e-01 1.186256110668182373e-01 -1.085463985800743103e-01 -2.334570884704589844e-01
1.310000000000000000e+02 3.792605972290039062e+01 -6.838481426239013672e+00 -1.065943479537963867e+00 -2.303364686667919159e-02 -3.266931474208831787e-01 1.112989336252212524e-01
1.320000000000000000e+02 3.809355926513671875e+01 -6.387087345123291016e+00 -4.337626099586486816e-01 1.113354861736297607e-01 -9.672813862562179565e-02 1.283750385046005249e-01
1.330000000000000000e+02 3.724156188964843750e+01 -6.011037349700927734e+00 3.637732863426208496e-01 1.946360766887664795e-01 1.675228178501129150e-01 6.453661322593688965e-01
1.340000000000000000e+02 3.761248779296875000e+01 -6.370799064636230469e+00 -3.802368640899658203e-01 1.205095462501049042e-02 -1.104557663202285767e-01 2.165523916482925415e-01
1.350000000000000000e+02 3.717721557617187500e+01 -6.627160549163818359e+00 -5.788172483444213867e-01 2.468631044030189514e-02 -1.662392914295196533e-01 1.837259382009506226e-01
1.360000000000000000e+02 3.718742752075195312e+01 -6.855263233184814453e+00 -1.102780103683471680e+00 8.071763440966606140e-03 -3.284125030040740967e-01 1.968565881252288818e-01
1.370000000000000000e+02 3.959197998046875000e+01 -6.943552017211914062e+00 -5.897772908210754395e-01 6.291980296373367310e-02 -1.580572575330734253e-01 -6.624488532543182373e-02
1.380000000000000000e+02 3.721427536010742188e+01 -6.405253410339355469e+00 -2.887548804283142090e-01 8.068987727165222168e-02 -6.241950392723083496e-02 2.930975258350372314e-01
1.390000000000000000e+02 3.721356201171875000e+01 -6.197687625885009766e+00 3.171949833631515503e-02 6.004843115806579590e-02 2.753037773072719574e-02 4.139600694179534912e-01
1.400000000000000000e+02 3.751390838623046875e+01 -6.715214729309082031e+00 -8.611006736755371094e-01 2.965627238154411316e-02 -2.494333088397979736e-01 1.756798774003982544e-01
1.410000000000000000e+02 3.742490005493164062e+01 -5.619495868682861328e+00 4.561567008495330811e-01 3.230510056018829346e-01 2.337623089551925659e-01 7.674382925033569336e-01
1.420000000000000000e+02 3.820403289794921875e+01 -5.892174243927001953e+00 -2.039110511541366577e-01 2.493312358856201172e-01 1.362605579197406769e-02 1.939714401960372925e-01
1.430000000000000000e+02 3.898352432250976562e+01 -6.946479797363281250e+00 -7.957081794738769531e-01 3.158252686262130737e-02 -2.292376905679702759e-01 5.738363135606050491e-03
1.440000000000000000e+02 3.890205764770507812e+01 -6.046096324920654297e+00 -3.745951950550079346e-01 2.281430959701538086e-01 -4.393562674522399902e-02 -5.501902848482131958e-02
1.450000000000000000e+02 3.845885467529296875e+01 -6.939547061920166016e+00 -9.880784153938293457e-01 1.401138305664062500e-02 -2.922201156616210938e-01 1.010785847902297974e-01
1.460000000000000000e+02 3.729823684692382812e+01 -5.817327499389648438e+00 4.940601289272308350e-01 1.318753361701965332e-01 1.877806484699249268e-01 6.610431075096130371e-01
1.470000000000000000e+02 3.751154327392578125e+01 -6.111706256866455078e+00 -9.860010445117950439e-02 1.543167084455490112e-01 1.671498082578182220e-02 3.675640225410461426e-01
1.480000000000000000e+02 3.767123413085937500e+01 -5.846491336822509766e+00 1.261863559484481812e-01 3.361636996269226074e-01 1.387050151824951172e-01 5.401800870895385742e-01
1.490000000000000000e+02 3.684804153442382812e+01 -6.801444053649902344e+00 -9.129863381385803223e-01 -1.047006994485855103e-01 -3.053061068058013916e-01 2.036002576351165771e-01
1.500000000000000000e+02 3.415608978271484375e+01 -5.194121837615966797e+00 3.342775344848632812e+00 1.147933101654052734e+01 4.446631908416748047e+00 5.497203826904296875e+00
1.510000000000000000e+02 3.284433746337890625e+01 -6.084923744201660156e+00 1.018214702606201172e+01 9.355579376220703125e+00 5.861317634582519531e+00 -1.986092925071716309e-01
1.520000000000000000e+02 3.280588531494140625e+01 -6.291227817535400391e+00 1.113013839721679688e+01 8.746055603027343750e+00 5.962858200073242188e+00 1.671372294425964355e+00
1.530000000000000000e+02 3.284609985351562500e+01 -6.734859466552734375e+00 1.049720859527587891e+01 9.426074028015136719e+00 5.976984977722167969e+00 3.121415138244628906e+00
1.540000000000000000e+02 3.295734786987304688e+01 -6.953211307525634766e+00 9.012749671936035156e+00 1.067860603332519531e+01 5.907406806945800781e+00 4.213292121887207031e+00
1.550000000000000000e+02 3.340973281860351562e+01 -7.310163974761962891e+00 4.499706268310546875e+00 1.530677032470703125e+01 5.941943168640136719e+00 2.097069978713989258e+00
1.560000000000000000e+02 3.670413970947265625e+01 -7.685627937316894531e+00 1.554037690162658691e+00 3.020474910736083984e-01 5.568255782127380371e-01 -7.811738848686218262e-01
1.570000000000000000e+02 3.531298446655273438e+01 -7.332252502441406250e+00 3.434997558593750000e+00 1.006834030151367188e+00 1.332549452781677246e+00 -1.906524300575256348e+00
1.580000000000000000e+02 3.385470581054687500e+01 -7.512386798858642578e+00 2.646688461303710938e+00 1.291318893432617188e+01 4.667963027954101562e+00 -1.968862175941467285e+00
1.590000000000000000e+02 3.344111633300781250e+01 -5.437923908233642578e+00 4.961021423339843750e+00 1.521219539642333984e+01 6.051965236663818359e+00 2.089531868696212769e-01
1.600000000000000000e+02 3.705087280273437500e+01 -5.564026832580566406e+00 8.713620901107788086e-01 4.875319600105285645e-01 4.076682031154632568e-01 1.161652922630310059e+00
1.610000000000000000e+02 3.665232849121093750e+01 -5.513614177703857422e+00 1.431861758232116699e+00 4.303315877914428711e-01 5.586580038070678711e-01 1.490467548370361328e+00
1.620000000000000000e+02 3.651968383789062500e+01 -6.408519268035888672e+00 1.895323693752288818e-01 3.683464974164962769e-02 6.791010499000549316e-02 4.038644134998321533e-01
1.630000000000000000e+02 3.408739471435546875e+01 -5.340068817138671875e+00 3.337047338485717773e+00 1.375707626342773438e+01 5.128237247467041016e+00 5.807240009307861328e+00
1.640000000000000000e+02 3.427306747436523438e+01 -5.032428264617919922e+00 2.612665414810180664e+00 8.940084457397460938e+00 3.465824842453002930e+00 5.987498760223388672e+00
1.650000000000000000e+02 3.549912643432617188e+01 -5.270591735839843750e+00 3.660924911499023438e+00 1.730199456214904785e+00 1.617337346076965332e+00 3.896072149276733398e+00
1.660000000000000000e+02 3.508634567260742188e+01 -6.267090797424316406e+00 3.913784265518188477e+00 -1.284561008214950562e-01 1.135598421096801758e+00 8.413286209106445312e-01
1.670000000000000000e+02 3.507249832153320312e+01 -6.490242481231689453e+00 1.545962333679199219e+00 1.849615573883056641e-02 4.693375527858734131e-01 1.744976267218589783e-02
1.680000000000000000e+02 3.591653060913085938e+01 -6.362813472747802734e+00 9.727107286453247070e-01 -1.128425672650337219e-01 2.579604685306549072e-01 4.443145096302032471e-01
1.690000000000000000e+02 3.679835510253906250e+01 -5.790563106536865234e+00 1.025593757629394531e+00 1.968844681978225708e-01 3.667434751987457275e-01 1.019192934036254883e+00
1.700000000000000000e+02 3.660040664672851562e+01 -8.306742668151855469e+00 1.900631427764892578e+00 9.354304671287536621e-01 8.508185744285583496e-01 -1.462369680404663086e+00
1.710000000000000000e+02 3.625659561157226562e+01 -7.972314834594726562e+00 2.166322469711303711e+00 7.433686256408691406e-01 8.729073405265808105e-01 -1.426662087440490723e+00
1.720000000000000000e+02 3.644437789916992188e+01 -8.044562339782714844e+00 1.966209411621093750e+00 7.567409276962280273e-01 8.168850541114807129e-01 -1.344914913177490234e+00
1.730000000000000000e+02 3.484941101074218750e+01 -7.095356464385986328e+00 4.587475776672363281e+00 1.593068242073059082e+00 1.854163169860839844e+00 -2.687738418579101562e+00
1.740000000000000000e+02 3.470985412597656250e+01 -7.266556739807128906e+00 4.805879116058349609e+00 3.613202095031738281e+00 2.525724411010742188e+00 -3.962730407714843750e+00
1.750000000000000000e+02 3.680571365356445312e+01 -7.058176994323730469e+00 8.167806863784790039e-01 8.889037184417247772e-03 2.477009147405624390e-01 -2.128163576126098633e-01
1.760000000000000000e+02 3.673171615600585938e+01 -7.480392456054687500e+00 1.406120657920837402e+00 2.264324277639389038e-01 4.897659420967102051e-01 -5.534602999687194824e-01
1.770000000000000000e+02 3.663726425170898438e+01 -8.096184730529785156e+00 1.724501252174377441e+00 6.872430443763732910e-01 7.235232591629028320e-01 -1.153472304344177246e+00
1.780000000000000000e+02 3.676742935180664062e+01 -7.270320415496826172e+00 1.064500927925109863e+00 6.156700104475021362e-02 3.378203809261322021e-01 -3.640429675579071045e-01
1.790000000000000000e+02 3.562567520141601562e+01 -6.855358600616455078e+00 1.432886600494384766e+00 1.383758783340454102e-01 4.713787436485290527e-01 -3.823628425598144531e-01
1.800000000000000000e+02 3.582674026489257812e+01 -6.894762039184570312e+00 1.299383163452148438e+00 7.167599350214004517e-02 4.113177657127380371e-01 -3.419715464115142822e-01
1.810000000000000000e+02 3.557142639160156250e+01 -8.059888839721679688e+00 2.822913408279418945e+00 1.909849286079406738e+00 1.419828772544860840e+00 -2.417495250701904297e+00
1.820000000000000000e+02 3.495445632934570312e+01 -6.912266254425048828e+00 3.611643314361572266e+00 7.202102541923522949e-01 1.299556136131286621e+00 -1.496564507484436035e+00
1.830000000000000000e+02 3.502831649780273438e+01 -6.713458061218261719e+00 1.898950815200805664e+00 1.108341291546821594e-02 5.730102658271789551e-01 -4.523313343524932861e-01
1.840000000000000000e+02 3.331134033203125000e+01 -7.203464984893798828e+00 5.675342082977294922e+00 1.551845264434814453e+01 6.358138561248779297e+00 3.576807260513305664e+00
1.850000000000000000e+02 3.547595214843750000e+01 -6.554439544677734375e+00 6.580453515052795410e-01 2.705600112676620483e-02 2.055304050445556641e-01 1.601162999868392944e-01
1.860000000000000000e+02 3.437481689453125000e+01 -5.238844871520996094e+00 3.942360639572143555e+00 8.923114776611328125e+00 3.859642744064331055e+00 7.055767059326171875e+00
1.870000000000000000e+02 3.298696899414062500e+01 -5.900323867797851562e+00 1.156595325469970703e+01 1.091591739654541016e+01 6.744561195373535156e+00 -1.836040616035461426e+00
1.880000000000000000e+02 3.671062088012695312e+01 -6.482637405395507812e+00 -1.380289047956466675e-01 -8.350076526403427124e-02 -6.645890325307846069e-02 2.998090684413909912e-01
1.890000000000000000e+02 3.665295410156250000e+01 -6.749534130096435547e+00 -7.874544262886047363e-01 3.348459675908088684e-02 -2.261909544467926025e-01 2.243291586637496948e-01
1.900000000000000000e+02 3.304141235351562500e+01 -5.685456275939941406e+00 8.360966682434082031e+00 1.062133502960205078e+01 5.694690704345703125e+00 -7.837873101234436035e-01
1.910000000000000000e+02 3.319484329223632812e+01 -5.532184123992919922e+00 5.907497882843017578e+00 1.227742099761962891e+01 5.455475807189941406e+00 -4.980552494525909424e-01
1.920000000000000000e+02 3.465690231323242188e+01 -5.549901962280273438e+00 6.667202949523925781e+00 5.501577377319335938e+00 3.650634050369262695e+00 6.882247447967529297e+00
1.930000000000000000e+02 3.504510879516601562e+01 -6.041324138641357422e+00 5.644786834716796875e+00 3.616034090518951416e-01 1.801917076110839844e+00 2.215590953826904297e+00
1.940000000000000000e+02 3.532449722290039062e+01 -5.506170749664306641e+00 4.606424331665039062e+00 1.542554974555969238e+00 1.844693660736083984e+00 3.996218681335449219e+00
1.950000000000000000e+02 3.448277664184570312e+01 -5.073091983795166016e+00 3.410655498504638672e+00 8.575005531311035156e+00 3.595698356628417969e+00 6.870655536651611328e+00
1.960000000000000000e+02 3.389124298095703125e+01 -5.033218860626220703e+00 1.891109228134155273e+00 1.258448314666748047e+01 4.342677593231201172e+00 4.530012130737304688e+00
1.970000000000000000e+02 3.389746093750000000e+01 -5.181566715240478516e+00 2.291857719421386719e+00 1.455246829986572266e+01 5.053297996520996094e+00 4.799474239349365234e+00
1.980000000000000000e+02 3.468544769287109375e+01 -5.118973255157470703e+00 3.749763488769531250e+00 6.400224208831787109e+00 3.044996261596679688e+00 6.483191967010498047e+00
1.990000000000000000e+02 3.531223297119140625e+01 -6.284140586853027344e+00 2.934216499328613281e+00 5.016830749809741974e-03 8.817700147628784180e-01 7.285827398300170898e-01
2.000000000000000000e+02 3.568737030029296875e+01 -5.305160045623779297e+00 3.407800912857055664e+00 1.543420553207397461e+00 1.485366463661193848e+00 3.579557895660400391e+00
2.010000000000000000e+02 3.494446182250976562e+01 -5.841168880462646484e+00 6.925192356109619141e+00 1.435826420783996582e+00 2.508305549621582031e+00 4.111706733703613281e+00
2.020000000000000000e+02 3.277518081665039062e+01 -5.816806316375732422e+00 9.591415405273437500e+00 9.116192817687988281e+00 5.612282276153564453e+00 -1.170559763908386230e+00
2.030000000000000000e+02 3.327201843261718750e+01 -5.276046276092529297e+00 4.477380275726318359e+00 1.238315200805664062e+01 5.058159828186035156e+00 -3.100726604461669922e-01
2.040000000000000000e+02 3.365004348754882812e+01 -5.359211921691894531e+00 4.335770606994628906e+00 1.454962539672851562e+01 5.665618896484375000e+00 2.017132282257080078e+00
2.050000000000000000e+02 3.362110137939453125e+01 -5.158760547637939453e+00 3.194485187530517578e+00 1.169460391998291016e+01 4.466726779937744141e+00 3.172976493835449219e+00
2.060000000000000000e+02 3.264491271972656250e+01 -6.516499519348144531e+00 1.138200187683105469e+01 7.987050533294677734e+00 5.810715675354003906e+00 2.371163368225097656e+00
2.070000000000000000e+02 3.381154251098632812e+01 -7.763350009918212891e+00 2.229711055755615234e+00 1.140413761138916016e+01 4.090154647827148438e+00 -2.064364671707153320e+00
2.080000000000000000e+02 3.430417633056640625e+01 -7.484330654144287109e+00 3.521230220794677734e+00 8.924031257629394531e+00 3.733578205108642578e+00 -4.572572708129882812e+00
2.090000000000000000e+02 3.317692947387695312e+01 -7.102016925811767578e+00 6.693197250366210938e+00 1.304448413848876953e+01 5.921304702758789062e+00 3.530631542205810547e+00
2.100000000000000000e+02 3.287256240844726562e+01 -6.514779567718505859e+00 1.367649269104003906e+01 9.222066879272460938e+00 6.869567871093750000e+00 2.835172891616821289e+00
2.110000000000000000e+02 3.297784042358398438e+01 -7.245625495910644531e+00 6.985669136047363281e+00 1.095137405395507812e+01 5.381113052368164062e+00 3.834703922271728516e+00
2.120000000000000000e+02 3.518589019775390625e+01 -8.077957153320312500e+00 2.982764244079589844e+00 3.080730438232421875e+00 1.819048404693603516e+00 -2.954313278198242188e+00
2.130000000000000000e+02 3.528005218505859375e+01 -7.858469009399414062e+00 3.280983448028564453e+00 2.497751474380493164e+00 1.733620405197143555e+00 -2.845461606979370117e+00
2.140000000000000000e+02 3.542475509643554688e+01 -6.813916683197021484e+00 1.587633967399597168e+00 6.829124689102172852e-02 4.967775642871856689e-01 -4.304855465888977051e-01
2.150000000000000000e+02 3.403929138183593750e+01 -7.795837402343750000e+00 2.226828813552856445e+00 1.044764232635498047e+01 3.802341461181640625e+00 -2.940278291702270508e+00
2.160000000000000000e+02 3.441591262817382812e+01 -7.903688430786132812e+00 2.736870288848876953e+00 7.089423656463623047e+00 2.947888135910034180e+00 -3.755715131759643555e+00
2.170000000000000000e+02 3.423648452758789062e+01 -7.855440139770507812e+00 2.513586044311523438e+00 8.817079544067382812e+00 3.399199724197387695e+00 -3.691136598587036133e+00
2.180000000000000000e+02 3.342115402221679688e+01 -7.605485439300537109e+00 2.686666011810302734e+00 1.306433963775634766e+01 4.725301742553710938e+00 1.040739536285400391e+00
2.190000000000000000e+02 3.508972167968750000e+01 -5.236397743225097656e+00 4.295124053955078125e+00 3.350535869598388672e+00 2.293697834014892578e+00 5.387801647186279297e+00
2.200000000000000000e+02 3.488536453247070312e+01 -5.172751426696777344e+00 4.291314125061035156e+00 4.905797958374023438e+00 2.759133577346801758e+00 6.231728076934814453e+00
2.210000000000000000e+02 3.698225784301757812e+01 -6.007997989654541016e+00 4.981974959373474121e-01 7.112795114517211914e-02 1.707976311445236206e-01 6.398047208786010742e-01
2.220000000000000000e+02 3.587385940551757812e+01 -6.614261150360107422e+00 -6.232171133160591125e-02 3.656646236777305603e-02 -7.726574782282114029e-03 2.027860879898071289e-01
2.230000000000000000e+02 3.689000320434570312e+01 -6.579972267150878906e+00 -4.649290144443511963e-01 -2.244313992559909821e-02 -1.462116390466690063e-01 3.043363988399505615e-01
2.240000000000000000e+02 3.551829528808593750e+01 -6.337717533111572266e+00 1.863245844841003418e+00 -1.777340918779373169e-01 5.056535601615905762e-01 5.192346572875976562e-01
2.250000000000000000e+02 3.585895919799804688e+01 -5.885486602783203125e+00 2.704523801803588867e+00 2.250448465347290039e-01 8.788706064224243164e-01 1.641430854797363281e+00
2.260000000000000000e+02 3.626630783081054688e+01 -6.669927597045898438e+00 -5.030494928359985352e-01 4.048708453774452209e-02 -1.387687176465988159e-01 2.232366204261779785e-01
2.270000000000000000e+02 3.522475814819335938e+01 -6.766530036926269531e+00 1.752332925796508789e+00 1.379937976598739624e-01 5.670980215072631836e-01 -4.409247636795043945e-01
2.280000000000000000e+02 3.579031372070312500e+01 -8.089747428894042969e+00 2.604236125946044922e+00 1.536155819892883301e+00 1.242117643356323242e+00 -2.126174926757812500e+00
2.290000000000000000e+02 3.640219879150390625e+01 -8.263077735900878906e+00 2.004744052886962891e+00 8.853275179862976074e-01 8.670214414596557617e-01 -1.508180141448974609e+00
2.300000000000000000e+02 3.600435256958007812e+01 -8.157242774963378906e+00 2.348662853240966797e+00 1.249746441841125488e+00 1.079522728919982910e+00 -1.886572360992431641e+00
2.310000000000000000e+02 3.546049880981445312e+01 -7.755734920501708984e+00 3.167038440704345703e+00 1.563744664192199707e+00 1.419234871864318848e+00 -2.275216341018676758e+00
2.320000000000000000e+02 3.501840972900390625e+01 -8.047075271606445312e+00 3.039482116699218750e+00 3.667292594909667969e+00 2.012032508850097656e+00 -3.280492305755615234e+00
2.330000000000000000e+02 3.462394332885742188e+01 -7.915054798126220703e+00 2.960873603820800781e+00 5.733368396759033203e+00 2.608272552490234375e+00 -3.733043193817138672e+00
2.340000000000000000e+02 3.438414382934570312e+01 -7.708410739898681641e+00 3.136377573013305664e+00 7.797258377075195312e+00 3.280090808868408203e+00 -4.111353874206542969e+00
2.350000000000000000e+02 3.462243652343750000e+01 -7.652173042297363281e+00 3.694493770599365234e+00 5.559456348419189453e+00 2.776185035705566406e+00 -4.132405281066894531e+00
2.360000000000000000e+02 3.505723190307617188e+01 -7.551317691802978516e+00 3.676723957061767578e+00 2.218923807144165039e+00 1.768694281578063965e+00 -2.842606067657470703e+00
2.370000000000000000e+02 3.682408905029296875e+01 -6.279831409454345703e+00 3.021030724048614502e-01 8.710408583283424377e-03 9.324403852224349976e-02 4.606479406356811523e-01
2.380000000000000000e+02 3.659690475463867188e+01 -5.787783145904541016e+00 1.299286603927612305e+00 3.009951114654541016e-01 4.800845086574554443e-01 1.212010622024536133e+00
2.390000000000000000e+02 3.621936416625976562e+01 -6.957921028137207031e+00 1.084793090820312500e+00 6.534742563962936401e-02 3.450421690940856934e-01 -2.733671665191650391e-01
2.400000000000000000e+02 3.660758209228515625e+01 -7.022285938262939453e+00 8.947808742523193359e-01 8.461800962686538696e-02 2.938196659088134766e-01 -2.074985951185226440e-01
2.410000000000000000e+02 3.584965896606445312e+01 -7.776648521423339844e+00 2.685575246810913086e+00 9.913021326065063477e-01 1.103063225746154785e+00 -1.706139206886291504e+00
2.420000000000000000e+02 3.649657821655273438e+01 -7.849571228027343750e+00 1.820776700973510742e+00 5.656129717826843262e-01 7.159169316291809082e-01 -1.086352229118347168e+00
2.430000000000000000e+02 3.527542114257812500e+01 -6.517848491668701172e+00 1.100817680358886719e+00 -1.292804032564163208e-01 2.914611995220184326e-01 7.655373215675354004e-02
2.440000000000000000e+02 3.625964736938476562e+01 -5.451139926910400391e+00 2.144229888916015625e+00 5.879514217376708984e-01 8.196543455123901367e-01 2.132726669311523438e+00
2.450000000000000000e+02 3.587317276000976562e+01 -5.355402469635009766e+00 2.934398412704467773e+00 9.980141520500183105e-01 1.179723739624023438e+00 2.998822689056396484e+00
2.460000000000000000e+02 3.639463424682617188e+01 -5.773549556732177734e+00 1.625235795974731445e+00 1.777350753545761108e-01 5.408912897109985352e-01 1.316331744194030762e+00
2.470000000000000000e+02 3.618385696411132812e+01 -5.751354217529296875e+00 2.134746551513671875e+00 3.408320248126983643e-01 7.426735758781433105e-01 1.624103069305419922e+00
2.480000000000000000e+02 3.526968002319335938e+01 -5.898465633392333984e+00 4.836242675781250000e+00 4.315321147441864014e-01 1.580332398414611816e+00 2.501713514328002930e+00
2.490000000000000000e+02 3.646084976196289062e+01 -6.704623222351074219e+00 -6.683393716812133789e-01 -1.109621375799179077e-01 -2.337904572486877441e-01 1.952206492424011230e-01
2.500000000000000000e+02 3.602525711059570312e+01 -6.931008815765380859e+00 1.184655785560607910e+00 9.858956933021545410e-02 3.849736154079437256e-01 -3.075880408287048340e-01
2.510000000000000000e+02 3.641277694702148438e+01 -6.986135005950927734e+00 9.751453995704650879e-01 5.740913003683090210e-02 3.097663521766662598e-01 -2.585284709930419922e-01
2.520000000000000000e+02 3.634556579589843750e+01 -7.758936882019042969e+00 1.966471552848815918e+00 5.504543185234069824e-01 7.550777792930603027e-01 -1.112004637718200684e+00
2.530000000000000000e+02 3.684908294677734375e+01 -5.539914131164550781e+00 1.177191495895385742e+00 4.586355090141296387e-01 4.907481074333190918e-01 1.357132792472839355e+00
2.540000000000000000e+02 3.656457519531250000e+01 -6.090215682983398438e+00 8.611739277839660645e-01 3.556327428668737411e-04 2.584588527679443359e-01 7.206308841705322266e-01
2.550000000000000000e+02 3.677530670166015625e+01 -6.059520244598388672e+00 5.819544792175292969e-01 1.441675126552581787e-01 2.178366035223007202e-01 6.758813858032226562e-01
2.560000000000000000e+02 3.645582199096679688e+01 -5.484657764434814453e+00 1.819326281547546387e+00 6.029536128044128418e-01 7.266839742660522461e-01 1.867717981338500977e+00
2.570000000000000000e+02 3.574823379516601562e+01 -7.408439636230468750e+00 2.504510641098022461e+00 5.163562893867492676e-01 9.062600731849670410e-01 -1.218742966651916504e+00
2.580000000000000000e+02 3.514511489868164062e+01 -5.662400245666503906e+00 5.496301174163818359e+00 1.523388743400573730e+00 2.105906963348388672e+00 4.068476676940917969e+00
2.590000000000000000e+02 3.570450210571289062e+01 -5.789207935333251953e+00 3.291445255279541016e+00 4.158714413642883301e-01 1.112195014953613281e+00 2.203689098358154297e+00
2.600000000000000000e+02 3.452339553833007812e+01 -7.397268295288085938e+00 4.392253875732421875e+00 5.790064334869384766e+00 3.054695606231689453e+00 -4.566378116607666016e+00
2.610000000000000000e+02 3.578468704223632812e+01 -5.587342739105224609e+00 3.322663068771362305e+00 7.630867362022399902e-01 1.225724935531616211e+00 2.607558488845825195e+00
2.620000000000000000e+02 3.606999588012695312e+01 -6.640685558319091797e+00 -3.173970878124237061e-01 -1.194704622030258179e-01 -1.310602575540542603e-01 1.841423511505126953e-01
2.630000000000000000e+02 3.558339309692382812e+01 -7.113820552825927734e+00 2.421097993850708008e+00 3.246383368968963623e-01 8.237208724021911621e-01 -9.084463715553283691e-01
2.640000000000000000e+02 3.620345687866210938e+01 -7.203907966613769531e+00 1.570206284523010254e+00 2.201509475708007812e-01 5.371071696281433105e-01 -5.801183581352233887e-01
2.650000000000000000e+02 3.539368820190429688e+01 -6.083498954772949219e+00 3.617348432540893555e+00 -3.833588212728500366e-02 1.073703765869140625e+00 1.348307013511657715e+00
2.660000000000000000e+02 3.536982345581054688e+01 -7.067978858947753906e+00 2.770315170288085938e+00 4.447374045848846436e-01 9.645157456398010254e-01 -1.084166288375854492e+00
2.670000000000000000e+02 3.613816452026367188e+01 -6.066805839538574219e+00 1.628545403480529785e+00 -3.319199755787849426e-02 4.786060154438018799e-01 9.599541425704956055e-01
2.680000000000000000e+02 3.592743682861328125e+01 -6.098483562469482422e+00 2.012705564498901367e+00 5.640645325183868408e-02 6.207336187362670898e-01 9.942596554756164551e-01
2.690000000000000000e+02 3.617195129394531250e+01 -7.612803459167480469e+00 2.138019084930419922e+00 4.810284674167633057e-01 7.857142686843872070e-01 -1.075094103813171387e+00
2.700000000000000000e+02 3.667515182495117188e+01 -7.889648437500000000e+00 1.788468003273010254e+00 4.378437697887420654e-01 6.678935289382934570e-01 -1.020556926727294922e+00
2.710000000000000000e+02 3.651152420043945312e+01 -7.460608482360839844e+00 1.603633165359497070e+00 2.245947569608688354e-01 5.484683513641357422e-01 -6.746322512626647949e-01
2.720000000000000000e+02 3.620454025268554688e+01 -8.213581085205078125e+00 2.142377376556396484e+00 1.128662586212158203e+00 9.813119769096374512e-01 -1.706745386123657227e+00
2.730000000000000000e+02 3.637845230102539062e+01 -7.200487136840820312e+00 1.314864873886108398e+00 1.239685043692588806e-01 4.316500127315521240e-01 -4.236052930355072021e-01
2.740000000000000000e+02 3.656359863281250000e+01 -7.240243911743164062e+00 1.205793976783752441e+00 1.569531857967376709e-01 4.088241457939147949e-01 -3.960091769695281982e-01
2.750000000000000000e+02 3.600659561157226562e+01 -7.207683086395263672e+00 1.832868933677673340e+00 2.013059407472610474e-01 6.102524995803833008e-01 -6.687423586845397949e-01
2.760000000000000000e+02 3.515589904785156250e+01 -6.998987197875976562e+00 3.157076358795166016e+00 4.470814764499664307e-01 1.081247329711914062e+00 -1.271102905273437500e+00
2.770000000000000000e+02 3.536790847778320312e+01 -8.072178840637207031e+00 3.028383493423461914e+00 2.428837060928344727e+00 1.637166142463684082e+00 -2.786743879318237305e+00
2.780000000000000000e+02 3.483641052246093750e+01 -7.969249248504638672e+00 3.062543153762817383e+00 4.589616775512695312e+00 2.295648097991943359e+00 -3.553163766860961914e+00
2.790000000000000000e+02 3.694559478759765625e+01 -6.384505748748779297e+00 -1.292300373315811157e-01 -2.695166505873203278e-02 -4.685450717806816101e-02 2.091316133737564087e-01
2.800000000000000000e+02 3.697430419921875000e+01 -6.208043575286865234e+00 2.668028473854064941e-01 9.896954149007797241e-02 1.097317188978195190e-01 5.348734259605407715e-01
2.810000000000000000e+02 3.631487655639648438e+01 -6.382267475128173828e+00 4.693092107772827148e-01 -1.089270934462547302e-01 1.081146374344825745e-01 4.069155454635620117e-01
2.820000000000000000e+02 3.611422729492187500e+01 -6.366631984710693359e+00 7.412644028663635254e-01 -1.042389048961922526e-04 2.223480492830276489e-01 4.468360841274261475e-01
2.830000000000000000e+02 3.700986480712890625e+01 -5.786303997039794922e+00 6.616709828376770020e-01 3.363411128520965576e-01 2.994036376476287842e-01 8.466726541519165039e-01
2.840000000000000000e+02 3.571841049194335938e+01 -6.359253883361816406e+00 1.321171522140502930e+00 2.122348360717296600e-02 4.027184844017028809e-01 5.150647759437561035e-01
2.850000000000000000e+02 3.606535720825195312e+01 -5.407216548919677734e+00 2.570410013198852539e+00 8.747504949569702148e-01 1.033548116683959961e+00 2.574110031127929688e+00
2.860000000000000000e+02 3.598086166381835938e+01 -5.681261062622070312e+00 2.621971845626831055e+00 3.324391841888427734e-01 8.863233327865600586e-01 1.944642663002014160e+00
2.870000000000000000e+02 3.529783630371093750e+01 -5.265587329864501953e+00 4.177625656127929688e+00 2.526615142822265625e+00 2.011272192001342773e+00 4.720898628234863281e+00
2.880000000000000000e+02 3.547998046875000000e+01 -5.452640056610107422e+00 4.014444828033447266e+00 1.728398799896240234e+00 1.722853064537048340e+00 3.891732454299926758e+00
2.890000000000000000e+02 3.497180557250976562e+01 -5.490590572357177734e+00 5.713410854339599609e+00 3.105164289474487305e+00 2.645572662353515625e+00 5.462402343750000000e+00
2.900000000000000000e+02 3.458053207397460938e+01 -5.300858974456787109e+00 4.856096267700195312e+00 7.366823196411132812e+00 3.666875839233398438e+00 7.059282302856445312e+00
2.910000000000000000e+02 3.481374740600585938e+01 -5.678708553314208984e+00 6.938855648040771484e+00 3.047775983810424805e+00 2.995989561080932617e+00 5.570769309997558594e+00
2.920000000000000000e+02 3.511705398559570312e+01 -7.938488006591796875e+00 3.219780206680297852e+00 3.110357522964477539e+00 1.899041414260864258e+00 -3.095004558563232422e+00
2.930000000000000000e+02 3.497214889526367188e+01 -7.803682804107666016e+00 3.513877868652343750e+00 3.604456901550292969e+00 2.135500431060791016e+00 -3.488066196441650391e+00
2.940000000000000000e+02 3.408047485351562500e+01 -7.525552749633789062e+00 2.865997314453125000e+00 1.123280334472656250e+01 4.229640007019042969e+00 -3.792932510375976562e+00
2.950000000000000000e+02 3.359347915649414062e+01 -7.429337978363037109e+00 3.277576208114624023e+00 1.529036712646484375e+01 5.570383071899414062e+00 6.932801008224487305e-01
2.960000000000000000e+02 3.567613601684570312e+01 -6.586795806884765625e+00 2.476051449775695801e-01 -1.106639727950096130e-01 4.108235239982604980e-02 1.562928557395935059e-01
2.970000000000000000e+02 3.322098541259765625e+01 -7.248869895935058594e+00 5.912011146545410156e+00 1.356433582305908203e+01 5.842904090881347656e+00 3.290972948074340820e+00
2.980000000000000000e+02 3.477789306640625000e+01 -5.383907318115234375e+00 5.342772006988525391e+00 4.884855747222900391e+00 3.068288326263427734e+00 6.386351108551025391e+00
2.990000000000000000e+02 3.387108230590820312e+01 -5.334229946136474609e+00 3.174825906753540039e+00 1.448313522338867188e+01 5.297388553619384766e+00 4.956834316253662109e+00
3.000000000000000000e+02 3.428947067260742188e+01 -5.379734516143798828e+00 4.901793479919433594e+00 1.047639274597167969e+01 4.613455772399902344e+00 6.909614086151123047e+00
3.010000000000000000e+02 3.448033905029296875e+01 -5.449780941009521484e+00 5.565505027770996094e+00 7.896625041961669922e+00 4.038639068603515625e+00 7.558156967163085938e+00
3.020000000000000000e+02 3.630055999755859375e+01 -7.391927719116210938e+00 1.739913105964660645e+00 2.865859866142272949e-01 6.079497337341308594e-01 -6.908887028694152832e-01
3.030000000000000000e+02 3.635282516479492188e+01 -6.077629566192626953e+00 1.211239814758300781e+00 1.038876101374626160e-01 3.945382535457611084e-01 8.631727695465087891e-01
3.040000000000000000e+02 3.555455017089843750e+01 -6.149827480316162109e+00 2.744442224502563477e+00 -4.786842316389083862e-02 8.089721798896789551e-01 9.633725285530090332e-01
3.050000000000000000e+02 3.570531845092773438e+01 -5.960258483886718750e+00 3.128277778625488281e+00 9.729208052158355713e-02 9.676709771156311035e-01 1.568444371223449707e+00
3.060000000000000000e+02 3.606402587890625000e+01 -7.879491329193115234e+00 2.384227991104125977e+00 9.095719456672668457e-01 9.881399869918823242e-01 -1.560610890388488770e+00
3.070000000000000000e+02 3.595472717285156250e+01 -7.496621131896972656e+00 2.283335685729980469e+00 5.172822475433349609e-01 8.401853442192077637e-01 -1.112501978874206543e+00
3.080000000000000000e+02 3.563597106933593750e+01 -7.611434936523437500e+00 2.881006956100463867e+00 1.049922943115234375e+00 1.179278969764709473e+00 -1.786481142044067383e+00
3.090000000000000000e+02 3.525353622436523438e+01 -7.560461997985839844e+00 3.435687780380249023e+00 1.809574842453002930e+00 1.573578834533691406e+00 -2.459958553314208984e+00
3.100000000000000000e+02 3.579352951049804688e+01 -7.157864570617675781e+00 2.099084854125976562e+00 3.092236220836639404e-01 7.224925160408020020e-01 -7.741666436195373535e-01
3.110000000000000000e+02 3.492361068725585938e+01 -7.415802478790283203e+00 4.205193519592285156e+00 2.753344297409057617e+00 2.087561368942260742e+00 -3.203861474990844727e+00
3.120000000000000000e+02 3.486277008056640625e+01 -7.615313529968261719e+00 3.914211750030517578e+00 3.715969562530517578e+00 2.289054393768310547e+00 -3.676070213317871094e+00
3.130000000000000000e+02 3.573289871215820312e+01 -6.144587039947509766e+00 2.356801033020019531e+00 -8.965368568897247314e-02 6.801441907882690430e-01 9.221671819686889648e-01
3.140000000000000000e+02 3.547736740112304688e+01 -5.600820064544677734e+00 4.284004688262939453e+00 9.789598584175109863e-01 1.578889369964599609e+00 3.219290256500244141e+00
3.150000000000000000e+02 3.562128067016601562e+01 -5.502054214477539062e+00 3.758396625518798828e+00 9.026705622673034668e-01 1.398320198059082031e+00 3.160621643066406250e+00
3.160000000000000000e+02 3.549336624145507812e+01 -5.790223598480224609e+00 4.059303283691406250e+00 5.800195336341857910e-01 1.391796827316284180e+00 2.581441402435302734e+00
3.170000000000000000e+02 3.650327682495117188e+01 -7.665355205535888672e+00 1.829899191856384277e+00 3.764270246028900146e-01 6.618978977203369141e-01 -8.962821960449218750e-01
3.180000000000000000e+02 3.506357955932617188e+01 -7.223317146301269531e+00 4.025857448577880859e+00 1.477657318115234375e+00 1.651054382324218750e+00 -2.337052106857299805e+00
3.190000000000000000e+02 3.554895019531250000e+01 -7.370631694793701172e+00 2.926372766494750977e+00 8.584354519844055176e-01 1.135442495346069336e+00 -1.523883938789367676e+00
3.200000000000000000e+02 3.514417266845703125e+01 -7.700439929962158203e+00 3.543570518493652344e+00 2.383677244186401367e+00 1.778174400329589844e+00 -2.862237215042114258e+00
3.210000000000000000e+02 3.554059600830078125e+01 -5.986071109771728516e+00 3.619975090026855469e+00 7.351096719503402710e-02 1.108045816421508789e+00 1.613609790802001953e+00
3.220000000000000000e+02 3.705469512939453125e+01 -7.322479248046875000e+00 1.049495577812194824e+00 1.294672191143035889e-01 3.536888659000396729e-01 -3.176731467247009277e-01
3.230000000000000000e+02 3.744648361206054688e+01 -7.359354972839355469e+00 6.692996621131896973e-01 2.218818664550781250e-02 2.074463516473770142e-01 -2.318898737430572510e-01
3.240000000000000000e+02 3.869844055175781250e+01 -7.990561008453369141e+00 4.668425917625427246e-01 1.164521053433418274e-01 1.749884039163589478e-01 -2.899906635284423828e-01
3.250000000000000000e+02 3.728429794311523438e+01 -7.633836746215820312e+00 9.638495445251464844e-01 1.586591005325317383e-01 3.367525935173034668e-01 -4.777586758136749268e-01
3.260000000000000000e+02 3.697002792358398438e+01 -7.709926605224609375e+00 1.367689609527587891e+00 2.929422259330749512e-01 4.981895685195922852e-01 -7.243002057075500488e-01
3.270000000000000000e+02 3.863082885742187500e+01 -8.472277641296386719e+00 6.917719841003417969e-01 2.317963540554046631e-01 2.770704925060272217e-01 -5.087662935256958008e-01
3.280000000000000000e+02 3.695631790161132812e+01 -8.136497497558593750e+00 1.600656270980834961e+00 4.211459159851074219e-01 6.065406799316406250e-01 -1.035098910331726074e+00
3.290000000000000000e+02 3.700003814697265625e+01 -8.364221572875976562e+00 1.535452365875244141e+00 5.956128239631652832e-01 6.393195390701293945e-01 -1.172580361366271973e+00
3.300000000000000000e+02 3.938404464721679688e+01 -8.575129508972167969e+00 4.430812299251556396e-01 1.893645226955413818e-01 1.897337287664413452e-01 -3.414596617221832275e-01
3.310000000000000000e+02 3.801957702636718750e+01 -7.399039268493652344e+00 3.900654017925262451e-01 4.586826264858245850e-02 1.307801008224487305e-01 -1.515112519264221191e-01
3.320000000000000000e+02 3.790369415283203125e+01 -8.371938705444335938e+00 1.001479506492614746e+00 3.550423085689544678e-01 4.069565236568450928e-01 -7.286500930786132812e-01
3.330000000000000000e+02 3.949522399902343750e+01 -7.593305587768554688e+00 -5.160565022379159927e-03 1.381355058401823044e-02 2.595895668491721153e-03 -5.184171721339225769e-02
3.340000000000000000e+02 3.944052886962890625e+01 -8.087194442749023438e+00 2.625752389430999756e-01 7.329916208982467651e-02 1.007623225450515747e-01 -1.877739876508712769e-01
3.350000000000000000e+02 3.718386459350585938e+01 -7.122464179992675781e+00 6.004937887191772461e-01 4.820148274302482605e-02 1.946085840463638306e-01 -1.386976540088653564e-01
3.360000000000000000e+02 3.699693298339843750e+01 -7.518882751464843750e+00 1.085556030273437500e+00 1.603245288133621216e-01 3.737641870975494385e-01 -4.449039995670318604e-01
3.370000000000000000e+02 3.736476135253906250e+01 -8.238682746887207031e+00 1.281888842582702637e+00 4.552347064018249512e-01 5.211370587348937988e-01 -8.839550614356994629e-01
3.380000000000000000e+02 3.799070739746093750e+01 -7.906697750091552734e+00 7.798568606376647949e-01 1.410336345434188843e-01 2.762671411037445068e-01 -4.108468294143676758e-01
3.390000000000000000e+02 3.875326156616210938e+01 -7.491044521331787109e+00 1.642345339059829712e-01 3.316643461585044861e-02 5.922029167413711548e-02 -8.864615112543106079e-02
3.400000000000000000e+02 3.697967147827148438e+01 -7.919130325317382812e+00 1.523001432418823242e+00 3.599687516689300537e-01 5.648910403251647949e-01 -8.914218544960021973e-01
3.410000000000000000e+02 3.742057800292968750e+01 -7.899619102478027344e+00 1.088321208953857422e+00 2.621268332004547119e-01 4.051344096660614014e-01 -6.152155995368957520e-01
3.420000000000000000e+02 4.019058609008789062e+01 -8.178953170776367188e+00 1.163273304700851440e-01 8.904612064361572266e-02 6.161203607916831970e-02 -8.098278194665908813e-02
3.430000000000000000e+02 4.010591506958007812e+01 -8.657554626464843750e+00 2.573338150978088379e-01 1.689997017383575439e-01 1.279000490903854370e-01 -2.089193165302276611e-01
3.440000000000000000e+02 4.118516159057617188e+01 -7.806575775146484375e+00 -4.171067848801612854e-02 -4.362668842077255249e-03 -1.382200419902801514e-02 2.634777687489986420e-02
3.450000000000000000e+02 4.031767272949218750e+01 -7.686048507690429688e+00 -8.872368186712265015e-02 2.131058089435100555e-02 -2.022393047809600830e-02 1.782854436896741390e-03
3.460000000000000000e+02 4.171619796752929688e+01 -8.451806068420410156e+00 -4.322187975049018860e-03 -9.919067472219467163e-02 -3.105385787785053253e-02 4.411220178008079529e-02
3.470000000000000000e+02 4.075194549560546875e+01 -8.727847099304199219e+00 1.146182194352149963e-01 1.646354645490646362e-01 8.377610892057418823e-02 -1.100879386067390442e-01
3.480000000000000000e+02 4.130823898315429688e+01 -8.695766448974609375e+00 -1.081471517682075500e-02 2.786326594650745392e-02 5.114565603435039520e-03 3.361645713448524475e-02
3.490000000000000000e+02 4.086867523193359375e+01 -8.311434745788574219e+00 2.493591234087944031e-02 3.677025064826011658e-02 1.851184852421283722e-02 1.209774706512689590e-02
3.500000000000000000e+02 4.136654663085937500e+01 -6.368330001831054688e+00 -1.692367941141128540e-01 -1.867920458316802979e-01 -1.068086549639701843e-01 -2.279779911041259766e-01
3.510000000000000000e+02 4.130027008056640625e+01 -7.105504035949707031e+00 -7.760833948850631714e-02 -2.532080048695206642e-03 -2.404212579131126404e-02 -6.065862253308296204e-02
3.520000000000000000e+02 4.048490142822265625e+01 -6.293570041656494141e+00 -3.378343284130096436e-01 3.696798160672187805e-02 -9.025990217924118042e-02 -2.939949333667755127e-01
3.530000000000000000e+02 4.041038513183593750e+01 -7.030169010162353516e+00 -3.258519172668457031e-01 -1.225156150758266449e-02 -1.014310419559478760e-01 -9.507571160793304443e-02
3.540000000000000000e+02 4.190933990478515625e+01 -6.585752010345458984e+00 1.088252570480108261e-02 -6.695549190044403076e-02 -1.682188920676708221e-02 -4.866329487413167953e-03
3.550000000000000000e+02 4.177827835083007812e+01 -4.328716754913330078e+00 -4.058737158775329590e-01 -5.865028500556945801e-01 -2.977129817008972168e-01 -5.743563771247863770e-01
3.560000000000000000e+02 4.048931121826171875e+01 -5.492231845855712891e+00 -4.037003219127655029e-01 1.041267141699790955e-01 -8.987208455801010132e-02 -3.589539527893066406e-01
3.570000000000000000e+02 4.005665206909179688e+01 -3.651522159576416016e+00 -1.055915236473083496e+00 8.648844361305236816e-01 -5.730926245450973511e-02 -4.819525182247161865e-01
3.580000000000000000e+02 3.636705398559570312e+01 -5.103857994079589844e+00 1.853749632835388184e+00 1.184206962585449219e+00 9.113869667053222656e-01 2.634228706359863281e+00
3.590000000000000000e+02 3.697901916503906250e+01 -5.239875316619873047e+00 9.198244214057922363e-01 8.107463717460632324e-01 5.191712379455566406e-01 1.543552637100219727e+00
3.600000000000000000e+02 4.321288681030273438e+01 -1.112478017807006836e+00 -2.598143577575683594e+00 -3.994850635528564453e+00 -1.977898240089416504e+00 -3.117827653884887695e+00
3.610000000000000000e+02 4.445587539672851562e+01 1.367441415786743164e+00 -6.229048728942871094e+00 -2.810910463333129883e+00 -2.711987733840942383e+00 -2.366078853607177734e+00
3.620000000000000000e+02 3.957771301269531250e+01 6.715719699859619141e+00 2.401255846023559570e+00 1.117777824401855469e+01 4.073709964752197266e+00 4.749630928039550781e+00
3.630000000000000000e+02 4.220225524902343750e+01 1.219582653045654297e+01 8.182614445686340332e-01 5.936831951141357422e+00 2.026528120040893555e+00 1.842636704444885254e+00
3.640000000000000000e+02 4.165822982788085938e+01 1.799813461303710938e+01 1.075287982821464539e-01 5.044453144073486328e+00 1.545594573020935059e+00 2.962170243263244629e-01
3.650000000000000000e+02 4.168851852416992188e+01 2.656170272827148438e+01 8.367963880300521851e-02 4.233977317810058594e+00 1.295297026634216309e+00 -1.637415885925292969e-01
3.660000000000000000e+02 4.155104446411132812e+01 2.801306533813476562e+01 3.534720242023468018e-01 4.556092739105224609e+00 1.472869396209716797e+00 -5.502989888191223145e-01
3.670000000000000000e+02 4.703736495971679688e+01 1.412843346595764160e+00 -9.223371505737304688e+00 -8.755671977996826172e-01 -3.029681444168090820e+00 -6.991621851921081543e-01
3.680000000000000000e+02 4.571341323852539062e+01 1.319755554199218750e+00 -9.651635169982910156e+00 -2.854062080383300781e+00 -3.751709222793579102e+00 -3.098380804061889648e+00
3.690000000000000000e+02 4.849816513061523438e+01 1.226886630058288574e+00 -5.798049449920654297e+00 -3.210419714450836182e-01 -1.835727453231811523e+00 4.929983019828796387e-01
3.700000000000000000e+02 5.082585144042968750e+01 2.269369363784790039e+00 -3.239541769027709961e+00 1.283431649208068848e-01 -9.333595633506774902e-01 -5.693917870521545410e-01
3.710000000000000000e+02 5.122469711303710938e+01 1.776402145624160767e-01 -2.675480365753173828e+00 -9.600360691547393799e-02 -8.314451575279235840e-01 5.706264972686767578e-01
3.720000000000000000e+02 5.514416122436523438e+01 -8.289695382118225098e-01 -2.103173971176147461e+00 -6.826770026236772537e-03 -6.330001950263977051e-01 2.027872949838638306e-01
3.730000000000000000e+02 6.047330093383789062e+01 -2.169059514999389648e+00 -9.828121662139892578e-01 -7.855424284934997559e-02 -3.184099197387695312e-01 2.690665125846862793e-01
3.740000000000000000e+02 6.415025329589843750e+01 -4.383644580841064453e+00 -1.519366800785064697e-01 -1.564548350870609283e-02 -5.027464777231216431e-02 5.668304488062858582e-02
3.750000000000000000e+02 6.500377655029296875e+01 -5.584686756134033203e+00 -4.434261471033096313e-02 2.600867673754692078e-02 -5.500182043761014938e-03 1.604313403367996216e-02
3.760000000000000000e+02 7.092372131347656250e+01 -1.193021678924560547e+01 1.371760293841362000e-02 -3.262725658714771271e-03 3.136462997645139694e-03 -4.821448121219873428e-03
3.770000000000000000e+02 7.480007934570312500e+01 -1.159981441497802734e+01 1.094850338995456696e-02 -2.885989844799041748e-03 2.418753923848271370e-03 7.150462828576564789e-03
3.780000000000000000e+02 7.615674591064453125e+01 -1.151331233978271484e+01 9.304668754339218140e-03 -2.853297473848215304e-06 2.790544647723436356e-03 8.701891638338565826e-03
3.790000000000000000e+02 7.724800872802734375e+01 -4.376390457153320312e+00 -1.219576969742774963e-02 -4.619948100298643112e-03 -5.044715479016304016e-03 -7.884882390499114990e-03
3.800000000000000000e+02 7.557429504394531250e+01 3.801564931869506836e+00 -5.432585999369621277e-02 -1.734070330858230591e-01 -6.831987202167510986e-02 -1.847522854804992676e-01
3.810000000000000000e+02 7.807352447509765625e+01 1.095806312561035156e+01 -5.498937680386006832e-04 -5.751402974128723145e-01 -1.727070659399032593e-01 -1.378304362297058105e-01
3.820000000000000000e+02 7.806106567382812500e+01 1.785075950622558594e+01 7.321484386920928955e-03 -9.965052604675292969e-01 -2.967551350593566895e-01 -1.146787106990814209e-01
3.830000000000000000e+02 7.784582519531250000e+01 2.761863899230957031e+01 9.335671551525592804e-03 -1.336223006248474121e+00 -3.980661928653717041e-01 -4.783292859792709351e-02
3.840000000000000000e+02 7.751918792724609375e+01 3.741091918945312500e+01 1.723177544772624969e-02 -1.374232053756713867e+00 -4.071001112461090088e-01 2.431847527623176575e-02
3.850000000000000000e+02 7.941310882568359375e+01 3.741011428833007812e+01 1.863155327737331390e-02 -1.551582098007202148e+00 -4.598851799964904785e-01 1.652837172150611877e-02
3.860000000000000000e+02 7.047104644775390625e+01 3.809490585327148438e+01 1.839747652411460876e-02 -5.499702692031860352e-01 -1.594718247652053833e-01 -9.255222976207733154e-03
3.870000000000000000e+02 7.285610961914062500e+01 3.016059112548828125e+01 6.781479716300964355e-02 -7.806750535964965820e-01 -2.138580679893493652e-01 -8.617172390222549438e-02
3.880000000000000000e+02 7.271387481689453125e+01 2.265259361267089844e+01 9.541516005992889404e-02 -7.152839899063110352e-01 -1.859606504440307617e-01 -2.201903015375137329e-01
3.890000000000000000e+02 7.269229125976562500e+01 1.869025993347167969e+01 8.934104442596435547e-02 -6.374675631523132324e-01 -1.644379645586013794e-01 -3.108831644058227539e-01
3.900000000000000000e+02 7.268670654296875000e+01 1.058143997192382812e+01 -1.852248050272464752e-02 -3.719577789306640625e-01 -1.171440705657005310e-01 -4.070962369441986084e-01
3.910000000000000000e+02 6.949166107177734375e+01 3.789567232131958008e+00 -2.491298019886016846e-01 -5.847440659999847412e-02 -9.228125959634780884e-02 -3.686595559120178223e-01
3.920000000000000000e+02 6.598900604248046875e+01 -5.283137321472167969e+00 -9.485076367855072021e-02 2.146530523896217346e-02 -2.201563864946365356e-02 2.808571606874465942e-02
3.930000000000000000e+02 6.631254577636718750e+01 -3.881014585494995117e+00 -2.134235203266143799e-01 2.762246318161487579e-02 -5.574031546711921692e-02 1.587134227156639099e-02
3.940000000000000000e+02 7.944142913818359375e+01 -2.790912151336669922e+00 -1.860347576439380646e-03 3.123452328145503998e-02 8.812252432107925415e-03 -4.267898388206958771e-03
3.950000000000000000e+02 5.250390243530273438e+01 -2.890484929084777832e-01 -2.164829969406127930e+00 5.834702402353286743e-02 -6.319448351860046387e-01 3.867103457450866699e-01
3.960000000000000000e+02 5.381316757202148438e+01 -5.943033099174499512e-01 -2.135272741317749023e+00 -2.297237329185009003e-02 -6.474735736846923828e-01 2.123838812112808228e-01
3.970000000000000000e+02 6.552703857421875000e+01 -6.906507015228271484e+00 1.403580303303897381e-03 4.732194542884826660e-02 1.461765822023153305e-02 -2.041997388005256653e-02
3.980000000000000000e+02 6.604557037353515625e+01 -8.131142616271972656e+00 1.072051003575325012e-02 4.484659805893898010e-02 1.667013205587863922e-02 -1.788726262748241425e-02
3.990000000000000000e+02 6.721762084960937500e+01 -1.033924293518066406e+01 1.154579967260360718e-02 2.446060627698898315e-02 1.080192159861326218e-02 -1.252141222357749939e-02
4.000000000000000000e+02 7.751908111572265625e+01 -1.141432762145996094e+01 5.137523170560598373e-03 2.306596376001834869e-03 2.233235863968729973e-03 8.649989962577819824e-03
4.010000000000000000e+02 7.893855285644531250e+01 -1.129490089416503906e+01 1.100719673559069633e-03 4.165325779467821121e-03 1.579813542775809765e-03 4.846969153732061386e-03
4.020000000000000000e+02 5.782932662963867188e+01 4.072964477539062500e+01 -9.368119388818740845e-02 1.005221486091613770e+00 2.734620869159698486e-01 4.265256226062774658e-02
4.030000000000000000e+02 6.262068939208984375e+01 4.105133056640625000e+01 -1.066986937075853348e-02 3.898356258869171143e-01 1.137497201561927795e-01 4.782627336680889130e-03
4.040000000000000000e+02 6.291336441040039062e+01 2.889399337768554688e+01 2.503543496131896973e-01 1.787181347608566284e-01 1.287217438220977783e-01 -4.873863421380519867e-03
4.050000000000000000e+02 6.573393249511718750e+01 2.358782005310058594e+01 2.908508777618408203e-01 -1.729214936494827271e-01 3.537881374359130859e-02 -1.925722956657409668e-01
4.060000000000000000e+02 6.639399719238281250e+01 1.941310882568359375e+01 2.804111838340759277e-01 -2.565249800682067871e-01 7.165857125073671341e-03 -3.561607897281646729e-01
4.070000000000000000e+02 6.582625579833984375e+01 1.441212463378906250e+01 1.750126779079437256e-01 -2.274481058120727539e-01 -1.573062688112258911e-02 -5.299230217933654785e-01
4.080000000000000000e+02 6.027980041503906250e+01 1.237030506134033203e+00 -1.030518531799316406e+00 6.765288859605789185e-02 -2.888596951961517334e-01 -2.927770018577575684e-01
4.090000000000000000e+02 6.156808090209960938e+01 8.901232481002807617e-01 -9.123477935791015625e-01 8.099673688411712646e-02 -2.494053095579147339e-01 -2.808265984058380127e-01
4.100000000000000000e+02 5.404500961303710938e+01 2.818032073974609375e+01 4.007935225963592529e-01 1.279238700866699219e+00 5.040096640586853027e-01 2.334669679403305054e-01
4.110000000000000000e+02 5.637028503417968750e+01 2.193327140808105469e+01 6.525410413742065430e-01 6.887434124946594238e-01 4.023853242397308350e-01 5.645903199911117554e-02
4.120000000000000000e+02 5.330266952514648438e+01 1.723032379150390625e+01 9.133151769638061523e-01 8.037399649620056152e-01 5.151165723800659180e-01 1.199995726346969604e-01
4.130000000000000000e+02 5.897014617919921875e+01 6.661676406860351562e+00 -4.544958770275115967e-01 2.210668474435806274e-02 -1.297167539596557617e-01 -7.706736922264099121e-01
4.140000000000000000e+02 5.567581176757812500e+01 2.922236919403076172e-01 -1.845822811126708984e+00 -1.772379130125045776e-02 -5.590639710426330566e-01 1.195237785577774048e-02
4.150000000000000000e+02 5.745038223266601562e+01 9.560093283653259277e-01 -1.479100704193115234e+00 1.267078146338462830e-02 -4.399289786815643311e-01 -1.903489679098129272e-01
4.160000000000000000e+02 5.287392044067382812e+01 4.073678207397460938e+01 -2.227235734462738037e-01 1.523995637893676758e+00 3.903816044330596924e-01 5.804584175348281860e-02
4.170000000000000000e+02 4.874656677246093750e+01 3.820266342163085938e+01 -2.936719059944152832e-01 1.908432960510253906e+00 4.844283461570739746e-01 1.232143566012382507e-01
4.180000000000000000e+02 5.203882217407226562e+01 3.429477691650390625e+01 2.228339761495590210e-02 1.596095919609069824e+00 4.855138063430786133e-01 2.491126656532287598e-01
4.190000000000000000e+02 4.939443969726562500e+01 2.674407577514648438e+01 4.612503945827484131e-01 1.996404051780700684e+00 7.372963428497314453e-01 2.533619999885559082e-01
4.200000000000000000e+02 4.702464294433593750e+01 1.754829978942871094e+01 8.276051282882690430e-01 2.628226995468139648e+00 1.036749601364135742e+00 7.864636182785034180e-01
4.210000000000000000e+02 4.926480865478515625e+01 1.163299942016601562e+01 1.326801657676696777e+00 6.393353343009948730e-01 5.898411273956298828e-01 2.986070513725280762e-01
4.220000000000000000e+02 4.757340621948242188e+01 1.067467784881591797e+01 1.570012927055358887e+00 9.689941406250000000e-01 7.617021203041076660e-01 6.869828701019287109e-01
4.230000000000000000e+02 3.891283035278320312e+01 4.096405029296875000e+01 -2.032949626445770264e-01 1.195198535919189453e+00 2.975710630416870117e-01 -8.776123821735382080e-02
4.240000000000000000e+02 3.904146194458007812e+01 3.324164199829101562e+01 6.307533383369445801e-01 1.397234678268432617e+00 6.083964109420776367e-01 -9.080179929733276367e-01
4.250000000000000000e+02 4.064260864257812500e+01 3.077656936645507812e+01 5.381832122802734375e-01 3.210572004318237305e+00 1.124626636505126953e+00 -1.169931769371032715e+00
4.260000000000000000e+02 4.118135833740234375e+01 2.942104530334472656e+01 4.503494501113891602e-01 4.016198635101318359e+00 1.339964389801025391e+00 -1.009082913398742676e+00
4.270000000000000000e+02 4.226753616333007812e+01 2.980384635925292969e+01 4.403012990951538086e-01 3.408558607101440430e+00 1.154657959938049316e+00 -4.235313236713409424e-01
4.280000000000000000e+02 3.798805999755859375e+01 3.798907852172851562e+01 -1.011757776141166687e-01 1.066874265670776367e+00 2.897095382213592529e-01 -2.654874026775360107e-01
4.290000000000000000e+02 3.550360870361328125e+01 3.587066268920898438e+01 3.277955809608101845e-03 1.136296391487121582e-01 3.507227823138237000e-02 -9.003457427024841309e-02
4.300000000000000000e+02 4.909464836120605469e+00 3.916030502319335938e+01 2.673806156963109970e-04 -3.139889158774167299e-04 -1.398249060002854094e-05 6.821064016548916698e-05
4.310000000000000000e+02 1.986230015754699707e+00 4.168806076049804688e+01 -1.027228718157857656e-04 4.923099768348038197e-04 1.168761373264715075e-04 -3.334752182126976550e-05
4.320000000000000000e+02 1.028408145904541016e+01 3.985740661621093750e+01 -6.381318671628832817e-04 9.231808362528681755e-04 8.551469363737851381e-05 1.023270087898708880e-04
4.330000000000000000e+02 1.015943336486816406e+01 3.645682907104492188e+01 -2.991393848787993193e-04 -6.696698983432725072e-05 -1.098319116863422096e-04 3.716761129908263683e-04
4.340000000000000000e+02 6.674614906311035156e+00 3.135148620605468750e+01 -1.191774790640920401e-04 -6.369960465235635638e-05 -5.486312511493451893e-05 -2.576653059804812074e-05
4.350000000000000000e+02 1.642410087585449219e+01 2.801150703430175781e+01 8.902112022042274475e-04 1.415264414390549064e-04 3.095213032793253660e-04 -1.123160018323687837e-05
4.360000000000000000e+02 1.696958732604980469e+01 2.929451179504394531e+01 -8.563932497054338455e-04 2.186033088946714997e-04 -1.913369778776541352e-04 3.629701095633208752e-04
4.370000000000000000e+02 1.673247528076171875e+01 3.233879470825195312e+01 1.521063037216663361e-03 -2.695760049391537905e-04 3.754461067728698254e-04 1.818391319829970598e-04
4.380000000000000000e+02 1.996345710754394531e+01 3.417240905761718750e+01 -4.270560748409479856e-04 3.157434694003313780e-04 -3.339378235978074372e-05 1.874567475169897079e-03
4.390000000000000000e+02 2.111840057373046875e+01 3.510926055908203125e+01 4.066955763846635818e-03 1.740426989272236824e-03 1.742214779369533062e-03 -8.486793958581984043e-04
4.400000000000000000e+02 2.286050605773925781e+01 3.842931747436523438e+01 -4.034316632896661758e-03 3.967517055571079254e-03 -2.003978624998126179e-05 4.763370379805564880e-03
4.410000000000000000e+02 1.971286010742187500e+01 3.642615127563476562e+01 -1.593233086168766022e-03 6.352463387884199619e-04 -2.873960183933377266e-04 9.844911983236670494e-04
4.420000000000000000e+02 1.764142036437988281e+01 3.907057571411132812e+01 3.962998744100332260e-04 2.113200171152129769e-04 1.822859630919992924e-04 -6.176373426569625735e-05
4.430000000000000000e+02 7.126176953315734863e-01 3.454967498779296875e+01 2.399964869255200028e-04 2.358143538003787398e-04 1.427432580385357141e-04 -7.698326226091012359e-05
4.440000000000000000e+02 1.862292289733886719e+00 3.009169387817382812e+01 2.195616543758660555e-04 6.853755621705204248e-05 8.642976899864152074e-05 -7.413525599986314774e-05
4.450000000000000000e+02 1.373112106323242188e+01 2.724303245544433594e+01 -2.794172032736241817e-04 -9.941741882357746363e-05 -1.136503924499265850e-04 2.910287548729684204e-05
4.460000000000000000e+02 1.522427749633789062e+01 2.254923439025878906e+01 3.615458554122596979e-04 -8.440266356046777219e-06 1.059316782630048692e-04 5.329766850081796292e-07
4.470000000000000000e+02 1.553579807281494141e+01 2.535470390319824219e+01 5.173654644750058651e-04 2.818959728756453842e-05 1.636665110709145665e-04 -2.194039370806422085e-05
4.480000000000000000e+02 1.592842960357666016e+01 2.670598220825195312e+01 -6.047445349395275116e-04 5.787313057226128876e-05 -1.640614354982972145e-04 1.160031388280913234e-04
4.490000000000000000e+02 6.211988329887390137e-01 2.754295730590820312e+01 -2.100889978464692831e-04 1.830581277317833155e-05 -5.753495497629046440e-05 2.938858051493298262e-05
4.500000000000000000e+02 1.857622265815734863e+00 2.590217399597167969e+01 -1.946159754879772663e-04 1.475089629821013659e-05 -5.395952393882907927e-05 1.473393967899028212e-05
4.510000000000000000e+02 1.323870277404785156e+01 1.624753570556640625e+01 1.748037466313689947e-04 -5.704098293790593743e-05 3.532883056323044002e-05 6.899620348121970892e-05
4.520000000000000000e+02 1.675395774841308594e+01 1.281789875030517578e+01 -2.817182103171944618e-04 -3.503082916722632945e-05 -9.502470493316650391e-05 -9.879883145913481712e-05
4.530000000000000000e+02 1.557717800140380859e+01 1.687440681457519531e+01 3.188661357853561640e-04 -1.408737898600520566e-05 9.143363422481343150e-05 5.391193553805351257e-05
4.540000000000000000e+02 1.634057044982910156e+01 1.415305519104003906e+01 2.986960462294518948e-04 2.685944491531699896e-05 9.766664152266457677e-05 9.655700705479830503e-05
4.550000000000000000e+02 6.141034960746765137e-01 2.047267150878906250e+01 1.817049924284219742e-04 -4.576775154419010505e-06 5.313846486387774348e-05 -2.882318585761822760e-05
4.560000000000000000e+02 1.777081251144409180e+00 1.605918693542480469e+01 1.831755507737398148e-04 -6.096193828852847219e-06 5.312380744726397097e-05 -3.191027644788846374e-05
4.570000000000000000e+02 7.855421066284179688e+00 8.227488517761230469e+00 -4.647868627216666937e-05 1.213379146065562963e-04 2.245776886411476880e-05 -3.846078834612853825e-05
4.580000000000000000e+02 1.932643318176269531e+01 6.424739360809326172e+00 2.277834573760628700e-04 3.037695569219067693e-05 7.744812319288030267e-05 7.068782724672928452e-05
4.590000000000000000e+02 1.720677757263183594e+01 1.149934959411621094e+01 2.667497901711612940e-04 3.680536974570713937e-05 9.106654761126264930e-05 9.775658691069111228e-05
4.600000000000000000e+02 5.804416537284851074e-01 1.484437847137451172e+01 1.620057591935619712e-04 -1.676118586146913003e-06 4.809888923773542047e-05 -2.406751627859193832e-05
4.610000000000000000e+02 1.459888100624084473e+00 9.199929237365722656e+00 -1.292967208428308368e-04 1.368023703207654762e-07 -3.874797403113916516e-05 2.003851477638818324e-05
4.620000000000000000e+02 8.569617271423339844e+00 2.571796178817749023e+00 -3.112231570412404835e-05 -5.915697329328395426e-05 -2.708378633542452008e-05 1.285540520257200114e-06
4.630000000000000000e+02 9.852155685424804688e+00 1.827314853668212891e+00 2.587208837212529033e-05 6.312911864370107651e-05 2.670036155905108899e-05 3.375942242200835608e-06
4.640000000000000000e+02 1.433364677429199219e+01 1.205930113792419434e+00 2.277746534673497081e-05 8.997459372039884329e-05 3.382561772014014423e-05 1.971152414625976235e-05
4.650000000000000000e+02 1.923430061340332031e+01 3.994695663452148438e+00 -1.432740828022360802e-04 -5.552786387852393091e-05 -5.964058436802588403e-05 -6.659732025582343340e-05
4.660000000000000000e+02 1.722346115112304688e+01 9.908426403999328613e-01 5.973103907308541238e-05 3.285008642706088722e-05 2.777433837763965130e-05 2.585215042927302420e-05
4.670000000000000000e+02 2.170870208740234375e+01 1.354640245437622070e+00 -8.368008820980321616e-06 -7.778168765071313828e-06 -4.843853275815490633e-06 8.678905032866168767e-06
4.680000000000000000e+02 1.442393183708190918e+00 3.825111627578735352e+00 -1.797205914044752717e-05 -6.083410698920488358e-05 -2.364185093028936535e-05 6.239450885914266109e-05
4.690000000000000000e+02 4.975008666515350342e-01 6.504002094268798828e+00 9.535919525660574436e-05 1.537289449515810702e-06 2.906894587795250118e-05 -2.358655137868481688e-06
4.700000000000000000e+02 2.391087150573730469e+01 3.673253250122070312e+01 -8.048721356317400932e-04 5.908344406634569168e-03 1.531041692942380905e-03 -2.692521316930651665e-03
4.710000000000000000e+02 2.973243141174316406e+01 3.723439025878906250e+01 -1.390124559402465820e-01 -1.675441116094589233e-02 -4.673006013035774231e-02 4.048370569944381714e-02
4.720000000000000000e+02 3.032459640502929688e+01 3.842523574829101562e+01 -3.531941398978233337e-02 1.395256724208593369e-02 -6.410054396837949753e-03 3.720643743872642517e-02
4.730000000000000000e+02 3.404530715942382812e+01 3.655377578735351562e+01 -7.274923473596572876e-02 4.849831014871597290e-02 -7.275277283042669296e-03 -2.199016883969306946e-02
4.740000000000000000e+02 3.763122940063476562e+01 3.594070434570312500e+01 4.817479848861694336e-02 7.934114933013916016e-01 2.524758875370025635e-01 -3.672869205474853516e-01
4.750000000000000000e+02 4.170909500122070312e+01 2.224842071533203125e+01 2.090575546026229858e-02 4.081190586090087891e+00 1.230628967285156250e+00 5.872948467731475830e-02
4.760000000000000000e+02 4.146116256713867188e+01 1.515754795074462891e+01 2.423961460590362549e-01 6.081735610961914062e+00 1.897239446640014648e+00 8.381612896919250488e-01
4.770000000000000000e+02 4.007377243041992188e+01 8.114366531372070312e+00 1.664405226707458496e+00 1.045233249664306641e+01 3.635021448135375977e+00 3.766782760620117188e+00
4.780000000000000000e+02 4.394193267822265625e+01 1.748019456863403320e-02 -6.060881614685058594e+00 -4.181736946105957031e+00 -3.072785615921020508e+00 -4.102126121520996094e+00
4.790000000000000000e+02 3.823426437377929688e+01 4.136911392211914062e+00 3.467337369918823242e+00 1.039369392395019531e+01 4.158309459686279297e+00 5.759623050689697266e+00
4.800000000000000000e+02 3.539946365356445312e+01 7.914885282516479492e-01 1.145747184753417969e+00 3.865356922149658203e+00 1.503331184387207031e+00 2.571347475051879883e+00
4.810000000000000000e+02 3.184852600097656250e+01 -1.309486031532287598e+00 -9.701863288879394531e+00 -1.139752626419067383e+00 -3.252484798431396484e+00 -2.913678884506225586e+00
4.820000000000000000e+02 3.393578338623046875e+01 -4.633193016052246094e+00 6.600649952888488770e-01 1.009582328796386719e+01 3.226766586303710938e+00 3.964554548263549805e+00
4.830000000000000000e+02 3.437907409667968750e+01 -4.682157039642333984e+00 1.544758319854736328e+00 8.586779594421386719e+00 3.039461374282836914e+00 5.963320732116699219e+00
4.840000000000000000e+02 3.338529968261718750e+01 -3.406809091567993164e+00 -2.276801109313964844e+00 6.674123287200927734e+00 1.319196581840515137e+00 2.289759159088134766e+00
4.850000000000000000e+02 3.212852096557617188e+01 -5.006190299987792969e+00 4.564435482025146484e+00 5.522963523864746094e+00 3.026219606399536133e+00 -1.212422847747802734e+00
4.860000000000000000e+02 3.138074684143066406e+01 -5.253043174743652344e+00 5.025584697723388672e+00 2.326184988021850586e+00 2.205530881881713867e+00 -9.910042881965637207e-01
4.870000000000000000e+02 3.193714714050292969e+01 -6.406432628631591797e+00 8.590324401855468750e+00 4.518358230590820312e+00 3.932604789733886719e+00 1.264124751091003418e+00
4.880000000000000000e+02 3.173229789733886719e+01 -7.198246479034423828e+00 6.871450901031494141e+00 4.643254280090332031e+00 3.454411745071411133e+00 2.613012313842773438e+00
4.890000000000000000e+02 2.615484809875488281e+01 -2.823810577392578125e+00 -2.276063919067382812e+00 -3.608071208000183105e-01 -7.910613417625427246e-01 -1.195252418518066406e+00
4.900000000000000000e+02 2.380733489990234375e+01 -2.985694169998168945e+00 -9.367352128028869629e-01 2.600121498107910156e-02 -2.732202112674713135e-01 -5.820638537406921387e-01
4.910000000000000000e+02 2.362175559997558594e+01 -2.151474237442016602e+00 -1.022001147270202637e+00 1.209015250205993652e-01 -2.703298628330230713e-01 -2.878157496452331543e-01
4.920000000000000000e+02 2.447290039062500000e+01 -1.943138957023620605e+00 -1.236144065856933594e+00 9.962183237075805664e-02 -3.409566879272460938e-01 -2.000562101602554321e-01
4.930000000000000000e+02 2.109008789062500000e+01 -2.621005058288574219e+00 -4.761565625667572021e-01 -7.645051926374435425e-02 -1.657821238040924072e-01 -2.183826267719268799e-01
4.940000000000000000e+02 1.784672546386718750e+01 -2.782272338867187500e+00 -3.034624755382537842e-01 -6.570438295602798462e-02 -1.107500568032264709e-01 -7.295285910367965698e-02
4.950000000000000000e+02 1.625235176086425781e+01 -2.713051795959472656e+00 -2.736863791942596436e-01 -3.784479573369026184e-02 -9.345935285091400146e-02 -1.761709526181221008e-02
4.960000000000000000e+02 1.469306564331054688e+01 -2.560403585433959961e+00 -2.582432925701141357e-01 -1.808178797364234924e-02 -8.289752155542373657e-02 6.634282879531383514e-03
4.970000000000000000e+02 1.392497825622558594e+01 -2.467358112335205078e+00 -2.545956075191497803e-01 -1.923499745316803455e-03 -7.695572823286056519e-02 1.374129299074411392e-02
4.980000000000000000e+02 1.096131515502929688e+01 -2.067178249359130859e+00 -2.305105179548263550e-01 2.550685405731201172e-02 -6.150110065937042236e-02 -6.748175714164972305e-03
4.990000000000000000e+02 3.712205648422241211e+00 -1.989611983299255371e+00 -6.465448439121246338e-02 -1.306236349046230316e-02 -2.331505343317985535e-02 -6.357185542583465576e-02
5.000000000000000000e+02 5.714874863624572754e-01 -1.061343860626220703e+01 -4.592708777636289597e-03 -5.756322145462036133e-01 -1.740674823522567749e-01 -6.091734766960144043e-02
5.010000000000000000e+02 1.718792796134948730e+00 -1.047392463684082031e+01 -4.712276626378297806e-03 -3.886055350303649902e-01 -1.179953441023826599e-01 -1.553501039743423462e-01
5.020000000000000000e+02 7.530667304992675781e+00 -1.832731819152832031e+01 7.864017486572265625e-01 1.697659850120544434e+00 7.452185153961181641e-01 1.032836914062500000e+00
5.030000000000000000e+02 6.450366377830505371e-01 -1.768129158020019531e+01 2.377860434353351593e-02 -1.170079708099365234e+00 -3.438903391361236572e-01 -3.718123538419604301e-03
5.040000000000000000e+02 8.280708312988281250e+00 -1.727423095703125000e+01 1.289359450340270996e+00 1.163487195968627930e+00 7.358540296554565430e-01 9.390472173690795898e-01
5.050000000000000000e+02 1.140481376647949219e+01 -1.491587924957275391e+01 8.399173617362976074e-01 2.989883720874786377e-01 3.416717350482940674e-01 3.349933624267578125e-01
5.060000000000000000e+02 1.557473278045654297e+01 -1.685404396057128906e+01 2.766432464122772217e-01 -1.647293753921985626e-02 7.805109024047851562e-02 -8.574408479034900665e-03
5.070000000000000000e+02 1.681312561035156250e+01 -1.742324829101562500e+01 8.251126855611801147e-02 -4.547296836972236633e-02 1.111149042844772339e-02 3.364637866616249084e-02
5.080000000000000000e+02 2.457221412658691406e+01 -1.855153083801269531e+01 -9.923619031906127930e-01 2.728221192955970764e-02 -2.895238995552062988e-01 3.261734545230865479e-02
5.090000000000000000e+02 2.591041946411132812e+01 -1.723009490966796875e+01 -1.267783284187316895e+00 6.589980423450469971e-02 -3.605650365352630615e-01 4.371971487998962402e-01
5.100000000000000000e+02 3.055105209350585938e+01 -1.727433395385742188e+01 -3.462661504745483398e+00 -2.683948874473571777e-01 -1.119316935539245605e+00 6.614917516708374023e-02
5.110000000000000000e+02 3.289524841308593750e+01 -1.818202209472656250e+01 -2.364079713821411133e+00 4.374736845493316650e-01 -5.779818296432495117e-01 1.369347423315048218e-01
5.120000000000000000e+02 3.405707168579101562e+01 -1.894789505004882812e+01 -3.404248654842376709e-01 1.810658574104309082e+00 4.410701096057891846e-01 -8.871896266937255859e-01
5.130000000000000000e+02 3.549180603027343750e+01 -2.193414688110351562e+01 3.153825998306274414e-01 5.230465888977050781e+00 1.663754582405090332e+00 -2.709667086601257324e-01
5.140000000000000000e+02 3.487669754028320312e+01 -1.995363044738769531e+01 8.213589787483215332e-01 4.913937091827392578e+00 1.720588922500610352e+00 -1.201359868049621582e+00
5.150000000000000000e+02 4.219723892211914062e+01 -1.720782852172851562e+01 2.224361002445220947e-01 1.946601986885070801e+00 6.507114171981811523e-01 -4.644500911235809326e-01
5.160000000000000000e+02 4.292232513427734375e+01 -1.836771965026855469e+01 2.059935927391052246e-01 1.165313005447387695e+00 4.113920032978057861e-01 -4.407039284706115723e-01
5.170000000000000000e+02 4.073015213012695312e+01 -1.418050765991210938e+01 7.219494134187698364e-02 1.833009481430053711e+00 5.715613365173339844e-01 -6.675376892089843750e-01
5.180000000000000000e+02 4.138335037231445312e+01 -1.147255229949951172e+01 3.053596615791320801e-02 6.700676083564758301e-01 2.101810723543167114e-01 -2.766656577587127686e-01
5.190000000000000000e+02 4.155370330810546875e+01 -1.270728397369384766e+01 2.947890758514404297e-02 1.280305981636047363e+00 3.929354846477508545e-01 -3.029774129390716553e-01
5.200000000000000000e+02 3.856258010864257812e+01 -9.054125785827636719e+00 7.799959182739257812e-01 4.598204791545867920e-01 3.719449341297149658e-01 -7.568188905715942383e-01
5.210000000000000000e+02 3.252690887451171875e+01 -7.546495437622070312e+00 5.904860019683837891e+00 8.194128036499023438e+00 4.229696273803710938e+00 3.497572183609008789e+00
5.220000000000000000e+02 3.265984725952148438e+01 -8.504026412963867188e+00 2.516290664672851562e+00 7.787466049194335938e+00 3.091127157211303711e+00 1.734047651290893555e+00
5.230000000000000000e+02 2.351178932189941406e+01 -1.395262432098388672e+01 2.751137912273406982e-01 -2.671364545822143555e-01 2.393199130892753601e-03 7.641945481300354004e-01
5.240000000000000000e+02 1.807131767272949219e+01 -1.410043334960937500e+01 3.779029250144958496e-01 -2.280214875936508179e-01 4.496443271636962891e-02 3.120970726013183594e-01
5.250000000000000000e+02 1.040395832061767578e+01 -1.366773128509521484e+01 4.213038384914398193e-01 4.403171241283416748e-01 2.584863007068634033e-01 2.369159758090972900e-01
5.260000000000000000e+02 1.012687873840332031e+01 -1.625539398193359375e+01 1.321927309036254883e+00 3.884851038455963135e-01 5.131236910820007324e-01 5.232394337654113770e-01
5.270000000000000000e+02 5.972552776336669922e+00 -2.204171180725097656e+01 1.782739609479904175e-01 1.438159584999084473e+00 4.849300682544708252e-01 4.224781394004821777e-01
5.280000000000000000e+02 6.384544849395751953e+00 -2.077802085876464844e+01 2.589882910251617432e-01 1.720918774604797363e+00 5.939720869064331055e-01 6.133671998977661133e-01
5.290000000000000000e+02 6.240096092224121094e-01 -2.471417617797851562e+01 1.464340253733098507e-03 -6.218151375651359558e-02 -1.821515150368213654e-02 1.735255271196365356e-01
5.300000000000000000e+02 5.261157035827636719e+00 -2.320141029357910156e+01 1.194413825869560242e-01 9.754129052162170410e-01 3.284562826156616211e-01 4.210974872112274170e-01
5.310000000000000000e+02 6.780790090560913086e-01 -2.901382827758789062e+01 -2.992413006722927094e-02 8.083779811859130859e-01 2.335361540317535400e-01 8.398071676492691040e-02
5.320000000000000000e+02 7.110680103302001953e+00 -2.802173614501953125e+01 -4.964422881603240967e-01 -4.895458519458770752e-01 -2.957964539527893066e-01 4.425511956214904785e-01
5.330000000000000000e+02 6.359275341033935547e+00 -2.685531234741210938e+01 -2.673811912536621094e-01 -1.936344206333160400e-01 -1.383046805858612061e-01 3.319014608860015869e-01
5.340000000000000000e+02 3.324561357498168945e+00 -2.891029548645019531e+01 -2.117056697607040405e-01 4.285523593425750732e-01 6.505401432514190674e-02 2.782565057277679443e-01
5.350000000000000000e+02 9.134902000427246094e+00 -3.013087654113769531e+01 -7.967716455459594727e-01 -4.870178699493408203e-01 -3.851368725299835205e-01 4.837549924850463867e-01
5.360000000000000000e+02 8.082457542419433594e+00 -2.907743644714355469e+01 -5.600812435150146484e-01 -4.446903467178344727e-01 -3.014314770698547363e-01 5.119693279266357422e-01
5.370000000000000000e+02 7.335595130920410156e+00 -3.016606712341308594e+01 -5.364385843276977539e-01 -2.405184656381607056e-01 -2.330871224403381348e-01 2.968622148036956787e-01
5.380000000000000000e+02 3.104351997375488281e+00 -3.759495162963867188e+01 -1.347837038338184357e-02 5.483731627464294434e-01 1.604684442281723022e-01 -7.850556820631027222e-02
5.390000000000000000e+02 8.815637230873107910e-01 -3.721834182739257812e+01 -1.815593987703323364e-02 8.169506192207336426e-01 2.396384179592132568e-01 -4.566094279289245605e-02
5.400000000000000000e+02 5.711230635643005371e-01 -3.187911987304687500e+01 -2.393308468163013458e-02 1.001045107841491699e+00 2.931336164474487305e-01 6.905384827405214310e-03
5.410000000000000000e+02 8.220918655395507812e+00 -4.130070114135742188e+01 7.051917165517807007e-02 4.214781895279884338e-02 3.380009904503822327e-02 4.204921424388885498e-03
5.420000000000000000e+02 1.015962314605712891e+01 -3.659697723388671875e+01 -6.183877214789390564e-02 -1.589123904705047607e-01 -6.622534990310668945e-02 7.636920362710952759e-02
5.430000000000000000e+02 1.580834960937500000e+01 -3.189324569702148438e+01 -5.544478297233581543e-01 -3.282842040061950684e-02 -1.761828809976577759e-01 8.996462076902389526e-02
5.440000000000000000e+02 8.357202529907226562e+00 -3.120217132568359375e+01 -5.373169183731079102e-01 -2.497155517339706421e-01 -2.361097484827041626e-01 2.115009725093841553e-01
5.450000000000000000e+02 1.649209403991699219e+01 -3.615084457397460938e+01 -2.134326994419097900e-01 -1.341842263936996460e-01 -1.042850762605667114e-01 7.857310771942138672e-02
5.460000000000000000e+02 1.551090431213378906e+01 -3.890179824829101562e+01 -7.615686208009719849e-02 -1.735634654760360718e-01 -7.491609454154968262e-02 6.179664283990859985e-02
5.470000000000000000e+02 1.861968803405761719e+01 -3.197063255310058594e+01 -4.838528037071228027e-01 -1.664848066866397858e-02 -1.501503884792327881e-01 4.310132004320621490e-03
5.480000000000000000e+02 1.722310447692871094e+01 -3.198283958435058594e+01 -5.281381011009216309e-01 -3.152706474065780640e-02 -1.678995490074157715e-01 4.646050184965133667e-02
5.490000000000000000e+02 2.406394004821777344e+01 -3.794367980957031250e+01 -1.540030390024185181e-01 1.089488118886947632e-01 -1.351626589894294739e-02 6.691624224185943604e-02
5.500000000000000000e+02 2.401575469970703125e+01 -3.559249877929687500e+01 -1.998780667781829834e-01 5.235947296023368835e-02 -4.425558075308799744e-02 6.354548037052154541e-02
5.510000000000000000e+02 2.947385025024414062e+01 -3.139534378051757812e+01 -7.640291750431060791e-02 2.563574314117431641e-01 5.398635566234588623e-02 2.151141613721847534e-01
5.520000000000000000e+02 2.409354209899902344e+01 -3.178152847290039062e+01 -4.274547994136810303e-01 -5.097521352581679821e-04 -1.283893585205078125e-01 -2.912137657403945923e-02
5.530000000000000000e+02 2.787163543701171875e+01 -4.111308670043945312e+01 -2.168129682540893555e-01 4.453496038913726807e-01 6.856099516153335571e-02 4.373884573578834534e-02
5.540000000000000000e+02 3.009235000610351562e+01 -3.612579727172851562e+01 -2.468480169773101807e-01 6.611207127571105957e-01 1.242818087339401245e-01 2.657434046268463135e-01
5.550000000000000000e+02 3.101145362854003906e+01 -3.179677391052246094e+01 -2.705586701631546021e-02 6.832105517387390137e-01 1.968463957309722900e-01 4.005163311958312988e-01
5.560000000000000000e+02 3.613164520263671875e+01 -3.846900177001953125e+01 -4.731325209140777588e-01 1.289522886276245117e+00 2.449170947074890137e-01 3.064674139022827148e-02
5.570000000000000000e+02 4.876288604736328125e+01 -2.454557991027832031e+01 6.801469624042510986e-02 6.565609574317932129e-02 4.010123759508132935e-02 -6.354048848152160645e-02
5.580000000000000000e+02 4.298286437988281250e+01 -2.033917045593261719e+01 1.381685435771942139e-01 1.065047502517700195e+00 3.609648048877716064e-01 -3.146300613880157471e-01
5.590000000000000000e+02 4.585909652709960938e+01 -2.347657203674316406e+01 2.032096534967422485e-01 3.175135254859924316e-01 1.562169492244720459e-01 -2.335549294948577881e-01
5.600000000000000000e+02 4.382388687133789062e+01 -1.946986389160156250e+01 1.399495750665664673e-01 5.351443290710449219e-01 2.025281637907028198e-01 -2.513070106506347656e-01
5.610000000000000000e+02 4.446750640869140625e+01 -3.959140014648437500e+01 -2.802217602729797363e-01 1.006437897682189941e+00 2.178648412227630615e-01 -1.064455434679985046e-01
5.620000000000000000e+02 4.166392898559570312e+01 -4.099219894409179688e+01 -3.989483714103698730e-01 1.185134291648864746e+00 2.358557730913162231e-01 -4.809356108307838440e-02
5.630000000000000000e+02 5.167691421508789062e+01 -2.767703628540039062e+01 4.206118732690811157e-02 6.642103940248489380e-02 3.254466876387596130e-02 -5.913247913122177124e-02
5.640000000000000000e+02 5.257459259033203125e+01 -3.132166099548339844e+01 2.866809628903865814e-02 1.657010316848754883e-01 5.831073969602584839e-02 -9.747964143753051758e-02
5.650000000000000000e+02 4.802546691894531250e+01 -4.063468551635742188e+01 -1.640688776969909668e-01 7.256752252578735352e-01 1.684819012880325317e-01 -6.790663301944732666e-02
5.660000000000000000e+02 5.091577148437500000e+01 -3.624224472045898438e+01 -3.857972472906112671e-02 4.287915825843811035e-01 1.170635521411895752e-01 -1.433363258838653564e-01
5.670000000000000000e+02 5.475032424926757812e+01 -3.083492088317871094e+01 -9.870912879705429077e-03 4.244309291243553162e-02 9.771654382348060608e-03 -1.258693914860486984e-02
5.680000000000000000e+02 5.153592300415039062e+01 -3.010525703430175781e+01 4.739977046847343445e-02 1.845005750656127930e-01 6.957010179758071899e-02 -1.252589076757431030e-01
5.690000000000000000e+02 5.853114700317382812e+01 -3.462194824218750000e+01 -2.604555524885654449e-02 2.118151076138019562e-02 -1.459213555790483952e-03 -1.566822174936532974e-03
5.700000000000000000e+02 5.876744842529296875e+01 -3.295444107055664062e+01 -1.166685968637466431e-01 -1.299430802464485168e-02 -3.889887034893035889e-02 1.255892217159271240e-02
5.710000000000000000e+02 5.721086502075195312e+01 -3.253186416625976562e+01 -9.512415528297424316e-02 1.005736738443374634e-02 -2.552003785967826843e-02 1.366013940423727036e-02
5.720000000000000000e+02 5.588702774047851562e+01 -3.181067848205566406e+01 -5.022348091006278992e-02 1.379707921296358109e-02 -1.092792116105556488e-02 -4.093152005225419998e-03
5.730000000000000000e+02 6.138728713989257812e+01 -4.097051239013671875e+01 4.213777184486389160e-02 1.513257436454296112e-02 1.718110404908657074e-02 5.023631732910871506e-03
5.740000000000000000e+02 6.176271820068359375e+01 -3.714429855346679688e+01 1.518063992261886597e-02 4.273541271686553955e-03 5.836254451423883438e-03 2.311882562935352325e-02
5.750000000000000000e+02 6.178819274902343750e+01 -3.245293426513671875e+01 -7.424213737249374390e-02 -7.362181786447763443e-03 -2.448129653930664062e-02 -6.760214921087026596e-03
5.760000000000000000e+02 6.033760452270507812e+01 -3.289828109741210938e+01 -1.081485152244567871e-01 -3.317806171253323555e-03 -3.343989700078964233e-02 6.257357308641076088e-04
5.770000000000000000e+02 6.790110015869140625e+01 -4.109520339965820312e+01 1.914871111512184143e-02 -7.491521537303924561e-03 3.497157013043761253e-03 3.632579697296023369e-03
5.780000000000000000e+02 7.351224517822265625e+01 -3.735979080200195312e+01 2.349087269976735115e-03 -4.100150428712368011e-03 -5.253189592622220516e-04 6.248119287192821503e-03
5.790000000000000000e+02 7.815501403808593750e+01 -3.006813621520996094e+01 4.449616972124204040e-05 -5.872704205103218555e-04 -1.628322788747027516e-04 6.023068563081324100e-04
5.800000000000000000e+02 7.941995239257812500e+01 -2.638620376586914062e+01 2.395125920884311199e-04 6.166349048726260662e-04 2.568442432675510645e-04 -1.113289908971637487e-04
5.810000000000000000e+02 7.835694885253906250e+01 -2.332925796508789062e+01 -1.675640232861042023e-04 1.454819139325991273e-04 -6.624633442697813734e-06 -6.605324597330763936e-05
5.820000000000000000e+02 7.953392028808593750e+01 -1.955125045776367188e+01 -1.118129075621254742e-04 1.008547405945137143e-04 -3.287447952970978804e-06 3.888882474711863324e-06
5.830000000000000000e+02 7.961077880859375000e+01 -1.676122093200683594e+01 -5.736926686950027943e-05 8.529003025614656508e-06 -1.465207878936780617e-05 2.600280095066409558e-05
5.840000000000000000e+02 7.794364929199218750e+01 -4.165321731567382812e+01 5.476241931319236755e-04 -8.671356365084648132e-03 -2.437119605019688606e-03 1.462168147554621100e-04
5.850000000000000000e+02 7.483354187011718750e+01 -3.805595016479492188e+01 2.130545675754547119e-03 -6.207698024809360504e-03 -1.223145751282572746e-03 3.998947795480489731e-03
5.860000000000000000e+02 7.700775909423828125e+01 -3.790941619873046875e+01 8.435033378191292286e-04 -6.331230048090219498e-03 -1.646318007260560989e-03 2.474740380421280861e-03
5.870000000000000000e+02 7.493750000000000000e+01 -1.539511299133300781e+01 -7.830823597032576799e-05 -2.804138966894242913e-05 -3.190488860127516091e-05 -1.423773846909170970e-05
5.880000000000000000e+02 7.203903198242187500e+01 -1.556218814849853516e+01 -3.752654447453096509e-05 -6.288934673648327589e-05 -3.012476736330427229e-05 -2.835438499459996819e-05
5.890000000000000000e+02 7.130902862548828125e+01 -1.628882980346679688e+01 -3.534331335686147213e-05 -1.614522916497662663e-04 -5.903868077439256012e-05 -8.631704986328259110e-05
5.900000000000000000e+02 6.936884307861328125e+01 -1.610220527648925781e+01 -2.120606222888454795e-04 1.276846596738323569e-04 -2.531278914830181748e-05 5.614576002699322999e-05
5.910000000000000000e+02 6.929720306396484375e+01 -1.704268074035644531e+01 5.108769400976598263e-04 1.316332927672192454e-04 1.927530684042721987e-04 -4.055188037455081940e-05
5.920000000000000000e+02 6.857382202148437500e+01 -2.512132263183593750e+01 9.848625632002949715e-04 8.474373025819659233e-04 5.496899830177426338e-04 -8.960393643064890057e-06
5.930000000000000000e+02 6.815681457519531250e+01 -2.653731536865234375e+01 -1.077990396879613400e-03 5.976867978461086750e-04 -1.440910564269870520e-04 4.537787172012031078e-04
5.940000000000000000e+02 6.672050476074218750e+01 -2.917431259155273438e+01 -6.210725754499435425e-03 -1.587068429216742516e-03 -2.339338185265660286e-03 -1.967319287359714508e-03
5.950000000000000000e+02 6.889823150634765625e+01 -3.146192359924316406e+01 -1.014252845197916031e-02 2.034924225881695747e-03 -2.432281384244561195e-03 2.672011498361825943e-03
5.960000000000000000e+02 6.786693572998046875e+01 -3.015380477905273438e+01 -8.120797574520111084e-03 1.570047228597104549e-03 -1.965224975720047951e-03 -1.281495089642703533e-03
5.970000000000000000e+02 3.595477294921875000e+01 -2.085511207580566406e+01 6.611961722373962402e-01 4.603807449340820312e+00 1.579501032829284668e+00 -4.671514630317687988e-01
5.980000000000000000e+02 3.536835861206054688e+01 -2.321261405944824219e+01 7.536891847848892212e-02 5.036807537078857422e+00 1.533652901649475098e+00 2.019677162170410156e-01
5.990000000000000000e+02 3.523738098144531250e+01 -2.459551620483398438e+01 5.989626646041870117e-01 5.057219028472900391e+00 1.696854472160339355e+00 6.539502143859863281e-01
6.000000000000000000e+02 3.476926803588867188e+01 -2.591502380371093750e+01 7.167022824287414551e-01 3.862127542495727539e+00 1.373648881912231445e+00 1.214486598968505859e+00
6.010000000000000000e+02 3.404699707031250000e+01 -2.709974670410156250e+01 7.283814549446105957e-01 2.566724300384521484e+00 9.885317087173461914e-01 1.274106144905090332e+00
6.020000000000000000e+02 3.157541084289550781e+01 -3.024911499023437500e+01 2.632254064083099365e-01 7.398050427436828613e-01 3.009091317653656006e-01 5.218951106071472168e-01
6.030000000000000000e+02 3.328702926635742188e+01 -2.820923805236816406e+01 7.592495679855346680e-01 1.825361728668212891e+00 7.753834128379821777e-01 1.046772837638854980e+00
6.040000000000000000e+02 3.460529708862304688e+01 -3.156363868713378906e+01 -2.397896498441696167e-01 1.725271224975585938e+00 4.456444680690765381e-01 2.997948825359344482e-01
6.050000000000000000e+02 5.970090866088867188e+00 -2.554341697692871094e+01 -8.165560662746429443e-02 3.335627019405364990e-01 7.557212561368942261e-02 2.092823237180709839e-01
6.060000000000000000e+02 7.937745666503906250e+01 4.157001495361328125e+00 -1.382117625325918198e-03 -1.672313958406448364e-01 -5.058405548334121704e-02 -3.097733296453952789e-02
6.070000000000000000e+02 7.290410614013671875e+01 3.631290197372436523e+00 -1.276231408119201660e-01 -1.265652477741241455e-01 -7.625652104616165161e-02 -2.631383240222930908e-01
6.080000000000000000e+02 3.989422225952148438e+01 4.820602893829345703e+00 2.330782890319824219e+00 7.848000049591064453e+00 3.053634881973266602e+00 3.829835653305053711e+00
6.090000000000000000e+02 4.065823364257812500e+01 6.230445861816406250e+00 2.520862102508544922e+00 7.254235744476318359e+00 2.932529449462890625e+00 3.632850646972656250e+00
6.100000000000000000e+02 7.936049652099609375e+01 1.110461330413818359e+01 -1.347438083030283451e-03 -6.266965270042419434e-01 -1.884132027626037598e-01 -4.758436977863311768e-02
6.110000000000000000e+02 7.255460357666015625e+01 1.195323085784912109e+01 9.467856958508491516e-03 -4.208137094974517822e-01 -1.234037503600120544e-01 -4.071466326713562012e-01
6.120000000000000000e+02 6.553424072265625000e+01 1.314971351623535156e+01 1.380132883787155151e-01 -2.006000131368637085e-01 -1.877601817250251770e-02 -5.731180310249328613e-01
6.130000000000000000e+02 5.501282882690429688e+01 9.173016548156738281e+00 1.561374962329864502e-01 -5.152316391468048096e-02 3.138429671525955200e-02 -7.282298803329467773e-01
6.140000000000000000e+02 7.935628509521484375e+01 1.804462051391601562e+01 1.381615526042878628e-03 -1.122024893760681152e+00 -3.361929953098297119e-01 -3.918239474296569824e-02
6.150000000000000000e+02 7.265834808349609375e+01 2.004709625244140625e+01 9.061425179243087769e-02 -6.702321767807006836e-01 -1.738853752613067627e-01 -2.791210711002349854e-01
6.160000000000000000e+02 6.459882354736328125e+01 1.902278709411621094e+01 3.475017547607421875e-01 -1.562835127115249634e-01 5.736546963453292847e-02 -3.555243909358978271e-01
6.170000000000000000e+02 5.306734466552734375e+01 1.994839096069335938e+01 8.185837864875793457e-01 1.075844049453735352e+00 5.683283805847167969e-01 2.312209010124206543e-01
6.180000000000000000e+02 4.716212844848632812e+01 1.903106689453125000e+01 6.825890541076660156e-01 2.659744262695312500e+00 1.002699971199035645e+00 6.514821648597717285e-01
6.190000000000000000e+02 7.932409667968750000e+01 2.361189651489257812e+01 2.374647418037056923e-03 -1.400497078895568848e+00 -4.194367229938507080e-01 -2.377729304134845734e-02
6.200000000000000000e+02 7.229627227783203125e+01 2.542005157470703125e+01 9.501592814922332764e-02 -7.196779251098632812e-01 -1.873985975980758667e-01 -1.602127403020858765e-01
6.210000000000000000e+02 6.576874542236328125e+01 2.726714706420898438e+01 2.277421951293945312e-01 -1.234077438712120056e-01 3.130033612251281738e-02 -9.557655453681945801e-02
6.220000000000000000e+02 5.375594711303710938e+01 2.600061988830566406e+01 4.986869394779205322e-01 1.270660877227783203e+00 5.308043360710144043e-01 2.254318743944168091e-01
6.230000000000000000e+02 4.780698013305664062e+01 2.547749328613281250e+01 4.434657692909240723e-01 2.419662952423095703e+00 8.589385747909545898e-01 2.243246883153915405e-01
6.240000000000000000e+02 7.921234130859375000e+01 3.062923049926757812e+01 9.995718486607074738e-03 -1.561601519584655762e+00 -4.654817581176757812e-01 -6.378400605171918869e-03
6.250000000000000000e+02 7.211493682861328125e+01 3.496699905395507812e+01 3.333032876253128052e-02 -7.396848201751708984e-01 -2.119063436985015869e-01 -2.798439376056194305e-02
6.260000000000000000e+02 6.379161453247070312e+01 3.503523254394531250e+01 7.864901423454284668e-02 2.198690176010131836e-01 8.955541253089904785e-02 3.970893844962120056e-02
6.270000000000000000e+02 5.704198074340820312e+01 3.147388648986816406e+01 1.950254440307617188e-01 9.319562911987304688e-01 3.380945324897766113e-01 1.479564309120178223e-01
6.280000000000000000e+02 4.964725494384765625e+01 3.096420860290527344e+01 2.268644273281097412e-01 1.892609715461730957e+00 6.358422636985778809e-01 2.584307491779327393e-01
6.290000000000000000e+02 1.194799900054931641e+01 3.151524925231933594e+01 2.916549274232238531e-04 5.031703040003776550e-04 2.384475665166974068e-04 -3.540825273375958204e-04
6.300000000000000000e+02 1.420690441131591797e+01 2.412134361267089844e+01 4.230386111885309219e-04 2.028525614150566980e-06 1.275201357202604413e-04 1.312385484197875485e-05
6.310000000000000000e+02 1.440726089477539062e+01 1.659943771362304688e+01 -2.655782154761254787e-04 4.362460458651185036e-05 -6.658608617726713419e-05 -5.349141429178416729e-05
6.320000000000000000e+02 1.301746940612792969e+01 9.885827064514160156e+00 8.657170837977901101e-05 3.196276884409599006e-05 3.556034425855614245e-05 4.300596992834471166e-05
6.330000000000000000e+02 1.172659778594970703e+01 -2.925715923309326172e+00 -2.075133621692657471e-01 2.708155103027820587e-02 -5.412954464554786682e-02 -6.264031399041414261e-03
6.340000000000000000e+02 2.124943161010742188e+01 -3.343489885330200195e+00 -3.761899769306182861e-01 -1.180672943592071533e-01 -1.482771784067153931e-01 -2.853518724441528320e-01
6.350000000000000000e+02 1.378766059875488281e+01 -1.419486904144287109e+01 5.551181435585021973e-01 6.052630394697189331e-02 1.846933215856552124e-01 2.635182738304138184e-01
6.360000000000000000e+02 2.137148666381835938e+01 -1.384249973297119141e+01 3.319377601146697998e-01 -3.051977455615997314e-01 8.022008463740348816e-03 5.352690219879150391e-01
6.370000000000000000e+02 3.932846832275390625e+01 -9.142921447753906250e+00 5.375846028327941895e-01 3.514653146266937256e-01 2.667149901390075684e-01 -5.332041978836059570e-01
6.380000000000000000e+02 2.972423553466796875e+01 -1.784040832519531250e+01 -3.804600715637207031e+00 -8.360293507575988770e-02 -1.166461110115051270e+00 -1.918841153383255005e-01
6.390000000000000000e+02 4.473056030273437500e+01 -2.971282386779785156e+01 1.192939728498458862e-01 8.467304706573486328e-01 2.898073494434356689e-01 -4.334927797317504883e-01
6.400000000000000000e+02 6.962471008300781250e+01 -2.540175056457519531e+01 -6.314088823273777962e-04 1.580340758664533496e-04 -1.420124463038519025e-04 1.298348361160606146e-04
6.410000000000000000e+02 3.968855285644531250e+01 -5.469334602355957031e+00 -3.185199499130249023e-01 2.446383833885192871e-01 -2.216446772217750549e-02 -2.180387079715728760e-01
6.420000000000000000e+02 4.992563247680664062e+01 7.868949174880981445e-01 -3.970333099365234375e+00 -2.505022883415222168e-01 -1.266250610351562500e+00 6.253280043601989746e-01
6.430000000000000000e+02 5.782175064086914062e+01 -1.367312431335449219e+00 -1.664284706115722656e+00 -3.980484977364540100e-02 -5.112268924713134766e-01 2.632526159286499023e-01
6.440000000000000000e+02 5.648440933227539062e+01 -1.074174046516418457e+00 -1.956419706344604492e+00 -7.623927295207977295e-02 -6.097977161407470703e-01 2.107709199190139771e-01
6.450000000000000000e+02 5.915793609619140625e+01 -1.716192483901977539e+00 -1.368534326553344727e+00 -1.031110286712646484e-01 -4.414936006069183350e-01 2.619235217571258545e-01
6.460000000000000000e+02 6.176108551025390625e+01 -2.735743045806884766e+00 -6.568786501884460449e-01 -9.429295361042022705e-02 -2.253514826297760010e-01 2.070403546094894409e-01
6.470000000000000000e+02 6.299065017700195312e+01 -3.455636024475097656e+00 -3.642477989196777344e-01 -5.482956394553184509e-02 -1.257232129573822021e-01 1.465541273355484009e-01
6.480000000000000000e+02 7.017141723632812500e+01 -1.203712081909179688e+01 1.407707948237657547e-02 -5.807899869978427887e-03 2.480753930285573006e-03 -7.572291884571313858e-03
6.490000000000000000e+02 6.879341125488281250e+01 -1.231579113006591797e+01 1.021952275186777115e-02 -5.553475930355489254e-04 2.899252576753497124e-03 -7.366701029241085052e-03
6.500000000000000000e+02 6.775331878662109375e+01 -1.245708560943603516e+01 6.444882135838270187e-03 8.706628344953060150e-03 4.545453470200300217e-03 -5.145335104316473007e-03
6.510000000000000000e+02 6.748860931396484375e+01 -1.236287021636962891e+01 3.133846446871757507e-03 1.541120745241641998e-02 5.563516169786453247e-03 -1.063917763531208038e-02
6.520000000000000000e+02 6.945759582519531250e+01 -1.217076396942138672e+01 1.143942400813102722e-02 -1.596110523678362370e-03 2.952994080260396004e-03 -8.249277248978614807e-03
6.530000000000000000e+02 7.168434906005859375e+01 -1.183650779724121094e+01 1.468141470104455948e-02 -5.922793410718441010e-03 2.627586480230093002e-03 -3.303533885627985001e-03
6.540000000000000000e+02 7.245063781738281250e+01 -1.174508380889892578e+01 1.404565945267677307e-02 -3.167949151247739792e-03 3.263313090428709984e-03 8.334442827617749572e-05
6.550000000000000000e+02 7.404524993896484375e+01 -1.157065677642822266e+01 1.172644924372434616e-02 -1.274683861993253231e-03 3.135529579594731331e-03 5.266792140901088715e-03
6.560000000000000000e+02 7.547705841064453125e+01 -1.161387920379638672e+01 9.209653362631797791e-03 4.339497245382517576e-04 2.893080934882164001e-03 7.307009771466255188e-03
6.570000000000000000e+02 7.953368377685546875e+01 -6.910826683044433594e+00 -9.570789407007396221e-04 3.242318704724311829e-02 9.439832530915737152e-03 2.554942853748798370e-03
6.580000000000000000e+02 7.964690399169921875e+01 -1.122263717651367188e+01 -4.207255551591515541e-05 5.176057573407888412e-03 1.540195429697632790e-03 1.110262703150510788e-03
6.590000000000000000e+02 7.822167968750000000e+01 -1.130288600921630859e+01 2.107687527313828468e-03 4.215268418192863464e-03 1.896886853501200676e-03 6.614449433982372284e-03
6.600000000000000000e+02 7.793663024902343750e+01 4.157559967041015625e+01 -4.457596689462661743e-02 -1.451272130012512207e+00 -4.487544596195220947e-01 1.247582118958234787e-02
6.610000000000000000e+02 7.863059997558593750e+01 3.993688201904296875e+01 1.941446587443351746e-02 -1.466733217239379883e+00 -4.341956377029418945e-01 4.097091034054756165e-02
6.620000000000000000e+02 7.637436676025390625e+01 3.852955245971679688e+01 1.910590939223766327e-02 -1.316831469535827637e+00 -3.893176615238189697e-01 1.917740679346024990e-03
6.630000000000000000e+02 7.946273040771484375e+01 3.624026107788085938e+01 -1.196453440934419632e-02 -1.580249786376953125e+00 -4.776642918586730957e-01 1.536244759336113930e-03
6.640000000000000000e+02 7.930016326904296875e+01 3.491820907592773438e+01 9.986556135118007660e-03 -1.582440376281738281e+00 -4.717361629009246826e-01 9.843551088124513626e-04
6.650000000000000000e+02 7.758498382568359375e+01 3.362741851806640625e+01 7.636611349880695343e-03 -1.383868217468261719e+00 -4.128694832324981689e-01 9.219652856700122356e-04
6.660000000000000000e+02 7.920283508300781250e+01 3.349783706665039062e+01 -1.342702191323041916e-03 -1.576206207275390625e+00 -4.732646644115447998e-01 -5.763988010585308075e-03
6.670000000000000000e+02 7.925025177001953125e+01 2.920944404602050781e+01 -3.367765806615352631e-03 -1.542914628982543945e+00 -4.638847410678863525e-01 -1.344803813844919205e-02
6.680000000000000000e+02 7.927666473388671875e+01 2.780074501037597656e+01 3.297344315797090530e-03 -1.516453623771667480e+00 -4.539468884468078613e-01 -1.255577430129051208e-02
6.690000000000000000e+02 7.788758850097656250e+01 2.620741462707519531e+01 7.633792702108621597e-03 -1.306681394577026367e+00 -3.897143006324768066e-01 -5.323719605803489685e-02
6.700000000000000000e+02 7.929469299316406250e+01 2.640061378479003906e+01 1.544719561934471130e-03 -1.486083626747131348e+00 -4.453616738319396973e-01 -1.758837699890136719e-02
6.710000000000000000e+02 7.933708953857421875e+01 2.221988677978515625e+01 2.194178057834506035e-03 -1.344452738761901855e+00 -4.026775658130645752e-01 -2.841280773282051086e-02
6.720000000000000000e+02 7.934561920166015625e+01 2.082751655578613281e+01 1.384303206577897072e-03 -1.278686046600341797e+00 -3.831905424594879150e-01 -3.237549215555191040e-02
6.730000000000000000e+02 7.802880096435546875e+01 2.062630462646484375e+01 9.008579887449741364e-03 -1.130948185920715332e+00 -3.365818858146667480e-01 -9.615582227706909180e-02
6.740000000000000000e+02 7.936054229736328125e+01 1.665426063537597656e+01 1.037514186464250088e-03 -1.032233238220214844e+00 -3.093587160110473633e-01 -4.166119173169136047e-02
6.750000000000000000e+02 7.936263275146484375e+01 1.526627731323242188e+01 1.633693813346326351e-03 -9.367526769638061523e-01 -2.805356979370117188e-01 -4.450603947043418884e-02
6.760000000000000000e+02 7.936304473876953125e+01 1.387975120544433594e+01 -7.362484029727056623e-05 -8.356720805168151855e-01 -2.507237195968627930e-01 -4.623591899871826172e-02
6.770000000000000000e+02 7.807960510253906250e+01 1.371312808990478516e+01 3.696255851536989212e-03 -7.527267336845397949e-01 -2.247091531753540039e-01 -1.353833824396133423e-01
6.780000000000000000e+02 7.936030578613281250e+01 9.715226173400878906e+00 5.042249104008078575e-04 -5.231638550758361816e-01 -1.567979007959365845e-01 -4.643167927861213684e-02
6.790000000000000000e+02 7.936122131347656250e+01 8.327183723449707031e+00 -2.595262834802269936e-03 -4.228707551956176758e-01 -1.276398003101348877e-01 -4.430682212114334106e-02
6.800000000000000000e+02 7.936385345458984375e+01 6.938096523284912109e+00 -4.825329815503209829e-04 -3.290530145168304443e-01 -9.886066615581512451e-02 -4.070804268121719360e-02
6.810000000000000000e+02 7.808300018310546875e+01 6.807700157165527344e+00 -9.642917662858963013e-03 -3.211161792278289795e-01 -9.922772645950317383e-02 -1.175997480750083923e-01
6.820000000000000000e+02 7.938848114013671875e+01 2.764303207397460938e+00 -3.613625885918736458e-03 -1.025518551468849182e-01 -3.184964507818222046e-02 -2.543115615844726562e-02
6.830000000000000000e+02 7.940030670166015625e+01 1.373688220977783203e+00 -1.675909734331071377e-03 -5.059435591101646423e-02 -1.568107865750789642e-02 -1.916355080902576447e-02
6.840000000000000000e+02 7.941227722167968750e+01 -1.601947844028472900e-02 -3.036779351532459259e-03 -1.128567289561033249e-02 -4.296735860407352448e-03 -1.366116479039192200e-02
6.850000000000000000e+02 7.823187255859375000e+01 -1.322957575321197510e-01 -1.020720414817333221e-02 -4.215271398425102234e-02 -1.570797525346279144e-02 -3.928999975323677063e-02
6.860000000000000000e+02 7.946364593505859375e+01 -4.174961090087890625e+00 -9.099224116653203964e-04 3.768923878669738770e-02 1.103379484266042709e-02 -7.450415869243443012e-04
6.870000000000000000e+02 7.949465179443359375e+01 -5.550473690032958984e+00 -2.591176889836788177e-04 3.760128840804100037e-02 1.120265107601881027e-02 9.488914511166512966e-04
6.880000000000000000e+02 7.845556640625000000e+01 -5.627405643463134766e+00 -3.017016919329762459e-03 1.774324476718902588e-02 4.417868331074714661e-03 3.212442621588706970e-03
6.890000000000000000e+02 7.868465423583984375e+01 -8.152183532714843750e+00 -7.394615095108747482e-04 1.604584977030754089e-02 4.591916687786579132e-03 7.890406996011734009e-03
6.900000000000000000e+02 7.327565193176269531e+00 4.118486785888671875e+01 -1.100389999919570982e-04 -1.515098410891368985e-04 -7.846465450711548328e-05 2.368256828049197793e-04
6.910000000000000000e+02 2.473427772521972656e+01 4.013515853881835938e+01 2.466193633154034615e-03 -2.274689450860023499e-02 -6.084210705012083054e-03 4.972636699676513672e-03
6.920000000000000000e+02 4.801585006713867188e+01 4.105566787719726562e+01 -3.876947164535522461e-01 1.963609337806701660e+00 4.727743864059448242e-01 4.476112499833106995e-02
6.930000000000000000e+02 6.697515106201171875e+01 3.831112670898437500e+01 2.201410755515098572e-02 -1.372467577457427979e-01 -3.456979617476463318e-02 3.427916439250111580e-03
6.940000000000000000e+02 1.415239334106445312e+00 2.690618038177490234e+00 1.008340314001543447e-05 -5.790948125650174916e-05 -1.434782370779430494e-05 1.005506783258169889e-05
6.950000000000000000e+02 3.334130764007568359e+00 2.648930072784423828e+00 2.638859950820915401e-05 3.318930612294934690e-05 1.787337168934755027e-05 -9.053953363036271185e-06
6.960000000000000000e+02 5.568566322326660156e+00 2.710690736770629883e+00 -3.606364043662324548e-05 -4.041625288664363325e-05 -2.294396654178854078e-05 2.102871076203882694e-05
6.970000000000000000e+02 1.496811270713806152e+00 6.645640373229980469e+00 -9.258888167096301913e-05 2.764795453913393430e-06 -2.694722570595331490e-05 2.904516622947994620e-05
6.980000000000000000e+02 4.880714714527130127e-01 9.253149032592773438e+00 1.322291936958208680e-04 -4.353755400643422036e-07 3.953814302803948522e-05 -9.775057151273358613e-06
6.990000000000000000e+02 5.372071266174316406e-01 1.203637790679931641e+01 1.463196094846352935e-04 1.572178348396846559e-06 4.436753806658089161e-05 -1.738962782837916166e-05
7.000000000000000000e+02 1.612926483154296875e+00 1.188279342651367188e+01 -1.440527994418516755e-04 -8.649587471154518425e-06 -4.581071698339655995e-05 2.350650720472913235e-05
7.010000000000000000e+02 5.937885642051696777e-01 1.625078582763671875e+01 -1.700770662864670157e-04 -8.259456080850213766e-06 -5.350095671019516885e-05 2.656326068972703069e-05
7.020000000000000000e+02 5.991481542587280273e-01 1.765655708312988281e+01 1.763584732543677092e-04 -3.475616267678560689e-06 5.186485577723942697e-05 -2.703439349716063589e-05
7.030000000000000000e+02 6.220332384109497070e-01 2.188225173950195312e+01 -1.848902466008439660e-04 -1.323609012615634128e-05 -5.943790165474638343e-05 3.156829916406422853e-05
7.040000000000000000e+02 6.253183484077453613e-01 2.329294967651367188e+01 1.903571537695825100e-04 -3.946112428820924833e-06 5.592331217485480011e-05 -3.418850246816873550e-05
7.050000000000000000e+02 1.864499211311340332e+00 2.304827880859375000e+01 -1.914713939186185598e-04 3.838332304439973086e-06 -5.628991857520304620e-05 2.171475171053316444e-05
7.060000000000000000e+02 6.258510351181030273e-01 2.470725250244140625e+01 -1.929102872963994741e-04 -5.511307335837045684e-06 -5.952647916274145246e-05 3.044734876311849803e-05
7.070000000000000000e+02 6.175852417945861816e-01 2.895061492919921875e+01 2.258311578771099448e-04 5.242111728875897825e-05 8.347567927557975054e-05 -5.343058728612959385e-05
7.080000000000000000e+02 6.204892396926879883e-01 3.035578536987304688e+01 -2.302200882695615292e-04 7.603337871842086315e-05 -4.625601286534219980e-05 2.682030390133149922e-05
7.090000000000000000e+02 3.071069717407226562e+00 2.848517608642578125e+01 2.502522547729313374e-04 -9.024935934576205909e-06 7.236819510580971837e-05 -5.410040466813370585e-05
7.100000000000000000e+02 6.351732015609741211e-01 3.175684547424316406e+01 2.404786937404423952e-04 1.313196844421327114e-04 1.115395134547725320e-04 -6.675091572105884552e-05
7.110000000000000000e+02 7.810176014900207520e-01 3.594488143920898438e+01 -2.320568455616012216e-04 2.810034493450075388e-04 1.468397749704308808e-05 1.504836473031900823e-05
7.120000000000000000e+02 2.574285268783569336e+00 3.684975051879882812e+01 -1.795103889890015125e-04 2.505411102902144194e-04 2.130921166099142283e-05 -8.474189235130324960e-05
7.130000000000000000e+02 1.024006843566894531e+00 3.873186874389648438e+01 -1.921714429045096040e-04 4.207061138004064560e-04 6.856039544800296426e-05 -2.112912261509336531e-05
7.140000000000000000e+02 1.291580200195312500e+00 4.015337371826171875e+01 1.310013321926817298e-04 4.558314976748079062e-04 1.760498416842892766e-04 -3.701552122947759926e-05
7.150000000000000000e+02 1.060418987274169922e+01 1.761762857437133789e+00 -2.464013959979638457e-05 -6.643910455750301480e-05 -2.732377288339193910e-05 -4.793161224370123819e-06
7.160000000000000000e+02 9.120545387268066406e+00 1.844968557357788086e+00 -2.568081617937423289e-05 -5.777228216174989939e-05 -2.503592986613512039e-05 -1.143216195487184450e-06
7.170000000000000000e+02 8.392244338989257812e+00 1.856177330017089844e+00 2.300948654010426253e-05 5.362465526559390128e-05 2.299024163221474737e-05 -1.773898247847682796e-06
7.180000000000000000e+02 7.663504123687744141e+00 1.867157936096191406e+00 -2.062532621494028717e-05 -5.071718987892381847e-05 -2.140275501005817205e-05 4.581510893331142142e-06
7.190000000000000000e+02 5.467035293579101562e+00 1.895803093910217285e+00 2.744563244050368667e-05 3.539765384630300105e-05 1.885298479464836419e-05 -1.091814374376554042e-05
7.200000000000000000e+02 4.738337516784667969e+00 1.898704528808593750e+00 -3.037911301362328231e-05 -3.124336581095121801e-05 -1.848674401117023081e-05 6.754905371053609997e-06
7.210000000000000000e+02 4.012900352478027344e+00 1.892543554306030273e+00 2.800394941004924476e-05 2.956822572741657495e-05 1.727165181364398450e-05 -2.633153599163051695e-06
7.220000000000000000e+02 3.288326263427734375e+00 1.877166390419006348e+00 -2.400271660008002073e-05 -2.872356162697542459e-05 -1.581788274052087218e-05 1.203817191708367318e-06
7.230000000000000000e+02 2.571497678756713867e+00 1.863934278488159180e+00 1.648772376938723028e-05 3.225601176382042468e-05 1.462312138755805790e-05 -9.512692145108303521e-07
7.240000000000000000e+02 1.865680694580078125e+00 1.867074251174926758e+00 -7.564203315268969163e-06 -3.934526830562390387e-05 -1.407284162269206718e-05 6.271198799367994070e-06
7.250000000000000000e+02 1.288738250732421875e+01 1.415512919425964355e+00 2.557859261287376285e-05 7.913763693068176508e-05 3.141486740787513554e-05 1.386941949022002518e-05
7.260000000000000000e+02 1.362243843078613281e+01 1.306182026863098145e+00 -2.756002868409268558e-05 -8.534586959285661578e-05 -3.387176911928690970e-05 -1.601989606569986790e-05
7.270000000000000000e+02 1.504504203796386719e+01 1.114616155624389648e+00 -1.904903729155194014e-05 -8.770503336563706398e-05 -3.202622247044928372e-05 -3.005154576385393739e-05
7.280000000000000000e+02 1.576372718811035156e+01 1.046116352081298828e+00 2.500475784472655505e-05 7.724850729573518038e-05 3.067597936023958027e-05 4.160241223871707916e-05
7.290000000000000000e+02 1.648830223083496094e+01 1.015291213989257812e+00 -4.414015711518004537e-05 -5.515018347068689764e-05 -2.978710290335584432e-05 -4.680126949097029865e-05
7.300000000000000000e+02 1.793729591369628906e+01 9.077130556106567383e-01 -4.292393350624479353e-05 -4.237620305502787232e-05 -2.559003951319027692e-05 -7.098347396095050499e-06
7.310000000000000000e+02 1.857722854614257812e+01 7.818624973297119141e-01 2.074205440294463187e-05 5.889802923775278032e-05 2.389202563790604472e-05 1.898987466120161116e-05
7.320000000000000000e+02 1.975431632995605469e+01 9.288550615310668945e-01 2.881564250856172293e-05 2.255156869068741798e-05 1.541016354167368263e-05 3.654998363344930112e-05
7.330000000000000000e+02 2.041621017456054688e+01 1.046647071838378906e+00 -3.810817725025117397e-05 -2.291228156536817551e-06 -1.211982180393533781e-05 -2.241359652543906122e-05
7.340000000000000000e+02 2.053065109252929688e+01 2.423844337463378906e+00 1.172866250271908939e-04 -1.281814002140890807e-05 3.134054350084625185e-05 -2.929821130237542093e-05
7.350000000000000000e+02 2.108007621765136719e+01 1.158551335334777832e+00 3.571849811123684049e-05 -8.746134881221223623e-06 8.091709787549916655e-06 3.793126552409376018e-06
7.360000000000000000e+02 2.229668998718261719e+01 1.632342338562011719e+00 3.619523340603336692e-05 2.702869460335932672e-05 1.896717913041356951e-05 1.609146056580357254e-05
7.370000000000000000e+02 1.915277671813964844e+01 7.908697128295898438e-01 -5.714819963031914085e-06 -5.993812374072149396e-05 -1.969588265637867153e-05 -4.232649371260777116e-05
7.380000000000000000e+02 1.881589889526367188e+01 5.018834114074707031e+00 1.380551548209041357e-04 4.104231993551366031e-05 5.372924351831898093e-05 6.452480738516896963e-05
7.390000000000000000e+02 1.875789260864257812e+01 7.660965442657470703e+00 -2.392134338151663542e-04 -3.149427357129752636e-05 -8.121231076074764132e-05 -8.237163274316117167e-05
7.400000000000000000e+02 1.770431900024414062e+01 1.020355892181396484e+01 -2.561108558438718319e-04 -3.822714279522188008e-05 -8.830139995552599430e-05 -9.505336493020877242e-05
7.410000000000000000e+02 1.593826484680175781e+01 1.550080299377441406e+01 -3.130165860056877136e-04 -1.214060648635495454e-05 -9.754715574672445655e-05 -8.425338455708697438e-05
7.420000000000000000e+02 1.520397758483886719e+01 1.970610618591308594e+01 3.034803667105734348e-04 -1.087653890863293782e-05 8.778114715823903680e-05 4.565653853205731139e-06
7.430000000000000000e+02 1.518414974212646484e+01 2.113109207153320312e+01 -3.155992890242487192e-04 -1.922396586451213807e-05 -1.004469813778996468e-04 -2.191289922848227434e-06
7.440000000000000000e+02 1.531692600250244141e+01 2.395949172973632812e+01 -4.186749865766614676e-04 4.493748747336212546e-06 -1.242543803527951241e-04 2.502258757886011153e-05
7.450000000000000000e+02 1.626326370239257812e+01 3.093203926086425781e+01 -4.497136978898197412e-04 2.130896464223042130e-04 -7.098721835063770413e-05 1.941384834935888648e-04
7.460000000000000000e+02 1.758079528808593750e+01 3.055523681640625000e+01 1.476280856877565384e-03 3.746570437215268612e-04 5.552813527174293995e-04 -1.638963658479042351e-05
7.470000000000000000e+02 1.899940299987792969e+01 3.303985595703125000e+01 2.295090584084391594e-03 8.982155122794210911e-04 9.579918114468455315e-04 5.937913010711781681e-05
7.480000000000000000e+02 2.240745544433593750e+01 3.593160247802734375e+01 -2.528741490095853806e-03 -1.795824966393411160e-03 -1.297369948588311672e-03 4.062694497406482697e-03
7.490000000000000000e+02 2.543061065673828125e+01 3.703416824340820312e+01 -5.912626627832651138e-03 -1.674873754382133484e-02 -6.798409391194581985e-03 7.295112125575542450e-03
7.500000000000000000e+02 2.681229591369628906e+01 3.713815689086914062e+01 -4.109963402152061462e-02 9.301356971263885498e-03 -9.539482183754444122e-03 1.657844521105289459e-02
7.510000000000000000e+02 2.828689002990722656e+01 3.738143539428710938e+01 -8.834284543991088867e-02 -7.087442558258771896e-03 -2.862908691167831421e-02 2.108149789273738861e-02
7.520000000000000000e+02 3.099060440063476562e+01 3.707994079589843750e+01 -1.600162088871002197e-01 2.114748954772949219e-02 -4.166061431169509888e-02 2.261636406183242798e-02
7.530000000000000000e+02 3.795627593994140625e+01 3.423090744018554688e+01 4.125207960605621338e-01 7.786383628845214844e-01 3.573477566242218018e-01 -5.457488894462585449e-01
7.540000000000000000e+02 3.995344924926757812e+01 3.206585311889648438e+01 7.577099800109863281e-01 2.430903196334838867e+00 9.565839767456054688e-01 -1.137768626213073730e+00
7.550000000000000000e+02 4.306171417236328125e+01 2.674599075317382812e+01 3.292699754238128662e-01 3.670826911926269531e+00 1.200029134750366211e+00 -2.816159427165985107e-01
7.560000000000000000e+02 4.171707153320312500e+01 2.367097091674804688e+01 2.153722941875457764e-02 4.000495433807373047e+00 1.206609725952148438e+00 1.553743518888950348e-02
7.570000000000000000e+02 4.169936370849609375e+01 2.083314895629882812e+01 2.690795436501502991e-02 4.257343769073486328e+00 1.285275459289550781e+00 1.077023893594741821e-01
7.580000000000000000e+02 4.168319702148437500e+01 1.941768264770507812e+01 2.094724401831626892e-02 4.530754566192626953e+00 1.365510582923889160e+00 1.576296985149383545e-01
7.590000000000000000e+02 4.284424972534179688e+01 1.650753402709960938e+01 4.077899754047393799e-01 4.783944606781005859e+00 1.557520389556884766e+00 8.411141633987426758e-01
7.600000000000000000e+02 4.158518981933593750e+01 1.657730865478515625e+01 1.351343989372253418e-01 5.512564182281494141e+00 1.694309473037719727e+00 5.257067084312438965e-01
7.610000000000000000e+02 4.075553131103515625e+01 1.093718242645263672e+01 6.187808513641357422e-01 7.979070663452148438e+00 2.579355478286743164e+00 1.976135969161987305e+00
7.620000000000000000e+02 3.746043777465820312e+01 2.897313594818115234e+00 3.394103050231933594e+00 8.440487861633300781e+00 3.550377130508422852e+00 5.122511386871337891e+00
7.630000000000000000e+02 3.650316619873046875e+01 1.774264693260192871e+00 2.867788553237915039e+00 6.426311016082763672e+00 2.788229942321777344e+00 4.227960586547851562e+00
7.640000000000000000e+02 3.298597717285156250e+01 -7.070800662040710449e-01 -6.244834423065185547e+00 -2.931140661239624023e-01 -1.961384654045104980e+00 -2.072174310684204102e+00
7.650000000000000000e+02 3.213895034790039062e+01 -5.699025154113769531e+00 7.436158180236816406e+00 5.229926586151123047e+00 3.799825668334960938e+00 -6.458090543746948242e-01
7.660000000000000000e+02 2.958494186401367188e+01 -4.333638668060302734e+00 9.526103734970092773e-01 -8.416469097137451172e-01 3.328904509544372559e-02 -1.963822960853576660e+00
7.670000000000000000e+02 2.275585556030273438e+01 -2.367585182189941406e+00 -7.570939064025878906e-01 6.012392044067382812e-02 -2.090909928083419800e-01 -2.779427766799926758e-01
7.680000000000000000e+02 2.190881729125976562e+01 -2.526486873626708984e+00 -5.852676630020141602e-01 -2.365680783987045288e-02 -1.826773434877395630e-01 -2.430240213871002197e-01
7.690000000000000000e+02 1.864623641967773438e+01 -2.803583145141601562e+00 -3.268672823905944824e-01 -6.880510598421096802e-02 -1.187017112970352173e-01 -1.036501824855804443e-01
7.700000000000000000e+02 2.027540206909179688e+01 -2.704732179641723633e+00 -4.111271798610687256e-01 -8.012979477643966675e-02 -1.473770886659622192e-01 -1.810107380151748657e-01
7.710000000000000000e+02 1.704978179931640625e+01 -2.751108407974243164e+00 -2.902320027351379395e-01 -3.906596451997756958e-02 -9.878939390182495117e-02 -3.908715769648551941e-02
7.720000000000000000e+02 1.546572875976562500e+01 -2.649447202682495117e+00 -2.653088867664337158e-01 -1.907457038760185242e-02 -8.531504124402999878e-02 1.042749150656163692e-03
7.730000000000000000e+02 1.241417694091796875e+01 -2.274466753005981445e+00 -2.420652508735656738e-01 1.140798814594745636e-02 -6.919717788696289062e-02 8.530711755156517029e-03
7.740000000000000000e+02 1.316043663024902344e+01 -2.373922824859619141e+00 -2.479423433542251587e-01 -7.177730440162122250e-04 -7.459803670644760132e-02 1.031946763396263123e-02
7.750000000000000000e+02 1.168675518035888672e+01 -2.169408082962036133e+00 -2.354545295238494873e-01 1.366552431136369705e-02 -6.653670221567153931e-02 -1.805585343390703201e-03
7.760000000000000000e+02 9.468374252319335938e+00 -1.915078997611999512e+00 -2.077815979719161987e-01 2.805512771010398865e-02 -5.391794443130493164e-02 -2.285261079668998718e-02
7.770000000000000000e+02 8.658468246459960938e+00 -1.905065655708312988e+00 -1.916904598474502563e-01 2.125956118106842041e-02 -5.112927034497261047e-02 -3.497172519564628601e-02
7.780000000000000000e+02 7.838541507720947266e+00 -1.906294822692871094e+00 -1.724217534065246582e-01 1.896589621901512146e-02 -4.603675752878189087e-02 -4.557111114263534546e-02
7.790000000000000000e+02 6.188179492950439453e+00 -1.927845478057861328e+00 -1.318393200635910034e-01 8.249267935752868652e-03 -3.707701712846755981e-02 -6.392192840576171875e-02
7.800000000000000000e+02 4.536313533782958984e+00 -1.964938163757324219e+00 -8.655552566051483154e-02 -4.051596391946077347e-03 -2.718213573098182678e-02 -6.627880036830902100e-02
7.810000000000000000e+02 2.885744094848632812e+00 -2.027112007141113281e+00 -4.276181012392044067e-02 -1.971185579895973206e-02 -1.874209940433502197e-02 -5.169062316417694092e-02
7.820000000000000000e+02 2.929718732833862305e+00 -3.060820341110229492e+00 -4.383543878793716431e-02 -3.710850328207015991e-02 -2.428318187594413757e-02 -7.989792525768280029e-02
7.830000000000000000e+02 2.058329582214355469e+00 -2.079362392425537109e+00 -2.551135793328285217e-02 -2.563954330980777740e-02 -1.534527074545621872e-02 -3.932459279894828796e-02
7.840000000000000000e+02 1.233591437339782715e+00 -2.136958599090576172e+00 -9.900628589093685150e-03 -2.610029280185699463e-02 -1.080027595162391663e-02 -2.189749479293823242e-02
7.850000000000000000e+02 4.107984006404876709e-01 -2.185741186141967773e+00 -2.596926176920533180e-03 -1.402257569134235382e-02 -4.985850770026445389e-03 -7.201268337666988373e-03
7.860000000000000000e+02 2.099921464920043945e+00 -4.161238098144531250e+01 6.786325573921203613e-02 6.622909903526306152e-01 2.190462648868560791e-01 -1.925293542444705963e-02
7.870000000000000000e+02 5.604812145233154297e+00 -3.727861785888671875e+01 3.909763414412736893e-03 2.419784814119338989e-01 7.376646995544433594e-02 -1.311697065830230713e-03
7.880000000000000000e+02 1.133373856544494629e+00 -3.857440567016601562e+01 4.092188086360692978e-03 7.494080662727355957e-01 2.260500788688659668e-01 -4.729479923844337463e-02
7.890000000000000000e+02 5.495259165763854980e-01 -3.458000564575195312e+01 -2.139985561370849609e-02 9.538823962211608887e-01 2.797447741031646729e-01 -2.459525689482688904e-02
7.900000000000000000e+02 5.183328390121459961e-01 -3.325181198120117188e+01 1.281170174479484558e-02 1.000436186790466309e+00 3.039743900299072266e-01 -5.684663075953722000e-03
7.910000000000000000e+02 4.018541812896728516e+00 -3.085935592651367188e+01 -2.125288844108581543e-01 3.812334537506103516e-01 5.061136931180953979e-02 1.182671040296554565e-01
7.920000000000000000e+02 2.030931711196899414e+00 -2.738974761962890625e+01 -9.002239257097244263e-02 4.455471932888031006e-01 1.066574379801750183e-01 3.189820945262908936e-01
7.930000000000000000e+02 6.548718214035034180e-01 -2.613721084594726562e+01 -1.399242412298917770e-02 2.995783090591430664e-01 8.567576855421066284e-02 1.561539620161056519e-01
7.940000000000000000e+02 5.787857532501220703e+00 -2.422533416748046875e+01 3.895042091608047485e-02 8.870381712913513184e-01 2.777965962886810303e-01 2.639851868152618408e-01
7.950000000000000000e+02 1.737642288208007812e+00 -2.173468971252441406e+01 8.009234070777893066e-02 -3.696412146091461182e-01 -8.686466515064239502e-02 3.054184019565582275e-01
7.960000000000000000e+02 6.907516002655029297e+00 -1.953059577941894531e+01 4.711174070835113525e-01 1.800136327743530273e+00 6.813761591911315918e-01 7.876114249229431152e-01
7.970000000000000000e+02 5.826528072357177734e-01 -2.191078948974609375e+01 3.857776056975126266e-03 -7.822629809379577637e-01 -2.335215657949447632e-01 1.235902905464172363e-01
7.980000000000000000e+02 6.350700855255126953e-01 -1.625473594665527344e+01 3.563805483281612396e-03 -1.130324244499206543e+00 -3.380281329154968262e-01 -3.601203486323356628e-02
7.990000000000000000e+02 6.079164147377014160e-01 -1.483724403381347656e+01 1.450786460191011429e-02 -1.029357910156250000e+00 -3.044550418853759766e-01 -5.497939139604568481e-02
8.000000000000000000e+02 5.830442309379577637e-01 -1.342932891845703125e+01 -7.848594337701797485e-03 -8.854863643646240234e-01 -2.680004835128784180e-01 -6.615334004163742065e-02
8.010000000000000000e+02 1.744714856147766113e+00 -1.324103355407714844e+01 8.551356382668018341e-03 -5.614984035491943359e-01 -1.658841222524642944e-01 -1.584555059671401978e-01
8.020000000000000000e+02 5.802331566810607910e-01 -9.207970619201660156e+00 -6.574052968062460423e-04 -4.329899549484252930e-01 -1.300942003726959229e-01 -5.395568534731864929e-02
8.030000000000000000e+02 5.779897570610046387e-01 -7.796926975250244141e+00 -6.414771080017089844e-03 -3.105242252349853516e-01 -9.508170187473297119e-02 -4.583589732646942139e-02
8.040000000000000000e+02 3.749309778213500977e+00 -2.964767932891845703e+00 -6.270371377468109131e-02 -1.970362849533557892e-02 -2.472220361232757568e-02 -8.515343070030212402e-02
8.050000000000000000e+02 3.810703039169311523e+00 -3.942648410797119141e+00 -5.879424139857292175e-02 -3.409711271524429321e-02 -2.786740660667419434e-02 -1.094987541437149048e-01
8.060000000000000000e+02 7.497769165039062500e+01 -4.055386734008789062e+01 2.477750880643725395e-03 -7.705647032707929611e-03 -1.568368868902325630e-03 2.003551227971911430e-03
8.070000000000000000e+02 5.710215759277343750e+01 -4.117007064819335938e+01 4.227677732706069946e-02 1.111656948924064636e-01 4.603274166584014893e-02 -8.647669106721878052e-03
8.080000000000000000e+02 3.250482177734375000e+01 -3.651569747924804688e+01 -3.601770401000976562e-01 1.009241938591003418e+00 1.947194784879684448e-01 2.285432219505310059e-01
8.090000000000000000e+02 1.248026657104492188e+01 -4.144270324707031250e+01 3.500998765230178833e-02 -1.780059337615966797e-01 -4.289878159761428833e-02 1.150364335626363754e-02
8.100000000000000000e+02 7.966991424560546875e+01 -1.544445610046386719e+01 2.391348425589967519e-05 1.017453996610129252e-05 1.022640662995399907e-05 -2.679582212294917554e-05
8.110000000000000000e+02 7.834994506835937500e+01 -1.531219005584716797e+01 5.138920096214860678e-05 1.756073106662370265e-05 2.068497997242957354e-05 -4.413893111632205546e-05
8.120000000000000000e+02 7.701672363281250000e+01 -1.620671463012695312e+01 -9.629311534808948636e-05 4.372353942017070949e-05 -1.577087277837563306e-05 1.851963861554395407e-05
8.130000000000000000e+02 7.772918701171875000e+01 -1.807592391967773438e+01 1.845220685936510563e-04 3.549347093212418258e-05 6.600466440431773663e-05 -6.765517900930717587e-05
8.140000000000000000e+02 7.948007965087890625e+01 -2.227581405639648438e+01 -1.477818295825272799e-04 2.729293773882091045e-04 3.754426870727911592e-05 -2.843367155946907587e-06
8.150000000000000000e+02 7.829052734375000000e+01 -2.467200469970703125e+01 1.507409615442156792e-04 2.555797400418668985e-04 1.218962061102502048e-04 -1.855700102169066668e-04
8.160000000000000000e+02 7.943525695800781250e+01 -2.501161384582519531e+01 -2.155826514353975654e-04 4.936598124913871288e-04 8.342314686160534620e-05 3.535248470143415034e-05
8.170000000000000000e+02 7.939851379394531250e+01 -2.912690162658691406e+01 3.088498779106885195e-04 2.849543525371700525e-04 1.781412720447406173e-04 1.370966128888539970e-05
8.180000000000000000e+02 7.809754180908203125e+01 -3.142002105712890625e+01 -6.856156978756189346e-04 -1.193246804177761078e-03 -5.636587738990783691e-04 1.249690656550228596e-03
8.190000000000000000e+02 7.936034393310546875e+01 -3.188037300109863281e+01 3.037326387129724026e-04 -1.124600996263325214e-03 -2.462604898028075695e-04 3.231741429772228003e-04
8.200000000000000000e+02 7.921720123291015625e+01 -3.599498367309570312e+01 -3.364805888850241899e-04 -5.276212934404611588e-03 -1.683808048255741596e-03 9.007641929201781750e-04
8.210000000000000000e+02 7.771853637695312500e+01 -3.541322708129882812e+01 3.128101234324276447e-04 -4.275337792932987213e-03 -1.188758295029401779e-03 2.307960065081715584e-03
8.220000000000000000e+02 7.910413360595703125e+01 -3.735124969482421875e+01 3.094430430792272091e-04 -6.602173671126365662e-03 -1.887819264084100723e-03 7.254364900290966034e-04
8.230000000000000000e+02 7.859036254882812500e+01 -4.009391021728515625e+01 3.425839822739362717e-04 -8.450953289866447449e-03 -2.432510722428560257e-03 5.868570297025144100e-04
8.240000000000000000e+02 7.901027679443359375e+01 -1.536555671691894531e+01 -3.139938417007215321e-05 -7.773651304887607694e-06 -1.175191118818474934e-05 4.979308869224041700e-05
8.250000000000000000e+02 7.832248687744140625e+01 -1.620988273620605469e+01 -2.026704169111326337e-05 -1.297895869356580079e-05 -9.973799933504778892e-06 -2.967660475405864418e-05
8.260000000000000000e+02 7.768841552734375000e+01 -1.530707836151123047e+01 -7.326848572120070457e-05 1.125382914324291050e-05 -1.860439624579157680e-05 8.744447086428408511e-07
8.270000000000000000e+02 7.702150726318359375e+01 -1.531822872161865234e+01 1.106557392631657422e-04 -1.347519082628423348e-05 2.915416371251922101e-05 -1.793404771888162941e-05
8.280000000000000000e+02 7.635025024414062500e+01 -1.533970165252685547e+01 -4.170136526226997375e-05 -1.935047475853934884e-05 -1.831555164244491607e-05 -4.098479985259473324e-05
8.290000000000000000e+02 7.348116302490234375e+01 -1.543219280242919922e+01 -4.551872916636057198e-05 -5.982735092402435839e-05 -3.160382402711547911e-05 2.062122439383529127e-05
8.300000000000000000e+02 7.421012115478515625e+01 -1.541295528411865234e+01 1.328001526417210698e-04 2.769565799098927528e-05 4.814874409930780530e-05 -1.849887667049188167e-05
8.310000000000000000e+02 7.203094482421875000e+01 -1.622170257568359375e+01 1.175469151348806918e-04 9.092761320061981678e-05 6.254235631786286831e-05 5.390604565036483109e-05
8.320000000000000000e+02 7.063493347167968750e+01 -1.571882820129394531e+01 -1.373766717733815312e-04 1.031155770760960877e-04 -1.027832786348881200e-05 1.915349940873056767e-07
8.330000000000000000e+02 6.900074768066406250e+01 -1.818523788452148438e+01 -5.509258480742573738e-04 1.561286353535251692e-06 -1.648093602852895856e-04 1.317090209340676665e-04
8.340000000000000000e+02 7.003069305419921875e+01 -1.591386604309082031e+01 -7.159982487792149186e-05 -8.378681377507746220e-05 -4.661599086830392480e-05 6.037836647010408342e-05
8.350000000000000000e+02 7.273438262939453125e+01 -1.617357444763183594e+01 -1.327313202637014911e-05 -1.120438464567996562e-04 -3.759509490919299424e-05 4.255776275385869667e-06
8.360000000000000000e+02 6.883261108398437500e+01 -2.087895011901855469e+01 -7.852967246435582638e-04 1.616141671547666192e-04 -1.871047570602968335e-04 1.727872004266828299e-04
8.370000000000000000e+02 6.880792999267578125e+01 -2.227167320251464844e+01 8.633931283839046955e-04 3.730806056410074234e-04 3.709421143867075443e-04 -3.939643283956684172e-05
8.380000000000000000e+02 6.876599121093750000e+01 -2.369023132324218750e+01 -8.464220445603132248e-04 6.382396677508950233e-04 -6.245471013244241476e-05 2.966195752378553152e-04
8.390000000000000000e+02 6.756708526611328125e+01 -2.791963195800781250e+01 -1.006421865895390511e-03 1.569705200381577015e-04 -2.548354095779359341e-04 -1.387759693898260593e-03
8.400000000000000000e+02 6.562689971923828125e+01 -3.023652648925781250e+01 -1.205032411962747574e-02 -1.574159483425319195e-03 -4.087345208972692490e-03 -5.388295277953147888e-03
8.410000000000000000e+02 6.315277862548828125e+01 -3.190222167968750000e+01 -4.419707134366035461e-02 -2.416116185486316681e-03 -1.398395653814077377e-02 -1.108808442950248718e-02
8.420000000000000000e+02 5.369195556640625000e+01 -2.979093360900878906e+01 6.958302110433578491e-03 4.626715183258056641e-02 1.596763543784618378e-02 -3.575102612376213074e-02
8.430000000000000000e+02 5.070156097412109375e+01 -2.662326622009277344e+01 5.640184134244918823e-02 7.181261479854583740e-02 3.846433386206626892e-02 -6.441592425107955933e-02
8.440000000000000000e+02 4.973961257934570312e+01 -2.557385444641113281e+01 6.112207844853401184e-02 6.389564275741577148e-02 3.750531375408172607e-02 -6.874373555183410645e-02
8.450000000000000000e+02 4.678656768798828125e+01 -2.251694488525390625e+01 6.743084639310836792e-02 7.564316689968109131e-02 4.292220249772071838e-02 -6.153067573904991150e-02
8.460000000000000000e+02 4.579864501953125000e+01 -2.150914764404296875e+01 6.311651319265365601e-02 1.180740296840667725e-01 5.435716360807418823e-02 -7.942648977041244507e-02
8.470000000000000000e+02 4.480582046508789062e+01 -2.050199890136718750e+01 8.598486334085464478e-02 2.258772552013397217e-01 9.355863928794860840e-02 -1.305350661277770996e-01
8.480000000000000000e+02 4.168845748901367188e+01 -1.401159095764160156e+01 6.257618218660354614e-02 1.863300323486328125e+00 5.777629613876342773e-01 -3.532006442546844482e-01
8.490000000000000000e+02 4.047436141967773438e+01 -1.011624526977539062e+01 2.386203706264495850e-01 4.621218144893646240e-01 2.102226614952087402e-01 -4.225578308105468750e-01
8.500000000000000000e+02 4.003035736083984375e+01 -9.147971153259277344e+00 3.446300923824310303e-01 2.951891124248504639e-01 1.919457614421844482e-01 -3.409110903739929199e-01
8.510000000000000000e+02 4.060483932495117188e+01 -9.218798637390136719e+00 2.044468373060226440e-01 2.191840261220932007e-01 1.270892620086669922e-01 -2.090266346931457520e-01
8.520000000000000000e+02 3.709918594360351562e+01 -8.777952194213867188e+00 1.501887798309326172e+00 8.620999455451965332e-01 7.091963291168212891e-01 -1.381890416145324707e+00
8.530000000000000000e+02 3.662119293212890625e+01 -8.671823501586914062e+00 1.786645293235778809e+00 1.057768583297729492e+00 8.533241748809814453e-01 -1.654792547225952148e+00
8.540000000000000000e+02 3.494614028930664062e+01 -8.317901611328125000e+00 2.565958738327026367e+00 4.371710777282714844e+00 2.081300973892211914e+00 -3.248941898345947266e+00
8.550000000000000000e+02 3.557937622070312500e+01 -8.371076583862304688e+00 2.425936222076416016e+00 2.338422775268554688e+00 1.429307699203491211e+00 -2.545246839523315430e+00
8.560000000000000000e+02 3.433223342895507812e+01 -8.194061279296875000e+00 2.170880556106567383e+00 7.175414562225341797e+00 2.803888559341430664e+00 -3.306067705154418945e+00
8.570000000000000000e+02 3.362424468994140625e+01 -8.091217994689941406e+00 1.610046505928039551e+00 1.038231086730957031e+01 3.597707033157348633e+00 -8.646711707115173340e-01
8.580000000000000000e+02 3.411339187622070312e+01 -8.161330223083496094e+00 1.784039616584777832e+00 8.749190330505371094e+00 3.159968852996826172e+00 -2.697944641113281250e+00
8.590000000000000000e+02 3.389030075073242188e+01 -8.126538276672363281e+00 1.731499552726745605e+00 9.278968811035156250e+00 3.303140640258789062e+00 -2.131403207778930664e+00
8.600000000000000000e+02 3.534449386596679688e+01 -4.593902587890625000e+00 1.988459229469299316e+00 4.076483249664306641e+00 1.819482684135437012e+00 5.087125301361083984e+00
8.610000000000000000e+02 3.576414489746093750e+01 -4.997427463531494141e+00 2.636567115783691406e+00 1.990495562553405762e+00 1.388118863105773926e+00 3.872499465942382812e+00
8.620000000000000000e+02 3.616203689575195312e+01 -5.073748111724853516e+00 2.181883096694946289e+00 1.308054447174072266e+00 1.046981215476989746e+00 3.034542083740234375e+00
8.630000000000000000e+02 3.657070922851562500e+01 -5.140318393707275391e+00 1.546045780181884766e+00 9.974051117897033691e-01 7.630352377891540527e-01 2.256529808044433594e+00
8.640000000000000000e+02 3.595304107666015625e+01 -4.712296962738037109e+00 2.002303600311279297e+00 2.159760951995849609e+00 1.248619437217712402e+00 3.805491447448730469e+00
8.650000000000000000e+02 3.899007415771484375e+01 -5.429340362548828125e+00 -3.556590378284454346e-01 4.219349622726440430e-01 1.988278143107891083e-02 -4.764929786324501038e-02
8.660000000000000000e+02 4.139103698730468750e+01 -5.487222194671630859e+00 -2.495019286870956421e-01 -2.114075869321823120e-01 -1.382728517055511475e-01 -4.082202315330505371e-01
8.670000000000000000e+02 1.425753021240234375e+01 -1.628143882751464844e+01 5.967512130737304688e-01 7.591456174850463867e-03 1.813028007745742798e-01 -2.047585137188434601e-02
8.680000000000000000e+02 1.964755630493164062e+01 -1.705058479309082031e+01 -5.152682587504386902e-02 -7.434363663196563721e-02 -3.776113688945770264e-02 2.067066431045532227e-01
8.690000000000000000e+02 1.931696319580078125e+01 -1.829745292663574219e+01 -1.569717675447463989e-01 -3.676137700676918030e-02 -5.811994522809982300e-02 9.763017296791076660e-02
8.700000000000000000e+02 2.192057800292968750e+01 -1.867687988281250000e+01 -4.427814781665802002e-01 3.295519854873418808e-03 -1.318457871675491333e-01 9.699492901563644409e-02
8.710000000000000000e+02 2.463511657714843750e+01 -1.734811592102050781e+01 -8.910112977027893066e-01 8.335938304662704468e-02 -2.422955632209777832e-01 3.697280287742614746e-01
8.720000000000000000e+02 2.107866096496582031e+01 -1.608244705200195312e+01 -5.315740779042243958e-02 -1.107726395130157471e-01 -4.917901381850242615e-02 3.837580978870391846e-01
8.730000000000000000e+02 2.850918006896972656e+01 -1.800064659118652344e+01 -2.772860050201416016e+00 5.462902039289474487e-02 -8.154693245887756348e-01 -1.776497662067413330e-01
8.740000000000000000e+02 3.244507980346679688e+01 -2.925702095031738281e+01 5.581162571907043457e-01 1.148153543472290039e+00 5.118809342384338379e-01 7.962793111801147461e-01
8.750000000000000000e+02 2.682328987121582031e+01 -3.149794387817382812e+01 -3.977208435535430908e-01 2.548971585929393768e-02 -1.116693392395973206e-01 -6.077351514250040054e-03
8.760000000000000000e+02 2.272106170654296875e+01 -3.186405372619628906e+01 -4.484201073646545410e-01 -4.621723666787147522e-03 -1.359125524759292603e-01 -2.994552440941333771e-02
8.770000000000000000e+02 2.403676223754882812e+01 -3.359885406494140625e+01 -2.981171607971191406e-01 1.315719634294509888e-02 -8.548799157142639160e-02 1.223578490316867828e-02
8.780000000000000000e+02 2.135267829895019531e+01 -3.188212394714355469e+01 -4.563643038272857666e-01 -1.110295485705137253e-02 -1.402401775121688843e-01 -1.964764855802059174e-02
8.790000000000000000e+02 1.991547966003417969e+01 -3.346031951904296875e+01 -3.769475221633911133e-01 -3.141446784138679504e-02 -1.225085929036140442e-01 1.107440213672816753e-03
8.800000000000000000e+02 1.784035682678222656e+01 -3.490277862548828125e+01 -2.932157218456268311e-01 -8.877491950988769531e-02 -1.145971864461898804e-01 6.043644994497299194e-02
8.810000000000000000e+02 1.177542495727539062e+01 -3.109331512451171875e+01 -7.414743304252624512e-01 -7.331483811140060425e-02 -2.444367408752441406e-01 2.232230901718139648e-01
8.820000000000000000e+02 1.283097553253173828e+01 -1.599788284301757812e+01 9.690446853637695312e-01 8.208220452070236206e-02 3.153380751609802246e-01 8.198785036802291870e-02
8.830000000000000000e+02 3.337230682373046875e+01 -4.339923381805419922e+00 1.092099845409393311e-01 9.248523712158203125e+00 2.807320117950439453e+00 2.002687692642211914e+00
8.840000000000000000e+02 3.494901657104492188e+01 -4.933701992034912109e+00 3.043386936187744141e+00 4.924290657043457031e+00 2.390303373336791992e+00 5.799079895019531250e+00
8.850000000000000000e+02 3.678150177001953125e+01 -5.185584545135498047e+00 1.237956881523132324e+00 8.987734317779541016e-01 6.410191059112548828e-01 1.922843694686889648e+00
8.860000000000000000e+02 3.557222747802734375e+01 -4.568143367767333984e+00 1.799192667007446289e+00 3.235311985015869141e+00 1.510351419448852539e+00 4.612946033477783203e+00
8.870000000000000000e+02 3.478112411499023438e+01 -4.891773223876953125e+00 2.795866489410400391e+00 6.157639980316162109e+00 2.686051845550537109e+00 6.202071666717529297e+00
8.880000000000000000e+02 3.521770095825195312e+01 -4.083779335021972656e+00 5.887414216995239258e-01 4.924951076507568359e+00 1.654107689857482910e+00 5.049743175506591797e+00
8.890000000000000000e+02 3.637126541137695312e+01 -4.777044296264648438e+00 1.689355373382568359e+00 1.607074975967407227e+00 9.889291524887084961e-01 3.074320316314697266e+00
8.900000000000000000e+02 3.761073303222656250e+01 -5.070493221282958984e+00 4.915893971920013428e-01 9.373252391815185547e-01 4.286743998527526855e-01 1.261445045471191406e+00
8.910000000000000000e+02 3.534001159667968750e+01 -4.945719718933105469e+00 3.140419960021972656e+00 3.266120672225952148e+00 1.921962141990661621e+00 5.060605049133300781e+00
8.920000000000000000e+02 3.596348190307617188e+01 -5.038108348846435547e+00 2.455520868301391602e+00 1.583220601081848145e+00 1.211622357368469238e+00 3.398996114730834961e+00
8.930000000000000000e+02 3.832855224609375000e+01 -5.368206024169921875e+00 -2.987189590930938721e-02 5.535996556282043457e-01 1.571183353662490845e-01 4.395374953746795654e-01
8.940000000000000000e+02 3.312483978271484375e+01 -7.947257518768310547e+00 2.697849750518798828e+00 1.055427837371826172e+01 3.975638389587402344e+00 1.402986526489257812e+00
8.950000000000000000e+02 3.564120864868164062e+01 -8.610318183898925781e+00 2.285463094711303711e+00 2.398965358734130859e+00 1.405328512191772461e+00 -2.526312589645385742e+00
8.960000000000000000e+02 3.614884567260742188e+01 -8.527515411376953125e+00 2.168823242187500000e+00 1.485683441162109375e+00 1.096351981163024902e+00 -2.025280237197875977e+00
8.970000000000000000e+02 3.575812911987304688e+01 -8.396920204162597656e+00 2.372884750366210938e+00 1.974949002265930176e+00 1.304350137710571289e+00 -2.366874456405639648e+00
8.980000000000000000e+02 3.474251937866210938e+01 -8.275518417358398438e+00 2.469089031219482422e+00 5.186282157897949219e+00 2.296611309051513672e+00 -3.353630304336547852e+00
8.990000000000000000e+02 3.515520858764648438e+01 -8.361655235290527344e+00 2.560047388076782227e+00 3.420645713806152344e+00 1.794207930564880371e+00 -2.982255935668945312e+00
9.000000000000000000e+02 3.536983871459960938e+01 -8.397902488708496094e+00 2.476200819015502930e+00 2.843270778656005859e+00 1.595841407775878906e+00 -2.777245759963989258e+00
9.010000000000000000e+02 3.780974960327148438e+01 -8.914825439453125000e+00 1.106728434562683105e+00 6.120943427085876465e-01 5.156468749046325684e-01 -1.033494114875793457e+00
9.020000000000000000e+02 3.605615234375000000e+01 -8.886933326721191406e+00 1.996509194374084473e+00 1.970915555953979492e+00 1.190227389335632324e+00 -2.275934696197509766e+00
9.030000000000000000e+02 3.497928237915039062e+01 -8.664402961730957031e+00 2.087081432342529297e+00 4.385575294494628906e+00 1.941796898841857910e+00 -3.070339679718017578e+00
9.040000000000000000e+02 7.565767669677734375e+01 -1.536859607696533203e+01 1.053808082360774279e-04 1.654600055189803243e-05 3.657804336398839951e-05 2.102770667988806963e-05
9.050000000000000000e+02 7.954898834228515625e+01 -1.814741516113281250e+01 8.855944179231300950e-05 4.396305666887201369e-05 3.975674917455762625e-05 -4.081230872543528676e-05
9.060000000000000000e+02 7.562791442871093750e+01 -1.629612159729003906e+01 -7.069024286465719342e-05 -2.824955117830540985e-05 -2.968193621200043708e-05 -4.960634396411478519e-05
9.070000000000000000e+02 7.769190216064453125e+01 -1.620559310913085938e+01 1.601133990334346890e-04 -5.413718827185221016e-05 3.179286431986838579e-05 -1.637131754250731319e-05
9.080000000000000000e+02 6.861282348632812500e+01 -1.632554054260253906e+01 1.064641837729141116e-04 -1.189944814541377127e-04 -3.759090077437576838e-06 -8.873746992321684957e-05
9.090000000000000000e+02 7.755399322509765625e+01 -7.050147056579589844e+00 -3.643399104475975037e-03 6.746316794306039810e-03 9.308752487413585186e-04 8.037831634283065796e-03
9.100000000000000000e+02 7.683672332763671875e+01 -1.146748733520507812e+01 6.297835148870944977e-03 1.160823856480419636e-03 2.237597713246941566e-03 8.746636100113391876e-03
9.110000000000000000e+02 7.954906463623046875e+01 -9.494324684143066406e+00 -1.276885392144322395e-03 1.481351070106029510e-02 4.060987383127212524e-03 3.307862207293510437e-03
9.120000000000000000e+02 7.856793212890625000e+01 -6.937838554382324219e+00 -1.413002959452569485e-03 1.872563362121582031e-02 5.193789023905992508e-03 5.744630005210638046e-03
9.130000000000000000e+02 7.956617736816406250e+01 -8.237574577331542969e+00 1.035521621815860271e-03 2.470748871564865112e-02 7.722903043031692505e-03 2.431637374684214592e-03
9.140000000000000000e+02 7.667038726806640625e+01 -1.063080692291259766e+01 4.006041213870048523e-03 7.716586696915328503e-04 1.433309982530772686e-03 1.069942861795425415e-02
9.150000000000000000e+02 4.116230773925781250e+01 -9.415917396545410156e+00 8.481378853321075439e-02 1.769993901252746582e-01 7.854395359754562378e-02 -1.185365542769432068e-01
9.160000000000000000e+02 3.850156402587890625e+01 -9.801295280456542969e+00 7.440730333328247070e-01 8.094505071640014648e-01 4.660570621490478516e-01 -1.047217726707458496e+00
9.170000000000000000e+02 2.044852066040039062e+01 4.084764003753662109e+00 1.964244875125586987e-04 2.037690137512981892e-05 6.504041812149807811e-05 2.413292895653285086e-05
9.180000000000000000e+02 2.117434692382812500e+01 2.089217901229858398e+00 2.050094190053641796e-05 -3.220989310648292303e-05 -3.512685225359746255e-06 7.428012850141385570e-06
9.190000000000000000e+02 2.156571769714355469e+01 2.594231605529785156e+00 -3.246969208703376353e-05 -1.895150307973381132e-05 -1.542635800433345139e-05 -2.842843969119712710e-05
9.200000000000000000e+02 1.950820732116699219e+01 3.122678756713867188e+00 1.649093464948236942e-04 3.734325582627207041e-05 6.067578215152025223e-05 7.370462117251008749e-05
9.210000000000000000e+02 1.775666618347167969e+01 7.328450679779052734e+00 1.618792157387360930e-04 3.605956226238049567e-05 5.938163303653709590e-05 6.818935071351006627e-05
9.220000000000000000e+02 1.937831687927246094e+01 1.506037473678588867e+00 -3.064264819840900600e-05 -3.004511745530180633e-05 -1.820633042370900512e-05 -6.741449760738760233e-05
9.230000000000000000e+02 1.990289878845214844e+01 5.223082065582275391e+00 -2.124437160091474652e-04 -2.286303970322478563e-05 -7.059202471282333136e-05 -5.487321323016658425e-05
9.240000000000000000e+02 1.655461692810058594e+01 2.516258716583251953e+00 -1.710460855974815786e-05 -1.125503476941958070e-04 -3.889648723998107016e-05 -6.506663339678198099e-05
9.250000000000000000e+02 6.200552463531494141e+00 1.890048980712890625e+00 -2.271714402013458312e-05 -4.147388972342014313e-05 -1.925730975926853716e-05 1.209930906043155119e-05
9.260000000000000000e+02 1.005342102050781250e+01 2.495852470397949219e+00 -3.183198350598104298e-05 -6.744861457264050841e-05 -2.978417796839494258e-05 1.054781819220806938e-06
9.270000000000000000e+02 7.830009460449218750e+00 2.603706121444702148e+00 2.643872358021326363e-05 5.742666326113976538e-05 2.515961568860802799e-05 -4.184054887446109205e-06
9.280000000000000000e+02 6.933618068695068359e+00 1.880290389060974121e+00 1.896433241199702024e-05 4.772294778376817703e-05 2.000618405872955918e-05 -9.039958968060091138e-06
9.290000000000000000e+02 7.086255550384521484e+00 2.644047021865844727e+00 -2.336914985789917409e-05 -5.571338260779157281e-05 -2.372476046730298549e-05 8.339836313098203391e-06
9.300000000000000000e+02 8.783809661865234375e+00 3.294304370880126953e+00 4.083540989086031914e-05 6.144604412838816643e-05 3.068443402298726141e-05 -1.025202095661370549e-06
9.310000000000000000e+02 1.926631569862365723e+00 3.238473653793334961e+00 -4.598444502335041761e-05 2.640408456500153989e-05 -5.874108410353073850e-06 -1.491873149461753201e-06
9.320000000000000000e+02 2.606612443923950195e+00 3.385109663009643555e+00 5.470521500683389604e-05 3.600181298679672182e-05 2.721210694289766252e-05 -5.427426367532461882e-05
9.330000000000000000e+02 4.046939611434936523e-01 2.093772888183593750e+00 -3.081638351432047784e-05 -2.090627822326496243e-05 -1.551679815747775137e-05 2.098680670314934105e-05
9.340000000000000000e+02 1.161998152732849121e+00 1.927327156066894531e+00 1.868323238340963144e-06 4.105851257918402553e-05 1.287805025640409440e-05 -1.961286943696904927e-05
9.350000000000000000e+02 1.136980724334716797e+01 1.649914145469665527e+00 2.517086431907955557e-05 7.190746691776439548e-05 2.912349918915424496e-05 7.879021723056212068e-06
9.360000000000000000e+02 9.526912689208984375e+00 3.245009422302246094e+00 -4.498324415180832148e-05 -6.480931915575638413e-05 -3.293776899226941168e-05 4.495831035455921665e-06
9.370000000000000000e+02 1.023425483703613281e+01 -1.970397591590881348e+00 -2.204630821943283081e-01 2.408666163682937622e-02 -5.891292542219161987e-02 -1.508938055485486984e-02
9.380000000000000000e+02 1.098907947540283203e+01 -2.844410181045532227e+00 -2.029401808977127075e-01 3.034294024109840393e-02 -5.177917331457138062e-02 -1.789154298603534698e-02
9.390000000000000000e+02 1.029736423492431641e+01 -3.546264648437500000e+00 -1.744370609521865845e-01 4.758245870471000671e-02 -3.805638104677200317e-02 -3.455422446131706238e-02
9.400000000000000000e+02 9.486462593078613281e+00 -2.729488611221313477e+00 -1.879266202449798584e-01 3.664993122220039368e-02 -4.538300633430480957e-02 -3.834038227796554565e-02
9.410000000000000000e+02 1.449873256683349609e+01 1.884741783142089844e+00 -3.234172254451550543e-05 -9.395935921929776669e-05 -3.789032416534610093e-05 -1.575501482875552028e-05
9.420000000000000000e+02 1.585711383819580078e+01 1.732282996177673340e+00 -1.130661075876560062e-05 -1.126916322391480207e-04 -3.719947198987938464e-05 -5.541712016565725207e-05
9.430000000000000000e+02 1.516961288452148438e+01 1.771517515182495117e+00 1.219535170093877241e-05 1.074377287295646966e-04 3.588992331060580909e-05 2.666537147888448089e-05
9.440000000000000000e+02 1.213043594360351562e+01 1.533308982849121094e+00 -2.424976082693319768e-05 -7.654645742150023580e-05 -3.023886529263108969e-05 -1.065357173501979560e-05
9.450000000000000000e+02 3.835735321044921875e+01 -3.824130773544311523e+00 -7.383338212966918945e-01 1.916979432106018066e+00 3.535936772823333740e-01 1.101708292961120605e+00
9.460000000000000000e+02 4.031628417968750000e+01 -4.614679813385009766e+00 -4.140981435775756836e-01 1.834839284420013428e-01 -6.918426603078842163e-02 -3.567871153354644775e-01
9.470000000000000000e+02 3.959555053710937500e+01 -4.716466426849365234e+00 -5.436428189277648926e-01 5.635373592376708984e-01 5.968362092971801758e-03 -2.523271143436431885e-01
9.480000000000000000e+02 3.895800399780273438e+01 -4.816878318786621094e+00 -3.647893667221069336e-01 8.471533656120300293e-01 1.447091996669769287e-01 2.393509149551391602e-01
9.490000000000000000e+02 7.275801849365234375e+01 -1.548243236541748047e+01 8.290060213766992092e-05 5.298068936099298298e-05 4.076438563060946763e-05 1.676384090387728065e-05
9.500000000000000000e+02 7.335100555419921875e+01 -1.686986923217773438e+01 -1.205997250508517027e-04 -1.247215259354561567e-04 -7.359637675108388066e-05 1.085265030269511044e-04
9.510000000000000000e+02 7.863350677490234375e+01 -1.808619499206542969e+01 -7.149551674956455827e-05 6.164428486954420805e-05 -2.955370518975541927e-06 -1.006641923595452681e-05
9.520000000000000000e+02 7.344113922119140625e+01 -1.616330718994140625e+01 1.323188480455428362e-04 7.421407644869759679e-05 6.195987225510179996e-05 -3.410699355299584568e-05
9.530000000000000000e+02 7.132182312011718750e+01 -1.564963054656982422e+01 1.396828592987731099e-04 -3.456810873103677295e-06 4.086781700607389212e-05 1.111690871766768396e-04
9.540000000000000000e+02 7.270497131347656250e+01 -1.688283157348632812e+01 -2.420094097033143044e-05 8.573141531087458134e-05 1.845914084697142243e-05 3.133328937110491097e-05
9.550000000000000000e+02 7.850144195556640625e+01 -2.068748283386230469e+01 -1.264612510567530990e-04 9.361567936139181256e-05 -9.853670235315803438e-06 -3.343792559462599456e-05
9.560000000000000000e+02 7.006284332275390625e+01 -1.984008026123046875e+01 -5.439042579382658005e-04 1.164239347417606041e-05 -1.596785587025806308e-04 1.719191786833107471e-04
9.570000000000000000e+02 7.323097229003906250e+01 -1.165994262695312500e+01 1.355810277163982391e-02 -4.479288123548030853e-03 2.723644487559795380e-03 2.883070381358265877e-03
9.580000000000000000e+02 7.174160003662109375e+01 -1.014474964141845703e+01 5.703121423721313477e-03 -1.242852490395307541e-02 -2.017620950937271118e-03 -1.944197574630379677e-03
9.590000000000000000e+02 7.093053436279296875e+01 -1.104413223266601562e+01 1.179296709597110748e-02 -8.930670097470283508e-03 8.586891344748437405e-04 -6.270878016948699951e-03
9.600000000000000000e+02 6.822762298583984375e+01 -1.172603607177734375e+01 8.305328898131847382e-03 4.923436325043439865e-03 3.968629520386457443e-03 -9.595168754458427429e-03
9.610000000000000000e+02 7.245700836181640625e+01 -1.094254779815673828e+01 9.732839651405811310e-03 -8.111338131129741669e-03 4.864504735451191664e-04 2.703330246731638908e-04
9.620000000000000000e+02 6.870223236083984375e+01 -9.789188385009765625e+00 1.255340222269296646e-02 5.393073079176247120e-04 3.927812911570072174e-03 -8.804782293736934662e-03
9.630000000000000000e+02 7.323188018798828125e+01 -1.086077690124511719e+01 8.573604747653007507e-03 -5.370555445551872253e-03 9.609148837625980377e-04 2.852572128176689148e-03
9.640000000000000000e+02 7.595414733886718750e+01 -1.069459056854248047e+01 4.271090961992740631e-03 -9.023653110489249229e-04 1.010617590509355068e-03 9.915702044963836670e-03
9.650000000000000000e+02 7.521544647216796875e+01 -1.102804851531982422e+01 8.877758868038654327e-03 -1.265388680621981621e-03 2.283711219206452370e-03 8.854955434799194336e-03
9.660000000000000000e+02 3.698294830322265625e+01 -1.006619548797607422e+01 1.062614321708679199e+00 1.702723860740661621e+00 8.296014666557312012e-01 -1.873685359954833984e+00
9.670000000000000000e+02 4.003678894042968750e+01 -1.126116275787353516e+01 1.941126137971878052e-01 1.059451341629028320e+00 3.760691881179809570e-01 -8.140805959701538086e-01
9.680000000000000000e+02 3.594353103637695312e+01 -8.466964721679687500e+00 2.305779457092285156e+00 1.701616168022155762e+00 1.202218651771545410e+00 -2.205631256103515625e+00
9.690000000000000000e+02 3.882440185546875000e+01 -1.107387733459472656e+01 4.343987107276916504e-01 1.225028634071350098e+00 4.978282153606414795e-01 -1.193629741668701172e+00
9.700000000000000000e+02 3.542631912231445312e+01 -8.770549774169921875e+00 2.194011926651000977e+00 3.040042400360107422e+00 1.570216298103332520e+00 -2.778102397918701172e+00
9.710000000000000000e+02 1.475473308563232422e+01 -3.282186269760131836e+00 -2.121890187263488770e-01 -1.775223203003406525e-02 -6.898237764835357666e-02 2.282446250319480896e-03
9.720000000000000000e+02 1.321970081329345703e+01 -3.106310844421386719e+00 -2.111500352621078491e-01 7.305270526558160782e-03 -6.115342676639556885e-02 5.921824369579553604e-03
9.730000000000000000e+02 1.633637237548828125e+01 -3.423017501831054688e+00 -2.159002274274826050e-01 -4.978707060217857361e-02 -7.970619201660156250e-02 -2.735480666160583496e-02
9.740000000000000000e+02 9.308320999145507812e+00 2.540085554122924805e+00 3.348442260175943375e-05 6.274613406276330352e-05 2.886916627176105976e-05 -1.469290509703569114e-06
9.750000000000000000e+02 1.158202171325683594e+01 2.331197023391723633e+00 -2.790399594232439995e-05 -8.122497820295393467e-05 -3.273869151598773897e-05 -2.893104237955412827e-06
9.760000000000000000e+02 1.381274890899658203e+01 2.008363962173461914e+00 3.934424603357911110e-05 8.467853331239894032e-05 3.720683525898493826e-05 1.894849083328153938e-05
9.770000000000000000e+02 1.308575153350830078e+01 2.118637561798095703e+00 -3.152590579702518880e-05 -8.297021850012242794e-05 -3.434883910813368857e-05 -1.731969496177043766e-05
9.780000000000000000e+02 3.205981063842773438e+01 -8.227746963500976562e+00 3.721263408660888672e+00 6.008890151977539062e+00 2.919046163558959961e+00 2.537962436676025391e+00
9.790000000000000000e+02 3.226260757446289062e+01 -9.168258666992187500e+00 1.819911241531372070e+00 5.785529613494873047e+00 2.281632184982299805e+00 1.496079683303833008e+00
9.800000000000000000e+02 2.999518966674804688e+01 -1.895674586296081543e+00 -9.416428565979003906e+00 -8.836979866027832031e-01 -3.090037822723388672e+00 -2.485178947448730469e+00
9.810000000000000000e+02 3.288136672973632812e+01 -4.809962272644042969e+00 2.517980813980102539e+00 8.752273559570312500e+00 3.381076335906982422e+00 1.036130197462625802e-04
9.820000000000000000e+02 3.244146728515625000e+01 -4.075259685516357422e+00 -1.929243654012680054e-01 4.983468055725097656e+00 1.437163114547729492e+00 1.084094271063804626e-01
9.830000000000000000e+02 2.868849754333496094e+01 -2.007230997085571289e+00 -7.448772907257080078e+00 -4.857906997203826904e-01 -2.380369186401367188e+00 -1.434266090393066406e+00
9.840000000000000000e+02 3.455150985717773438e+01 -8.546534538269042969e+00 1.925734639167785645e+00 5.998749732971191406e+00 2.377345323562622070e+00 -3.073340177536010742e+00
9.850000000000000000e+02 3.355117034912109375e+01 -8.425239562988281250e+00 1.297870516777038574e+00 9.484327316284179688e+00 3.234659433364868164e+00 -6.899464130401611328e-01
9.860000000000000000e+02 1.945750427246093750e+01 -2.777759313583374023e+00 -3.594951629638671875e-01 -9.085093438625335693e-02 -1.351038217544555664e-01 -1.460990011692047119e-01
9.870000000000000000e+02 1.553843879699707031e+01 -3.361336946487426758e+00 -2.113200724124908447e-01 -3.818865492939949036e-02 -7.485262304544448853e-02 -1.256803423166275024e-02
9.880000000000000000e+02 1.795022010803222656e+01 -3.494859457015991211e+00 -2.272722125053405762e-01 -9.013859182596206665e-02 -9.522324055433273315e-02 -8.744364231824874878e-02
9.890000000000000000e+02 1.714287757873535156e+01 -3.466800689697265625e+00 -2.174496650695800781e-01 -7.510025054216384888e-02 -8.776497095823287964e-02 -5.813565105199813843e-02
9.900000000000000000e+02 2.042220497131347656e+01 -3.420773744583129883e+00 -3.050029575824737549e-01 -1.289931535720825195e-01 -1.301988363265991211e-01 -2.305280566215515137e-01
9.910000000000000000e+02 2.294127655029296875e+01 -3.123111009597778320e+00 -6.728228926658630371e-01 -3.484658151865005493e-02 -2.123008370399475098e-01 -4.613015055656433105e-01
9.920000000000000000e+02 1.876271247863769531e+01 -3.500787019729614258e+00 -2.387446314096450806e-01 -1.134219318628311157e-01 -1.056499704718589783e-01 -1.316289305686950684e-01
9.930000000000000000e+02 8.695912361145019531e+00 -2.713488101959228516e+00 -1.750231832265853882e-01 3.692555055022239685e-02 -4.142928868532180786e-02 -4.906090721487998962e-02
9.940000000000000000e+02 6.232349872589111328e+00 -2.786258220672607422e+00 -1.230277419090270996e-01 1.243333891034126282e-02 -3.317832201719284058e-02 -8.681923151016235352e-02
9.950000000000000000e+02 7.014302253723144531e+00 -1.914407014846801758e+00 -1.531710773706436157e-01 1.090591214597225189e-02 -4.267955198884010315e-02 -5.819693952798843384e-02
9.960000000000000000e+02 7.884377479553222656e+00 -2.719824314117431641e+00 -1.598415523767471313e-01 2.882598526775836945e-02 -3.930466994643211365e-02 -6.400188058614730835e-02
9.970000000000000000e+02 7.061549186706542969e+00 -2.744757890701293945e+00 -1.421632915735244751e-01 2.435320988297462463e-02 -3.534302487969398499e-02 -7.461084425449371338e-02
9.980000000000000000e+02 5.361706733703613281e+00 -1.945630192756652832e+00 -1.091286614537239075e-01 -5.986856922390870750e-05 -3.275655955076217651e-02 -6.900383532047271729e-02
9.990000000000000000e+02 4.569927215576171875e+00 -2.899135351181030273e+00 -8.201240003108978271e-02 -1.057650614529848099e-02 -2.777667343616485596e-02 -9.230502694845199585e-02
1.000000000000000000e+03 1.763949155807495117e+00 -9.081421852111816406e+00 -1.996599882841110229e-02 -3.046445548534393311e-01 -9.738316386938095093e-02 -1.424799114465713501e-01
1.001000000000000000e+03 5.513871312141418457e-01 -6.373355388641357422e+00 -1.479698927141726017e-03 -2.083308994770050049e-01 -6.294317543506622314e-02 -3.548239916563034058e-02
1.002000000000000000e+03 3.034767150878906250e+00 -4.020771503448486328e+00 -4.292353987693786621e-02 -4.595057666301727295e-02 -2.666223421692848206e-02 -9.841982275247573853e-02
1.003000000000000000e+03 4.298983812332153320e-01 -3.562764883041381836e+00 -2.119996817782521248e-03 -5.418731272220611572e-02 -1.689219288527965546e-02 -1.543030422180891037e-02
1.004000000000000000e+03 2.519243431091308594e+01 -1.757917046546936035e+00 -1.592961430549621582e+00 -3.442565724253654480e-02 -4.882161021232604980e-01 4.180746618658304214e-04
1.005000000000000000e+03 4.224161911010742188e+01 -3.547591686248779297e+00 -3.185675442218780518e-01 -1.340553522109985352e+00 -4.977363348007202148e-01 -7.837449908256530762e-01
1.006000000000000000e+03 4.109364700317382812e+01 -4.552591800689697266e+00 -5.074442028999328613e-01 7.049447391182184219e-03 -1.501184254884719849e-01 -4.650060832500457764e-01
1.007000000000000000e+03 1.689903020858764648e+00 -3.192048072814941406e+01 -2.521919086575508118e-02 7.669150233268737793e-01 2.225087434053421021e-01 1.937119849026203156e-02
1.008000000000000000e+03 3.159350967407226562e+01 -1.773649406433105469e+01 -4.088259696960449219e+00 -1.580955535173416138e-01 -1.273906588554382324e+00 2.598309218883514404e-01
1.009000000000000000e+03 3.785800552368164062e+01 -2.046137237548828125e+01 3.594420552253723145e-01 3.140911817550659180e+00 1.050106167793273926e+00 -4.910015314817428589e-02
1.010000000000000000e+03 3.490404129028320312e+01 -1.851221466064453125e+01 -1.228231191635131836e+00 3.578063011169433594e+00 7.049494981765747070e-01 -6.144089698791503906e-01
1.011000000000000000e+03 7.507584095001220703e+00 -1.559359931945800781e+01 4.682313501834869385e-01 8.514956235885620117e-01 3.959181010723114014e-01 2.444800734519958496e-01
1.012000000000000000e+03 3.344942092895507812e+01 -1.729247474670410156e+01 -2.033059835433959961e+00 1.682798743247985840e+00 -1.050783023238182068e-01 -1.049474239349365234e+00
1.013000000000000000e+03 3.799302673339843750e+01 -2.314947700500488281e+01 7.232148051261901855e-01 2.889312505722045898e+00 1.083758234977722168e+00 -7.250608410686254501e-03
1.014000000000000000e+03 1.189008331298828125e+01 -3.391111755371093750e+01 -2.949196994304656982e-01 -2.193407714366912842e-01 -1.542781442403793335e-01 2.070595622062683105e-01
1.015000000000000000e+03 4.294560909271240234e+00 -1.948438262939453125e+01 3.401690721511840820e-01 3.981196582317352295e-01 2.214866131544113159e-01 3.197073340415954590e-01
1.016000000000000000e+03 1.874995589256286621e+00 -1.900182342529296875e+01 9.035230427980422974e-02 -5.876495242118835449e-01 -1.491891592741012573e-01 1.013783961534500122e-01
1.017000000000000000e+03 1.268427658081054688e+01 -1.476809310913085938e+01 6.837132573127746582e-01 1.254214197397232056e-01 2.427404075860977173e-01 2.336754053831100464e-01
1.018000000000000000e+03 2.816420936584472656e+01 -3.144585800170898438e+01 -3.158513903617858887e-01 4.113563150167465210e-02 -8.241473138332366943e-02 4.872533306479454041e-02
1.019000000000000000e+03 3.068801498413085938e+01 -3.393905258178710938e+01 -2.381573766469955444e-01 7.347427606582641602e-01 1.489756107330322266e-01 3.409598171710968018e-01
1.020000000000000000e+03 1.310365676879882812e+01 -3.135057067871093750e+01 -6.289415955543518066e-01 -6.222062930464744568e-02 -2.073486596345901489e-01 1.642365306615829468e-01
1.021000000000000000e+03 1.039765167236328125e+01 -3.083055496215820312e+01 -8.821715712547302246e-01 -2.781476378440856934e-01 -3.480957746505737305e-01 3.631869852542877197e-01
1.022000000000000000e+03 3.297646522521972656e+00 -1.741298484802246094e+01 1.959397047758102417e-01 -1.102677434682846069e-01 2.570158801972866058e-02 2.100079320371150970e-02
1.023000000000000000e+03 3.445869445800781250e+01 -2.883613586425781250e+01 2.192676514387130737e-01 2.159496068954467773e+00 7.136290669441223145e-01 5.888658165931701660e-01
1.024000000000000000e+03 2.209957313537597656e+01 -1.740703010559082031e+01 -3.730539977550506592e-01 -5.492899566888809204e-03 -1.135640665888786316e-01 2.910431921482086182e-01
1.025000000000000000e+03 3.574328994750976562e+01 -2.668142318725585938e+01 3.710452616214752197e-01 3.350955247879028320e+00 1.116600155830383301e+00 3.047538697719573975e-01
1.026000000000000000e+03 1.021427345275878906e+01 -1.486026859283447266e+01 6.654604673385620117e-01 5.196403264999389648e-01 3.555302321910858154e-01 3.916760683059692383e-01
1.027000000000000000e+03 1.142533493041992188e+01 -1.608612060546875000e+01 1.199958562850952148e+00 9.381735324859619141e-02 3.881327509880065918e-01 2.446371316909790039e-01
1.028000000000000000e+03 1.726135063171386719e+01 -1.627134323120117188e+01 2.249998003244400024e-01 -1.110300421714782715e-01 3.419092670083045959e-02 1.355286985635757446e-01
1.029000000000000000e+03 1.605927658081054688e+01 -1.573787784576416016e+01 3.901595473289489746e-01 -1.142446249723434448e-01 8.277448266744613647e-02 1.211268380284309387e-01
1.030000000000000000e+03 6.807540059089660645e-01 -2.757116889953613281e+01 -1.193602569401264191e-02 5.953693389892578125e-01 1.750300079584121704e-01 1.293490827083587646e-01
1.031000000000000000e+03 9.025685310363769531e+00 -1.461240196228027344e+01 4.706399142742156982e-01 6.069607734680175781e-01 3.232801854610443115e-01 2.586730122566223145e-01
1.032000000000000000e+03 8.805628776550292969e+00 -1.604973220825195312e+01 1.018601179122924805e+00 7.818544507026672363e-01 5.401366949081420898e-01 5.570925474166870117e-01
1.033000000000000000e+03 1.753744840621948242e+00 -2.039909362792968750e+01 9.216912090778350830e-02 -5.024057626724243164e-01 -1.230709925293922424e-01 2.082673460245132446e-01
1.034000000000000000e+03 1.805088996887207031e+01 -1.791845130920410156e+01 -4.088598489761352539e-02 -3.642414137721061707e-02 -2.319303713738918304e-02 7.627687603235244751e-02
1.035000000000000000e+03 3.377737808227539062e+01 -2.993606758117675781e+01 5.759540572762489319e-02 1.769189000129699707e+00 5.480353236198425293e-01 5.206928253173828125e-01
1.036000000000000000e+03 3.317169952392578125e+01 -3.108032608032226562e+01 -1.214088350534439087e-01 1.471800088882446289e+00 4.051173627376556396e-01 4.936906397342681885e-01
1.037000000000000000e+03 3.741436004638671875e+01 -2.155687904357910156e+01 5.373995304107666016e-01 3.176936626434326172e+00 1.114300847053527832e+00 -7.072494924068450928e-02
1.038000000000000000e+03 1.502714729309082031e+01 -3.528584671020507812e+01 -2.581464648246765137e-01 -1.324600130319595337e-01 -1.171819418668746948e-01 1.169837862253189087e-01
1.039000000000000000e+03 1.845047950744628906e+01 -1.671156692504882812e+01 7.640726119279861450e-02 -1.087108403444290161e-01 -9.691071696579456329e-03 1.642473191022872925e-01
1.040000000000000000e+03 2.060875511169433594e+01 -1.856103515625000000e+01 -2.766598463058471680e-01 -8.440571837127208710e-03 -8.553012460470199585e-02 1.070044934749603271e-01
1.041000000000000000e+03 1.998735046386718750e+01 -3.191670799255371094e+01 -4.526190459728240967e-01 5.983184018987230957e-05 -1.357677578926086426e-01 -9.339358657598495483e-03
1.042000000000000000e+03 2.255125999450683594e+01 -3.357864379882812500e+01 -3.290674090385437012e-01 -3.397152526304125786e-03 -9.973936527967453003e-02 2.126206178218126297e-03
1.043000000000000000e+03 2.120322036743164062e+01 -3.336599731445312500e+01 -3.612561821937561035e-01 -5.272091366350650787e-03 -1.099584847688674927e-01 -1.524747069925069809e-02
1.044000000000000000e+03 2.086293601989746094e+01 -1.728576660156250000e+01 -2.024600654840469360e-01 -5.361424759030342102e-02 -7.682229578495025635e-02 2.448281645774841309e-01
1.045000000000000000e+03 2.589145851135253906e+01 -1.837266159057617188e+01 -1.466208100318908691e+00 3.183211758732795715e-02 -4.303127825260162354e-01 -3.786284103989601135e-02
1.046000000000000000e+03 2.345909881591796875e+01 -1.621392059326171875e+01 -3.734418451786041260e-01 -1.950906962156295776e-02 -1.178852692246437073e-01 5.558222532272338867e-01
1.047000000000000000e+03 2.844166564941406250e+01 -1.699547004699707031e+01 -2.179883956909179688e+00 1.045692786574363708e-01 -6.225944161415100098e-01 4.301474392414093018e-01
1.048000000000000000e+03 2.797157859802246094e+01 -3.302482223510742188e+01 -1.323515474796295166e-01 1.806872636079788208e-01 1.450071111321449280e-02 1.617772281169891357e-01
1.049000000000000000e+03 2.682295417785644531e+01 -3.301438522338867188e+01 -2.148961871862411499e-01 4.262840002775192261e-02 -5.168033391237258911e-02 4.742692410945892334e-02
1.050000000000000000e+03 2.546614837646484375e+01 -3.163621902465820312e+01 -4.120323061943054199e-01 -2.602882683277130127e-03 -1.243905574083328247e-01 -2.768194861710071564e-02
1.051000000000000000e+03 1.481519889831542969e+01 -1.509837627410888672e+01 5.616393685340881348e-01 -5.028799921274185181e-02 1.534054130315780640e-01 1.902963370084762573e-01
1.052000000000000000e+03 3.217998504638671875e+01 -1.681243133544921875e+01 -1.987983226776123047e+00 5.106531977653503418e-01 -4.431990087032318115e-01 -6.751110553741455078e-01
1.053000000000000000e+03 2.959792137145996094e+01 -1.695957374572753906e+01 -2.285234212875366211e+00 6.215808540582656860e-02 -6.669228672981262207e-01 4.007983207702636719e-01
1.054000000000000000e+03 2.720716285705566406e+01 -1.816932106018066406e+01 -2.164368152618408203e+00 -2.029597945511341095e-02 -6.553992033004760742e-01 -7.790696620941162109e-02
1.055000000000000000e+03 3.389311218261718750e+01 -1.646693229675292969e+01 -1.653996944427490234e+00 2.312093973159790039e+00 1.974291354417800903e-01 -1.240188121795654297e+00
1.056000000000000000e+03 2.324587249755859375e+01 -1.865825462341308594e+01 -6.771359443664550781e-01 2.245265245437622070e-02 -1.964049935340881348e-01 7.721367478370666504e-02
1.057000000000000000e+03 4.935130119323730469e+00 -1.614226722717285156e+01 2.475109547376632690e-01 2.868660092353820801e-01 1.603130996227264404e-01 -3.096766024827957153e-02
1.058000000000000000e+03 1.443015003204345703e+01 -3.165523719787597656e+01 -5.807743668556213379e-01 -4.114284366369247437e-02 -1.865751594305038452e-01 1.230125427246093750e-01
1.059000000000000000e+03 1.553627967834472656e+01 -3.358390045166015625e+01 -4.033235609531402588e-01 -9.156960248947143555e-02 -1.484679430723190308e-01 1.135165840387344360e-01
1.060000000000000000e+03 1.397767829895019531e+01 -3.321087646484375000e+01 -4.558591544628143311e-01 -1.061681285500526428e-01 -1.686081886291503906e-01 1.680854409933090210e-01
1.061000000000000000e+03 1.156587219238281250e+01 -3.250615310668945312e+01 -5.110266804695129395e-01 -1.910501867532730103e-01 -2.106230556964874268e-01 2.703402936458587646e-01
1.062000000000000000e+03 1.272733402252197266e+01 -3.272137451171875000e+01 -5.130977034568786621e-01 -1.003673076629638672e-01 -1.840395033359527588e-01 1.970735043287277222e-01
1.063000000000000000e+03 3.772798919677734375e+01 -2.397794723510742188e+01 7.380009293556213379e-01 2.792452812194824219e+00 1.059136152267456055e+00 -1.443595290184020996e-01
1.064000000000000000e+03 3.662154006958007812e+01 -2.365605926513671875e+01 6.165409684181213379e-01 4.033840656280517578e+00 1.395114421844482422e+00 6.516887247562408447e-02
1.065000000000000000e+03 1.797248721122741699e+00 -2.307344436645507812e+01 3.824875503778457642e-02 -1.749562025070190430e-01 -4.101223126053810120e-02 3.932666778564453125e-01
1.066000000000000000e+03 2.585477066040039062e+01 -3.514541625976562500e+01 -1.818734109401702881e-01 1.142441928386688232e-01 -2.028876729309558868e-02 9.797047078609466553e-02
1.067000000000000000e+03 2.538326072692871094e+01 -2.714936256408691406e+00 -2.027515888214111328e+00 3.986264578998088837e-03 -6.070588827133178711e-01 -7.515544295310974121e-01
1.068000000000000000e+03 6.219741058349609375e+01 -1.788371682167053223e+00 -7.405254244804382324e-01 2.923547849059104919e-02 -2.133869826793670654e-01 5.527417734265327454e-02
1.069000000000000000e+03 6.758947753906250000e+01 -6.631684303283691406e+00 -3.949874266982078552e-02 3.079696616623550653e-04 -1.175723131746053696e-02 7.516719866544008255e-03
1.070000000000000000e+03 5.954492187500000000e+01 -7.943089604377746582e-01 -1.234439730644226074e+00 -8.651036769151687622e-03 -3.729272484779357910e-01 4.548620432615280151e-02
1.071000000000000000e+03 1.283321666717529297e+01 2.285280990600585938e+01 4.008759860880672932e-04 1.067263656295835972e-05 1.234645897056907415e-04 -2.850241799023933709e-05
1.072000000000000000e+03 5.092035293579101562e+01 4.267082214355468750e+00 -1.821001052856445312e+00 -1.512861847877502441e-01 -5.916861891746520996e-01 -1.140956282615661621e+00
1.073000000000000000e+03 1.532609272003173828e+01 1.828205871582031250e+01 -3.112912818323820829e-04 -1.825725348680862226e-06 -9.393510117661207914e-05 -2.199020855186972767e-05
1.074000000000000000e+03 1.407079315185546875e+01 1.809840965270996094e+01 2.859397791326045990e-04 -4.969232759322039783e-05 7.087423728080466390e-05 -1.034354113471636083e-06
1.075000000000000000e+03 6.486579895019531250e+01 -3.238771438598632812e+00 -3.330889940261840820e-01 5.760528892278671265e-02 -8.264511078596115112e-02 4.158240929245948792e-02
1.076000000000000000e+03 2.839631652832031250e+01 3.904708099365234375e+01 6.308541051112115383e-04 -9.674413129687309265e-03 -2.713067689910531044e-03 5.699189379811286926e-02
1.077000000000000000e+03 2.619211387634277344e+01 3.846240615844726562e+01 1.314359600655734539e-03 -1.341424696147441864e-02 -3.629966173321008682e-03 3.381529450416564941e-02
1.078000000000000000e+03 5.321935272216796875e+01 1.084856152534484863e+00 -2.404160499572753906e+00 1.742726117372512817e-01 -6.689663529396057129e-01 7.041167467832565308e-02
1.079000000000000000e+03 5.286618804931640625e+01 2.866051673889160156e+00 -2.210055589675903320e+00 1.812205612659454346e-01 -6.086505055427551270e-01 -6.149804592132568359e-01
1.080000000000000000e+03 6.352205657958984375e+01 -2.454025745391845703e+00 -5.201199650764465332e-01 3.782320395112037659e-02 -1.446890383958816528e-01 3.543056920170783997e-02
1.081000000000000000e+03 6.086703109741210938e+01 -1.242956995964050293e+00 -1.002196192741394043e+00 -6.948702502995729446e-03 -3.027434647083282471e-01 3.436708450317382812e-02
1.082000000000000000e+03 5.694956588745117188e+01 -5.830062180757522583e-02 -1.670140385627746582e+00 -3.245460335165262222e-03 -5.020157694816589355e-01 1.537951733916997910e-02
1.083000000000000000e+03 5.823920440673828125e+01 -4.123245179653167725e-01 -1.492165923118591309e+00 -3.689960017800331116e-02 -4.587196409702301025e-01 1.389129273593425751e-02
1.084000000000000000e+03 4.991419219970703125e+01 3.230820178985595703e+00 -3.006479024887084961e+00 -2.335442155599594116e-01 -9.720069766044616699e-01 -1.056890964508056641e+00
1.085000000000000000e+03 6.765467834472656250e+01 -1.176733875274658203e+01 3.277538577094674110e-03 8.635649457573890686e-03 3.573956433683633804e-03 -1.271532662212848663e-02
1.086000000000000000e+03 6.816693878173828125e+01 -1.241243076324462891e+01 6.546685472130775452e-03 5.461446475237607956e-03 3.602439537644386292e-03 -8.089477196335792542e-03
1.087000000000000000e+03 6.662281036376953125e+01 -9.287980079650878906e+00 6.722729187458753586e-03 2.821157500147819519e-02 1.048029121011495590e-02 -2.197783626616001129e-02
1.088000000000000000e+03 2.799865913391113281e+01 4.121982574462890625e+01 4.642440378665924072e-02 -3.985578939318656921e-02 1.970584737136960030e-03 2.860818803310394287e-02
1.089000000000000000e+03 6.874365997314453125e+01 -8.302648544311523438e+00 -4.301059525460004807e-03 -3.162766341120004654e-03 -2.239147899672389030e-03 -4.133888520300388336e-03
1.090000000000000000e+03 6.743450927734375000e+01 -8.401411056518554688e+00 4.081421066075563431e-03 9.609828703105449677e-03 4.107375163584947586e-03 -9.158100932836532593e-03
1.091000000000000000e+03 1.824984169006347656e+01 3.180368614196777344e+01 -7.802511099725961685e-04 3.557942691259086132e-04 -1.273370435228571296e-04 9.475051192566752434e-04
1.092000000000000000e+03 1.579668712615966797e+01 2.959502410888671875e+01 1.015721703879535198e-03 -1.904515193018596619e-05 2.990029752254486084e-04 2.704794169403612614e-04
1.093000000000000000e+03 1.514382076263427734e+01 1.070554256439208984e+01 1.371325924992561340e-04 3.934727646992541850e-05 5.294396032695658505e-05 6.027324707247316837e-05
1.094000000000000000e+03 1.570452022552490234e+01 1.243900012969970703e+01 2.085685555357486010e-04 3.243865648983046412e-05 7.230216579046100378e-05 8.383861859329044819e-05
1.095000000000000000e+03 1.731859397888183594e+01 3.390894317626953125e+01 -1.101514935726299882e-04 -1.500006037531420588e-04 -7.804563210811465979e-05 3.576872404664754868e-04
1.096000000000000000e+03 1.391077423095703125e+01 1.963666152954101562e+01 -2.895153011195361614e-04 -2.818462598952464759e-05 -9.530997340334579349e-05 1.357690234726760536e-05
1.097000000000000000e+03 1.525096416473388672e+01 1.378654575347900391e+01 -2.228384983027353883e-04 -1.914257518365047872e-05 -7.259432459250092506e-05 -8.302011701744049788e-05
1.098000000000000000e+03 1.824862670898437500e+01 1.589855194091796875e+00 7.103283132892102003e-05 -1.628177415113896132e-05 1.642531606194097549e-05 -3.438216708673280664e-06
1.099000000000000000e+03 1.485800933837890625e+01 2.695470237731933594e+01 6.277604261413216591e-04 5.514517397386953235e-05 2.048716705758124590e-04 1.133091936935670674e-04
1.100000000000000000e+03 2.005224037170410156e+01 1.704743146896362305e+00 7.510022260248661041e-05 -9.691290870250668377e-06 1.962267924682237208e-05 3.723769987118430436e-05
1.101000000000000000e+03 2.062456321716308594e+01 3.127335309982299805e+00 -1.753369288053363562e-04 5.369120117393322289e-06 -5.099034024169668555e-05 1.657530265219975263e-05
1.102000000000000000e+03 1.393040752410888672e+01 2.116397285461425781e+01 3.263693361077457666e-04 1.985356357181444764e-05 1.038668633555062115e-04 9.190881428366992623e-06
1.103000000000000000e+03 1.821876716613769531e+01 8.922966957092285156e+00 2.483306161593645811e-04 3.793267751461826265e-05 8.587899355916306376e-05 8.809327846392989159e-05
1.104000000000000000e+03 1.774081230163574219e+01 4.776239871978759766e+00 -9.355074143968522549e-05 -5.039734605816192925e-05 -4.318442734074778855e-05 -6.960215250728651881e-05
1.105000000000000000e+03 7.940953826904296875e+01 -2.775694847106933594e+01 -3.440094296820461750e-04 4.658593970816582441e-04 3.655499313026666641e-05 1.752142270561307669e-04
1.106000000000000000e+03 7.950685882568359375e+01 -2.091489219665527344e+01 1.391568366670981050e-04 1.893479493446648121e-04 9.855144162429496646e-05 -6.206033867783844471e-05
1.107000000000000000e+03 7.891204071044921875e+01 -3.870364761352539062e+01 -2.085126616293564439e-04 -7.704393938183784485e-03 -2.373872091993689537e-03 8.018196676857769489e-04
1.108000000000000000e+03 7.928254699707031250e+01 -3.463237762451171875e+01 2.907250018324702978e-04 -3.753453958779573441e-03 -1.038818736560642719e-03 6.624513189308345318e-04
1.109000000000000000e+03 7.932768249511718750e+01 -3.326047134399414062e+01 -4.543717077467590570e-04 -2.364959334954619408e-03 -8.457993390038609505e-04 7.284618914127349854e-04
1.110000000000000000e+03 7.773871612548828125e+01 -1.710374069213867188e+01 -1.792050461517646909e-04 9.592210699338465929e-05 -2.498487992852460593e-05 -4.664061270887032151e-05
1.111000000000000000e+03 7.945648956298828125e+01 -2.364141845703125000e+01 1.767991343513131142e-04 4.339081933721899986e-04 1.832121924962848425e-04 -1.072529557859525084e-04
1.112000000000000000e+03 7.821527099609375000e+01 -2.737861251831054688e+01 8.867334690876305103e-05 1.105242772609926760e-04 5.975928797852247953e-05 2.120994213328231126e-05
1.113000000000000000e+03 7.824271392822265625e+01 -2.602870368957519531e+01 -2.795047184918075800e-04 1.282718585571274161e-04 -4.536986307357437909e-05 8.860370144248008728e-05
1.114000000000000000e+03 7.938296508789062500e+01 -3.050254440307617188e+01 -4.439089389052242041e-04 -3.244585823267698288e-04 -2.305102534592151642e-04 4.126217390876263380e-04
1.115000000000000000e+03 7.628463745117187500e+01 -3.483506774902343750e+01 -9.352611959911882877e-04 -2.954781055450439453e-03 -1.167012611404061317e-03 3.603965509682893753e-03
1.116000000000000000e+03 7.800595855712890625e+01 -3.277893447875976562e+01 6.646102519880514592e-06 -2.096475102007389069e-03 -6.269487203098833561e-04 1.546590006910264492e-03
1.117000000000000000e+03 7.745903015136718750e+01 -3.668242645263671875e+01 9.356125701742712408e-06 -5.374100059270858765e-03 -1.609423081390559673e-03 2.541942521929740906e-03
1.118000000000000000e+03 7.892221069335937500e+01 -1.643410491943359375e+01 4.924894892610609531e-05 1.288240164285525680e-04 5.342188887880183756e-05 -8.710601105121895671e-05
1.119000000000000000e+03 1.447600650787353516e+01 2.556187629699707031e+01 -4.226913442835211754e-04 9.452464837522711605e-06 -1.239716657437384129e-04 3.530306275933980942e-05
1.120000000000000000e+03 1.618346214294433594e+01 1.111492919921875000e+01 -1.956816267920657992e-04 -3.880902295350097120e-05 -7.034719601506367326e-05 -7.990950689418241382e-05
1.121000000000000000e+03 1.668806457519531250e+01 9.820238113403320312e+00 1.877832110039889812e-04 3.910501618520356715e-05 6.806646706536412239e-05 7.382737385341897607e-05
1.122000000000000000e+03 1.531565952301025391e+01 2.828669548034667969e+01 -5.131129291839897633e-04 7.010804984020069242e-05 -1.329014630755409598e-04 3.895872214343398809e-05
1.123000000000000000e+03 1.481545734405517578e+01 1.516610527038574219e+01 2.396342460997402668e-04 -1.783115112630184740e-05 6.654093158431351185e-05 7.363185432041063905e-05
1.124000000000000000e+03 1.587243747711181641e+01 2.364282608032226562e+00 -2.011224569287151098e-05 1.339444715995341539e-04 3.414966704440303147e-05 4.569547309074550867e-05
1.125000000000000000e+03 7.647357177734375000e+01 3.574703216552734375e+01 2.907840535044670105e-02 -1.275558829307556152e+00 -3.739441037178039551e-01 4.226962570101022720e-03
1.126000000000000000e+03 7.831223297119140625e+01 -2.896534681320190430e+00 -6.797752343118190765e-03 2.402930054813623428e-03 -1.318446709774434566e-03 -1.245793793350458145e-02
1.127000000000000000e+03 7.815982055664062500e+01 2.638894081115722656e+00 -1.114500034600496292e-02 -1.257148087024688721e-01 -4.105794057250022888e-02 -7.239919155836105347e-02
1.128000000000000000e+03 7.807228088378906250e+01 9.574035644531250000e+00 -4.702595528215169907e-03 -4.861158728599548340e-01 -1.472455412149429321e-01 -1.341256946325302124e-01
1.129000000000000000e+03 7.807318878173828125e+01 1.646497726440429688e+01 6.733541376888751984e-03 -9.204550981521606445e-01 -2.741164565086364746e-01 -1.238597556948661804e-01
1.130000000000000000e+03 7.907879638671875000e+01 3.858974075317382812e+01 -2.836022758856415749e-03 -1.513710498809814453e+00 -4.549639523029327393e-01 2.091301791369915009e-02
1.131000000000000000e+03 7.918242645263671875e+01 3.205910873413085938e+01 -3.750490490347146988e-03 -1.569507837295532227e+00 -4.719774723052978516e-01 -1.445809262804687023e-03
1.132000000000000000e+03 7.778230285644531250e+01 2.904672813415527344e+01 7.124281954020261765e-03 -1.347299575805664062e+00 -4.020525813102722168e-01 -3.305193409323692322e-02
1.133000000000000000e+03 7.754196166992187500e+01 3.203366470336914062e+01 1.165686827152967453e-02 -1.367547750473022461e+00 -4.067672789096832275e-01 -2.340638078749179840e-02
1.134000000000000000e+03 7.930926513671875000e+01 2.500480842590332031e+01 1.196346478536725044e-03 -1.446643829345703125e+00 -4.336342513561248779e-01 -2.023807913064956665e-02
1.135000000000000000e+03 7.800156402587890625e+01 2.201570892333984375e+01 9.525379166007041931e-03 -1.186852574348449707e+00 -3.531981706619262695e-01 -8.612111955881118774e-02
1.136000000000000000e+03 7.792533111572265625e+01 2.480431556701660156e+01 1.019956916570663452e-02 -1.276454567909240723e+00 -3.798764944076538086e-01 -6.389020383358001709e-02
1.137000000000000000e+03 7.669426727294921875e+01 2.042233848571777344e+01 2.200478874146938324e-02 -9.967548847198486328e-01 -2.924250066280364990e-01 -1.545880883932113647e-01
1.138000000000000000e+03 7.935136413574218750e+01 1.943581771850585938e+01 1.853309920988976955e-03 -1.204043865203857422e+00 -3.606571555137634277e-01 -3.558929264545440674e-02
1.139000000000000000e+03 7.804669952392578125e+01 1.923871803283691406e+01 8.064848370850086212e-03 -1.067523956298828125e+00 -3.178377151489257812e-01 -1.066144034266471863e-01
1.140000000000000000e+03 7.807835388183593750e+01 1.508734607696533203e+01 4.612679593265056610e-03 -8.374735116958618164e-01 -2.498582452535629272e-01 -1.296090036630630493e-01
1.141000000000000000e+03 7.807723999023437500e+01 1.233845996856689453e+01 4.041819483973085880e-04 -6.636375784873962402e-01 -1.989700198173522949e-01 -1.373100429773330688e-01
1.142000000000000000e+03 7.936186981201171875e+01 1.249319744110107422e+01 1.360926777124404907e-03 -7.319239377975463867e-01 -2.191689014434814453e-01 -4.745286703109741211e-02
1.143000000000000000e+03 7.807462310791015625e+01 8.192980766296386719e+00 -5.462718196213245392e-03 -4.020136892795562744e-01 -1.222429201006889343e-01 -1.277891546487808228e-01
1.144000000000000000e+03 7.809960174560546875e+01 5.419223308563232422e+00 -9.443959221243858337e-03 -2.482737004756927490e-01 -7.731530070304870605e-02 -1.044833883643150330e-01
1.145000000000000000e+03 7.936906433105468750e+01 5.548243999481201172e+00 -3.439912339672446251e-03 -2.429827898740768433e-01 -7.392680644989013672e-02 -3.653689846396446228e-02
1.146000000000000000e+03 7.681512451171875000e+01 5.300995826721191406e+00 -2.717298641800880432e-02 -2.403725832700729370e-01 -8.026366680860519409e-02 -1.636035889387130737e-01
1.147000000000000000e+03 7.819622039794921875e+01 1.252642273902893066e+00 -1.244278252124786377e-02 -7.836341112852096558e-02 -2.724185772240161896e-02 -5.583236366510391235e-02
1.148000000000000000e+03 7.826852416992187500e+01 -1.516511917114257812e+00 -9.626444429159164429e-03 -1.487077865749597549e-02 -7.349167019128799438e-03 -2.506472170352935791e-02
1.149000000000000000e+03 7.942526245117187500e+01 -1.404050469398498535e+00 -1.363012939691543579e-03 1.537142600864171982e-02 4.202524200081825256e-03 -8.269601501524448395e-03
1.150000000000000000e+03 7.710898590087890625e+01 -1.610124945640563965e+00 -2.242674864828586578e-02 -3.380791097879409790e-02 -1.687039807438850403e-02 -4.100210219621658325e-02
1.151000000000000000e+03 7.805959320068359375e+01 -9.188310623168945312e+00 1.860995194874703884e-03 8.325280621647834778e-03 3.055882640182971954e-03 1.043045427650213242e-02
1.152000000000000000e+03 7.791078186035156250e+01 -1.034312248229980469e+01 3.920088522136211395e-03 5.506134591996669769e-03 2.827866934239864349e-03 9.088339284062385559e-03
1.153000000000000000e+03 7.729627227783203125e+01 -1.059358406066894531e+01 2.353851916268467903e-03 3.317986615002155304e-03 1.701551605947315693e-03 9.071570821106433868e-03
1.154000000000000000e+03 7.848554229736328125e+01 -9.916017532348632812e+00 -1.113738282583653927e-03 8.940520696341991425e-03 2.348034642636775970e-03 8.084226399660110474e-03
1.155000000000000000e+03 7.873472595214843750e+01 -9.177861213684082031e+00 9.255403419956564903e-04 1.280216779559850693e-02 4.118312150239944458e-03 7.859792560338973999e-03
1.156000000000000000e+03 3.894389724731445312e+01 5.391664028167724609e+00 3.047310590744018555e+00 1.116840648651123047e+01 4.264715194702148438e+00 5.502748966217041016e+00
1.157000000000000000e+03 6.237956237792968750e+01 -3.383828735351562500e+01 -5.106884986162185669e-02 -7.574067567475140095e-04 -1.554787717759609222e-02 1.818867214024066925e-02
1.158000000000000000e+03 4.174638366699218750e+01 -1.729830026626586914e+00 -2.242681264877319336e+00 -1.310622990131378174e-01 -7.121230959892272949e-01 -1.644100666046142578e+00
1.159000000000000000e+03 4.282234573364257812e+01 5.617334246635437012e-01 -4.389070510864257812e+00 3.099044598639011383e-02 -1.307423949241638184e+00 -1.076410889625549316e+00
1.160000000000000000e+03 4.264326858520507812e+01 -2.342200994491577148e+00 -1.278474092483520508e+00 -2.727181434631347656e+00 -1.201696634292602539e+00 -1.567970037460327148e+00
1.161000000000000000e+03 5.679392242431640625e+01 -3.426570510864257812e+01 -2.890143357217311859e-02 4.557737335562705994e-02 5.002781283110380173e-03 -4.308679699897766113e-02
1.162000000000000000e+03 4.083617401123046875e+01 -1.535274696350097656e+01 6.740551441907882690e-02 2.026504993438720703e+00 6.281731724739074707e-01 -5.025990009307861328e-01
1.163000000000000000e+03 3.658176040649414062e+01 -1.989823532104492188e+01 3.085060715675354004e-01 3.421522617340087891e+00 1.119008541107177734e+00 -1.146416994743049145e-03
1.164000000000000000e+03 4.095071792602539062e+01 -3.684837579727172852e+00 -7.487926483154296875e-01 9.775175899267196655e-02 -1.953122764825820923e-01 -7.200978398323059082e-01
1.165000000000000000e+03 4.094958114624023438e+01 3.258796310424804688e+01 3.302846252918243408e-01 2.505707025527954102e+00 8.507975339889526367e-01 -6.234701275825500488e-01
1.166000000000000000e+03 4.000179672241210938e+01 3.401826095581054688e+01 1.232839971780776978e-01 1.940971136093139648e+00 6.192765235900878906e-01 -5.970318913459777832e-01
1.167000000000000000e+03 6.880593872070312500e+01 -2.861929702758789062e+01 -4.662921186536550522e-03 7.164516719058156013e-04 -1.183940796181559563e-03 -6.452695815823972225e-04
1.168000000000000000e+03 5.514387130737304688e+01 -3.356795120239257812e+01 -2.130133286118507385e-02 1.070322543382644653e-01 2.571927569806575775e-02 -6.128484010696411133e-02
1.169000000000000000e+03 4.278821182250976562e+01 2.832084083557128906e+01 5.124783515930175781e-01 3.489995241165161133e+00 1.200742125511169434e+00 -3.231487870216369629e-01
1.170000000000000000e+03 3.420883560180664062e+01 -3.368151560425758362e-02 -1.952428936958312988e+00 1.520632624626159668e+00 -1.295389235019683838e-01 5.085737109184265137e-01
1.171000000000000000e+03 3.250568389892578125e+01 -1.967668890953063965e+00 -5.438812732696533203e+00 1.858462810516357422e+00 -1.074105024337768555e+00 1.832185387611389160e-01
1.172000000000000000e+03 3.677245712280273438e+01 3.507353973388671875e+01 1.643889099359512329e-01 3.011702597141265869e-01 1.396677494049072266e-01 -2.362708300352096558e-01
1.173000000000000000e+03 3.242993927001953125e+01 3.698508071899414062e+01 -1.209743842482566833e-01 3.299156203866004944e-03 -3.530256822705268860e-02 1.997077604755759239e-03
1.174000000000000000e+03 4.127332687377929688e+01 1.374367141723632812e+01 3.852779567241668701e-01 6.603598594665527344e+00 2.096662998199462891e+00 1.240177392959594727e+00
1.175000000000000000e+03 4.295689773559570312e+01 1.794921875000000000e+01 2.745617926120758057e-01 4.435970306396484375e+00 1.413159608840942383e+00 6.306391954421997070e-01
1.176000000000000000e+03 4.167419815063476562e+01 3.120856285095214844e+01 4.074705839157104492e-01 3.011466264724731445e+00 1.025681018829345703e+00 -6.582229137420654297e-01
1.177000000000000000e+03 6.442610931396484375e+01 -3.115129280090332031e+01 -2.553531900048255920e-02 -4.095679149031639099e-03 -8.889299817383289337e-03 -6.638095248490571976e-03
1.178000000000000000e+03 4.071235275268554688e+01 1.504215002059936523e+00 -1.753991246223449707e+00 4.126044273376464844e+00 7.116158604621887207e-01 7.813285589218139648e-01
1.179000000000000000e+03 6.753578186035156250e+01 -3.263649749755859375e+01 -1.399686653167009354e-02 3.457574639469385147e-03 -3.161787521094083786e-03 4.817617125809192657e-03
1.180000000000000000e+03 2.732146835327148438e+01 -2.005665540695190430e+00 -5.206764221191406250e+00 -2.392151504755020142e-01 -1.633793830871582031e+00 -5.014961361885070801e-01
1.181000000000000000e+03 3.019061088562011719e+01 -4.883205890655517578e+00 2.659641027450561523e+00 -1.928810775279998779e-01 7.400279641151428223e-01 -1.470029592514038086e+00
1.182000000000000000e+03 4.058009719848632812e+01 -1.303502368927001953e+01 9.476370364427566528e-02 1.469363331794738770e+00 4.692381024360656738e-01 -7.472678422927856445e-01
1.183000000000000000e+03 4.044939804077148438e+01 9.531377792358398438e+00 1.060059070587158203e+00 9.255208015441894531e+00 3.094579935073852539e+00 2.749634981155395508e+00
1.184000000000000000e+03 4.395024108886718750e+01 -2.140557670593261719e+01 1.856695264577865601e-01 6.775057911872863770e-01 2.589525878429412842e-01 -2.952281236648559570e-01
1.185000000000000000e+03 4.338626098632812500e+01 1.202722549438476562e+01 1.238121390342712402e+00 4.521013736724853516e+00 1.727740526199340820e+00 1.859691858291625977e+00
1.186000000000000000e+03 3.224836730957031250e+01 3.894098663330078125e+01 1.897846162319183350e-02 6.947457045316696167e-02 2.653590962290763855e-02 -3.144240006804466248e-02
1.187000000000000000e+03 4.042943191528320312e+01 -1.718979072570800781e+01 1.587797515094280243e-02 2.189086437225341797e+00 6.614893078804016113e-01 -2.485636770725250244e-01
1.188000000000000000e+03 3.853190612792968750e+01 2.344490051269531250e+00 9.944930672645568848e-01 7.321888923645019531e+00 2.494914531707763672e+00 2.998073816299438477e+00
1.189000000000000000e+03 2.943068313598632812e+01 -5.058731079101562500e+00 2.571715593338012695e+00 -8.380226492881774902e-01 5.201078653335571289e-01 -1.525550007820129395e+00
1.190000000000000000e+03 3.108282470703125000e+01 -2.108465194702148438e+00 -7.765198707580566406e+00 -7.452903985977172852e-01 -2.553146839141845703e+00 -2.268690824508666992e+00
1.191000000000000000e+03 3.472377777099609375e+01 3.830718994140625000e+01 3.139241039752960205e-02 2.385553717613220215e-01 8.098433166742324829e-02 -1.430121660232543945e-01
1.192000000000000000e+03 2.483431434631347656e+01 -3.733710527420043945e+00 -8.496940135955810547e-01 -2.874945700168609619e-01 -3.411565721035003662e-01 -1.169859647750854492e+00
1.193000000000000000e+03 2.864404296875000000e+01 -3.047767400741577148e+00 -3.366497516632080078e+00 -1.169230222702026367e+00 -1.360718369483947754e+00 -2.399048328399658203e+00
1.194000000000000000e+03 3.451158905029296875e+01 -8.532888293266296387e-01 -3.574669361114501953e+00 3.890376806259155273e+00 9.471225738525390625e-02 1.853871464729309082e+00
1.195000000000000000e+03 6.656560516357421875e+01 -3.139063835144042969e+01 -1.689615286886692047e-02 2.128803869709372520e-03 -4.430204629898071289e-03 1.265541068278253078e-03
1.196000000000000000e+03 3.610474777221679688e+01 6.546878069639205933e-02 -1.294123768806457520e+00 5.535338878631591797e+00 1.272364616394042969e+00 2.610434532165527344e+00
1.197000000000000000e+03 3.713737869262695312e+01 8.343876004219055176e-01 -1.406918913125991821e-01 6.428081035614013672e+00 1.886216759681701660e+00 2.571540832519531250e+00
1.198000000000000000e+03 4.155046844482421875e+01 9.337308883666992188e+00 1.724038243293762207e+00 6.731638908386230469e+00 2.536703109741210938e+00 2.868186473846435547e+00
1.199000000000000000e+03 4.302763366699218750e+01 1.938688087463378906e+01 1.698526740074157715e-01 4.231947422027587891e+00 1.320539951324462891e+00 4.593544304370880127e-01
1.200000000000000000e+03 3.892626571655273438e+01 3.631269073486328125e+01 -1.020330563187599182e-01 1.375186800956726074e+00 3.819461464881896973e-01 -4.496053159236907959e-01
1.201000000000000000e+03 3.878458404541015625e+01 3.508706283569335938e+01 6.964647769927978516e-02 1.287635326385498047e+00 4.071845412254333496e-01 -5.510706901550292969e-01
1.202000000000000000e+03 4.171825027465820312e+01 2.510968208312988281e+01 3.832619264721870422e-02 4.020521163940429688e+00 1.217654109001159668e+00 -4.365870729088783264e-02
1.203000000000000000e+03 4.102241897583007812e+01 1.233972644805908203e+01 3.855133056640625000e-01 6.988739013671875000e+00 2.212275743484497070e+00 1.555511116981506348e+00
1.204000000000000000e+03 4.246690368652343750e+01 1.362814235687255859e+01 6.858876347541809082e-01 5.415721893310546875e+00 1.830482840538024902e+00 1.393113493919372559e+00
1.205000000000000000e+03 4.265631866455078125e+01 5.539450168609619141e+00 1.468209981918334961e+00 2.609837770462036133e+00 1.223414301872253418e+00 2.215367555618286133e+00
1.206000000000000000e+03 4.189552307128906250e+01 1.076904869079589844e+01 1.171686887741088867e+00 6.319216251373291016e+00 2.247270822525024414e+00 2.374697923660278320e+00
1.207000000000000000e+03 4.311737442016601562e+01 2.517342758178710938e+01 1.338652670383453369e-01 3.711440324783325195e+00 1.153591752052307129e+00 -6.539826840162277222e-02
1.208000000000000000e+03 4.309349441528320312e+01 2.223858070373535156e+01 9.729550033807754517e-02 3.856990098953247070e+00 1.186285734176635742e+00 1.813245266675949097e-01
1.209000000000000000e+03 4.448705673217773438e+01 2.220141792297363281e+01 2.167588621377944946e-01 3.506012916564941406e+00 1.116831541061401367e+00 2.682742476463317871e-01
1.210000000000000000e+03 3.934478759765625000e+01 -9.850220680236816406e+00 5.188561081886291504e-01 6.259431838989257812e-01 3.434397876262664795e-01 -7.488033175468444824e-01
1.211000000000000000e+03 6.456726074218750000e+01 -3.517872238159179688e+01 -1.212486997246742249e-02 2.235150459455326200e-04 -3.570406464859843254e-03 2.026936225593090057e-02
1.212000000000000000e+03 6.107585906982421875e+01 -3.441779327392578125e+01 -3.562692180275917053e-02 -3.713314654305577278e-03 -1.180207077413797379e-02 2.749868482351303101e-02
1.213000000000000000e+03 6.983831787109375000e+01 -2.390222930908203125e+01 6.144661456346511841e-04 9.135040454566478729e-05 2.117449621437117457e-04 1.405216899001970887e-04
1.214000000000000000e+03 5.374435424804687500e+01 -3.252877044677734375e+01 -3.644824260845780373e-03 1.392166912555694580e-01 4.067155718803405762e-02 -8.489105850458145142e-02
1.215000000000000000e+03 6.928600311279296875e+01 -2.695518875122070312e+01 -2.607372880447655916e-04 -1.681569701759144664e-04 -1.286682818317785859e-04 -5.297322641126811504e-04
1.216000000000000000e+03 4.868108367919921875e+01 -2.668577384948730469e+01 1.396310478448867798e-01 2.102436572313308716e-01 1.049624085426330566e-01 -1.786213964223861694e-01
1.217000000000000000e+03 5.029754257202148438e+01 -3.141592979431152344e+01 4.838461428880691528e-02 3.358226120471954346e-01 1.152621656656265259e-01 -1.981445103883743286e-01
1.218000000000000000e+03 6.524401092529296875e+01 -3.248112869262695312e+01 -2.525439485907554626e-02 4.198915325105190277e-03 -6.316643673926591873e-03 3.294856986030936241e-03
1.219000000000000000e+03 6.384097290039062500e+01 -3.335040664672851562e+01 -3.831998631358146667e-02 2.076292876154184341e-03 -1.087310817092657089e-02 1.197130978107452393e-02
1.220000000000000000e+03 5.055840301513671875e+01 -2.893263626098632812e+01 8.265107870101928711e-02 1.952836513519287109e-01 8.338041603565216064e-02 -1.438220888376235962e-01
1.221000000000000000e+03 3.556588745117187500e+01 -1.929058837890625000e+01 -3.467866778373718262e-01 3.749958515167236328e+00 1.020951628684997559e+00 -6.278701871633529663e-02
1.222000000000000000e+03 4.138691329956054688e+01 -1.627591705322265625e+01 1.321022212505340576e-01 2.155408859252929688e+00 6.862533688545227051e-01 -4.330421090126037598e-01
1.223000000000000000e+03 4.961079025268554688e+01 -2.779416847229003906e+01 1.072441861033439636e-01 1.957014948129653931e-01 9.088370203971862793e-02 -1.655773669481277466e-01
1.224000000000000000e+03 5.132859039306640625e+01 -3.280039596557617188e+01 9.452144615352153778e-03 3.145326375961303711e-01 9.719543904066085815e-02 -1.568574756383895874e-01
1.225000000000000000e+03 6.887586975097656250e+01 -1.951226425170898438e+01 7.071443251334130764e-04 1.205555745400488377e-04 2.483099524397403002e-04 -8.443441038252785802e-05
1.226000000000000000e+03 7.202882385253906250e+01 -1.690798187255859375e+01 -1.808487140806391835e-04 -1.147574366768822074e-04 -8.868184522725641727e-05 2.041775223915465176e-05
1.227000000000000000e+03 5.267388534545898438e+01 -2.873093986511230469e+01 3.018532320857048035e-02 6.077858060598373413e-02 2.728917077183723450e-02 -4.405768588185310364e-02
1.228000000000000000e+03 4.777455139160156250e+01 -2.352937507629394531e+01 6.459038704633712769e-02 6.016549840569496155e-02 3.742676600813865662e-02 -6.660190969705581665e-02
1.229000000000000000e+03 4.680445098876953125e+01 -2.453140640258789062e+01 1.924761235713958740e-01 2.521950602531433105e-01 1.334013491868972778e-01 -2.093100249767303467e-01
1.230000000000000000e+03 6.994025421142578125e+01 -2.246706008911132812e+01 -4.601928812917321920e-04 1.349389203824102879e-04 -9.757618681760504842e-05 2.393602189840748906e-04
1.231000000000000000e+03 6.998869323730468750e+01 -2.110570716857910156e+01 5.679011228494346142e-04 1.361698232358321548e-04 2.112212969223037362e-04 6.960323662497103214e-05
1.232000000000000000e+03 4.490933609008789062e+01 -2.244171142578125000e+01 2.152933776378631592e-01 4.300942420959472656e-01 1.936162859201431274e-01 -2.556425631046295166e-01
1.233000000000000000e+03 4.576579666137695312e+01 -2.548116874694824219e+01 2.486021071672439575e-01 4.899755418300628662e-01 2.215732932090759277e-01 -3.411289751529693604e-01
1.234000000000000000e+03 1.487930059432983398e+00 -3.999236297607421875e+01 -1.427833363413810730e-02 6.870961785316467285e-01 2.018453478813171387e-01 -5.891644209623336792e-02
1.235000000000000000e+03 8.795241713523864746e-01 3.733696746826171875e+01 2.279557375004515052e-04 3.521771868690848351e-04 1.740398729452863336e-04 -7.959743379615247250e-05
1.236000000000000000e+03 6.651644706726074219e-01 3.315260314941406250e+01 -2.384045073995366693e-04 1.661527348915114999e-04 -2.167553429899271578e-05 2.445911013637669384e-05
1.237000000000000000e+03 4.167533397674560547e+00 3.627815246582031250e+01 1.783751795301213861e-04 5.759903069701977074e-05 7.079225906636565924e-05 -1.311158412136137486e-04
1.238000000000000000e+03 6.241443753242492676e-01 2.612664413452148438e+01 2.010041644098237157e-04 1.091478134185308591e-05 6.357568054227158427e-05 -3.974916398874484003e-05
1.239000000000000000e+03 1.857423067092895508e+00 2.732376098632812500e+01 2.186347701353952289e-04 2.154159665224142373e-05 7.205290603451430798e-05 -5.345753379515372217e-05
1.240000000000000000e+03 3.084830284118652344e+00 2.711838912963867188e+01 -1.943671086337417364e-04 3.556759111233986914e-05 -4.763985634781420231e-05 -1.027029156830394641e-05
1.241000000000000000e+03 3.037468671798706055e+00 2.424340629577636719e+01 -2.011215547099709511e-04 2.509621663193684071e-05 -5.280760160530917346e-05 -1.815882569644600153e-06
1.242000000000000000e+03 1.911604285240173340e+00 3.145637321472167969e+01 -2.073639043373987079e-04 1.036462053889408708e-04 -3.111530895694158971e-05 -2.296519960509613156e-05
1.243000000000000000e+03 1.992154479026794434e+00 3.280407333374023438e+01 2.166491321986541152e-04 1.305569312535226345e-04 1.041618161252699792e-04 -9.881270671030506492e-05
1.244000000000000000e+03 4.503100395202636719e+00 4.075942993164062500e+01 -1.569901505718007684e-04 -2.469533064868301153e-04 -1.211830312968231738e-04 -2.876922953873872757e-04
1.245000000000000000e+03 6.857903599739074707e-01 -3.589188766479492188e+01 1.015169918537139893e-02 8.906340599060058594e-01 2.702357470989227295e-01 -2.730039320886135101e-02
1.246000000000000000e+03 6.624863147735595703e+00 -3.558872222900390625e+01 -3.215789422392845154e-02 5.955381318926811218e-02 8.218776434659957886e-03 3.524514613673090935e-03
1.247000000000000000e+03 6.356974840164184570e-01 -3.045802307128906250e+01 -8.126587606966495514e-03 9.416804313659667969e-01 2.800661325454711914e-01 4.512285068631172180e-02
1.248000000000000000e+03 3.386900663375854492e+00 -2.715856170654296875e+01 -2.055401802062988281e-01 3.619728386402130127e-01 4.692979902029037476e-02 4.487596452236175537e-01
1.249000000000000000e+03 6.043305397033691406e-01 1.906359100341796875e+01 -1.792956318240612745e-04 -1.005423382594017312e-05 -5.680495814885944128e-05 2.848571421054657549e-05
1.250000000000000000e+03 1.858117818832397461e+00 2.163913917541503906e+01 1.961023226613178849e-04 -5.028539817431010306e-06 5.732213321607559919e-05 -2.620915620354935527e-05
1.251000000000000000e+03 5.609850883483886719e-01 1.343881225585937500e+01 -1.534913462819531560e-04 -6.490628948085941374e-06 -4.799459202331490815e-05 2.243203198304399848e-05
1.252000000000000000e+03 1.788917183876037598e+00 1.745047950744628906e+01 -1.950711885001510382e-04 3.467019269010052085e-06 -5.748124749516136944e-05 2.664265593921300024e-05
1.253000000000000000e+03 1.526880502700805664e+00 1.052394580841064453e+01 1.376545551465824246e-04 3.537969405442709103e-06 4.235775850247591734e-05 -1.950843397935386747e-05
1.254000000000000000e+03 4.810791611671447754e-01 7.873225212097167969e+00 -1.169612514786422253e-04 -1.522774823570216540e-06 -3.554520662873983383e-05 6.909719559189397842e-06
1.255000000000000000e+03 1.948309183120727539e+00 -1.753612136840820312e+01 6.428073346614837646e-02 -6.197156906127929688e-01 -1.666304916143417358e-01 -9.689648635685443878e-03
1.256000000000000000e+03 6.242783069610595703e-01 -1.910275840759277344e+01 6.074000848457217216e-04 -1.148206472396850586e+00 -3.442797362804412842e-01 2.082361094653606415e-02
1.257000000000000000e+03 5.912513136863708496e-01 -2.051221847534179688e+01 4.088381305336952209e-02 -1.031947135925292969e+00 -2.973189949989318848e-01 7.346078008413314819e-02
1.258000000000000000e+03 5.992797017097473145e-01 -2.330644226074218750e+01 1.899222284555435181e-02 -4.448561072349548340e-01 -1.277591735124588013e-01 1.528825908899307251e-01
1.259000000000000000e+03 2.465989112854003906e+00 -3.640151977539062500e+01 -2.361641265451908112e-03 6.387506127357482910e-01 1.909166872501373291e-01 -6.436242163181304932e-02
1.260000000000000000e+03 5.625147819519042969e-01 5.140816688537597656e+00 -6.912541721248999238e-05 2.605227109597763047e-07 -2.065946864604484290e-05 -5.892624699299631175e-07
1.261000000000000000e+03 5.093896985054016113e-01 1.064068984985351562e+01 -1.407709060003980994e-04 -3.737076667675864883e-06 -4.335239282227121294e-05 1.336844070465303957e-05
1.262000000000000000e+03 1.683339118957519531e+00 1.326776027679443359e+01 1.520699297543615103e-04 5.055572273704456165e-06 4.713765156338922679e-05 -2.662148472154513001e-05
1.263000000000000000e+03 1.802322268486022949e+00 1.883983993530273438e+01 1.954267063410952687e-04 -4.447776973393047228e-06 5.729367694584652781e-05 -2.222926559625193477e-05
1.264000000000000000e+03 5.318621635437011719e+00 -4.033683395385742188e+01 6.253564357757568359e-02 3.177283406257629395e-01 1.140791922807693481e-01 1.126251462846994400e-02
1.265000000000000000e+03 3.968815326690673828e+00 -3.885963058471679688e+01 1.556021161377429962e-02 5.076107978820800781e-01 1.569512933492660522e-01 -3.732970356941223145e-02
1.266000000000000000e+03 2.999902486801147461e+00 -3.432788467407226562e+01 -3.313215449452400208e-02 5.677098631858825684e-01 1.603733152151107788e-01 -3.662475571036338806e-02
1.267000000000000000e+03 5.366908073425292969e+00 -2.788884735107421875e+01 -4.140705168247222900e-01 1.733454614877700806e-01 -7.221751660108566284e-02 3.460819721221923828e-01
1.268000000000000000e+03 1.497651457786560059e+00 -3.318160629272460938e+01 -3.101527877151966095e-02 8.140289187431335449e-01 2.349040955305099487e-01 -2.198430523276329041e-02
1.269000000000000000e+03 4.517676353454589844e+00 -2.930781555175781250e+01 -3.008623421192169189e-01 2.816216647624969482e-01 -5.772203672677278519e-03 2.655692696571350098e-01
1.270000000000000000e+03 4.176009654998779297e+00 -2.389139556884765625e+01 8.535455167293548584e-02 3.781531751155853271e-01 1.390523165464401245e-01 5.123417973518371582e-01
1.271000000000000000e+03 3.176157712936401367e+00 -2.559532546997070312e+01 -8.630944043397903442e-02 2.971619069576263428e-01 6.325573474168777466e-02 5.343701839447021484e-01
1.272000000000000000e+03 4.230757713317871094e+00 -2.271610069274902344e+01 1.705628484487533569e-01 5.543675422668457031e-01 2.174791246652603149e-01 5.226415395736694336e-01
1.273000000000000000e+03 1.906950116157531738e+00 -1.605615234375000000e+01 6.766827404499053955e-02 -6.226285099983215332e-01 -1.664880663156509399e-01 -9.259590506553649902e-02
1.274000000000000000e+03 2.908702373504638672e+00 -1.302007389068603516e+01 1.070465613156557083e-02 -2.811405360698699951e-01 -8.113076537847518921e-02 -2.163113951683044434e-01
1.275000000000000000e+03 5.698261857032775879e-01 -1.202148342132568359e+01 4.396122414618730545e-03 -7.277590632438659668e-01 -2.170088738203048706e-01 -6.011371687054634094e-02
1.276000000000000000e+03 1.703031301498413086e+00 -1.186054992675781250e+01 -5.853045266121625900e-03 -4.885464012622833252e-01 -1.483198404312133789e-01 -1.675608605146408081e-01
1.277000000000000000e+03 1.670618414878845215e+00 -6.188588142395019531e+00 -1.654838025569915771e-02 -1.581622958183288574e-01 -5.241320282220840454e-02 -1.000580638647079468e-01
1.278000000000000000e+03 1.281643867492675781e+00 -3.418402910232543945e+00 -1.120197772979736328e-02 -5.868757888674736023e-02 -2.096686698496341705e-02 -4.294865950942039490e-02
1.279000000000000000e+03 4.905574321746826172e-01 -4.956060409545898438e+00 -5.063293967396020889e-03 -1.231265738606452942e-01 -3.845696151256561279e-02 -2.717512659728527069e-02
1.280000000000000000e+03 3.460668182373046875e+01 -4.780659198760986328e+00 2.012516975402832031e+00 7.166175842285156250e+00 2.753607749938964844e+00 5.949553012847900391e+00
1.281000000000000000e+03 3.432697677612304688e+01 -3.586316108703613281e+00 -1.584810495376586914e+00 6.824851036071777344e+00 1.572012186050415039e+00 4.257392883300781250e+00
1.282000000000000000e+03 3.513702392578125000e+01 -4.935506343841552734e+00 3.242579698562622070e+00 4.136396884918212891e+00 2.213692903518676758e+00 5.532266616821289062e+00
1.283000000000000000e+03 3.629286193847656250e+01 -8.980872154235839844e+00 1.824936866760253906e+00 1.705598354339599609e+00 1.059160590171813965e+00 -2.111488819122314453e+00
1.284000000000000000e+03 3.375120544433593750e+01 -8.713650703430175781e+00 1.184571504592895508e+00 7.960039138793945312e+00 2.743383169174194336e+00 -1.289703845977783203e+00
1.285000000000000000e+03 3.514285659790039062e+01 -9.016674995422363281e+00 1.724520921707153320e+00 3.938076496124267578e+00 1.698779225349426270e+00 -2.790537357330322266e+00
1.286000000000000000e+03 3.682398986816406250e+01 -4.840698242187500000e+00 1.220583677291870117e+00 1.192909359931945801e+00 7.240478992462158203e-01 2.284230947494506836e+00
1.287000000000000000e+03 3.838571548461914062e+01 -4.856870651245117188e+00 -1.513043940067291260e-01 9.204332828521728516e-01 2.307386696338653564e-01 6.357493996620178223e-01
1.288000000000000000e+03 3.669871902465820312e+01 -4.509954452514648438e+00 8.395815491676330566e-01 1.898270130157470703e+00 8.213555216789245605e-01 2.792926073074340820e+00
1.289000000000000000e+03 4.011355972290039062e+01 -9.633001327514648438e+00 2.932668924331665039e-01 3.971650600433349609e-01 2.071295827627182007e-01 -4.128408730030059814e-01
1.290000000000000000e+03 1.883624076843261719e+01 1.199640154838562012e+00 -3.660931906779296696e-05 4.899629493593238294e-05 3.716092805916559882e-06 2.790384314721450210e-05
1.291000000000000000e+03 7.632880401611328125e+01 -1.625160026550292969e+01 7.054884918034076691e-05 -4.276662821212084964e-06 1.988165604416280985e-05 -2.582175329735036939e-05
1.292000000000000000e+03 7.858485412597656250e+01 -1.938842964172363281e+01 1.256349933100864291e-04 7.943568925838917494e-05 6.152120477054268122e-05 -9.029830835061147809e-05
1.293000000000000000e+03 7.846720123291015625e+01 -1.702993965148925781e+01 4.676940443459898233e-05 -8.942269050749018788e-05 -1.279598473047371954e-05 4.209508915664628148e-05
1.294000000000000000e+03 7.639262390136718750e+01 -1.720550918579101562e+01 5.497815436683595181e-05 8.786183752818033099e-05 4.285199975129216909e-05 -6.367595233314204961e-06
1.295000000000000000e+03 1.659190368652343750e+01 1.770525693893432617e+00 4.582239125738851726e-05 8.795942267170175910e-05 4.013454599771648645e-05 7.809019007254391909e-05
1.296000000000000000e+03 1.743895530700683594e+01 1.798922300338745117e+00 -1.008964682114310563e-04 -2.885929279727861285e-05 -3.892672611982561648e-05 -5.790517752757295966e-05
1.297000000000000000e+03 1.024795913696289062e+01 -2.775373935699462891e+00 -1.972098201513290405e-01 3.885525092482566833e-02 -4.750637337565422058e-02 -2.591519989073276520e-02
1.298000000000000000e+03 3.658811569213867188e+01 -9.198101997375488281e+00 1.583556532859802246e+00 1.519201636314392090e+00 9.308274388313293457e-01 -1.929778933525085449e+00
1.299000000000000000e+03 3.636891937255859375e+01 -8.591669082641601562e+00 1.969164252281188965e+00 1.342210292816162109e+00 9.934123754501342773e-01 -1.840165853500366211e+00
1.300000000000000000e+03 3.134516525268554688e+01 -7.984869956970214844e+00 4.521753311157226562e+00 4.024971961975097656e+00 2.564017534255981445e+00 2.507880210876464844e+00
1.301000000000000000e+03 7.416498565673828125e+01 -1.621575927734375000e+01 -1.014976369333453476e-04 -6.736814975738525391e-05 -5.065973527962341905e-05 4.695607276516966522e-05
1.302000000000000000e+03 7.055120086669921875e+01 -1.631314468383789062e+01 3.819089615717530251e-04 9.311767644248902798e-05 1.425079972250387073e-04 1.740954176057130098e-04
1.303000000000000000e+03 6.942224884033203125e+01 -1.134038257598876953e+01 1.282031368464231491e-02 -4.524501040577888489e-03 2.488743979483842850e-03 -8.421706967055797577e-03
1.304000000000000000e+03 1.846499824523925781e+01 2.888988971710205078e+00 -8.111180795822292566e-05 -7.448805263265967369e-05 -4.667995744966901839e-05 -8.589510980527848005e-05
1.305000000000000000e+03 4.070297241210937500e+00 2.710927486419677734e+00 -3.386263051652349532e-05 -3.271457171649672091e-05 -1.997316030610818416e-05 1.659921395003038924e-06
1.306000000000000000e+03 4.815895557403564453e+00 2.729438781738281250e+00 4.527776036411523819e-05 3.005054895766079426e-05 2.259849316033069044e-05 -1.064674688677769154e-05
1.307000000000000000e+03 6.330413818359375000e+00 2.681645631790161133e+00 2.348670750507153571e-05 5.190035517443902791e-05 2.261611916765104979e-05 -1.581992182764224708e-05
1.308000000000000000e+03 5.703967094421386719e+00 3.571618795394897461e+00 2.840166962414514273e-05 6.086373105063103139e-05 2.677962038433179259e-05 -2.966642387036699802e-05
1.309000000000000000e+03 1.081616020202636719e+01 2.425647497177124023e+00 2.911502633651252836e-05 7.187161827459931374e-05 3.029599429282825440e-05 -1.032169848258490674e-06
1.310000000000000000e+03 7.281954288482666016e+00 3.409032821655273438e+00 2.797684646793641150e-05 6.231716542970389128e-05 2.708820466068573296e-05 -4.931474904878996313e-06
1.311000000000000000e+03 8.037410736083984375e+00 3.344327926635742188e+00 -3.447651033638976514e-05 -6.135261355666443706e-05 -2.874873644032049924e-05 8.018849939617211930e-07
1.312000000000000000e+03 4.065002918243408203e+00 3.619085550308227539e+00 4.841210829908959568e-05 1.749176044540945441e-05 1.977115971385501325e-05 9.040164513862691820e-06
1.313000000000000000e+03 1.984886169433593750e+00 2.569545030593872070e+00 1.589288694958668202e-05 3.105416908510960639e-05 1.408411571901524439e-05 3.829663910437375307e-06
1.314000000000000000e+03 1.180618286132812500e+01 3.045859575271606445e+00 3.095884676440618932e-05 8.882105612428858876e-05 3.593397195800207555e-05 -4.656966211769031361e-06
1.315000000000000000e+03 1.104269504547119141e+01 -3.601398706436157227e+00 -1.771831363439559937e-01 4.438636079430580139e-02 -3.983903303742408752e-02 -2.004223503172397614e-02
1.316000000000000000e+03 1.178411388397216797e+01 -3.673888683319091797e+00 -1.770889908075332642e-01 3.190290927886962891e-02 -4.355582222342491150e-02 -1.300152856856584549e-02
1.317000000000000000e+03 1.246780109405517578e+01 -3.015542745590209961e+00 -2.091145068407058716e-01 1.347041875123977661e-02 -5.869322642683982849e-02 -2.436173846945166588e-03
1.318000000000000000e+03 9.537599563598632812e+00 -3.515761613845825195e+00 -1.687008291482925415e-01 5.293160304427146912e-02 -3.473076596856117249e-02 -4.592384397983551025e-02
1.319000000000000000e+03 1.403524494171142578e+01 2.764036655426025391e+00 -6.435600516851991415e-05 -6.707652210025116801e-05 -3.942975672543980181e-05 -3.113394268439151347e-05
1.320000000000000000e+03 1.233634281158447266e+01 2.225972175598144531e+00 2.764450800896156579e-05 8.512964996043592691e-05 3.383224611752666533e-05 1.069439713319297880e-05
1.321000000000000000e+03 3.772525787353515625e+01 -3.845639705657958984e+00 -4.225221872329711914e-01 2.197467088699340820e+00 5.324834585189819336e-01 1.803915023803710938e+00
1.322000000000000000e+03 7.490029144287109375e+01 -1.627511787414550781e+01 2.010574680753052235e-04 1.901838686535484158e-06 6.088779264246113598e-05 -1.983643960556946695e-05
1.323000000000000000e+03 7.046004486083984375e+01 -1.711875915527343750e+01 -1.264153543161228299e-04 -8.037697261897847056e-05 -6.203769589774310589e-05 -1.177501326310448349e-04
1.324000000000000000e+03 7.163021087646484375e+01 -1.858132362365722656e+01 6.629577255807816982e-04 -1.119829903473146260e-04 1.652924256632104516e-04 -2.222467446699738503e-04
1.325000000000000000e+03 7.028509521484375000e+01 -1.872522544860839844e+01 6.661601364612579346e-04 1.833811547840014100e-04 2.548623888287693262e-04 -8.892832556739449501e-05
1.326000000000000000e+03 7.302587127685546875e+01 -1.752445030212402344e+01 4.474450543057173491e-04 6.144087092252448201e-05 1.526657724753022194e-04 -2.448765189910773188e-05
1.327000000000000000e+03 3.878248977661132812e+01 -4.229048728942871094e+00 -5.921198725700378418e-01 1.360249638557434082e+00 2.304389476776123047e-01 5.091434121131896973e-01
1.328000000000000000e+03 3.779787445068359375e+01 -4.434981822967529297e+00 6.708680838346481323e-02 1.279742598533630371e+00 4.040488302707672119e-01 1.317612767219543457e+00
1.329000000000000000e+03 7.403527069091796875e+01 -1.071332359313964844e+01 7.971752434968948364e-03 -5.117906257510185242e-03 8.561538998037576675e-04 6.511667743325233459e-03
1.330000000000000000e+03 7.483583068847656250e+01 -1.037121009826660156e+01 3.886854276061058044e-03 -3.954849671572446823e-03 -2.039865285041742027e-05 7.892718538641929626e-03
1.331000000000000000e+03 7.169520568847656250e+01 -1.099268436431884766e+01 1.048261951655149460e-02 -6.932822521775960922e-03 1.064938958734273911e-03 -2.416760195046663284e-03
1.332000000000000000e+03 7.187499237060546875e+01 -9.310316085815429688e+00 -7.412155973725020885e-04 -1.123171858489513397e-02 -3.591880202293395996e-03 1.765362685546278954e-04
1.333000000000000000e+03 6.876742553710937500e+01 -1.161951828002929688e+01 9.853027760982513428e-03 -7.869503460824489594e-04 2.719823271036148071e-03 -1.222348492592573166e-02
1.334000000000000000e+03 7.016860198974609375e+01 -1.113753223419189453e+01 1.028244104236364365e-02 -5.141700617969036102e-03 1.542222220450639725e-03 -7.988432422280311584e-03
1.335000000000000000e+03 7.318468475341796875e+01 -1.011999607086181641e+01 4.504953976720571518e-03 -9.371030144393444061e-03 -1.459822873584926128e-03 3.416264895349740982e-03
1.336000000000000000e+03 7.623143005371093750e+01 -9.163453102111816406e+00 -1.366505399346351624e-03 -2.564969239756464958e-03 -1.179442391730844975e-03 1.027408335357904434e-02
1.337000000000000000e+03 6.789043426513671875e+01 -1.087525367736816406e+01 9.693309664726257324e-03 3.928316757082939148e-03 4.086487926542758942e-03 -1.379373762756586075e-02
1.338000000000000000e+03 3.825065231323242188e+01 -1.052964401245117188e+01 6.350738406181335449e-01 1.227588534355163574e+00 5.587987303733825684e-01 -1.341619133949279785e+00
1.339000000000000000e+03 1.398268604278564453e+01 -3.195172071456909180e+00 -2.107128351926803589e-01 -9.335281327366828918e-03 -6.601443141698837280e-02 2.509987447410821915e-03
1.340000000000000000e+03 1.482235240936279297e+01 -4.017628669738769531e+00 -1.591586917638778687e-01 -2.985133975744247437e-02 -5.670300871133804321e-02 -4.964333958923816681e-03
1.341000000000000000e+03 1.252851963043212891e+01 -3.759504556655883789e+00 -1.751686483621597290e-01 2.272605709731578827e-02 -4.573277756571769714e-02 -1.266825594939291477e-03
1.342000000000000000e+03 1.328142261505126953e+01 -3.848349809646606445e+00 -1.707275360822677612e-01 5.703649949282407761e-03 -4.950716719031333923e-02 -8.521518320776522160e-04
1.343000000000000000e+03 1.254705715179443359e+01 2.944996595382690430e+00 -1.837241325119975954e-05 -1.075732579920440912e-04 -3.778369864448904991e-05 -7.017158168309833854e-06
1.344000000000000000e+03 1.328916454315185547e+01 2.848602533340454102e+00 2.596723425085656345e-05 9.540126484353095293e-05 3.641055081970989704e-05 3.532894334057345986e-05
1.345000000000000000e+03 1.103944683074951172e+01 3.120347023010253906e+00 -3.254308103350922465e-05 -7.777917926432564855e-05 -3.309667954454198480e-05 6.550039415742503479e-06
1.346000000000000000e+03 3.158498764038085938e+01 -3.376653671264648438e+00 -2.155295610427856445e+00 1.352109313011169434e+00 -2.409558892250061035e-01 -1.025982379913330078e+00
1.347000000000000000e+03 1.642001342773437500e+01 -4.152370452880859375e+00 -1.452682912349700928e-01 -7.686061412096023560e-02 -6.663867086172103882e-02 -3.668854013085365295e-02
1.348000000000000000e+03 1.805138206481933594e+01 -4.220338821411132812e+00 -1.372503191232681274e-01 -1.295994818210601807e-01 -8.005493879318237305e-02 -1.017075031995773315e-01
1.349000000000000000e+03 1.732105445861816406e+01 -4.950246334075927734e+00 -5.440414696931838989e-02 -1.356628537178039551e-01 -5.702009797096252441e-02 -6.243638321757316589e-02
1.350000000000000000e+03 4.123375701904296875e+01 -2.771602869033813477e+00 -1.641210079193115234e+00 1.338959336280822754e-01 -4.521942138671875000e-01 -1.182334780693054199e+00
1.351000000000000000e+03 1.958935165405273438e+01 -3.475794792175292969e+00 -2.657826542854309082e-01 -1.247919872403144836e-01 -1.171723976731300354e-01 -1.747808903455734253e-01
1.352000000000000000e+03 2.054705429077148438e+01 -4.146679401397705078e+00 -1.822710633277893066e-01 -1.927836537361145020e-01 -1.125164180994033813e-01 -2.669527530670166016e-01
1.353000000000000000e+03 2.221851158142089844e+01 -3.999713420867919922e+00 -3.194589018821716309e-01 -1.873438954353332520e-01 -1.520408391952514648e-01 -4.644878804683685303e-01
1.354000000000000000e+03 2.208312416076660156e+01 -3.246525287628173828e+00 -4.842886328697204590e-01 -7.148360460996627808e-02 -1.667316704988479614e-01 -3.584368228912353516e-01
1.355000000000000000e+03 7.247418212890625000e+01 -1.016170978546142578e+01 5.028669722378253937e-03 -8.649444207549095154e-03 -1.086232136003673077e-03 9.429778438061475754e-04
1.356000000000000000e+03 6.315638065338134766e+00 -3.646972179412841797e+00 -1.168945357203483582e-01 2.557310089468955994e-02 -2.739642933011054993e-02 -1.024457961320877075e-01
1.357000000000000000e+03 2.110436916351318359e+00 -3.225625038146972656e+00 -2.305023372173309326e-02 -5.186369270086288452e-02 -2.247417904436588287e-02 -6.156158447265625000e-02
1.358000000000000000e+03 4.897171974182128906e+00 -8.115807533264160156e+00 -5.787833034992218018e-02 3.351673716679215431e-03 -1.635799743235111237e-02 -1.913291364908218384e-01
1.359000000000000000e+03 7.959015846252441406e+00 -3.535232543945312500e+00 -1.474566459655761719e-01 4.590103030204772949e-02 -3.046668507158756256e-02 -7.522229850292205811e-02
1.360000000000000000e+03 5.399808406829833984e+00 -2.840910911560058594e+00 -1.027110219001770020e-01 4.072378389537334442e-03 -2.959159389138221741e-02 -9.035795181989669800e-02
1.361000000000000000e+03 5.475827693939208984e+00 -3.740812063217163086e+00 -9.765773266553878784e-02 5.710368044674396515e-03 -2.758421003818511963e-02 -1.136676445603370667e-01
1.362000000000000000e+03 1.477962136268615723e+00 -4.745325088500976562e+00 -1.243451144546270370e-02 -1.020238474011421204e-01 -3.433750569820404053e-02 -6.827699393033981323e-02
1.363000000000000000e+03 8.758048057556152344e+00 -3.513995885848999023e+00 -1.594100743532180786e-01 4.842703416943550110e-02 -3.329491242766380310e-02 -6.235549226403236389e-02
1.364000000000000000e+03 1.561434936523437500e+01 -4.092789173126220703e+00 -1.543776690959930420e-01 -4.984465241432189941e-02 -6.126669421792030334e-02 -1.239232812076807022e-02
1.365000000000000000e+03 1.050179386138916016e+01 3.888774156570434570e+00 -5.587689156527630985e-05 -7.263582665473222733e-05 -3.855381510220468044e-05 2.511436105123721063e-05
1.366000000000000000e+03 1.887398338317871094e+01 -4.219797134399414062e+00 -1.428561210632324219e-01 -1.567008495330810547e-01 -8.986709266901016235e-02 -1.437489241361618042e-01
1.367000000000000000e+03 2.570379066467285156e+01 -3.495984315872192383e+00 -1.329862236976623535e+00 -4.696860611438751221e-01 -5.398644804954528809e-01 -1.439354658126831055e+00
1.368000000000000000e+03 2.464299011230468750e+01 -2.853639364242553711e+00 -1.442065596580505371e+00 3.565869480371475220e-02 -4.219220876693725586e-01 -6.828743219375610352e-01
1.369000000000000000e+03 2.138099479675292969e+01 -4.079679489135742188e+00 -2.293536961078643799e-01 -1.800654977560043335e-01 -1.228257566690444946e-01 -3.493406474590301514e-01
1.370000000000000000e+03 2.064779663085937500e+01 -4.884335994720458984e+00 -2.942237630486488342e-02 -2.547257542610168457e-01 -8.524443954229354858e-02 -2.857028245925903320e-01
1.371000000000000000e+03 2.991192245483398438e+01 -7.058434009552001953e+00 4.971185684204101562e+00 3.399425446987152100e-01 1.593338489532470703e+00 7.802349328994750977e-01
1.372000000000000000e+03 2.853783035278320312e+01 -4.101784229278564453e+00 6.367199122905731201e-02 -1.265263199806213379e+00 -3.604773581027984619e-01 -2.239877700805664062e+00
1.373000000000000000e+03 3.080336761474609375e+01 -6.339133739471435547e+00 5.895633220672607422e+00 1.165692448616027832e+00 2.118397712707519531e+00 3.243599832057952881e-01
1.374000000000000000e+03 6.849617004394531250e+01 -1.110982894897460938e+01 1.066124811768531799e-02 4.485410638153553009e-03 4.543997813016176224e-03 -1.128760445863008499e-02
1.375000000000000000e+03 1.992983818054199219e+01 -1.586850261688232422e+01 7.062898576259613037e-02 -1.551691889762878418e-01 -2.536206133663654327e-02 3.170275390148162842e-01
1.376000000000000000e+03 2.335944938659667969e+01 -1.741823768615722656e+01 -5.965478420257568359e-01 1.827373914420604706e-02 -1.734822392463684082e-01 3.304543793201446533e-01
1.377000000000000000e+03 6.627480316162109375e+01 -6.429889202117919922e+00 -1.449718512594699860e-02 1.520642545074224472e-02 2.127723128069192171e-04 5.067627411335706711e-03
1.378000000000000000e+03 5.867574310302734375e+01 5.696220993995666504e-01 -1.303261756896972656e+00 2.966051734983921051e-02 -3.820803463459014893e-01 -1.598661243915557861e-01
1.379000000000000000e+03 5.370291900634765625e+01 4.042059898376464844e+00 -1.521206021308898926e+00 9.592216461896896362e-02 -4.275851845741271973e-01 -7.739481329917907715e-01
1.380000000000000000e+03 1.880029869079589844e+01 -1.556120109558105469e+01 1.975783854722976685e-01 -1.655734926462173462e-01 9.601468220353126526e-03 2.681291103363037109e-01
1.381000000000000000e+03 2.848415946960449219e+01 -1.595213317871093750e+01 -1.248288750648498535e+00 2.121914327144622803e-01 -3.108291923999786377e-01 7.324136495590209961e-01
1.382000000000000000e+03 2.718559455871582031e+01 -1.710182952880859375e+01 -1.606668353080749512e+00 1.152759641408920288e-01 -4.474177360534667969e-01 4.215616285800933838e-01
1.383000000000000000e+03 1.768228912353515625e+01 -1.516161537170410156e+01 3.067593276500701904e-01 -1.820449680089950562e-01 3.741431236267089844e-02 2.332899421453475952e-01
1.384000000000000000e+03 2.124809646606445312e+01 -1.493596363067626953e+01 1.253908872604370117e-01 -2.185833752155303955e-01 -2.795774489641189575e-02 4.888492524623870850e-01
1.385000000000000000e+03 1.148690605163574219e+01 1.725308036804199219e+01 1.681005232967436314e-05 -1.683468581177294254e-04 -4.546104173641651869e-05 3.445919355726800859e-05
1.386000000000000000e+03 4.099047088623046875e+01 -1.062615585327148438e+01 1.080802232027053833e-01 4.527328014373779297e-01 1.682439148426055908e-01 -3.463884890079498291e-01
1.387000000000000000e+03 4.166729354858398438e+01 -9.625876426696777344e+00 9.630926884710788727e-03 3.903551772236824036e-02 1.459993328899145126e-02 -5.370658263564109802e-02
1.388000000000000000e+03 2.551122856140136719e+01 -3.336333847045898438e+01 -2.604782581329345703e-01 3.551666066050529480e-02 -6.748847663402557373e-02 3.800097107887268066e-02
1.389000000000000000e+03 2.725765991210937500e+01 -3.425595092773437500e+01 -1.662828326225280762e-01 2.029443532228469849e-01 1.099845394492149353e-02 1.698068827390670776e-01
1.390000000000000000e+03 2.351614379882812500e+01 -1.505703830718994141e+01 -7.096815109252929688e-02 -1.581265777349472046e-01 -6.872841715812683105e-02 7.186964750289916992e-01
1.391000000000000000e+03 1.855306243896484375e+01 -3.352353286743164062e+01 -3.780066668987274170e-01 -5.068236961960792542e-02 -1.286067068576812744e-01 3.603374958038330078e-02
1.392000000000000000e+03 5.385283231735229492e-01 3.849453210830688477e+00 4.930542127112857997e-05 7.995938176463823766e-06 1.719040847092401236e-05 7.101771188899874687e-06
1.393000000000000000e+03 3.690325927734375000e+01 -2.255293083190917969e+01 5.105276703834533691e-01 3.626086711883544922e+00 1.240984320640563965e+00 -2.088781893253326416e-01
1.394000000000000000e+03 3.959182739257812500e+01 -1.802013397216796875e+01 -1.714035421609878540e-01 2.489199399948120117e+00 6.953387260437011719e-01 -1.956360638141632080e-01
1.395000000000000000e+03 3.666983032226562500e+01 -1.518962478637695312e+01 -8.968500494956970215e-01 2.887324333190917969e+00 5.971422791481018066e-01 -1.263217329978942871e+00
1.396000000000000000e+03 1.418227958679199219e+01 1.339084625244140625e+01 1.533894392196089029e-04 1.896180492622079328e-06 4.658568286686204374e-05 6.594083970412611961e-05
1.397000000000000000e+03 1.657602310180664062e+01 -1.466799259185791016e+01 4.247595071792602539e-01 -1.554761528968811035e-01 8.078500628471374512e-02 2.430367916822433472e-01
1.398000000000000000e+03 2.470069122314453125e+01 -1.615905380249023438e+01 -5.982115864753723145e-01 2.343131229281425476e-03 -1.787605434656143188e-01 6.763435602188110352e-01
1.399000000000000000e+03 1.830355834960937500e+01 6.143585681915283203e+00 -1.488873967900872231e-04 -3.947598088416270912e-05 -5.650901221088133752e-05 -6.447756459238007665e-05
1.400000000000000000e+03 1.721212196350097656e+01 8.557313919067382812e+00 -1.767093635862693191e-04 -3.963271592510864139e-05 -6.490262603620067239e-05 -7.013578579062595963e-05
1.401000000000000000e+03 2.057968521118164062e+01 -3.469900512695312500e+01 -2.931430637836456299e-01 -2.989569865167140961e-02 -9.691163152456283569e-02 1.610780134797096252e-02
1.402000000000000000e+03 2.214064025878906250e+01 -3.539391708374023438e+01 -2.412630915641784668e-01 8.524404838681221008e-03 -6.982160359621047974e-02 2.456987835466861725e-02
1.403000000000000000e+03 1.320067596435546875e+01 -3.487973785400390625e+01 -2.622714936733245850e-01 -1.704395860433578491e-01 -1.298133283853530884e-01 1.500997096300125122e-01
1.404000000000000000e+03 4.036182785034179688e+01 -1.203976821899414062e+01 1.445763707160949707e-01 1.259851217269897461e+00 4.213282763957977295e-01 -8.042486310005187988e-01
1.405000000000000000e+03 6.331978321075439453e+00 -2.904448699951171875e+01 -4.201307594776153564e-01 -8.632346242666244507e-02 -1.519362628459930420e-01 2.831390202045440674e-01
1.406000000000000000e+03 4.752629470825195312e+01 -2.777838897705078125e+01 1.658492237329483032e-01 3.853003382682800293e-01 1.653448641300201416e-01 -2.933528721332550049e-01
1.407000000000000000e+03 4.774742507934570312e+01 -2.560158157348632812e+01 1.642378866672515869e-01 2.180848568677902222e-01 1.146968230605125427e-01 -1.999031454324722290e-01
1.408000000000000000e+03 7.568937683105468750e+01 -2.933891296386718750e+01 -9.551777620799839497e-04 -5.347061669453978539e-04 -4.469651903491467237e-04 1.046978170052170753e-03
1.409000000000000000e+03 7.606914520263671875e+01 -3.595299911499023438e+01 7.981696398928761482e-04 -4.536386113613843918e-03 -1.121465000323951244e-03 4.163973033428192139e-03
1.410000000000000000e+03 7.819145202636718750e+01 -2.872026252746582031e+01 -4.835216968785971403e-04 -1.938399509526789188e-04 -2.032084885286167264e-04 5.188464419916272163e-04
1.411000000000000000e+03 7.842671203613281250e+01 -2.200080871582031250e+01 1.830401452025398612e-04 1.606363512109965086e-04 1.031029460136778653e-04 -1.552519242977723479e-04
1.412000000000000000e+03 7.712291717529296875e+01 -2.431572723388671875e+01 -2.318893966730684042e-04 -1.020717609208077192e-04 -1.001883501885458827e-04 -6.113086419645696878e-05
1.413000000000000000e+03 7.686997985839843750e+01 -3.097575378417968750e+01 -4.430359404068440199e-04 -1.108126481994986534e-03 -4.653487412724643946e-04 1.425224356353282928e-03
1.414000000000000000e+03 7.787368011474609375e+01 -3.411010742187500000e+01 -6.285934941843152046e-04 -3.112006234005093575e-03 -1.122179906815290451e-03 2.159755676984786987e-03
1.415000000000000000e+03 7.549586486816406250e+01 -3.696646499633789062e+01 9.574944269843399525e-04 -5.064436700195074081e-03 -1.232082722708582878e-03 4.021333064883947372e-03
1.416000000000000000e+03 7.735466766357421875e+01 -2.170152091979980469e+01 -1.564187696203589439e-04 2.265783041366375983e-05 -4.012828139821067452e-05 -5.271833651931956410e-05
1.417000000000000000e+03 7.724794006347656250e+01 -2.299651336669921875e+01 2.240905596408993006e-04 3.399892375455237925e-05 7.742684101685881615e-05 -1.861666678451001644e-04
1.418000000000000000e+03 7.693069458007812500e+01 -2.966388893127441406e+01 -8.867935393936932087e-04 -5.928002647124230862e-04 -4.438781470526009798e-04 1.118582789786159992e-03
1.419000000000000000e+03 7.696521759033203125e+01 -2.834594154357910156e+01 -2.860984532162547112e-04 -3.197991754859685898e-04 -1.817692827899008989e-04 4.281274741515517235e-04
1.420000000000000000e+03 7.698729705810546875e+01 -2.701826477050781250e+01 -5.247855442576110363e-04 -1.769939990481361747e-04 -2.105338498950004578e-04 3.141660999972373247e-04
1.421000000000000000e+03 7.702697753906250000e+01 -2.566516304016113281e+01 -8.764574886299669743e-06 -1.322387470281682909e-05 -6.596535058633890003e-06 -1.105811970774084330e-04
1.422000000000000000e+03 7.674504852294921875e+01 -3.228085708618164062e+01 -1.209899084642529488e-03 -1.501465565524995327e-03 -8.134093950502574444e-04 2.280855784192681313e-03
1.423000000000000000e+03 7.644699859619140625e+01 -3.355771255493164062e+01 -4.278119886294007301e-04 -2.359145786613225937e-03 -8.360873325727880001e-04 2.921378705650568008e-03
1.424000000000000000e+03 7.629890441894531250e+01 -3.917634963989257812e+01 9.830882772803306580e-04 -6.727637723088264465e-03 -1.723364926874637604e-03 2.370890695601701736e-03
1.425000000000000000e+03 7.545277404785156250e+01 9.359003067016601562e+00 -1.955938898026943207e-02 -4.071191549301147461e-01 -1.280035525560379028e-01 -2.762405872344970703e-01
1.426000000000000000e+03 7.677367401123046875e+01 8.076418876647949219e+00 -1.725354045629501343e-02 -3.739594817161560059e-01 -1.173639073967933655e-01 -1.995745003223419189e-01
1.427000000000000000e+03 7.541580200195312500e+01 1.613201141357421875e+01 2.930556051433086395e-02 -7.258672118186950684e-01 -2.089685052633285522e-01 -2.613990008831024170e-01
1.428000000000000000e+03 7.676844024658203125e+01 1.492098522186279297e+01 1.226879004389047623e-02 -7.491605281829833984e-01 -2.210675179958343506e-01 -2.066386789083480835e-01
1.429000000000000000e+03 7.500199127197265625e+01 2.731885719299316406e+01 3.657585754990577698e-02 -1.015805244445800781e+00 -2.937688231468200684e-01 -9.871379286050796509e-02
1.430000000000000000e+03 7.665384674072265625e+01 2.180267906188964844e+01 2.424854226410388947e-02 -1.042998909950256348e+00 -3.056251108646392822e-01 -1.384975314140319824e-01
1.431000000000000000e+03 7.400990295410156250e+01 3.426406478881835938e+01 3.053006716072559357e-02 -9.415479898452758789e-01 -2.733053863048553467e-01 -3.473085165023803711e-02
1.432000000000000000e+03 7.638909912109375000e+01 2.884441375732421875e+01 2.845110371708869934e-02 -1.183426141738891602e+00 -3.464924991130828857e-01 -5.966782569885253906e-02
1.433000000000000000e+03 7.493843078613281250e+01 3.651197814941406250e+01 2.527413330972194672e-02 -1.096714615821838379e+00 -3.214321732521057129e-01 -4.153483733534812927e-02
1.434000000000000000e+03 7.847538757324218750e+01 3.658107757568359375e+01 8.355008438229560852e-03 -1.479382395744323730e+00 -4.413082003593444824e-01 1.743497885763645172e-02
1.435000000000000000e+03 7.643627929687500000e+01 2.743238067626953125e+01 1.681879721581935883e-02 -1.163179755210876465e+00 -3.439082801342010498e-01 -7.256643474102020264e-02
1.436000000000000000e+03 7.672154235839843750e+01 1.904446601867675781e+01 2.060475572943687439e-02 -9.432169795036315918e-01 -2.767836749553680420e-01 -1.684984117746353149e-01
1.437000000000000000e+03 7.676912689208984375e+01 1.356245517730712891e+01 6.955686490982770920e-03 -6.745718717575073242e-01 -2.002848535776138306e-01 -2.123772352933883667e-01
1.438000000000000000e+03 7.691993713378906250e+01 2.526188850402832031e+00 -3.042126446962356567e-02 -1.335524320602416992e-01 -4.919210821390151978e-02 -1.144254282116889954e-01
1.439000000000000000e+03 7.837139892578125000e+01 -4.271744251251220703e+00 -5.115491803735494614e-03 1.349605340510606766e-02 2.514168620109558105e-03 -3.892682725563645363e-03
1.440000000000000000e+03 7.420872497558593750e+01 -8.932281494140625000e+00 -4.747411701828241348e-03 -9.968495927751064301e-03 -4.414772149175405502e-03 4.556858912110328674e-03
1.441000000000000000e+03 7.743795776367187500e+01 -9.485900878906250000e+00 -1.175323151983320713e-03 5.407843273133039474e-03 1.269756001420319080e-03 1.087723206728696823e-02
1.442000000000000000e+03 7.737145996093750000e+01 -5.739356994628906250e+00 -8.094234392046928406e-03 3.404055722057819366e-03 -1.407053670845925808e-03 1.181697007268667221e-03
1.443000000000000000e+03 7.386931610107421875e+01 -9.956789970397949219e+00 2.161297015845775604e-03 -7.634217385202646255e-03 -1.641876064240932465e-03 5.371122155338525772e-03
1.444000000000000000e+03 7.716915893554687500e+01 -2.993857860565185547e+00 -1.800945028662681580e-02 -1.503865607082843781e-02 -9.914431720972061157e-03 -2.277783304452896118e-02
1.445000000000000000e+03 7.812586212158203125e+01 4.030571937561035156e+00 -1.245064008980989456e-02 -1.820161640644073486e-01 -5.834004282951354980e-02 -8.938086032867431641e-02
1.446000000000000000e+03 7.698616790771484375e+01 1.149338245391845703e+00 -2.858410403132438660e-02 -9.257176518440246582e-02 -3.634675964713096619e-02 -8.810319006443023682e-02
1.447000000000000000e+03 7.676891326904296875e+01 9.453480720520019531e+00 -9.610421024262905121e-03 -4.486812055110931396e-01 -1.374874860048294067e-01 -2.108471691608428955e-01
1.448000000000000000e+03 7.676225280761718750e+01 1.628494834899902344e+01 1.580993644893169403e-02 -8.174324631690979004e-01 -2.404867708683013916e-01 -1.947832703590393066e-01
1.449000000000000000e+03 7.796477508544921875e+01 2.340763473510742188e+01 1.121615059673786163e-02 -1.235016584396362305e+00 -3.671401143074035645e-01 -7.575157284736633301e-02
1.450000000000000000e+03 7.766633605957031250e+01 3.051095962524414062e+01 1.024575158953666687e-02 -1.349531888961791992e+00 -4.017858505249023438e-01 -3.100405633449554443e-02
1.451000000000000000e+03 7.647560119628906250e+01 2.601341438293457031e+01 2.353937551379203796e-02 -1.147748708724975586e+00 -3.372628092765808105e-01 -8.797332644462585449e-02
1.452000000000000000e+03 7.653482055664062500e+01 2.459692764282226562e+01 2.693711407482624054e-02 -1.115388989448547363e+00 -3.265355825424194336e-01 -1.062887236475944519e-01
1.453000000000000000e+03 7.676873779296875000e+01 1.220175457000732422e+01 2.217490458860993385e-03 -6.009536385536193848e-01 -1.796208471059799194e-01 -2.169169485569000244e-01
1.454000000000000000e+03 7.678794097900390625e+01 6.692812442779541016e+00 -2.141256816685199738e-02 -3.058134019374847412e-01 -9.816779196262359619e-02 -1.842448860406875610e-01
1.455000000000000000e+03 7.704981231689453125e+01 -2.277269512414932251e-01 -2.698768675327301025e-02 -5.836719647049903870e-02 -2.560646459460258484e-02 -6.370750814676284790e-02
1.456000000000000000e+03 1.714941596984863281e+01 3.554594278335571289e+00 -5.558854172704741359e-05 -6.582077185157686472e-05 -3.642279261839576066e-05 -7.486849062843248248e-05
1.457000000000000000e+03 4.268218994140625000e+01 1.506771659851074219e+01 5.681365132331848145e-01 5.082680702209472656e+00 1.695245265960693359e+00 1.131418704986572266e+00
1.458000000000000000e+03 4.414179611206054688e+01 1.638909339904785156e+01 6.448784470558166504e-01 4.001208305358886719e+00 1.393826127052307129e+00 1.010500073432922363e+00
1.459000000000000000e+03 3.948272705078125000e+01 -2.342810058593750000e+01 5.912885069847106934e-01 2.116316795349121094e+00 8.122816085815429688e-01 -2.376403659582138062e-01
1.460000000000000000e+03 4.464499664306640625e+01 -2.635643005371093750e+01 2.818290591239929199e-01 7.315061092376708984e-01 3.040005564689636230e-01 -4.255618751049041748e-01
1.461000000000000000e+03 7.110565185546875000e+01 -2.266572952270507812e+01 3.634200256783515215e-04 -1.068882775143720210e-04 7.695952081121504307e-05 1.287228224100545049e-04
1.462000000000000000e+03 4.988987731933593750e+01 -3.409708786010742188e+01 -2.135543152689933777e-02 4.726323783397674561e-01 1.353830844163894653e-01 -2.028529644012451172e-01
1.463000000000000000e+03 5.256938552856445312e+01 -3.432290267944335938e+01 -8.618957363069057465e-04 2.534208893775939941e-01 7.576770335435867310e-02 -1.194527223706245422e-01
1.464000000000000000e+03 1.461453628540039062e+01 2.983891296386718750e+01 -1.716876431601122022e-04 -4.739117139251902699e-05 -6.572364509338513017e-05 -9.989404497900977731e-05
1.465000000000000000e+03 4.620583343505859375e+01 -2.891988945007324219e+01 1.582447290420532227e-01 6.251771450042724609e-01 2.350265681743621826e-01 -3.836787343025207520e-01
1.466000000000000000e+03 4.438890457153320312e+01 1.931208992004394531e+01 3.451587259769439697e-01 3.706304311752319336e+00 1.215438842773437500e+00 5.961002111434936523e-01
1.467000000000000000e+03 4.448077392578125000e+01 2.518196296691894531e+01 2.729731798171997070e-01 3.324807167053222656e+00 1.079334020614624023e+00 -1.482680719345808029e-02
1.468000000000000000e+03 3.649018096923828125e+01 3.709984207153320312e+01 4.230281338095664978e-02 4.845378398895263672e-01 1.580521911382675171e-01 -2.499968260526657104e-01
1.469000000000000000e+03 4.664898681640625000e+01 -2.661546707153320312e+01 2.146185934543609619e-01 4.270599186420440674e-01 1.925035566091537476e-01 -3.103253841400146484e-01
1.470000000000000000e+03 7.235803222656250000e+01 -1.809632110595703125e+01 -4.042619548272341490e-04 -2.738966259130393155e-06 -1.221002748934552073e-04 2.271801058668643236e-04
1.471000000000000000e+03 4.306991577148437500e+01 2.081406021118164062e+01 1.045068129897117615e-01 3.996754169464111328e+00 1.230378270149230957e+00 2.869343757629394531e-01
1.472000000000000000e+03 4.448341751098632812e+01 2.364654159545898438e+01 2.181085646152496338e-01 3.425264596939086914e+00 1.093011975288391113e+00 1.447260528802871704e-01
1.473000000000000000e+03 4.586923980712890625e+01 2.361355400085449219e+01 3.379904031753540039e-01 3.038012266159057617e+00 1.012800812721252441e+00 2.073481082916259766e-01
1.474000000000000000e+03 4.310891723632812500e+01 2.367791557312011719e+01 1.035068333148956299e-01 3.759870052337646484e+00 1.159013032913208008e+00 6.247540935873985291e-02
1.475000000000000000e+03 4.683789730072021484e+00 3.320915985107421875e+01 -1.539060904178768396e-04 9.338776726508513093e-05 -1.815549694583751261e-05 -1.439831976313143969e-04
1.476000000000000000e+03 2.123245477676391602e+00 3.415814590454101562e+01 -1.949636935023590922e-04 1.750507071847096086e-04 -5.973894531052792445e-06 -4.582132532959803939e-05
1.477000000000000000e+03 3.092602968215942383e+00 2.981345367431640625e+01 -1.887933613033965230e-04 6.828238110756501555e-05 -3.615329478634521365e-05 -7.261915743583813310e-05
1.478000000000000000e+03 1.858890295028686523e+00 2.446801567077636719e+01 1.983202964765951037e-04 4.211045734336948954e-08 5.950872218818403780e-05 -3.410151839489117265e-05
1.479000000000000000e+03 3.069897174835205078e+00 2.281143569946289062e+01 2.172564563807100058e-04 -1.810399771784432232e-05 5.974573650746606290e-05 -2.348596717638429254e-05
1.480000000000000000e+03 1.849477529525756836e+00 2.871335601806640625e+01 -2.072319039143621922e-04 5.212696487433277071e-05 -4.653148425859399140e-05 -5.585203780356096104e-06
1.481000000000000000e+03 2.316416740417480469e+00 3.550638961791992188e+01 2.018927771132439375e-04 1.964514231076464057e-04 1.195032600662671030e-04 -1.211905546369962394e-04
1.482000000000000000e+03 8.797244071960449219e+00 3.793259048461914062e+01 1.830944675020873547e-04 -3.214090247638523579e-04 -4.149436426814645529e-05 -2.767994883470237255e-04
1.483000000000000000e+03 4.579419612884521484e+00 3.766465759277343750e+01 -1.645734446356073022e-04 2.336271427338942885e-04 2.071611015708185732e-05 -1.685769675532355905e-04
1.484000000000000000e+03 4.595263004302978516e+00 3.205646896362304688e+01 1.828315434977412224e-04 -3.185566311003640294e-05 4.529276702669449151e-05 -7.251968054333701730e-05
1.485000000000000000e+03 3.199765205383300781e+00 3.111785316467285156e+01 2.079351397696882486e-04 7.078420458128675818e-05 8.361580694327130914e-05 -8.891939069144427776e-05
1.486000000000000000e+03 3.668746709823608398e+00 -3.540636825561523438e+01 -3.862410411238670349e-02 4.593766033649444580e-01 1.262257546186447144e-01 -5.948859453201293945e-02
1.487000000000000000e+03 2.014225006103515625e+00 -2.893051147460937500e+01 -8.429095894098281860e-02 5.721471905708312988e-01 1.463568657636642456e-01 2.227675616741180420e-01
1.488000000000000000e+03 1.567965030670166016e+00 -3.421328735351562500e+01 2.891543554142117500e-04 7.959418892860412598e-01 2.388693094253540039e-01 -3.719140589237213135e-02
1.489000000000000000e+03 4.493946552276611328e+00 -3.445117950439453125e+01 -6.673834472894668579e-02 3.592072427272796631e-01 8.774067461490631104e-02 -2.953261509537696838e-02
1.490000000000000000e+03 1.871812939643859863e+00 -3.046774101257324219e+01 -8.840560168027877808e-02 6.889217495918273926e-01 1.801548451185226440e-01 9.577912837266921997e-02
1.491000000000000000e+03 2.956275939941406250e+00 1.586772346496582031e+01 -1.883527875179424882e-04 4.825054929824545979e-06 -5.505832086782902479e-05 5.006653009331785142e-05
1.492000000000000000e+03 1.833702206611633301e+00 2.023549652099609375e+01 -1.951574522536247969e-04 -3.793230234805378132e-06 -5.968520417809486389e-05 2.690759902179706842e-05
1.493000000000000000e+03 1.444687843322753906e+00 7.902816295623779297e+00 1.150610041804611683e-04 -5.565542778640519828e-06 3.284863851149566472e-05 -2.324425986444111913e-05
1.494000000000000000e+03 2.533315420150756836e+00 1.036136627197265625e+01 -1.413016580045223236e-04 -6.142373877082718536e-06 -4.423320933710783720e-05 3.045522680622525513e-05
1.495000000000000000e+03 2.810876846313476562e+00 -1.171422386169433594e+01 7.657196256332099438e-04 -2.556307017803192139e-01 -7.645949721336364746e-02 -2.162583768367767334e-01
1.496000000000000000e+03 1.750457286834716797e+00 -7.664770603179931641e+00 -1.160300243645906448e-02 -2.304774373769760132e-01 -7.262413203716278076e-02 -1.216885969042778015e-01
1.497000000000000000e+03 2.175882101058959961e+00 4.694386959075927734e+00 2.167352067772299051e-05 4.882132998318411410e-05 2.114845483447425067e-05 -6.159234908409416676e-05
1.498000000000000000e+03 2.383897066116333008e+00 7.943325042724609375e+00 -1.331756793661043048e-04 2.167508500861003995e-05 -3.345017830724827945e-05 3.911950261681340635e-05
1.499000000000000000e+03 1.738263368606567383e+00 1.466232109069824219e+01 -1.654823427088558674e-04 -6.665575256192823872e-06 -5.164437607163563371e-05 3.466332782409153879e-05
1.500000000000000000e+03 2.889529705047607422e+00 1.446464729309082031e+01 1.684975140960887074e-04 5.464811238198308274e-06 5.218869773671030998e-05 -4.249366611475124955e-05
1.501000000000000000e+03 1.819183707237243652e+00 -1.462587165832519531e+01 1.617387123405933380e-02 -6.042170524597167969e-01 -1.764129549264907837e-01 -1.511589735746383667e-01
1.502000000000000000e+03 5.593010425567626953e+00 -4.629073619842529297e+00 -9.533739835023880005e-02 1.906393840909004211e-02 -2.288203872740268707e-02 -1.296223551034927368e-01
1.503000000000000000e+03 2.408912181854248047e+00 9.124901771545410156e+00 1.424813963240012527e-04 -4.679013272834708914e-06 4.134071423322893679e-05 -3.317270238767378032e-05
1.504000000000000000e+03 2.996770620346069336e+00 -7.538012504577636719e+00 -3.690185025334358215e-02 -1.323566585779190063e-01 -5.077755451202392578e-02 -1.712428182363510132e-01
1.505000000000000000e+03 2.319181203842163086e+00 -4.333177566528320312e+00 -2.613356895744800568e-02 -7.877718657255172729e-02 -3.147322684526443481e-02 -9.205208718776702881e-02
1.506000000000000000e+03 3.130056858062744141e+00 -1.902824783325195312e+01 2.243643105030059814e-01 -8.929936587810516357e-02 4.051948338747024536e-02 1.896651238203048706e-01
1.507000000000000000e+03 3.183729887008666992e+00 -1.579857540130615234e+01 1.143425032496452332e-01 -1.970324516296386719e-01 -2.480698749423027039e-02 -1.130505055189132690e-01
1.508000000000000000e+03 1.853896379470825195e+00 -2.446675682067871094e+01 2.130473032593727112e-02 4.231700673699378967e-02 1.908652111887931824e-02 4.299963712692260742e-01
1.509000000000000000e+03 3.028387546539306641e+00 -2.278577041625976562e+01 1.303406357765197754e-01 1.286743134260177612e-01 7.770448178052902222e-02 4.844593107700347900e-01
1.510000000000000000e+03 1.939696669578552246e+00 -2.590316009521484375e+01 -6.188939884305000305e-02 2.723783254623413086e-01 6.314668059349060059e-02 4.201678931713104248e-01
1.511000000000000000e+03 3.039263725280761719e+00 1.997555160522460938e+01 2.143987949239090085e-04 -4.121263373235706240e-06 6.308325828285887837e-05 -7.232368716358905658e-06
1.512000000000000000e+03 2.855275869369506836e+00 -1.039542770385742188e+01 -3.070290759205818176e-02 -2.190984785556793213e-01 -7.494041323661804199e-02 -2.089169025421142578e-01
1.513000000000000000e+03 3.025718450546264648e+00 -8.999951362609863281e+00 -2.869098819792270660e-02 -1.661230474710464478e-01 -5.844420939683914185e-02 -1.892527639865875244e-01
1.514000000000000000e+03 4.516252994537353516e+00 -3.635470962524414062e+01 -2.031533792614936829e-02 3.889187574386596680e-01 1.105810180306434631e-01 -4.281422495841979980e-02
1.515000000000000000e+03 2.681372880935668945e+00 1.168807888031005859e+01 1.402292837155982852e-04 1.383442213409580290e-05 4.621911284630186856e-05 -3.065130658796988428e-05
1.516000000000000000e+03 2.804172277450561523e+00 1.306879329681396484e+01 -1.544973929412662983e-04 -1.421615161234512925e-05 -5.061406409367918968e-05 4.094769610674120486e-05
1.517000000000000000e+03 3.076830863952636719e+00 2.138667869567871094e+01 -1.970659795915707946e-04 4.445920694706728682e-06 -5.778601916972547770e-05 1.738479477353394032e-05
1.518000000000000000e+03 2.959814071655273438e+00 1.725218772888183594e+01 2.289077820023521781e-04 -3.346572339069098234e-05 5.863262049388140440e-05 -3.692963582579977810e-05
1.519000000000000000e+03 4.156543254852294922e+00 1.570262145996093750e+01 1.900245115393772721e-04 1.394377704855287448e-06 5.742566645494662225e-05 -6.302453402895480394e-05
1.520000000000000000e+03 1.960282683372497559e+00 -3.524493789672851562e+01 -1.979209855198860168e-02 7.187260389328002930e-01 2.096801847219467163e-01 -5.840603634715080261e-02
1.521000000000000000e+03 4.814461231231689453e+00 -3.345768356323242188e+01 -1.093619167804718018e-01 2.956306040287017822e-01 5.588060244917869568e-02 1.415033545345067978e-02
1.522000000000000000e+03 3.768224239349365234e+00 -3.231319808959960938e+01 -1.080399304628372192e-01 4.294504523277282715e-01 9.642315655946731567e-02 2.876801043748855591e-02
1.523000000000000000e+03 5.347921848297119141e+00 -2.019866180419921875e+01 3.930926620960235596e-01 9.712585806846618652e-01 4.093053638935089111e-01 4.696904718875885010e-01
1.524000000000000000e+03 3.025596141815185547e+00 -1.435528564453125000e+01 5.199465900659561157e-02 -2.700464129447937012e-01 -6.541552394628524780e-02 -1.756251603364944458e-01
1.525000000000000000e+03 3.651823806762695312e+01 -2.493616676330566406e+01 6.697310209274291992e-01 3.444950819015502930e+00 1.234404563903808594e+00 1.702479571104049683e-01
1.526000000000000000e+03 3.511022949218750000e+01 -2.774531173706054688e+01 3.008297085762023926e-01 2.819557666778564453e+00 9.361161589622497559e-01 6.128277182579040527e-01
1.527000000000000000e+03 4.304799652099609375e+01 1.057802867889404297e+01 1.600827932357788086e+00 4.745795249938964844e+00 1.903986930847167969e+00 2.287001371383666992e+00
1.528000000000000000e+03 7.123195648193359375e+01 -1.918633842468261719e+01 -4.759019357152283192e-04 -1.367656805086880922e-04 -1.838002790464088321e-04 7.618575182277709246e-05
1.529000000000000000e+03 6.805083465576171875e+01 -9.205028533935546875e+00 4.422311671078205109e-03 -4.109627101570367813e-03 9.380532719660550356e-05 -1.465834490954875946e-02
1.530000000000000000e+03 7.096027374267578125e+01 -1.011483287811279297e+01 6.208250764757394791e-03 -1.019517704844474792e-02 -1.196077791973948479e-03 -4.197973757982254028e-03
1.531000000000000000e+03 4.417152023315429688e+01 3.125114059448242188e+01 2.834710180759429932e-01 2.660617351531982422e+00 8.832265138626098633e-01 -4.466203972697257996e-02
1.532000000000000000e+03 7.112462615966796875e+01 -2.129989814758300781e+01 -2.185141784138977528e-04 -5.872129622730426490e-05 -8.317064202856272459e-05 1.344225602224469185e-04
1.533000000000000000e+03 4.397730255126953125e+01 -2.333083343505859375e+01 2.887244820594787598e-01 7.675867676734924316e-01 3.168933689594268799e-01 -3.646911084651947021e-01
1.534000000000000000e+03 4.487606811523437500e+01 -2.438607025146484375e+01 2.874884903430938721e-01 5.808606147766113281e-01 2.605047225952148438e-01 -3.518993556499481201e-01
1.535000000000000000e+03 1.138729190826416016e+01 -1.387062835693359375e+01 4.697845876216888428e-01 3.638175129890441895e-01 2.500806152820587158e-01 3.160952925682067871e-01
1.536000000000000000e+03 1.564295005798339844e+01 9.411064147949218750e+00 -1.299221476074308157e-04 -4.087734487256966531e-05 -5.123984738020226359e-05 -5.708757453248836100e-05
1.537000000000000000e+03 5.431115341186523438e+01 -3.559477996826171875e+01 -1.421999069862067699e-03 1.840322762727737427e-01 5.478308349847793579e-02 -9.645654261112213135e-02
1.538000000000000000e+03 3.511357116699218750e+01 -3.048367500305175781e+01 -1.583271026611328125e-01 1.968085885047912598e+00 5.429276227951049805e-01 2.738765776157379150e-01
1.539000000000000000e+03 5.202140045166015625e+01 1.604220986366271973e+00 -2.900797367095947266e+00 2.815186381340026855e-01 -7.857836484909057617e-01 -8.594787865877151489e-02
1.540000000000000000e+03 5.172293853759765625e+01 5.445836544036865234e+00 -9.980894923210144043e-01 -1.781129390001296997e-01 -3.528607487678527832e-01 -1.026863217353820801e+00
1.541000000000000000e+03 2.916926956176757812e+01 -3.343392562866210938e+01 -1.517879366874694824e-01 4.225727915763854980e-01 8.123546093702316284e-02 3.282343149185180664e-01
1.542000000000000000e+03 1.465961265563964844e+01 1.203437137603759766e+01 -1.438579056411981583e-04 -2.937187491625081748e-05 -5.196893471293151379e-05 -6.595720333280041814e-05
1.543000000000000000e+03 4.424533843994140625e+00 -2.507198333740234375e+01 -2.826284058392047882e-02 3.416077792644500732e-01 9.400348365306854248e-02 5.756083726882934570e-01
1.544000000000000000e+03 2.721189880371093750e+01 -1.598999404907226562e+01 -1.110508203506469727e+00 1.071359887719154358e-01 -3.010116517543792725e-01 8.014749884605407715e-01
1.545000000000000000e+03 3.915292739868164062e+01 3.581691026687622070e+00 2.207309484481811523e+00 7.898472785949707031e+00 3.031734704971313477e+00 3.644007682800292969e+00
1.546000000000000000e+03 1.576717758178710938e+01 4.057069778442382812e+00 2.005765054491348565e-05 -3.772370473598130047e-05 -5.299816621118225157e-06 -4.582227848004549742e-05
1.547000000000000000e+03 1.744378280639648438e+01 2.662456750869750977e+00 7.580941746709868312e-05 7.372155960183590651e-05 4.485929457587189972e-05 7.081814692355692387e-05
1.548000000000000000e+03 5.443244552612304688e+01 6.612079143524169922e-01 -2.023497581481933594e+00 9.774035215377807617e-02 -5.777271986007690430e-01 8.617147803306579590e-02
1.549000000000000000e+03 1.020526790618896484e+01 -3.250220870971679688e+01 -3.993238806724548340e-01 -3.121992647647857666e-01 -2.134569436311721802e-01 2.511522471904754639e-01
1.550000000000000000e+03 1.417906188964843750e+01 2.856785583496093750e+01 6.339931278489530087e-04 6.563307397300377488e-05 2.098878612741827965e-04 2.360391663387417793e-04
1.551000000000000000e+03 1.616983032226562500e+01 8.162965774536132812e+00 1.181487386929802597e-04 3.611183637985959649e-05 4.627817179425619543e-05 5.783001324743963778e-05
1.552000000000000000e+03 1.672087287902832031e+01 6.966187477111816406e+00 -1.059066780726425350e-04 -3.733423727680929005e-05 -4.297227496863342822e-05 -6.126982771093025804e-05
1.553000000000000000e+03 4.842940521240234375e+01 -2.894320678710937500e+01 1.323722749948501587e-01 3.731817007064819336e-01 1.516661942005157471e-01 -2.594783902168273926e-01
1.554000000000000000e+03 4.204783630371093750e+01 -1.924059104919433594e+01 4.823096841573715210e-02 1.632301092147827148e+00 5.041596293449401855e-01 -2.305112034082412720e-01
1.555000000000000000e+03 4.306059646606445312e+01 -2.228032112121582031e+01 2.751986980438232422e-01 1.013034939765930176e+00 3.864700794219970703e-01 -3.457685410976409912e-01
1.556000000000000000e+03 1.371191024780273438e+01 1.478517055511474609e+01 -1.632357161724939942e-04 2.358384153922088444e-05 -4.189556420897133648e-05 -6.931369716767221689e-05
1.557000000000000000e+03 2.176728057861328125e+01 4.132164764404296875e+01 2.443852601572871208e-03 -3.812780836597084999e-03 -4.106785054318606853e-04 1.127781462855637074e-03
1.558000000000000000e+03 2.074617004394531250e+01 3.915981292724609375e+01 -4.015208687633275986e-03 -3.757851431146264076e-03 -2.331917872652411461e-03 1.735290745273232460e-03
1.559000000000000000e+03 4.119001770019531250e+01 7.813211441040039062e+00 2.187210798263549805e+00 6.938579082489013672e+00 2.737736940383911133e+00 3.362529039382934570e+00
1.560000000000000000e+03 4.266715240478515625e+01 9.185019493103027344e+00 1.958099484443664551e+00 4.860096454620361328e+00 2.045458793640136719e+00 2.599113702774047852e+00
1.561000000000000000e+03 6.757188415527343750e+01 -3.532902526855468750e+01 -7.760720793157815933e-03 2.116065734298899770e-04 -2.264734357595443726e-03 1.334347482770681381e-02
1.562000000000000000e+03 3.227750015258789062e+01 4.122992324829101562e+01 7.606367766857147217e-02 1.511779725551605225e-01 6.817249953746795654e-02 -1.592162624001502991e-02
1.563000000000000000e+03 4.733524322509765625e+00 -2.144742012023925781e+01 2.665942609310150146e-01 6.783345341682434082e-01 2.834786474704742432e-01 5.013337135314941406e-01
1.564000000000000000e+03 4.324530792236328125e+01 1.764296054840087891e+00 -3.189133405685424805e+00 -1.991396397352218628e-01 -1.016481876373291016e+00 -2.720815241336822510e-01
1.565000000000000000e+03 5.964676856994628906e+00 -1.902797889709472656e+01 4.793682992458343506e-01 1.129176735877990723e+00 4.825635254383087158e-01 5.490959882736206055e-01
1.566000000000000000e+03 6.574841976165771484e+00 -1.789040756225585938e+01 7.184129953384399414e-01 1.033552050590515137e+00 5.255895256996154785e-01 4.966448843479156494e-01
1.567000000000000000e+03 4.237654495239257812e+01 7.762893676757812500e+00 2.295210838317871094e+00 4.577969551086425781e+00 2.061954021453857422e+00 2.762495279312133789e+00
1.568000000000000000e+03 1.252438640594482422e+01 1.959721565246582031e+01 3.019321011379361153e-04 5.271122427075169981e-05 1.063929958036169410e-04 -1.835334728639281821e-06
1.569000000000000000e+03 1.273025703430175781e+01 1.785406303405761719e+01 -2.224028576165437698e-04 8.850814629113301635e-05 -4.016841194243170321e-05 -5.114762461744248867e-05
1.570000000000000000e+03 4.595994186401367188e+01 4.444523334503173828e+00 -7.232168316841125488e-01 -1.285802125930786133e+00 -6.027057170867919922e-01 -4.390081465244293213e-01
1.571000000000000000e+03 4.588843536376953125e+01 2.913788557052612305e+00 -2.526037216186523438e+00 -2.421482801437377930e+00 -1.484256029129028320e+00 -7.609884142875671387e-01
1.572000000000000000e+03 7.052256774902343750e+01 -2.725177001953125000e+01 -1.801059581339359283e-03 8.283041097456589341e-05 -5.154687678441405296e-04 -4.871186392847448587e-04
1.573000000000000000e+03 4.394155120849609375e+01 1.493759059906005859e+01 8.198890686035156250e-01 4.176649570465087891e+00 1.498961567878723145e+00 1.208709001541137695e+00
1.574000000000000000e+03 4.564462661743164062e+01 1.770635032653808594e+01 6.708950400352478027e-01 3.215442657470703125e+00 1.165901303291320801e+00 8.423366546630859375e-01
1.575000000000000000e+03 4.415563201904296875e+01 2.879591751098632812e+01 4.518097639083862305e-01 3.005595445632934570e+00 1.037221550941467285e+00 -1.214471980929374695e-01
1.576000000000000000e+03 1.510452079772949219e+01 3.257481384277343750e+01 3.429974603932350874e-04 7.506179827032610774e-05 1.254177768714725971e-04 -5.134311504662036896e-05
1.577000000000000000e+03 1.339377307891845703e+01 3.238478851318359375e+01 3.220726212020963430e-04 -8.913223864510655403e-04 -1.707749324850738049e-04 -9.922085155267268419e-05
1.578000000000000000e+03 2.984109497070312500e+01 -2.959434747695922852e+00 -3.007722139358520508e+00 -1.024506926536560059e+00 -1.209668755531311035e+00 -2.396857261657714844e+00
1.579000000000000000e+03 1.524594211578369141e+01 -1.247900581359863281e+01 4.082652032375335693e-01 -7.930319756269454956e-02 9.868860244750976562e-02 2.815389931201934814e-01
1.580000000000000000e+03 1.551977348327636719e+01 -1.406560134887695312e+01 4.514401853084564209e-01 -9.510338306427001953e-02 1.069010421633720398e-01 2.619899809360504150e-01
1.581000000000000000e+03 3.730984210968017578e+00 -2.079553794860839844e+01 2.177058458328247070e-01 2.687098383903503418e-01 1.459247022867202759e-01 4.110526740550994873e-01
1.582000000000000000e+03 4.059368896484375000e+01 3.829335784912109375e+01 -2.901476323604583740e-01 1.667116165161132812e+00 4.130905568599700928e-01 -2.527238428592681885e-01
1.583000000000000000e+03 6.394501113891601562e+01 -1.265108466148376465e+00 -5.997970700263977051e-01 1.007690131664276123e-01 -1.497084200382232666e-01 -6.938412040472030640e-02
1.584000000000000000e+03 4.299370574951171875e+01 -2.416529464721679688e+01 3.512311279773712158e-01 1.050113201141357422e+00 4.204033017158508301e-01 -4.196790456771850586e-01
1.585000000000000000e+03 1.334869480133056641e+01 2.583732986450195312e+01 4.487817641347646713e-04 5.943283031228929758e-05 1.524643739685416222e-04 3.017055132659152150e-05
1.586000000000000000e+03 3.935818099975585938e+01 9.124870896339416504e-01 -1.383396148681640625e+00 5.539851188659667969e+00 1.246936559677124023e+00 1.254774093627929688e+00
1.587000000000000000e+03 4.213780975341796875e+01 2.138600826263427734e+00 -2.144703865051269531e+00 1.991646885871887207e+00 -4.591706767678260803e-02 5.186278223991394043e-01
1.588000000000000000e+03 5.183137130737304688e+01 3.515349864959716797e+00 -2.108761072158813477e+00 6.501197069883346558e-02 -6.131247282028198242e-01 -8.589740991592407227e-01
1.589000000000000000e+03 3.678786087036132812e+01 -6.450824737548828125e-01 -2.223587989807128906e+00 5.873989582061767578e+00 1.095120429992675781e+00 2.447605371475219727e+00
1.590000000000000000e+03 3.550904846191406250e+01 -7.566711902618408203e-01 -2.636703252792358398e+00 5.057731628417968750e+00 7.263084650039672852e-01 2.566428661346435547e+00
1.591000000000000000e+03 1.403532505035400391e+01 2.265646171569824219e+01 -3.630645223893225193e-04 2.747002270098164445e-07 -1.088369463104754686e-04 3.333280346851097420e-06
1.592000000000000000e+03 2.727429199218750000e+01 -3.021930456161499023e+00 -2.650416612625122070e+00 -6.483559012413024902e-01 -9.896317124366760254e-01 -1.722980618476867676e+00
1.593000000000000000e+03 2.957785415649414062e+01 -5.807922363281250000e+00 3.778169155120849609e+00 -6.665982604026794434e-01 9.334712624549865723e-01 -7.086129188537597656e-01
1.594000000000000000e+03 3.435166931152343750e+01 -3.283275604248046875e+01 -3.129063248634338379e-01 1.528252005577087402e+00 3.646036982536315918e-01 2.673477530479431152e-01
1.595000000000000000e+03 5.625662231445312500e+01 1.375252366065979004e+00 -1.624527335166931152e+00 7.568680495023727417e-02 -4.646521508693695068e-01 -1.831612288951873779e-01
1.596000000000000000e+03 4.135840225219726562e+01 3.448951339721679688e+01 -6.405157595872879028e-02 2.140110015869140625e+00 6.228175759315490723e-01 -3.861289024353027344e-01
1.597000000000000000e+03 4.726497650146484375e+00 -2.651268386840820312e+01 -2.507913410663604736e-01 3.335672020912170410e-01 2.483275905251502991e-02 5.053527355194091797e-01
1.598000000000000000e+03 3.635314941406250000e+01 -2.837534904479980469e+01 8.828267455101013184e-02 2.519549608230590820e+00 7.823497056961059570e-01 -1.479802420362830162e-03
1.599000000000000000e+03 3.827292251586914062e+01 1.137831926345825195e+00 -2.287384569644927979e-01 6.478110313415527344e+00 1.874811530113220215e+00 2.199212074279785156e+00
1.600000000000000000e+03 4.122372055053710938e+01 -1.817013549804687500e+01 3.492515161633491516e-02 1.937051773071289062e+00 5.915930867195129395e-01 -1.681474447250366211e-01
1.601000000000000000e+03 4.111256790161132812e+01 -2.013618469238281250e+01 1.594940721988677979e-01 1.821296453475952148e+00 5.942371487617492676e-01 -1.601796299219131470e-01
1.602000000000000000e+03 3.976563644409179688e+01 -1.433385181427001953e+01 -4.060363024473190308e-02 1.973715424537658691e+00 5.799335837364196777e-01 -8.746182918548583984e-01
1.603000000000000000e+03 3.944833374023437500e+01 -1.240694713592529297e+01 1.493489146232604980e-01 1.543365359306335449e+00 5.078142881393432617e-01 -1.100867509841918945e+00
1.604000000000000000e+03 4.719933319091796875e+01 2.796614646911621094e+00 -3.879940271377563477e+00 -1.909204840660095215e+00 -1.736743569374084473e+00 -1.753813028335571289e+00
1.605000000000000000e+03 4.860706329345703125e+01 2.693079233169555664e+00 -4.216391563415527344e+00 -5.579590201377868652e-01 -1.432305216789245605e+00 -1.281462192535400391e+00
1.606000000000000000e+03 5.861754989624023438e+01 -3.629598617553710938e+01 1.425741240382194519e-02 3.441357612609863281e-02 1.460129581391811371e-02 -1.178451697342097759e-03
1.607000000000000000e+03 6.002742004394531250e+01 -3.550947570800781250e+01 -6.172379013150930405e-03 -3.695219522342085838e-03 -2.960279583930969238e-03 1.315722893923521042e-02
1.608000000000000000e+03 3.255226898193359375e+01 -3.434802627563476562e+01 -2.987555861473083496e-01 1.089426994323730469e+00 2.372014075517654419e-01 3.321909010410308838e-01
1.609000000000000000e+03 3.275085067749023438e+01 -3.250149917602539062e+01 -1.941464841365814209e-01 1.254449844360351562e+00 3.180910050868988037e-01 4.379236400127410889e-01
1.610000000000000000e+03 6.258982849121093750e+01 -7.105910778045654297e-01 -7.829919457435607910e-01 7.559220492839813232e-02 -2.122199237346649170e-01 -1.094526648521423340e-01
1.611000000000000000e+03 3.100644111633300781e+01 -1.632618331909179688e+01 -1.855222344398498535e+00 5.749774351716041565e-02 -5.393173694610595703e-01 8.762609213590621948e-02
1.612000000000000000e+03 4.229302597045898438e+01 -5.820916295051574707e-01 -3.880305767059326172e+00 -3.711255490779876709e-01 -1.275429368019104004e+00 -2.102198362350463867e+00
1.613000000000000000e+03 6.424596405029296875e+01 3.387526422739028931e-02 -6.336873769760131836e-01 1.034956797957420349e-01 -1.590574979782104492e-01 -2.035738676786422729e-01
1.614000000000000000e+03 6.124673461914062500e+01 -2.226620763540267944e-01 -9.537668824195861816e-01 6.176801770925521851e-02 -2.675996720790863037e-01 -1.210597902536392212e-01
1.615000000000000000e+03 4.284180450439453125e+01 3.163794326782226562e+01 2.717405259609222412e-01 2.753795385360717773e+00 9.076607823371887207e-01 -2.255375981330871582e-01
1.616000000000000000e+03 4.303878402709960938e+01 3.397261428833007812e+01 -6.772620975971221924e-02 2.395078182220458984e+00 6.982055902481079102e-01 -1.267499625682830811e-01
1.617000000000000000e+03 7.027466583251953125e+01 -2.897991371154785156e+01 -4.144673701375722885e-03 3.503063635434955359e-04 -1.138310180976986885e-03 -3.171730895701330155e-06
1.618000000000000000e+03 4.026797866821289062e+01 -1.902357482910156250e+01 4.733459651470184326e-02 2.245426893234252930e+00 6.878284215927124023e-01 -5.874040722846984863e-02
1.619000000000000000e+03 4.080416870117187500e+01 -1.074135780334472656e+00 -2.929702758789062500e+00 2.098792791366577148e+00 -2.492729425430297852e-01 -9.375126361846923828e-01
1.620000000000000000e+03 7.447161865234375000e+01 -2.645523834228515625e+01 -7.878526812419295311e-04 -2.990230859722942114e-04 -3.260627272538840771e-04 2.408877480775117874e-04
1.621000000000000000e+03 7.107071876525878906e+00 -1.676937103271484375e+01 6.670166254043579102e-01 9.081242680549621582e-01 4.725422859191894531e-01 3.162950277328491211e-01
1.622000000000000000e+03 4.335899353027343750e+01 3.028231811523437500e+01 4.372082948684692383e-01 2.947992086410522461e+00 1.015560150146484375e+00 -1.931473314762115479e-01
1.623000000000000000e+03 3.168246459960937500e+01 -8.966266632080078125e+00 2.629937648773193359e+00 4.796112537384033203e+00 2.227815151214599609e+00 1.997082710266113281e+00
1.624000000000000000e+03 3.919923782348632812e+01 -1.951237297058105469e+01 1.124438047409057617e-01 2.568187236785888672e+00 8.041892647743225098e-01 -2.123759314417839050e-02
1.625000000000000000e+03 3.669265365600585938e+01 -2.619131469726562500e+01 4.820479154586791992e-01 3.078899860382080078e+00 1.068284273147583008e+00 -3.382587060332298279e-02
1.626000000000000000e+03 1.225968265533447266e+01 -1.371846485137939453e+01 5.246579647064208984e-01 2.321985363960266113e-01 2.270569503307342529e-01 3.334251642227172852e-01
1.627000000000000000e+03 3.490320968627929688e+01 -1.663439750671386719e+01 -1.684952139854431152e+00 2.862921476364135742e+00 3.533908128738403320e-01 -1.196745157241821289e+00
1.628000000000000000e+03 4.146015167236328125e+01 3.549611091613769531e+00 4.304068908095359802e-02 3.698617458343505859e+00 1.122497439384460449e+00 1.710335493087768555e+00
1.629000000000000000e+03 1.518367004394531250e+01 3.631545639038085938e+01 5.716048763133585453e-04 6.115363794378936291e-04 3.549423709046095610e-04 -4.429865512065589428e-04
1.630000000000000000e+03 6.690083312988281250e+01 -5.738127231597900391e+00 -8.513853698968887329e-02 1.140316366218030453e-03 -2.519946731626987457e-02 1.961677521467208862e-02
1.631000000000000000e+03 6.755229187011718750e+01 -4.698922157287597656e+00 -1.406814903020858765e-01 2.051586657762527466e-02 -3.604968637228012085e-02 5.958582740277051926e-03
1.632000000000000000e+03 3.978106689453125000e+01 -1.544212245941162109e+01 -1.014946848154067993e-01 2.212805032730102539e+00 6.333930492401123047e-01 -6.433737277984619141e-01
1.633000000000000000e+03 3.959332656860351562e+01 -1.330818748474121094e+01 4.842231795191764832e-02 1.788295984268188477e+00 5.510154962539672852e-01 -1.046305775642395020e+00
1.634000000000000000e+03 5.396740722656250000e+01 2.311165571212768555e+00 -2.053226470947265625e+00 2.184168696403503418e-01 -5.504428744316101074e-01 -3.493465781211853027e-01
1.635000000000000000e+03 1.266389083862304688e+01 2.128732681274414062e+01 -3.626420220825821161e-04 -1.813420021790079772e-05 -1.142328692367300391e-04 2.011043579841498286e-05
1.636000000000000000e+03 5.305908679962158203e+00 -1.516334915161132812e+01 2.146177440881729126e-01 3.486495316028594971e-01 1.689801812171936035e-01 -7.244594395160675049e-02
1.637000000000000000e+03 7.618994235992431641e+00 -3.226993179321289062e+01 -2.824408710002899170e-01 -1.492808908224105835e-01 -1.295165270566940308e-01 1.239177733659744263e-01
1.638000000000000000e+03 8.830607414245605469e+00 -3.252404022216796875e+01 -3.262155950069427490e-01 -2.435639500617980957e-01 -1.709338724613189697e-01 1.533210426568984985e-01
1.639000000000000000e+03 5.651519012451171875e+01 -3.626837921142578125e+01 1.014508213847875595e-02 1.121725812554359436e-01 3.669530153274536133e-02 -4.437752813100814819e-02
1.640000000000000000e+03 3.321135282516479492e+00 3.954358673095703125e+01 -1.517323689768090844e-04 4.170322790741920471e-04 7.958996866364032030e-05 -2.735709131229668856e-04
1.641000000000000000e+03 4.475243377685546875e+01 7.017394065856933594e+00 1.828704237937927246e+00 9.990776777267456055e-01 8.483346104621887207e-01 1.236001610755920410e+00
1.642000000000000000e+03 3.556391525268554688e+01 -2.201864242553710938e+00 -2.833950757980346680e+00 5.198676109313964844e+00 7.094175815582275391e-01 3.744180440902709961e+00
1.643000000000000000e+03 3.554254913330078125e+01 -9.569140434265136719e+00 1.283334374427795410e+00 3.184206724166870117e+00 1.340262293815612793e+00 -2.476335048675537109e+00
1.644000000000000000e+03 3.584117507934570312e+01 -4.394089221954345703e+00 1.266261577606201172e+00 3.169294834136962891e+00 1.330666899681091309e+00 4.320248126983642578e+00
1.645000000000000000e+03 3.468864822387695312e+01 -8.867386817932128906e+00 1.591980814933776855e+00 5.323462486267089844e+00 2.074632883071899414e+00 -2.788482427597045898e+00
1.646000000000000000e+03 3.726112365722656250e+01 -4.631613254547119141e+00 4.828165471553802490e-01 1.438383460044860840e+00 5.763599872589111328e-01 1.884530901908874512e+00
1.647000000000000000e+03 3.544052505493164062e+01 -4.305317878723144531e+00 1.019982576370239258e+00 4.213341236114501953e+00 1.569997191429138184e+00 4.966540813446044922e+00
1.648000000000000000e+03 3.340448379516601562e+01 -9.066441535949707031e+00 9.273048043251037598e-01 7.437631607055664062e+00 2.509480953216552734e+00 -5.748220086097717285e-01
1.649000000000000000e+03 3.394832229614257812e+01 -9.008735656738281250e+00 9.609027504920959473e-01 6.958699703216552734e+00 2.375880718231201172e+00 -1.653777122497558594e+00
1.650000000000000000e+03 3.773807144165039062e+01 -9.572537422180175781e+00 1.047315001487731934e+00 1.019703626632690430e+00 6.201055645942687988e-01 -1.378525018692016602e+00
1.651000000000000000e+03 3.411261367797851562e+01 -4.051549911499023438e+00 -6.253845095634460449e-01 7.520758152008056641e+00 2.068612098693847656e+00 4.031438827514648438e+00
1.652000000000000000e+03 3.439557647705078125e+01 -9.056185722351074219e+00 1.193115234375000000e+00 5.917361259460449219e+00 2.133142948150634766e+00 -2.408865451812744141e+00
1.653000000000000000e+03 3.310135650634765625e+01 -8.794461250305175781e+00 1.383173227310180664e+00 8.155017852783203125e+00 2.861457109451293945e+00 5.109001398086547852e-01
1.654000000000000000e+03 9.613412857055664062e+00 -4.279418468475341797e+00 -1.495877355337142944e-01 6.521648913621902466e-02 -2.531137503683567047e-02 -5.226786062121391296e-02
1.655000000000000000e+03 1.036455059051513672e+01 -4.294625759124755859e+00 -1.517119556665420532e-01 6.351156532764434814e-02 -2.646011859178543091e-02 -3.434607759118080139e-02
1.656000000000000000e+03 3.053281402587890625e+01 -7.835877418518066406e+00 4.945428371429443359e+00 2.103572368621826172e+00 2.114700317382812500e+00 2.118161916732788086e+00
1.657000000000000000e+03 2.854359817504882812e+01 -1.489742755889892578e+01 -7.005535960197448730e-01 3.148224353790283203e-01 -1.157193407416343689e-01 9.108756780624389648e-01
1.658000000000000000e+03 3.478845977783203125e+01 -4.521852016448974609e+00 1.489648938179016113e+00 6.270487308502197266e+00 2.328040838241577148e+00 5.633489131927490234e+00
1.659000000000000000e+03 3.224980163574218750e+01 -3.451777458190917969e+00 -1.649955153465270996e+00 4.019809246063232422e+00 7.109561562538146973e-01 8.837261795997619629e-02
1.660000000000000000e+03 3.296042633056640625e+01 -3.800505399703979492e+00 -1.190482378005981445e+00 6.867527008056640625e+00 1.703113317489624023e+00 9.058238267898559570e-01
1.661000000000000000e+03 7.480579376220703125e+01 -1.721106719970703125e+01 -1.139759042416699231e-04 -1.264366583200171590e-04 -7.212376658571884036e-05 2.899355058616492897e-05
1.662000000000000000e+03 3.621836090087890625e+01 -1.183853530883789062e+01 1.179656609892845154e-01 2.747586488723754883e+00 8.596656322479248047e-01 -1.970393776893615723e+00
1.663000000000000000e+03 7.686046600341796875e+01 -9.929217338562011719e+00 4.174129106104373932e-03 3.073499538004398346e-03 2.174288732931017876e-03 1.190912257879972458e-02
1.664000000000000000e+03 1.369799327850341797e+01 5.561795234680175781e+00 -1.059187161445152014e-05 1.518941007816465572e-05 1.379261561851308215e-06 8.366176189156249166e-06
1.665000000000000000e+03 1.530701732635498047e+01 2.396838426589965820e+00 -1.360135343020374421e-06 -1.165446083177812397e-04 -3.537142401910386980e-05 -2.136294824595097452e-05
1.666000000000000000e+03 7.311714935302734375e+01 -2.007384300231933594e+01 -4.019153857370838523e-05 -3.871675653499551117e-05 -2.367248816881328821e-05 7.115888001862913370e-05
1.667000000000000000e+03 7.629148864746093750e+01 -2.140897750854492188e+01 2.772771986201405525e-04 -9.378055256092920899e-05 5.504899672814644873e-05 -2.210215752711519599e-04
1.668000000000000000e+03 7.403742218017578125e+01 -1.703561210632324219e+01 2.422765101073309779e-04 5.534194133360870183e-05 8.928553870646283031e-05 -1.257701569556957111e-05
1.669000000000000000e+03 3.931976318359375000e+01 -3.944285154342651367e+00 -8.682017922401428223e-01 1.309423208236694336e+00 1.323664188385009766e-01 1.556765586137771606e-01
1.670000000000000000e+03 3.951670455932617188e+01 -2.707135915756225586e+00 -1.721916317939758301e+00 2.155210733413696289e+00 1.299883127212524414e-01 1.369731426239013672e-01
1.671000000000000000e+03 1.888438606262207031e+01 2.120357036590576172e+00 3.868904605042189360e-05 4.491909930948168039e-05 2.508244324417319149e-05 8.333707228302955627e-05
1.672000000000000000e+03 1.814566230773925781e+01 3.799069404602050781e+00 9.107000369112938643e-05 6.587487587239593267e-05 4.708346386905759573e-05 8.001444075489416718e-05
1.673000000000000000e+03 1.471979045867919922e+01 2.606091260910034180e+00 4.810560858459211886e-05 8.141119906213134527e-05 3.885504338541068137e-05 1.106379613702301867e-06
1.674000000000000000e+03 1.344184780120849609e+01 3.589750051498413086e+00 -1.472181111239478923e-06 -1.128042058553546667e-04 -3.428291529417037964e-05 -4.296585029806010425e-05
1.675000000000000000e+03 7.563606262207031250e+01 -1.734615325927734375e+01 1.873793080449104309e-04 -2.522199611121322960e-05 4.864719448960386217e-05 -3.320930773043073714e-05
1.676000000000000000e+03 9.029535293579101562e+00 4.025419235229492188e+00 -5.389212310547009110e-05 -5.964043521089479327e-05 -3.405976895010098815e-05 -2.000959739234531298e-06
1.677000000000000000e+03 1.027446460723876953e+01 3.186624050140380859e+00 3.994768849224783480e-05 7.139002264011651278e-05 3.340131297591142356e-05 -9.053524991031736135e-06
1.678000000000000000e+03 1.110313415527343750e+01 -4.345083236694335938e+00 -1.507448405027389526e-01 5.323929712176322937e-02 -2.925166301429271698e-02 -2.334203757345676422e-02
1.679000000000000000e+03 1.427010822296142578e+01 3.636206150054931641e+00 7.632926281075924635e-05 7.717558037256821990e-05 4.605145295499823987e-05 4.996715142624452710e-05
1.680000000000000000e+03 7.143871784210205078e+00 -3.578368425369262695e+00 -1.332191377878189087e-01 3.468614444136619568e-02 -2.955989725887775421e-02 -9.172414243221282959e-02
1.681000000000000000e+03 8.847161293029785156e+00 -4.300240993499755859e+00 -1.443317979574203491e-01 6.758188456296920776e-02 -2.302497252821922302e-02 -6.707994639873504639e-02
1.682000000000000000e+03 8.279386520385742188e+00 4.084048271179199219e+00 4.356052886578254402e-05 6.361140549415722489e-05 3.215157994418404996e-05 2.319275608897441998e-06
1.683000000000000000e+03 6.503903388977050781e+00 3.484731197357177734e+00 -2.335397221031598747e-05 -6.308750016614794731e-05 -2.593244244053494185e-05 1.124536174756940454e-05
1.684000000000000000e+03 5.909948825836181641e+00 4.447256565093994141e+00 -1.769501250237226486e-05 -8.110143971862271428e-05 -2.963893530250061303e-05 1.304002125834813341e-05
1.685000000000000000e+03 7.325545310974121094e+00 5.763895034790039062e+00 3.787409877986647189e-05 7.851557165849953890e-05 3.491690222290344536e-05 -2.619691622385289520e-05
1.686000000000000000e+03 3.709532976150512695e+00 5.838548183441162109e+00 9.923470497597008944e-05 -2.286232665937859565e-05 2.291171404067426920e-05 -3.945592834497801960e-05
1.687000000000000000e+03 4.892079353332519531e+00 3.651187896728515625e+00 -6.323803245322778821e-05 -2.899422725022304803e-05 -2.766967736533842981e-05 3.151208875351585448e-05
1.688000000000000000e+03 3.937262296676635742e+00 4.663675308227539062e+00 -8.116992103168740869e-05 3.368240413692547008e-06 -2.334050441277213395e-05 1.779750527930445969e-05
1.689000000000000000e+03 2.956090688705444336e+00 4.147512435913085938e+00 1.585914105817209929e-05 -4.432434798218309879e-05 -8.539562259102240205e-06 2.531281461415346712e-05
1.690000000000000000e+03 3.298719644546508789e+00 3.437859058380126953e+00 -4.491340860113268718e-06 -4.573686601361259818e-05 -1.506846183474408463e-05 8.607863492215983570e-06
1.691000000000000000e+03 1.617200016975402832e+00 5.478682518005371094e+00 6.010139259160496294e-05 3.754709894110419555e-07 1.814305869629606605e-05 -2.148625935660675168e-05
1.692000000000000000e+03 7.377451324462890625e+01 -1.785655784606933594e+01 -1.356488792225718498e-04 -2.026056754402816296e-04 -1.014763693092390895e-04 -1.621434203116223216e-04
1.693000000000000000e+03 7.169062805175781250e+01 -1.748813247680664062e+01 4.900850472040474415e-04 -9.066243364941328764e-06 1.443056389689445496e-04 -1.107139323721639812e-04
1.694000000000000000e+03 7.114105987548828125e+01 -2.011042213439941406e+01 4.079383506905287504e-04 8.884177805157378316e-05 1.490340364398434758e-04 8.309566328534856439e-05
1.695000000000000000e+03 7.090057373046875000e+01 -1.796411895751953125e+01 -4.026723327115178108e-04 -1.022023934638127685e-05 -1.238677796209231019e-04 3.800411941483616829e-04
1.696000000000000000e+03 7.202834320068359375e+01 -1.924903678894042969e+01 -5.722574860556051135e-05 8.179625729098916054e-05 7.371153060375945643e-06 1.945612602867186069e-04
1.697000000000000000e+03 1.404563903808593750e+01 -3.934518098831176758e+00 -1.667752563953399658e-01 -8.074576966464519501e-03 -5.245494842529296875e-02 4.338082391768693924e-03
1.698000000000000000e+03 7.010487365722656250e+01 -1.012898254394531250e+01 9.949003346264362335e-03 -1.077632326632738113e-02 -2.481960400473326445e-04 -7.762702647596597672e-03
1.699000000000000000e+03 6.920811462402343750e+01 -1.047268295288085938e+01 7.617665920406579971e-03 -6.098666694015264511e-03 4.556996864266693592e-04 -1.228913106024265289e-02
1.700000000000000000e+03 3.831626892089843750e+01 -4.354151248931884766e+00 -1.943570226430892944e-01 1.345808982849121094e+00 3.454355895519256592e-01 1.015881657600402832e+00
1.701000000000000000e+03 3.667296600341796875e+01 -1.797031164169311523e+00 -2.459326267242431641e+00 5.235363483428955078e+00 8.328111171722412109e-01 2.837599039077758789e+00
1.702000000000000000e+03 1.723391342163085938e+01 -4.195570945739746094e+00 -1.425543725490570068e-01 -1.026203408837318420e-01 -7.355241477489471436e-02 -6.122172996401786804e-02
1.703000000000000000e+03 6.939681243896484375e+01 -8.749978065490722656e+00 -2.232749480754137039e-03 -1.586290635168552399e-02 -5.428696982562541962e-03 -7.842429913580417633e-03
1.704000000000000000e+03 1.333716201782226562e+01 -4.607949256896972656e+00 -1.294299960136413574e-01 9.435038082301616669e-03 -3.599848598241806030e-02 6.565773859620094299e-03
1.705000000000000000e+03 1.276277446746826172e+01 3.694728612899780273e+00 -1.340636572422226891e-06 1.336722198175266385e-04 3.969947647419758141e-05 1.068619440047768876e-05
1.706000000000000000e+03 7.452104949951171875e+01 -9.638092994689941406e+00 3.827203297987580299e-03 -6.717353127896785736e-03 -8.670449606142938137e-04 8.968051522970199585e-03
1.707000000000000000e+03 7.377155303955078125e+01 -8.229632377624511719e+00 -7.352598942816257477e-03 -1.211066264659166336e-02 -5.838978569954633713e-03 5.668467842042446136e-03
1.708000000000000000e+03 7.693389892578125000e+01 -8.517050743103027344e+00 1.533367612864822149e-04 2.248285571113228798e-03 7.204866851679980755e-04 1.101287081837654114e-02
1.709000000000000000e+03 1.184014415740966797e+01 -4.421903610229492188e+00 -1.456034928560256958e-01 4.297619685530662537e-02 -3.078818693757057190e-02 -8.223723620176315308e-03
1.710000000000000000e+03 1.258283042907714844e+01 -4.514990806579589844e+00 -1.383716464042663574e-01 2.640882879495620728e-02 -3.358884528279304504e-02 -3.510879352688789368e-03
1.711000000000000000e+03 2.315489768981933594e+01 -4.713436126708984375e+00 -1.193573772907257080e-01 -3.675457239151000977e-01 -1.460709273815155029e-01 -6.977871060371398926e-01
1.712000000000000000e+03 3.924718856811523438e+01 -1.170895290374755859e+01 3.013167083263397217e-01 1.306182861328125000e+00 4.822498559951782227e-01 -1.143455624580383301e+00
1.713000000000000000e+03 3.758945083618164062e+01 -1.022461223602294922e+01 9.013705849647521973e-01 1.363479256629943848e+00 6.794549226760864258e-01 -1.598322272300720215e+00
1.714000000000000000e+03 1.650153541564941406e+01 -4.907333850860595703e+00 -7.318758219480514526e-02 -1.033895537257194519e-01 -5.297314003109931946e-02 -2.941992506384849548e-02
1.715000000000000000e+03 3.961340332031250000e+01 -1.057947540283203125e+01 3.532726466655731201e-01 8.258814811706542969e-01 3.537462353706359863e-01 -8.125038743019104004e-01
1.716000000000000000e+03 1.970752143859863281e+01 -4.193974971771240234e+00 -1.522256880998611450e-01 -1.731325089931488037e-01 -9.760746359825134277e-02 -2.009922564029693604e-01
1.717000000000000000e+03 1.981193161010742188e+01 -4.929938316345214844e+00 -2.941266633570194244e-02 -2.403476387262344360e-01 -8.092808723449707031e-02 -2.104906886816024780e-01
1.718000000000000000e+03 7.367509460449218750e+01 -9.311047554016113281e+00 5.623970646411180496e-04 -1.073774695396423340e-02 -3.052605083212256432e-03 6.230097729712724686e-03
1.719000000000000000e+03 7.315324401855468750e+01 -9.456379890441894531e+00 3.878539428114891052e-04 -9.958795271813869476e-03 -2.871282398700714111e-03 3.660454414784908295e-03
1.720000000000000000e+03 7.111218261718750000e+01 -9.170430183410644531e+00 -8.348746341653168201e-04 -1.692743599414825439e-02 -5.328693427145481110e-03 -3.603966441005468369e-03
1.721000000000000000e+03 3.733111953735351562e+01 -2.150536537170410156e+00 -1.996036291122436523e+00 4.425929546356201172e+00 7.289680242538452148e-01 2.346253633499145508e+00
1.722000000000000000e+03 7.263616085052490234e+00 -4.411527156829833984e+00 -1.246864348649978638e-01 5.345677584409713745e-02 -2.136889845132827759e-02 -1.003986150026321411e-01
1.723000000000000000e+03 4.634318828582763672e+00 -3.845245361328125000e+00 -7.750207185745239258e-02 -1.169049460440874100e-02 -2.675776928663253784e-02 -1.131909862160682678e-01
1.724000000000000000e+03 6.440737247467041016e+00 -4.499317169189453125e+00 -1.113679707050323486e-01 3.702326491475105286e-02 -2.230341173708438873e-02 -1.181156635284423828e-01
1.725000000000000000e+03 3.837695598602294922e+00 -4.933929443359375000e+00 -5.352886021137237549e-02 -4.635556787252426147e-02 -2.996532805263996124e-02 -1.307453364133834839e-01
1.726000000000000000e+03 3.911542177200317383e+00 -6.000910758972167969e+00 -5.503664538264274597e-02 -5.705408379435539246e-02 -3.362721949815750122e-02 -1.588754206895828247e-01
1.727000000000000000e+03 2.818325281143188477e+00 -6.098858833312988281e+00 -3.146575018763542175e-02 -1.043193936347961426e-01 -4.073554649949073792e-02 -1.331289112567901611e-01
1.728000000000000000e+03 1.410530662536621094e+01 -4.694211483001708984e+00 -1.168238669633865356e-01 -1.298608630895614624e-02 -3.894298523664474487e-02 3.480236744508147240e-03
1.729000000000000000e+03 1.488768196105957031e+01 -4.776077270507812500e+00 -1.047450155019760132e-01 -3.846988081932067871e-02 -4.296446964144706726e-02 3.624945180490612984e-03
1.730000000000000000e+03 1.003861236572265625e+01 4.703211307525634766e+00 -8.547572360839694738e-05 -4.688403714681044221e-05 -3.970792749896645546e-05 9.081103598873596638e-06
1.731000000000000000e+03 1.568776607513427734e+01 -4.848596572875976562e+00 -8.671045303344726562e-02 -6.844212114810943604e-02 -4.654577374458312988e-02 -1.230213418602943420e-02
1.732000000000000000e+03 1.204244136810302734e+01 3.817105531692504883e+00 -2.848785334208514541e-05 -1.022149954224005342e-04 -3.921085590263828635e-05 1.295758829655824229e-05
1.733000000000000000e+03 2.982370376586914062e+01 -6.467433929443359375e+00 4.600113868713378906e+00 -1.865440756082534790e-01 1.324070930480957031e+00 5.967448651790618896e-02
1.734000000000000000e+03 3.074350929260253906e+01 -7.074294567108154297e+00 6.115999698638916016e+00 1.574868798255920410e+00 2.307260513305664062e+00 1.466117858886718750e+00
1.735000000000000000e+03 1.814526748657226562e+01 -4.970032691955566406e+00 -4.362104088068008423e-02 -1.742496490478515625e-01 -6.536120921373367310e-02 -9.872022271156311035e-02
1.736000000000000000e+03 3.076266098022460938e+01 -3.084537982940673828e+00 -2.753969907760620117e+00 -1.015006154775619507e-01 -8.566411137580871582e-01 -1.784289002418518066e+00
1.737000000000000000e+03 2.307601928710937500e+01 -3.914966106414794922e+00 -4.334030449390411377e-01 -1.628131568431854248e-01 -1.788648664951324463e-01 -6.117116212844848633e-01
1.738000000000000000e+03 2.395235252380371094e+01 -3.832191467285156250e+00 -6.151302456855773926e-01 -2.176602184772491455e-01 -2.498371303081512451e-01 -8.354433178901672363e-01
1.739000000000000000e+03 2.403531837463378906e+01 -4.677404880523681641e+00 -1.240901052951812744e-01 -4.306129515171051025e-01 -1.664109081029891968e-01 -9.047608375549316406e-01
1.740000000000000000e+03 2.147464561462402344e+01 -4.826591014862060547e+00 -5.331809446215629578e-02 -2.916284799575805664e-01 -1.034839749336242676e-01 -3.906050026416778564e-01
1.741000000000000000e+03 1.911104965209960938e+01 -1.446306800842285156e+01 2.955808341503143311e-01 -2.435396611690521240e-01 1.561234984546899796e-02 3.462826907634735107e-01
1.742000000000000000e+03 2.225060653686523438e+01 -1.619572830200195312e+01 -2.019236385822296143e-01 -9.171368181705474854e-02 -8.809119462966918945e-02 4.628060460090637207e-01
1.743000000000000000e+03 3.875719451904296875e+01 -1.523105525970458984e+01 -3.285622000694274902e-01 2.418488025665283203e+00 6.269777417182922363e-01 -9.229280352592468262e-01
1.744000000000000000e+03 2.235850143432617188e+01 -1.504132843017578125e+01 3.725368157029151917e-02 -1.707531511783599854e-01 -4.004983976483345032e-02 5.818662047386169434e-01
1.745000000000000000e+03 2.016859817504882812e+01 -1.474180889129638672e+01 2.223296314477920532e-01 -2.240688204765319824e-01 -5.217563593760132790e-04 4.059977233409881592e-01
1.746000000000000000e+03 2.595173072814941406e+01 -1.606858444213867188e+01 -7.919441461563110352e-01 8.068990707397460938e-02 -2.133762687444686890e-01 7.334215641021728516e-01
1.747000000000000000e+03 2.473083305358886719e+01 -1.499442481994628906e+01 -1.473544985055923462e-01 -7.485599070787429810e-02 -6.666314601898193359e-02 8.434020280838012695e-01
1.748000000000000000e+03 5.993782424926757812e+01 1.934779286384582520e-01 -1.151844859123229980e+00 2.797336317598819733e-02 -3.371614515781402588e-01 -1.610596776008605957e-01
1.749000000000000000e+03 5.795420837402343750e+01 1.940560579299926758e+00 -1.278884887695312500e+00 6.828524917364120483e-02 -3.631798923015594482e-01 -3.428109288215637207e-01
1.750000000000000000e+03 3.615800094604492188e+01 -1.214492797851562500e+00 -2.550863742828369141e+00 5.599465847015380859e+00 9.145805835723876953e-01 2.940754413604736328e+00
1.751000000000000000e+03 3.372262573242187500e+01 -3.800743103027343750e+00 -1.417905926704406738e+00 7.292328357696533203e+00 1.762326717376708984e+00 3.442765474319458008e+00
1.752000000000000000e+03 3.239445495605468750e+01 -2.938426971435546875e+00 -3.444697856903076172e+00 3.385807752609252930e+00 -1.766703277826309204e-02 3.399373590946197510e-01
1.753000000000000000e+03 3.187478256225585938e+01 -2.593542814254760742e+00 -4.312686443328857422e+00 9.623738527297973633e-01 -1.005093812942504883e+00 -6.762056350708007812e-01
1.754000000000000000e+03 3.022560310363769531e+01 -3.755173444747924805e+00 -7.548747658729553223e-01 -2.226540446281433105e-01 -2.932586371898651123e-01 -2.181806802749633789e+00
1.755000000000000000e+03 3.475328826904296875e+01 -1.756304168701171875e+01 -1.674954652786254883e+00 3.058939933776855469e+00 4.151956140995025635e-01 -9.695384502410888672e-01
1.756000000000000000e+03 3.872636413574218750e+01 -5.979775190353393555e-01 -2.296932935714721680e+00 4.807954788208007812e+00 7.533065676689147949e-01 1.175500035285949707e+00
1.757000000000000000e+03 2.725693511962890625e+01 -1.485586929321289062e+01 -4.156192839145660400e-01 1.391258537769317627e-01 -8.294803649187088013e-02 9.850802421569824219e-01
1.758000000000000000e+03 2.978330230712890625e+01 -1.599674034118652344e+01 -1.650871276855468750e+00 1.981464922428131104e-01 -4.358174204826354980e-01 4.705415070056915283e-01
1.759000000000000000e+03 3.251920318603515625e+01 -1.596315574645996094e+01 -1.592885494232177734e+00 1.236505389213562012e+00 -1.069140210747718811e-01 -8.603662848472595215e-01
1.760000000000000000e+03 3.154130172729492188e+01 -1.552364349365234375e+01 -1.308731317520141602e+00 7.836550474166870117e-01 -1.575228869915008545e-01 -3.509856760501861572e-01
1.761000000000000000e+03 9.751295089721679688e+00 -1.221455192565917969e+01 1.637132167816162109e-01 4.104427695274353027e-01 1.722467988729476929e-01 1.258606016635894775e-01
1.762000000000000000e+03 5.509925842285156250e+01 1.824244856834411621e+00 -1.846570372581481934e+00 1.205418109893798828e-01 -5.178085565567016602e-01 -2.395566105842590332e-01
1.763000000000000000e+03 5.270080947875976562e+01 4.696781635284423828e+00 -1.365146160125732422e+00 -4.983776714652776718e-03 -4.110389947891235352e-01 -9.535795450210571289e-01
1.764000000000000000e+03 8.600417137145996094e+00 2.124229049682617188e+01 -2.507948665879666805e-04 -1.251754147233441472e-04 -1.127910800278186798e-04 5.826871347380802035e-05
1.765000000000000000e+03 3.730220031738281250e+01 -1.412761330604553223e+00 -2.318985939025878906e+00 5.017364501953125000e+00 8.095135688781738281e-01 2.118233203887939453e+00
1.766000000000000000e+03 7.453732299804687500e+01 -2.511278152465820312e+01 -4.406142688822001219e-04 -2.273065765621140599e-04 -2.003762492677196860e-04 -8.791137952357530594e-05
1.767000000000000000e+03 7.567280578613281250e+01 -3.061441421508789062e+01 -1.527373795397579670e-03 -6.648130947723984718e-04 -6.576560554094612598e-04 1.901268959045410156e-03
1.768000000000000000e+03 7.095082092285156250e+01 -3.247212600708007812e+01 -7.314770016819238663e-03 1.381872571073472500e-03 -1.779869198799133301e-03 4.896724130958318710e-03
1.769000000000000000e+03 7.570761108398437500e+01 -2.803453636169433594e+01 -1.017443952150642872e-03 -2.944814914371818304e-04 -3.935776185244321823e-04 6.971551338210701942e-04
1.770000000000000000e+03 7.617935943603515625e+01 -2.265789985656738281e+01 -2.457011723890900612e-04 -9.005184256238862872e-05 -1.007258979370817542e-04 -4.386288128443993628e-05
1.771000000000000000e+03 7.231129455566406250e+01 -2.281029891967773438e+01 -3.395043677301146090e-05 -1.798212615540251136e-04 -6.413151277229189873e-05 3.439396459725685418e-05
1.772000000000000000e+03 7.324425506591796875e+01 -3.046495819091796875e+01 -3.165153088048100471e-03 4.683874140027910471e-04 -8.090296760201454163e-04 1.930605969391763210e-03
1.773000000000000000e+03 7.522814178466796875e+01 -3.278596878051757812e+01 -1.836939132772386074e-03 -1.500647398643195629e-03 -1.001275959424674511e-03 3.588516497984528542e-03
1.774000000000000000e+03 7.500167083740234375e+01 -3.494377517700195312e+01 -1.081097056157886982e-03 -2.523537026718258858e-03 -1.081390189938247204e-03 5.143558606505393982e-03
1.775000000000000000e+03 7.746136474609375000e+01 -2.043068885803222656e+01 1.921854709507897496e-04 4.474224988371133804e-05 7.107831333996728063e-05 -1.752935640979558229e-04
1.776000000000000000e+03 7.593690490722656250e+01 -2.391754341125488281e+01 2.201043826062232256e-04 -8.679705933900550008e-05 3.999219552497379482e-05 -1.279072457691654563e-04
1.777000000000000000e+03 7.656183624267578125e+01 -1.887707710266113281e+01 2.028840681305155158e-04 6.854008825030177832e-05 8.142724254867061973e-05 -1.323546748608350754e-04
1.778000000000000000e+03 7.547545623779296875e+01 -1.855906295776367188e+01 -9.735664207255467772e-05 -1.604005083208903670e-04 -7.732714584562927485e-05 -1.195016648125601932e-05
1.779000000000000000e+03 7.407669067382812500e+01 -3.599013137817382812e+01 7.209758623503148556e-04 -3.472551470622420311e-03 -8.254726417362689972e-04 6.196386180818080902e-03
1.780000000000000000e+03 7.759876251220703125e+01 -1.919771575927734375e+01 -9.285314445151016116e-05 -1.699809945421293378e-05 -3.295537317171692848e-05 -1.074074771167943254e-05
1.781000000000000000e+03 7.566516876220703125e+01 2.421393871307373047e+00 -5.475322157144546509e-02 -1.314895153045654297e-01 -5.587282031774520874e-02 -1.512852311134338379e-01
1.782000000000000000e+03 7.676825714111328125e+01 1.083181476593017578e+01 -4.334662575274705887e-03 -5.234007835388183594e-01 -1.583206206560134888e-01 -2.151855528354644775e-01
1.783000000000000000e+03 7.543911743164062500e+01 1.072890377044677734e+01 -7.844201289117336273e-03 -4.745703041553497314e-01 -1.447243541479110718e-01 -2.853849530220031738e-01
1.784000000000000000e+03 7.541501617431640625e+01 1.478400135040283203e+01 2.168523892760276794e-02 -6.638413667678833008e-01 -1.926468461751937866e-01 -2.727565467357635498e-01
1.785000000000000000e+03 7.685981750488281250e+01 3.911880016326904297e+00 -2.823321893811225891e-02 -1.844082623720169067e-01 -6.379244476556777954e-02 -1.398229598999023438e-01
1.786000000000000000e+03 7.674411773681640625e+01 1.766310310363769531e+01 1.869096979498863220e-02 -8.838573098182678223e-01 -2.595499157905578613e-01 -1.840146929025650024e-01
1.787000000000000000e+03 7.540132904052734375e+01 1.749766349792480469e+01 3.516323491930961609e-02 -7.801914811134338379e-01 -2.235084623098373413e-01 -2.423440217971801758e-01
1.788000000000000000e+03 7.531027221679687500e+01 2.160708427429199219e+01 4.322352632880210876e-02 -9.137275218963623047e-01 -2.611511945724487305e-01 -1.845839619636535645e-01
1.789000000000000000e+03 7.407656860351562500e+01 1.065010833740234375e+01 -1.221418101340532303e-02 -4.228358864784240723e-01 -1.305150091648101807e-01 -3.458225429058074951e-01
1.790000000000000000e+03 7.542430114746093750e+01 1.208955574035644531e+01 2.869079355150461197e-03 -5.382779836654663086e-01 -1.606226712465286255e-01 -2.855775058269500732e-01
1.791000000000000000e+03 7.551820373535156250e+01 5.200011730194091797e+00 -4.863926023244857788e-02 -2.257525175809860229e-01 -8.231753110885620117e-02 -2.157391309738159180e-01
1.792000000000000000e+03 7.546733093261718750e+01 7.987363815307617188e+00 -3.028445877134799957e-02 -3.446287810802459717e-01 -1.124739721417427063e-01 -2.640459239482879639e-01
1.793000000000000000e+03 7.659870147705078125e+01 2.319260597229003906e+01 2.522117830812931061e-02 -1.082215189933776855e+00 -3.170982003211975098e-01 -1.227233856916427612e-01
1.794000000000000000e+03 7.524698638916015625e+01 2.298180389404296875e+01 4.581760987639427185e-02 -9.444865584373474121e-01 -2.696006894111633301e-01 -1.627096235752105713e-01
1.795000000000000000e+03 7.507979583740234375e+01 2.867366409301757812e+01 3.934368491172790527e-02 -1.035566449165344238e+00 -2.988668382167816162e-01 -8.042974025011062622e-02
1.796000000000000000e+03 7.404104614257812500e+01 1.737897872924804688e+01 5.592983216047286987e-02 -6.868109703063964844e-01 -1.892643272876739502e-01 -2.969742119312286377e-01
1.797000000000000000e+03 7.537647247314453125e+01 1.887300491333007812e+01 3.797898069024085999e-02 -8.305991291999816895e-01 -2.377860397100448608e-01 -2.251689583063125610e-01
1.798000000000000000e+03 7.348181915283203125e+01 2.740178489685058594e+01 6.206282228231430054e-02 -8.316659927368164062e-01 -2.308809608221054077e-01 -1.185450777411460876e-01
1.799000000000000000e+03 7.515239715576171875e+01 2.439245796203613281e+01 4.627089574933052063e-02 -9.672338962554931641e-01 -2.762888967990875244e-01 -1.420364528894424438e-01
1.800000000000000000e+03 7.603857421875000000e+01 -3.068694591522216797e+00 -3.232266381382942200e-02 -2.635813318192958832e-02 -1.760423928499221802e-02 -3.219219669699668884e-02
1.801000000000000000e+03 7.577953338623046875e+01 1.058714509010314941e+00 -5.374979600310325623e-02 -9.355213493108749390e-02 -4.419057816267013550e-02 -1.176320835947990417e-01
1.802000000000000000e+03 7.620565032958984375e+01 3.028637504577636719e+01 1.321431156247854233e-02 -1.177070021629333496e+00 -3.491567075252532959e-01 -4.099985957145690918e-02
1.803000000000000000e+03 7.488598632812500000e+01 2.984942436218261719e+01 4.372743889689445496e-02 -1.025075197219848633e+00 -2.944043278694152832e-01 -5.896989628672599792e-02
1.804000000000000000e+03 7.304702758789062500e+01 3.207672500610351562e+01 4.186051338911056519e-02 -8.340256810188293457e-01 -2.376495450735092163e-01 -4.971367865800857544e-02
1.805000000000000000e+03 7.597296142578125000e+01 -1.680293083190917969e+00 -4.090423136949539185e-02 -4.136295989155769348e-02 -2.468015812337398529e-02 -5.639027804136276245e-02
1.806000000000000000e+03 7.583387756347656250e+01 3.190130996704101562e+01 1.937377825379371643e-02 -1.134509086608886719e+00 -3.345406055450439453e-01 -3.955132141709327698e-02
1.807000000000000000e+03 7.583860778808593750e+01 3.380475997924804688e+01 2.472701855003833771e-02 -1.172219753265380859e+00 -3.442478179931640625e-01 -3.531018644571304321e-02
1.808000000000000000e+03 7.428405761718750000e+01 3.116645812988281250e+01 1.964561454951763153e-02 -9.937817454338073730e-01 -2.922408580780029297e-01 -5.631621927022933960e-02
1.809000000000000000e+03 7.611289215087890625e+01 -4.474409103393554688e+00 -2.299302816390991211e-02 -1.371614169329404831e-02 -1.101275067776441574e-02 -1.383617147803306580e-02
1.810000000000000000e+03 7.450466156005859375e+01 -7.650590419769287109e+00 -1.367777120321989059e-02 -1.189590990543365479e-02 -7.672104518860578537e-03 3.869021311402320862e-03
1.811000000000000000e+03 7.779782867431640625e+01 -8.227398872375488281e+00 -1.989223994314670563e-03 8.265002630650997162e-03 1.882733544334769249e-03 9.969314560294151306e-03
1.812000000000000000e+03 4.175669860839843750e+01 1.037767410278320312e+00 -2.726563692092895508e+00 1.905227303504943848e+00 -2.464009374380111694e-01 -1.115029156208038330e-01
1.813000000000000000e+03 4.131298828125000000e+01 -3.440333902835845947e-02 -3.167523145675659180e+00 2.314368247985839844e+00 -2.559464275836944580e-01 -5.199761986732482910e-01
1.814000000000000000e+03 4.109075546264648438e+01 2.550495862960815430e+00 -7.044851183891296387e-01 3.843199729919433594e+00 9.416143894195556641e-01 1.304899454116821289e+00
1.815000000000000000e+03 4.587930679321289062e+01 2.067936134338378906e+01 4.205117523670196533e-01 3.122379541397094727e+00 1.062867403030395508e+00 4.858407974243164062e-01
1.816000000000000000e+03 4.428576660156250000e+01 1.784975624084472656e+01 4.757715761661529541e-01 3.873779296875000000e+00 1.304865241050720215e+00 7.947813868522644043e-01
1.817000000000000000e+03 1.492022705078125000e+01 3.114495849609375000e+01 7.988818106241524220e-04 -3.317691443953663111e-04 1.401337940478697419e-04 3.578757168725132942e-04
1.818000000000000000e+03 1.532786750793457031e+01 3.428573608398437500e+01 1.643965370021760464e-04 -7.512429147027432919e-04 -1.760539162205532193e-04 -2.238145825685933232e-04
1.819000000000000000e+03 7.099095916748046875e+01 -2.413681030273437500e+01 -2.446158614475280046e-04 -1.812976406654343009e-04 -1.277740520890802145e-04 1.149450254160910845e-04
1.820000000000000000e+03 4.577862548828125000e+01 2.510231971740722656e+01 3.783621788024902344e-01 2.948000669479370117e+00 9.979088902473449707e-01 1.005423218011856079e-01
1.821000000000000000e+03 4.425786972045898438e+01 1.031252956390380859e+01 1.847883224487304688e+00 3.162590503692626953e+00 1.503142118453979492e+00 1.905024528503417969e+00
1.822000000000000000e+03 4.368423843383789062e+01 1.348403453826904297e+01 9.846727252006530762e-01 4.388148307800292969e+00 1.611846208572387695e+00 1.522447228431701660e+00
1.823000000000000000e+03 4.934741973876953125e+01 -3.015319824218750000e+01 8.230058103799819946e-02 3.453297019004821777e-01 1.282890886068344116e-01 -2.333625704050064087e-01
1.824000000000000000e+03 1.508880805969238281e+01 7.731863498687744141e+00 -7.599336822750046849e-05 -2.518196743039879948e-05 -3.035259942407719791e-05 -5.107901233714073896e-05
1.825000000000000000e+03 4.445660781860351562e+01 2.076194000244140625e+01 2.617175877094268799e-01 3.616645336151123047e+00 1.163508892059326172e+00 4.384889304637908936e-01
1.826000000000000000e+03 4.593214035034179688e+01 2.215858268737792969e+01 3.651060163974761963e-01 3.089159011840820312e+00 1.036279559135437012e+00 3.529818058013916016e-01
1.827000000000000000e+03 4.382999038696289062e+01 -2.523074722290039062e+01 3.108385205268859863e-01 8.819720745086669922e-01 3.578431904315948486e-01 -4.353003799915313721e-01
1.828000000000000000e+03 4.324335098266601562e+00 -1.536780929565429688e+01 1.699203699827194214e-01 1.053756847977638245e-01 8.258881419897079468e-02 -1.104759424924850464e-01
1.829000000000000000e+03 4.277647018432617188e+00 2.115394210815429688e+01 2.473099739290773869e-04 -4.729393822344718501e-06 7.277417898876592517e-05 2.338958984182681888e-05
1.830000000000000000e+03 2.876381874084472656e+00 -2.152734756469726562e+01 1.590445935726165771e-01 3.449777513742446899e-02 5.806270986795425415e-02 4.028489291667938232e-01
1.831000000000000000e+03 2.826183319091796875e+00 -2.038498687744140625e+01 1.624522060155868530e-01 -1.018865182995796204e-01 1.816970482468605042e-02 3.127253949642181396e-01
1.832000000000000000e+03 4.561192989349365234e+00 -1.732006072998046875e+01 3.259204924106597900e-01 2.887540757656097412e-01 1.844023764133453369e-01 7.911966741085052490e-02
1.833000000000000000e+03 2.976648807525634766e+00 1.860547828674316406e+01 -2.408120635664090514e-04 1.747182250255718827e-05 -6.700207450194284320e-05 1.692391197138931602e-05
1.834000000000000000e+03 4.235764980316162109e+00 2.262229156494140625e+01 -1.851018460001796484e-04 3.614936576923355460e-05 -4.468574479687958956e-05 -2.396447962382808328e-05
1.835000000000000000e+03 5.101690769195556641e+00 2.395153999328613281e+01 -1.487208355683833361e-04 1.429364147043088451e-05 -4.032815922982990742e-05 1.527242602605838329e-05
1.836000000000000000e+03 5.590384483337402344e+00 2.653205299377441406e+01 -1.921494258567690849e-04 -6.627223774557933211e-05 -7.752649980830028653e-05 7.005431689321994781e-05
1.837000000000000000e+03 3.049472093582153320e+00 2.569023513793945312e+01 2.131558867404237390e-04 8.527314093953464180e-06 6.650495924986898899e-05 -3.396427200641483068e-05
1.838000000000000000e+03 4.262499332427978516e+00 2.952077674865722656e+01 2.495386579539626837e-04 2.577285158622544259e-05 8.259345486294478178e-05 -2.055240838672034442e-05
1.839000000000000000e+03 4.103543281555175781e+00 1.711146736145019531e+01 -2.503033028915524483e-04 9.380654228152707219e-05 -4.694903327617794275e-05 3.344805372762493789e-05
1.840000000000000000e+03 4.130411148071289062e+00 1.835178756713867188e+01 2.951179631054401398e-04 -2.105552630382589996e-05 8.221872849389910698e-05 -4.272612204658798873e-05
1.841000000000000000e+03 4.261303424835205078e+00 1.968025398254394531e+01 -2.601029991637915373e-04 4.700146018876694143e-05 -6.393046351149678230e-05 1.188988790090661496e-06
1.842000000000000000e+03 5.046292304992675781e+00 1.757467651367187500e+01 3.078437060821670457e-08 -1.430013653589412570e-04 -4.289117350708693266e-05 7.675608503632247448e-05
1.843000000000000000e+03 4.173902988433837891e+00 2.548181915283203125e+01 -2.152861998183652759e-04 2.410093111393507570e-05 -5.735558079322800040e-05 -1.843049176386557519e-05
1.844000000000000000e+03 4.124275684356689453e+00 2.406384086608886719e+01 2.324834786122664809e-04 -2.102419603033922613e-05 6.343778659356757998e-05 -1.482605603086994961e-05
1.845000000000000000e+03 3.922448396682739258e+00 1.284411621093750000e+01 1.659526460571214557e-04 1.715646612865384668e-05 5.493273056345060468e-05 -4.993633774574846029e-05
1.846000000000000000e+03 4.019569396972656250e+00 1.425498390197753906e+01 -1.832389098126441240e-04 -1.051966683007776737e-05 -5.812757444800809026e-05 5.940119081060402095e-05
1.847000000000000000e+03 3.931784152984619141e+00 -1.048272228240966797e+01 -2.520961128175258636e-02 -7.754178345203399658e-02 -3.082541935145854950e-02 -2.180296182632446289e-01
1.848000000000000000e+03 4.290094375610351562e+00 -9.242711067199707031e+00 -5.275223404169082642e-02 -3.507116436958312988e-02 -2.634702064096927643e-02 -2.110572010278701782e-01
1.849000000000000000e+03 4.267702102661132812e+00 -1.403983497619628906e+01 7.314817607402801514e-02 5.032216385006904602e-02 3.704110160470008850e-02 -1.873916089534759521e-01
1.850000000000000000e+03 3.000687360763549805e+00 -3.059951591491699219e+01 -1.491812914609909058e-01 5.058829188346862793e-01 1.070104911923408508e-01 1.246441975235939026e-01
1.851000000000000000e+03 2.745241880416870117e+00 -3.215558624267578125e+01 -7.458619028329849243e-02 5.795735716819763184e-01 1.514962166547775269e-01 1.840678229928016663e-02
1.852000000000000000e+03 4.286404132843017578e+00 2.833285903930664062e+01 -1.614377251826226711e-04 1.409954857081174850e-04 -6.132669113867450505e-06 -1.336124551016837358e-04
1.853000000000000000e+03 6.250574588775634766e+00 3.709755706787109375e+01 1.841568300733342767e-04 -1.871869608294218779e-04 -9.090368848774232902e-07 -1.095305196940898895e-04
1.854000000000000000e+03 3.471261501312255859e+00 3.369657897949218750e+01 2.077302779071033001e-04 8.829664147924631834e-05 8.880807581590488553e-05 -1.229216286446899176e-04
1.855000000000000000e+03 4.595929622650146484e+00 1.104173088073730469e+01 8.081328996922820807e-05 5.990442878101021051e-05 4.221531344228424132e-05 -5.787725604022853076e-05
1.856000000000000000e+03 3.848403215408325195e+00 -1.156834697723388672e+01 -2.189740538597106934e-02 -8.317898958921432495e-02 -3.152291849255561829e-02 -2.304014563560485840e-01
1.857000000000000000e+03 3.721085071563720703e+00 1.145270538330078125e+01 -1.542451645946130157e-04 -1.979521402972750366e-05 -5.221211540629155934e-05 5.386943303165026009e-05
1.858000000000000000e+03 4.880187988281250000e+00 -5.735899925231933594e+00 -7.571891695261001587e-02 -1.467098947614431381e-03 -2.315580472350120544e-02 -1.553371846675872803e-01
1.859000000000000000e+03 7.178717613220214844e+00 -3.384219360351562500e+01 -1.575707197189331055e-01 -2.058817446231842041e-02 -5.344766750931739807e-02 3.960798680782318115e-02
1.860000000000000000e+03 2.334209680557250977e+00 -3.345819091796875000e+01 -3.263846039772033691e-02 6.472349166870117188e-01 1.843789368867874146e-01 -2.557623572647571564e-02
1.861000000000000000e+03 5.903439044952392578e+00 3.005786132812500000e+01 2.475406217854470015e-04 8.263390191132202744e-05 9.905236220220103860e-05 -1.862509816419333220e-04
1.862000000000000000e+03 5.145587921142578125e+00 3.433233642578125000e+01 1.897905749501660466e-04 3.093418490607291460e-05 6.621742795687168837e-05 -1.623323769308626652e-04
1.863000000000000000e+03 2.485052824020385742e+00 6.788201808929443359e+00 1.246469764737412333e-04 -2.406148269074037671e-05 3.017564813490025699e-05 -5.641841926262713969e-05
1.864000000000000000e+03 3.316328763961791992e+00 8.989710807800292969e+00 -1.276439870707690716e-04 -2.100313940900377929e-05 -4.459413685253821313e-05 6.278280488913878798e-05
1.865000000000000000e+03 4.723706722259521484e+00 -4.794221401214599609e+00 -7.471217960119247437e-02 -1.537094358354806900e-02 -2.702493593096733093e-02 -1.389746814966201782e-01
1.866000000000000000e+03 4.577078247070312500e+01 1.919426918029785156e+01 5.292285084724426270e-01 3.188507795333862305e+00 1.115320920944213867e+00 6.653316617012023926e-01
1.867000000000000000e+03 2.597825288772583008e+00 5.675010204315185547e+00 -1.060647991835139692e-04 -1.435362537449691445e-05 -3.612552973208948970e-05 8.883481496013700962e-05
1.868000000000000000e+03 5.006170272827148438e+00 4.689227104187011719e+00 4.357469515525735915e-05 7.665626617381349206e-05 3.606929021771065891e-05 -5.487531961989589036e-05
1.869000000000000000e+03 2.932948350906372070e+00 -4.930280208587646484e+00 -3.920919075608253479e-02 -7.526174187660217285e-02 -3.434127941727638245e-02 -1.161109879612922668e-01
1.870000000000000000e+03 7.221800994873046875e+01 -2.137139892578125000e+01 1.490835420554503798e-04 -9.090381354326382279e-05 1.745391818985808641e-05 1.415054866811260581e-04
1.871000000000000000e+03 5.687985992431640625e+01 2.424161672592163086e+00 -1.408935904502868652e+00 7.994339615106582642e-02 -3.986977636814117432e-01 -4.086413085460662842e-01
1.872000000000000000e+03 1.725587272644042969e+01 5.832402706146240234e+00 9.714577754493802786e-05 4.319613071857020259e-05 4.210257247905246913e-05 6.539247988257557154e-05
1.873000000000000000e+03 4.469671249389648438e+01 -3.132142257690429688e+01 1.784527115523815155e-02 9.284130334854125977e-01 2.838774919509887695e-01 -4.154538512229919434e-01
1.874000000000000000e+03 2.598144149780273438e+01 -1.489741706848144531e+01 -3.238942325115203857e-01 6.463255267590284348e-03 -9.522929042577743530e-02 9.799536466598510742e-01
1.875000000000000000e+03 4.211344528198242188e+01 -2.121165275573730469e+01 1.993861347436904907e-01 1.435006260871887207e+00 4.903177320957183838e-01 -2.774492204189300537e-01
1.876000000000000000e+03 4.032248306274414062e+01 -2.106753158569335938e+01 2.627705037593841553e-01 2.087716579437255859e+00 7.051460742950439453e-01 -1.627645939588546753e-01
1.877000000000000000e+03 4.642927169799804688e+01 -3.173688697814941406e+01 2.949584461748600006e-02 7.102394700050354004e-01 2.219205945730209351e-01 -3.579532206058502197e-01
1.878000000000000000e+03 1.628619766235351562e+01 3.271535396575927734e+00 -9.805427907849662006e-06 7.610218017362058163e-05 1.988902477023657411e-05 4.610007817973382771e-05
1.879000000000000000e+03 1.567081165313720703e+01 6.558653354644775391e+00 5.574055467150174081e-05 3.614459637901745737e-05 2.756554567895364016e-05 5.687115481123328209e-05
1.880000000000000000e+03 6.892804718017578125e+01 -6.825005531311035156e+00 -3.601808100938796997e-02 -8.979315869510173798e-03 -1.349921897053718567e-02 2.963001141324639320e-03
1.881000000000000000e+03 7.704568481445312500e+01 -1.706363487243652344e+01 2.357756020501255989e-04 -9.025409235619008541e-05 4.365645509096793830e-05 -9.768728341441601515e-05
1.882000000000000000e+03 1.263914394378662109e+01 1.434126567840576172e+01 1.020155614241957664e-04 -4.709425775217823684e-05 1.647638964641373605e-05 3.978917084168642759e-05
1.883000000000000000e+03 1.455569171905517578e+01 8.977172851562500000e+00 8.910855831345543265e-05 4.138256917940452695e-05 3.914733679266646504e-05 3.998796819359995425e-05
1.884000000000000000e+03 4.366698455810546875e+01 4.373278141021728516e+00 1.837418675422668457e-01 5.506110787391662598e-01 2.203058749437332153e-01 1.251033782958984375e+00
1.885000000000000000e+03 4.467465209960937500e+01 2.933624982833862305e+00 -2.680571556091308594e+00 -1.383908271789550781e+00 -1.219344019889831543e+00 6.799641996622085571e-02
1.886000000000000000e+03 4.379210662841796875e+01 8.982960700988769531e+00 2.088520050048828125e+00 3.082415819168090820e+00 1.551280736923217773e+00 2.141218662261962891e+00
1.887000000000000000e+03 7.755050659179687500e+00 -1.423590087890625000e+01 3.347647786140441895e-01 6.364831924438476562e-01 2.913743853569030762e-01 1.187517493963241577e-01
1.888000000000000000e+03 6.344639301300048828e+00 -1.532974910736083984e+01 3.323753178119659424e-01 5.708259940147399902e-01 2.709603905677795410e-01 4.199144616723060608e-02
1.889000000000000000e+03 4.592719650268554688e+01 2.679831886291503906e+01 4.201269447803497314e-01 2.774112462997436523e+00 9.582718014717102051e-01 5.389192700386047363e-02
1.890000000000000000e+03 4.451424026489257812e+01 2.696545791625976562e+01 4.246375858783721924e-01 3.076750278472900391e+00 1.050416350364685059e+00 -7.926439493894577026e-02
1.891000000000000000e+03 5.658482742309570312e+01 4.022683143615722656e+00 -1.153777480125427246e+00 8.626585453748703003e-02 -3.202534914016723633e-01 -6.438350081443786621e-01
1.892000000000000000e+03 1.245994472503662109e+01 -3.922602081298828125e+01 5.701121874153614044e-03 -1.685554683208465576e-01 -4.885630682110786438e-02 5.311432853341102600e-02
1.893000000000000000e+03 1.458383369445800781e+01 -1.332479572296142578e+01 4.593146145343780518e-01 -2.678740397095680237e-02 1.297581642866134644e-01 2.737192213535308838e-01
1.894000000000000000e+03 6.570512294769287109e+00 -3.131788063049316406e+01 -3.385489583015441895e-01 -1.952277496457099915e-02 -1.074215248227119446e-01 1.094702035188674927e-01
1.895000000000000000e+03 5.579154968261718750e+00 -3.019877433776855469e+01 -3.841978907585144043e-01 1.274498701095581055e-01 -7.702440768480300903e-02 1.965238302946090698e-01
1.896000000000000000e+03 6.817247772216796875e+01 -2.337014436721801758e+00 -2.554282844066619873e-01 3.346287831664085388e-02 -6.658962368965148926e-02 -6.169105321168899536e-02
1.897000000000000000e+03 4.525376129150390625e+01 1.475166797637939453e+01 1.022682309150695801e+00 3.327817201614379883e+00 1.305149793624877930e+00 1.219845890998840332e+00
1.898000000000000000e+03 3.862517547607421875e+01 -2.239868354797363281e+01 5.040309429168701172e-01 2.755138397216796875e+00 9.777508378028869629e-01 -1.516291350126266479e-01
1.899000000000000000e+03 4.457686614990234375e+01 1.183263683319091797e+01 1.474412322044372559e+00 3.361299514770507812e+00 1.450713515281677246e+00 1.691652178764343262e+00
1.900000000000000000e+03 4.492187881469726562e+01 1.329424762725830078e+01 1.252383947372436523e+00 3.353083133697509766e+00 1.381640195846557617e+00 1.411407589912414551e+00
1.901000000000000000e+03 4.933770751953125000e+01 4.253598690032958984e+00 -1.951869726181030273e+00 -6.704321503639221191e-01 -7.866905927658081055e-01 -1.470150470733642578e+00
1.902000000000000000e+03 4.843539810180664062e+01 3.807903289794921875e+00 -2.087736606597900391e+00 -1.324823260307312012e+00 -1.023767948150634766e+00 -1.723344206809997559e+00
1.903000000000000000e+03 4.168790054321289062e+01 5.746545791625976562e+00 1.905819535255432129e+00 4.657428264617919922e+00 1.968974351882934570e+00 2.861824989318847656e+00
1.904000000000000000e+03 1.784078979492187500e+01 -3.779042434692382812e+01 -1.393198370933532715e-01 -1.324169635772705078e-01 -8.152104169130325317e-02 5.380270630121231079e-02
1.905000000000000000e+03 1.940584564208984375e+01 -3.616155624389648438e+01 -2.131596803665161133e-01 -8.548934757709503174e-02 -8.959470689296722412e-02 3.109260275959968567e-02
1.906000000000000000e+03 1.365474891662597656e+01 3.112601470947265625e+01 4.255002131685614586e-04 2.969743036373984069e-05 1.365592906950041652e-04 -1.426147646270692348e-04
1.907000000000000000e+03 3.965798187255859375e+01 1.951322078704833984e+00 -4.554381370544433594e-01 5.694314956665039062e+00 1.571663022041320801e+00 1.712448477745056152e+00
1.908000000000000000e+03 4.069100570678710938e+01 4.107311248779296875e+00 1.419833421707153320e+00 5.590923309326171875e+00 2.103227138519287109e+00 2.680529832839965820e+00
1.909000000000000000e+03 4.010045623779296875e+01 3.044896364212036133e+00 5.772019028663635254e-01 5.987938880920410156e+00 1.969542264938354492e+00 2.185342550277709961e+00
1.910000000000000000e+03 4.479518508911132812e+01 4.380887508392333984e+00 -6.857341527938842773e-02 -7.883867025375366211e-01 -2.570880353450775146e-01 2.646554112434387207e-01
1.911000000000000000e+03 4.361280822753906250e+01 6.768434524536132812e+00 2.044342994689941406e+00 2.196021795272827148e+00 1.272109389305114746e+00 1.922780036926269531e+00
1.912000000000000000e+03 3.913577270507812500e+01 2.147719264030456543e-02 -1.937488794326782227e+00 5.049756526947021484e+00 9.336802959442138672e-01 8.717584013938903809e-01
1.913000000000000000e+03 3.757128524780273438e+01 -1.570361405611038208e-01 -2.005260229110717773e+00 5.843227386474609375e+00 1.151390194892883301e+00 1.998403072357177734e+00
1.914000000000000000e+03 6.871629333496093750e+01 -3.851214599609375000e+01 9.517812170088291168e-03 -6.233229301869869232e-03 9.853747906163334846e-04 1.187737844884395599e-02
1.915000000000000000e+03 6.620375061035156250e+01 -3.393179702758789062e+01 -1.713059283792972565e-02 3.287566127255558968e-03 -4.152907524257898331e-03 1.255442667752504349e-02
1.916000000000000000e+03 4.243329620361328125e+01 3.284710645675659180e+00 -6.477059125900268555e-01 2.142985105514526367e+00 4.485837221145629883e-01 1.177520632743835449e+00
1.917000000000000000e+03 4.124810791015625000e+01 -2.205406570434570312e+01 3.473867177963256836e-01 1.634932994842529297e+00 5.946959257125854492e-01 -2.570526003837585449e-01
1.918000000000000000e+03 3.721107864379882812e+01 -3.022270584106445312e+01 -1.367068439722061157e-01 2.049599885940551758e+00 5.738679170608520508e-01 -1.493453681468963623e-01
1.919000000000000000e+03 3.805113220214843750e+01 -2.755429840087890625e+01 2.091923654079437256e-01 2.395995855331420898e+00 7.815564274787902832e-01 -3.186461329460144043e-01
1.920000000000000000e+03 6.858737182617187500e+01 -3.383558273315429688e+01 -1.010087411850690842e-02 2.462066709995269775e-03 -2.291642362251877785e-03 8.800332434475421906e-03
1.921000000000000000e+03 2.726334762573242188e+01 -4.140946388244628906e+00 -5.356072187423706055e-01 -1.190565586090087891e+00 -5.178518295288085938e-01 -2.047054767608642578e+00
1.922000000000000000e+03 2.771883201599121094e+01 -6.797593593597412109e+00 2.844103813171386719e+00 -1.143418431282043457e+00 5.102056264877319336e-01 -3.897223770618438721e-01
1.923000000000000000e+03 3.570597457885742188e+01 -3.288495254516601562e+01 -3.556732833385467529e-01 1.702672004699707031e+00 4.040996134281158447e-01 1.261107772588729858e-01
1.924000000000000000e+03 3.583319854736328125e+01 -3.188897514343261719e+01 -3.054009974002838135e-01 1.793660640716552734e+00 4.464778900146484375e-01 1.143948808312416077e-01
1.925000000000000000e+03 5.010692214965820312e+01 5.018794059753417969e+00 -1.265304207801818848e+00 -4.654459655284881592e-01 -5.192250609397888184e-01 -1.170525550842285156e+00
1.926000000000000000e+03 3.577118301391601562e+01 -2.945103073120117188e+01 -5.295963212847709656e-02 2.294964075088500977e+00 6.726013422012329102e-01 1.748457998037338257e-01
1.927000000000000000e+03 7.042552947998046875e+01 -3.078120803833007812e+01 -6.205875426530838013e-03 2.011375036090612411e-03 -1.258350093849003315e-03 1.209943788126111031e-03
1.928000000000000000e+03 7.077533721923828125e+01 -2.566763496398925781e+01 -9.610546112526208162e-05 -2.970786590594798326e-04 -1.179552346002310514e-04 -4.798781083081848919e-05
1.929000000000000000e+03 7.575505828857421875e+01 -2.528680610656738281e+01 -4.160852113272994757e-04 -2.537147083785384893e-04 -2.009399759117513895e-04 1.411500579706626013e-05
1.930000000000000000e+03 1.771454238891601562e+01 3.684331512451171875e+01 -1.398851745761930943e-03 -1.667468925006687641e-03 -9.198962361551821232e-04 -1.536702620796859264e-04
1.931000000000000000e+03 2.670352935791015625e+01 -3.706802368164062500e+01 -1.749761253595352173e-01 2.717029452323913574e-01 2.901804447174072266e-02 1.242968887090682983e-01
1.932000000000000000e+03 3.919488143920898438e+01 -2.066253471374511719e+01 3.212693333625793457e-01 2.452590227127075195e+00 8.321579098701477051e-01 -2.172612957656383514e-02
1.933000000000000000e+03 6.290453720092773438e+01 4.799849092960357666e-01 -7.608299851417541504e-01 1.089269220829010010e-01 -1.955709308385848999e-01 -2.342937737703323364e-01
1.934000000000000000e+03 1.257107925415039062e+01 2.761508941650390625e+01 4.239072150085121393e-04 1.429476833436638117e-04 1.700564753264188766e-04 1.401525423716520891e-05
1.935000000000000000e+03 5.210826873779296875e+00 2.520765113830566406e+01 2.473400090821087360e-04 3.191196447005495429e-05 8.377559424843639135e-05 -9.209041309077292681e-05
1.936000000000000000e+03 1.305146789550781250e+01 2.436644935607910156e+01 -3.511714457999914885e-04 -1.613561471458524466e-05 -1.101921225199475884e-04 6.342527922242879868e-05
1.937000000000000000e+03 1.162256622314453125e+01 2.315728759765625000e+01 -3.264378174208104610e-04 -3.066414865315891802e-05 -1.071305960067547858e-04 1.056449036695994437e-04
1.938000000000000000e+03 3.041412830352783203e+00 -2.419144821166992188e+01 3.835870325565338135e-02 2.263570576906204224e-01 7.941472530364990234e-02 5.654429793357849121e-01
1.939000000000000000e+03 4.332547760009765625e+01 3.558106613159179688e+01 -2.175953090190887451e-01 2.219882011413574219e+00 6.006860136985778809e-01 -7.821147143840789795e-02
1.940000000000000000e+03 4.665899658203125000e+01 3.137714767456054688e+01 2.242474853992462158e-01 2.291188716888427734e+00 7.546308636665344238e-01 1.873805671930313110e-01
1.941000000000000000e+03 5.294000148773193359e+00 -1.215146636962890625e+01 1.874885149300098419e-02 1.723360866308212280e-01 5.732547864317893982e-02 -1.887690722942352295e-01
1.942000000000000000e+03 6.230843544006347656e+00 -1.136790752410888672e+01 -1.070111058652400970e-02 2.626084387302398682e-01 7.557220011949539185e-02 -1.493124365806579590e-01
1.943000000000000000e+03 6.609458160400390625e+01 -3.714525985717773438e+01 3.616210538893938065e-03 -3.356268396601080894e-03 7.798259321134537458e-05 1.810021698474884033e-02
1.944000000000000000e+03 7.248073577880859375e+01 -3.522347640991210938e+01 -2.397892298176884651e-03 -9.591299458406865597e-04 -1.007106737233698368e-03 7.472653873264789581e-03
1.945000000000000000e+03 7.176132202148437500e+01 -2.899081420898437500e+01 -3.414446720853447914e-03 7.541248924098908901e-04 -7.980965892784297466e-04 6.946167559362947941e-04
1.946000000000000000e+03 1.164543342590332031e+01 -1.303526210784912109e+01 3.722352683544158936e-01 2.947306632995605469e-01 2.000897675752639771e-01 2.475690692663192749e-01
1.947000000000000000e+03 1.075421142578125000e+01 -1.260853481292724609e+01 2.880500555038452148e-01 3.685834109783172607e-01 1.969900429248809814e-01 2.427025586366653442e-01
1.948000000000000000e+03 6.531052398681640625e+01 -1.823805570602416992e+00 -4.524536132812500000e-01 7.915177196264266968e-02 -1.119905561208724976e-01 -5.910005420446395874e-02
1.949000000000000000e+03 6.673722839355468750e+01 -2.281600236892700195e+00 -3.348256349563598633e-01 7.012753188610076904e-02 -7.940942794084548950e-02 -4.738260433077812195e-02
1.950000000000000000e+03 7.181831359863281250e+01 -2.744258689880371094e+01 -1.813622773624956608e-03 -1.088984427042305470e-04 -5.767563707195222378e-04 -1.279293501283973455e-04
1.951000000000000000e+03 7.442031860351562500e+01 -2.780066680908203125e+01 -1.158500323072075844e-03 -2.649525122251361609e-04 -4.270358767826110125e-04 4.357399593573063612e-04
1.952000000000000000e+03 3.814336013793945312e+01 -1.690869522094726562e+01 -5.236914157867431641e-01 2.796370267868041992e+00 6.818036437034606934e-01 -5.509967803955078125e-01
1.953000000000000000e+03 3.445799636840820312e+01 -3.437816238403320312e+01 -3.831722438335418701e-01 1.413772821426391602e+00 3.091801702976226807e-01 2.097973227500915527e-01
1.954000000000000000e+03 6.964533996582031250e+01 -3.292506027221679688e+01 -8.510394953191280365e-03 2.352530835196375847e-03 -1.847359235398471355e-03 5.318663083016872406e-03
1.955000000000000000e+03 7.275823974609375000e+01 -3.375954055786132812e+01 -3.298825817182660103e-03 -6.261922535486519337e-04 -1.177505473606288433e-03 5.832603666931390762e-03
1.956000000000000000e+03 4.558980941772460938e+01 3.444781875610351562e+01 -1.203155368566513062e-01 2.224790334701538086e+00 6.313424706459045410e-01 1.077445447444915771e-01
1.957000000000000000e+03 4.014387130737304688e+01 -2.451236915588378906e+01 4.562712311744689941e-01 1.966088771820068359e+00 7.267079949378967285e-01 -3.968243598937988281e-01
1.958000000000000000e+03 8.643080711364746094e+00 -3.426876449584960938e+01 -1.613491624593734741e-01 -1.727235466241836548e-01 -1.002218127250671387e-01 9.641343355178833008e-02
1.959000000000000000e+03 5.604598999023437500e+00 -1.748093795776367188e+01 5.111703276634216309e-01 6.781066060066223145e-01 3.567830920219421387e-01 2.014829814434051514e-01
1.960000000000000000e+03 6.000217914581298828e+00 -1.643152046203613281e+01 4.174958169460296631e-01 6.740836501121520996e-01 3.274738192558288574e-01 1.604216694831848145e-01
1.961000000000000000e+03 3.548369216918945312e+01 -3.758537054061889648e+00 -2.542411088943481445e-01 4.656845569610595703e+00 1.320781350135803223e+00 4.702909946441650391e+00
1.962000000000000000e+03 3.570332717895507812e+01 -4.052003860473632812e+00 6.573222875595092773e-01 3.867389440536499023e+00 1.357413530349731445e+00 4.556752204895019531e+00
1.963000000000000000e+03 3.388582611083984375e+01 -9.561045646667480469e+00 6.612651348114013672e-01 6.053169250488281250e+00 2.014330387115478516e+00 -1.545847654342651367e+00
1.964000000000000000e+03 3.477708053588867188e+01 -4.238039016723632812e+00 7.270125746726989746e-01 6.389547348022460938e+00 2.134967803955078125e+00 5.448832988739013672e+00
1.965000000000000000e+03 3.740685272216796875e+01 -1.079158973693847656e+01 6.659250855445861816e-01 1.740414261817932129e+00 7.219017744064331055e-01 -1.751118183135986328e+00
1.966000000000000000e+03 9.702645301818847656e+00 -5.019811153411865234e+00 -1.305159926414489746e-01 8.379803597927093506e-02 -1.401538494974374771e-02 -4.986605793237686157e-02
1.967000000000000000e+03 1.043049335479736328e+01 -5.024664878845214844e+00 -1.292833089828491211e-01 7.661327719688415527e-02 -1.580101065337657928e-02 -3.482664749026298523e-02
1.968000000000000000e+03 3.415544509887695312e+01 -9.307823181152343750e+00 8.731427192687988281e-01 6.065696716308593750e+00 2.081651926040649414e+00 -1.944716095924377441e+00
1.969000000000000000e+03 1.622105789184570312e+01 5.464263439178466797e+00 -5.249792229733429849e-05 -4.768627331941388547e-05 -3.005525832122657448e-05 -5.496909943758510053e-05
1.970000000000000000e+03 3.101015663146972656e+01 -8.778227806091308594e+00 3.274280309677124023e+00 3.454108238220214844e+00 2.018516540527343750e+00 2.143597364425659180e+00
1.971000000000000000e+03 3.201112747192382812e+01 -9.878609657287597656e+00 1.327931284904479980e+00 4.798189640045166016e+00 1.837836265563964844e+00 1.126726269721984863e+00
1.972000000000000000e+03 1.507792758941650391e+01 3.396372556686401367e+00 -6.934225530130788684e-05 -5.079111724626272917e-05 -3.604001176427118480e-05 -1.241845166077837348e-05
1.973000000000000000e+03 9.770821571350097656e+00 3.963598251342773438e+00 6.178894545882940292e-05 5.911186599405482411e-05 3.627024125307798386e-05 -8.978995538200251758e-06
1.974000000000000000e+03 6.734160900115966797e+00 4.275315761566162109e+00 2.977766234835144132e-05 6.690040754619985819e-05 2.900342042266856879e-05 -2.670180720087955706e-06
1.975000000000000000e+03 5.450351715087890625e+00 5.689552783966064453e+00 1.118261661758879200e-05 -8.471710316371172667e-05 -2.206034696428105235e-05 1.480343053117394447e-05
1.976000000000000000e+03 1.520020294189453125e+01 5.001193523406982422e+00 7.326907507376745343e-06 5.459378735395148396e-05 1.857620918599423021e-05 3.371628190507180989e-05
1.977000000000000000e+03 1.327921485900878906e+01 4.268876552581787109e+00 4.140933015150949359e-06 6.101045983086805791e-06 3.072593699471326545e-06 -1.533048998680897057e-05
1.978000000000000000e+03 7.519427299499511719e+00 4.163104534149169922e+00 -3.629857383202761412e-05 -6.520322494907304645e-05 -3.045053927053231746e-05 2.837896033724973677e-07
1.979000000000000000e+03 8.534721374511718750e+00 4.821005344390869141e+00 -5.233628689893521369e-05 -6.589532858924940228e-05 -3.546948573784902692e-05 -9.354527719551697373e-06
1.980000000000000000e+03 7.780742645263671875e+00 4.898913860321044922e+00 4.173512570559978485e-05 7.074788300087675452e-05 3.374490188434720039e-05 -6.659384155227598967e-08
1.981000000000000000e+03 3.707546997070312500e+01 -9.400485038757324219e+00 1.329849004745483398e+00 1.273695111274719238e+00 7.810631990432739258e-01 -1.673161864280700684e+00
1.982000000000000000e+03 7.214181518554687500e+01 -2.018244552612304688e+01 1.043602969730272889e-04 -1.918049820233136415e-04 -2.623340697027742863e-05 1.209339734487002715e-05
1.983000000000000000e+03 7.455643463134765625e+01 -1.818083000183105469e+01 1.904743112390860915e-04 2.302257489645853639e-04 1.262100267922505736e-04 -5.171095472178421915e-05
1.984000000000000000e+03 2.596731758117675781e+01 -1.368806934356689453e+01 3.206987082958221436e-01 -9.555745124816894531e-02 6.754237413406372070e-02 1.074777007102966309e+00
1.985000000000000000e+03 1.284191322326660156e+01 4.977252960205078125e+00 -9.947034413926303387e-06 1.411885295965475962e-05 1.251545313607493881e-06 2.432517612760420889e-05
1.986000000000000000e+03 1.337635993957519531e+01 -5.404267311096191406e+00 -8.319856226444244385e-02 1.186666265130043030e-02 -2.139957062900066376e-02 1.159363891929388046e-02
1.987000000000000000e+03 1.114781951904296875e+01 -5.085907459259033203e+00 -1.220779046416282654e-01 6.731089204549789429e-02 -1.643010415136814117e-02 -1.617380231618881226e-02
1.988000000000000000e+03 1.187290668487548828e+01 -5.185231685638427734e+00 -1.133051961660385132e-01 5.231869220733642578e-02 -1.829595118761062622e-02 -6.699955090880393982e-03
1.989000000000000000e+03 8.065340042114257812e+00 -4.346964836120605469e+00 -1.353721618652343750e-01 5.958145111799240112e-02 -2.273721434175968170e-02 -8.633133023977279663e-02
1.990000000000000000e+03 7.077363967895507812e+00 -7.346381187438964844e+00 -9.035427123308181763e-02 1.230321973562240601e-01 9.803378023207187653e-03 -1.314256638288497925e-01
1.991000000000000000e+03 3.058106422424316406e+01 -5.597784519195556641e+00 4.699909210205078125e+00 6.677565574645996094e-01 1.610299706459045410e+00 -6.374590992927551270e-01
1.992000000000000000e+03 7.255627441406250000e+01 -9.403421401977539062e+00 -1.565418933751061559e-04 -1.384565513581037521e-02 -4.200659226626157761e-03 5.768587579950690269e-04
1.993000000000000000e+03 3.089880371093750000e+01 -4.473022460937500000e+00 2.294233322143554688e+00 1.017352700233459473e+00 9.934757947921752930e-01 -1.774946212768554688e+00
1.994000000000000000e+03 3.171233367919921875e+01 -4.209556579589843750e+00 8.824307322502136230e-01 3.062409162521362305e+00 1.183451890945434570e+00 -9.530315399169921875e-01
1.995000000000000000e+03 1.124851417541503906e+01 3.823681592941284180e+00 3.287607978563755751e-05 9.040682198246940970e-05 3.698487125802785158e-05 -2.725205013121012598e-05
1.996000000000000000e+03 7.181734466552734375e+01 -7.620782852172851562e+00 -2.277529239654541016e-02 -1.973692886531352997e-02 -1.275366637855768204e-02 -1.653025625273585320e-03
1.997000000000000000e+03 1.140637302398681641e+01 4.477201938629150391e+00 -5.446732393465936184e-05 -8.676078141434118152e-05 -4.236842869431711733e-05 7.389289385173469782e-05
1.998000000000000000e+03 1.657302665710449219e+01 -5.700883388519287109e+00 1.135156024247407913e-02 -1.293537616729736328e-01 -3.540066257119178772e-02 -1.862845942378044128e-02
1.999000000000000000e+03 2.073034095764160156e+01 -5.636018276214599609e+00 1.294186711311340332e-01 -3.506168425083160400e-01 -6.635944545269012451e-02 -2.852366268634796143e-01
2.000000000000000000e+03 1.261471557617187500e+01 -5.299952983856201172e+00 -9.955193847417831421e-02 3.434817120432853699e-02 -1.956113055348396301e-02 8.181882090866565704e-03
2.001000000000000000e+03 7.211470794677734375e+01 -8.528241157531738281e+00 -7.166182156652212143e-03 -1.875073090195655823e-02 -7.775073871016502380e-03 -1.848645042628049850e-03
2.002000000000000000e+03 7.276818084716796875e+01 -8.667105674743652344e+00 -5.081801675260066986e-03 -1.189638860523700714e-02 -5.093457177281379700e-03 4.418874159455299377e-03
2.003000000000000000e+03 7.024735260009765625e+01 -8.975813865661621094e+00 -9.240632061846554279e-04 -1.024738047271966934e-02 -3.351433202624320984e-03 -3.506471635773777962e-03
2.004000000000000000e+03 7.512266540527343750e+01 -9.217637062072753906e+00 -2.670799614861607552e-03 -4.545538220554590225e-03 -2.164901467040181160e-03 7.967822253704071045e-03
2.005000000000000000e+03 7.652222442626953125e+01 -7.275614261627197266e+00 -7.468841969966888428e-03 -1.739471568726003170e-03 -2.762494143098592758e-03 7.505194284021854401e-03
2.006000000000000000e+03 5.760764122009277344e+00 -5.476954936981201172e+00 -9.125578403472900391e-02 3.140236437320709229e-02 -1.795602776110172272e-02 -1.445782929658889771e-01
2.007000000000000000e+03 6.597220420837402344e+00 -5.325277328491210938e+00 -1.061689853668212891e-01 5.865471437573432922e-02 -1.425428222864866257e-02 -1.250426769256591797e-01
2.008000000000000000e+03 6.732598781585693359e+00 -6.122432708740234375e+00 -1.005567535758018494e-01 7.842414081096649170e-02 -6.639783736318349838e-03 -1.335861980915069580e-01
2.009000000000000000e+03 7.143016052246093750e+01 -8.310637474060058594e+00 -9.722816757857799530e-03 -1.321690436452627182e-02 -6.881916429847478867e-03 4.394073912408202887e-04
2.010000000000000000e+03 1.575028896331787109e+01 -5.632170200347900391e+00 -1.906776614487171173e-02 -8.994747698307037354e-02 -3.270457312464714050e-02 5.257593002170324326e-03
2.011000000000000000e+03 8.202943801879882812e+00 -5.150445461273193359e+00 -1.238166242837905884e-01 8.226265013217926025e-02 -1.246619317680597305e-02 -8.813773095607757568e-02
2.012000000000000000e+03 4.023366546630859375e+01 -2.014814615249633789e+00 -2.043899297714233398e+00 2.031319856643676758e+00 -3.773802425712347031e-03 -4.825654625892639160e-01
2.013000000000000000e+03 1.897543144226074219e+01 -4.960972309112548828e+00 -2.990070171654224396e-02 -2.017704099416732788e-01 -6.950133293867111206e-02 -1.488828510046005249e-01
2.014000000000000000e+03 1.415398406982421875e+01 -5.489241600036621094e+00 -6.609181314706802368e-02 -1.617681235074996948e-02 -2.468058839440345764e-02 1.877370849251747131e-02
2.015000000000000000e+03 1.494311809539794922e+01 -5.562297821044921875e+00 -4.202366620302200317e-02 -4.727261886000633240e-02 -2.678888477385044098e-02 1.289998367428779602e-02
2.016000000000000000e+03 1.075037002563476562e+01 4.599912643432617188e+00 8.319106564158573747e-05 5.636041532852686942e-05 4.186544538242742419e-05 -4.246062235324643552e-05
2.017000000000000000e+03 3.783085632324218750e+01 -1.107804679870605469e+01 5.388243794441223145e-01 1.645187377929687500e+00 6.552035212516784668e-01 -1.616329431533813477e+00
2.018000000000000000e+03 1.907343482971191406e+01 -5.731270790100097656e+00 8.561816811561584473e-02 -2.642964422702789307e-01 -5.360348522663116455e-02 -1.362509578466415405e-01
2.019000000000000000e+03 3.939494323730468750e+01 -1.250825524330139160e+00 -2.556428909301757812e+00 3.819458007812500000e+00 3.789087533950805664e-01 3.669438064098358154e-01
2.020000000000000000e+03 2.235150527954101562e+01 -5.534990310668945312e+00 1.804475039243698120e-01 -4.537137150764465332e-01 -8.197986334562301636e-02 -5.155317187309265137e-01
2.021000000000000000e+03 2.230499839782714844e+01 -4.765963077545166016e+00 -7.318340241909027100e-02 -2.971905469894409180e-01 -1.111121848225593567e-01 -5.117729306221008301e-01
2.022000000000000000e+03 9.547661781311035156e+00 5.536339282989501953e+00 -8.558562694815918803e-05 -4.980253652320243418e-05 -4.061644722241908312e-05 -2.052931085927411914e-05
2.023000000000000000e+03 3.806165313720703125e+01 -2.598075866699218750e+00 -1.672718763351440430e+00 3.390343427658081055e+00 5.152873992919921875e-01 1.574069261550903320e+00
2.024000000000000000e+03 2.891131591796875000e+01 -9.993961334228515625e+00 2.350185155868530273e+00 7.945981621742248535e-01 9.434350132942199707e-01 1.512320518493652344e+00
2.025000000000000000e+03 7.073504638671875000e+01 -7.935820579528808594e+00 -1.930007524788379669e-02 -1.832119747996330261e-02 -1.128638163208961487e-02 -3.138282103464007378e-03
2.026000000000000000e+03 1.740031242370605469e+01 -5.749781131744384766e+00 3.497741371393203735e-02 -1.775135695934295654e-01 -4.276084527373313904e-02 -4.623437672853469849e-02
2.027000000000000000e+03 3.404347991943359375e+01 -3.368136405944824219e+00 -2.140535116195678711e+00 6.478725910186767578e+00 1.301457166671752930e+00 3.475299596786499023e+00
2.028000000000000000e+03 3.377774047851562500e+01 -2.982457399368286133e+00 -2.847943782806396484e+00 5.805442810058593750e+00 8.872496485710144043e-01 3.265293359756469727e+00
2.029000000000000000e+03 3.271368026733398438e+01 -1.525874996185302734e+01 -1.216787815093994141e+00 1.783927321434020996e+00 1.701418757438659668e-01 -8.926197290420532227e-01
2.030000000000000000e+03 3.409584426879882812e+01 -1.578758144378662109e+01 -1.494574189186096191e+00 2.582204580307006836e+00 3.262891471385955811e-01 -1.260770678520202637e+00
2.031000000000000000e+03 3.247486495971679688e+01 -1.443039894104003906e+01 -9.083197712898254395e-01 2.127179384231567383e+00 3.656578660011291504e-01 -7.427080869674682617e-01
2.032000000000000000e+03 2.401139831542968750e+01 -5.513979434967041016e+00 3.332912027835845947e-01 -6.680194139480590820e-01 -1.004184558987617493e-01 -8.718500137329101562e-01
2.033000000000000000e+03 2.092426681518554688e+01 -7.168431282043457031e+00 4.594495594501495361e-01 -5.081084966659545898e-01 -1.459768041968345642e-02 -1.872896552085876465e-01
2.034000000000000000e+03 4.352609252929687500e+01 3.074167013168334961e+00 -1.865144014358520508e+00 -1.450210809707641602e-01 -6.030495166778564453e-01 4.431606829166412354e-01
2.035000000000000000e+03 2.154039192199707031e+01 -5.582686424255371094e+00 1.611547023057937622e-01 -3.795933425426483154e-01 -6.553158909082412720e-02 -3.759626150131225586e-01
2.036000000000000000e+03 2.081287384033203125e+01 -6.398374557495117188e+00 3.093371093273162842e-01 -4.224144220352172852e-01 -3.392318636178970337e-02 -2.403615415096282959e-01
2.037000000000000000e+03 7.085890197753906250e+01 -3.167065382003784180e+00 -1.421330869197845459e-01 -2.741972217336297035e-03 -4.346251860260963440e-02 -5.735571309924125671e-02
2.038000000000000000e+03 6.857654571533203125e+01 -3.880120515823364258e+00 -1.697296947240829468e-01 1.622304134070873260e-02 -4.605199769139289856e-02 -2.128624357283115387e-02
2.039000000000000000e+03 1.937939262390136719e+01 -1.342192935943603516e+01 4.054615795612335205e-01 -3.027812838554382324e-01 3.080408461391925812e-02 3.879068791866302490e-01
2.040000000000000000e+03 1.706228637695312500e+01 -1.365178394317626953e+01 4.058896899223327637e-01 -1.971046328544616699e-01 6.263551861047744751e-02 2.934342622756958008e-01
2.041000000000000000e+03 3.338833236694335938e+01 -2.566597938537597656e+00 -3.921640634536743164e+00 4.691901683807373047e+00 2.310782670974731445e-01 2.146156549453735352e+00
2.042000000000000000e+03 3.495583724975585938e+01 -3.865000963211059570e+00 -4.791317880153656006e-01 6.013908386230468750e+00 1.660432934761047363e+00 5.046089649200439453e+00
2.043000000000000000e+03 3.649068832397460938e+01 -3.355579376220703125e+00 -7.612343430519104004e-01 3.663279771804809570e+00 8.706135749816894531e-01 3.456110715866088867e+00
2.044000000000000000e+03 2.451970291137695312e+01 -1.279704761505126953e+01 6.512813568115234375e-01 -3.732769489288330078e-01 8.340132981538772583e-02 8.984338045120239258e-01
2.045000000000000000e+03 6.940780639648437500e+01 -7.738485813140869141e+00 -1.920657418668270111e-02 -1.466488838195800781e-02 -1.016143895685672760e-02 -2.757594222202897072e-03
2.046000000000000000e+03 6.819142913818359375e+01 -7.540176868438720703e+00 -1.638953574001789093e-02 -1.083835400640964508e-02 -8.168366737663745880e-03 -5.141444969922304153e-03
2.047000000000000000e+03 2.241643524169921875e+01 -1.394093322753906250e+01 2.810527980327606201e-01 -3.044540286064147949e-01 -7.020375225692987442e-03 6.545693278312683105e-01
2.048000000000000000e+03 3.810466003417968750e+01 -1.933272361755371094e+01 -4.262412339448928833e-02 2.894840717315673828e+00 8.556649684906005859e-01 1.081323064863681793e-02
2.049000000000000000e+03 3.584851455688476562e+01 -1.562734889984130859e+01 -1.172084927558898926e+00 2.978540420532226562e+00 5.419366359710693359e-01 -1.279391407966613770e+00
2.050000000000000000e+03 3.590614318847656250e+01 -1.853792381286621094e+01 -8.214798569679260254e-01 3.405998229980468750e+00 7.753555178642272949e-01 -2.738790512084960938e-01
2.051000000000000000e+03 3.714936447143554688e+01 -1.671482658386230469e+01 -8.677154183387756348e-01 3.044352293014526367e+00 6.529910564422607422e-01 -6.968528628349304199e-01
2.052000000000000000e+03 3.825611495971679688e+01 -1.419672107696533203e+01 -2.538993358612060547e-01 2.353815793991088867e+00 6.299749016761779785e-01 -1.277052521705627441e+00
2.053000000000000000e+03 5.907597351074218750e+01 1.552219510078430176e+00 -1.172552704811096191e+00 4.946710541844367981e-02 -3.369256854057312012e-01 -3.320490121841430664e-01
2.054000000000000000e+03 5.581186294555664062e+01 2.936596870422363281e+00 -1.494551181793212891e+00 1.332666128873825073e-01 -4.083853662014007568e-01 -4.820757210254669189e-01
2.055000000000000000e+03 3.176932334899902344e+01 -1.447577381134033203e+01 -8.271526694297790527e-01 1.575616121292114258e+00 2.245390415191650391e-01 -3.959880471229553223e-01
2.056000000000000000e+03 3.805519485473632812e+01 -1.066672921180725098e+00 -2.340967416763305664e+00 4.920592784881591797e+00 7.738876342773437500e-01 1.605319857597351074e+00
2.057000000000000000e+03 2.606062507629394531e+01 -4.438618183135986328e+00 -2.387047708034515381e-01 -8.021810650825500488e-01 -3.122657537460327148e-01 -1.525258541107177734e+00
2.058000000000000000e+03 2.855019760131835938e+01 -5.917916774749755859e+00 2.999016523361206055e+00 -1.050923824310302734e+00 5.844277739524841309e-01 -8.637459278106689453e-01
2.059000000000000000e+03 1.303012084960937500e+01 -1.316315650939941406e+01 4.629130363464355469e-01 1.337539255619049072e-01 1.790000796318054199e-01 2.822835147380828857e-01
2.060000000000000000e+03 4.034187698364257812e+01 4.860189855098724365e-01 -2.193464517593383789e+00 3.839793443679809570e+00 4.938986897468566895e-01 3.042062222957611084e-01
2.061000000000000000e+03 1.362239074707031250e+01 1.161755275726318359e+01 1.037561887642368674e-04 1.568180232425220311e-05 3.583139550755731761e-05 4.910987263428978622e-05
2.062000000000000000e+03 1.313813400268554688e+01 1.296691131591796875e+01 -1.069373902282677591e-04 1.331320800090907142e-05 -2.808725366776343435e-05 -4.944480679114349186e-05
2.063000000000000000e+03 1.749293708801269531e+01 -1.269931602478027344e+01 4.358822703361511230e-01 -2.430555373430252075e-01 5.784802511334419250e-02 3.061141967773437500e-01
2.064000000000000000e+03 7.447537231445312500e+01 -3.043694496154785156e+01 -1.981370616704225540e-03 -4.864200600422918797e-04 -7.403371855616569519e-04 1.959528075531125069e-03
2.065000000000000000e+03 7.341722869873046875e+01 -2.481958198547363281e+01 -4.068286507390439510e-04 -5.168099305592477322e-04 -2.770915743894875050e-04 9.054236579686403275e-05
2.066000000000000000e+03 7.384705352783203125e+01 2.893960952758789062e+01 6.291994452476501465e-02 -8.811444640159606934e-01 -2.454673647880554199e-01 -9.372616559267044067e-02
2.067000000000000000e+03 7.488560485839843750e+01 -1.731563806533813477e+00 -6.064571440219879150e-02 -4.463419690728187561e-02 -3.158397227525711060e-02 -6.858742982149124146e-02
2.068000000000000000e+03 7.495072937011718750e+01 -3.095527172088623047e+00 -5.011639744043350220e-02 -2.865676581859588623e-02 -2.363194897770881653e-02 -4.223087057471275330e-02
2.069000000000000000e+03 7.573181152343750000e+01 -2.670121574401855469e+01 -4.325317277107387781e-04 -2.282394561916589737e-04 -1.982313551707193255e-04 1.356969878543168306e-04
2.070000000000000000e+03 7.418263244628906250e+01 -3.348152542114257812e+01 -2.096823416650295258e-03 -1.019171206280589104e-03 -9.347983868792653084e-04 4.162831231951713562e-03
2.071000000000000000e+03 7.562129974365234375e+01 -3.180991172790527344e+01 -1.075600157491862774e-03 -1.267001032829284668e-03 -7.027803221717476845e-04 2.321957610547542572e-03
2.072000000000000000e+03 7.504728698730468750e+01 2.584647560119628906e+01 4.621685668826103210e-02 -9.833588004112243652e-01 -2.811425924301147461e-01 -1.215899661183357239e-01
2.073000000000000000e+03 7.393992614746093750e+01 2.278951072692871094e+01 7.082969695329666138e-02 -8.230258822441101074e-01 -2.256588637828826904e-01 -1.973128616809844971e-01
2.074000000000000000e+03 7.403511047363281250e+01 1.602174949645996094e+01 4.666738584637641907e-02 -6.369118094444274902e-01 -1.770733296871185303e-01 -3.159658014774322510e-01
2.075000000000000000e+03 7.402556610107421875e+01 1.875039863586425781e+01 6.115553155541419983e-02 -7.300692796707153320e-01 -2.006741315126419067e-01 -2.704412043094635010e-01
2.076000000000000000e+03 7.421769714355468750e+01 5.131062030792236328e+00 -7.958959043025970459e-02 -1.997025758028030396e-01 -8.378764986991882324e-02 -2.628614604473114014e-01
2.077000000000000000e+03 7.426060485839843750e+01 3.703612327575683594e+00 -8.521990478038787842e-02 -1.567026972770690918e-01 -7.257677614688873291e-02 -2.244174331426620483e-01
2.078000000000000000e+03 7.438402557373046875e+01 2.300992965698242188e+00 -8.792842179536819458e-02 -1.172240674495697021e-01 -6.154574826359748840e-02 -1.852542906999588013e-01
2.079000000000000000e+03 7.412425994873046875e+01 9.287946701049804688e+00 -3.093398734927177429e-02 -3.666628301143646240e-01 -1.192790418863296509e-01 -3.386015295982360840e-01
2.080000000000000000e+03 7.402617645263671875e+01 1.200861549377441406e+01 3.624296048656105995e-03 -4.805670678615570068e-01 -1.430828273296356201e-01 -3.503256142139434814e-01
2.081000000000000000e+03 7.534873199462890625e+01 2.024251937866210938e+01 4.060177505016326904e-02 -8.750593066215515137e-01 -2.503372728824615479e-01 -2.042156457901000977e-01
2.082000000000000000e+03 7.548729705810546875e+01 6.602454662322998047e+00 -4.235547035932540894e-02 -2.806304991245269775e-01 -9.689579159021377563e-02 -2.422973364591598511e-01
2.083000000000000000e+03 7.541468048095703125e+01 1.343927097320556641e+01 1.248931046575307846e-02 -6.038574576377868652e-01 -1.774104535579681396e-01 -2.832272648811340332e-01
2.084000000000000000e+03 7.364147949218750000e+01 2.569626426696777344e+01 6.866288930177688599e-02 -8.369060754776000977e-01 -2.304729521274566650e-01 -1.429663449525833130e-01
2.085000000000000000e+03 7.382630920410156250e+01 2.419059562683105469e+01 7.086024433374404907e-02 -8.362597823143005371e-01 -2.296198606491088867e-01 -1.686147898435592651e-01
2.086000000000000000e+03 7.441609191894531250e+01 -2.912351989746093750e+01 -1.899881870485842228e-03 -7.315894617931917310e-05 -5.919122486375272274e-04 1.210656482726335526e-03
2.087000000000000000e+03 7.588822937011718750e+01 -3.050898313522338867e-01 -4.789035767316818237e-02 -6.503637135028839111e-02 -3.387801721692085266e-02 -8.460329473018646240e-02
2.088000000000000000e+03 7.476637268066406250e+01 -3.865004777908325195e-01 -7.398103177547454834e-02 -6.036629900336265564e-02 -4.030419886112213135e-02 -1.015732511878013611e-01
2.089000000000000000e+03 6.946828460693359375e+01 3.308158874511718750e+01 8.312166482210159302e-02 -4.227109551429748535e-01 -1.018767952919006348e-01 -3.692499920725822449e-02
2.090000000000000000e+03 7.401079559326171875e+01 1.468601512908935547e+01 3.351560235023498535e-02 -5.885353684425354004e-01 -1.665059328079223633e-01 -3.349141776561737061e-01
2.091000000000000000e+03 7.416086578369140625e+01 7.922966003417968750e+00 -4.940960183739662170e-02 -3.074882924556732178e-01 -1.070693656802177429e-01 -3.181039392948150635e-01
2.092000000000000000e+03 7.398386383056640625e+01 2.144690513610839844e+01 6.553104519844055176e-02 -7.974230051040649414e-01 -2.195675820112228394e-01 -2.217999845743179321e-01
2.093000000000000000e+03 7.400513458251953125e+01 2.011236953735351562e+01 6.329084187746047974e-02 -7.664629817008972168e-01 -2.109516412019729614e-01 -2.464346736669540405e-01
2.094000000000000000e+03 7.458420562744140625e+01 9.485995173454284668e-01 -8.426951617002487183e-02 -8.607719838619232178e-02 -5.110401287674903870e-02 -1.422733068466186523e-01
2.095000000000000000e+03 7.639047241210937500e+01 -2.014791107177734375e+01 -1.011517306324094534e-04 -6.945094355614855886e-05 -5.118080298416316509e-05 2.018720806518103927e-05
2.096000000000000000e+03 4.749033737182617188e+01 2.214696884155273438e+01 5.028091073036193848e-01 2.579682111740112305e+00 9.247474074363708496e-01 3.754235506057739258e-01
2.097000000000000000e+03 4.692709732055664062e+01 2.505763435363769531e+01 4.317277371883392334e-01 2.635328292846679688e+00 9.201168417930603027e-01 1.593807041645050049e-01
2.098000000000000000e+03 4.348667621612548828e+00 2.695011520385742188e+01 2.538178232498466969e-04 -8.623804205853957683e-06 7.355819980148226023e-05 -3.981258851126767695e-05
2.099000000000000000e+03 5.248409271240234375e+00 2.883439064025878906e+01 -1.111527963075786829e-04 -1.258342381333932281e-04 -7.109611033229157329e-05 1.389003045915160328e-05
2.100000000000000000e+03 1.841695976257324219e+01 -1.309959793090820312e+01 4.147632718086242676e-01 -2.837758064270019531e-01 3.929623961448669434e-02 3.421679437160491943e-01
2.101000000000000000e+03 1.871114540100097656e+01 -1.216048717498779297e+01 4.797074496746063232e-01 -3.331303596496582031e-01 4.397312551736831665e-02 3.333192467689514160e-01
2.102000000000000000e+03 4.857449340820312500e+01 1.880707168579101562e+01 8.127976059913635254e-01 2.157059431076049805e+00 8.909570574760437012e-01 6.046248078346252441e-01
2.103000000000000000e+03 5.532954692840576172e+00 -1.050601196289062500e+01 -3.314482793211936951e-02 1.253834962844848633e-01 2.767160348594188690e-02 -1.947634816169738770e-01
2.104000000000000000e+03 7.495567321777343750e+01 -4.541603088378906250e+00 -3.670361265540122986e-02 -2.115654014050960541e-02 -1.735804602503776550e-02 -1.886687055230140686e-02
2.105000000000000000e+03 7.438169097900390625e+01 -2.235006713867187500e+01 1.739866856951266527e-04 -1.079056455637328327e-04 1.982431422220543027e-05 3.007243503816425800e-05
2.106000000000000000e+03 7.552412414550781250e+01 -8.548938751220703125e+00 -2.083061728626489639e-03 -3.819992998614907265e-03 -1.770916394889354706e-03 1.028026267886161804e-02
2.107000000000000000e+03 4.213618087768554688e+01 -2.310582923889160156e+01 3.515234589576721191e-01 1.345996975898742676e+00 5.092561244964599609e-01 -3.726153969764709473e-01
2.108000000000000000e+03 4.193396377563476562e+01 -2.494434356689453125e+01 3.676293492317199707e-01 1.368945360183715820e+00 5.209724307060241699e-01 -4.611572027206420898e-01
2.109000000000000000e+03 9.288228034973144531e+00 2.390407752990722656e+01 -2.099306875606998801e-04 -5.505588342202827334e-05 -7.949597056722268462e-05 8.614602120360359550e-05
2.110000000000000000e+03 1.217044544219970703e+01 2.619451904296875000e+01 -2.193193504353985190e-04 -1.321280142292380333e-04 -1.054342064890079200e-04 1.145283313235267997e-04
2.111000000000000000e+03 7.626987457275390625e+01 -5.877500534057617188e+00 -1.422317232936620712e-02 -7.803271990269422531e-03 -6.607932969927787781e-03 -5.410650046542286873e-04
2.112000000000000000e+03 7.548668670654296875e+01 -7.432741165161132812e+00 -8.799877017736434937e-03 -8.102457039058208466e-03 -5.070700310170650482e-03 6.317900959402322769e-03
2.113000000000000000e+03 4.733240509033203125e+01 2.053936958312988281e+01 5.775303840637207031e-01 2.633973121643066406e+00 9.634510278701782227e-01 5.257990360260009766e-01
2.114000000000000000e+03 7.415985870361328125e+01 -1.988362503051757812e+01 1.629710895940661430e-04 -1.203073261422105134e-04 1.279912703466834500e-05 -3.586288130463799462e-06
2.115000000000000000e+03 7.525677490234375000e+01 -2.119245338439941406e+01 -7.867130625527352095e-05 -1.038457776303403080e-04 -5.475512443808838725e-05 1.881035132100805640e-05
2.116000000000000000e+03 1.211837768554687500e+01 1.575720214843750000e+01 -7.706048927502706647e-05 8.189287473214790225e-05 1.449714773116284050e-06 -3.206673500244505703e-05
2.117000000000000000e+03 7.261206626892089844e+00 1.628849220275878906e+01 -9.963158663595095277e-05 1.100188528653234243e-04 3.116179868811741471e-06 -1.023439181153662503e-04
2.118000000000000000e+03 4.131934642791748047e+00 -1.272555446624755859e+01 3.433919325470924377e-02 -3.122335532680153847e-03 9.365056641399860382e-03 -2.118511497974395752e-01
2.119000000000000000e+03 6.525846004486083984e+00 -1.412136554718017578e+01 2.018831074237823486e-01 5.046811699867248535e-01 2.119692713022232056e-01 -3.324869647622108459e-02
2.120000000000000000e+03 4.562009334564208984e+00 3.074918937683105469e+01 -1.297592389164492488e-04 3.083225237787701190e-05 -2.967809450638014823e-05 -1.036645189742557704e-04
2.121000000000000000e+03 5.895944595336914062e+00 2.179233551025390625e+01 2.574658137746155262e-04 8.495180372847244143e-05 1.027252874337136745e-04 -2.494224099791608751e-05
2.122000000000000000e+03 5.973076820373535156e+00 1.840044403076171875e+01 -6.277883949223905802e-05 1.603922282811254263e-04 2.928401954704895616e-05 -1.371725375065580010e-04
2.123000000000000000e+03 5.390017509460449219e+00 2.083188629150390625e+01 -2.548368938732892275e-04 -3.277315408922731876e-05 -8.628301293356344104e-05 -3.692526661325246096e-05
2.124000000000000000e+03 5.143094539642333984e+00 1.401810741424560547e+01 1.570872846059501171e-04 2.610366937005892396e-05 5.495728692039847374e-05 -7.311910303542390466e-05
2.125000000000000000e+03 7.036368846893310547e+00 3.482052612304687500e+01 2.324559754924848676e-04 -1.209007605211809278e-04 3.346656376379542053e-05 -2.614454424474388361e-04
2.126000000000000000e+03 4.222453308105468750e+01 -2.776381111145019531e+01 2.162792682647705078e-01 1.272430777549743652e+00 4.466130137443542480e-01 -5.060055255889892578e-01
2.127000000000000000e+03 3.526295661926269531e+00 1.012241172790527344e+01 1.350801467197015882e-04 1.153860557678854093e-05 4.398562668939121068e-05 -6.174512964207679033e-05
2.128000000000000000e+03 5.205730915069580078e+00 1.171296501159667969e+01 5.623433025903068483e-05 -8.680710016051307321e-05 -9.171832061838358641e-06 6.557874439749866724e-05
2.129000000000000000e+03 3.982983350753784180e+00 8.414446830749511719e+00 -5.221591709414497018e-05 7.317224662983790040e-05 6.286899861152051017e-06 3.241644890294992365e-07
2.130000000000000000e+03 4.427909374237060547e+00 1.002349567413330078e+01 -1.097535423468798399e-04 7.147963060560869053e-06 -3.078167355852201581e-05 5.423486436484381557e-05
2.131000000000000000e+03 5.428491115570068359e+00 -1.404218769073486328e+01 1.335764080286026001e-01 3.036833703517913818e-01 1.311779320240020752e-01 -1.195482313632965088e-01
2.132000000000000000e+03 3.245303392410278320e+00 8.021935462951660156e+00 1.313371176365762949e-04 -4.529578654910437763e-05 2.581239641585852951e-05 -4.196766167297028005e-05
2.133000000000000000e+03 4.200903892517089844e+00 -7.172244548797607422e+00 -5.643466487526893616e-02 -3.815497085452079773e-02 -2.837689034640789032e-02 -1.781365573406219482e-01
2.134000000000000000e+03 6.073161602020263672e+00 8.691654205322265625e+00 5.916683949180878699e-05 -8.616872946731746197e-05 -8.100567356450483203e-06 -4.289134722057497129e-06
2.135000000000000000e+03 5.192658901214599609e+00 -6.632961273193359375e+00 -7.410793751478195190e-02 1.940182782709598541e-02 -1.641183346509933472e-02 -1.679634451866149902e-01
2.136000000000000000e+03 3.902716445922851562e+01 -2.493616867065429688e+01 5.728260278701782227e-01 2.211871147155761719e+00 8.354091644287109375e-01 -2.978606224060058594e-01
2.137000000000000000e+03 5.734521865844726562e+00 -7.375547409057617188e+00 -8.002744615077972412e-02 6.106527149677276611e-02 -5.688653327524662018e-03 -1.681261509656906128e-01
2.138000000000000000e+03 5.474386215209960938e+01 3.466604948043823242e+00 -1.574814915657043457e+00 1.241059005260467529e-01 -4.352127015590667725e-01 -6.260519623756408691e-01
2.139000000000000000e+03 5.355253219604492188e+01 5.826734066009521484e+00 -8.324818611145019531e-01 -4.307657480239868164e-02 -2.626675367355346680e-01 -9.297828078269958496e-01
2.140000000000000000e+03 5.454635238647460938e+01 5.174570560455322266e+00 -1.035990238189697266e+00 2.720881812274456024e-02 -3.026344180107116699e-01 -8.567554354667663574e-01
2.141000000000000000e+03 1.395518016815185547e+01 7.232661724090576172e+00 2.189255064877215773e-05 1.107734351535327733e-05 9.890968613035511225e-06 5.320330819813534617e-05
2.142000000000000000e+03 4.816057586669921875e+01 -3.446498489379882812e+01 -3.945768624544143677e-02 6.075304746627807617e-01 1.704218238592147827e-01 -2.638599872589111328e-01
2.143000000000000000e+03 3.869220352172851562e+01 -1.858695411682128906e+01 -2.576514482498168945e-01 2.766752481460571289e+00 7.527303099632263184e-01 -8.124321699142456055e-02
2.144000000000000000e+03 4.550466537475585938e+01 1.018396568298339844e+01 1.822177529335021973e+00 2.028001546859741211e+00 1.155053734779357910e+00 1.441779136657714844e+00
2.145000000000000000e+03 4.574846649169921875e+01 1.163604545593261719e+01 1.627526044845581055e+00 2.413881778717041016e+00 1.212422370910644531e+00 1.399854540824890137e+00
2.146000000000000000e+03 3.891320800781250000e+01 -1.728542900085449219e+01 -2.749913930892944336e-01 2.582085609436035156e+00 6.921282410621643066e-01 -2.985127270221710205e-01
2.147000000000000000e+03 3.845312881469726562e+01 -1.608634757995605469e+01 -4.585180878639221191e-01 2.627438068389892578e+00 6.506760120391845703e-01 -7.009191513061523438e-01
2.148000000000000000e+03 6.948469161987304688e+00 -1.057290935516357422e+01 -1.685664616525173187e-02 2.693771719932556152e-01 7.575615495443344116e-02 -1.117284521460533142e-01
2.149000000000000000e+03 9.328613281250000000e+00 -1.334356975555419922e+01 3.247600495815277100e-01 5.103904008865356445e-01 2.505451440811157227e-01 2.033975273370742798e-01
2.150000000000000000e+03 1.339237689971923828e+01 8.521910667419433594e+00 -6.886923802085220814e-05 -5.107532706460915506e-05 -3.598336843424476683e-05 -3.713144542416557670e-05
2.151000000000000000e+03 1.408672523498535156e+01 1.028444099426269531e+01 -9.464103641221299767e-05 -4.087140405317768455e-05 -4.065373286721296608e-05 -4.690952118835411966e-05
2.152000000000000000e+03 4.549419021606445312e+01 1.622129631042480469e+01 8.547032475471496582e-01 3.269016742706298828e+00 1.237115979194641113e+00 1.021028637886047363e+00
2.153000000000000000e+03 4.694084548950195312e+01 1.601418304443359375e+01 1.008370280265808105e+00 2.513427019119262695e+00 1.056539177894592285e+00 9.207005500793457031e-01
2.154000000000000000e+03 6.313883590698242188e+01 1.754315733909606934e+00 -7.184345722198486328e-01 9.629494696855545044e-02 -1.866418868303298950e-01 -3.663748502731323242e-01
2.155000000000000000e+03 1.033978557586669922e+01 -3.442060852050781250e+01 -2.037724554538726807e-01 -1.942052841186523438e-01 -1.193933188915252686e-01 1.335434317588806152e-01
2.156000000000000000e+03 4.706063842773437500e+01 2.624881744384765625e+01 4.301527738571166992e-01 2.526867151260375977e+00 8.871059417724609375e-01 1.522338241338729858e-01
2.157000000000000000e+03 2.499331855773925781e+01 -4.671363353729248047e+00 -5.373514816164970398e-02 -6.787339448928833008e-01 -2.197407186031341553e-01 -1.188531517982482910e+00
2.158000000000000000e+03 6.685945892333984375e+01 -6.830841898918151855e-01 -4.068537056446075439e-01 6.821424514055252075e-02 -1.015918403863906860e-01 -1.534542739391326904e-01
2.159000000000000000e+03 4.615957260131835938e+01 1.302761077880859375e+01 1.407458662986755371e+00 2.484047651290893555e+00 1.167451858520507812e+00 1.260352492332458496e+00
2.160000000000000000e+03 3.749989700317382812e+01 -1.194298362731933594e+01 2.359375804662704468e-01 2.077605962753295898e+00 6.940630078315734863e-01 -1.712588429450988770e+00
2.161000000000000000e+03 3.577273941040039062e+01 -1.117545795440673828e+01 3.526401221752166748e-01 3.029123783111572266e+00 1.014529228210449219e+00 -2.106211423873901367e+00
2.162000000000000000e+03 3.950466156005859375e+01 -2.177439308166503906e+01 4.469159543514251709e-01 2.281721115112304688e+00 8.185911178588867188e-01 -1.444112211465835571e-01
2.163000000000000000e+03 3.864841461181640625e+01 -2.390833663940429688e+01 5.252819061279296875e-01 2.582419633865356445e+00 9.323104619979858398e-01 -3.133937418460845947e-01
2.164000000000000000e+03 6.050952529907226562e+01 2.363993406295776367e+00 -9.468580484390258789e-01 7.444529980421066284e-02 -2.617238163948059082e-01 -4.379550218582153320e-01
2.165000000000000000e+03 6.656514167785644531e+00 2.574804306030273438e+01 1.295088150072842836e-04 1.922396331792697310e-04 9.652453445596620440e-05 -1.338747970294207335e-04
2.166000000000000000e+03 4.664965057373046875e+01 1.447902965545654297e+01 1.216114282608032227e+00 2.439501523971557617e+00 1.096684694290161133e+00 1.053383708000183105e+00
2.167000000000000000e+03 4.451037597656250000e+01 8.236419677734375000e+00 1.955841660499572754e+00 1.943031311035156250e+00 1.169661879539489746e+00 1.622358918190002441e+00
2.168000000000000000e+03 5.848131561279296875e+01 2.853521823883056641e+00 -1.108691334724426270e+00 7.228253781795501709e-02 -3.109226524829864502e-01 -4.913148581981658936e-01
2.169000000000000000e+03 5.760540008544921875e+01 3.451075792312622070e+00 -1.137747168540954590e+00 8.539135009050369263e-02 -3.157067298889160156e-01 -5.578041672706604004e-01
2.170000000000000000e+03 9.797696113586425781e+00 -5.726417064666748047e+00 -1.116631180047988892e-01 1.004634276032447815e-01 -3.359908238053321838e-03 -4.832612350583076477e-02
2.171000000000000000e+03 4.542945861816406250e+01 -2.756762504577636719e+01 2.155814766883850098e-01 6.680793166160583496e-01 2.650982439517974854e-01 -4.216876626014709473e-01
2.172000000000000000e+03 5.259160232543945312e+01 6.614817619323730469e+00 -4.500175714492797852e-01 -1.273502409458160400e-01 -1.732103377580642700e-01 -9.736298918724060059e-01
2.173000000000000000e+03 1.297019290924072266e+01 3.562313079833984375e+01 5.200145096750929952e-06 -1.291004358790814877e-03 -3.857412666548043489e-04 2.527204633224755526e-04
2.174000000000000000e+03 8.320739746093750000e+00 3.397782516479492188e+01 -1.783952611731365323e-04 1.031515857903286815e-04 -2.257310006825719029e-05 2.840500656020594761e-06
2.175000000000000000e+03 4.792723846435546875e+01 6.685369491577148438e+00 6.499152183532714844e-01 -5.987569689750671387e-01 1.534746401011943817e-02 -4.658847749233245850e-01
2.176000000000000000e+03 7.222367095947265625e+01 -2.438080596923828125e+01 6.249357829801738262e-05 -2.871669130399823189e-04 -6.740200478816404939e-05 1.185311612061923370e-05
2.177000000000000000e+03 4.599202728271484375e+01 7.323553562164306641e+00 1.424873352050781250e+00 3.183139860630035400e-01 5.229561924934387207e-01 6.224582195281982422e-01
2.178000000000000000e+03 5.543164062500000000e+01 6.313946723937988281e+00 -6.147841811180114746e-01 -1.277895411476492882e-03 -1.848186254501342773e-01 -8.637827634811401367e-01
2.179000000000000000e+03 7.478282165527343750e+01 4.000444030761718750e+01 -1.087309420108795166e-02 -1.083298802375793457e+00 -3.282515704631805420e-01 -3.571050614118576050e-02
2.180000000000000000e+03 7.309977722167968750e+01 3.740166854858398438e+01 2.650098688900470734e-02 -8.253241777420043945e-01 -2.396469563245773315e-01 -2.577368542551994324e-02
2.181000000000000000e+03 4.369504928588867188e+01 5.610692501068115234e+00 1.378773093223571777e+00 1.344191431999206543e+00 8.168893456459045410e-01 1.417555332183837891e+00
2.182000000000000000e+03 4.482595825195312500e+01 5.743861198425292969e+00 1.082486391067504883e+00 2.496099770069122314e-01 3.996289372444152832e-01 8.626506924629211426e-01
2.183000000000000000e+03 2.983421897888183594e+01 -1.495578002929687500e+01 -8.366672396659851074e-01 4.968270063400268555e-01 -1.019520685076713562e-01 6.056665182113647461e-01
2.184000000000000000e+03 1.109767913818359375e+01 1.993128013610839844e+01 -2.982904552482068539e-04 -1.267646293854340911e-04 -1.275165268452838063e-04 1.006203674478456378e-04
2.185000000000000000e+03 6.696034431457519531e+00 1.727903556823730469e+01 7.199396350188180804e-05 -1.545783452456817031e-04 -2.477531415934208781e-05 1.108232245314866304e-04
2.186000000000000000e+03 1.158962821960449219e+01 1.383691215515136719e+01 -1.005787635222077370e-04 8.316680032294243574e-05 -5.223589141678530723e-06 -2.699384276638738811e-05
2.187000000000000000e+03 3.787164688110351562e+01 -2.898837089538574219e+01 2.394584938883781433e-02 2.142038345336914062e+00 6.497952342033386230e-01 -2.470092326402664185e-01
2.188000000000000000e+03 5.007925987243652344e+00 1.273480892181396484e+01 -1.347143261227756739e-04 -4.065352550242096186e-05 -5.261035403236746788e-05 3.337275848025456071e-05
2.189000000000000000e+03 7.311529541015625000e+01 -2.902156066894531250e+01 -2.368742600083351135e-03 -9.858315024757757783e-05 -7.401977782137691975e-04 9.538260637782514095e-04
2.190000000000000000e+03 4.012856292724609375e+01 -3.074367904663085938e+01 -1.081973239779472351e-01 1.670351862907409668e+00 4.686463773250579834e-01 -3.964303731918334961e-01
2.191000000000000000e+03 3.941144943237304688e+01 -2.618728828430175781e+01 3.905926346778869629e-01 2.076307773590087891e+00 7.400701045989990234e-01 -4.379115402698516846e-01
2.192000000000000000e+03 4.036035537719726562e+01 -2.279934310913085938e+01 4.544701874256134033e-01 2.001365184783935547e+00 7.367506623268127441e-01 -2.668420076370239258e-01
2.193000000000000000e+03 5.716635227203369141e+00 -3.216783905029296875e+01 -2.125846147537231445e-01 1.124335452914237976e-01 -3.004532121121883392e-02 6.175473704934120178e-02
2.194000000000000000e+03 5.432676792144775391e+00 -3.501017379760742188e+01 -6.067702919244766235e-02 2.201596349477767944e-01 4.784477874636650085e-02 -1.205536909401416779e-02
2.195000000000000000e+03 8.975655555725097656e+00 1.689695358276367188e+01 -2.138940762961283326e-04 1.877120230346918106e-04 -7.854619070712942630e-06 -1.509095745859667659e-04
2.196000000000000000e+03 1.139724540710449219e+01 2.158604431152343750e+01 3.636093169916421175e-04 5.874476119061000645e-05 1.267062179977074265e-04 -9.397407120559364557e-05
2.197000000000000000e+03 7.321934509277343750e+01 -2.620413780212402344e+01 -7.426101947203278542e-04 -2.580836298875510693e-04 -3.002081357408314943e-04 -1.209352776641026139e-04
2.198000000000000000e+03 4.795703506469726562e+01 3.304430007934570312e+01 6.854440271854400635e-02 2.064063549041748047e+00 6.397823691368103027e-01 2.278226017951965332e-01
2.199000000000000000e+03 1.352303695678710938e+01 3.006045913696289062e+01 5.301273777149617672e-04 6.688037683488801122e-05 1.791023241821676493e-04 2.691793488338589668e-04
2.200000000000000000e+03 1.141010856628417969e+01 2.810074424743652344e+01 -8.629379590274766088e-05 -3.075724525842815638e-04 -1.181598781840875745e-04 1.378167944494634867e-04
2.201000000000000000e+03 4.546275711059570312e+01 2.983805847167968750e+01 3.892299234867095947e-01 2.568027496337890625e+00 8.871772289276123047e-01 6.307201087474822998e-02
2.202000000000000000e+03 6.556608581542968750e+01 -3.864342868328094482e-01 -5.059750676155090332e-01 1.025898903608322144e-01 -1.210155487060546875e-01 -1.638709157705307007e-01
2.203000000000000000e+03 6.445990753173828125e+01 1.379950046539306641e+00 -6.076967120170593262e-01 1.044187471270561218e-01 -1.509833931922912598e-01 -3.128243982791900635e-01
2.204000000000000000e+03 6.996923065185546875e+01 -3.443680572509765625e+01 -6.487480830401182175e-03 6.882174639031291008e-04 -1.739779021590948105e-03 8.827469311654567719e-03
2.205000000000000000e+03 2.114478874206542969e+01 3.743640899658203125e+01 2.528563607484102249e-03 -8.492082124575972557e-04 5.038066301494836807e-04 1.800430763978511095e-04
2.206000000000000000e+03 1.443732070922851562e+01 3.858563232421875000e+01 -5.836519994772970676e-04 -1.494138152338564396e-03 -6.233370513655245304e-04 7.088930578902363777e-05
2.207000000000000000e+03 1.185986137390136719e+01 2.469545173645019531e+01 3.836796968244016171e-04 4.718393756775185466e-05 1.292590895900502801e-04 -7.242171705001965165e-05
2.208000000000000000e+03 1.042308139801025391e+01 2.353959465026855469e+01 3.391293867025524378e-04 4.075476681464351714e-05 1.139652449637651443e-04 -1.144631678471341729e-04
2.209000000000000000e+03 7.229881286621093750e+01 -3.218115234375000000e+01 -4.493938293308019638e-03 9.201089851558208466e-04 -1.072148792445659637e-03 3.435215214267373085e-03
2.210000000000000000e+03 7.192028045654296875e+01 -3.058532333374023438e+01 -4.313262645155191422e-03 3.759474493563175201e-04 -1.181194558739662170e-03 2.092238049954175949e-03
2.211000000000000000e+03 4.523672866821289062e+01 3.843528747558593750e+01 -3.739073276519775391e-01 2.055502891540527344e+00 5.044786930084228516e-01 2.121707610785961151e-02
2.212000000000000000e+03 1.483559513092041016e+01 -3.695696640014648438e+01 -1.387767344713211060e-01 -1.658099293708801270e-01 -9.137599915266036987e-02 9.797371923923492432e-02
2.213000000000000000e+03 4.486793136596679688e+01 3.276735687255859375e+01 9.143046289682388306e-02 2.397514343261718750e+00 7.466834187507629395e-01 5.969405546784400940e-02
2.214000000000000000e+03 3.799388122558593750e+01 -2.624999618530273438e+01 4.565961062908172607e-01 2.545737504959106445e+00 9.007000327110290527e-01 -2.451512068510055542e-01
2.215000000000000000e+03 4.098360061645507812e+01 -2.781920051574707031e+01 2.158952504396438599e-01 1.581130266189575195e+00 5.391076803207397461e-01 -5.079014301300048828e-01
2.216000000000000000e+03 2.897030830383300781e+01 -3.848539352416992188e+01 -2.412425577640533447e-01 5.413814187049865723e-01 9.004165232181549072e-02 1.432709246873855591e-01
2.217000000000000000e+03 3.250188064575195312e+01 -4.130388641357421875e+01 -3.995464146137237549e-01 9.735873341560363770e-01 1.722122579813003540e-01 4.322848096489906311e-02
2.218000000000000000e+03 3.632488632202148438e+01 -9.566461563110351562e+00 1.401837825775146484e+00 2.060731172561645508e+00 1.038770675659179688e+00 -2.162916898727416992e+00
2.219000000000000000e+03 3.535133361816406250e+01 -9.313896179199218750e+00 1.439867973327636719e+00 3.510718584060668945e+00 1.485175967216491699e+00 -2.575599670410156250e+00
2.220000000000000000e+03 3.686715698242187500e+01 -3.747400999069213867e+00 -2.169038355350494385e-01 2.824236154556274414e+00 7.821996808052062988e-01 2.977862119674682617e+00
2.221000000000000000e+03 3.500436782836914062e+01 -4.356795310974121094e+00 1.043494224548339844e+00 5.423296451568603516e+00 1.940037250518798828e+00 5.350152969360351562e+00
2.222000000000000000e+03 3.443355560302734375e+01 -3.135641813278198242e+00 -2.150952339172363281e+00 5.896695137023925781e+00 1.123722791671752930e+00 4.025683403015136719e+00
2.223000000000000000e+03 3.489895248413085938e+01 -2.302586793899536133e+00 -3.036421060562133789e+00 5.306285858154296875e+00 6.809594631195068359e-01 3.664588212966918945e+00
2.224000000000000000e+03 3.618252563476562500e+01 -4.164918899536132812e+00 6.791211366653442383e-01 2.860260486602783203e+00 1.061814427375793457e+00 3.755068540573120117e+00
2.225000000000000000e+03 3.649996948242187500e+01 -4.194777488708496094e+00 6.298065781593322754e-01 2.546240806579589844e+00 9.528142213821411133e-01 3.353285074234008789e+00
2.226000000000000000e+03 3.353752899169921875e+01 -9.611435890197753906e+00 5.926484465599060059e-01 6.278921127319335938e+00 2.061470746994018555e+00 -8.966082334518432617e-01
2.227000000000000000e+03 3.274834442138671875e+01 -9.356109619140625000e+00 1.196700334548950195e+00 6.579989433288574219e+00 2.333006858825683594e+00 7.671270966529846191e-01
2.228000000000000000e+03 9.110078811645507812e+00 -5.818491458892822266e+00 -1.123617738485336304e-01 1.044853329658508301e-01 -2.362931380048394203e-03 -6.464145332574844360e-02
2.229000000000000000e+03 1.047060871124267578e+01 -5.727005958557128906e+00 -1.051979139447212219e-01 9.402340650558471680e-02 -3.352350555360317230e-03 -2.574491687119007111e-02
2.230000000000000000e+03 3.489665603637695312e+01 -9.762700080871582031e+00 9.330720305442810059e-01 4.303398609161376953e+00 1.570941209793090820e+00 -2.370123624801635742e+00
2.231000000000000000e+03 6.246484279632568359e+00 5.277488708496093750e+00 3.220246435375884175e-05 5.590147702605463564e-05 2.643118205014616251e-05 2.863981308109941892e-06
2.232000000000000000e+03 6.183304309844970703e+00 6.461902141571044922e+00 -5.995755782350897789e-05 5.635336492559872568e-05 -1.081257664736767765e-06 2.944711377494968474e-05
2.233000000000000000e+03 1.418881034851074219e+01 4.599956035614013672e+00 -3.667086275527253747e-05 -4.683763472712598741e-05 -2.505254997231531888e-05 -1.758855250955093652e-05
2.234000000000000000e+03 7.577345371246337891e+00 6.482454776763916016e+00 -5.432922080217394978e-06 -1.214883232023566961e-04 -3.807637403951957822e-05 4.179391544312238693e-05
2.235000000000000000e+03 9.290881156921386719e+00 4.769341468811035156e+00 6.939435843378305435e-05 5.394538311520591378e-05 3.700192246469669044e-05 7.460732831532368436e-06
2.236000000000000000e+03 7.020265102386474609e+00 5.035911083221435547e+00 -4.182549673714675009e-05 -6.233890599105507135e-05 -3.124932118225842714e-05 5.175565547688165680e-06
2.237000000000000000e+03 3.026243019104003906e+01 -8.623579025268554688e+00 3.585006952285766602e+00 2.050985097885131836e+00 1.690797567367553711e+00 1.993350028991699219e+00
2.238000000000000000e+03 8.038359642028808594e+00 5.629325389862060547e+00 -3.645576725830323994e-05 -8.302138303406536579e-05 -3.584314617910422385e-05 -1.364777176604548004e-06
2.239000000000000000e+03 1.114487838745117188e+01 -5.828096389770507812e+00 -9.543237835168838501e-02 8.145177364349365234e-02 -4.194181878119707108e-03 -1.250674016773700714e-02
2.240000000000000000e+03 3.486909866333007812e+01 -3.214104652404785156e+00 -1.953537344932556152e+00 5.889362812042236328e+00 1.180747628211975098e+00 4.402773857116699219e+00
2.241000000000000000e+03 2.732384872436523438e+01 -1.367866230010986328e+01 1.776074171066284180e-01 1.585181057453155518e-01 1.008376553654670715e-01 1.155150413513183594e+00
2.242000000000000000e+03 3.338274765014648438e+01 -1.594611167907714844e+01 -1.564342617988586426e+00 1.996341824531555176e+00 1.295997649431228638e-01 -1.237680912017822266e+00
2.243000000000000000e+03 3.254587173461914062e+01 -1.381672096252441406e+01 -7.548416256904602051e-01 2.408019304275512695e+00 4.959533214569091797e-01 -6.738680005073547363e-01
2.244000000000000000e+03 3.604646301269531250e+01 -3.041639089584350586e+00 -1.519185543060302734e+00 4.511218547821044922e+00 8.976099491119384766e-01 3.947515249252319336e+00
2.245000000000000000e+03 7.184472656250000000e+01 -5.278028964996337891e+00 -6.768953055143356323e-02 -1.763015612959861755e-02 -2.559590525925159454e-02 -1.504053454846143723e-02
2.246000000000000000e+03 1.227009487152099609e+01 5.669779777526855469e+00 -4.574841659632511437e-05 -4.911213909508660436e-05 -2.845816743501927704e-05 3.939276211895048618e-05
2.247000000000000000e+03 1.207543182373046875e+01 4.545186519622802734e+00 4.108916982659138739e-05 3.116889274679124355e-05 2.167741877201478928e-05 -4.086153785465285182e-05
2.248000000000000000e+03 1.260382270812988281e+01 -6.138287544250488281e+00 -5.830344557762145996e-02 4.590805619955062866e-02 -3.718616440892219543e-03 1.752600632607936859e-02
2.249000000000000000e+03 1.339119529724121094e+01 -6.256371974945068359e+00 -3.603607788681983948e-02 1.728643104434013367e-02 -5.624894518405199051e-03 3.259554505348205566e-02
2.250000000000000000e+03 3.818060684204101562e+01 -1.165929603576660156e+01 3.350614011287689209e-01 1.732560038566589355e+00 6.202864646911621094e-01 -1.522417068481445312e+00
2.251000000000000000e+03 5.986821651458740234e+00 -6.232765197753906250e+00 -9.065213799476623535e-02 5.109668150544166565e-02 -1.186663657426834106e-02 -1.501735448837280273e-01
2.252000000000000000e+03 7.482012939453125000e+01 -8.565893173217773438e+00 -3.116352309007197618e-04 -9.831925854086875916e-03 -3.043068340048193932e-03 8.716777898371219635e-03
2.253000000000000000e+03 7.513430023193359375e+01 -6.029529094696044922e+00 -2.244280464947223663e-02 -1.339280139654874802e-02 -1.075068209320306778e-02 -3.145587863400578499e-03
2.254000000000000000e+03 8.962119102478027344e+00 -5.068562507629394531e+00 -1.282273232936859131e-01 8.348320424556732178e-02 -1.342323701828718185e-02 -7.063001394271850586e-02
2.255000000000000000e+03 8.190690994262695312e+00 -7.656720161437988281e+00 -7.801038026809692383e-02 1.639858782291412354e-01 2.579264901578426361e-02 -8.521540462970733643e-02
2.256000000000000000e+03 7.236761474609375000e+01 -7.820272922515869141e+00 -1.822398602962493896e-02 -1.381929405033588409e-02 -9.612984023988246918e-03 1.857622410170733929e-03
2.257000000000000000e+03 7.411694049835205078e+00 -5.241402149200439453e+00 -1.158387288451194763e-01 6.952650099992752075e-02 -1.389366853982210159e-02 -1.092460900545120239e-01
2.258000000000000000e+03 1.792109680175781250e+01 -9.337879180908203125e+00 3.945728242397308350e-01 -3.178940117359161377e-01 2.300364337861537933e-02 1.551781892776489258e-01
2.259000000000000000e+03 1.504138660430908203e+01 -7.180903434753417969e+00 8.124259114265441895e-02 -6.481565535068511963e-02 4.928080365061759949e-03 6.346308439970016479e-02
2.260000000000000000e+03 2.846730422973632812e+01 -5.056606769561767578e+00 1.873206973075866699e+00 -1.207681417465209961e+00 1.996576339006423950e-01 -1.537369608879089355e+00
2.261000000000000000e+03 1.746794319152832031e+01 -6.611021041870117188e+00 1.348730474710464478e-01 -2.080062031745910645e-01 -2.193994633853435516e-02 -1.804160326719284058e-02
2.262000000000000000e+03 7.308570861816406250e+01 -7.858053684234619141e+00 -1.350461971014738083e-02 -1.843393407762050629e-02 -9.581565856933593750e-03 -7.461080094799399376e-04
2.263000000000000000e+03 7.560767650604248047e+00 -6.097219944000244141e+00 -1.054489910602569580e-01 9.729013592004776001e-02 -2.447656821459531784e-03 -1.095479875802993774e-01
2.264000000000000000e+03 1.990733909606933594e+01 -5.686921596527099609e+00 1.152808368206024170e-01 -2.980945408344268799e-01 -5.484410747885704041e-02 -1.987287253141403198e-01
2.265000000000000000e+03 2.159456062316894531e+01 -6.336068630218505859e+00 3.530341088771820068e-01 -4.937233924865722656e-01 -4.220678284764289856e-02 -3.418779373168945312e-01
2.266000000000000000e+03 1.419369602203369141e+01 -6.328220844268798828e+00 -8.193863555788993835e-03 -1.622000522911548615e-02 -7.324160542339086533e-03 3.617921471595764160e-02
2.267000000000000000e+03 1.498563861846923828e+01 -6.369166851043701172e+00 1.782434247434139252e-02 -5.910839512944221497e-02 -1.238521561026573181e-02 3.844926133751869202e-02
2.268000000000000000e+03 8.779070854187011719e+00 5.570482730865478516e+00 5.479770698002539575e-05 7.007283420534804463e-05 3.746116271940991282e-05 1.902130134112667292e-05
2.269000000000000000e+03 3.877627944946289062e+01 -3.253653049468994141e+00 -1.081233978271484375e+00 2.153796195983886719e+00 3.217687010765075684e-01 7.648211121559143066e-01
2.270000000000000000e+03 1.918475151062011719e+01 -6.533428192138671875e+00 2.207876741886138916e-01 -3.181857168674468994e-01 -2.921941503882408142e-02 -1.046069562435150146e-01
2.271000000000000000e+03 1.823499679565429688e+01 -5.758298397064208984e+00 6.492295861244201660e-02 -2.141410857439041138e-01 -4.476543888449668884e-02 -8.625555783510208130e-02
2.272000000000000000e+03 1.107367229461669922e+01 5.317888736724853516e+00 -1.155373829533345997e-04 -3.661314622149802744e-05 -4.564515984384343028e-05 4.591564720612950623e-05
2.273000000000000000e+03 1.197423553466796875e+01 7.084006786346435547e+00 -1.545836712466552854e-04 -4.967619315721094608e-05 -6.127796223154291511e-05 -8.255758075392805040e-06
2.274000000000000000e+03 2.051333427429199219e+01 -1.264477539062500000e+01 5.077837109565734863e-01 -3.939938843250274658e-01 3.413693979382514954e-02 4.506050944328308105e-01
2.275000000000000000e+03 2.001200866699218750e+01 -6.464582920074462891e+00 2.524392604827880859e-01 -3.777567446231842041e-01 -3.759524226188659668e-02 -1.723545789718627930e-01
2.276000000000000000e+03 3.620313644409179688e+01 -1.452915382385253906e+01 -8.307033181190490723e-01 2.883393049240112305e+00 6.158068776130676270e-01 -1.493201732635498047e+00
2.277000000000000000e+03 3.388208770751953125e+01 -2.044045925140380859e+00 -4.081063270568847656e+00 4.660167694091796875e+00 1.737314313650131226e-01 2.614852190017700195e+00
2.278000000000000000e+03 3.558008193969726562e+01 -3.102926969528198242e+00 -1.520787477493286133e+00 4.983886241912841797e+00 1.038929581642150879e+00 4.272926330566406250e+00
2.279000000000000000e+03 3.550547409057617188e+01 -1.508559703826904297e+00 -3.224597692489624023e+00 5.157395362854003906e+00 5.798392295837402344e-01 3.051167726516723633e+00
2.280000000000000000e+03 3.871786499023437500e+01 -1.896481633186340332e+00 -2.070766687393188477e+00 3.625160217285156250e+00 4.663180410861968994e-01 9.330186843872070312e-01
2.281000000000000000e+03 1.018929100036621094e+01 -1.119070529937744141e+01 1.252649575471878052e-01 3.208911716938018799e-01 1.338468343019485474e-01 1.181406527757644653e-01
2.282000000000000000e+03 1.259980392456054688e+01 1.120602416992187500e+01 -9.349000902147963643e-05 1.846021291385113727e-06 -2.749319537542760372e-05 -4.120972153032198548e-05
2.283000000000000000e+03 1.053732204437255859e+01 -1.021769905090332031e+01 7.342711836099624634e-02 2.586342096328735352e-01 9.961839765310287476e-02 8.294652402400970459e-02
2.284000000000000000e+03 8.151506423950195312e+00 -1.290705490112304688e+01 1.444850713014602661e-01 4.913892149925231934e-01 1.907622814178466797e-01 5.573822185397148132e-02
2.285000000000000000e+03 3.699018859863281250e+01 -1.887529182434082031e+01 -4.704850018024444580e-01 3.381222009658813477e+00 8.732210993766784668e-01 -7.018646597862243652e-02
2.286000000000000000e+03 3.837278747558593750e+01 1.369078606367111206e-01 -1.832513809204101562e+00 5.700432300567626953e+00 1.160375595092773438e+00 1.509070754051208496e+00
2.287000000000000000e+03 1.656545448303222656e+01 -7.461218357086181641e+00 1.761940717697143555e-01 -1.740459948778152466e-01 6.444226601161062717e-04 5.265894532203674316e-02
2.288000000000000000e+03 2.468604660034179688e+01 -1.386775875091552734e+01 2.504299581050872803e-01 -2.244990617036819458e-01 7.779268082231283188e-03 9.297067523002624512e-01
2.289000000000000000e+03 2.238120651245117188e+01 -6.989997386932373047e+00 6.331580281257629395e-01 -6.503159403800964355e-01 -5.147372372448444366e-03 -3.408936560153961182e-01
2.290000000000000000e+03 2.486982345581054688e+01 -5.586296081542968750e+00 5.873941779136657715e-01 -8.452270627021789551e-01 -7.734985649585723877e-02 -1.033113002777099609e+00
2.291000000000000000e+03 2.317504692077636719e+01 -5.506341934204101562e+00 2.546973228454589844e-01 -5.157343745231628418e-01 -7.831112295389175415e-02 -6.558266878128051758e-01
2.292000000000000000e+03 3.597265625000000000e+01 -1.762790107727050781e+01 -1.143464088439941406e+00 3.491947412490844727e+00 7.045449614524841309e-01 -4.917867481708526611e-01
2.293000000000000000e+03 3.211914825439453125e+01 -1.495433616638183594e+01 -1.014473438262939453e+00 1.565543651580810547e+00 1.653210669755935669e-01 -6.281395554542541504e-01
2.294000000000000000e+03 2.567364120483398438e+01 -1.252817726135253906e+01 7.919648885726928711e-01 -2.479552179574966431e-01 1.632029116153717041e-01 1.052387118339538574e+00
2.295000000000000000e+03 2.036346435546875000e+01 -1.366796779632568359e+01 3.590992391109466553e-01 -3.201659917831420898e-01 1.167996786534786224e-02 4.565292894840240479e-01
2.296000000000000000e+03 3.817174530029296875e+01 -1.303561115264892578e+01 -7.075147703289985657e-03 2.088299036026000977e+00 6.243671178817749023e-01 -1.450214862823486328e+00
2.297000000000000000e+03 3.463322401046752930e+00 6.992315769195556641e+00 -1.141567627200856805e-04 4.414612340042367578e-05 -2.100319215969648212e-05 3.816396565525792539e-05
2.298000000000000000e+03 1.672288322448730469e+01 4.471982002258300781e+00 4.981948222848586738e-05 4.871523560723289847e-05 2.956041498691774905e-05 6.558911991305649281e-05
2.299000000000000000e+03 7.287400817871093750e+01 -1.898426246643066406e+01 3.193699812982231379e-04 -9.936272545019164681e-05 6.600218330277130008e-05 -8.707600500201806426e-05
2.300000000000000000e+03 9.665674209594726562e+00 2.714908027648925781e+01 -1.825301587814465165e-04 -1.682244619587436318e-04 -1.052263905876316130e-04 1.413473073625937104e-04
2.301000000000000000e+03 1.048945140838623047e+01 1.848555374145507812e+01 2.585350594017654657e-04 1.703808375168591738e-04 1.286747719859704375e-04 -9.767566371010616422e-05
2.302000000000000000e+03 9.448809623718261719e+00 1.578312110900878906e+01 1.545065315440297127e-04 -1.485807442804798484e-04 1.777734610186598729e-06 5.908677849220111966e-05
2.303000000000000000e+03 5.438467025756835938e+01 6.893305301666259766e+00 -4.160170555114746094e-01 -5.574198812246322632e-02 -1.415277123451232910e-01 -9.129877090454101562e-01
2.304000000000000000e+03 5.555084228515625000e+01 4.582473754882812500e+00 -1.100841403007507324e+00 7.632790505886077881e-02 -3.073540329933166504e-01 -7.436848878860473633e-01
2.305000000000000000e+03 1.582861804962158203e+01 -1.166211128234863281e+01 3.817980289459228516e-01 -1.310923099517822266e-01 7.521171867847442627e-02 2.633326649665832520e-01
2.306000000000000000e+03 1.611235618591308594e+01 -1.311253833770751953e+01 4.332827925682067871e-01 -1.456551104784011841e-01 8.628830313682556152e-02 2.812564969062805176e-01
2.307000000000000000e+03 7.385514831542968750e+01 -1.874402427673339844e+01 -1.957251879503019154e-05 -1.672924408921971917e-04 -5.605948535958305001e-05 1.548648579046130180e-04
2.308000000000000000e+03 5.183909988403320312e+01 3.128422737121582031e+01 2.110598683357238770e-01 1.614317059516906738e+00 5.476130843162536621e-01 2.681126892566680908e-01
2.309000000000000000e+03 4.802486038208007812e+01 2.979630088806152344e+01 3.242117166519165039e-01 2.179036140441894531e+00 7.509743571281433105e-01 2.198690921068191528e-01
2.310000000000000000e+03 3.790431594848632812e+01 -1.492825984954833984e+01 -5.004269480705261230e-01 2.581712961196899414e+00 6.243858337402343750e-01 -1.149569749832153320e+00
2.311000000000000000e+03 1.123254680633544922e+01 -1.161869812011718750e+01 1.999199539422988892e-01 2.799601852893829346e-01 1.439640372991561890e-01 1.728736460208892822e-01
2.312000000000000000e+03 7.463360595703125000e+01 -3.169196128845214844e+01 -2.180475974455475807e-03 -4.575622151605784893e-04 -7.914114394225180149e-04 2.813545754179358482e-03
2.313000000000000000e+03 2.739099121093750000e+01 -5.175590515136718750e+00 1.438128113746643066e+00 -1.342975974082946777e+00 2.854562737047672272e-02 -1.505585789680480957e+00
2.314000000000000000e+03 2.948292541503906250e+01 -8.470510482788085938e+00 3.727906465530395508e+00 7.817845940589904785e-01 1.352907299995422363e+00 1.603487491607666016e+00
2.315000000000000000e+03 2.634078979492187500e+01 -5.510682106018066406e+00 1.078900456428527832e+00 -1.252701401710510254e+00 -5.214028805494308472e-02 -1.349961757659912109e+00
2.316000000000000000e+03 1.331930160522460938e+01 3.397605514526367188e+01 3.165945527143776417e-04 2.226720826001837850e-04 1.617799862287938595e-04 2.030232717515900731e-04
2.317000000000000000e+03 5.638833045959472656e+00 3.241411590576171875e+01 1.695080572972074151e-04 1.074302490451373160e-04 8.308149699587374926e-05 -1.960198715096339583e-04
2.318000000000000000e+03 9.100034713745117188e+00 2.945810508728027344e+01 -1.364806375931948423e-04 -2.155140246031805873e-04 -1.055984030244871974e-04 1.711073418846353889e-04
2.319000000000000000e+03 7.142939758300781250e+01 1.733258247375488281e+01 1.040891408920288086e-01 -5.311207175254821777e-01 -1.281094849109649658e-01 -3.651736974716186523e-01
2.320000000000000000e+03 7.269790649414062500e+01 1.732232856750488281e+01 7.942529022693634033e-02 -6.007414460182189941e-01 -1.563948541879653931e-01 -3.374917209148406982e-01
2.321000000000000000e+03 4.767819213867187500e+01 5.216258525848388672e+00 -4.205293357372283936e-01 -9.571960568428039551e-01 -4.133176207542419434e-01 -8.713697195053100586e-01
2.322000000000000000e+03 7.390547943115234375e+01 -3.037027835845947266e+00 -6.933414191007614136e-02 -3.094694018363952637e-02 -3.008432313799858093e-02 -5.046433582901954651e-02
2.323000000000000000e+03 7.051516723632812500e+01 -5.824609279632568359e+00 -5.881248041987419128e-02 -1.647257432341575623e-02 -2.258551679551601410e-02 -8.129698224365711212e-03
2.324000000000000000e+03 7.407940673828125000e+01 -2.392954826354980469e+01 3.547502274159342051e-04 -1.581540418555960059e-04 5.897885057493112981e-05 -1.923959207488223910e-04
2.325000000000000000e+03 7.133052062988281250e+01 1.047262859344482422e+01 -2.936565689742565155e-02 -3.168322145938873291e-01 -1.038593649864196777e-01 -4.510684609413146973e-01
2.326000000000000000e+03 7.279287719726562500e+01 9.225218772888183594e+00 -4.630630835890769958e-02 -3.196580410003662109e-01 -1.097893044352531433e-01 -3.886574804782867432e-01
2.327000000000000000e+03 7.045379638671875000e+01 5.215619087219238281e+00 -1.841881871223449707e-01 -1.196862757205963135e-01 -9.116233885288238525e-02 -3.891196846961975098e-01
2.328000000000000000e+03 7.305010223388671875e+01 2.118478536605834961e+00 -1.294417828321456909e-01 -9.471221268177032471e-02 -6.724619865417480469e-02 -2.136066854000091553e-01
2.329000000000000000e+03 7.400003814697265625e+01 1.335404205322265625e+01 2.061482146382331848e-02 -5.326994657516479492e-01 -1.536253839731216431e-01 -3.443848788738250732e-01
2.330000000000000000e+03 7.419087982177734375e+01 6.541007041931152344e+00 -6.414004415273666382e-02 -2.561491131782531738e-01 -9.608674794435501099e-02 -2.956902086734771729e-01
2.331000000000000000e+03 7.290921783447265625e+01 6.516621112823486328e+00 -9.068378061056137085e-02 -2.225062400102615356e-01 -9.395700693130493164e-02 -3.405361771583557129e-01
2.332000000000000000e+03 1.089999008178710938e+01 3.247227859497070312e+01 -1.102923852158710361e-04 -3.302203258499503136e-04 -1.321538147749379277e-04 2.373877796344459057e-04
2.333000000000000000e+03 6.368822097778320312e+00 3.352531814575195312e+01 -1.238913682755082846e-04 3.685305273393169045e-05 -2.611149648146238178e-05 -5.971969221718609333e-05
2.334000000000000000e+03 7.341786956787109375e+01 7.578238844871520996e-01 -1.219850853085517883e-01 -6.623503565788269043e-02 -5.646603554487228394e-02 -1.586463004350662231e-01
2.335000000000000000e+03 7.383108520507812500e+01 -4.337214469909667969e+00 -5.395358428359031677e-02 -2.013074606657028198e-02 -2.222529798746109009e-02 -2.694222517311573029e-02
2.336000000000000000e+03 7.782903194427490234e+00 -1.121817588806152344e+01 2.424372918903827667e-02 3.502072691917419434e-01 1.123352944850921631e-01 -3.905313089489936829e-02
2.337000000000000000e+03 7.075764656066894531e+00 2.294385337829589844e+01 -1.213511040987214074e-05 -5.814863470732234418e-05 -2.108512308041099459e-05 -1.102980822906829417e-04
2.338000000000000000e+03 7.133944702148437500e+01 3.269738388061523438e+01 5.997243896126747131e-02 -6.413239240646362305e-01 -1.744054406881332397e-01 -5.154964700341224670e-02
2.339000000000000000e+03 6.988767242431640625e+01 3.107916831970214844e+01 9.149160981178283691e-02 -4.895784556865692139e-01 -1.194260567426681519e-01 -6.627140939235687256e-02
2.340000000000000000e+03 3.342781829833984375e+01 -1.393757700920104980e+00 -5.575870037078857422e+00 2.586583137512207031e+00 -8.967860341072082520e-01 9.322109222412109375e-01
2.341000000000000000e+03 7.270533752441406250e+01 -6.587585806846618652e-01 -1.249812245368957520e-01 -3.962702676653862000e-02 -4.938247427344322205e-02 -1.202209517359733582e-01
2.342000000000000000e+03 7.490865325927734375e+01 -2.330491065979003906e+01 -3.412287333048880100e-04 -4.482274234760552645e-04 -2.368368441238999367e-04 8.010786586964968592e-06
2.343000000000000000e+03 7.344895935058593750e+01 -2.267388153076171875e+01 -1.364083873340860009e-04 -3.638120833784341812e-04 -1.500661455793306231e-04 1.164368441664009879e-07
2.344000000000000000e+03 5.839194297790527344e+00 1.650758361816406250e+01 4.540368172456510365e-05 1.479241182096302509e-04 5.799833888886496425e-05 -1.018235634546726942e-04
2.345000000000000000e+03 5.819047927856445312e+00 -8.706521987915039062e+00 -7.548984140157699585e-02 9.684162586927413940e-02 6.405537016689777374e-03 -1.860722601413726807e-01
2.346000000000000000e+03 5.368708610534667969e+00 -9.585865974426269531e+00 -4.964616894721984863e-02 8.382388204336166382e-02 1.025331299751996994e-02 -1.967787742614746094e-01
2.347000000000000000e+03 7.492699146270751953e+00 2.673833465576171875e+01 -1.022500800900161266e-04 -2.188146463595330715e-04 -9.631941793486475945e-05 1.113255202653817832e-04
2.348000000000000000e+03 6.293210983276367188e+00 2.780464172363281250e+01 2.918760001193732023e-04 1.040354181895963848e-04 1.187734305858612061e-04 -1.761046878527849913e-04
2.349000000000000000e+03 6.256067276000976562e+00 1.493501281738281250e+01 1.166522706625983119e-04 8.998733392218127847e-05 6.199187919264659286e-05 2.675209179869852960e-05
2.350000000000000000e+03 8.091420173645019531e+00 1.659663391113281250e+01 1.351512182736769319e-04 -8.291156700579449534e-05 1.567189610796049237e-05 1.668695767875760794e-04
2.351000000000000000e+03 4.730635452270507812e+01 2.371350479125976562e+01 4.567612707614898682e-01 2.593312978744506836e+00 9.150222539901733398e-01 2.709043323993682861e-01
2.352000000000000000e+03 6.205885887145996094e+00 1.397805118560791016e+01 -1.406137744197621942e-04 4.950615402776747942e-05 -2.733228393481113017e-05 4.036328755319118500e-05
2.353000000000000000e+03 6.261490821838378906e+00 2.013566207885742188e+01 1.226724998559802771e-04 1.267810002900660038e-04 7.483605440938845277e-05 -2.356394725211430341e-05
2.354000000000000000e+03 4.116553497314453125e+01 -2.386458206176757812e+01 4.441772699356079102e-01 1.575806021690368652e+00 6.059949994087219238e-01 -3.724238872528076172e-01
2.355000000000000000e+03 5.296177387237548828e+00 1.537038326263427734e+01 -1.273306406801566482e-04 -8.248670201282948256e-05 -6.294520426308736205e-05 9.647585102356970310e-05
2.356000000000000000e+03 4.271627807617187500e+01 -2.600369453430175781e+01 3.420191109180450439e-01 1.160504817962646484e+00 4.507572054862976074e-01 -4.781987965106964111e-01
2.357000000000000000e+03 5.928405761718750000e+01 3.492032289505004883e+00 -9.156280755996704102e-01 6.980857253074645996e-02 -2.537458539009094238e-01 -5.618528723716735840e-01
2.358000000000000000e+03 5.937817764282226562e+01 2.518389701843261719e+00 -1.029561877250671387e+00 7.762793451547622681e-02 -2.855801582336425781e-01 -4.308564662933349609e-01
2.359000000000000000e+03 8.605747222900390625e+00 8.851426124572753906e+00 3.405933603062294424e-05 -1.064007228706032038e-04 -2.170241714338771999e-05 1.833884380175732076e-05
2.360000000000000000e+03 4.815025806427001953e+00 6.439237117767333984e+00 -7.360604649875313044e-05 6.499938172055408359e-05 -2.581999524409184232e-06 3.075044514844194055e-05
2.361000000000000000e+03 6.596775531768798828e+00 7.976196289062500000e+00 -6.932004907866939902e-05 1.244748564204201102e-04 1.654644438531249762e-05 -5.168026746105169877e-06
2.362000000000000000e+03 5.855885028839111328e+00 1.232157611846923828e+01 -4.312458258937112987e-05 1.375242136418819427e-04 2.831988967955112457e-05 -1.415375209035119042e-05
2.363000000000000000e+03 6.087662696838378906e+00 -1.309605979919433594e+01 8.809937536716461182e-02 3.633612394332885742e-01 1.354381889104843140e-01 -1.123941168189048767e-01
2.364000000000000000e+03 6.454507350921630859e+00 -6.791210174560546875e+00 -8.651544898748397827e-02 8.059075474739074707e-02 -1.777408877387642860e-03 -1.454893797636032104e-01
2.365000000000000000e+03 7.403435516357421875e+01 -6.443429470062255859e+00 -2.390164136886596680e-02 -1.614168472588062286e-02 -1.201299764215946198e-02 -2.503784373402595520e-03
2.366000000000000000e+03 5.580899238586425781e+00 9.496079444885253906e+00 -6.043433677405118942e-05 7.356071000685915351e-05 3.937913334084441885e-06 1.880791387520730495e-05
2.367000000000000000e+03 9.980993270874023438e+00 9.234903335571289062e+00 -7.707328040851280093e-05 -6.641210347879678011e-05 -4.304561298340559006e-05 7.699472917011007667e-06
2.368000000000000000e+03 7.527976989746093750e+01 -1.988833618164062500e+01 2.392104070167988539e-04 -8.713009447092190385e-05 4.562409230857156217e-05 -1.287273480556905270e-04
2.369000000000000000e+03 6.180088424682617188e+01 2.095854997634887695e+00 -8.173811435699462891e-01 9.519267827272415161e-02 -2.166565358638763428e-01 -4.009222090244293213e-01
2.370000000000000000e+03 5.737578964233398438e+01 5.113161087036132812e+00 -8.103871345520019531e-01 5.353662371635437012e-02 -2.270551621913909912e-01 -7.261705398559570312e-01
2.371000000000000000e+03 5.351174545288085938e+01 7.617473602294921875e+00 -1.202276349067687988e-01 -1.004501730203628540e-01 -6.620334088802337646e-02 -8.468270301818847656e-01
2.372000000000000000e+03 4.909456253051757812e+01 2.188309669494628906e+01 6.188806891441345215e-01 2.122003078460693359e+00 8.222650885581970215e-01 4.012734293937683105e-01
2.373000000000000000e+03 4.852569580078125000e+01 2.627454757690429688e+01 4.519932568073272705e-01 2.206094741821289062e+00 7.974264025688171387e-01 2.373539358377456665e-01
2.374000000000000000e+03 8.256904602050781250e+00 6.365143299102783203e+00 2.412909816484898329e-05 9.617067553335800767e-05 3.608993210946209729e-05 5.485360816237516701e-06
2.375000000000000000e+03 7.460745811462402344e+00 1.529662609100341797e+01 1.478370686527341604e-04 8.975184027804061770e-05 7.127667777240276337e-05 -4.571985755319474265e-06
2.376000000000000000e+03 9.767427444458007812e+00 2.058754348754882812e+01 2.814130857586860657e-04 1.322987518506124616e-04 1.241135469172149897e-04 -5.454802158055827022e-05
2.377000000000000000e+03 4.800749969482421875e+01 9.572116851806640625e+00 1.427415609359741211e+00 4.315252602100372314e-01 5.576822757720947266e-01 3.655787706375122070e-01
2.378000000000000000e+03 2.152418518066406250e+01 -9.790263175964355469e+00 8.490836620330810547e-01 -6.389225125312805176e-01 6.304835528135299683e-02 2.219599783420562744e-01
2.379000000000000000e+03 2.145302772521972656e+01 -1.279487514495849609e+01 5.028772950172424316e-01 -4.142236709594726562e-01 2.659609168767929077e-02 5.438588261604309082e-01
2.380000000000000000e+03 7.312004852294921875e+01 -2.761395263671875000e+01 -1.752813463099300861e-03 6.328848030534572899e-06 -5.239453748799860477e-04 4.311754892114549875e-04
2.381000000000000000e+03 1.464424896240234375e+01 6.091946125030517578e+00 -4.894810444966424257e-06 -4.155723217991180718e-05 -1.393561342410976067e-05 -4.665770757128484547e-05
2.382000000000000000e+03 4.689154815673828125e+01 9.076421737670898438e+00 1.614599704742431641e+00 7.468715906143188477e-01 7.084413766860961914e-01 6.767522096633911133e-01
2.383000000000000000e+03 4.991297531127929688e+01 1.079473972320556641e+01 1.198301434516906738e+00 3.688108325004577637e-01 4.701336920261383057e-01 5.348340421915054321e-02
2.384000000000000000e+03 5.603899002075195312e+01 7.458051681518554688e+00 -3.100437521934509277e-01 -5.237244442105293274e-02 -1.087248548865318298e-01 -8.369243741035461426e-01
2.385000000000000000e+03 4.980765151977539062e+01 1.723661422729492188e+01 1.007287621498107910e+00 1.591337680816650391e+00 7.795875668525695801e-01 5.412247180938720703e-01
2.386000000000000000e+03 1.016496276855468750e+01 2.203406143188476562e+01 -2.696150622796267271e-04 -8.401880768360570073e-05 -1.060901631717570126e-04 1.047147670760750771e-04
2.387000000000000000e+03 1.104061222076416016e+01 1.515467548370361328e+01 1.065959731931798160e-04 -1.276393741136416793e-04 -6.313020094239618629e-06 9.365400728711392730e-06
2.388000000000000000e+03 7.711667537689208984e+00 1.343316745758056641e+01 -1.124675982282496989e-04 9.028020576806738973e-05 -6.656217465206282213e-06 2.942835999419912696e-05
2.389000000000000000e+03 6.572961425781250000e+01 1.014233589172363281e+00 -5.194258093833923340e-01 8.457728475332260132e-02 -1.304545551538467407e-01 -2.787150442600250244e-01
2.390000000000000000e+03 4.794463348388671875e+01 1.389133548736572266e+01 1.316304206848144531e+00 1.747345328330993652e+00 9.190948605537414551e-01 8.469757437705993652e-01
2.391000000000000000e+03 4.887501144409179688e+01 1.481171321868896484e+01 1.210110783576965332e+00 1.557561993598937988e+00 8.303018212318420410e-01 6.702944636344909668e-01
2.392000000000000000e+03 4.684318161010742188e+01 1.138218688964843750e+01 1.639876008033752441e+00 1.587449431419372559e+00 9.681976437568664551e-01 1.062568902969360352e+00
2.393000000000000000e+03 1.064107704162597656e+01 2.509006500244140625e+01 -2.162418968509882689e-04 -7.711010402999818325e-05 -8.800560317467898130e-05 1.500093640061095357e-04
2.394000000000000000e+03 4.178453826904296875e+01 -3.222095108032226562e+01 -1.420591771602630615e-01 1.350762844085693359e+00 3.626110851764678955e-01 -3.857674300670623779e-01
2.395000000000000000e+03 4.408348846435546875e+01 -2.838222312927246094e+01 1.751354336738586426e-01 9.063510298728942871e-01 3.244459331035614014e-01 -4.545459449291229248e-01
2.396000000000000000e+03 3.095128440856933594e+01 -1.478944873809814453e+01 -8.079864978790283203e-01 8.638691306114196777e-01 1.676478981971740723e-02 6.378305703401565552e-02
2.397000000000000000e+03 4.564653396606445312e+01 8.714273452758789062e+00 1.896338582038879395e+00 1.275422096252441406e+00 9.515281915664672852e-01 1.212988853454589844e+00
2.398000000000000000e+03 4.729572677612304688e+01 7.809394359588623047e+00 1.280337095260620117e+00 4.684461280703544617e-02 3.981545269489288330e-01 2.274477034807205200e-01
2.399000000000000000e+03 6.921642303466796875e+01 -5.173348426818847656e+00 -9.027924388647079468e-02 -3.281225450336933136e-03 -2.806814014911651611e-02 -3.170575946569442749e-03
2.400000000000000000e+03 7.369731903076171875e+01 -5.014221668243408203e-01 -9.931718558073043823e-02 -5.364082753658294678e-02 -4.588740319013595581e-02 -1.125617697834968567e-01
2.401000000000000000e+03 5.852998733520507812e+01 4.471341609954833984e+00 -8.608813285827636719e-01 6.302457302808761597e-02 -2.393570244312286377e-01 -6.608190536499023438e-01
2.402000000000000000e+03 5.753919982910156250e+01 6.271408081054687500e+00 -5.731271505355834961e-01 1.316008903086185455e-02 -1.679901182651519775e-01 -7.958324551582336426e-01
2.403000000000000000e+03 2.862503814697265625e+01 -1.385837554931640625e+01 -1.603131927549839020e-02 4.836366176605224609e-01 1.402815878391265869e-01 1.040627121925354004e+00
2.404000000000000000e+03 4.706749343872070312e+01 5.788288116455078125e+00 3.203594386577606201e-01 -7.948774695396423340e-01 -1.423554122447967529e-01 -4.053865671157836914e-01
2.405000000000000000e+03 4.670198440551757812e+01 2.845451164245605469e+01 4.128888249397277832e-01 2.488166093826293945e+00 8.703164458274841309e-01 1.166400685906410217e-01
2.406000000000000000e+03 7.232283782958984375e+01 -7.180181503295898438e+00 -2.324262447655200958e-02 -1.662036031484603882e-02 -1.195889525115489960e-02 -1.075805979780852795e-03
2.407000000000000000e+03 6.835284423828125000e+01 -5.824213027954101562e+00 -7.821703702211380005e-02 -5.544176790863275528e-03 -2.512836456298828125e-02 -1.427585812052711844e-04
2.408000000000000000e+03 6.954150390625000000e+01 -3.630272674560546875e+01 -1.506136148236691952e-03 -1.125332317315042019e-03 -7.894405280239880085e-04 1.185168419033288956e-02
2.409000000000000000e+03 7.140828704833984375e+01 -3.411805343627929688e+01 -4.383618477731943130e-03 5.218777805566787720e-04 -1.158522325567901134e-03 7.144173607230186462e-03
2.410000000000000000e+03 6.756689453125000000e+01 3.030569648742675781e+01 1.348269581794738770e-01 -2.624624967575073242e-01 -3.829066455364227295e-02 -5.476042255759239197e-02
2.411000000000000000e+03 7.186984252929687500e+01 2.714886665344238281e+01 8.763398230075836182e-02 -6.907938122749328613e-01 -1.809479445219039917e-01 -1.233995258808135986e-01
2.412000000000000000e+03 8.136415481567382812e+00 -3.618384552001953125e+01 -3.352097421884536743e-02 -4.208219051361083984e-02 -2.268094941973686218e-02 2.687229774892330170e-02
2.413000000000000000e+03 4.603240966796875000e+01 5.910003185272216797e+00 9.738604426383972168e-01 -4.816867113113403320e-01 1.476521193981170654e-01 1.910895556211471558e-01
2.414000000000000000e+03 7.286133575439453125e+01 7.877496242523193359e+00 -6.946131587028503418e-02 -2.746033072471618652e-01 -1.032193899154663086e-01 -3.702711760997772217e-01
2.415000000000000000e+03 3.602088546752929688e+01 -3.396380615234375000e+01 -3.968036174774169922e-01 1.596129536628723145e+00 3.597977757453918457e-01 6.799290329217910767e-02
2.416000000000000000e+03 3.835883712768554688e+01 -3.352662277221679688e+01 -3.447851240634918213e-01 1.623655915260314941e+00 3.836612403392791748e-01 -1.654575318098068237e-01
2.417000000000000000e+03 3.686272430419921875e+01 -3.306690216064453125e+01 -3.639985620975494385e-01 1.735868334770202637e+00 4.115609526634216309e-01 -4.206709563732147217e-02
2.418000000000000000e+03 7.100620269775390625e+01 2.914395523071289062e+01 9.144205600023269653e-02 -5.996615290641784668e-01 -1.524658352136611938e-01 -8.862394094467163086e-02
2.419000000000000000e+03 7.170805358886718750e+01 4.099094772338867188e+01 3.206109162420034409e-03 -7.031530737876892090e-01 -2.099840790033340454e-01 -7.227523718029260635e-03
2.420000000000000000e+03 4.097308731079101562e+01 -2.930814552307128906e+01 5.732599645853042603e-02 1.517929315567016602e+00 4.725765883922576904e-01 -4.613698422908782959e-01
2.421000000000000000e+03 4.382608413696289062e+01 -3.335412597656250000e+01 -1.327902227640151978e-01 1.064029932022094727e+00 2.793719172477722168e-01 -3.488326668739318848e-01
2.422000000000000000e+03 2.135940361022949219e+01 -3.739976882934570312e+01 -1.616089791059494019e-01 -1.550605893135070801e-02 -5.313451215624809265e-02 2.269120328128337860e-02
2.423000000000000000e+03 3.465506362915039062e+01 -3.705761909484863281e+00 -9.803310632705688477e-01 6.337919712066650391e+00 1.607276558876037598e+00 4.568947315216064453e+00
2.424000000000000000e+03 3.644730377197265625e+01 -1.006448841094970703e+01 1.095584869384765625e+00 2.133587837219238281e+00 9.687517881393432617e-01 -2.104525804519653320e+00
2.425000000000000000e+03 3.521533203125000000e+01 -3.476786613464355469e+00 -1.043094635009765625e+00 5.270795822143554688e+00 1.268310308456420898e+00 4.518196582794189453e+00
2.426000000000000000e+03 3.444350433349609375e+01 -9.418548583984375000e+00 9.421233534812927246e-01 5.407289505004882812e+00 1.904823899269104004e+00 -2.224586725234985352e+00
2.427000000000000000e+03 3.396841430664062500e+01 -1.000867652893066406e+01 4.727300405502319336e-01 5.423381805419921875e+00 1.768833518028259277e+00 -1.551310896873474121e+00
2.428000000000000000e+03 9.330341339111328125e+00 -6.563070774078369141e+00 -9.346325695514678955e-02 1.244592070579528809e-01 9.298783726990222931e-03 -5.851572006940841675e-02
2.429000000000000000e+03 1.291324329376220703e+01 -8.432269096374511719e+00 6.892713904380798340e-02 7.540315389633178711e-02 4.329908639192581177e-02 9.464907646179199219e-02
2.430000000000000000e+03 5.758008003234863281e+00 7.189009666442871094e+00 8.554703526897355914e-05 -9.321225661551579833e-05 -2.299567086083698086e-06 -2.163778299291152507e-05
2.431000000000000000e+03 3.639362716674804688e+01 -1.065882205963134766e+01 7.209980487823486328e-01 2.398108482360839844e+00 9.357319474220275879e-01 -2.083393812179565430e+00
2.432000000000000000e+03 3.690392303466796875e+01 -1.070284652709960938e+01 7.170535922050476074e-01 2.024378776550292969e+00 8.224297165870666504e-01 -1.921968698501586914e+00
2.433000000000000000e+03 1.045099735260009766e+01 -6.371906280517578125e+00 -8.555095642805099487e-02 1.087239533662796021e-01 6.951899267733097076e-03 -2.072561718523502350e-02
2.434000000000000000e+03 6.896210670471191406e+00 6.680283546447753906e+00 5.905910438741557300e-05 9.964926721295341849e-05 4.761250966112129390e-05 -1.149830495705828071e-04
2.435000000000000000e+03 3.072288513183593750e+01 -9.597036361694335938e+00 2.298031568527221680e+00 2.944234848022460938e+00 1.572679877281188965e+00 1.803023457527160645e+00
2.436000000000000000e+03 3.305178070068359375e+01 -1.474232578277587891e+01 -1.016991019248962402e+00 2.198922872543334961e+00 3.545795679092407227e-01 -9.465104937553405762e-01
2.437000000000000000e+03 3.691289901733398438e+01 -2.798597335815429688e+00 -1.563195347785949707e+00 3.996443033218383789e+00 7.299742698669433594e-01 2.759894132614135742e+00
2.438000000000000000e+03 3.744898986816406250e+01 -3.254015684127807617e+00 -8.948025107383728027e-01 2.969141006469726562e+00 6.223015189170837402e-01 2.224194288253784180e+00
2.439000000000000000e+03 3.626758575439453125e+01 -2.434176206588745117e+00 -2.191170930862426758e+00 4.936007976531982422e+00 8.234511017799377441e-01 3.439065217971801758e+00
2.440000000000000000e+03 1.032846164703369141e+01 5.469027519226074219e+00 1.139849482569843531e-04 3.245961124775931239e-05 4.393336712382733822e-05 -3.222279019610141404e-06
2.441000000000000000e+03 8.983180999755859375e+00 6.350372314453125000e+00 -5.106319804326631129e-05 -7.569836452603340149e-05 -3.802846913458779454e-05 -2.516894710424821824e-05
2.442000000000000000e+03 6.663640975952148438e+00 5.990629196166992188e+00 -5.410310404840856791e-05 -4.318836363381706178e-05 -2.918744030466768891e-05 3.589586049201898277e-05
2.443000000000000000e+03 1.173725986480712891e+01 -6.800689697265625000e+00 -4.761488363146781921e-02 8.908893167972564697e-02 1.244221348315477371e-02 1.608553901314735413e-02
2.444000000000000000e+03 1.185296344757080078e+01 -5.979857921600341797e+00 -7.760175317525863647e-02 6.654808670282363892e-02 -3.316098358482122421e-03 6.749890279024839401e-03
2.445000000000000000e+03 7.325010681152343750e+01 -2.129425430297851562e+01 2.756009052973240614e-04 -2.280125772813335061e-04 1.427649749530246481e-05 3.906991696567274630e-05
2.446000000000000000e+03 7.424833679199218750e+01 -2.116793632507324219e+01 2.984185266541317105e-05 -1.883533695945516229e-04 -4.755345435114577413e-05 -9.519822197034955025e-05
2.447000000000000000e+03 3.173814964294433594e+01 -1.248326015472412109e+01 -4.886937513947486877e-02 2.695336818695068359e+00 7.939402461051940918e-01 1.214879825711250305e-01
2.448000000000000000e+03 2.881674766540527344e+01 -1.287726879119873047e+01 4.430792629718780518e-01 7.440705299377441406e-01 3.561449348926544189e-01 1.109149694442749023e+00
2.449000000000000000e+03 7.132192993164062500e+01 -7.183203697204589844e+00 -2.533976547420024872e-02 -1.551682688295841217e-02 -1.225697807967662811e-02 -1.403431408107280731e-03
2.450000000000000000e+03 7.205968475341796875e+01 -3.982609033584594727e+00 -9.409613907337188721e-02 -1.583010703325271606e-02 -3.297787532210350037e-02 -3.960395231842994690e-02
2.451000000000000000e+03 1.338211059570312500e+01 -7.169490814208984375e+00 1.932334154844284058e-02 3.208310157060623169e-02 1.542193256318569183e-02 5.857860296964645386e-02
2.452000000000000000e+03 3.331020736694335938e+01 -1.527642345428466797e+01 -1.343822360038757324e+00 2.065268993377685547e+00 2.164339721202850342e-01 -1.176997065544128418e+00
2.453000000000000000e+03 2.973724365234375000e+01 -7.733358383178710938e+00 4.581509113311767578e+00 4.649286270141601562e-01 1.513931393623352051e+00 1.278989434242248535e+00
2.454000000000000000e+03 8.732021331787109375e+00 -9.415540695190429688e+00 -2.215604111552238464e-02 2.524800300598144531e-01 6.909719109535217285e-02 -3.306982666254043579e-02
2.455000000000000000e+03 7.147905349731445312e+00 -8.539843559265136719e+00 -7.616668939590454102e-02 1.725065559148788452e-01 2.890195883810520172e-02 -1.283800005912780762e-01
2.456000000000000000e+03 8.381119728088378906e+00 -5.947056770324707031e+00 -1.099566742777824402e-01 1.039532497525215149e-01 -1.801026286557316780e-03 -8.736499398946762085e-02
2.457000000000000000e+03 2.315131950378417969e+01 -6.277838230133056641e+00 5.519436597824096680e-01 -6.702314615249633789e-01 -3.548633307218551636e-02 -5.650223493576049805e-01
2.458000000000000000e+03 2.393519401550292969e+01 -6.328523635864257812e+00 8.119905591011047363e-01 -8.071488738059997559e-01 1.452506519854068756e-03 -6.456907391548156738e-01
2.459000000000000000e+03 1.661284446716308594e+01 -6.545324325561523438e+00 9.216352552175521851e-02 -1.645453870296478271e-01 -2.171456068754196167e-02 8.753704838454723358e-03
2.460000000000000000e+03 1.578291130065917969e+01 -6.434332370758056641e+00 5.672374740242958069e-02 -1.040993332862854004e-01 -1.421267725527286530e-02 2.697585523128509521e-02
2.461000000000000000e+03 1.215508270263671875e+01 8.293198585510253906e+00 1.227592874784022570e-04 5.402896204032003880e-05 5.303647412802092731e-05 7.369686954916687682e-06
2.462000000000000000e+03 1.170882415771484375e+01 5.042644977569580078e+00 5.304943624651059508e-05 5.293194408295676112e-05 3.179441409884020686e-05 -6.509297236334532499e-05
2.463000000000000000e+03 2.237830543518066406e+01 -1.089134311676025391e+01 9.000707864761352539e-01 -6.210674643516540527e-01 8.370099216699600220e-02 4.531114101409912109e-01
2.464000000000000000e+03 2.318122291564941406e+01 -8.467574119567871094e+00 1.128405809402465820e+00 -8.201275467872619629e-01 9.248348325490951538e-02 -1.910400390625000000e-02
2.465000000000000000e+03 1.687248420715332031e+01 -8.932209968566894531e+00 2.954822480678558350e-01 -2.192304134368896484e-01 2.287555672228336334e-02 1.337579339742660522e-01
2.466000000000000000e+03 1.845798492431640625e+01 -7.461182594299316406e+00 2.934619188308715820e-01 -3.149813413619995117e-01 -6.455831695348024368e-03 -4.564369097352027893e-03
2.467000000000000000e+03 1.425977420806884766e+01 -7.214380264282226562e+00 5.442528054118156433e-02 -2.549319900572299957e-02 8.679624646902084351e-03 6.835207343101501465e-02
2.468000000000000000e+03 1.298613166809082031e+01 -1.157138061523437500e+01 2.770110070705413818e-01 1.396184861660003662e-01 1.249888464808464050e-01 2.331210523843765259e-01
2.469000000000000000e+03 3.468943405151367188e+01 -1.649240374565124512e+00 -4.128858566284179688e+00 4.951721191406250000e+00 2.468588203191757202e-01 3.008671760559082031e+00
2.470000000000000000e+03 1.751459312438964844e+01 -7.561193943023681641e+00 2.314657717943191528e-01 -2.500451505184173584e-01 -5.573808681219816208e-03 3.644184395670890808e-02
2.471000000000000000e+03 1.833211708068847656e+01 -6.593452453613281250e+00 1.728436946868896484e-01 -2.687885463237762451e-01 -2.878345735371112823e-02 -5.245016515254974365e-02
2.472000000000000000e+03 3.601908111572265625e+01 -1.662135887145996094e+01 -1.295803308486938477e+00 3.194511651992797852e+00 5.696125626564025879e-01 -9.542276859283447266e-01
2.473000000000000000e+03 1.149314022064208984e+01 6.106077194213867188e+00 1.380296889692544937e-04 2.255764957226347178e-05 4.817619992536492646e-05 -3.490259405225515366e-05
2.474000000000000000e+03 1.160950565338134766e+01 1.081908607482910156e+01 9.335766662843525410e-05 -1.986252391361631453e-05 2.204854172305203974e-05 2.924391628766898066e-05
2.475000000000000000e+03 6.432837963104248047e+00 1.150112247467041016e+01 2.195541674154810607e-05 -7.792061660438776016e-05 -1.678955959505401552e-05 -6.896449349369504489e-07
2.476000000000000000e+03 6.692642974853515625e+01 7.381469607353210449e-01 -4.302381873130798340e-01 7.348995655775070190e-02 -1.070244684815406799e-01 -2.425326853990554810e-01
2.477000000000000000e+03 2.322691154479980469e+01 -1.013599777221679688e+01 1.157266974449157715e+00 -7.345575094223022461e-01 1.268128305673599243e-01 3.899320662021636963e-01
2.478000000000000000e+03 2.237130928039550781e+01 -6.286684513092041016e+00 4.495607912540435791e-01 -5.539111495018005371e-01 -3.130511566996574402e-02 -4.291807413101196289e-01
2.479000000000000000e+03 8.849613189697265625e+00 1.396119308471679688e+01 1.113416947191581130e-04 -9.381756535731256008e-05 5.257239081402076408e-06 1.969077129615470767e-05
2.480000000000000000e+03 7.615050792694091797e+00 -7.958760261535644531e+00 -7.559334486722946167e-02 1.626392900943756104e-01 2.611378394067287445e-02 -1.086881458759307861e-01
2.481000000000000000e+03 3.737401199340820312e+01 -1.131222915649414062e+01 4.590933322906494141e-01 1.962710499763488770e+00 7.265411615371704102e-01 -1.776547193527221680e+00
2.482000000000000000e+03 2.702961730957031250e+01 -7.063567638397216797e+00 2.465477705001831055e+00 -1.186402916908264160e+00 3.837223947048187256e-01 -4.106734991073608398e-01
2.483000000000000000e+03 2.548570823669433594e+01 -6.104639053344726562e+00 1.073262810707092285e+00 -1.022732496261596680e+00 1.515908632427453995e-02 -9.383103251457214355e-01
2.484000000000000000e+03 2.756595993041992188e+01 -6.049040794372558594e+00 2.269487857818603516e+00 -1.265621185302734375e+00 3.011600077152252197e-01 -9.462476968765258789e-01
2.485000000000000000e+03 7.060877799987792969e+00 1.909070777893066406e+01 -5.337046604836359620e-05 -1.316764391958713531e-04 -5.551407230086624622e-05 1.305576151935383677e-04
2.486000000000000000e+03 8.221282958984375000e+00 -8.323122978210449219e+00 -6.798028200864791870e-02 1.926719993352890015e-01 3.740751370787620544e-02 -8.145418018102645874e-02
2.487000000000000000e+03 1.298218154907226562e+01 6.497775554656982422e+00 5.546585452975705266e-05 4.016335515188984573e-05 2.868876254069618881e-05 -1.683323898760136217e-05
2.488000000000000000e+03 7.442127227783203125e+00 2.478852272033691406e+01 9.515330020803958178e-05 -3.068007063120603561e-04 -6.349421892082318664e-05 -1.175324814539635554e-05
2.489000000000000000e+03 2.180872726440429688e+01 -7.800667285919189453e+00 7.012119293212890625e-01 -6.421942710876464844e-01 1.770528964698314667e-02 -1.606712490320205688e-01
2.490000000000000000e+03 2.242555999755859375e+01 -1.288569545745849609e+01 5.416229963302612305e-01 -4.137716889381408691e-01 3.835539147257804871e-02 6.334988474845886230e-01
2.491000000000000000e+03 7.249643707275390625e+01 1.331298160552978516e+01 2.838936448097229004e-02 -4.682893753051757812e-01 -1.319700032472610474e-01 -4.028399884700775146e-01
2.492000000000000000e+03 7.264369201660156250e+01 1.598164749145507812e+01 6.733565032482147217e-02 -5.612144470214843750e-01 -1.481636464595794678e-01 -3.650778234004974365e-01
2.493000000000000000e+03 3.745790481567382812e+01 -1.574769020080566406e+01 -7.499701380729675293e-01 2.865356683731079102e+00 6.346159577369689941e-01 -1.009738206863403320e+00
2.494000000000000000e+03 7.293682861328125000e+01 5.119930744171142578e+00 -1.099303737282752991e-01 -1.790672838687896729e-01 -8.669929951429367065e-02 -3.092016577720642090e-01
2.495000000000000000e+03 1.062740135192871094e+01 6.298730850219726562e+00 -1.308948558289557695e-04 -3.106108124484308064e-05 -4.858678221353329718e-05 -1.855012305895797908e-05
2.496000000000000000e+03 1.195063591003417969e+01 9.576891899108886719e+00 -1.088427234208211303e-04 -1.739898834784980863e-05 -3.787251262110657990e-05 -2.289989606651943177e-05
2.497000000000000000e+03 4.900502777099609375e+01 1.311736202239990234e+01 1.378803849220275879e+00 1.117346644401550293e+00 7.488451004028320312e-01 5.822970867156982422e-01
2.498000000000000000e+03 4.735950469970703125e+01 1.258912754058837891e+01 1.496904015541076660e+00 1.703042268753051758e+00 9.599838852882385254e-01 9.604470133781433105e-01
2.499000000000000000e+03 1.211921215057373047e+01 1.251970767974853516e+01 9.540044266032055020e-05 -4.149958476773463190e-05 1.617025736777577549e-05 3.397966793272644281e-05
2.500000000000000000e+03 4.076601409912109375e+01 -2.570635604858398438e+01 4.090341031551361084e-01 1.659685492515563965e+00 6.206158995628356934e-01 -4.384252727031707764e-01
2.501000000000000000e+03 1.376500701904296875e+01 -1.247512245178222656e+01 3.980245590209960938e-01 7.525260746479034424e-02 1.419831514358520508e-01 2.871465086936950684e-01
2.502000000000000000e+03 1.148259639739990234e+01 -7.613182067871093750e+00 -1.732609048485755920e-02 1.157668903470039368e-01 2.953224070370197296e-02 3.224800899624824524e-02
2.503000000000000000e+03 4.779907608032226562e+01 2.733431243896484375e+01 4.137312173843383789e-01 2.348737001419067383e+00 8.287404775619506836e-01 1.898651421070098877e-01
2.504000000000000000e+03 3.384167098999023438e+01 -1.152709102630615234e+01 -1.205425485968589783e-01 4.097828388214111328e+00 1.193185806274414062e+00 -1.204477548599243164e+00
2.505000000000000000e+03 7.267550659179687500e+01 2.136183166503906250e+01 9.332169592380523682e-02 -6.954149603843688965e-01 -1.806279867887496948e-01 -2.508037686347961426e-01
2.506000000000000000e+03 7.142234802246093750e+01 1.866276550292968750e+01 1.120747402310371399e-01 -5.535113215446472168e-01 -1.324309706687927246e-01 -3.397841155529022217e-01
2.507000000000000000e+03 7.168857574462890625e+01 5.182194709777832031e+00 -1.436231434345245361e-01 -1.470050215721130371e-01 -8.718845248222351074e-02 -3.464998304843902588e-01
2.508000000000000000e+03 7.166130828857421875e+01 3.833210229873657227e+00 -1.673398315906524658e-01 -1.082286387681961060e-01 -8.267053961753845215e-02 -3.036227226257324219e-01
2.509000000000000000e+03 7.384398651123046875e+01 -1.768895030021667480e+00 -8.348580449819564819e-02 -3.833572193980216980e-02 -3.654645755887031555e-02 -7.935868203639984131e-02
2.510000000000000000e+03 7.174813842773437500e+01 -1.819449543952941895e+00 -1.465843766927719116e-01 -1.478079147636890411e-02 -4.840955138206481934e-02 -9.539269655942916870e-02
2.511000000000000000e+03 1.044737720489501953e+01 1.642020606994628906e+01 -1.052036895998753607e-04 2.084478473989292979e-04 3.097324588452465832e-05 -5.553717710427008569e-05
2.512000000000000000e+03 6.118617534637451172e+00 2.480867958068847656e+01 -8.293081918964162469e-05 -1.546635903650894761e-04 -7.127832213882356882e-05 4.200903276796452701e-05
2.513000000000000000e+03 8.248913764953613281e+00 2.416551399230957031e+01 1.230478665092960000e-04 1.345488999504595995e-04 7.727902993792667985e-05 -3.308619125164113939e-05
2.514000000000000000e+03 6.197174072265625000e+00 -9.951403617858886719e+00 -4.684064164757728577e-02 1.878034621477127075e-01 4.228884726762771606e-02 -1.675522625446319580e-01
2.515000000000000000e+03 2.665534591674804688e+01 -1.191609764099121094e+01 1.109248638153076172e+00 -1.463594287633895874e-01 2.888667583465576172e-01 1.176722168922424316e+00
2.516000000000000000e+03 6.969480133056640625e+01 -6.254472732543945312e+00 -5.943911522626876831e-02 -1.230169460177421570e-02 -2.152224257588386536e-02 -4.625128582119941711e-03
2.517000000000000000e+03 7.307670593261718750e+01 -6.910237789154052734e+00 -2.862750738859176636e-02 -1.647601276636123657e-02 -1.353105623275041580e-02 -6.820941925980150700e-04
2.518000000000000000e+03 4.849259948730468750e+01 8.471484184265136719e+00 1.117236375808715820e+00 -6.284234672784805298e-02 3.163182139396667480e-01 -8.574432879686355591e-02
2.519000000000000000e+03 7.127824401855468750e+01 1.605924415588378906e+01 1.005358994007110596e-01 -4.932443201541900635e-01 -1.178125217556953430e-01 -4.015802741050720215e-01
2.520000000000000000e+03 8.789163589477539062e+00 1.801612281799316406e+01 3.479386505205184221e-04 -2.656836295500397682e-05 9.641108772484585643e-05 1.897727270261384547e-05
2.521000000000000000e+03 6.194556045532226562e+01 3.355680227279663086e+00 -7.233733534812927246e-01 7.561030983924865723e-02 -1.943289041519165039e-01 -5.190886855125427246e-01
2.522000000000000000e+03 6.053627777099609375e+01 3.592628955841064453e+00 -8.032875657081604004e-01 7.582089304924011230e-02 -2.182399928569793701e-01 -5.489398241043090820e-01
2.523000000000000000e+03 6.423551559448242188e+00 -7.981482028961181641e+00 -7.674346864223480225e-02 1.093802526593208313e-01 9.791035205125808716e-03 -1.577679961919784546e-01
2.524000000000000000e+03 7.070951938629150391e+00 -1.222539520263671875e+01 6.816655397415161133e-02 3.875642120838165283e-01 1.367192268371582031e-01 -6.161792576313018799e-02
2.525000000000000000e+03 6.302443504333496094e+00 1.011095809936523438e+01 2.203348776674829423e-05 -7.521543011534959078e-05 -1.595458161318674684e-05 -1.588389181961247232e-06
2.526000000000000000e+03 7.213359832763671875e+00 7.478986263275146484e+00 1.263652848138008267e-05 -1.272894296562299132e-04 -3.439587089815177023e-05 5.163567766430787742e-05
2.527000000000000000e+03 4.254886627197265625e+01 -2.914753723144531250e+01 1.082920879125595093e-01 1.238023400306701660e+00 4.038946330547332764e-01 -5.027598142623901367e-01
2.528000000000000000e+03 3.838652420043945312e+01 -3.161209297180175781e+01 -2.304054647684097290e-01 1.747167706489562988e+00 4.550286829471588135e-01 -2.351140230894088745e-01
2.529000000000000000e+03 6.463873291015625000e+01 2.749727725982666016e+00 -5.584987998008728027e-01 7.165238261222839355e-02 -1.460539251565933228e-01 -4.217937290668487549e-01
2.530000000000000000e+03 7.334154510498046875e+01 -5.384490966796875000e+00 -4.870065301656723022e-02 -1.992210187017917633e-02 -2.058682776987552643e-02 -1.324599888175725937e-02
2.531000000000000000e+03 7.493251323699951172e+00 1.013719177246093750e+01 3.416316030779853463e-05 -1.205501830554567277e-04 -2.591610791569110006e-05 3.325352736283093691e-05
2.532000000000000000e+03 6.956100940704345703e+00 1.077251338958740234e+01 4.617403646989259869e-06 7.746546907583251595e-05 2.462486190779600292e-05 -2.654636227816808969e-05
2.533000000000000000e+03 7.126866912841796875e+01 2.004159355163574219e+01 1.311623305082321167e-01 -5.707488656044006348e-01 -1.318759471178054810e-01 -3.071790039539337158e-01
2.534000000000000000e+03 5.179563140869140625e+01 7.653604984283447266e+00 7.900708913803100586e-02 -2.132917344570159912e-01 -4.028539359569549561e-02 -8.208596706390380859e-01
2.535000000000000000e+03 7.127078533172607422e+00 2.903820228576660156e+01 -1.290906511712819338e-04 -1.527173590147867799e-04 -8.454240014543756843e-05 5.916761438129469752e-05
2.536000000000000000e+03 1.173969745635986328e+01 3.423222351074218750e+01 5.894096102565526962e-04 -5.326850223354995251e-04 1.701738619885873049e-05 -1.027580234222114086e-03
2.537000000000000000e+03 5.956282043457031250e+01 5.411341667175292969e+00 -6.332603693008422852e-01 4.473695158958435059e-02 -1.765570342540740967e-01 -7.015872597694396973e-01
2.538000000000000000e+03 9.390748977661132812e+00 2.548394203186035156e+01 3.404735180083662271e-04 -4.580623499350622296e-05 8.840018563205376267e-05 -1.143837725976482034e-04
2.539000000000000000e+03 1.113299560546875000e+01 1.205193138122558594e+01 -9.665820834925398231e-05 6.877826672280207276e-05 -8.363980668946169317e-06 -3.983564965892583132e-05
2.540000000000000000e+03 6.639093875885009766e+00 1.296288108825683594e+01 8.808854909148067236e-05 -9.227887494489550591e-05 -1.257097324014466722e-06 -4.055912722833454609e-05
2.541000000000000000e+03 6.781051635742187500e+01 2.812598609924316406e+01 1.628170013427734375e-01 -3.064867556095123291e-01 -4.310092329978942871e-02 -9.758428484201431274e-02
2.542000000000000000e+03 7.102986145019531250e+01 2.486892509460449219e+01 1.314490437507629395e-01 -6.052252650260925293e-01 -1.421328634023666382e-01 -1.850650310516357422e-01
2.543000000000000000e+03 1.055386638641357422e+01 1.328639030456542969e+01 1.115586928790435195e-04 -1.102073802030645311e-04 4.053934219427901553e-07 3.551104964572004974e-05
2.544000000000000000e+03 2.979275894165039062e+01 -1.395803260803222656e+01 -2.564590871334075928e-01 9.047841429710388184e-01 1.944975107908248901e-01 6.832419633865356445e-01
2.545000000000000000e+03 6.516184997558593750e+01 2.966568565368652344e+01 1.961790621280670166e-01 -2.158992551267147064e-02 5.237674340605735779e-02 -3.190724551677703857e-02
2.546000000000000000e+03 6.941658782958984375e+01 2.771846199035644531e+01 1.422104239463806152e-01 -4.394690692424774170e-01 -8.917759358882904053e-02 -1.178672313690185547e-01
2.547000000000000000e+03 4.993734359741210938e+01 1.240858650207519531e+01 1.262352108955383301e+00 6.821040511131286621e-01 5.833368301391601562e-01 2.630925178527832031e-01
2.548000000000000000e+03 7.356863403320312500e+01 -3.193604278564453125e+01 -3.201081417500972748e-03 -2.508014149498194456e-04 -1.035564928315579891e-03 3.469342133030295372e-03
2.549000000000000000e+03 4.900046539306640625e+01 1.014067459106445312e+01 1.301575899124145508e+00 3.350642323493957520e-01 4.909920394420623779e-01 1.408913582563400269e-01
2.550000000000000000e+03 5.028416442871093750e+01 1.985308837890625000e+01 8.083276748657226562e-01 1.700276255607604980e+00 7.525811791419982910e-01 4.400202929973602295e-01
2.551000000000000000e+03 4.695879745483398438e+01 4.688327312469482422e+00 -6.454076170921325684e-01 -1.204453706741333008e+00 -5.549584031105041504e-01 -6.573470234870910645e-01
2.552000000000000000e+03 7.163595581054687500e+01 6.520924568176269531e+00 -1.202120035886764526e-01 -1.935858130455017090e-01 -9.413934499025344849e-02 -3.878477215766906738e-01
2.553000000000000000e+03 5.667518138885498047e+00 3.561151504516601562e+01 -1.776171411620453000e-04 1.767740177456289530e-04 -2.529346545543376124e-07 -1.214483563671819866e-04
2.554000000000000000e+03 7.545531272888183594e+00 3.262274932861328125e+01 2.517792454455047846e-04 -3.957851004088297486e-05 6.366022716974839568e-05 -2.916710509452968836e-04
2.555000000000000000e+03 5.727569580078125000e+01 7.517913341522216797e+00 -2.938899695873260498e-01 4.075174685567617416e-03 -8.694444596767425537e-02 -8.106597065925598145e-01
2.556000000000000000e+03 7.103671264648437500e+01 1.476135444641113281e+01 7.387456297874450684e-02 -4.475332796573638916e-01 -1.120976135134696960e-01 -4.342713356018066406e-01
2.557000000000000000e+03 7.099732971191406250e+01 1.186018848419189453e+01 1.227604039013385773e-02 -3.570219874382019043e-01 -1.034237891435623169e-01 -4.671430885791778564e-01
2.558000000000000000e+03 5.638314056396484375e+01 5.664976596832275391e+00 -7.500401735305786133e-01 3.195203840732574463e-02 -2.154264450073242188e-01 -8.096057176589965820e-01
2.559000000000000000e+03 8.363491058349609375e+00 2.797161483764648438e+01 3.122952766716480255e-04 1.321984454989433289e-04 1.333481195615604520e-04 -2.251767436973750591e-04
2.560000000000000000e+03 2.344157218933105469e+01 -1.289854526519775391e+01 5.533032417297363281e-01 -3.996865749359130859e-01 4.608500376343727112e-02 7.685509920120239258e-01
2.561000000000000000e+03 4.715594482421875000e+01 -3.011529350280761719e+01 1.065619215369224548e-01 5.746358633041381836e-01 2.043593227863311768e-01 -3.509944081306457520e-01
2.562000000000000000e+03 7.260054779052734375e+01 2.397302436828613281e+01 9.870321303606033325e-02 -7.264054417610168457e-01 -1.883106678724288940e-01 -1.920615732669830322e-01
2.563000000000000000e+03 7.027557373046875000e+01 1.858612632751464844e+01 1.330923736095428467e-01 -4.971720278263092041e-01 -1.092238947749137878e-01 -3.593475222587585449e-01
2.564000000000000000e+03 9.738203048706054688e+00 1.746889686584472656e+01 -5.428939039120450616e-05 -2.101487189065665007e-04 -7.933143206173554063e-05 1.375474967062473297e-04
2.565000000000000000e+03 4.038465881347656250e+01 -3.447198867797851562e+01 -3.214593231678009033e-01 1.445688962936401367e+00 3.372688889503479004e-01 -2.634770870208740234e-01
2.566000000000000000e+03 4.840990066528320312e+01 1.742448997497558594e+01 9.303030371665954590e-01 2.114983558654785156e+00 9.135859608650207520e-01 6.946521401405334473e-01
2.567000000000000000e+03 5.005392456054687500e+01 1.847861862182617188e+01 9.014307856559753418e-01 1.682487607002258301e+00 7.751755118370056152e-01 4.914657473564147949e-01
2.568000000000000000e+03 7.916102886199951172e+00 3.036333656311035156e+01 3.424515598453581333e-04 2.653829869814217091e-05 1.106969575630500913e-04 -2.610911324154585600e-04
2.569000000000000000e+03 6.978463745117187500e+01 3.544654083251953125e+01 5.466535314917564392e-02 -4.540479481220245361e-01 -1.198147833347320557e-01 -1.488056592643260956e-02
2.570000000000000000e+03 1.094958686828613281e+01 2.663393592834472656e+01 3.606566460803151131e-04 1.107408097595907748e-04 1.414192374795675278e-04 -1.198635800392366946e-04
2.571000000000000000e+03 1.662344551086425781e+01 -1.222131347656250000e+01 4.138745367527008057e-01 -1.935409158468246460e-01 6.610009074211120605e-02 2.874117493629455566e-01
2.572000000000000000e+03 1.192861652374267578e+01 3.752120590209960938e+01 -4.013386205770075321e-05 1.125981725635938346e-04 2.173929351556580514e-05 -1.228551147505640984e-03
2.573000000000000000e+03 4.965309143066406250e+01 1.616594505310058594e+01 1.071087479591369629e+00 1.473080873489379883e+00 7.632505297660827637e-01 5.336704254150390625e-01
2.574000000000000000e+03 4.839001846313476562e+01 1.603508567810058594e+01 1.088911771774291992e+00 1.924111604690551758e+00 9.039070010185241699e-01 7.493535876274108887e-01
2.575000000000000000e+03 6.698808288574218750e+01 1.999190568923950195e+00 -4.233795106410980225e-01 4.647873342037200928e-02 -1.130702346563339233e-01 -3.318765461444854736e-01
2.576000000000000000e+03 4.929243087768554688e+01 5.681718349456787109e+00 -4.795777797698974609e-01 -6.634570956230163574e-01 -3.429104685783386230e-01 -1.102110862731933594e+00
2.577000000000000000e+03 7.153295135498046875e+01 -3.900969314575195312e+01 6.960257887840270996e-03 -5.578295327723026276e-03 4.145888087805360556e-04 6.581172347068786621e-03
2.578000000000000000e+03 3.702338790893554688e+01 -1.342126178741455078e+01 -3.264747560024261475e-01 2.575637340545654297e+00 6.747487783432006836e-01 -1.608439445495605469e+00
2.579000000000000000e+03 9.912592887878417969e+00 -6.374702930450439453e+00 -9.473069012165069580e-02 1.226233765482902527e-01 8.367807604372501373e-03 -3.676423430442810059e-02
2.580000000000000000e+03 3.503572845458984375e+01 -1.026503467559814453e+01 6.468627452850341797e-01 3.949904918670654297e+00 1.379030346870422363e+00 -2.226008176803588867e+00
2.581000000000000000e+03 3.461339950561523438e+01 -1.049442768096923828e+01 4.163961112499237061e-01 4.354080677032470703e+00 1.431142926216125488e+00 -1.963226795196533203e+00
2.582000000000000000e+03 3.255590057373046875e+01 -9.969698905944824219e+00 8.356227278709411621e-01 5.374641418457031250e+00 1.863079309463500977e+00 5.483211278915405273e-01
2.583000000000000000e+03 3.140099334716796875e+01 -9.750069618225097656e+00 1.798267006874084473e+00 3.943662881851196289e+00 1.722579002380371094e+00 1.551740765571594238e+00
2.584000000000000000e+03 3.304513168334960938e+01 -1.002087497711181641e+01 5.250140428543090820e-01 5.778665542602539062e+00 1.891103863716125488e+00 -1.625161617994308472e-01
2.585000000000000000e+03 3.340569305419921875e+01 -1.371234607696533203e+01 -7.568540573120117188e-01 2.760789632797241211e+00 6.011806726455688477e-01 -1.063394665718078613e+00
2.586000000000000000e+03 7.824335575103759766e+00 7.173671722412109375e+00 -2.236422733403742313e-05 1.287710183532908559e-04 3.192203439539298415e-05 -1.790405440260656178e-05
2.587000000000000000e+03 9.775552749633789062e+00 6.353299617767333984e+00 8.541545685147866607e-05 5.778924241894856095e-05 4.296141196391545236e-05 3.226013723178766668e-05
2.588000000000000000e+03 3.320848846435546875e+01 -1.305424976348876953e+01 -5.832494497299194336e-01 3.035825967788696289e+00 7.357729673385620117e-01 -9.139043092727661133e-01
2.589000000000000000e+03 1.104446506500244141e+01 -6.567867279052734375e+00 -6.701875478029251099e-02 9.955237805843353271e-02 9.760085493326187134e-03 -2.007233677431941032e-03
2.590000000000000000e+03 3.427845382690429688e+01 -2.613736629486083984e+00 -3.265899896621704102e+00 5.721111297607421875e+00 7.365635037422180176e-01 3.394193410873413086e+00
2.591000000000000000e+03 7.081303405761718750e+01 -6.615604400634765625e+00 -4.312064871191978455e-02 -1.615314185619354248e-02 -1.778213679790496826e-02 -9.376714006066322327e-04
2.592000000000000000e+03 2.998269653320312500e+01 -9.426323890686035156e+00 2.744979143142700195e+00 1.858756303787231445e+00 1.381120681762695312e+00 1.803957104682922363e+00
2.593000000000000000e+03 9.943967819213867188e+00 8.247066497802734375e+00 7.266765169333666563e-05 5.341335418052040040e-05 3.782430212595500052e-05 -1.677785439824219793e-05
2.594000000000000000e+03 1.252309894561767578e+01 -7.050313472747802734e+00 -1.424994412809610367e-02 6.446515768766403198e-02 1.506456360220909119e-02 4.279959946870803833e-02
2.595000000000000000e+03 3.551818466186523438e+01 -1.477305126190185547e+01 -9.735518693923950195e-01 2.867488145828247070e+00 5.681808590888977051e-01 -1.460222363471984863e+00
2.596000000000000000e+03 3.524393463134765625e+01 -2.747042655944824219e+00 -2.252402544021606445e+00 5.343199729919433594e+00 9.272391796112060547e-01 3.963840007781982422e+00
2.597000000000000000e+03 2.873580932617187500e+01 -8.258168220520019531e+00 3.566705703735351562e+00 -1.767484992742538452e-01 1.016987085342407227e+00 9.614785909652709961e-01
2.598000000000000000e+03 2.764853286743164062e+01 -1.256760787963867188e+01 7.908905148506164551e-01 2.355407774448394775e-01 3.079293966293334961e-01 1.225139260292053223e+00
2.599000000000000000e+03 1.422984504699707031e+01 -8.023581504821777344e+00 1.014633998274803162e-01 -1.716883666813373566e-02 2.528836950659751892e-02 9.502770751714706421e-02
2.600000000000000000e+03 8.639014244079589844e+00 -6.741064071655273438e+00 -9.530922025442123413e-02 1.287403702735900879e-01 1.002934761345386505e-02 -7.414703816175460815e-02
2.601000000000000000e+03 7.838712692260742188e+00 -6.928322315216064453e+00 -9.254105389118194580e-02 1.274606883525848389e-01 1.047589164227247238e-02 -1.053149774670600891e-01
2.602000000000000000e+03 3.599488449096679688e+01 -1.010475730895996094e+01 1.062584400177001953e+00 2.730859279632568359e+00 1.138033151626586914e+00 -2.291502237319946289e+00
2.603000000000000000e+03 2.903045272827148438e+01 -7.575037479400634766e+00 3.962296247482299805e+00 -2.817962169647216797e-01 1.104150056838989258e+00 6.967451572418212891e-01
2.604000000000000000e+03 2.682330322265625000e+01 -9.048814773559570312e+00 2.381163835525512695e+00 -7.062627673149108887e-01 5.024703741073608398e-01 6.605222225189208984e-01
2.605000000000000000e+03 3.396914672851562500e+01 -1.508948802947998047e+01 -1.239413857460021973e+00 2.510692119598388672e+00 3.813834786415100098e-01 -1.339452028274536133e+00
2.606000000000000000e+03 1.574882221221923828e+01 -7.205950260162353516e+00 1.127812787890434265e-01 -1.207784861326217651e-01 -2.399163087829947472e-03 5.767278373241424561e-02
2.607000000000000000e+03 1.343159580230712891e+01 -9.076509475708007812e+00 1.392436176538467407e-01 4.830557852983474731e-02 5.626476183533668518e-02 1.376172751188278198e-01
2.608000000000000000e+03 1.543700981140136719e+01 -7.828480720520019531e+00 1.408142745494842529e-01 -9.725422412157058716e-02 1.306801196187734604e-02 8.561126142740249634e-02
2.609000000000000000e+03 1.932926940917968750e+01 -7.352962970733642578e+00 3.391399979591369629e-01 -3.845774829387664795e-01 -1.363124605268239975e-02 -5.629054829478263855e-02
2.610000000000000000e+03 9.694243431091308594e+00 -7.339541912078857422e+00 -6.971242278814315796e-02 1.549795269966125488e-01 2.558013424277305603e-02 -3.076599910855293274e-02
2.611000000000000000e+03 2.458563995361328125e+01 -7.286804199218750000e+00 1.323182821273803711e+00 -9.724027514457702637e-01 1.052340120077133179e-01 -4.110979437828063965e-01
2.612000000000000000e+03 2.166386413574218750e+01 -7.071029663085937500e+00 5.526636838912963867e-01 -5.661398172378540039e-01 -4.042841959744691849e-03 -2.444101572036743164e-01
2.613000000000000000e+03 3.722011184692382812e+01 -1.450308990478515625e+01 -5.473048686981201172e-01 2.700335502624511719e+00 6.459091901779174805e-01 -1.371669411659240723e+00
2.614000000000000000e+03 1.973617553710937500e+01 -8.953338623046875000e+00 5.309661030769348145e-01 -4.680154025554656982e-01 1.888521760702133179e-02 9.252905100584030151e-02
2.615000000000000000e+03 2.840860176086425781e+01 -7.397812366485595703e+00 3.537271738052368164e+00 -6.799243092536926270e-01 8.572042584419250488e-01 3.042036890983581543e-01
2.616000000000000000e+03 1.706725883483886719e+01 -1.139649772644042969e+01 4.184122085571289062e-01 -2.345441579818725586e-01 5.516041442751884460e-02 2.646632194519042969e-01
2.617000000000000000e+03 1.098857593536376953e+01 8.280832290649414062e+00 -7.842550257919356227e-05 -7.222864951472729445e-05 -4.519624417298473418e-05 4.328718659962760285e-06
2.618000000000000000e+03 6.977349090576171875e+01 -3.461010456085205078e+00 -1.609341949224472046e-01 5.225404631346464157e-03 -4.671263694763183594e-02 -4.220571368932723999e-02
2.619000000000000000e+03 7.187241363525390625e+01 -2.980590343475341797e+00 -1.161990389227867126e-01 -1.850844547152519226e-02 -4.041224718093872070e-02 -5.846694484353065491e-02
2.620000000000000000e+03 9.030645370483398438e+00 2.251241874694824219e+01 2.701486519072204828e-04 9.135760046774521470e-05 1.084518735297024250e-04 -9.090421372093260288e-05
2.621000000000000000e+03 1.976831626892089844e+01 -1.149655055999755859e+01 5.700983405113220215e-01 -4.287921488285064697e-01 4.239186272025108337e-02 3.436412811279296875e-01
2.622000000000000000e+03 2.240122604370117188e+01 -1.187032413482666016e+01 7.226998805999755859e-01 -5.212533473968505859e-01 6.043395027518272400e-02 5.801005959510803223e-01
2.623000000000000000e+03 2.733080291748046875e+01 -1.111231327056884766e+01 1.592599153518676758e+00 1.409922260791063309e-02 4.820095002651214600e-01 1.232783794403076172e+00
2.624000000000000000e+03 3.740826034545898438e+01 -1.269343662261962891e+01 -2.060794271528720856e-02 2.278087377548217773e+00 6.772438287734985352e-01 -1.653534889221191406e+00
2.625000000000000000e+03 2.332757186889648438e+01 -1.189747428894042969e+01 8.351683020591735840e-01 -5.351982712745666504e-01 8.999099582433700562e-02 6.791276335716247559e-01
2.626000000000000000e+03 2.380648231506347656e+01 -7.107227802276611328e+00 9.972369670867919922e-01 -8.530894517898559570e-01 4.324425011873245239e-02 -4.257457256317138672e-01
2.627000000000000000e+03 6.330649566650390625e+01 3.074806928634643555e+00 -6.294910311698913574e-01 8.342430740594863892e-02 -1.638200283050537109e-01 -4.667591750621795654e-01
2.628000000000000000e+03 3.766373825073242188e+01 -1.379218006134033203e+01 -3.297329545021057129e-01 2.461600780487060547e+00 6.395604014396667480e-01 -1.408119320869445801e+00
2.629000000000000000e+03 7.190768432617187500e+01 -6.571267604827880859e+00 -4.067808389663696289e-02 -1.954702846705913544e-02 -1.806753315031528473e-02 -3.404838498681783676e-03
2.630000000000000000e+03 1.152468872070312500e+01 -1.058625793457031250e+01 1.427319347858428955e-01 2.241287380456924438e-01 1.100582033395767212e-01 1.560517102479934692e-01
2.631000000000000000e+03 1.248935794830322266e+01 -1.060425853729248047e+01 1.965769827365875244e-01 1.592990010976791382e-01 1.067627966403961182e-01 1.852942854166030884e-01
2.632000000000000000e+03 3.168651390075683594e+01 -1.384945392608642578e+01 -5.528410673141479492e-01 1.790415287017822266e+00 3.712722659111022949e-01 -2.306021451950073242e-01
2.633000000000000000e+03 6.789718627929687500e+01 5.049359798431396484e+00 -2.823391854763031006e-01 -5.221606418490409851e-02 -1.003665775060653687e-01 -4.638643562793731689e-01
2.634000000000000000e+03 4.844015502929687500e+01 1.216218948364257812e+01 1.456297397613525391e+00 1.089075207710266113e+00 7.636117935180664062e-01 6.374211311340332031e-01
2.635000000000000000e+03 1.786170005798339844e+01 -1.181788349151611328e+01 4.438850581645965576e-01 -2.901532948017120361e-01 4.611952975392341614e-02 2.990836501121520996e-01
2.636000000000000000e+03 1.380122947692871094e+01 -1.099697303771972656e+01 2.767031490802764893e-01 4.951547458767890930e-02 9.786558896303176880e-02 2.293638288974761963e-01
2.637000000000000000e+03 1.234984302520751953e+01 -9.724479675292968750e+00 1.138915941119194031e-01 1.461157202720642090e-01 7.800219953060150146e-02 1.368134021759033203e-01
2.638000000000000000e+03 2.426782035827636719e+01 -1.180438613891601562e+01 9.536787867546081543e-01 -5.124711394309997559e-01 1.323622912168502808e-01 7.992361783981323242e-01
2.639000000000000000e+03 2.473389625549316406e+01 -6.420055389404296875e+00 1.089636564254760742e+00 -9.590605497360229492e-01 3.917280584573745728e-02 -6.975400447845458984e-01
2.640000000000000000e+03 6.815220832824707031e+00 9.406736373901367188e+00 -5.405820047599263489e-05 1.070371363312005997e-04 1.589368002896662802e-05 -3.444718231548904441e-06
2.641000000000000000e+03 7.335340023040771484e+00 8.786033630371093750e+00 6.239501090021803975e-05 -1.276246912311762571e-04 -1.956890446308534592e-05 2.232965016446541995e-05
2.642000000000000000e+03 7.061031341552734375e+01 -4.610318839550018311e-01 -2.092913389205932617e-01 -4.012305755168199539e-03 -6.399109214544296265e-02 -1.494888514280319214e-01
2.643000000000000000e+03 6.811721038818359375e+01 -7.549046874046325684e-01 -3.344710767269134521e-01 5.643932521343231201e-02 -8.340952545404434204e-02 -1.440115571022033691e-01
2.644000000000000000e+03 2.987885665893554688e+01 -1.304347896575927734e+01 1.843551248311996460e-01 1.250783681869506836e+00 4.305416345596313477e-01 8.624225854873657227e-01
2.645000000000000000e+03 2.941444778442382812e+01 -1.108613014221191406e+01 1.451431632041931152e+00 1.326666474342346191e+00 8.334294557571411133e-01 1.392431497573852539e+00
2.646000000000000000e+03 8.728119850158691406e+00 -1.177066421508789062e+01 1.077518463134765625e-01 3.927333354949951172e-01 1.501455605030059814e-01 4.689266905188560486e-02
2.647000000000000000e+03 2.669873428344726562e+01 -6.384168148040771484e+00 2.023426055908203125e+00 -1.250357270240783691e+00 2.319206446409225464e-01 -7.629629373550415039e-01
2.648000000000000000e+03 6.993099975585937500e+01 1.973012924194335938e+01 1.614868938922882080e-01 -4.800260066986083984e-01 -9.556172788143157959e-02 -3.289625942707061768e-01
2.649000000000000000e+03 7.148568725585937500e+01 9.155059814453125000e+00 -6.111586093902587891e-02 -2.826885581016540527e-01 -1.031413227319717407e-01 -4.379004538059234619e-01
2.650000000000000000e+03 7.171404266357421875e+01 1.598040699958801270e+00 -1.817999631166458130e-01 -5.449708551168441772e-02 -7.088911533355712891e-02 -2.203443795442581177e-01
2.651000000000000000e+03 9.607512474060058594e+00 -9.806541442871093750e+00 2.652146853506565094e-02 2.628177702426910400e-01 8.680177479982376099e-02 2.866326272487640381e-02
2.652000000000000000e+03 6.666605949401855469e+00 -9.229502677917480469e+00 -5.569097772240638733e-02 1.815453320741653442e-01 3.775630891323089600e-02 -1.433202177286148071e-01
2.653000000000000000e+03 2.546514320373535156e+01 -1.026101112365722656e+01 1.617278099060058594e+00 -6.796447038650512695e-01 2.812900245189666748e-01 7.151853442192077637e-01
2.654000000000000000e+03 1.511454010009765625e+01 -1.103706073760986328e+01 3.288012146949768066e-01 -7.354801893234252930e-02 7.657595723867416382e-02 2.394733726978302002e-01
2.655000000000000000e+03 7.173986053466796875e+01 -5.631543993949890137e-01 -1.621473282575607300e-01 -3.282941132783889771e-02 -5.849302187561988831e-02 -1.387601196765899658e-01
2.656000000000000000e+03 2.151814270019531250e+01 -1.079079627990722656e+01 7.715895771980285645e-01 -5.783373713493347168e-01 5.797565355896949768e-02 3.838612735271453857e-01
2.657000000000000000e+03 2.149862480163574219e+01 -1.178334045410156250e+01 6.801707148551940918e-01 -5.036385655403137207e-01 5.295965820550918579e-02 4.786342680454254150e-01
2.658000000000000000e+03 6.946089172363281250e+01 1.518262863159179688e+01 1.179476901888847351e-01 -3.833258450031280518e-01 -7.961344718933105469e-02 -4.606808722019195557e-01
2.659000000000000000e+03 9.966724395751953125e+00 1.454573059082031250e+01 -1.383979106321930885e-04 1.337972935289144516e-04 -1.380183334731555078e-06 -2.795120781229343265e-05
2.660000000000000000e+03 7.552127361297607422e+00 1.143569087982177734e+01 -6.899782601976767182e-05 -6.315790960798040032e-05 -3.964671850553713739e-05 7.004067447269335389e-05
2.661000000000000000e+03 8.247581481933593750e+00 2.545935821533203125e+01 6.368203685269691050e-06 1.649359619477763772e-04 5.139124914421699941e-05 -1.838705065893009305e-05
2.662000000000000000e+03 7.058730602264404297e+00 1.441875267028808594e+01 -4.727740088128484786e-05 -1.192289928440004587e-04 -4.995191920897923410e-05 1.312500444328179583e-05
2.663000000000000000e+03 7.912287712097167969e+00 1.227716255187988281e+01 1.342212490271776915e-04 7.244463631650432944e-05 6.199976633070036769e-05 -7.933965389383956790e-05
2.664000000000000000e+03 7.963431358337402344e+00 2.005292892456054688e+01 2.282100322190672159e-04 1.570170279592275620e-04 1.155681165982969105e-04 -4.814996646018698812e-05
2.665000000000000000e+03 6.931404590606689453e+00 2.103040695190429688e+01 -1.833735004765912890e-04 -1.341804018011316657e-04 -9.526617213850840926e-05 2.274630901411001105e-07
2.666000000000000000e+03 7.487857818603515625e+00 -9.774190902709960938e+00 -3.582128137350082397e-02 2.501153349876403809e-01 6.428822129964828491e-02 -9.451808035373687744e-02
2.667000000000000000e+03 8.323736190795898438e+00 -1.029338741302490234e+01 9.280949831008911133e-03 2.970825135707855225e-01 9.190903604030609131e-02 -2.935571223497390747e-02
2.668000000000000000e+03 7.288135528564453125e+01 -2.950698137283325195e+00 -9.247401356697082520e-02 -2.294427901506423950e-02 -3.462548926472663879e-02 -5.885375291109085083e-02
2.669000000000000000e+03 7.280449676513671875e+01 -1.801630973815917969e+00 -1.099531576037406921e-01 -3.439739346504211426e-02 -4.330516606569290161e-02 -8.803209662437438965e-02
2.670000000000000000e+03 7.694452285766601562e+00 1.785807037353515625e+01 -8.848652942106127739e-05 9.111837425734847784e-05 7.895529279267066158e-07 -1.263927260879427195e-04
2.671000000000000000e+03 6.948704528808593750e+01 -2.081432104110717773e+00 -2.131288945674896240e-01 1.843595877289772034e-02 -5.840788036584854126e-02 -8.672460168600082397e-02
2.672000000000000000e+03 7.022047424316406250e+01 -4.736566066741943359e+00 -1.031003370881080627e-01 -5.745440721511840820e-03 -3.265373408794403076e-02 -1.624602451920509338e-02
2.673000000000000000e+03 7.014042663574218750e+01 -7.228943347930908203e+00 -2.305315621197223663e-02 -1.485404558479785919e-02 -1.137216016650199890e-02 2.902393171098083258e-04
2.674000000000000000e+03 5.983512878417968750e+00 2.387417030334472656e+01 1.566295541124418378e-04 -4.625435758498497307e-05 3.311255932203494012e-05 -9.838446567300707102e-05
2.675000000000000000e+03 7.597126007080078125e+00 2.194320678710937500e+01 2.263956412207335234e-04 1.353323605144396424e-04 1.085183976101689041e-04 -4.109432120458222926e-05
2.676000000000000000e+03 7.252905273437500000e+01 -4.718117237091064453e+00 -6.777596473693847656e-02 -1.744733005762100220e-02 -2.556698955595493317e-02 -2.405500039458274841e-02
2.677000000000000000e+03 7.121566009521484375e+01 -4.341727256774902344e+00 -9.792595356702804565e-02 -1.138068176805973053e-02 -3.279199078679084778e-02 -2.794077247381210327e-02
2.678000000000000000e+03 8.423019409179687500e+00 1.534157943725585938e+01 -1.520923251518979669e-04 5.895606227568350732e-05 -2.794087777147069573e-05 -5.865228740731254220e-05
2.679000000000000000e+03 6.204442977905273438e+01 4.633863449096679688e+00 -5.922201871871948242e-01 5.766218528151512146e-02 -1.603673994541168213e-01 -5.988476872444152832e-01
2.680000000000000000e+03 6.071186065673828125e+01 5.918240070343017578e+00 -4.755126833915710449e-01 2.857469767332077026e-02 -1.340813934803009033e-01 -7.060975432395935059e-01
2.681000000000000000e+03 9.605577468872070312e+00 3.321321105957031250e+01 3.516898723319172859e-04 -2.029339375440031290e-04 4.462678771233186126e-05 -4.649256879929453135e-04
2.682000000000000000e+03 1.778529739379882812e+01 -9.999613761901855469e+00 4.269839227199554443e-01 -3.052061200141906738e-01 3.653334453701972961e-02 2.000046372413635254e-01
2.683000000000000000e+03 7.036052703857421875e+01 6.518991470336914062e+00 -1.538510769605636597e-01 -1.530084013938903809e-01 -9.205784648656845093e-02 -4.282677471637725830e-01
2.684000000000000000e+03 1.021634769439697266e+01 1.155319786071777344e+01 7.786783680785447359e-05 -9.343974670628085732e-05 -4.671573151426855475e-06 3.699466105899773538e-05
2.685000000000000000e+03 8.695606231689453125e+00 1.024950122833251953e+01 6.194534216774627566e-05 -1.551573514007031918e-04 -2.796360422507859766e-05 1.934386455104686320e-05
2.686000000000000000e+03 4.846751022338867188e+01 1.114595413208007812e+01 1.465285778045654297e+00 8.140493035316467285e-01 6.838005185127258301e-01 4.994786679744720459e-01
2.687000000000000000e+03 6.820869445800781250e+01 2.648997306823730469e+01 1.907400488853454590e-01 -3.370647132396697998e-01 -4.389739781618118286e-02 -1.303939968347549438e-01
2.688000000000000000e+03 5.707396316528320312e+01 8.625961303710937500e+00 -5.470098555088043213e-02 -3.772223740816116333e-02 -2.772696688771247864e-02 -7.926515936851501465e-01
2.689000000000000000e+03 5.505331039428710938e+01 7.864035606384277344e+00 -1.682535558938980103e-01 -5.485304817557334900e-02 -6.693198531866073608e-02 -8.323596715927124023e-01
2.690000000000000000e+03 7.037481689453125000e+01 2.627196311950683594e+01 1.329388916492462158e-01 -5.497397184371948242e-01 -1.250402480363845825e-01 -1.532225608825683594e-01
2.691000000000000000e+03 9.179480552673339844e+00 1.925144767761230469e+01 -3.290794556960463524e-04 -8.345739479409530759e-05 -1.237610558746382594e-04 1.541440542496275157e-05
2.692000000000000000e+03 5.278667068481445312e+01 8.536896705627441406e+00 2.180156707763671875e-01 -6.647452712059020996e-02 4.546234384179115295e-02 -7.369126677513122559e-01
2.693000000000000000e+03 1.081471347808837891e+01 -9.279106140136718750e+00 4.357507824897766113e-02 2.007258087396621704e-01 7.329026609659194946e-02 6.998722255229949951e-02
2.694000000000000000e+03 1.198892402648925781e+01 2.944508171081542969e+01 3.747654554899781942e-04 2.930964401457458735e-04 2.003585686907172203e-04 -1.226853928528726101e-04
2.695000000000000000e+03 1.268336105346679688e+01 3.056318473815917969e+01 1.691887737251818180e-04 -7.483953959308564663e-04 -1.737619895720854402e-04 -4.834996798308566213e-05
2.696000000000000000e+03 7.132656860351562500e+01 2.142045402526855469e+01 1.253839731216430664e-01 -5.949146151542663574e-01 -1.408592015504837036e-01 -2.704661786556243896e-01
2.697000000000000000e+03 7.010667419433593750e+01 2.199475669860839844e+01 1.565290838479995728e-01 -5.115506052970886230e-01 -1.065064519643783569e-01 -2.667778134346008301e-01
2.698000000000000000e+03 6.589900970458984375e+01 2.380148172378540039e+00 -4.810663461685180664e-01 6.938666850328445435e-02 -1.235039085149765015e-01 -3.652228415012359619e-01
2.699000000000000000e+03 2.518260765075683594e+01 -1.152895641326904297e+01 1.199825048446655273e+00 -4.945526123046875000e-01 2.115817219018936157e-01 9.037311077117919922e-01
2.700000000000000000e+03 2.534941864013671875e+01 -7.687310218811035156e+00 1.689509510993957520e+00 -1.060364723205566406e+00 1.887434273958206177e-01 -2.712281048297882080e-01
2.701000000000000000e+03 4.326673889160156250e+01 -3.054878234863281250e+01 3.605589270591735840e-02 1.163511514663696289e+00 3.598702251911163330e-01 -4.658730924129486084e-01
2.702000000000000000e+03 7.152083587646484375e+01 2.369089889526367188e+01 1.183753684163093567e-01 -6.371381282806396484e-01 -1.556288301944732666e-01 -2.103030532598495483e-01
2.703000000000000000e+03 7.161219787597656250e+01 2.263331031799316406e+01 1.221087276935577393e-01 -6.337931752204895020e-01 -1.535053253173828125e-01 -2.364329099655151367e-01
2.704000000000000000e+03 4.843302917480468750e+01 5.769089221954345703e+00 -2.581379115581512451e-01 -7.175635099411010742e-01 -2.927104234695434570e-01 -8.066367506980895996e-01
2.705000000000000000e+03 4.908337783813476562e+01 7.410482406616210938e+00 5.491220951080322266e-01 -3.134167194366455078e-01 7.071162015199661255e-02 -5.189951062202453613e-01
2.706000000000000000e+03 8.744174957275390625e+00 1.182838439941406250e+01 1.065081141859991476e-05 -1.680140994722023606e-04 -4.720898505183868110e-05 7.727769843768328428e-05
2.707000000000000000e+03 5.370477294921875000e+01 9.363140106201171875e+00 3.315049707889556885e-01 -4.407941550016403198e-02 8.622767031192779541e-02 -6.653032898902893066e-01
2.708000000000000000e+03 6.205137634277343750e+01 5.984419345855712891e+00 -4.557897150516510010e-01 1.316150184720754623e-02 -1.327884644269943237e-01 -6.733517050743103027e-01
2.709000000000000000e+03 6.997542572021484375e+01 1.638387680053710938e+01 1.365410089492797852e-01 -4.316047430038452148e-01 -8.851911872625350952e-02 -4.263349771499633789e-01
2.710000000000000000e+03 5.652388000488281250e+01 9.250293731689453125e+00 7.652815431356430054e-02 -3.868703916668891907e-02 1.135233510285615921e-02 -7.524136304855346680e-01
2.711000000000000000e+03 9.908995628356933594e+00 3.093353652954101562e+01 4.704502935055643320e-04 2.600521656859200448e-05 1.489366550231352448e-04 -4.151158791501075029e-04
2.712000000000000000e+03 6.969812774658203125e+01 1.138880062103271484e+01 5.398990120738744736e-03 -2.991198301315307617e-01 -8.811625093221664429e-02 -5.052866339683532715e-01
2.713000000000000000e+03 7.028611755371093750e+01 7.824507713317871094e+00 -1.147747039794921875e-01 -2.009243965148925781e-01 -9.470973163843154907e-02 -4.649575352668762207e-01
2.714000000000000000e+03 7.106253051757812500e+01 2.875712394714355469e+00 -1.977376192808151245e-01 -7.018373161554336548e-02 -8.037640154361724854e-02 -2.847043275833129883e-01
2.715000000000000000e+03 4.605573272705078125e+01 -3.402114105224609375e+01 -7.825752347707748413e-02 8.107998967170715332e-01 2.197626978158950806e-01 -3.085066676139831543e-01
2.716000000000000000e+03 9.400086402893066406e+00 1.095977020263671875e+01 -6.288818985922262073e-05 1.337464636890217662e-04 2.125748142134398222e-05 -2.112277434207499027e-05
2.717000000000000000e+03 4.955230712890625000e+01 9.130095481872558594e+00 9.945764541625976562e-01 4.352929443120956421e-02 3.114317059516906738e-01 -1.896391361951828003e-01
2.718000000000000000e+03 7.058838653564453125e+01 3.973470449447631836e+00 -2.106304615736007690e-01 -8.171817660331726074e-02 -8.770459145307540894e-02 -3.453941643238067627e-01
2.719000000000000000e+03 6.994937133789062500e+01 2.447498083114624023e+00 -2.567569017410278320e-01 -2.780664712190628052e-02 -8.536905795335769653e-02 -2.898675203323364258e-01
2.720000000000000000e+03 4.277780914306640625e+01 -3.569794845581054688e+01 -2.696416974067687988e-01 1.188886284828186035e+00 2.757733762264251709e-01 -2.600477933883666992e-01
2.721000000000000000e+03 6.481422424316406250e+01 4.130265235900878906e+00 -4.673739969730377197e-01 4.340906813740730286e-02 -1.271894723176956177e-01 -5.043184757232666016e-01
2.722000000000000000e+03 5.056065368652343750e+01 2.677180480957031250e+01 4.675528109073638916e-01 1.803435087203979492e+00 6.812963485717773438e-01 2.598608136177062988e-01
2.723000000000000000e+03 6.690959930419921875e+01 3.547107315063476562e+01 6.751492619514465332e-02 -1.414290368556976318e-01 -2.217423543334007263e-02 -4.272405058145523071e-03
2.724000000000000000e+03 5.059787750244140625e+01 1.331478881835937500e+01 1.204231739044189453e+00 7.386541366577148438e-01 5.828657746315002441e-01 2.376034259796142578e-01
2.725000000000000000e+03 5.552330780029296875e+01 8.670641899108886719e+00 -1.027741748839616776e-02 -6.177076697349548340e-02 -2.161445468664169312e-02 -7.868204116821289062e-01
2.726000000000000000e+03 1.035543727874755859e+01 3.481554794311523438e+01 -3.823669103439897299e-04 5.027322913520038128e-04 3.610961357480846345e-05 -1.178556631202809513e-04
2.727000000000000000e+03 1.752025222778320312e+01 4.139114761352539062e+01 -1.374889397993683815e-03 -1.644776202738285065e-03 -9.058996802195906639e-04 4.187459126114845276e-04
2.728000000000000000e+03 3.348151016235351562e+01 -1.047526264190673828e+01 2.491000741720199585e-01 5.205181121826171875e+00 1.636284351348876953e+00 -8.645054697990417480e-01
2.729000000000000000e+03 3.597806930541992188e+01 -9.721048355102539062e+00 1.235269546508789062e+00 2.550033807754516602e+00 1.135591030120849609e+00 -2.295303106307983398e+00
2.730000000000000000e+03 3.466719818115234375e+01 -1.159968090057373047e+01 -6.085922196507453918e-02 3.694492101669311523e+00 1.090089797973632812e+00 -1.733467698097229004e+00
2.731000000000000000e+03 3.588103485107421875e+01 -1.060021495819091797e+01 6.839635968208312988e-01 2.893353939056396484e+00 1.073195338249206543e+00 -2.199791669845581055e+00
2.732000000000000000e+03 1.021184635162353516e+01 -6.894253730773925781e+00 -6.778625398874282837e-02 1.290598511695861816e-01 1.838208176195621490e-02 -1.962621510028839111e-02
2.733000000000000000e+03 8.396573066711425781e+00 7.075722694396972656e+00 -1.322853040619520470e-05 -8.825700206216424704e-05 -3.044565892196260393e-05 2.398821834503905848e-06
2.734000000000000000e+03 9.094042778015136719e+00 7.174975872039794922e+00 3.813769944827072322e-05 6.886936898808926344e-05 3.210212162230163813e-05 1.908329795696772635e-05
2.735000000000000000e+03 3.303234100341796875e+01 -1.055591964721679688e+01 2.872325479984283447e-01 5.060283184051513672e+00 1.604254841804504395e+00 -3.203114867210388184e-01
2.736000000000000000e+03 3.189124870300292969e+01 -1.062271881103515625e+01 7.932642698287963867e-01 4.040077686309814453e+00 1.450002551078796387e+00 7.633770108222961426e-01
2.737000000000000000e+03 3.048033905029296875e+01 -1.044048690795898438e+01 1.619844436645507812e+00 2.481340408325195312e+00 1.230355381965637207e+00 1.453384399414062500e+00
2.738000000000000000e+03 1.391709995269775391e+01 -8.603264808654785156e+00 1.344268023967742920e-01 1.096504833549261093e-02 4.361755400896072388e-02 1.259429007768630981e-01
2.739000000000000000e+03 1.224697875976562500e+01 -7.934610843658447266e+00 1.948600634932518005e-02 9.459075331687927246e-02 3.422302752733230591e-02 5.850854888558387756e-02
2.740000000000000000e+03 2.110137176513671875e+01 -7.964047908782958984e+00 6.400143504142761230e-01 -5.782403349876403809e-01 1.853220723569393158e-02 -8.306131511926651001e-02
2.741000000000000000e+03 2.014861679077148438e+01 -7.259284973144531250e+00 4.107922911643981934e-01 -4.422433674335479736e-01 -9.435324929654598236e-03 -1.130909249186515808e-01
2.742000000000000000e+03 2.813029479980468750e+01 -7.941793918609619141e+00 3.347958564758300781e+00 -5.738521814346313477e-01 8.322318792343139648e-01 5.992421507835388184e-01
2.743000000000000000e+03 2.599257469177246094e+01 -1.104449462890625000e+01 1.466584324836730957e+00 -4.624084532260894775e-01 3.012527823448181152e-01 9.533175826072692871e-01
2.744000000000000000e+03 3.473538208007812500e+01 -1.493412113189697266e+01 -1.161348700523376465e+00 2.820020675659179688e+00 4.976015388965606689e-01 -1.389549255371093750e+00
2.745000000000000000e+03 3.538093948364257812e+01 -1.052931594848632812e+01 6.377506852149963379e-01 3.502065658569335938e+00 1.241944909095764160e+00 -2.236181497573852539e+00
2.746000000000000000e+03 3.630797576904296875e+01 -1.125020885467529297e+01 3.915190994739532471e-01 2.621100902557373047e+00 9.037860035896301270e-01 -2.038310050964355469e+00
2.747000000000000000e+03 1.866426467895507812e+01 -8.332643508911132812e+00 3.832113146781921387e-01 -3.644089102745056152e-01 5.640723276883363724e-03 5.546384677290916443e-02
2.748000000000000000e+03 1.772004318237304688e+01 -8.521199226379394531e+00 3.360562324523925781e-01 -2.869051098823547363e-01 1.474533136934041977e-02 9.349618107080459595e-02
2.749000000000000000e+03 3.335469055175781250e+01 -1.165686035156250000e+01 -1.307072043418884277e-01 4.006348133087158203e+00 1.162692308425903320e+00 -8.610999584197998047e-01
2.750000000000000000e+03 2.654752540588378906e+01 -7.583501338958740234e+00 2.340131759643554688e+00 -1.088126659393310547e+00 3.756015300750732422e-01 -1.011923700571060181e-01
2.751000000000000000e+03 3.682035827636718750e+01 -1.191205978393554688e+01 1.607993990182876587e-01 2.430775165557861328e+00 7.774723172187805176e-01 -1.867171883583068848e+00
2.752000000000000000e+03 9.928956031799316406e+00 7.251811981201171875e+00 -7.933695451356470585e-05 -6.216119800228625536e-05 -4.244944648235104978e-05 -1.996359060285612941e-05
2.753000000000000000e+03 1.092771530151367188e+01 9.366143226623535156e+00 8.479997632093727589e-05 3.050811756111215800e-05 3.459242725512012839e-05 -9.307843242822855245e-07
2.754000000000000000e+03 8.962448120117187500e+00 -7.586833477020263672e+00 -7.033638656139373779e-02 1.634378135204315186e-01 2.793042734265327454e-02 -5.805014073848724365e-02
2.755000000000000000e+03 1.731040191650390625e+01 -9.592154502868652344e+00 3.697144985198974609e-01 -2.674182653427124023e-01 3.068886883556842804e-02 1.661470085382461548e-01
2.756000000000000000e+03 1.745563888549804688e+01 -1.065186405181884766e+01 4.162328541278839111e-01 -2.777435183525085449e-01 4.154680669307708740e-02 2.373387068510055542e-01
2.757000000000000000e+03 2.032985115051269531e+01 -8.069637298583984375e+00 5.326693058013916016e-01 -5.076037049293518066e-01 7.519669830799102783e-03 -3.528935834765434265e-02
2.758000000000000000e+03 1.507864093780517578e+01 -9.714192390441894531e+00 2.539921104907989502e-01 -7.762671262025833130e-02 5.290961638092994690e-02 1.821491569280624390e-01
2.759000000000000000e+03 1.624587821960449219e+01 -9.614475250244140625e+00 3.038853406906127930e-01 -1.731090545654296875e-01 3.923288732767105103e-02 1.759201586246490479e-01
2.760000000000000000e+03 2.919217872619628906e+01 -9.222459793090820312e+00 2.959880828857421875e+00 8.247512578964233398e-01 1.135389685630798340e+00 1.572016596794128418e+00
2.761000000000000000e+03 3.080527114868164062e+01 -1.393653297424316406e+01 -4.147253632545471191e-01 1.287055492401123047e+00 2.616990506649017334e-01 3.112068772315979004e-01
2.762000000000000000e+03 1.186982822418212891e+01 -8.743996620178222656e+00 5.189321935176849365e-02 1.347439736127853394e-01 5.599115416407585144e-02 8.462215214967727661e-02
2.763000000000000000e+03 1.163488006591796875e+01 -9.595239639282226562e+00 8.680769801139831543e-02 1.718655824661254883e-01 7.760198414325714111e-02 1.013448908925056458e-01
2.764000000000000000e+03 7.066173553466796875e+01 -1.890907883644104004e+00 -1.758268177509307861e-01 -5.450896918773651123e-03 -5.438331514596939087e-02 -9.139612317085266113e-02
2.765000000000000000e+03 2.308984184265136719e+01 -6.993752002716064453e+00 8.225027918815612793e-01 -7.471997737884521484e-01 2.259089983999729156e-02 -3.919401168823242188e-01
2.766000000000000000e+03 2.267211341857910156e+01 -8.109386444091796875e+00 9.762042164802551270e-01 -7.718512415885925293e-01 6.130589544773101807e-02 -1.256144195795059204e-01
2.767000000000000000e+03 9.246679306030273438e+00 9.541608810424804688e+00 -3.220931466785259545e-05 1.610248000361025333e-04 3.864464451908133924e-05 -1.806853470043279231e-05
2.768000000000000000e+03 8.034478187561035156e+00 9.514896392822265625e+00 -5.589608554146252573e-05 1.354812120553106070e-04 2.387553831795230508e-05 -2.083116669382434338e-05
2.769000000000000000e+03 3.604864883422851562e+01 -1.394024372100830078e+01 -6.556003689765930176e-01 2.843418836593627930e+00 6.563455462455749512e-01 -1.610640168190002441e+00
2.770000000000000000e+03 2.390096473693847656e+01 -1.021801662445068359e+01 1.247686624526977539e+00 -7.300797104835510254e-01 1.552820652723312378e-01 4.830064773559570312e-01
2.771000000000000000e+03 2.242324447631835938e+01 -7.618052959442138672e+00 8.116827011108398438e-01 -7.002767324447631836e-01 3.342178836464881897e-02 -2.012689113616943359e-01
2.772000000000000000e+03 7.915168285369873047e+00 -9.018925666809082031e+00 -4.583552107214927673e-02 2.195497751235961914e-01 5.211427435278892517e-02 -7.936047762632369995e-02
2.773000000000000000e+03 9.219064712524414062e+00 -1.075984096527099609e+01 4.567040875554084778e-02 3.270012438297271729e-01 1.118014901876449585e-01 3.382794186472892761e-02
2.774000000000000000e+03 3.450989151000976562e+01 -1.415870380401611328e+01 -8.983247876167297363e-01 2.876892805099487305e+00 5.935704112052917480e-01 -1.457043766975402832e+00
2.775000000000000000e+03 3.531625747680664062e+01 -1.402852344512939453e+01 -8.095363974571228027e-01 2.935133695602416992e+00 6.376791596412658691e-01 -1.559237122535705566e+00
2.776000000000000000e+03 6.644020843505859375e+01 5.186799049377441406e+00 -3.315104246139526367e-01 -1.475620921701192856e-02 -1.038799881935119629e-01 -5.059872865676879883e-01
2.777000000000000000e+03 1.894355392456054688e+01 -1.128476047515869141e+01 5.033844113349914551e-01 -3.798646926879882812e-01 3.705591708421707153e-02 3.022002875804901123e-01
2.778000000000000000e+03 2.067567062377929688e+01 -1.070301055908203125e+01 6.996799707412719727e-01 -5.319223403930664062e-01 5.032729357481002808e-02 3.147306144237518311e-01
2.779000000000000000e+03 2.720825195312500000e+01 -7.722915172576904297e+00 2.737088203430175781e+00 -1.013123750686645508e+00 5.171893835067749023e-01 1.170881390571594238e-01
2.780000000000000000e+03 3.166704559326171875e+01 -1.317268371582031250e+01 -2.975402772426605225e-01 2.192538261413574219e+00 5.684994459152221680e-01 -6.081448402255773544e-03
2.781000000000000000e+03 8.008262634277343750e+00 2.296522903442382812e+01 -9.117094305111095309e-05 -9.805865556700155139e-05 -5.676888031302951276e-05 1.051700164680369198e-04
2.782000000000000000e+03 1.329193401336669922e+01 -1.022533416748046875e+01 2.043919116258621216e-01 7.768382132053375244e-02 8.462271839380264282e-02 1.881644278764724731e-01
2.783000000000000000e+03 4.994474411010742188e+01 1.526081848144531250e+01 1.139038920402526855e+00 1.275525569915771484e+00 7.243693470954895020e-01 4.888708293437957764e-01
2.784000000000000000e+03 6.910006713867187500e+01 1.367361068725585938e+01 7.767973840236663818e-02 -3.363242149353027344e-01 -7.759334146976470947e-02 -4.985803663730621338e-01
2.785000000000000000e+03 7.257238006591796875e+01 -6.028363227844238281e+00 -3.731795400381088257e-02 -1.730518974363803864e-02 -1.638694293797016144e-02 -8.050158619880676270e-03
2.786000000000000000e+03 2.403665733337402344e+01 -1.093122673034667969e+01 1.177073717117309570e+00 -6.536901593208312988e-01 1.570150554180145264e-01 6.304703354835510254e-01
2.787000000000000000e+03 3.082342529296875000e+01 -1.312400054931640625e+01 -6.383519619703292847e-02 1.703486442565917969e+00 4.918953776359558105e-01 4.205254018306732178e-01
2.788000000000000000e+03 2.065706825256347656e+01 -9.777301788330078125e+00 6.804896593093872070e-01 -5.527727603912353516e-01 3.831506520509719849e-02 1.963213980197906494e-01
2.789000000000000000e+03 2.816448783874511719e+01 -1.162712383270263672e+01 1.278079509735107422e+00 4.667335152626037598e-01 5.234438776969909668e-01 1.308499097824096680e+00
2.790000000000000000e+03 2.910658645629882812e+01 -1.195853424072265625e+01 9.577643275260925293e-01 9.928051233291625977e-01 5.851708650588989258e-01 1.235307574272155762e+00
2.791000000000000000e+03 2.594595718383789062e+01 -6.933035850524902344e+00 1.822068810462951660e+00 -1.215044498443603516e+00 1.821072995662689209e-01 -5.852020978927612305e-01
2.792000000000000000e+03 1.634612464904785156e+01 -1.088988971710205078e+01 3.691956698894500732e-01 -1.824626177549362183e-01 5.601991713047027588e-02 2.387706339359283447e-01
2.793000000000000000e+03 2.485553741455078125e+01 -8.468502998352050781e+00 1.664852857589721680e+00 -9.768116474151611328e-01 2.064123749732971191e-01 4.168831184506416321e-02
2.794000000000000000e+03 2.419676589965820312e+01 -8.093209266662597656e+00 1.379030585289001465e+00 -9.318158626556396484e-01 1.341644376516342163e-01 -1.216728910803794861e-01
2.795000000000000000e+03 1.033332061767578125e+01 -7.989874362945556641e+00 -2.855848148465156555e-02 1.631201207637786865e-01 4.036849364638328552e-02 5.699480418115854263e-03
2.796000000000000000e+03 9.542495727539062500e+00 1.266955375671386719e+01 -8.170861110556870699e-05 1.333966356469318271e-04 1.550640809000469744e-05 -5.820891237817704678e-05
2.797000000000000000e+03 2.478414916992187500e+01 -1.069471836090087891e+01 1.349914550781250000e+00 -6.564961075782775879e-01 2.080255299806594849e-01 6.818509101867675781e-01
2.798000000000000000e+03 2.378942680358886719e+01 -8.772311210632324219e+00 1.331226110458374023e+00 -8.726112842559814453e-01 1.375844478607177734e-01 7.015762478113174438e-02
2.799000000000000000e+03 6.621965026855468750e+01 3.729904651641845703e+00 -4.155142903327941895e-01 2.225934527814388275e-02 -1.179764866828918457e-01 -4.500885903835296631e-01
2.800000000000000000e+03 6.342210769653320312e+01 4.426824092864990234e+00 -5.382966399192810059e-01 4.562737420201301575e-02 -1.478007733821868896e-01 -5.602501630783081055e-01
2.801000000000000000e+03 5.574527359008789062e+01 9.426156044006347656e+00 1.705675721168518066e-01 -2.539731003344058990e-02 4.355107992887496948e-02 -7.365797162055969238e-01
2.802000000000000000e+03 6.803233337402343750e+01 2.061542510986328125e+01 2.245223373174667358e-01 -3.641451299190521240e-01 -4.188683256506919861e-02 -3.117157518863677979e-01
2.803000000000000000e+03 6.920500946044921875e+01 1.871553230285644531e+01 1.784582287073135376e-01 -4.223685562610626221e-01 -7.317309826612472534e-02 -3.692391514778137207e-01
2.804000000000000000e+03 7.157118225097656250e+01 7.846240520477294922e+00 -9.056570380926132202e-02 -2.346308827400207520e-01 -9.755897521972656250e-02 -4.147344231605529785e-01
2.805000000000000000e+03 7.028499603271484375e+01 1.742376327514648438e+01 1.295622736215591431e-01 -4.779167473316192627e-01 -1.045063436031341553e-01 -3.841902315616607666e-01
2.806000000000000000e+03 7.021272277832031250e+01 9.099878311157226562e+00 -7.102303206920623779e-02 -2.408552765846252441e-01 -9.356349706649780273e-02 -4.801509678363800049e-01
2.807000000000000000e+03 7.013163757324218750e+01 1.029586219787597656e+01 -3.702884912490844727e-02 -2.842193245887756348e-01 -9.637445211410522461e-02 -4.922502636909484863e-01
2.808000000000000000e+03 5.235782623291015625e+00 2.270116043090820312e+01 6.609159026993438601e-05 -4.886178066954016685e-05 5.168943971511907876e-06 -2.080667763948440552e-05
2.809000000000000000e+03 6.146128177642822266e+00 2.278071594238281250e+01 -1.009312836686149240e-04 4.265688767191022635e-05 -1.748231989040505141e-05 9.326882718596607447e-05
2.810000000000000000e+03 9.863990783691406250e+00 1.010881805419921875e+01 8.504018478561192751e-05 -9.051071538124233484e-05 -1.641159087739652023e-06 1.315790450462372974e-05
2.811000000000000000e+03 6.935474395751953125e+01 -6.330054998397827148e-01 -2.622640132904052734e-01 1.738458685576915741e-02 -7.346382737159729004e-02 -1.460292190313339233e-01
2.812000000000000000e+03 6.674769592285156250e+01 2.536567687988281250e+01 2.425644248723983765e-01 -2.350300401449203491e-01 2.260315930470824242e-03 -1.511121690273284912e-01
2.813000000000000000e+03 7.129489135742187500e+01 -5.962295055389404297e+00 -5.195898562669754028e-02 -1.377862226217985153e-02 -1.972128264605998993e-02 -8.241480216383934021e-03
2.814000000000000000e+03 2.733981704711914062e+01 -9.841955184936523438e+00 2.286378145217895508e+00 -3.016748726367950439e-01 5.954110026359558105e-01 1.055930972099304199e+00
2.815000000000000000e+03 8.130637168884277344e+00 1.091217517852783203e+01 -2.361561382713261992e-05 1.418547763023525476e-04 3.547174856066703796e-05 -7.511345029342919588e-05
2.816000000000000000e+03 5.053961563110351562e+01 9.841221809387207031e+00 9.492084383964538574e-01 6.478349119424819946e-02 3.041975796222686768e-01 -2.613764107227325439e-01
2.817000000000000000e+03 6.347780227661132812e+01 5.850515365600585938e+00 -4.058529138565063477e-01 1.471707131713628769e-02 -1.173407584428787231e-01 -6.249350905418395996e-01
2.818000000000000000e+03 7.072312927246093750e+01 2.307128524780273438e+01 1.417168378829956055e-01 -5.656090974807739258e-01 -1.271676868200302124e-01 -2.338616549968719482e-01
2.819000000000000000e+03 6.039801025390625000e+01 7.180514335632324219e+00 -3.399757146835327148e-01 -7.239199243485927582e-03 -1.041644811630249023e-01 -7.345766425132751465e-01
2.820000000000000000e+03 5.802744674682617188e+01 9.379658699035644531e+00 4.234434664249420166e-02 -2.311693504452705383e-02 5.768224131315946579e-03 -7.561509013175964355e-01
2.821000000000000000e+03 1.068296623229980469e+01 1.046051311492919922e+01 -8.925124711822718382e-05 4.208990867482498288e-05 -1.414840244251536205e-05 -1.990526834561023861e-05
2.822000000000000000e+03 5.068718719482421875e+01 1.580919075012207031e+01 1.086173295974731445e+00 1.163807392120361328e+00 6.749942302703857422e-01 3.890291154384613037e-01
2.823000000000000000e+03 5.060432052612304688e+01 2.134626960754394531e+01 7.077608108520507812e-01 1.688193917274475098e+00 7.187864184379577637e-01 3.637736439704895020e-01
2.824000000000000000e+03 7.041598510742187500e+01 1.043955922126770020e+00 -2.336989343166351318e-01 -1.829600334167480469e-02 -7.559847831726074219e-02 -2.134075164794921875e-01
2.825000000000000000e+03 6.805631256103515625e+01 6.670330166816711426e-01 -3.522869348526000977e-01 3.596836701035499573e-02 -9.489556401968002319e-02 -2.291148453950881958e-01
2.826000000000000000e+03 5.430391693115234375e+01 8.494676589965820312e+00 4.720221459865570068e-02 -4.819332435727119446e-02 -2.973334048874676228e-04 -7.914451956748962402e-01
2.827000000000000000e+03 9.060398101806640625e+00 3.537029266357421875e+01 2.139977586921304464e-04 -1.765470224199816585e-04 1.123522179113933817e-05 -4.335427074693143368e-04
2.828000000000000000e+03 5.116044235229492188e+01 8.802048683166503906e+00 5.908118486404418945e-01 -5.773751810193061829e-02 1.599223017692565918e-01 -5.371645092964172363e-01
2.829000000000000000e+03 5.214343643188476562e+01 9.591631889343261719e+00 6.058570146560668945e-01 -4.229498282074928284e-02 1.690686196088790894e-01 -5.298098325729370117e-01
2.830000000000000000e+03 5.247092437744140625e+01 1.152819919586181641e+01 8.693376779556274414e-01 1.807711422443389893e-01 3.150326609611511230e-01 -2.845021784305572510e-01
2.831000000000000000e+03 6.493891143798828125e+01 5.553833484649658203e+00 -3.768227696418762207e-01 -4.193124361336231232e-03 -1.143047660589218140e-01 -5.743906497955322266e-01
2.832000000000000000e+03 3.503646850585937500e+01 -3.622950363159179688e+01 -4.406488537788391113e-01 1.336344361305236816e+00 2.687086760997772217e-01 1.144189685583114624e-01
2.833000000000000000e+03 3.884468078613281250e+01 -3.686856460571289062e+01 -4.343989491462707520e-01 1.389445185661315918e+00 2.865138947963714600e-01 -9.976988285779953003e-02
2.834000000000000000e+03 7.783726692199707031e+00 3.629691314697265625e+01 -2.926675952039659023e-04 2.641722967382520437e-04 -8.548590813006740063e-06 2.293185843882383779e-06
2.835000000000000000e+03 1.324048233032226562e+01 4.114216232299804688e+01 -3.743456327356398106e-04 -2.685640938580036163e-04 -1.928729179780930281e-04 -7.323600584641098976e-04
2.836000000000000000e+03 5.032818222045898438e+01 2.509549522399902344e+01 5.241122245788574219e-01 1.840909123420715332e+00 7.095063924789428711e-01 2.803241610527038574e-01
2.837000000000000000e+03 7.084194946289062500e+01 1.333220767974853516e+01 4.968590661883354187e-02 -3.942966759204864502e-01 -1.033832356333732605e-01 -4.563345015048980713e-01
2.838000000000000000e+03 3.715765380859375000e+01 -4.109928894042968750e+01 -4.867753386497497559e-01 1.270976424217224121e+00 2.352603077888488770e-01 1.833020127378404140e-03
2.839000000000000000e+03 5.112531661987304688e+01 2.292726516723632812e+01 6.377451419830322266e-01 1.650696635246276855e+00 6.865325570106506348e-01 3.167336583137512207e-01
2.840000000000000000e+03 4.967777633666992188e+01 2.351675796508789062e+01 5.669670701026916504e-01 2.002472400665283203e+00 7.708318829536437988e-01 3.220396041870117188e-01
2.841000000000000000e+03 5.960601806640625000e+01 -3.831410217285156250e+01 3.530091792345046997e-02 2.887085080146789551e-02 1.925153099000453949e-02 1.705602277070283890e-03
2.842000000000000000e+03 3.565320205688476562e+01 -1.175862503051757812e+01 4.027788341045379639e-02 3.109723567962646484e+00 9.450004100799560547e-01 -1.977322459220886230e+00
2.843000000000000000e+03 3.387302017211914062e+01 -1.049171924591064453e+01 2.459332495927810669e-01 4.977288722991943359e+00 1.566966533660888672e+00 -1.409759759902954102e+00
2.844000000000000000e+03 3.257791900634765625e+01 -1.123617362976074219e+01 1.595312058925628662e-01 4.129931926727294922e+00 1.286838889122009277e+00 -1.042388752102851868e-01
2.845000000000000000e+03 3.406641006469726562e+01 -1.193167304992675781e+01 -2.689390480518341064e-01 3.757951259613037109e+00 1.046703696250915527e+00 -1.373055338859558105e+00
2.846000000000000000e+03 1.986972808837890625e+01 -9.756968498229980469e+00 6.059344410896301270e-01 -4.837861359119415283e-01 3.664448484778404236e-02 1.891047954559326172e-01
2.847000000000000000e+03 3.250056076049804688e+01 -1.060862827301025391e+01 5.000218749046325684e-01 4.652354717254638672e+00 1.545712947845458984e+00 2.108752280473709106e-01
2.848000000000000000e+03 3.121412467956542969e+01 -1.057078170776367188e+01 1.197320580482482910e+00 3.327065467834472656e+00 1.357315897941589355e+00 1.193942785263061523e+00
2.849000000000000000e+03 3.524280929565429688e+01 -1.107919216156005859e+01 2.680394053459167480e-01 3.502176046371459961e+00 1.131064653396606445e+00 -2.040635347366333008e+00
2.850000000000000000e+03 2.212164688110351562e+01 -8.544912338256835938e+00 9.004629850387573242e-01 -7.087033390998840332e-01 5.752788856625556946e-02 1.113135926425457001e-02
2.851000000000000000e+03 2.136845779418945312e+01 -8.828395843505859375e+00 7.662209868431091309e-01 -6.319155097007751465e-01 4.029165953397750854e-02 5.286934226751327515e-02
2.852000000000000000e+03 3.245763778686523438e+01 -1.316975498199462891e+01 -4.810827374458312988e-01 2.692268610000610352e+00 6.633557677268981934e-01 -5.544399023056030273e-01
2.853000000000000000e+03 2.970491027832031250e+01 -1.024575614929199219e+01 2.020441055297851562e+00 1.595779538154602051e+00 1.084866166114807129e+00 1.584160208702087402e+00
2.854000000000000000e+03 9.018190383911132812e+00 -8.507957458496093750e+00 -4.154458642005920410e-02 2.037071585655212402e-01 4.864877089858055115e-02 -3.461116552352905273e-02
2.855000000000000000e+03 2.550326919555664062e+01 -9.009662628173828125e+00 1.871623277664184570e+00 -8.908963203430175781e-01 2.942180931568145752e-01 3.616067767143249512e-01
2.856000000000000000e+03 3.598840713500976562e+01 -1.291764640808105469e+01 -3.089915812015533447e-01 2.872675418853759766e+00 7.691051363945007324e-01 -1.807972788810729980e+00
2.857000000000000000e+03 3.671607208251953125e+01 -1.252375316619873047e+01 -6.167984008789062500e-02 2.558946609497070312e+00 7.491800189018249512e-01 -1.819279193878173828e+00
2.858000000000000000e+03 1.113301563262939453e+01 -8.418038368225097656e+00 7.608634885400533676e-03 1.560657173395156860e-01 4.910230636596679688e-02 4.357788711786270142e-02
2.859000000000000000e+03 2.833663177490234375e+01 -8.960312843322753906e+00 2.955633401870727539e+00 -3.801601752638816833e-02 8.752852082252502441e-01 1.169470310211181641e+00
2.860000000000000000e+03 1.495262432098388672e+01 -8.446831703186035156e+00 1.662827730178833008e-01 -7.185776531696319580e-02 2.832750231027603149e-02 1.182107329368591309e-01
2.861000000000000000e+03 3.422083282470703125e+01 -1.345990276336669922e+01 -7.275004982948303223e-01 3.021013736724853516e+00 6.880539655685424805e-01 -1.396227598190307617e+00
2.862000000000000000e+03 2.782968902587890625e+01 -7.452067375183105469e+00 3.101081848144531250e+00 -8.352867960929870605e-01 6.797385215759277344e-01 1.380742490291595459e-01
2.863000000000000000e+03 9.924621582031250000e+00 -8.840910911560058594e+00 -1.363736949861049652e-02 2.105826288461685181e-01 5.908357724547386169e-02 7.396200671792030334e-03
2.864000000000000000e+03 1.620695304870605469e+01 -8.312393188476562500e+00 2.247134596109390259e-01 -1.682476699352264404e-01 1.693973876535892487e-02 1.077275872230529785e-01
2.865000000000000000e+03 1.682497787475585938e+01 -1.018218040466308594e+01 3.649510443210601807e-01 -2.235494554042816162e-01 4.242047667503356934e-02 2.031843960285186768e-01
2.866000000000000000e+03 1.448230743408203125e+01 -9.125020980834960938e+00 1.898523718118667603e-01 -2.781527861952781677e-02 4.861113056540489197e-02 1.535156220197677612e-01
2.867000000000000000e+03 3.647444915771484375e+01 -1.309554195404052734e+01 -3.245097100734710693e-01 2.692218780517578125e+00 7.103127241134643555e-01 -1.733555555343627930e+00
2.868000000000000000e+03 3.451041412353515625e+01 -1.209882926940917969e+01 -2.650641202926635742e-01 3.542370080947875977e+00 9.831917881965637207e-01 -1.591839551925659180e+00
2.869000000000000000e+03 2.355351829528808594e+01 -7.825204849243164062e+00 1.148558855056762695e+00 -8.671754598617553711e-01 8.441502600908279419e-02 -2.296967655420303345e-01
2.870000000000000000e+03 2.271455001831054688e+01 -9.108695030212402344e+00 1.066912770271301270e+00 -7.629695534706115723e-01 9.118296205997467041e-02 1.173858791589736938e-01
2.871000000000000000e+03 1.569301033020019531e+01 -1.031676197052001953e+01 3.142832219600677490e-01 -1.256656944751739502e-01 5.658525601029396057e-02 2.113325893878936768e-01
2.872000000000000000e+03 6.909403991699218750e+01 6.501062870025634766e+00 -1.887910217046737671e-01 -1.250187307596206665e-01 -9.414292126893997192e-02 -4.736581444740295410e-01
2.873000000000000000e+03 1.917732238769531250e+01 -9.734391212463378906e+00 5.197764635086059570e-01 -4.289120137691497803e-01 2.725933864712715149e-02 1.808686703443527222e-01
2.874000000000000000e+03 1.986788368225097656e+01 -1.060752677917480469e+01 5.902190208435058594e-01 -4.697806239128112793e-01 3.613151609897613525e-02 2.764512300491333008e-01
2.875000000000000000e+03 3.026291847229003906e+01 -1.129557037353515625e+01 1.076318502426147461e+00 2.012563705444335938e+00 9.266646504402160645e-01 1.208627700805664062e+00
2.876000000000000000e+03 6.623654174804687500e+01 1.043941593170166016e+01 -1.228843629360198975e-02 -1.733240932226181030e-01 -5.568375810980796814e-02 -5.986995100975036621e-01
2.877000000000000000e+03 6.894977569580078125e+01 9.142556190490722656e+00 -8.387306332588195801e-02 -2.052311599254608154e-01 -8.673126995563507080e-02 -5.307905077934265137e-01
2.878000000000000000e+03 1.816726493835449219e+01 -1.101056098937988281e+01 4.703099727630615234e-01 -3.243506550788879395e-01 4.378779605031013489e-02 2.636445462703704834e-01
2.879000000000000000e+03 1.910359764099121094e+01 -1.047119808197021484e+01 5.365885496139526367e-01 -4.096049666404724121e-01 3.809508308768272400e-02 2.414455562829971313e-01
2.880000000000000000e+03 2.342453193664550781e+01 -9.416172027587890625e+00 1.221271634101867676e+00 -7.910065054893493652e-01 1.290795505046844482e-01 2.608559727668762207e-01
2.881000000000000000e+03 2.402319145202636719e+01 -9.654523849487304688e+00 1.372170448303222656e+00 -8.102183341979980469e-01 1.685856580734252930e-01 3.423249721527099609e-01
2.882000000000000000e+03 1.448353004455566406e+01 -1.037559986114501953e+01 2.653771936893463135e-01 -2.161542885005474091e-02 7.312852889299392700e-02 2.092020064592361450e-01
2.883000000000000000e+03 3.213566207885742188e+01 -1.202814865112304688e+01 3.507681936025619507e-02 3.178806066513061523e+00 9.641648530960083008e-01 -8.002363028936088085e-04
2.884000000000000000e+03 6.918975830078125000e+01 7.976396083831787109e-01 -2.968666255474090576e-01 1.996940933167934418e-02 -8.306916803121566772e-02 -2.194586545228958130e-01
2.885000000000000000e+03 2.755711746215820312e+01 -8.449616432189941406e+00 2.871732711791992188e+00 -6.668383479118347168e-01 6.614682674407958984e-01 6.025233268737792969e-01
2.886000000000000000e+03 6.559941864013671875e+01 1.800468444824218750e+01 2.974059581756591797e-01 -2.184281945228576660e-01 2.369332313537597656e-02 -4.027730524539947510e-01
2.887000000000000000e+03 6.784082031250000000e+01 1.570929527282714844e+01 1.627176403999328613e-01 -3.179771900177001953e-01 -4.657787084579467773e-02 -4.782172441482543945e-01
2.888000000000000000e+03 1.088197135925292969e+01 7.239807605743408203e+00 1.043229422066360712e-04 6.833635416114702821e-05 5.179778963793069124e-05 2.491197119525168091e-05
2.889000000000000000e+03 2.611483573913574219e+01 -9.688821792602539062e+00 1.926948785781860352e+00 -7.139695882797241211e-01 3.638937473297119141e-01 6.718491315841674805e-01
2.890000000000000000e+03 1.899351692199707031e+01 -9.078340530395507812e+00 4.785195291042327881e-01 -4.039663076400756836e-01 2.236596681177616119e-02 1.217863857746124268e-01
2.891000000000000000e+03 5.995713806152343750e+01 8.610625267028808594e+00 -1.517249047756195068e-01 -2.578504011034965515e-02 -5.325298383831977844e-02 -7.591490745544433594e-01
2.892000000000000000e+03 6.922377014160156250e+01 1.732772827148437500e+01 1.644999235868453979e-01 -4.077375531196594238e-01 -7.297129184007644653e-02 -4.126443266868591309e-01
2.893000000000000000e+03 6.738635253906250000e+01 1.424126052856445312e+01 1.373748928308486938e-01 -2.774157524108886719e-01 -4.201225563883781433e-02 -5.177807211875915527e-01
2.894000000000000000e+03 5.313367080688476562e+01 1.041301536560058594e+01 6.214850544929504395e-01 5.725722759962081909e-02 2.036226987838745117e-01 -5.029683709144592285e-01
2.895000000000000000e+03 2.668142509460449219e+01 -1.042838573455810547e+01 1.847168087959289551e+00 -4.385679960250854492e-01 4.225800037384033203e-01 1.008994936943054199e+00
2.896000000000000000e+03 2.439799690246582031e+01 -9.112377166748046875e+00 1.494667768478393555e+00 -8.686457276344299316e-01 1.878066211938858032e-01 2.536084055900573730e-01
2.897000000000000000e+03 5.859747695922851562e+01 8.033909797668457031e+00 -2.197377085685729980e-01 -2.416892908513545990e-02 -7.317198812961578369e-02 -7.842699885368347168e-01
2.898000000000000000e+03 6.191359329223632812e+01 7.490808486938476562e+00 -2.695328593254089355e-01 -1.576883904635906219e-02 -8.559050410985946655e-02 -7.051005363464355469e-01
2.899000000000000000e+03 5.398118495941162109e+00 1.963349533081054688e+01 1.708315539872273803e-04 -9.591606067260727286e-05 2.247464908577967435e-05 8.861804963089525700e-05
2.900000000000000000e+03 5.167822265625000000e+01 1.804496192932128906e+01 9.483200311660766602e-01 1.177153229713439941e+00 6.376419663429260254e-01 3.247418999671936035e-01
2.901000000000000000e+03 5.013934707641601562e+01 8.111594200134277344e+00 5.835044980049133301e-01 -2.281848937273025513e-01 1.065958738327026367e-01 -5.387766957283020020e-01
2.902000000000000000e+03 8.754217147827148438e+00 3.175124359130859375e+01 -1.385471550747752190e-04 -8.616781997261568904e-05 -6.741449033142998815e-05 4.449408152140676975e-05
2.903000000000000000e+03 6.672989654541015625e+01 2.107908439636230469e+01 2.690591514110565186e-01 -2.715583741664886475e-01 -7.497654878534376621e-04 -2.948116362094879150e-01
2.904000000000000000e+03 6.923432159423828125e+01 2.091617965698242188e+01 1.863201409578323364e-01 -4.441616535186767578e-01 -7.735244929790496826e-02 -3.050079345703125000e-01
2.905000000000000000e+03 6.646387481689453125e+01 6.679316997528076172e+00 -2.486700564622879028e-01 -6.994020193815231323e-02 -9.558308124542236328e-02 -5.639030337333679199e-01
2.906000000000000000e+03 6.994364929199218750e+01 2.404251098632812500e+01 1.600094139575958252e-01 -5.039725899696350098e-01 -1.031889542937278748e-01 -2.140606045722961426e-01
2.907000000000000000e+03 6.799066925048828125e+01 2.408418846130371094e+01 2.188227772712707520e-01 -3.431578874588012695e-01 -3.730053082108497620e-02 -2.007684111595153809e-01
2.908000000000000000e+03 5.076667022705078125e+01 1.160456466674804688e+01 1.122356295585632324e+00 3.607318103313446045e-01 4.449264407157897949e-01 -6.213854067027568817e-03
2.909000000000000000e+03 4.925657653808593750e+01 2.553376960754394531e+01 4.869639575481414795e-01 2.050011873245239258e+00 7.610927224159240723e-01 2.751557826995849609e-01
2.910000000000000000e+03 6.657874298095703125e+01 7.990465164184570312e+00 -1.673611551523208618e-01 -1.035177260637283325e-01 -8.126366138458251953e-02 -5.813993215560913086e-01
2.911000000000000000e+03 6.363167953491210938e+01 2.643499755859375000e+01 2.965872287750244141e-01 5.204529315233230591e-02 1.045897603034973145e-01 -7.548879832029342651e-02
2.912000000000000000e+03 6.907384490966796875e+01 2.300993156433105469e+01 1.880539059638977051e-01 -4.197524189949035645e-01 -6.950955092906951904e-02 -2.434999495744705200e-01
2.913000000000000000e+03 6.921133422851562500e+01 5.151624679565429688e+00 -2.306980192661285400e-01 -7.975126057863235474e-02 -9.313478320837020874e-02 -4.231723845005035400e-01
2.914000000000000000e+03 4.834450149536132812e+01 -3.719453430175781250e+01 -1.017063334584236145e-01 6.473612189292907715e-01 1.636964678764343262e-01 -1.862760186195373535e-01
2.915000000000000000e+03 6.792987823486328125e+01 1.722265052795410156e+01 2.043044716119766235e-01 -3.382717967033386230e-01 -4.019020125269889832e-02 -4.263969361782073975e-01
2.916000000000000000e+03 6.904441833496093750e+01 1.040183448791503906e+01 -2.554005756974220276e-02 -2.414619922637939453e-01 -8.010061830282211304e-02 -5.315647125244140625e-01
2.917000000000000000e+03 6.853835296630859375e+01 1.225151920318603516e+01 4.506598412990570068e-02 -2.831691801548004150e-01 -7.143095880746841431e-02 -5.275445580482482910e-01
2.918000000000000000e+03 5.657807922363281250e+01 -3.859434509277343750e+01 2.690950036048889160e-02 1.297969371080398560e-01 4.701193049550056458e-02 -2.189846709370613098e-02
2.919000000000000000e+03 4.880206680297851562e+01 2.026670265197753906e+01 7.006140947341918945e-01 2.172886848449707031e+00 8.620502948760986328e-01 4.924348294734954834e-01
2.920000000000000000e+03 3.250352096557617188e+01 -3.888945388793945312e+01 -3.859207630157470703e-01 9.720326066017150879e-01 1.758335530757904053e-01 1.326810568571090698e-01
2.921000000000000000e+03 5.325358200073242188e+01 -3.800508117675781250e+01 -1.330262422561645508e-02 3.123157024383544922e-01 8.970392495393753052e-02 -8.451116830110549927e-02
2.922000000000000000e+03 1.983673477172851562e+01 -3.975888442993164062e+01 -9.816885739564895630e-02 -9.259662777185440063e-02 -5.722964555025100708e-02 2.278143167495727539e-02
2.923000000000000000e+03 3.429088973999023438e+01 -1.111706924438476562e+01 5.458109080791473389e-02 4.169850349426269531e+00 1.267329335212707520e+00 -1.646938681602478027e+00
2.924000000000000000e+03 3.600213623046875000e+01 -1.339824390411376953e+01 -5.308988690376281738e-01 2.866880655288696289e+00 7.007945179939270020e-01 -1.694686770439147949e+00
2.925000000000000000e+03 2.784726333618164062e+01 -1.042073631286621094e+01 1.965310811996459961e+00 1.521454900503158569e-01 6.352368593215942383e-01 1.287682533264160156e+00
2.926000000000000000e+03 3.486830520629882812e+01 -1.310234832763671875e+01 -5.639908313751220703e-01 3.107756137847900391e+00 7.631295323371887207e-01 -1.606569528579711914e+00
2.927000000000000000e+03 3.549265289306640625e+01 -1.234267520904541016e+01 -2.103115171194076538e-01 3.118971347808837891e+00 8.725979924201965332e-01 -1.853581547737121582e+00
2.928000000000000000e+03 3.190014457702636719e+01 -1.138655662536621094e+01 3.607567846775054932e-01 3.497355937957763672e+00 1.157433867454528809e+00 3.932090997695922852e-01
2.929000000000000000e+03 3.237268447875976562e+01 -1.256954479217529297e+01 -2.879264950752258301e-01 2.966646671295166016e+00 8.036160469055175781e-01 -3.630764484405517578e-01
2.930000000000000000e+03 1.292789649963378906e+01 -9.528329849243164062e+00 1.393800079822540283e-01 1.020419523119926453e-01 7.242658734321594238e-02 1.501972973346710205e-01
2.931000000000000000e+03 2.858846092224121094e+01 -1.079105186462402344e+01 1.769951105117797852e+00 6.334604024887084961e-01 7.210234403610229492e-01 1.397817492485046387e+00
2.932000000000000000e+03 2.809460067749023438e+01 -9.715751647949218750e+00 2.474176645278930664e+00 4.735086858272552490e-02 7.564582228660583496e-01 1.229790091514587402e+00
2.933000000000000000e+03 3.391736984252929688e+01 -1.282501888275146484e+01 -5.256171822547912598e-01 3.253408432006835938e+00 8.183373808860778809e-01 -1.266681313514709473e+00
2.934000000000000000e+03 3.541992187500000000e+01 -1.289265155792236328e+01 -4.035005271434783936e-01 3.079863071441650391e+00 8.029087781906127930e-01 -1.744594216346740723e+00
2.935000000000000000e+03 3.300194931030273438e+01 -1.243577766418457031e+01 -3.546562790870666504e-01 3.308852195739746094e+00 8.862587809562683105e-01 -7.177663445472717285e-01
2.936000000000000000e+03 3.610621261596679688e+01 -1.240413093566894531e+01 -1.333350241184234619e-01 2.830529928207397461e+00 8.091585040092468262e-01 -1.869623899459838867e+00
2.937000000000000000e+03 3.497439575195312500e+01 -1.220920562744140625e+01 -2.497767955064773560e-01 3.290584802627563477e+00 9.122424125671386719e-01 -1.766208887100219727e+00
2.938000000000000000e+03 1.393345260620117188e+01 -9.715482711791992188e+00 2.026573568582534790e-01 2.207425050437450409e-02 6.741948425769805908e-02 1.780221909284591675e-01
2.939000000000000000e+03 1.563217544555664062e+01 -9.029070854187011719e+00 2.420043647289276123e-01 -1.228798031806945801e-01 3.573736920952796936e-02 1.500370353460311890e-01
2.940000000000000000e+03 3.005358123779296875e+01 -1.216131877899169922e+01 6.044747829437255859e-01 1.643705844879150391e+00 6.744542121887207031e-01 1.000377178192138672e+00
2.941000000000000000e+03 2.608590316772460938e+01 -8.310426712036132812e+00 2.203800201416015625e+00 -1.038870930671691895e+00 3.494787514209747314e-01 1.316990852355957031e-01
2.942000000000000000e+03 6.781599426269531250e+01 6.515923023223876953e+00 -2.227283567190170288e-01 -8.577833324670791626e-02 -9.255200624465942383e-02 -5.117658376693725586e-01
2.943000000000000000e+03 6.903424072265625000e+01 7.818996429443359375e+00 -1.392131596803665161e-01 -1.584614515304565430e-01 -8.930238336324691772e-02 -5.027427673339843750e-01
2.944000000000000000e+03 2.495592880249023438e+01 -9.600811958312988281e+00 1.605174422264099121e+00 -8.162972331047058105e-01 2.366631627082824707e-01 4.448625743389129639e-01
2.945000000000000000e+03 5.726145553588867188e+01 1.617215728759765625e+01 6.847668886184692383e-01 2.299025505781173706e-01 2.744008302688598633e-01 -2.698810398578643799e-01
2.946000000000000000e+03 5.180296325683593750e+01 1.947357368469238281e+01 8.463818430900573730e-01 1.279141306877136230e+00 6.376569271087646484e-01 3.107613325119018555e-01
2.947000000000000000e+03 5.161231613159179688e+01 1.261265277862548828e+01 1.081891417503356934e+00 4.566351175308227539e-01 4.615579843521118164e-01 -1.259802747517824173e-02
2.948000000000000000e+03 5.160900497436523438e+01 1.486837482452392578e+01 1.093752145767211914e+00 8.165894746780395508e-01 5.731024742126464844e-01 2.107237130403518677e-01
2.949000000000000000e+03 4.981929779052734375e+01 6.520669937133789062e+00 -2.773177064955234528e-02 -5.384765863418579102e-01 -1.698625087738037109e-01 -9.000068306922912598e-01
2.950000000000000000e+03 6.830764007568359375e+01 3.564229011535644531e+00 -3.189256489276885986e-01 -1.188170537352561951e-02 -9.924221038818359375e-02 -3.871480226516723633e-01
2.951000000000000000e+03 6.701287078857421875e+01 1.280216598510742188e+01 8.205267786979675293e-02 -2.423566281795501709e-01 -4.809118434786796570e-02 -5.580903887748718262e-01
2.952000000000000000e+03 5.258053207397460938e+01 2.227171134948730469e+01 6.897733211517333984e-01 1.335194468498229980e+00 6.074903011322021484e-01 2.694277763366699219e-01
2.953000000000000000e+03 5.357689285278320312e+01 1.244400787353515625e+01 8.270114064216613770e-01 2.205626517534255981e-01 3.142721951007843018e-01 -3.102804422378540039e-01
2.954000000000000000e+03 6.518381500244140625e+01 2.006539344787597656e+01 3.333385884761810303e-01 -1.730047315359115601e-01 4.810015112161636353e-02 -3.210221827030181885e-01
2.955000000000000000e+03 6.787024688720703125e+01 1.896585273742675781e+01 2.237185835838317871e-01 -3.450159728527069092e-01 -3.638922423124313354e-02 -3.711857795715332031e-01
2.956000000000000000e+03 6.350174713134765625e+01 7.402345180511474609e+00 -2.650950551033020020e-01 -4.056235402822494507e-02 -9.169721603393554688e-02 -6.682973504066467285e-01
2.957000000000000000e+03 5.929314422607421875e+01 1.017410087585449219e+01 9.830863773822784424e-02 -4.962803423404693604e-02 1.460418011993169785e-02 -7.146184444427490234e-01
2.958000000000000000e+03 6.834534454345703125e+01 2.189984512329101562e+01 2.109005451202392578e-01 -3.802862167358398438e-01 -5.081569775938987732e-02 -2.655031383037567139e-01
2.959000000000000000e+03 6.886087799072265625e+01 2.175321102142333984e+00 -3.056294322013854980e-01 -2.882634056732058525e-03 -9.255361557006835938e-02 -2.943745851516723633e-01
2.960000000000000000e+03 6.503366088867187500e+01 7.011141300201416016e+00 -2.597106397151947021e-01 -4.379537329077720642e-02 -9.105180948972702026e-02 -6.091774106025695801e-01
2.961000000000000000e+03 6.909730529785156250e+01 2.522700119018554688e+01 1.820339560508728027e-01 -4.073533117771148682e-01 -6.759580224752426147e-02 -1.756507903337478638e-01
2.962000000000000000e+03 6.661106872558593750e+01 1.669040298461914062e+01 2.306612879037857056e-01 -2.696661651134490967e-01 -1.170146558433771133e-02 -4.547866582870483398e-01
2.963000000000000000e+03 5.322495269775390625e+01 2.402750587463378906e+01 6.010582447052001953e-01 1.271343469619750977e+00 5.617205500602722168e-01 2.382833510637283325e-01
2.964000000000000000e+03 5.201200485229492188e+01 2.654317665100097656e+01 4.827226400375366211e-01 1.549779534339904785e+00 6.097506880760192871e-01 2.657360434532165527e-01
2.965000000000000000e+03 6.454935455322265625e+01 1.391267681121826172e+01 1.948208212852478027e-01 -1.646001935005187988e-01 9.066186845302581787e-03 -5.583198666572570801e-01
2.966000000000000000e+03 6.781993865966796875e+01 7.833841323852539062e+00 -1.595629304647445679e-01 -1.358675360679626465e-01 -8.862914144992828369e-02 -5.474976301193237305e-01
2.967000000000000000e+03 5.466270828247070312e+01 1.004720497131347656e+01 3.713743090629577637e-01 6.996635813266038895e-03 1.135112866759300232e-01 -6.453678011894226074e-01
2.968000000000000000e+03 5.423896026611328125e+01 1.119035243988037109e+01 6.179330348968505859e-01 6.444758921861648560e-02 2.047141790390014648e-01 -4.930837452411651611e-01
2.969000000000000000e+03 5.700176239013671875e+01 1.026870155334472656e+01 2.379678487777709961e-01 -1.221576053649187088e-02 6.772562861442565918e-02 -6.923497915267944336e-01
2.970000000000000000e+03 6.787442779541015625e+01 1.097381019592285156e+01 -7.084249984472990036e-03 -2.246391773223876953e-01 -6.951702386140823364e-02 -5.577898621559143066e-01
2.971000000000000000e+03 4.892863464355468750e+01 2.818152236938476562e+01 4.010416567325592041e-01 2.065868377685546875e+00 7.400730252265930176e-01 2.203275561332702637e-01
2.972000000000000000e+03 5.257102203369140625e+01 -4.091464233398437500e+01 -2.631977014243602753e-02 3.666844367980957031e-01 1.021093949675559998e-01 -2.905693836510181427e-02
2.973000000000000000e+03 6.145628356933593750e+01 2.582766723632812500e+01 3.739683330059051514e-01 2.576594054698944092e-01 1.894883215427398682e-01 -3.746538609266281128e-02
2.974000000000000000e+03 7.172348022460937500e+01 -3.691270446777343750e+01 2.007864648476243019e-03 -3.519130637869238853e-03 -4.533797909971326590e-04 8.969468995928764343e-03
2.975000000000000000e+03 7.368797302246093750e+01 -3.883295440673828125e+01 3.813188988715410233e-03 -5.998807493597269058e-03 -6.556855514645576477e-04 4.967300221323966980e-03
2.976000000000000000e+03 6.860583305358886719e+00 3.889007949829101562e+01 -2.420642849756404757e-04 3.625188546720892191e-04 3.613637454691343009e-05 -7.641978299943730235e-05
2.977000000000000000e+03 3.110797500610351562e+01 -1.142613315582275391e+01 6.538824439048767090e-01 2.793867588043212891e+00 1.034325003623962402e+00 8.150463700294494629e-01
2.978000000000000000e+03 3.513944625854492188e+01 -1.166796302795410156e+01 1.361494185402989388e-03 3.390234231948852539e+00 1.017478704452514648e+00 -1.900651454925537109e+00
2.979000000000000000e+03 3.390683746337890625e+01 -1.108706378936767578e+01 3.014395944774150848e-02 4.435663700103759766e+00 1.339742302894592285e+00 -1.261464595794677734e+00
2.980000000000000000e+03 3.277164840698242188e+01 -1.183664608001708984e+01 -8.325939625501632690e-02 3.724442481994628906e+00 1.092354893684387207e+00 -4.123041927814483643e-01
2.981000000000000000e+03 3.315533828735351562e+01 -1.109294605255126953e+01 7.239462435245513916e-02 4.487727165222167969e+00 1.368036508560180664e+00 -6.108897924423217773e-01
2.982000000000000000e+03 1.249369621276855469e+01 -9.051403045654296875e+00 8.641019463539123535e-02 1.107150167226791382e-01 5.913756415247917175e-02 1.021861135959625244e-01
2.983000000000000000e+03 6.534142303466796875e+01 1.577530384063720703e+01 2.486263811588287354e-01 -2.118794471025466919e-01 1.102408394217491150e-02 -4.959474205970764160e-01
2.984000000000000000e+03 5.560280227661132812e+01 1.182424259185791016e+01 5.531935691833496094e-01 7.147511094808578491e-02 1.874006092548370361e-01 -5.266311764717102051e-01
2.985000000000000000e+03 5.490131378173828125e+01 1.337997817993164062e+01 7.525983452796936035e-01 1.968461275100708008e-01 2.848333418369293213e-01 -3.300231695175170898e-01
2.986000000000000000e+03 5.871069717407226562e+01 1.193972396850585938e+01 3.166440427303314209e-01 -1.511635258793830872e-02 9.045831114053726196e-02 -6.255583763122558594e-01
2.987000000000000000e+03 6.780495452880859375e+01 9.056250572204589844e+00 -9.479139745235443115e-02 -1.667012572288513184e-01 -7.844779640436172485e-02 -5.592926740646362305e-01
2.988000000000000000e+03 5.261415863037109375e+01 1.367857837677001953e+01 1.000924825668334961e+00 4.685920178890228271e-01 4.408550560474395752e-01 -3.892313688993453979e-02
2.989000000000000000e+03 5.250458145141601562e+01 1.590244293212890625e+01 1.006927728652954102e+00 7.661914229393005371e-01 5.319357514381408691e-01 1.492493748664855957e-01
2.990000000000000000e+03 5.197509384155273438e+01 2.082229995727539062e+01 7.643347978591918945e-01 1.375806450843811035e+00 6.420423984527587891e-01 3.102854192256927490e-01
2.991000000000000000e+03 6.656602478027343750e+01 1.153981018066406250e+01 3.480466455221176147e-02 -2.050427347421646118e-01 -5.107142031192779541e-02 -5.811159610748291016e-01
2.992000000000000000e+03 6.311096191406250000e+01 1.334801959991455078e+01 2.184877991676330566e-01 -1.306997984647750854e-01 2.633639611303806305e-02 -5.874903798103332520e-01
2.993000000000000000e+03 6.435912322998046875e+01 1.704451751708984375e+01 3.351989686489105225e-01 -1.656138747930526733e-01 5.087552964687347412e-02 -4.348542392253875732e-01
2.994000000000000000e+03 5.167565917968750000e+01 2.464378738403320312e+01 5.575484037399291992e-01 1.603133082389831543e+00 6.482044458389282227e-01 2.773119211196899414e-01
2.995000000000000000e+03 6.216358947753906250e+01 1.126350116729736328e+01 1.109948232769966125e-01 -9.779074788093566895e-02 3.961223177611827850e-03 -6.609662771224975586e-01
2.996000000000000000e+03 5.204885101318359375e+01 2.867914199829101562e+01 3.847393989562988281e-01 1.569126844406127930e+00 5.861598849296569824e-01 2.650040388107299805e-01
2.997000000000000000e+03 5.034611511230468750e+01 2.866797065734863281e+01 3.869405686855316162e-01 1.796238422393798828e+00 6.549537181854248047e-01 2.597095072269439697e-01
2.998000000000000000e+03 6.144524002075195312e+01 9.108974456787109375e+00 -9.198876470327377319e-02 -5.602925643324851990e-02 -4.440540820360183716e-02 -7.229465246200561523e-01
2.999000000000000000e+03 6.075883102416992188e+01 1.071931838989257812e+01 1.087513566017150879e-01 -5.533196032047271729e-02 1.602581702172756195e-02 -6.893121600151062012e-01
3.000000000000000000e+03 6.411567687988281250e+01 2.021034622192382812e+01 3.807722032070159912e-01 -1.052860692143440247e-01 8.264583349227905273e-02 -2.962397933006286621e-01
3.001000000000000000e+03 6.396823120117187500e+01 2.398970222473144531e+01 3.445473313331604004e-01 -2.967053838074207306e-02 9.446304291486740112e-02 -1.513840258121490479e-01
3.002000000000000000e+03 6.513982391357421875e+01 1.184009456634521484e+01 7.518529146909713745e-02 -1.703306138515472412e-01 -2.854359708726406097e-02 -6.080371737480163574e-01
3.003000000000000000e+03 4.542798614501953125e+01 -3.669209289550781250e+01 -1.912366300821304321e-01 9.017171263694763184e-01 2.131441384553909302e-01 -2.078779935836791992e-01
3.004000000000000000e+03 3.424405288696289062e+01 -1.153811264038085938e+01 -9.762977063655853271e-02 3.994829654693603516e+00 1.169160008430480957e+00 -1.576540470123291016e+00
3.005000000000000000e+03 6.038125228881835938e+01 1.902819442749023438e+01 5.378851294517517090e-01 1.092645600438117981e-01 1.941449046134948730e-01 -2.651133239269256592e-01
3.006000000000000000e+03 6.349114608764648438e+01 1.836420631408691406e+01 3.851267695426940918e-01 -9.927766025066375732e-02 8.575472980737686157e-02 -3.649291098117828369e-01
3.007000000000000000e+03 6.525757598876953125e+01 8.425045967102050781e+00 -1.634229421615600586e-01 -9.371239691972732544e-02 -7.714060693979263306e-02 -6.322767734527587891e-01
3.008000000000000000e+03 5.426799774169921875e+01 1.870826911926269531e+01 8.368792533874511719e-01 7.742646336555480957e-01 4.833431839942932129e-01 9.967710077762603760e-02
3.009000000000000000e+03 6.399085235595703125e+01 2.185419273376464844e+01 3.751352429389953613e-01 -6.744582206010818481e-02 9.230682253837585449e-02 -2.342435866594314575e-01
3.010000000000000000e+03 6.717353820800781250e+01 2.267410659790039062e+01 2.428694814443588257e-01 -3.053273558616638184e-01 -1.873736083507537842e-02 -2.401960194110870361e-01
3.011000000000000000e+03 4.969466781616210938e+01 1.389533329010009766e+01 1.301245450973510742e+00 1.103809952735900879e+00 7.215166687965393066e-01 5.141946077346801758e-01
3.012000000000000000e+03 5.373463058471679688e+01 1.474333190917968750e+01 9.158183336257934570e-01 4.794291257858276367e-01 4.185742437839508057e-01 -7.921388745307922363e-02
3.013000000000000000e+03 6.383049392700195312e+01 8.874872207641601562e+00 -1.207740902900695801e-01 -8.065005391836166382e-02 -6.042724475264549255e-02 -6.704518795013427734e-01
3.014000000000000000e+03 5.717798233032226562e+01 1.181834125518798828e+01 4.261459708213806152e-01 1.856891997158527374e-02 1.334144622087478638e-01 -5.897926092147827148e-01
3.015000000000000000e+03 6.327730941772460938e+01 1.607528305053710938e+01 3.578754663467407227e-01 -1.210204064846038818e-01 7.105652242898941040e-02 -4.641418755054473877e-01
3.016000000000000000e+03 6.275545883178710938e+01 9.768752098083496094e+00 -4.820213839411735535e-02 -7.554593682289123535e-02 -3.712442144751548767e-02 -6.868148446083068848e-01
3.017000000000000000e+03 6.576216125488281250e+01 9.528779983520507812e+00 -7.167323678731918335e-02 -1.334635913372039795e-01 -6.154104694724082947e-02 -6.273779869079589844e-01
3.018000000000000000e+03 5.398022460937500000e+01 2.138857841491699219e+01 7.386763691902160645e-01 9.947927594184875488e-01 5.200407505035400391e-01 1.886886656284332275e-01
3.019000000000000000e+03 5.484588623046875000e+01 2.314805412292480469e+01 6.348288059234619141e-01 9.649522304534912109e-01 4.799343049526214600e-01 1.609538793563842773e-01
3.020000000000000000e+03 6.255516052246093750e+01 2.164802169799804688e+01 4.288065135478973389e-01 3.071703203022480011e-02 1.378570646047592163e-01 -2.111376523971557617e-01
3.021000000000000000e+03 5.534134674072265625e+01 2.025159454345703125e+01 7.341982126235961914e-01 7.305394411087036133e-01 4.394212961196899414e-01 6.204069405794143677e-02
3.022000000000000000e+03 6.074190902709960938e+01 2.811369895935058594e+01 3.104870021343231201e-01 3.727959394454956055e-01 2.049848735332489014e-01 2.298257686197757721e-02
3.023000000000000000e+03 6.710702514648437500e+01 3.279143142700195312e+01 1.052000820636749268e-01 -1.855810135602951050e-01 -2.411427907645702362e-02 -1.486064586788415909e-02
3.024000000000000000e+03 6.088373184204101562e+01 3.415021514892578125e+01 1.083534359931945801e-01 5.312474966049194336e-01 1.918802857398986816e-01 9.364967793226242065e-02
3.025000000000000000e+03 6.406435394287109375e+01 1.511499691009521484e+01 2.697073221206665039e-01 -1.729486137628555298e-01 2.902760915458202362e-02 -5.268880128860473633e-01
3.026000000000000000e+03 6.362277221679687500e+01 1.175136566162109375e+01 9.958022087812423706e-02 -1.263072341680526733e-01 -8.018106222152709961e-03 -6.256201267242431641e-01
3.027000000000000000e+03 6.279357528686523438e+01 1.483912181854248047e+01 3.339189291000366211e-01 -1.098138466477394104e-01 6.723152101039886475e-02 -5.270479321479797363e-01
3.028000000000000000e+03 6.160236740112304688e+01 1.279492282867431641e+01 2.359575629234313965e-01 -7.741469889879226685e-02 4.756285995244979858e-02 -6.047298908233642578e-01
3.029000000000000000e+03 6.515940093994140625e+01 1.046232414245605469e+01 -8.234435692429542542e-03 -1.398216634988784790e-01 -4.441682994365692139e-02 -6.265560388565063477e-01
3.030000000000000000e+03 6.395236968994140625e+01 1.024672031402587891e+01 -1.092965528368949890e-02 -1.179141625761985779e-01 -3.865314647555351257e-02 -6.525250673294067383e-01
3.031000000000000000e+03 5.477098083496093750e+01 1.600143432617187500e+01 8.583757877349853516e-01 4.519203901290893555e-01 3.930888473987579346e-01 -9.357313066720962524e-02
3.032000000000000000e+03 6.020016479492187500e+01 1.236129760742187500e+01 2.822799682617187500e-01 -5.314003676176071167e-02 6.874197721481323242e-02 -6.209626793861389160e-01
3.033000000000000000e+03 5.932851409912109375e+01 2.504606819152832031e+01 4.586967527866363525e-01 4.605996012687683105e-01 2.757889032363891602e-01 7.667470723390579224e-03
3.034000000000000000e+03 6.296642684936523438e+01 1.990629577636718750e+01 4.242666959762573242e-01 -3.711377829313278198e-02 1.161458715796470642e-01 -2.902426719665527344e-01
3.035000000000000000e+03 5.618894195556640625e+01 1.462528991699218750e+01 7.064102292060852051e-01 2.190760523080825806e-01 2.776458859443664551e-01 -3.165310025215148926e-01
3.036000000000000000e+03 5.426524353027343750e+01 3.056857490539550781e+01 2.490905374288558960e-01 1.271461963653564453e+00 4.561657309532165527e-01 2.328859120607376099e-01
3.037000000000000000e+03 6.037825775146484375e+01 2.297458648681640625e+01 4.908987879753112793e-01 2.750287055969238281e-01 2.297782450914382935e-01 -8.716687560081481934e-02
3.038000000000000000e+03 5.810667800903320312e+01 2.968501853942871094e+01 2.863123118877410889e-01 7.329080700874328613e-01 3.057661354541778564e-01 1.174755394458770752e-01
3.039000000000000000e+03 5.758414459228515625e+01 2.370324325561523438e+01 5.475478768348693848e-01 6.159879565238952637e-01 3.490607440471649170e-01 4.252620413899421692e-02
3.040000000000000000e+03 5.862231826782226562e+01 3.288515853881835938e+01 1.457162052392959595e-01 7.441286444664001465e-01 2.669534385204315186e-01 1.163331717252731323e-01
3.041000000000000000e+03 5.495035171508789062e+01 3.303313827514648438e+01 1.139640733599662781e-01 1.238968372344970703e+00 4.058797359466552734e-01 2.058362811803817749e-01
3.042000000000000000e+03 5.576354217529296875e+01 1.744628143310546875e+01 7.812428474426269531e-01 4.661711752414703369e-01 3.742242157459259033e-01 -9.117130190134048462e-02
3.043000000000000000e+03 1.674542427062988281e+01 -4.123552703857421875e+01 -3.790503740310668945e-02 -1.599747687578201294e-01 -5.936394259333610535e-02 1.866474375128746033e-02
3.044000000000000000e+03 9.400613784790039062e+00 -3.893876266479492188e+01 3.746470808982849121e-02 -5.918297544121742249e-02 -6.515480112284421921e-03 1.508678589016199112e-02
3.045000000000000000e+03 1.257794380187988281e+01 -3.690564727783203125e+01 -1.073064878582954407e-01 -1.727181077003479004e-01 -8.400737494230270386e-02 1.020267009735107422e-01
3.046000000000000000e+03 7.204621887207031250e+01 -4.129784011840820312e+01 6.847890093922615051e-03 -7.126693148165941238e-03 -8.364087261725217104e-05 2.177432877942919731e-03
3.047000000000000000e+03 6.046320724487304688e+01 1.389725780487060547e+01 3.921916484832763672e-01 -5.323465168476104736e-02 1.016870960593223572e-01 -5.468795299530029297e-01
3.048000000000000000e+03 5.771140670776367188e+01 1.339374732971191406e+01 5.331931710243225098e-01 5.083065479993820190e-02 1.752071529626846313e-01 -4.886384606361389160e-01
3.049000000000000000e+03 5.979632186889648438e+01 1.646378517150878906e+01 5.354908108711242676e-01 6.689345836639404297e-02 1.807152926921844482e-01 -3.664748966693878174e-01
3.050000000000000000e+03 5.675008773803710938e+01 1.898694610595703125e+01 7.209763526916503906e-01 4.710968136787414551e-01 3.576219379901885986e-01 -7.251347601413726807e-02
3.051000000000000000e+03 5.890713500976562500e+01 2.193158912658691406e+01 5.581602454185485840e-01 3.595468401908874512e-01 2.753121256828308105e-01 -8.061525970697402954e-02
3.052000000000000000e+03 6.170499420166015625e+01 1.950546646118164062e+01 4.688533544540405273e-01 2.484270930290222168e-02 1.481088250875473022e-01 -2.817007005214691162e-01
3.053000000000000000e+03 5.625365829467773438e+01 2.746092224121093750e+01 4.100942015647888184e-01 9.190687537193298340e-01 3.987488746643066406e-01 1.521741598844528198e-01
3.054000000000000000e+03 5.576488113403320312e+01 2.515074157714843750e+01 5.297293066978454590e-01 9.065676927566528320e-01 4.308890998363494873e-01 1.464521288871765137e-01
3.055000000000000000e+03 5.882287597656250000e+01 1.488187694549560547e+01 5.415214300155639648e-01 7.292523235082626343e-02 1.843339949846267700e-01 -4.345312416553497314e-01
3.056000000000000000e+03 7.101996898651123047e+00 -3.821102905273437500e+01 3.154668584465980530e-02 5.405701696872711182e-02 2.568111196160316467e-02 2.504033967852592468e-03
3.057000000000000000e+03 6.217517089843750000e+01 1.800683403015136719e+01 4.309250414371490479e-01 -3.228853642940521240e-02 1.195909529924392700e-01 -3.573831915855407715e-01
3.058000000000000000e+03 6.129845809936523438e+01 1.533994579315185547e+01 4.099115729331970215e-01 -5.495150387287139893e-02 1.064880266785621643e-01 -4.839557409286499023e-01
3.059000000000000000e+03 6.088792419433593750e+01 1.759050941467285156e+01 4.991205930709838867e-01 4.428250342607498169e-02 1.630209237337112427e-01 -3.440731763839721680e-01
3.060000000000000000e+03 4.880415725708007812e+01 3.535842895507812500e+01 -1.090297847986221313e-01 1.927586674690246582e+00 5.455670356750488281e-01 1.964834183454513550e-01
3.061000000000000000e+03 6.209177398681640625e+01 2.364470672607421875e+01 4.195956587791442871e-01 1.392878293991088867e-01 1.676650494337081909e-01 -1.173484474420547485e-01
3.062000000000000000e+03 5.773865127563476562e+01 2.053823661804199219e+01 6.337611675262451172e-01 4.451646208763122559e-01 3.236777186393737793e-01 -7.379999756813049316e-02
3.063000000000000000e+03 6.202824020385742188e+01 1.669161224365234375e+01 4.285272657871246338e-01 -5.644572898745536804e-02 1.116244643926620483e-01 -4.220276176929473877e-01
3.064000000000000000e+03 5.637322235107421875e+01 3.549208068847656250e+01 1.918940432369709015e-02 1.100466132164001465e+00 3.358966708183288574e-01 1.470037549734115601e-01
3.065000000000000000e+03 5.633088684082031250e+01 2.973528480529785156e+01 2.838108539581298828e-01 9.919520616531372070e-01 3.827288746833801270e-01 1.694740802049636841e-01
3.066000000000000000e+03 5.993851089477539062e+01 3.047592735290527344e+01 2.478017657995223999e-01 5.472450256347656250e-01 2.385140359401702881e-01 9.725692868232727051e-02
3.067000000000000000e+03 5.990141677856445312e+01 2.045687866210937500e+01 5.460721850395202637e-01 2.272071987390518188e-01 2.319838255643844604e-01 -1.620240658521652222e-01
3.068000000000000000e+03 5.827010345458984375e+01 1.774815750122070312e+01 6.390110850334167480e-01 2.373564541339874268e-01 2.629102766513824463e-01 -2.387527972459793091e-01
3.069000000000000000e+03 5.904461288452148438e+01 1.930502700805664062e+01 5.978682637214660645e-01 2.393118292093276978e-01 2.511540353298187256e-01 -1.905883997678756714e-01
3.070000000000000000e+03 6.115888977050781250e+01 2.115441322326660156e+01 4.924144148826599121e-01 1.350106447935104370e-01 1.882275193929672241e-01 -1.855224817991256714e-01
3.071000000000000000e+03 4.600183105468750000e+01 3.627712249755859375e+01 -2.332300245761871338e-01 2.167820930480957031e+00 5.803772807121276855e-01 1.002774834632873535e-01
3.072000000000000000e+03 5.853470230102539062e+01 2.740881729125976562e+01 3.863331973552703857e-01 6.308481693267822266e-01 3.051544129848480225e-01 8.516701310873031616e-02
3.073000000000000000e+03 6.308100128173828125e+01 3.804029083251953125e+01 1.277316268533468246e-02 3.372195065021514893e-01 1.049978062510490417e-01 2.661165222525596619e-02
3.074000000000000000e+03 6.451263427734375000e+01 3.223818588256835938e+01 1.390634775161743164e-01 8.595167100429534912e-02 6.750454753637313843e-02 1.429521013051271439e-02
3.075000000000000000e+03 6.728501129150390625e+01 4.113683319091796875e+01 9.438266977667808533e-03 -1.588923335075378418e-01 -4.483621940016746521e-02 6.062999367713928223e-03
3.076000000000000000e+03 3.588790130615234375e+01 4.004686737060546875e+01 -1.065279729664325714e-02 5.422865748405456543e-01 1.594901382923126221e-01 -1.394499391317367554e-01
3.077000000000000000e+03 6.206839752197265625e+01 3.142670631408691406e+01 1.878984123468399048e-01 3.225897252559661865e-01 1.531464457511901855e-01 4.505982622504234314e-02
3.078000000000000000e+03 5.917113494873046875e+01 3.725787353515625000e+01 -1.280343253165483475e-02 8.138055801391601562e-01 2.403006553649902344e-01 9.151122719049453735e-02
3.079000000000000000e+03 5.282148361206054688e+01 3.740987014770507812e+01 -1.393797099590301514e-01 1.521631240844726562e+00 4.146754443645477295e-01 1.617992371320724487e-01
3.080000000000000000e+03 4.353674697875976562e+01 3.742690277099609375e+01 -3.428655862808227539e-01 2.066627740859985352e+00 5.171286463737487793e-01 -3.966343402862548828e-02
3.081000000000000000e+03 4.152901077270507812e+01 -3.820737838745117188e+01 -3.914198875427246094e-01 1.258367180824279785e+00 2.600841820240020752e-01 -1.562428474426269531e-01
3.082000000000000000e+03 2.330302429199218750e+01 -4.087216567993164062e+01 -1.131120473146438599e-01 7.648020982742309570e-02 -1.098955143243074417e-02 2.595083415508270264e-02
3.083000000000000000e+03 4.211633682250976562e+01 -5.416803359985351562e+00 -1.222664713859558105e-01 -6.318582892417907715e-01 -2.262374311685562134e-01 -2.606030702590942383e-01
3.084000000000000000e+03 3.727877044677734375e+01 -5.022995471954345703e+00 7.716547846794128418e-01 7.397253513336181641e-01 4.534140527248382568e-01 1.372163772583007812e+00
3.085000000000000000e+03 7.921119689941406250e+01 -1.043762493133544922e+01 2.274494152516126633e-03 8.344006724655628204e-03 3.185550216585397720e-03 4.548323340713977814e-03
3.086000000000000000e+03 3.582446289062500000e+01 -8.792734146118164062e+00 2.114578723907470703e+00 2.228338241577148438e+00 1.302875041961669922e+00 -2.422280788421630859e+00
3.087000000000000000e+03 3.453736877441406250e+01 -8.232135772705078125e+00 2.302931070327758789e+00 6.261012554168701172e+00 2.569183111190795898e+00 -3.358712196350097656e+00
3.088000000000000000e+03 3.410415649414062500e+01 -8.471281051635742188e+00 1.501310706138610840e+00 7.935292243957519531e+00 2.830980777740478516e+00 -2.350740909576416016e+00
3.089000000000000000e+03 2.606518745422363281e+01 -1.819143414497375488e+00 -2.841726303100585938e+00 -1.256209611892700195e-01 -8.902041316032409668e-01 5.844558775424957275e-02
3.090000000000000000e+03 3.447946548461914062e+01 -4.175431728363037109e+00 -1.916128396987915039e-01 7.776238918304443359e+00 2.275387763977050781e+00 5.024593830108642578e+00
3.091000000000000000e+03 3.491541290283203125e+01 -4.718345642089843750e+00 2.311274766921997070e+00 5.718260288238525391e+00 2.408860683441162109e+00 5.851964473724365234e+00
3.092000000000000000e+03 3.555881881713867188e+01 -4.950517177581787109e+00 2.980426549911499023e+00 2.595620870590209961e+00 1.672814249992370605e+00 4.508840084075927734e+00
3.093000000000000000e+03 3.716540145874023438e+01 -5.315667629241943359e+00 8.298038840293884277e-01 4.798093736171722412e-01 3.928839862346649170e-01 1.258310794830322266e+00
3.094000000000000000e+03 8.097724318504333496e-01 3.039321660995483398e+00 1.113919825002085418e-05 3.791005656239576638e-05 1.471477571612922475e-05 -4.786917634191922843e-05
3.095000000000000000e+03 3.753304672241210938e+01 -5.375269889831542969e+00 4.221059978008270264e-01 5.717420578002929688e-01 2.981544137001037598e-01 9.061116576194763184e-01
3.096000000000000000e+03 4.184459304809570312e+01 -1.525638771057128906e+01 1.145441383123397827e-01 2.176348686218261719e+00 6.872678399085998535e-01 -4.424917399883270264e-01
3.097000000000000000e+03 6.433110046386718750e+01 -3.943702697753906250e+01 2.579334750771522522e-02 -8.587006479501724243e-03 5.161902401596307755e-03 1.203727256506681442e-02
3.098000000000000000e+03 3.787635421752929688e+01 -5.243789672851562500e+00 1.899268478155136108e-01 5.375503897666931152e-01 2.182431817054748535e-01 7.157926559448242188e-01
3.099000000000000000e+03 3.790082931518554688e+01 -4.884139060974121094e+00 2.177530080080032349e-01 9.044734239578247070e-01 3.366679251194000244e-01 1.084758281707763672e+00
3.100000000000000000e+03 2.069858169555664062e+01 1.831383585929870605e+00 -6.830181519035249949e-05 1.626479024707805365e-05 -1.561110730108339339e-05 -1.280065225728321820e-05
3.101000000000000000e+03 1.973743057250976562e+01 2.378296613693237305e+00 -1.365262578474357724e-04 1.043790689436718822e-05 -3.782650674111209810e-05 -5.346484977053478360e-05
3.102000000000000000e+03 2.631847858428955078e+00 2.603321313858032227e+00 -3.468029899522662163e-05 -2.457987466186750680e-05 -1.777805300662294030e-05 9.013049748318735510e-06
3.103000000000000000e+03 2.892201185226440430e+00 3.819951629638671875e+01 1.767334179021418095e-04 1.710361684672534466e-04 1.043308730004355311e-04 -1.152830009232275188e-04
3.104000000000000000e+03 7.790110015869140625e+01 3.520634078979492188e+01 1.017002761363983154e-02 -1.414509892463684082e+00 -4.213019311428070068e-01 1.130052958615124226e-03
3.105000000000000000e+03 3.269437408447265625e+01 -3.309031963348388672e+00 -2.123016357421875000e+00 4.693000316619873047e+00 7.709951996803283691e-01 9.018574357032775879e-01
3.106000000000000000e+03 4.997007846832275391e+00 -1.839746475219726562e+01 4.197382628917694092e-01 5.181738138198852539e-01 2.813736200332641602e-01 2.702762186527252197e-01
3.107000000000000000e+03 7.133229827880859375e+01 -1.693297004699707031e+01 -3.736065264092758298e-05 1.179148021037690341e-04 2.416624374745879322e-05 4.618847015080973506e-05
3.108000000000000000e+03 3.285886001586914062e+01 -2.540354251861572266e+00 -4.116695404052734375e+00 3.517399787902832031e+00 -1.797886639833450317e-01 9.013617038726806641e-01
3.109000000000000000e+03 6.683303833007812500e+01 -7.431497573852539062e+00 -5.928947590291500092e-03 8.789668790996074677e-03 8.582163718529045582e-04 -1.015510316938161850e-02
3.110000000000000000e+03 3.308071899414062500e+01 -2.997881412506103516e+00 -2.959522962570190430e+00 5.580715656280517578e+00 7.863578200340270996e-01 1.538618922233581543e+00
3.111000000000000000e+03 7.558985900878906250e+01 -9.868769645690917969e+00 4.125332459807395935e-03 -2.142218174412846565e-03 5.949342157691717148e-04 1.007345132529735565e-02
3.112000000000000000e+03 3.623895263671875000e+01 -4.515413284301757812e+00 1.371102929115295410e+00 2.209468603134155273e+00 1.074171423912048340e+00 3.561680793762207031e+00
3.113000000000000000e+03 3.609696197509765625e+01 -9.213102340698242188e+00 1.703116297721862793e+00 2.105142354965209961e+00 1.142477631568908691e+00 -2.306380510330200195e+00
3.114000000000000000e+03 3.425283813476562500e+01 -8.746628761291503906e+00 1.369292736053466797e+00 6.751547336578369141e+00 2.436251878738403320e+00 -2.424769163131713867e+00
3.115000000000000000e+03 3.512035751342773438e+01 -4.621006488800048828e+00 1.973724126815795898e+00 4.719482421875000000e+00 2.007961988449096680e+00 5.428657054901123047e+00
3.116000000000000000e+03 3.607157135009765625e+01 -3.765742778778076172e+00 -5.393252242356538773e-03 3.636076927185058594e+00 1.089205145835876465e+00 4.111838817596435547e+00
3.117000000000000000e+03 3.713476562500000000e+01 -4.168202400207519531e+00 1.875305622816085815e-01 2.047026395797729492e+00 6.703670620918273926e-01 2.385539531707763672e+00
3.118000000000000000e+03 1.846669387817382812e+01 3.525071334838867188e+01 2.694530179724097252e-03 -2.886478032451122999e-04 7.217646925710141659e-04 -2.864442067220807076e-04
3.119000000000000000e+03 3.781533241271972656e+00 3.497561264038085938e+01 -1.675841194810345769e-04 1.558093645144253969e-04 -3.532424898367025889e-06 -1.149208983406424522e-04
3.120000000000000000e+03 6.263481140136718750e+01 -3.543960952758789062e+01 -6.346619222313165665e-03 -6.844341289252042770e-03 -3.957287874072790146e-03 2.541144378483295441e-02
3.121000000000000000e+03 3.480708312988281250e+01 -9.279937744140625000e+00 1.245431423187255859e+00 4.688016414642333984e+00 1.780034303665161133e+00 -2.550193786621093750e+00
3.122000000000000000e+03 3.947914123535156250e+01 -1.648181915283203125e+01 -1.668849289417266846e-01 2.393034458160400391e+00 6.678448915481567383e-01 -5.004296898841857910e-01
3.123000000000000000e+03 1.712059020996093750e+01 -3.354758071899414062e+01 -3.830040097236633301e-01 -7.450404018163681030e-02 -1.372524052858352661e-01 7.334438711404800415e-02
3.124000000000000000e+03 4.099003982543945312e+01 3.620568847656250000e+01 -2.105280905961990356e-01 1.907298445701599121e+00 5.090311169624328613e-01 -3.414299190044403076e-01
3.125000000000000000e+03 3.674224472045898438e+01 -2.729225921630859375e+01 2.976900339126586914e-01 2.609472751617431641e+00 8.721488714218139648e-01 -1.936010830104351044e-02
3.126000000000000000e+03 3.781084823608398438e+01 -2.504149246215820312e+01 5.391443371772766113e-01 2.845828533172607422e+00 1.015491843223571777e+00 -2.753658890724182129e-01
3.127000000000000000e+03 3.712226104736328125e+01 -1.779497909545898438e+01 -7.095998525619506836e-01 3.104337215423583984e+00 7.184212207794189453e-01 -3.473117649555206299e-01
3.128000000000000000e+03 2.833547210693359375e+01 -3.527865600585937500e+01 -2.074341922998428345e-01 4.237599372863769531e-01 6.489772349596023560e-02 2.011820375919342041e-01
3.129000000000000000e+03 4.343190765380859375e+01 4.106503677368164062e+01 -4.250625371932983398e-01 1.912967205047607422e+00 4.463714063167572021e-01 -9.611563757061958313e-03
3.130000000000000000e+03 2.926414680480957031e+01 -6.891309261322021484e+00 4.177245140075683594e+00 -5.690811276435852051e-01 1.082449197769165039e+00 1.816755533218383789e-01
3.131000000000000000e+03 4.257809066772460938e+01 4.436841964721679688e+00 6.658601164817810059e-01 2.111943244934082031e+00 8.333410024642944336e-01 1.761401891708374023e+00
3.132000000000000000e+03 4.153643035888671875e+01 4.552419185638427734e+00 1.513398885726928711e+00 4.510565280914306641e+00 1.807189226150512695e+00 2.350136518478393555e+00
3.133000000000000000e+03 3.445249176025390625e+01 -9.924168586730957031e+00 6.414698958396911621e-01 4.969716072082519531e+00 1.683355808258056641e+00 -2.039304733276367188e+00
3.134000000000000000e+03 3.816459274291992188e+01 -1.775983810424804688e+01 -4.725875556468963623e-01 2.919087648391723633e+00 7.339500188827514648e-01 -2.977684438228607178e-01
3.135000000000000000e+03 4.971024990081787109e+00 -3.129478836059570312e+01 -2.423029839992523193e-01 2.258375287055969238e-01 -4.939639009535312653e-03 9.209242463111877441e-02
3.136000000000000000e+03 4.762313365936279297e+00 -3.234555435180664062e+01 -1.518174260854721069e-01 2.731739878654479980e-01 3.640697151422500610e-02 4.514301195740699768e-02
3.137000000000000000e+03 3.368166732788085938e+01 -9.283245086669921875e+00 8.283681273460388184e-01 6.820649623870849609e+00 2.294705390930175781e+00 -1.181954741477966309e+00
3.138000000000000000e+03 3.895881891250610352e+00 -3.360213851928710938e+01 -6.817354261875152588e-02 4.245131611824035645e-01 1.069018915295600891e-01 -1.150433719158172607e-02
3.139000000000000000e+03 3.316308975219726562e+01 -9.511911392211914062e+00 7.395678162574768066e-01 6.642591953277587891e+00 2.214648008346557617e+00 -1.961772292852401733e-01
3.140000000000000000e+03 3.629946899414062500e+01 -3.106318473815917969e+01 -2.595004141330718994e-01 1.933897018432617188e+00 5.023189783096313477e-01 5.217267572879791260e-02
3.141000000000000000e+03 4.891534042358398438e+01 -3.268407440185546875e+01 1.175687834620475769e-02 4.993349313735961914e-01 1.533275395631790161e-01 -2.602181434631347656e-01
3.142000000000000000e+03 2.853771400451660156e+01 -6.708042144775390625e+00 3.443336009979248047e+00 -8.097059130668640137e-01 7.900890111923217773e-01 -2.135468870401382446e-01
3.143000000000000000e+03 5.886981964111328125e+00 -3.354275131225585938e+01 -1.386448889970779419e-01 1.056018620729446411e-01 -9.912910871207714081e-03 2.863556146621704102e-02
3.144000000000000000e+03 4.800275802612304688e+01 -3.137821197509765625e+01 5.004084110260009766e-02 5.344295501708984375e-01 1.753411144018173218e-01 -2.935371696949005127e-01
3.145000000000000000e+03 3.581593322753906250e+01 -9.370302200317382812e+00 1.516481399536132812e+00 2.638347625732421875e+00 1.246448636054992676e+00 -2.401454687118530273e+00
3.146000000000000000e+03 3.580718994140625000e+01 -3.445661783218383789e+00 -6.479889154434204102e-01 4.328655242919921875e+00 1.104199886322021484e+00 4.157013893127441406e+00
3.147000000000000000e+03 3.569790267944335938e+01 -9.914170265197753906e+00 1.112309455871582031e+00 3.030035018920898438e+00 1.242703318595886230e+00 -2.390105724334716797e+00
3.148000000000000000e+03 4.249580001831054688e+01 6.543348312377929688e+00 2.380798101425170898e+00 3.837868690490722656e+00 1.865599989891052246e+00 2.519617795944213867e+00
3.149000000000000000e+03 3.891850280761718750e+01 -1.438745307922363281e+01 -1.682660430669784546e-01 2.186234474182128906e+00 6.053904891014099121e-01 -1.035057783126831055e+00
3.150000000000000000e+03 1.221974182128906250e+01 -1.225990962982177734e+01 3.134970664978027344e-01 2.327397316694259644e-01 1.638710498809814453e-01 2.652572095394134521e-01
3.151000000000000000e+03 1.447041893005371094e+01 -1.176255893707275391e+01 3.491513133049011230e-01 -8.614082820713520050e-03 1.021611690521240234e-01 2.616055905818939209e-01
3.152000000000000000e+03 4.719014644622802734e+00 -1.109538745880126953e+01 -3.107438981533050537e-02 5.134387314319610596e-02 6.080845370888710022e-03 -2.128744870424270630e-01
3.153000000000000000e+03 4.216709899902343750e+01 3.304322814941406250e+01 1.245363801717758179e-01 2.519524097442626953e+00 7.932181358337402344e-01 -3.278094530105590820e-01
3.154000000000000000e+03 3.875573730468750000e+01 -1.363443374633789062e+01 -6.625542789697647095e-02 2.023022413253784180e+00 5.870301127433776855e-01 -1.200938820838928223e+00
3.155000000000000000e+03 3.992806625366210938e+01 -4.579620957374572754e-01 -2.499491453170776367e+00 3.936923265457153320e+00 4.312295317649841309e-01 2.487694621086120605e-01
3.156000000000000000e+03 3.561711120605468750e+01 -9.063815116882324219e+00 1.845603466033935547e+00 2.870363235473632812e+00 1.414790034294128418e+00 -2.612593173980712891e+00
3.157000000000000000e+03 4.344604492187500000e+01 -2.713510704040527344e+01 2.489613890647888184e-01 1.027519345283508301e+00 3.829442262649536133e-01 -4.893549680709838867e-01
3.158000000000000000e+03 1.305125331878662109e+01 2.892151260375976562e+01 -3.973425918957218528e-05 -3.250407171435654163e-04 -1.094324907171539962e-04 -1.645390875637531281e-05
3.159000000000000000e+03 3.299997568130493164e+00 3.240631103515625000e+01 -1.729402574710547924e-04 1.176324294647201896e-04 -1.659234840190038085e-05 -7.452889985870569944e-05
3.160000000000000000e+03 3.350232696533203125e+01 -1.003112697601318359e+01 4.235739409923553467e-01 5.758532047271728516e+00 1.854631781578063965e+00 -8.796756267547607422e-01
3.161000000000000000e+03 7.198365783691406250e+01 -2.592566108703613281e+01 -8.014385239221155643e-04 -3.072745748795568943e-04 -3.326139412820339203e-04 -8.606438495917245746e-05
3.162000000000000000e+03 3.707938385009765625e+01 -3.520689392089843750e+01 -4.397361278533935547e-01 1.511651873588562012e+00 3.215747475624084473e-01 -2.648835629224777222e-02
3.163000000000000000e+03 4.350774383544921875e+01 7.879726886749267578e+00 2.159222602844238281e+00 2.855757474899291992e+00 1.504494071006774902e+00 2.156487226486206055e+00
3.164000000000000000e+03 3.490623474121093750e+01 -1.576097679138183594e+01 -1.330260396003723145e+00 2.782341718673706055e+00 4.356243908405303955e-01 -1.297366380691528320e+00
3.165000000000000000e+03 1.097219276428222656e+01 3.014806365966796875e+01 -1.350217371509643272e-05 -4.921080544590950012e-04 -1.516830670880153775e-04 2.579337451606988907e-04
3.166000000000000000e+03 3.525643539428710938e+01 -9.668807983398437500e+00 1.175147533416748047e+00 3.693951606750488281e+00 1.460729718208312988e+00 -2.526655197143554688e+00
3.167000000000000000e+03 3.538753890991210938e+01 -1.008551311492919922e+01 8.922046422958374023e-01 3.504915237426757812e+00 1.319136023521423340e+00 -2.382408618927001953e+00
3.168000000000000000e+03 3.867872238159179688e+01 -1.227838802337646484e+01 1.743783354759216309e-01 1.732142686843872070e+00 5.719562768936157227e-01 -1.344063282012939453e+00
3.169000000000000000e+03 5.260822772979736328e+00 8.030488014221191406e+00 -6.365180888678878546e-05 6.586909148609265685e-05 6.651853254879824817e-07 1.281795721297385171e-05
3.170000000000000000e+03 4.396552562713623047e+00 7.431214332580566406e+00 7.004154031164944172e-05 -5.262315244181081653e-05 5.225515906204236671e-06 -2.157372546207625419e-05
3.171000000000000000e+03 3.694328308105468750e+01 -3.193390464782714844e+01 -3.237162232398986816e-01 1.858286857604980469e+00 4.603711962699890137e-01 -4.401563853025436401e-02
3.172000000000000000e+03 4.752704238891601562e+01 3.915719747543334961e+00 -1.488667607307434082e+00 -1.515573143959045410e+00 -9.012722373008728027e-01 -1.217216849327087402e+00
3.173000000000000000e+03 4.812362670898437500e+01 4.547434806823730469e+00 -9.820011258125305176e-01 -9.254656434059143066e-01 -5.722400546073913574e-01 -1.053250193595886230e+00
3.174000000000000000e+03 3.947027206420898438e+01 -2.918538665771484375e+01 1.214366685599088669e-02 1.878526329994201660e+00 5.672010183334350586e-01 -4.140809476375579834e-01
3.175000000000000000e+03 1.959965133666992188e+01 -1.243499755859375000e+01 4.804510772228240967e-01 -3.729742169380187988e-01 3.224306181073188782e-02 3.894464671611785889e-01
3.176000000000000000e+03 1.564142990112304688e+01 2.905249595642089844e+00 4.639842154574580491e-05 -2.429287997074425220e-05 6.631662472500465810e-06 1.403615169692784548e-05
3.177000000000000000e+03 7.687382507324218750e+01 -1.786094474792480469e+01 -2.329130365978926420e-04 -8.871068712323904037e-05 -9.648712148191407323e-05 7.572104550490621477e-06
3.178000000000000000e+03 3.684812927246093750e+01 -1.130435752868652344e+01 4.256442785263061523e-01 2.246085882186889648e+00 8.015190362930297852e-01 -1.908352971076965332e+00
3.179000000000000000e+03 1.025989151000976562e+01 2.870212745666503906e+01 4.264607559889554977e-04 1.231175119755789638e-04 1.648734760237857699e-04 -2.594744728412479162e-04
3.180000000000000000e+03 4.880315399169921875e+01 5.010645389556884766e+00 -8.445276021957397461e-01 -1.015449762344360352e+00 -5.579932332038879395e-01 -1.130719423294067383e+00
3.181000000000000000e+03 3.418402862548828125e+01 -1.073014163970947266e+01 2.150012701749801636e-01 4.584651947021484375e+00 1.439895868301391602e+00 -1.574192523956298828e+00
3.182000000000000000e+03 3.359735870361328125e+01 -1.085825252532958984e+01 7.223159074783325195e-02 4.638614654541015625e+00 1.413253903388977051e+00 -1.015563845634460449e+00
3.183000000000000000e+03 3.956013870239257812e+01 -2.763431167602539062e+01 2.441394031047821045e-01 1.912231802940368652e+00 6.469113230705261230e-01 -4.172114133834838867e-01
3.184000000000000000e+03 3.361933135986328125e+01 -1.223398876190185547e+01 -3.488112688064575195e-01 3.584087848663330078e+00 9.705829620361328125e-01 -1.111142635345458984e+00
3.185000000000000000e+03 3.368991088867187500e+01 -1.439415740966796875e+01 -1.000177979469299316e+00 2.576274633407592773e+00 4.728289842605590820e-01 -1.204317450523376465e+00
3.186000000000000000e+03 7.255293273925781250e+01 1.465277767181396484e+01 5.264473333954811096e-02 -5.116682648658752441e-01 -1.377070695161819458e-01 -3.864171504974365234e-01
3.187000000000000000e+03 4.157370376586914062e+01 -2.674887657165527344e+01 3.090144991874694824e-01 1.450127959251403809e+00 5.277427434921264648e-01 -5.110936760902404785e-01
3.188000000000000000e+03 2.062101173400878906e+01 -1.166012382507324219e+01 6.020624637603759766e-01 -4.710134565830230713e-01 3.931469842791557312e-02 4.119654297828674316e-01
3.189000000000000000e+03 4.756299495697021484e+00 8.979557037353515625e+00 7.827027002349495888e-05 -6.389022018993273377e-05 4.314014404371846467e-06 -5.482752385432831943e-06
3.190000000000000000e+03 5.152280807495117188e+00 1.033745574951171875e+01 9.817858881433494389e-06 -4.027090471936389804e-05 -9.135914297075942159e-06 -2.349176247662398964e-05
3.191000000000000000e+03 3.096731185913085938e+01 -1.229137611389160156e+01 2.794164121150970459e-01 2.235921859741210938e+00 7.546014785766601562e-01 5.996740460395812988e-01
3.192000000000000000e+03 4.664098739624023438e+01 1.027421379089355469e+01 1.733292341232299805e+00 1.283596754074096680e+00 9.050667285919189453e-01 1.005918860435485840e+00
3.193000000000000000e+03 3.473329925537109375e+01 -1.105535221099853516e+01 1.796173900365829468e-01 3.896486520767211914e+00 1.222831130027770996e+00 -1.888649225234985352e+00
3.194000000000000000e+03 5.073227691650390625e+01 7.064111232757568359e+00 2.948742546141147614e-02 -2.766718566417694092e-01 -7.415533065795898438e-02 -8.461095690727233887e-01
3.195000000000000000e+03 5.073128890991210938e+01 5.994744300842285156e+00 -6.507239341735839844e-01 -3.406969606876373291e-01 -2.974262535572052002e-01 -1.114944577217102051e+00
3.196000000000000000e+03 7.332604980468750000e+01 -8.877192497253417969e+00 -6.122561171650886536e-03 -1.389825064688920975e-02 -6.006243638694286346e-03 1.971011981368064880e-03
3.197000000000000000e+03 2.297417259216308594e+01 -7.620227336883544922e+00 9.245795011520385742e-01 -7.775505781173706055e-01 4.410866647958755493e-02 -2.466613352298736572e-01
3.198000000000000000e+03 3.665277862548828125e+01 -1.406920242309570312e+01 -6.109306812286376953e-01 2.763180732727050781e+00 6.456750631332397461e-01 -1.523014545440673828e+00
3.199000000000000000e+03 1.077814674377441406e+01 -7.284130096435546875e+00 -5.042543634772300720e-02 1.277492940425872803e-01 2.319715917110443115e-02 1.967587508261203766e-03
3.200000000000000000e+03 1.840443992614746094e+01 -1.025624084472656250e+01 4.616908729076385498e-01 -3.527700603008270264e-01 3.267624601721763611e-02 2.226395457983016968e-01
3.201000000000000000e+03 5.149216842651367188e+01 1.064459037780761719e+01 9.108256101608276367e-01 1.772623807191848755e-01 3.264263868331909180e-01 -2.599075436592102051e-01
3.202000000000000000e+03 6.790451049804687500e+01 1.932520508766174316e+00 -3.610167205333709717e-01 3.075544163584709167e-02 -9.907838702201843262e-02 -3.018038570880889893e-01
3.203000000000000000e+03 7.522714233398437500e+01 -2.235257911682128906e+01 2.866316062863916159e-04 -2.242893388029187918e-04 1.870267988124396652e-05 -2.411853056401014328e-04
3.204000000000000000e+03 3.456830596923828125e+01 -1.257785511016845703e+01 -4.323641657829284668e-01 3.339311361312866211e+00 8.720842003822326660e-01 -1.572398066520690918e+00
3.205000000000000000e+03 4.851734924316406250e+01 2.439800262451171875e+01 5.078607797622680664e-01 2.239624261856079102e+00 8.242455124855041504e-01 2.829339504241943359e-01
3.206000000000000000e+03 2.444914054870605469e+01 -1.004545879364013672e+01 1.422670960426330566e+00 -7.591763138771057129e-01 1.990483850240707397e-01 5.114756822586059570e-01
3.207000000000000000e+03 2.322800064086914062e+01 -1.097052288055419922e+01 9.985786676406860352e-01 -6.363458037376403809e-01 1.086698547005653381e-01 5.507787466049194336e-01
3.208000000000000000e+03 2.241817283630371094e+01 -9.928791046142578125e+00 9.728358983993530273e-01 -6.934154629707336426e-01 8.382613211870193481e-02 2.928080260753631592e-01
3.209000000000000000e+03 1.857088661193847656e+01 -9.530777931213378906e+00 4.546248316764831543e-01 -3.627846837043762207e-01 2.755204401910305023e-02 1.555410921573638916e-01
3.210000000000000000e+03 1.350979804992675781e+01 -8.004294395446777344e+00 6.384619325399398804e-02 3.282603248953819275e-02 2.900166623294353485e-02 8.659426867961883545e-02
3.211000000000000000e+03 3.534750366210937500e+01 -1.341067886352539062e+01 -6.207478046417236328e-01 2.982822418212890625e+00 7.086223959922790527e-01 -1.641565918922424316e+00
3.212000000000000000e+03 7.287236022949218750e+01 -3.979231595993041992e+00 -7.829366624355316162e-02 -2.309964597225189209e-02 -3.041799366474151611e-02 -3.601873666048049927e-02
3.213000000000000000e+03 7.231333160400390625e+01 3.589782416820526123e-01 -1.519520729780197144e-01 -4.511092603206634521e-02 -5.911889672279357910e-02 -1.591894775629043579e-01
3.214000000000000000e+03 1.952155113220214844e+01 -8.165938377380371094e+00 4.653937518596649170e-01 -4.352032840251922607e-01 9.057141840457916260e-03 1.268736552447080612e-02
3.215000000000000000e+03 2.052972030639648438e+01 -8.901242256164550781e+00 6.535671949386596680e-01 -5.462591648101806641e-01 3.219240531325340271e-02 8.305142074823379517e-02
3.216000000000000000e+03 5.790648937225341797e+00 1.089502620697021484e+01 -8.739725672057829797e-06 6.660684448434039950e-05 1.736013473419006914e-05 -1.871546373877208680e-05
3.217000000000000000e+03 6.736206054687500000e+01 3.010973215103149414e+00 -3.681983947753906250e-01 1.684994436800479889e-02 -1.054045334458351135e-01 -3.806842565536499023e-01
3.218000000000000000e+03 6.538765716552734375e+01 2.163018989562988281e+01 3.240489661693572998e-01 -1.684869378805160522e-01 4.666860401630401611e-02 -2.617589831352233887e-01
3.219000000000000000e+03 6.067034530639648438e+01 4.785037040710449219e+00 -6.930012702941894531e-01 5.777291581034660339e-02 -1.905685067176818848e-01 -6.480461955070495605e-01
3.220000000000000000e+03 8.277680397033691406e+00 7.689529895782470703e+00 4.102757520740851760e-05 -5.611324377241544425e-05 -4.525700205704197288e-06 -5.859811153641203418e-06
3.221000000000000000e+03 6.652609825134277344e+00 1.575682067871093750e+01 -3.266000931034795940e-05 -1.487821282353252172e-04 -5.443263944471254945e-05 7.911862667242530733e-06
3.222000000000000000e+03 6.773991107940673828e+00 2.408079719543457031e+01 2.980323915835469961e-05 2.070355840260162950e-04 7.105164695531129837e-05 5.774359669885598123e-05
3.223000000000000000e+03 5.575728225708007812e+01 1.041429519653320312e+01 3.384755849838256836e-01 -1.166563946753740311e-02 9.804297983646392822e-02 -6.526450514793395996e-01
3.224000000000000000e+03 5.624977874755859375e+01 8.443013191223144531e+00 -5.446738004684448242e-02 -3.943927586078643799e-02 -2.817199751734733582e-02 -8.101114630699157715e-01
3.225000000000000000e+03 7.107929706573486328e+00 1.205899620056152344e+01 -8.337938197655603290e-06 1.469159451517043635e-05 1.906096827042347286e-06 5.431161844171583652e-05
3.226000000000000000e+03 9.011318206787109375e+00 8.053020477294921875e+00 -3.958423258154653013e-05 -1.622612103346909862e-06 -1.236205389432143420e-05 1.637749846850056201e-05
3.227000000000000000e+03 5.058967971801757812e+01 1.432238388061523438e+01 1.184184193611145020e+00 9.358131289482116699e-01 6.359992027282714844e-01 3.373844623565673828e-01
3.228000000000000000e+03 6.726789855957031250e+01 9.952002525329589844e+00 -3.993675857782363892e-02 -1.870120912790298462e-01 -6.808465719223022461e-02 -5.822643637657165527e-01
3.229000000000000000e+03 5.119754409790039062e+01 1.676358604431152344e+01 1.008629202842712402e+00 1.152137160301208496e+00 6.482298970222473145e-01 3.398765921592712402e-01
3.230000000000000000e+03 6.679502868652343750e+01 9.080331802368164062e+00 -1.101869046688079834e-01 -1.390652060508728027e-01 -7.477563619613647461e-02 -5.987764000892639160e-01
3.231000000000000000e+03 7.190987396240234375e+01 -1.413351440429687500e+01 3.341758656461024657e-06 4.612241536960937083e-05 1.483925188949797302e-05 -3.501282208162592724e-06
3.232000000000000000e+03 7.117191314697265625e+01 -1.423426437377929688e+01 2.944612060673534870e-05 -5.520277409232221544e-05 -7.726996045676060021e-06 1.602226438990328461e-05
3.233000000000000000e+03 7.054098510742187500e+01 -1.506571102142333984e+01 2.887818300223443657e-05 -5.903420969843864441e-05 -9.046807463164441288e-06 3.191549330949783325e-05
3.234000000000000000e+03 7.272534942626953125e+01 -1.476733016967773438e+01 -6.614878657273948193e-06 8.104068001557607204e-06 4.467566441235248931e-07 1.013205405797634739e-06
3.235000000000000000e+03 7.199845123291015625e+01 -1.486828804016113281e+01 7.082169759087264538e-05 -3.331768311909399927e-05 1.125120525102829561e-05 3.687894059112295508e-05
3.236000000000000000e+03 7.127030181884765625e+01 -1.496769714355468750e+01 -4.487682235776446760e-05 6.334945646813139319e-05 5.541790415009018034e-06 -7.789817573211621493e-06
3.237000000000000000e+03 7.264659118652343750e+01 -1.403121566772460938e+01 3.828332046396099031e-05 -3.710257078637368977e-05 3.542254773947206559e-07 9.560931175656151026e-06
3.238000000000000000e+03 7.043277740478515625e+01 -1.433362007141113281e+01 1.346021463177748956e-06 7.477935287170112133e-05 2.283761205035261810e-05 -1.757997051754500717e-05
3.239000000000000000e+03 7.413023376464843750e+01 -1.390827560424804688e+01 4.764206823892891407e-05 -2.999748357979115099e-05 5.293375579640269279e-06 5.575534487434197217e-06
3.240000000000000000e+03 7.418925476074218750e+01 -1.464601135253906250e+01 -3.283422120148316026e-05 1.356758730253204703e-06 -9.443238923267927021e-06 7.788362950122973416e-07
3.241000000000000000e+03 7.345582580566406250e+01 -1.469340133666992188e+01 8.166569023160263896e-05 -7.647789061593357474e-06 2.220536953245755285e-05 -2.113849632223718800e-06
3.242000000000000000e+03 7.487351226806640625e+01 -1.386064338684082031e+01 8.837076165946200490e-06 1.379609147988958284e-05 6.789950020902324468e-06 -9.221537766279652715e-06
3.243000000000000000e+03 7.492264556884765625e+01 -1.459901237487792969e+01 8.944354340201243758e-05 -4.580431323120137677e-06 2.545893403294030577e-05 1.396013703924836591e-05
3.244000000000000000e+03 7.565595245361328125e+01 -1.455239677429199219e+01 -2.875043719541281462e-05 -1.092203729058383033e-05 -1.190174225484952331e-05 -3.666018164949491620e-05
3.245000000000000000e+03 7.561669921875000000e+01 -1.381339359283447266e+01 3.911857129423879087e-05 1.231925580214010552e-05 1.543134749226737767e-05 1.252587571798358113e-05
3.246000000000000000e+03 7.338691711425781250e+01 -1.395629978179931641e+01 1.003222496365197003e-05 3.317375376354902983e-05 1.296179380005924031e-05 2.063818101305514574e-06
3.247000000000000000e+03 7.636968994140625000e+01 -1.377867794036865234e+01 2.467642389092361555e-06 -4.540925874607637525e-05 -1.288248495256993920e-05 -1.736607555358204991e-05
3.248000000000000000e+03 7.711952209472656250e+01 -1.377026462554931641e+01 6.178399053169414401e-05 9.945193596649914980e-05 4.837077722186222672e-05 4.532400998868979514e-05
3.249000000000000000e+03 7.880826568603515625e+01 -1.359098052978515625e+01 4.715771865448914468e-05 5.933963257120922208e-05 3.194920645910315216e-05 -3.701349851326085627e-05
3.250000000000000000e+03 7.957907104492187500e+01 -1.383945655822753906e+01 -1.125430026149842888e-05 -1.897772017400711775e-05 -9.069605766853783280e-06 1.148860883404267952e-05
3.251000000000000000e+03 7.818760681152343750e+01 -1.360080337524414062e+01 1.044810560415498912e-04 -4.664253719965927303e-05 1.735155638016294688e-05 -1.718005842121783644e-05
3.252000000000000000e+03 7.770421600341796875e+01 -1.456077384948730469e+01 1.599162205820903182e-04 -8.114921001833863556e-06 4.554038969217799604e-05 -4.372020703158341348e-05
3.253000000000000000e+03 7.832720947265625000e+01 -1.463026809692382812e+01 -8.400574733968824148e-05 2.923314923464204185e-06 -2.432472865621093661e-05 7.362930773524567485e-05
3.254000000000000000e+03 7.636756134033203125e+01 -1.452004623413085938e+01 6.820254930062219501e-05 2.691137160582002252e-05 2.853417572623584419e-05 3.231828304706141353e-05
3.255000000000000000e+03 7.868551635742187500e+01 -1.398741340637207031e+01 -1.666750904405489564e-04 1.688947486400138587e-05 -4.493568485486321151e-05 -1.873458495538216084e-05
3.256000000000000000e+03 7.704452514648437500e+01 -1.451572895050048828e+01 -9.688816498965024948e-05 -1.374402654619188979e-05 -3.318965900689363480e-05 -4.958613499184139073e-05
3.257000000000000000e+03 7.932569885253906250e+01 -1.446048069000244141e+01 4.087407796760089695e-05 7.040636410238221288e-05 3.338413080200552940e-05 -1.943954703165218234e-05
3.258000000000000000e+03 7.842517852783203125e+01 -1.427305221557617188e+01 1.248589105671271682e-04 5.672090992447920144e-05 5.447394869406707585e-05 7.204512803582474589e-05
3.259000000000000000e+03 7.781768798828125000e+01 -1.396652030944824219e+01 -1.530314038973301649e-04 -1.292874367209151387e-04 -8.469565364066511393e-05 -2.632912401168141514e-05
3.260000000000000000e+03 7.885647583007812500e+01 -1.460024929046630859e+01 1.481731430885702139e-07 -5.332983710104599595e-05 -1.595449975866358727e-05 -3.834600283880718052e-05
3.261000000000000000e+03 7.711834716796875000e+01 -1.299776554107666016e+01 8.727931417524814606e-03 8.252895204350352287e-04 2.865966176614165306e-03 2.156412461772561073e-03
3.262000000000000000e+03 7.789198303222656250e+01 -1.297994422912597656e+01 4.826568067073822021e-03 -9.758239320944994688e-05 1.418695668689906597e-03 1.796140451915562153e-03
3.263000000000000000e+03 7.903719329833984375e+01 -1.217878055572509766e+01 1.265953062102198601e-03 2.507039811462163925e-03 1.131897908635437489e-03 2.420944860205054283e-03
3.264000000000000000e+03 7.634127044677734375e+01 -1.300821304321289062e+01 1.400546729564666748e-02 -1.897599722724407911e-04 4.144712351262569427e-03 3.023372031748294830e-03
3.265000000000000000e+03 7.865165710449218750e+01 -1.295684051513671875e+01 1.519210054539144039e-03 3.675259940791875124e-04 5.660207825712859631e-04 1.269655884243547916e-03
3.266000000000000000e+03 7.934807586669921875e+01 -1.291915225982666016e+01 7.969198632054030895e-04 7.287123589776456356e-04 4.576896608341485262e-04 6.560899782925844193e-05
3.267000000000000000e+03 7.966441345214843750e+01 -1.234435749053955078e+01 7.520253711845725775e-05 7.637731614522635937e-04 2.516926906537264585e-04 9.062571334652602673e-04
3.268000000000000000e+03 7.627622985839843750e+01 -1.226877021789550781e+01 1.032437663525342941e-02 1.178769627586007118e-03 3.450943855568766594e-03 6.185823120176792145e-03
3.269000000000000000e+03 7.770402526855468750e+01 -1.224003696441650391e+01 5.031595006585121155e-03 1.518346834927797318e-03 1.964982599020004272e-03 5.134359933435916901e-03
3.270000000000000000e+03 7.840223693847656250e+01 -1.221670055389404297e+01 3.598995041102170944e-03 1.251847832463681698e-03 1.455252873711287975e-03 3.750909352675080299e-03
3.271000000000000000e+03 7.699185180664062500e+01 -1.225809097290039062e+01 8.591803722083568573e-03 5.389167927205562592e-04 2.739216201007366180e-03 6.248760502785444260e-03
3.272000000000000000e+03 7.406774902343750000e+01 -1.312981986999511719e+01 2.487242408096790314e-02 2.692081616260111332e-04 7.542489562183618546e-03 2.670079469680786133e-03
3.273000000000000000e+03 7.400872802734375000e+01 -1.239208412170410156e+01 1.836115308105945587e-02 -1.104443450458347797e-03 5.177012644708156586e-03 4.343483131378889084e-03
3.274000000000000000e+03 7.557528686523437500e+01 -1.303425216674804688e+01 1.853410154581069946e-02 6.023507448844611645e-04 5.740935448557138443e-03 2.953380113467574120e-03
3.275000000000000000e+03 7.331423187255859375e+01 -1.317915630340576172e+01 2.695348486304283142e-02 -2.401880483375862241e-04 8.013988845050334930e-03 2.568049356341362000e-03
3.276000000000000000e+03 7.482145690917968750e+01 -1.308151912689208984e+01 2.220343798398971558e-02 -1.923559320857748389e-04 6.603324320167303085e-03 3.177599282935261726e-03
3.277000000000000000e+03 7.553604125976562500e+01 -1.229524612426757812e+01 1.353900320827960968e-02 -3.747881855815649033e-04 3.949264530092477798e-03 6.804592441767454147e-03
3.278000000000000000e+03 7.324532318115234375e+01 -1.244205474853515625e+01 1.875066198408603668e-02 -2.788474957924336195e-04 5.541544407606124878e-03 2.502192277461290359e-03
3.279000000000000000e+03 7.477232360839843750e+01 -1.234315013885498047e+01 1.615407131612300873e-02 -9.538260201225057244e-05 4.817606415599584579e-03 5.000904668122529984e-03
3.280000000000000000e+03 7.096827697753906250e+01 -1.272444248199462891e+01 1.713698357343673706e-02 -3.908902872353792191e-03 3.968424163758754730e-03 -3.642222378402948380e-03
3.281000000000000000e+03 7.106666564941406250e+01 -1.345787525177001953e+01 1.959339715540409088e-02 1.136117149144411087e-03 6.218853872269392014e-03 4.714944807346910238e-04
3.282000000000000000e+03 7.031845092773437500e+01 -1.356116008758544922e+01 1.513963006436824799e-02 -2.815165091305971146e-03 3.697339678183197975e-03 -4.729247884824872017e-04
3.283000000000000000e+03 7.181496429443359375e+01 -1.335562419891357422e+01 2.361713163554668427e-02 -1.431404612958431244e-03 6.655718199908733368e-03 1.560435048304498196e-03
3.284000000000000000e+03 7.172639465332031250e+01 -1.262085151672363281e+01 1.838820241391658783e-02 -1.011507469229400158e-03 5.213008262217044830e-03 -1.391115598380565643e-03
3.285000000000000000e+03 7.256328582763671875e+01 -1.325442695617675781e+01 2.630869671702384949e-02 7.725601899437606335e-04 8.124376647174358368e-03 2.333838958293199539e-03
3.286000000000000000e+03 7.248452758789062500e+01 -1.251831245422363281e+01 1.934821903705596924e-02 -2.392060123383998871e-03 5.086847580969333649e-03 2.173566754208877683e-04
3.287000000000000000e+03 7.021024322509765625e+01 -1.282906818389892578e+01 1.343962270766496658e-02 -5.841535748913884163e-04 3.856640774756669998e-03 -4.688913002610206604e-03
3.288000000000000000e+03 6.946450042724609375e+01 -1.368148803710937500e+01 8.142016828060150146e-03 1.385635463520884514e-03 2.858295571058988571e-03 -1.842390396632254124e-03
3.289000000000000000e+03 6.942981719970703125e+01 -1.293651866912841797e+01 1.118596177548170090e-02 -3.848481690511107445e-03 2.201244002208113670e-03 -6.250477861613035202e-03
3.290000000000000000e+03 6.844756317138671875e+01 -1.325969314575195312e+01 7.842868566513061523e-03 3.236992051824927330e-03 3.323958255350589752e-03 -3.294128924608230591e-03
3.291000000000000000e+03 6.787104797363281250e+01 -1.338530731201171875e+01 1.098116044886410236e-03 6.459187250584363937e-03 2.267190953716635704e-03 7.174297934398055077e-04
3.292000000000000000e+03 6.822621154785156250e+01 -1.295994949340820312e+01 6.947196554392576218e-03 4.093934316188097000e-03 3.312339307740330696e-03 -5.787376314401626587e-03
3.293000000000000000e+03 6.794889068603515625e+01 -1.309183692932128906e+01 4.165871534496545792e-03 3.772646421566605568e-03 2.381555503234267235e-03 -4.058804828673601151e-03
3.294000000000000000e+03 6.875301361083984375e+01 -1.294659233093261719e+01 9.276203811168670654e-03 2.334365155547857285e-03 3.483170643448829651e-03 -5.318554118275642395e-03
3.295000000000000000e+03 6.854268646240234375e+01 -1.381786727905273438e+01 1.424175687134265900e-03 -2.820959780365228653e-03 -4.190352337900549173e-04 -2.172132022678852081e-03
3.296000000000000000e+03 6.915425872802734375e+01 -1.528317165374755859e+01 -8.787775004748255014e-05 3.092760744038969278e-05 -1.708504169073421508e-05 -3.846852632705122232e-05
3.297000000000000000e+03 6.981649780273437500e+01 -1.516665935516357422e+01 -1.130629152612527832e-05 5.968114055576734245e-05 1.451245407224632800e-05 -2.816830237861722708e-05
3.298000000000000000e+03 6.849820709228515625e+01 -1.521993160247802734e+01 -2.030878677032887936e-04 -9.300914098275825381e-05 -8.882910333340987563e-05 9.795359801501035690e-05
3.299000000000000000e+03 6.962475585937500000e+01 -1.444882297515869141e+01 -1.187098860100377351e-05 -8.145227911882102489e-05 -2.799698086164426059e-05 4.233554136590100825e-05
3.300000000000000000e+03 6.880525207519531250e+01 -1.459250164031982422e+01 2.133213565684854984e-04 1.197314122691750526e-04 9.991582919610664248e-05 -1.304050383623689413e-04
3.301000000000000000e+03 1.628620338439941406e+01 -1.255944609642028809e+00 -3.837800621986389160e-01 -1.663968339562416077e-02 -1.201259270310401917e-01 1.632866822183132172e-02
3.302000000000000000e+03 1.779829025268554688e+01 -2.059187889099121094e+00 -3.822503685951232910e-01 -2.014097943902015686e-02 -1.207174062728881836e-01 -4.522609710693359375e-02
3.303000000000000000e+03 1.623538208007812500e+01 -1.994474172592163086e+00 -3.267375826835632324e-01 -1.434399560093879700e-02 -1.023244708776473999e-01 3.966880496591329575e-03
3.304000000000000000e+03 1.858121871948242188e+01 -2.091711521148681641e+00 -4.021784961223602295e-01 -5.480728670954704285e-02 -1.370957344770431519e-01 -8.163198828697204590e-02
3.305000000000000000e+03 1.856809425354003906e+01 -1.350533485412597656e+00 -4.971180856227874756e-01 -5.722137168049812317e-03 -1.508520692586898804e-01 -2.832998707890510559e-02
3.306000000000000000e+03 1.704577255249023438e+01 -1.287305474281311035e+00 -3.931635618209838867e-01 4.724636673927307129e-03 -1.165316849946975708e-01 6.401410326361656189e-03
3.307000000000000000e+03 1.701626777648925781e+01 -2.026717901229858398e+00 -3.516944050788879395e-01 -2.623163349926471710e-02 -1.133778169751167297e-01 -1.683063991367816925e-02
3.308000000000000000e+03 1.780648040771484375e+01 -1.318892598152160645e+00 -4.259188771247863770e-01 -1.572847552597522736e-02 -1.324942111968994141e-01 -5.289806053042411804e-03
3.309000000000000000e+03 2.016102409362792969e+01 -1.984116315841674805e+00 -5.097563862800598145e-01 -5.625575035810470581e-02 -1.698036342859268188e-01 -1.341967731714248657e-01
3.310000000000000000e+03 1.932956504821777344e+01 -1.326877713203430176e+00 -5.515468120574951172e-01 -3.839512541890144348e-02 -1.769825816154479980e-01 -6.564482301473617554e-02
3.311000000000000000e+03 2.095439147949218750e+01 -1.900163888931274414e+00 -5.695165395736694336e-01 -3.314778953790664673e-02 -1.807993054389953613e-01 -1.633420288562774658e-01
3.312000000000000000e+03 1.936882019042968750e+01 -2.066858530044555664e+00 -4.450484812259674072e-01 -4.513961076736450195e-02 -1.470564305782318115e-01 -1.003137975931167603e-01
3.313000000000000000e+03 2.174835014343261719e+01 -1.814883351325988770e+00 -6.167899966239929199e-01 -3.890524059534072876e-02 -1.967085748910903931e-01 -1.667860597372055054e-01
3.314000000000000000e+03 2.161623764038085938e+01 -1.084643244743347168e+00 -7.247412800788879395e-01 -3.394091734662652016e-03 -2.184406071901321411e-01 -1.254112571477890015e-01
3.315000000000000000e+03 2.009082221984863281e+01 -1.247412800788879395e+00 -5.844530463218688965e-01 -3.859183052554726601e-04 -1.754516810178756714e-01 -9.066760540008544922e-02
3.316000000000000000e+03 2.085324478149414062e+01 -1.166737556457519531e+00 -6.461493968963623047e-01 -3.733450546860694885e-02 -2.050451636314392090e-01 -1.034092903137207031e-01
3.317000000000000000e+03 2.387390518188476562e+01 -4.479292035102844238e-01 -1.828750371932983398e-01 6.320437043905258179e-02 -3.590120002627372742e-02 1.240953579545021057e-01
3.318000000000000000e+03 2.338660240173339844e+01 -1.393575310707092285e+00 -8.660545945167541504e-01 1.550866067409515381e-01 -2.132903933525085449e-01 -5.975374206900596619e-02
3.319000000000000000e+03 2.463154602050781250e+01 -7.788130044937133789e-01 -5.985606908798217773e-01 -1.726582795381546021e-01 -2.313656955957412720e-01 2.109296023845672607e-01
3.320000000000000000e+03 2.316317939758300781e+01 -6.830692291259765625e-01 -4.611882269382476807e-01 1.002312973141670227e-01 -1.082870811223983765e-01 -2.690964378416538239e-02
3.321000000000000000e+03 2.239013290405273438e+01 -9.233466386795043945e-01 -6.702346801757812500e-01 -3.200745210051536560e-02 -2.106726318597793579e-01 -1.072680652141571045e-01
3.322000000000000000e+03 2.256301116943359375e+01 -1.645976901054382324e+00 -7.308153510093688965e-01 7.570713758468627930e-02 -1.965324580669403076e-01 -1.141403317451477051e-01
3.323000000000000000e+03 2.414787673950195312e+01 -1.146310925483703613e+00 -9.748266339302062988e-01 1.009391471743583679e-01 -2.621662318706512451e-01 -3.207290172576904297e-02
3.324000000000000000e+03 2.268977355957031250e+01 7.519461512565612793e-01 -4.144144622841849923e-05 -2.756589492491912097e-05 -2.070220216410234571e-05 -1.670553319854661822e-05
3.325000000000000000e+03 2.288392829895019531e+01 3.258301690220832825e-02 1.047735804604599252e-05 -5.615794179902877659e-06 1.458469228055037092e-06 4.390178219182416797e-06
3.326000000000000000e+03 2.203942871093750000e+01 5.569665431976318359e-01 5.004386366636026651e-06 3.580589327611960471e-05 1.224308380187721923e-05 9.072409739019349217e-06
3.327000000000000000e+03 2.220252990722656250e+01 -1.685228794813156128e-01 -2.132975168933626264e-06 -4.048163646075408906e-06 -1.854341689977445640e-06 -7.493949397030519322e-06
3.328000000000000000e+03 2.341383171081542969e+01 3.852292895317077637e-01 -1.547022748127346858e-06 3.305981636003707536e-06 5.276876891002757475e-07 -1.291574562856112607e-06
3.329000000000000000e+03 2.074801826477050781e+01 -3.961672186851501465e-01 -5.055767360317986459e-06 -2.374675023020245135e-05 -8.640755368105601519e-06 -1.201589839183725417e-06
3.330000000000000000e+03 2.001827239990234375e+01 -4.734351336956024170e-01 6.634946203121216968e-06 3.233073221053928137e-05 1.168970356957288459e-05 2.629086338856723160e-06
3.331000000000000000e+03 2.134514999389648438e+01 4.143537878990173340e-01 -1.206401975650805980e-05 -2.130440770997665823e-05 -1.001052805804647505e-05 -6.352703962875239085e-07
3.332000000000000000e+03 1.924920082092285156e+01 1.924032717943191528e-01 9.199185114994179457e-06 4.190662730252370238e-05 1.533174327050801367e-05 1.340764447377296165e-05
3.333000000000000000e+03 1.994807052612304688e+01 2.632684409618377686e-01 -1.714726931822951883e-05 -2.723160287132486701e-05 -1.331366183876525611e-05 -1.718258317850995809e-05
3.334000000000000000e+03 2.064687156677246094e+01 3.372591733932495117e-01 2.172457061533350497e-05 1.546877683722414076e-05 1.115800478146411479e-05 9.720836715132463723e-06
3.335000000000000000e+03 1.928845596313476562e+01 -5.475775003433227539e-01 -3.590291726141003892e-06 -4.075473407283425331e-05 -1.330350733041996136e-05 -2.213654624938499182e-06
3.336000000000000000e+03 2.147724342346191406e+01 -3.157954216003417969e-01 2.557306743256049231e-06 1.513804454589262605e-05 5.308605523168807849e-06 3.565104179870104417e-06
3.337000000000000000e+03 1.707793617248535156e+01 -5.109162330627441406e-01 8.810101462586317211e-06 4.788431760971434414e-05 1.700832581263966858e-05 4.832000286114634946e-06
3.338000000000000000e+03 1.633993148803710938e+01 -4.782602787017822266e-01 -6.431124802475096658e-06 -5.476353544509038329e-05 -1.835839793784543872e-05 -8.954506483860313892e-06
3.339000000000000000e+03 1.781616592407226562e+01 -5.415064096450805664e-01 -5.488309398060664535e-06 -4.541208181763067842e-05 -1.527011772850528359e-05 -1.331985004071611911e-06
3.340000000000000000e+03 1.854128074645996094e+01 1.711868941783905029e-01 -1.109276854549534619e-05 -4.656708188122138381e-05 -1.729795440041925758e-05 -3.271155037509743124e-06
3.341000000000000000e+03 1.855440711975097656e+01 -5.699911117553710938e-01 5.674536168953636661e-06 4.445410741027444601e-05 1.503859311924315989e-05 6.620338695029204246e-07
3.342000000000000000e+03 1.639075088500976562e+01 2.602692842483520508e-01 2.212119215982966125e-05 5.868622974958270788e-05 2.424222657282371074e-05 1.946644806594122201e-05
3.343000000000000000e+03 1.710744285583496094e+01 2.284961640834808350e-01 -2.582178603915963322e-05 -5.058336682850494981e-05 -2.292154567840043455e-05 -1.175870238512288779e-05
3.344000000000000000e+03 1.782435607910156250e+01 1.987887471914291382e-01 2.140668402716983110e-05 4.721858203993178904e-05 2.058758036582730711e-05 2.875942527680308558e-06
3.345000000000000000e+03 1.421318435668945312e+01 5.040000677108764648e-01 -1.291378157475264743e-05 -7.561803067801520228e-05 -2.655954449437558651e-05 -1.005855938274180517e-05
3.346000000000000000e+03 1.412459087371826172e+01 -2.306861728429794312e-01 5.201757630857173353e-06 7.183106208685785532e-05 2.310984564246609807e-05 8.800888281257357448e-06
3.347000000000000000e+03 1.338628387451171875e+01 -1.375386416912078857e-01 -5.797720405098516494e-06 -7.010759873082861304e-05 -2.277159546792972833e-05 -7.600588105560746044e-06
3.348000000000000000e+03 1.486306858062744141e+01 -3.233485221862792969e-01 -5.550509285967564210e-06 -6.893848330946639180e-05 -2.234669773315545171e-05 -1.018836428556824103e-05
3.349000000000000000e+03 1.566856193542480469e+01 3.219058215618133545e-01 -1.632518979022279382e-05 -6.632483564317226410e-05 -2.479500835761427879e-05 -2.001228676817845553e-05
3.350000000000000000e+03 1.560165977478027344e+01 -4.155019819736480713e-01 6.752886292815674096e-06 6.248063436942175031e-05 2.077005774481222034e-05 9.898164535115938634e-06
3.351000000000000000e+03 1.348572158813476562e+01 5.957868695259094238e-01 1.372405404254095629e-05 7.660982373636215925e-05 2.710016451601404697e-05 6.674318683508317918e-06
3.352000000000000000e+03 1.494081592559814453e+01 4.126985073089599609e-01 1.231624992215074599e-05 7.333971734624356031e-05 2.569679054431617260e-05 1.493657327955588698e-05
3.353000000000000000e+03 1.115022563934326172e+01 2.165033817291259766e-01 4.785994860867504030e-06 5.864699778612703085e-05 1.902989788504783064e-05 4.397049451654311270e-06
3.354000000000000000e+03 1.122651290893554688e+01 9.537453055381774902e-01 -1.319028160651214421e-05 -6.533174018841236830e-05 -2.355660762987099588e-05 -1.897946049211896025e-07
3.355000000000000000e+03 1.040434932708740234e+01 3.321511745452880859e-01 -5.048848379374248907e-06 -5.667420191457495093e-05 -1.851691558840684593e-05 -3.657154138636542484e-06
3.356000000000000000e+03 1.189680099487304688e+01 9.631319344043731689e-02 -5.127365511725656688e-06 -6.118280725786462426e-05 -1.989305201277602464e-05 -5.115834937896579504e-06
3.357000000000000000e+03 1.274307727813720703e+01 7.053368687629699707e-01 -1.359582711302209646e-05 -7.279700366780161858e-05 -2.591785050753969699e-05 -3.925364126189379022e-06
3.358000000000000000e+03 1.264393043518066406e+01 -2.822761237621307373e-02 5.024899564887164161e-06 6.509173545055091381e-05 2.103499173244927078e-05 6.354239303618669510e-06
3.359000000000000000e+03 1.046920776367187500e+01 1.071231842041015625e+00 1.345417877018917352e-05 5.867051368113607168e-05 2.163740828109439462e-05 -1.472953272241284139e-06
3.360000000000000000e+03 1.198451900482177734e+01 8.317164182662963867e-01 1.314359269599663094e-05 7.002636994002386928e-05 2.495098851795773953e-05 2.284706170030403882e-06
3.361000000000000000e+03 9.722556114196777344e+00 1.127092480659484863e+00 -1.385942323395283893e-05 -5.400723966886289418e-05 -2.035999932559207082e-05 2.103872134284756612e-07
3.362000000000000000e+03 8.893199920654296875e+00 3.828711509704589844e-01 -5.769195013272110373e-06 -5.233179035712964833e-05 -1.743029679346363991e-05 -4.072790488862665370e-06
3.363000000000000000e+03 8.134614944458007812e+00 3.804794847965240479e-01 5.384899850469082594e-06 4.798578447662293911e-05 1.601120493432972580e-05 4.191912921669427305e-06
3.364000000000000000e+03 7.376657485961914062e+00 3.794998824596405029e-01 -5.782846528745722026e-06 -4.250567508279345930e-05 -1.448655621061334386e-05 -4.006942617706954479e-06
3.365000000000000000e+03 5.861315727233886719e+00 3.756705820560455322e-01 -6.382349965861067176e-06 -2.978304291900712997e-05 -1.084961786546045914e-05 -3.528937440933077596e-06
3.366000000000000000e+03 5.314155578613281250e+00 1.111996769905090332e+00 -1.697087463981006294e-05 -2.965922249131835997e-05 -1.398902895743958652e-05 4.400819477723416639e-07
3.367000000000000000e+03 4.345917224884033203e+00 3.706551194190979004e-01 -8.628214345662854612e-06 -2.268790012749377638e-05 -9.394834705744870007e-06 -5.970686288492288440e-06
3.368000000000000000e+03 2.830904960632324219e+00 3.606805205345153809e-01 -8.455798706563655287e-06 -2.429997221042867750e-05 -9.826731002249289304e-06 -8.683537089382298291e-06
3.369000000000000000e+03 2.075619697570800781e+00 3.579981029033660889e-01 6.322200988506665453e-06 2.205037526437081397e-05 8.511773557984270155e-06 6.164914793771458790e-06
3.370000000000000000e+03 2.378913402557373047e+00 1.097998142242431641e+00 -9.432349543203599751e-06 -2.487154233676847070e-05 -1.029116810968844220e-05 -2.901399511756608263e-06
3.371000000000000000e+03 1.332661628723144531e+00 3.664357960224151611e-01 -1.742459971865173429e-06 -1.487932695454219356e-05 -4.986536168871680275e-06 -4.949163781020615716e-07
3.372000000000000000e+03 1.659207582473754883e+00 1.106435775756835938e+00 4.575526872940827161e-06 2.781399780360516161e-05 9.716857675812207162e-06 -2.511517095626913942e-06
3.373000000000000000e+03 6.544207930564880371e-01 3.946581482887268066e-01 2.177955593651859090e-06 4.144179911236278713e-06 1.896640696941176429e-06 -4.105953394173411652e-06
3.374000000000000000e+03 3.110946178436279297e+00 1.100680470466613770e+00 1.521081412647617981e-05 2.270202639920171350e-05 1.137385243055177853e-05 6.062786269467324018e-06
3.375000000000000000e+03 3.587856292724609375e+00 3.676122725009918213e-01 9.334485184808727354e-06 2.332026815565768629e-05 9.796425729291513562e-06 8.319299013237468898e-06
3.376000000000000000e+03 5.103871345520019531e+00 3.719967305660247803e-01 6.962371116969734430e-06 2.493472675269003958e-05 9.569129360897932202e-06 4.324000656197313219e-06
3.377000000000000000e+03 6.048347473144531250e+00 1.115670561790466309e+00 1.429122767149237916e-05 3.457069033174775541e-05 1.465857531002257019e-05 -2.196500645368359983e-06
3.378000000000000000e+03 6.618996143341064453e+00 3.784884214401245117e-01 5.349367256712866947e-06 3.605725578381679952e-05 1.242198686668416485e-05 3.621953737820149399e-06
3.379000000000000000e+03 8.251890182495117188e+00 1.120479464530944824e+00 -1.403804708388634026e-05 -4.673358125728555024e-05 -1.823148886614944786e-05 7.276323117366700899e-07
3.380000000000000000e+03 8.987222671508789062e+00 1.122871160507202148e+00 1.449001229048008099e-05 4.975730553269386292e-05 1.927419543790165335e-05 -7.100670700310729444e-07
3.381000000000000000e+03 9.651785850524902344e+00 3.870925009250640869e-01 4.989150056644575670e-06 5.481714470079168677e-05 1.794188938220031559e-05 4.009130861959420145e-06
3.382000000000000000e+03 7.517184734344482422e+00 1.119499921798706055e+00 1.261978377442574129e-05 4.363886546343564987e-05 1.687759504420682788e-05 -1.821099090193456504e-06
3.383000000000000000e+03 6.782775878906250000e+00 1.118488430976867676e+00 -1.343135863862698898e-05 -3.932368417736142874e-05 -1.582651202625129372e-05 2.605861709525925107e-06
3.384000000000000000e+03 4.579453945159912109e+00 1.110655069351196289e+00 1.890028943307697773e-05 2.550690260250121355e-05 1.332215742877451703e-05 2.667966782610164955e-06
3.385000000000000000e+03 3.844645261764526367e+00 1.107612252235412598e+00 -1.900647475849837065e-05 -2.270651748403906822e-05 -1.251389767276123166e-05 -5.247328317636856809e-06
3.386000000000000000e+03 1.004219174385070801e+00 1.134658098220825195e+00 -8.533305845048744231e-06 -2.912890704465098679e-05 -1.129866359406150877e-05 1.472932399337878451e-05
3.387000000000000000e+03 3.516347110271453857e-01 9.575126171112060547e-01 1.237716878677019849e-05 7.297358479263493791e-06 5.902358225284842774e-06 -5.231265731708845124e-06
3.388000000000000000e+03 1.328147125244140625e+01 -9.107246994972229004e-01 -3.317812681198120117e-01 -1.108267251402139664e-02 -1.028591766953468323e-01 3.855758532881736755e-02
3.389000000000000000e+03 1.470345211029052734e+01 -1.836183547973632812e+00 -3.073683977127075195e-01 -3.589904867112636566e-03 -9.328749775886535645e-02 2.158650755882263184e-02
3.390000000000000000e+03 1.318203258514404297e+01 -1.644050240516662598e+00 -2.852690815925598145e-01 6.190591957420110703e-04 -8.539500832557678223e-02 2.614003792405128479e-02
3.391000000000000000e+03 1.478120040893554688e+01 -1.100136518478393555e+00 -3.473991155624389648e-01 -1.165768038481473923e-02 -1.077170372009277344e-01 3.614848107099533081e-02
3.392000000000000000e+03 1.546425342559814453e+01 -1.930399060249328613e+00 -3.130799531936645508e-01 -2.092725224792957306e-02 -1.002021580934524536e-01 9.311894886195659637e-03
3.393000000000000000e+03 1.553115558624267578e+01 -1.192991256713867188e+00 -3.691830635070800781e-01 -2.055764431133866310e-03 -1.113716512918472290e-01 3.185717761516571045e-02
3.394000000000000000e+03 1.403127861022949219e+01 -1.006039500236511230e+00 -3.372687399387359619e-01 5.622274475172162056e-04 -1.010119542479515076e-01 3.929698839783668518e-02
3.395000000000000000e+03 1.394268608093261719e+01 -1.740725755691528320e+00 -2.965818643569946289e-01 -8.843888528645038605e-03 -9.162772446870803833e-02 2.423726022243499756e-02
3.396000000000000000e+03 1.171745300292968750e+01 -1.416588187217712402e+00 -2.663825154304504395e-01 8.686980232596397400e-03 -7.730866223573684692e-02 1.590451039373874664e-02
3.397000000000000000e+03 1.027132415771484375e+01 -1.186757922172546387e+00 -2.429169267416000366e-01 2.071342244744300842e-02 -6.666105240583419800e-02 7.576152565889060497e-04
3.398000000000000000e+03 1.244032764434814453e+01 -1.534988999366760254e+00 -2.764392495155334473e-01 -2.334692981094121933e-03 -8.363217860460281372e-02 1.826365478336811066e-02
3.399000000000000000e+03 1.253947448730468750e+01 -8.014244437217712402e-01 -3.189112842082977295e-01 -1.655434607528150082e-03 -9.617001563310623169e-02 4.137384518980979919e-02
3.400000000000000000e+03 1.180517101287841797e+01 -6.811850070953369141e-01 -2.984858751296997070e-01 -7.194808684289455414e-03 -9.170420467853546143e-02 3.681775927543640137e-02
3.401000000000000000e+03 1.107078933715820312e+01 -5.637502074241638184e-01 -2.758759558200836182e-01 1.693952828645706177e-03 -8.225460350513458252e-02 3.229030594229698181e-02
3.402000000000000000e+03 1.099450206756591797e+01 -1.300992131233215332e+00 -2.519530951976776123e-01 9.437096305191516876e-03 -7.275480031967163086e-02 5.390993319451808929e-03
3.403000000000000000e+03 1.033618259429931641e+01 -4.476772546768188477e-01 -2.452778220176696777e-01 2.478417241945862770e-03 -7.283981889486312866e-02 1.961812749505043030e-02
3.404000000000000000e+03 9.576753616333007812e+00 -3.928347527980804443e-01 -2.321836352348327637e-01 9.393583983182907104e-03 -6.683701276779174805e-02 4.944690968841314316e-03
3.405000000000000000e+03 9.504050254821777344e+00 -1.132834792137145996e+00 -2.275598198175430298e-01 1.481721363961696625e-02 -6.382278352975845337e-02 -5.972758401185274124e-03
3.406000000000000000e+03 8.792594909667968750e+00 -3.964475393295288086e-01 -2.326700836420059204e-01 1.823028578655794263e-04 -6.974633783102035522e-02 -6.108158268034458160e-03
3.407000000000000000e+03 8.008638381958007812e+00 -3.979170620441436768e-01 -2.176613509654998779e-01 3.910964820533990860e-03 -6.412511318922042847e-02 -9.538538753986358643e-03
3.408000000000000000e+03 7.224994659423828125e+00 -3.992207646369934082e-01 -1.951121687889099121e-01 -7.484435336664319038e-04 -5.875818058848381042e-02 -1.385837886482477188e-02
3.409000000000000000e+03 6.441524982452392578e+00 -4.004793763160705566e-01 -1.667333096265792847e-01 2.400202909484505653e-03 -4.929993301630020142e-02 -1.463928353041410446e-02
3.410000000000000000e+03 5.658351421356201172e+00 -4.034211039543151855e-01 -1.357334107160568237e-01 -1.216296921484172344e-03 -4.108491167426109314e-02 -1.702170260250568390e-02
3.411000000000000000e+03 4.875236511230468750e+00 -4.076028764247894287e-01 -1.028008386492729187e-01 7.450239500030875206e-04 -3.061674535274505615e-02 -1.579567603766918182e-02
3.412000000000000000e+03 4.092308998107910156e+00 -4.107097685337066650e-01 -7.189869880676269531e-02 -2.003119327127933502e-03 -2.217054553329944611e-02 -1.569074764847755432e-02
3.413000000000000000e+03 2.531672000885009766e+00 -4.164903461933135986e-01 -2.165482006967067719e-02 -2.533377846702933311e-03 -7.256459444761276245e-03 -9.022288955748081207e-03
3.414000000000000000e+03 2.214911937713623047e+00 -1.156490325927734375e+00 -2.386604994535446167e-02 -9.676239453256130219e-03 -1.006268709897994995e-02 -2.153201401233673096e-02
3.415000000000000000e+03 3.740455806255340576e-01 -5.643077492713928223e-01 2.300228661624714732e-04 7.348984945565462112e-04 2.894764184020459652e-04 4.131624009460210800e-04
3.416000000000000000e+03 1.421646475791931152e+00 -1.153123378753662109e+00 -1.205463893711566925e-02 -8.573118597269058228e-03 -6.188327446579933167e-03 -1.123690884560346603e-02
3.417000000000000000e+03 8.692774772644042969e+00 -1.136447548866271973e+00 -2.061935216188430786e-01 1.357707940042018890e-02 -5.778493359684944153e-02 -1.637927256524562836e-02
3.418000000000000000e+03 7.881700515747070312e+00 -1.137917041778564453e+00 -1.903059631586074829e-01 5.049155559390783310e-03 -5.557704344391822815e-02 -2.994897216558456421e-02
3.419000000000000000e+03 7.070939540863037109e+00 -1.139220714569091797e+00 -1.690111756324768066e-01 6.969503127038478851e-03 -4.861250147223472595e-02 -3.563717007637023926e-02
3.420000000000000000e+03 6.260352134704589844e+00 -1.140479445457458496e+00 -1.452247202396392822e-01 8.644707268103957176e-04 -4.330807551741600037e-02 -4.281065985560417175e-02
3.421000000000000000e+03 5.450060844421386719e+00 -1.143421053886413574e+00 -1.184695735573768616e-01 1.828662934713065624e-03 -3.499227389693260193e-02 -4.283826798200607300e-02
3.422000000000000000e+03 4.639828681945800781e+00 -1.147602915763854980e+00 -9.262187778949737549e-02 -3.586548613384366035e-03 -2.886252850294113159e-02 -4.477133229374885559e-02
3.423000000000000000e+03 3.829783916473388672e+00 -1.150709748268127441e+00 -6.565723568201065063e-02 -4.574702586978673935e-03 -2.106958255171775818e-02 -3.850262984633445740e-02
3.424000000000000000e+03 3.020616531372070312e+00 -1.151894450187683105e+00 -4.411468654870986938e-02 -8.420846424996852875e-03 -1.576066017150878906e-02 -3.328829631209373474e-02
3.425000000000000000e+03 3.310259342193603516e+00 -4.118944704532623291e-01 -4.337560012936592102e-02 -1.268763560801744461e-03 -1.339330989867448807e-02 -1.203852798789739609e-02
3.426000000000000000e+03 1.765524148941040039e+00 -4.131233394145965576e-01 -6.887402385473251343e-03 -1.941851340234279633e-03 -2.648776164278388023e-03 -4.319489933550357819e-03
3.427000000000000000e+03 1.067645549774169922e+00 -3.868701159954071045e-01 -4.597409279085695744e-04 -1.544676488265395164e-03 -6.013252423144876957e-04 -8.556278771720826626e-04
3.428000000000000000e+03 6.966503262519836426e-01 -1.126870155334472656e+00 -3.264795290306210518e-03 -2.920028055086731911e-03 -1.855447073467075825e-03 -2.639514394104480743e-03
3.429000000000000000e+03 3.407655715942382812e+01 -6.410449028015136719e+00 3.263462066650390625e+01 1.814686059951782227e+00 1.033479213714599609e+01 3.422163724899291992e+00
3.430000000000000000e+03 3.407619857788085938e+01 -6.390984058380126953e+00 3.402161026000976562e+01 7.495699405670166016e+00 1.245519256591796875e+01 1.296650981903076172e+01
3.431000000000000000e+03 3.407205200195312500e+01 -6.371962070465087891e+00 3.335670471191406250e+01 1.430236434936523438e+01 1.429771995544433594e+01 1.766802787780761719e+01
3.432000000000000000e+03 3.406428527832031250e+01 -6.354110717773437500e+00 3.092017173767089844e+01 2.239539527893066406e+01 1.599467086791992188e+01 2.075343322753906250e+01
3.433000000000000000e+03 3.405319213867187500e+01 -6.338113307952880859e+00 2.795257759094238281e+01 3.049371147155761719e+01 1.753388595581054688e+01 2.155274581909179688e+01
3.434000000000000000e+03 3.403919219970703125e+01 -6.324581623077392578e+00 2.418550682067871094e+01 3.807085418701171875e+01 1.867690849304199219e+01 2.044727706909179688e+01
3.435000000000000000e+03 3.402283096313476562e+01 -6.314033985137939453e+00 2.139109992980957031e+01 4.431090927124023438e+01 1.971060180664062500e+01 1.750885009765625000e+01
3.436000000000000000e+03 3.400472640991210938e+01 -6.306873798370361328e+00 1.912292098999023438e+01 4.879047775268554688e+01 2.037401962280273438e+01 1.310856628417968750e+01
3.437000000000000000e+03 3.398557662963867188e+01 -6.303374767303466797e+00 1.855422782897949219e+01 5.101715850830078125e+01 2.087141609191894531e+01 8.244441032409667969e+00
3.438000000000000000e+03 3.396611022949218750e+01 -6.303671360015869141e+00 1.925119590759277344e+01 5.100972747802734375e+01 2.107827758789062500e+01 3.332068920135498047e+00
3.439000000000000000e+03 3.394707489013671875e+01 -6.307751655578613281e+00 2.179441642761230469e+01 4.934855651855468750e+01 2.134289169311523438e+01 -7.958497405052185059e-01
3.440000000000000000e+03 3.392919540405273438e+01 -6.315460205078125000e+00 2.433931541442871094e+01 4.593811035156250000e+01 2.108322715759277344e+01 -3.794635057449340820e+00
3.441000000000000000e+03 3.391316223144531250e+01 -6.326501846313476562e+00 2.815855216979980469e+01 4.253284454345703125e+01 2.120741844177246094e+01 -5.055954933166503906e+00
3.442000000000000000e+03 3.389958572387695312e+01 -6.340453147888183594e+00 3.180406951904296875e+01 3.857992172241210938e+01 2.111519813537597656e+01 -4.991216659545898438e+00
3.443000000000000000e+03 3.388898086547851562e+01 -6.356781005859375000e+00 3.435053634643554688e+01 3.486024475097656250e+01 2.076323318481445312e+01 -3.833016157150268555e+00
3.444000000000000000e+03 3.388175964355468750e+01 -6.374860763549804688e+00 3.672096633911132812e+01 3.324281311035156250e+01 2.098913383483886719e+01 -1.494389772415161133e+00
3.445000000000000000e+03 3.387820053100585938e+01 -6.394000053405761719e+00 3.792692565917968750e+01 3.184413909912109375e+01 2.093131828308105469e+01 1.820202112197875977e+00
3.446000000000000000e+03 3.387842941284179688e+01 -6.413466930389404297e+00 3.765775680541992188e+01 3.149576187133789062e+01 2.074605560302734375e+01 4.833216667175292969e+00
3.447000000000000000e+03 3.388244628906250000e+01 -6.432516574859619141e+00 3.662618255615234375e+01 3.375915527343750000e+01 2.111560058593750000e+01 7.926482200622558594e+00
3.448000000000000000e+03 3.389009857177734375e+01 -6.450418949127197266e+00 3.379576110839843750e+01 3.634446334838867188e+01 2.104206657409667969e+01 1.057232761383056641e+01
3.449000000000000000e+03 3.390108489990234375e+01 -6.466490268707275391e+00 3.010414505004882812e+01 4.001670455932617188e+01 2.103625488281250000e+01 1.200618267059326172e+01
3.450000000000000000e+03 3.391498947143554688e+01 -6.480114459991455078e+00 2.582047271728515625e+01 4.437759780883789062e+01 2.105942153930664062e+01 1.190595817565917969e+01
3.451000000000000000e+03 3.393128204345703125e+01 -6.490771293640136719e+00 2.103188133239746094e+01 4.839948654174804688e+01 2.082941055297851562e+01 1.016273498535156250e+01
3.452000000000000000e+03 3.394934082031250000e+01 -6.498052120208740234e+00 1.653473091125488281e+01 5.129197692871093750e+01 2.034801292419433594e+01 6.830778121948242188e+00
3.453000000000000000e+03 3.396846771240234375e+01 -6.501677989959716797e+00 1.342432975769042969e+01 5.265933990478515625e+01 1.982510185241699219e+01 2.215944290161132812e+00
3.454000000000000000e+03 3.398793411254882812e+01 -6.501511096954345703e+00 1.106794166564941406e+01 5.161179351806640625e+01 1.880392074584960938e+01 -3.208329439163208008e+00
3.455000000000000000e+03 3.400699615478515625e+01 -6.497557640075683594e+00 1.049498462677001953e+01 4.843656921386718750e+01 1.767946624755859375e+01 -8.300571441650390625e+00
3.456000000000000000e+03 3.402492523193359375e+01 -6.489968299865722656e+00 1.116588497161865234e+01 4.288025283813476562e+01 1.621384239196777344e+01 -1.282399559020996094e+01
3.457000000000000000e+03 3.404103088378906250e+01 -6.479034423828125000e+00 1.251286792755126953e+01 3.577715682983398438e+01 1.448700714111328125e+01 -1.586287975311279297e+01
3.458000000000000000e+03 3.405470275878906250e+01 -6.465173721313476562e+00 1.484965515136718750e+01 2.732058906555175781e+01 1.265107345581054688e+01 -1.714956092834472656e+01
3.459000000000000000e+03 3.406541442871093750e+01 -6.448916435241699219e+00 1.680684089660644531e+01 1.843760108947753906e+01 1.057333278656005859e+01 -1.648976516723632812e+01
3.460000000000000000e+03 3.407275390625000000e+01 -6.430885314941406250e+00 2.093133544921875000e+01 7.807878017425537109e+00 8.621764183044433594e+00 -1.118303108215332031e+01
